# vtk DataFile Version 3.0
vtk output
ASCII
DATASET UNSTRUCTURED_GRID
POINTS      5151 double 
  0.00000000E+00  0.00000000E+00  0.00000000E+00
  1.00000000E+01  0.00000000E+00  0.00000000E+00
  2.00000000E+01  0.00000000E+00  0.00000000E+00
  3.00000000E+01  0.00000000E+00  0.00000000E+00
  4.00000000E+01  0.00000000E+00  0.00000000E+00
  5.00000000E+01  0.00000000E+00  0.00000000E+00
  6.00000000E+01  0.00000000E+00  0.00000000E+00
  7.00000000E+01  0.00000000E+00  0.00000000E+00
  8.00000000E+01  0.00000000E+00  0.00000000E+00
  9.00000000E+01  0.00000000E+00  0.00000000E+00
  1.00000000E+02  0.00000000E+00  0.00000000E+00
  1.10000000E+02  0.00000000E+00  0.00000000E+00
  1.20000000E+02  0.00000000E+00  0.00000000E+00
  1.30000000E+02  0.00000000E+00  0.00000000E+00
  1.40000000E+02  0.00000000E+00  0.00000000E+00
  1.50000000E+02  0.00000000E+00  0.00000000E+00
  1.60000000E+02  0.00000000E+00  0.00000000E+00
  1.70000000E+02  0.00000000E+00  0.00000000E+00
  1.80000000E+02  0.00000000E+00  0.00000000E+00
  1.90000000E+02  0.00000000E+00  0.00000000E+00
  2.00000000E+02  0.00000000E+00  0.00000000E+00
  2.10000000E+02  0.00000000E+00  0.00000000E+00
  2.20000000E+02  0.00000000E+00  0.00000000E+00
  2.30000000E+02  0.00000000E+00  0.00000000E+00
  2.40000000E+02  0.00000000E+00  0.00000000E+00
  2.50000000E+02  0.00000000E+00  0.00000000E+00
  2.60000000E+02  0.00000000E+00  0.00000000E+00
  2.70000000E+02  0.00000000E+00  0.00000000E+00
  2.80000000E+02  0.00000000E+00  0.00000000E+00
  2.90000000E+02  0.00000000E+00  0.00000000E+00
  3.00000000E+02  0.00000000E+00  0.00000000E+00
  3.10000000E+02  0.00000000E+00  0.00000000E+00
  3.20000000E+02  0.00000000E+00  0.00000000E+00
  3.30000000E+02  0.00000000E+00  0.00000000E+00
  3.40000000E+02  0.00000000E+00  0.00000000E+00
  3.50000000E+02  0.00000000E+00  0.00000000E+00
  3.60000000E+02  0.00000000E+00  0.00000000E+00
  3.70000000E+02  0.00000000E+00  0.00000000E+00
  3.80000000E+02  0.00000000E+00  0.00000000E+00
  3.90000000E+02  0.00000000E+00  0.00000000E+00
  4.00000000E+02  0.00000000E+00  0.00000000E+00
  4.10000000E+02  0.00000000E+00  0.00000000E+00
  4.20000000E+02  0.00000000E+00  0.00000000E+00
  4.30000000E+02  0.00000000E+00  0.00000000E+00
  4.40000000E+02  0.00000000E+00  0.00000000E+00
  4.50000000E+02  0.00000000E+00  0.00000000E+00
  4.60000000E+02  0.00000000E+00  0.00000000E+00
  4.70000000E+02  0.00000000E+00  0.00000000E+00
  4.80000000E+02  0.00000000E+00  0.00000000E+00
  4.90000000E+02  0.00000000E+00  0.00000000E+00
  5.00000000E+02  0.00000000E+00  0.00000000E+00
  5.10000000E+02  0.00000000E+00  0.00000000E+00
  5.20000000E+02  0.00000000E+00  0.00000000E+00
  5.30000000E+02  0.00000000E+00  0.00000000E+00
  5.40000000E+02  0.00000000E+00  0.00000000E+00
  5.50000000E+02  0.00000000E+00  0.00000000E+00
  5.60000000E+02  0.00000000E+00  0.00000000E+00
  5.70000000E+02  0.00000000E+00  0.00000000E+00
  5.80000000E+02  0.00000000E+00  0.00000000E+00
  5.90000000E+02  0.00000000E+00  0.00000000E+00
  6.00000000E+02  0.00000000E+00  0.00000000E+00
  6.10000000E+02  0.00000000E+00  0.00000000E+00
  6.20000000E+02  0.00000000E+00  0.00000000E+00
  6.30000000E+02  0.00000000E+00  0.00000000E+00
  6.40000000E+02  0.00000000E+00  0.00000000E+00
  6.50000000E+02  0.00000000E+00  0.00000000E+00
  6.60000000E+02  0.00000000E+00  0.00000000E+00
  6.70000000E+02  0.00000000E+00  0.00000000E+00
  6.80000000E+02  0.00000000E+00  0.00000000E+00
  6.90000000E+02  0.00000000E+00  0.00000000E+00
  7.00000000E+02  0.00000000E+00  0.00000000E+00
  7.10000000E+02  0.00000000E+00  0.00000000E+00
  7.20000000E+02  0.00000000E+00  0.00000000E+00
  7.30000000E+02  0.00000000E+00  0.00000000E+00
  7.40000000E+02  0.00000000E+00  0.00000000E+00
  7.50000000E+02  0.00000000E+00  0.00000000E+00
  7.60000000E+02  0.00000000E+00  0.00000000E+00
  7.70000000E+02  0.00000000E+00  0.00000000E+00
  7.80000000E+02  0.00000000E+00  0.00000000E+00
  7.90000000E+02  0.00000000E+00  0.00000000E+00
  8.00000000E+02  0.00000000E+00  0.00000000E+00
  8.10000000E+02  0.00000000E+00  0.00000000E+00
  8.20000000E+02  0.00000000E+00  0.00000000E+00
  8.30000000E+02  0.00000000E+00  0.00000000E+00
  8.40000000E+02  0.00000000E+00  0.00000000E+00
  8.50000000E+02  0.00000000E+00  0.00000000E+00
  8.60000000E+02  0.00000000E+00  0.00000000E+00
  8.70000000E+02  0.00000000E+00  0.00000000E+00
  8.80000000E+02  0.00000000E+00  0.00000000E+00
  8.90000000E+02  0.00000000E+00  0.00000000E+00
  9.00000000E+02  0.00000000E+00  0.00000000E+00
  9.10000000E+02  0.00000000E+00  0.00000000E+00
  9.20000000E+02  0.00000000E+00  0.00000000E+00
  9.30000000E+02  0.00000000E+00  0.00000000E+00
  9.40000000E+02  0.00000000E+00  0.00000000E+00
  9.50000000E+02  0.00000000E+00  0.00000000E+00
  9.60000000E+02  0.00000000E+00  0.00000000E+00
  9.70000000E+02  0.00000000E+00  0.00000000E+00
  9.80000000E+02  0.00000000E+00  0.00000000E+00
  9.90000000E+02  0.00000000E+00  0.00000000E+00
  1.00000000E+03  0.00000000E+00  0.00000000E+00
  0.00000000E+00  2.00000000E+00  0.00000000E+00
  1.00000000E+01  2.00000000E+00  0.00000000E+00
  2.00000000E+01  2.00000000E+00  0.00000000E+00
  3.00000000E+01  2.00000000E+00  0.00000000E+00
  4.00000000E+01  2.00000000E+00  0.00000000E+00
  5.00000000E+01  2.00000000E+00  0.00000000E+00
  6.00000000E+01  2.00000000E+00  0.00000000E+00
  7.00000000E+01  2.00000000E+00  0.00000000E+00
  8.00000000E+01  2.00000000E+00  0.00000000E+00
  9.00000000E+01  2.00000000E+00  0.00000000E+00
  1.00000000E+02  2.00000000E+00  0.00000000E+00
  1.10000000E+02  2.00000000E+00  0.00000000E+00
  1.20000000E+02  2.00000000E+00  0.00000000E+00
  1.30000000E+02  2.00000000E+00  0.00000000E+00
  1.40000000E+02  2.00000000E+00  0.00000000E+00
  1.50000000E+02  2.00000000E+00  0.00000000E+00
  1.60000000E+02  2.00000000E+00  0.00000000E+00
  1.70000000E+02  2.00000000E+00  0.00000000E+00
  1.80000000E+02  2.00000000E+00  0.00000000E+00
  1.90000000E+02  2.00000000E+00  0.00000000E+00
  2.00000000E+02  2.00000000E+00  0.00000000E+00
  2.10000000E+02  2.00000000E+00  0.00000000E+00
  2.20000000E+02  2.00000000E+00  0.00000000E+00
  2.30000000E+02  2.00000000E+00  0.00000000E+00
  2.40000000E+02  2.00000000E+00  0.00000000E+00
  2.50000000E+02  2.00000000E+00  0.00000000E+00
  2.60000000E+02  2.00000000E+00  0.00000000E+00
  2.70000000E+02  2.00000000E+00  0.00000000E+00
  2.80000000E+02  2.00000000E+00  0.00000000E+00
  2.90000000E+02  2.00000000E+00  0.00000000E+00
  3.00000000E+02  2.00000000E+00  0.00000000E+00
  3.10000000E+02  2.00000000E+00  0.00000000E+00
  3.20000000E+02  2.00000000E+00  0.00000000E+00
  3.30000000E+02  2.00000000E+00  0.00000000E+00
  3.40000000E+02  2.00000000E+00  0.00000000E+00
  3.50000000E+02  2.00000000E+00  0.00000000E+00
  3.60000000E+02  2.00000000E+00  0.00000000E+00
  3.70000000E+02  2.00000000E+00  0.00000000E+00
  3.80000000E+02  2.00000000E+00  0.00000000E+00
  3.90000000E+02  2.00000000E+00  0.00000000E+00
  4.00000000E+02  2.00000000E+00  0.00000000E+00
  4.10000000E+02  2.00000000E+00  0.00000000E+00
  4.20000000E+02  2.00000000E+00  0.00000000E+00
  4.30000000E+02  2.00000000E+00  0.00000000E+00
  4.40000000E+02  2.00000000E+00  0.00000000E+00
  4.50000000E+02  2.00000000E+00  0.00000000E+00
  4.60000000E+02  2.00000000E+00  0.00000000E+00
  4.70000000E+02  2.00000000E+00  0.00000000E+00
  4.80000000E+02  2.00000000E+00  0.00000000E+00
  4.90000000E+02  2.00000000E+00  0.00000000E+00
  5.00000000E+02  2.00000000E+00  0.00000000E+00
  5.10000000E+02  2.00000000E+00  0.00000000E+00
  5.20000000E+02  2.00000000E+00  0.00000000E+00
  5.30000000E+02  2.00000000E+00  0.00000000E+00
  5.40000000E+02  2.00000000E+00  0.00000000E+00
  5.50000000E+02  2.00000000E+00  0.00000000E+00
  5.60000000E+02  2.00000000E+00  0.00000000E+00
  5.70000000E+02  2.00000000E+00  0.00000000E+00
  5.80000000E+02  2.00000000E+00  0.00000000E+00
  5.90000000E+02  2.00000000E+00  0.00000000E+00
  6.00000000E+02  2.00000000E+00  0.00000000E+00
  6.10000000E+02  2.00000000E+00  0.00000000E+00
  6.20000000E+02  2.00000000E+00  0.00000000E+00
  6.30000000E+02  2.00000000E+00  0.00000000E+00
  6.40000000E+02  2.00000000E+00  0.00000000E+00
  6.50000000E+02  2.00000000E+00  0.00000000E+00
  6.60000000E+02  2.00000000E+00  0.00000000E+00
  6.70000000E+02  2.00000000E+00  0.00000000E+00
  6.80000000E+02  2.00000000E+00  0.00000000E+00
  6.90000000E+02  2.00000000E+00  0.00000000E+00
  7.00000000E+02  2.00000000E+00  0.00000000E+00
  7.10000000E+02  2.00000000E+00  0.00000000E+00
  7.20000000E+02  2.00000000E+00  0.00000000E+00
  7.30000000E+02  2.00000000E+00  0.00000000E+00
  7.40000000E+02  2.00000000E+00  0.00000000E+00
  7.50000000E+02  2.00000000E+00  0.00000000E+00
  7.60000000E+02  2.00000000E+00  0.00000000E+00
  7.70000000E+02  2.00000000E+00  0.00000000E+00
  7.80000000E+02  2.00000000E+00  0.00000000E+00
  7.90000000E+02  2.00000000E+00  0.00000000E+00
  8.00000000E+02  2.00000000E+00  0.00000000E+00
  8.10000000E+02  2.00000000E+00  0.00000000E+00
  8.20000000E+02  2.00000000E+00  0.00000000E+00
  8.30000000E+02  2.00000000E+00  0.00000000E+00
  8.40000000E+02  2.00000000E+00  0.00000000E+00
  8.50000000E+02  2.00000000E+00  0.00000000E+00
  8.60000000E+02  2.00000000E+00  0.00000000E+00
  8.70000000E+02  2.00000000E+00  0.00000000E+00
  8.80000000E+02  2.00000000E+00  0.00000000E+00
  8.90000000E+02  2.00000000E+00  0.00000000E+00
  9.00000000E+02  2.00000000E+00  0.00000000E+00
  9.10000000E+02  2.00000000E+00  0.00000000E+00
  9.20000000E+02  2.00000000E+00  0.00000000E+00
  9.30000000E+02  2.00000000E+00  0.00000000E+00
  9.40000000E+02  2.00000000E+00  0.00000000E+00
  9.50000000E+02  2.00000000E+00  0.00000000E+00
  9.60000000E+02  2.00000000E+00  0.00000000E+00
  9.70000000E+02  2.00000000E+00  0.00000000E+00
  9.80000000E+02  2.00000000E+00  0.00000000E+00
  9.90000000E+02  2.00000000E+00  0.00000000E+00
  1.00000000E+03  2.00000000E+00  0.00000000E+00
  0.00000000E+00  4.00000000E+00  0.00000000E+00
  1.00000000E+01  4.00000000E+00  0.00000000E+00
  2.00000000E+01  4.00000000E+00  0.00000000E+00
  3.00000000E+01  4.00000000E+00  0.00000000E+00
  4.00000000E+01  4.00000000E+00  0.00000000E+00
  5.00000000E+01  4.00000000E+00  0.00000000E+00
  6.00000000E+01  4.00000000E+00  0.00000000E+00
  7.00000000E+01  4.00000000E+00  0.00000000E+00
  8.00000000E+01  4.00000000E+00  0.00000000E+00
  9.00000000E+01  4.00000000E+00  0.00000000E+00
  1.00000000E+02  4.00000000E+00  0.00000000E+00
  1.10000000E+02  4.00000000E+00  0.00000000E+00
  1.20000000E+02  4.00000000E+00  0.00000000E+00
  1.30000000E+02  4.00000000E+00  0.00000000E+00
  1.40000000E+02  4.00000000E+00  0.00000000E+00
  1.50000000E+02  4.00000000E+00  0.00000000E+00
  1.60000000E+02  4.00000000E+00  0.00000000E+00
  1.70000000E+02  4.00000000E+00  0.00000000E+00
  1.80000000E+02  4.00000000E+00  0.00000000E+00
  1.90000000E+02  4.00000000E+00  0.00000000E+00
  2.00000000E+02  4.00000000E+00  0.00000000E+00
  2.10000000E+02  4.00000000E+00  0.00000000E+00
  2.20000000E+02  4.00000000E+00  0.00000000E+00
  2.30000000E+02  4.00000000E+00  0.00000000E+00
  2.40000000E+02  4.00000000E+00  0.00000000E+00
  2.50000000E+02  4.00000000E+00  0.00000000E+00
  2.60000000E+02  4.00000000E+00  0.00000000E+00
  2.70000000E+02  4.00000000E+00  0.00000000E+00
  2.80000000E+02  4.00000000E+00  0.00000000E+00
  2.90000000E+02  4.00000000E+00  0.00000000E+00
  3.00000000E+02  4.00000000E+00  0.00000000E+00
  3.10000000E+02  4.00000000E+00  0.00000000E+00
  3.20000000E+02  4.00000000E+00  0.00000000E+00
  3.30000000E+02  4.00000000E+00  0.00000000E+00
  3.40000000E+02  4.00000000E+00  0.00000000E+00
  3.50000000E+02  4.00000000E+00  0.00000000E+00
  3.60000000E+02  4.00000000E+00  0.00000000E+00
  3.70000000E+02  4.00000000E+00  0.00000000E+00
  3.80000000E+02  4.00000000E+00  0.00000000E+00
  3.90000000E+02  4.00000000E+00  0.00000000E+00
  4.00000000E+02  4.00000000E+00  0.00000000E+00
  4.10000000E+02  4.00000000E+00  0.00000000E+00
  4.20000000E+02  4.00000000E+00  0.00000000E+00
  4.30000000E+02  4.00000000E+00  0.00000000E+00
  4.40000000E+02  4.00000000E+00  0.00000000E+00
  4.50000000E+02  4.00000000E+00  0.00000000E+00
  4.60000000E+02  4.00000000E+00  0.00000000E+00
  4.70000000E+02  4.00000000E+00  0.00000000E+00
  4.80000000E+02  4.00000000E+00  0.00000000E+00
  4.90000000E+02  4.00000000E+00  0.00000000E+00
  5.00000000E+02  4.00000000E+00  0.00000000E+00
  5.10000000E+02  4.00000000E+00  0.00000000E+00
  5.20000000E+02  4.00000000E+00  0.00000000E+00
  5.30000000E+02  4.00000000E+00  0.00000000E+00
  5.40000000E+02  4.00000000E+00  0.00000000E+00
  5.50000000E+02  4.00000000E+00  0.00000000E+00
  5.60000000E+02  4.00000000E+00  0.00000000E+00
  5.70000000E+02  4.00000000E+00  0.00000000E+00
  5.80000000E+02  4.00000000E+00  0.00000000E+00
  5.90000000E+02  4.00000000E+00  0.00000000E+00
  6.00000000E+02  4.00000000E+00  0.00000000E+00
  6.10000000E+02  4.00000000E+00  0.00000000E+00
  6.20000000E+02  4.00000000E+00  0.00000000E+00
  6.30000000E+02  4.00000000E+00  0.00000000E+00
  6.40000000E+02  4.00000000E+00  0.00000000E+00
  6.50000000E+02  4.00000000E+00  0.00000000E+00
  6.60000000E+02  4.00000000E+00  0.00000000E+00
  6.70000000E+02  4.00000000E+00  0.00000000E+00
  6.80000000E+02  4.00000000E+00  0.00000000E+00
  6.90000000E+02  4.00000000E+00  0.00000000E+00
  7.00000000E+02  4.00000000E+00  0.00000000E+00
  7.10000000E+02  4.00000000E+00  0.00000000E+00
  7.20000000E+02  4.00000000E+00  0.00000000E+00
  7.30000000E+02  4.00000000E+00  0.00000000E+00
  7.40000000E+02  4.00000000E+00  0.00000000E+00
  7.50000000E+02  4.00000000E+00  0.00000000E+00
  7.60000000E+02  4.00000000E+00  0.00000000E+00
  7.70000000E+02  4.00000000E+00  0.00000000E+00
  7.80000000E+02  4.00000000E+00  0.00000000E+00
  7.90000000E+02  4.00000000E+00  0.00000000E+00
  8.00000000E+02  4.00000000E+00  0.00000000E+00
  8.10000000E+02  4.00000000E+00  0.00000000E+00
  8.20000000E+02  4.00000000E+00  0.00000000E+00
  8.30000000E+02  4.00000000E+00  0.00000000E+00
  8.40000000E+02  4.00000000E+00  0.00000000E+00
  8.50000000E+02  4.00000000E+00  0.00000000E+00
  8.60000000E+02  4.00000000E+00  0.00000000E+00
  8.70000000E+02  4.00000000E+00  0.00000000E+00
  8.80000000E+02  4.00000000E+00  0.00000000E+00
  8.90000000E+02  4.00000000E+00  0.00000000E+00
  9.00000000E+02  4.00000000E+00  0.00000000E+00
  9.10000000E+02  4.00000000E+00  0.00000000E+00
  9.20000000E+02  4.00000000E+00  0.00000000E+00
  9.30000000E+02  4.00000000E+00  0.00000000E+00
  9.40000000E+02  4.00000000E+00  0.00000000E+00
  9.50000000E+02  4.00000000E+00  0.00000000E+00
  9.60000000E+02  4.00000000E+00  0.00000000E+00
  9.70000000E+02  4.00000000E+00  0.00000000E+00
  9.80000000E+02  4.00000000E+00  0.00000000E+00
  9.90000000E+02  4.00000000E+00  0.00000000E+00
  1.00000000E+03  4.00000000E+00  0.00000000E+00
  0.00000000E+00  6.00000000E+00  0.00000000E+00
  1.00000000E+01  6.00000000E+00  0.00000000E+00
  2.00000000E+01  6.00000000E+00  0.00000000E+00
  3.00000000E+01  6.00000000E+00  0.00000000E+00
  4.00000000E+01  6.00000000E+00  0.00000000E+00
  5.00000000E+01  6.00000000E+00  0.00000000E+00
  6.00000000E+01  6.00000000E+00  0.00000000E+00
  7.00000000E+01  6.00000000E+00  0.00000000E+00
  8.00000000E+01  6.00000000E+00  0.00000000E+00
  9.00000000E+01  6.00000000E+00  0.00000000E+00
  1.00000000E+02  6.00000000E+00  0.00000000E+00
  1.10000000E+02  6.00000000E+00  0.00000000E+00
  1.20000000E+02  6.00000000E+00  0.00000000E+00
  1.30000000E+02  6.00000000E+00  0.00000000E+00
  1.40000000E+02  6.00000000E+00  0.00000000E+00
  1.50000000E+02  6.00000000E+00  0.00000000E+00
  1.60000000E+02  6.00000000E+00  0.00000000E+00
  1.70000000E+02  6.00000000E+00  0.00000000E+00
  1.80000000E+02  6.00000000E+00  0.00000000E+00
  1.90000000E+02  6.00000000E+00  0.00000000E+00
  2.00000000E+02  6.00000000E+00  0.00000000E+00
  2.10000000E+02  6.00000000E+00  0.00000000E+00
  2.20000000E+02  6.00000000E+00  0.00000000E+00
  2.30000000E+02  6.00000000E+00  0.00000000E+00
  2.40000000E+02  6.00000000E+00  0.00000000E+00
  2.50000000E+02  6.00000000E+00  0.00000000E+00
  2.60000000E+02  6.00000000E+00  0.00000000E+00
  2.70000000E+02  6.00000000E+00  0.00000000E+00
  2.80000000E+02  6.00000000E+00  0.00000000E+00
  2.90000000E+02  6.00000000E+00  0.00000000E+00
  3.00000000E+02  6.00000000E+00  0.00000000E+00
  3.10000000E+02  6.00000000E+00  0.00000000E+00
  3.20000000E+02  6.00000000E+00  0.00000000E+00
  3.30000000E+02  6.00000000E+00  0.00000000E+00
  3.40000000E+02  6.00000000E+00  0.00000000E+00
  3.50000000E+02  6.00000000E+00  0.00000000E+00
  3.60000000E+02  6.00000000E+00  0.00000000E+00
  3.70000000E+02  6.00000000E+00  0.00000000E+00
  3.80000000E+02  6.00000000E+00  0.00000000E+00
  3.90000000E+02  6.00000000E+00  0.00000000E+00
  4.00000000E+02  6.00000000E+00  0.00000000E+00
  4.10000000E+02  6.00000000E+00  0.00000000E+00
  4.20000000E+02  6.00000000E+00  0.00000000E+00
  4.30000000E+02  6.00000000E+00  0.00000000E+00
  4.40000000E+02  6.00000000E+00  0.00000000E+00
  4.50000000E+02  6.00000000E+00  0.00000000E+00
  4.60000000E+02  6.00000000E+00  0.00000000E+00
  4.70000000E+02  6.00000000E+00  0.00000000E+00
  4.80000000E+02  6.00000000E+00  0.00000000E+00
  4.90000000E+02  6.00000000E+00  0.00000000E+00
  5.00000000E+02  6.00000000E+00  0.00000000E+00
  5.10000000E+02  6.00000000E+00  0.00000000E+00
  5.20000000E+02  6.00000000E+00  0.00000000E+00
  5.30000000E+02  6.00000000E+00  0.00000000E+00
  5.40000000E+02  6.00000000E+00  0.00000000E+00
  5.50000000E+02  6.00000000E+00  0.00000000E+00
  5.60000000E+02  6.00000000E+00  0.00000000E+00
  5.70000000E+02  6.00000000E+00  0.00000000E+00
  5.80000000E+02  6.00000000E+00  0.00000000E+00
  5.90000000E+02  6.00000000E+00  0.00000000E+00
  6.00000000E+02  6.00000000E+00  0.00000000E+00
  6.10000000E+02  6.00000000E+00  0.00000000E+00
  6.20000000E+02  6.00000000E+00  0.00000000E+00
  6.30000000E+02  6.00000000E+00  0.00000000E+00
  6.40000000E+02  6.00000000E+00  0.00000000E+00
  6.50000000E+02  6.00000000E+00  0.00000000E+00
  6.60000000E+02  6.00000000E+00  0.00000000E+00
  6.70000000E+02  6.00000000E+00  0.00000000E+00
  6.80000000E+02  6.00000000E+00  0.00000000E+00
  6.90000000E+02  6.00000000E+00  0.00000000E+00
  7.00000000E+02  6.00000000E+00  0.00000000E+00
  7.10000000E+02  6.00000000E+00  0.00000000E+00
  7.20000000E+02  6.00000000E+00  0.00000000E+00
  7.30000000E+02  6.00000000E+00  0.00000000E+00
  7.40000000E+02  6.00000000E+00  0.00000000E+00
  7.50000000E+02  6.00000000E+00  0.00000000E+00
  7.60000000E+02  6.00000000E+00  0.00000000E+00
  7.70000000E+02  6.00000000E+00  0.00000000E+00
  7.80000000E+02  6.00000000E+00  0.00000000E+00
  7.90000000E+02  6.00000000E+00  0.00000000E+00
  8.00000000E+02  6.00000000E+00  0.00000000E+00
  8.10000000E+02  6.00000000E+00  0.00000000E+00
  8.20000000E+02  6.00000000E+00  0.00000000E+00
  8.30000000E+02  6.00000000E+00  0.00000000E+00
  8.40000000E+02  6.00000000E+00  0.00000000E+00
  8.50000000E+02  6.00000000E+00  0.00000000E+00
  8.60000000E+02  6.00000000E+00  0.00000000E+00
  8.70000000E+02  6.00000000E+00  0.00000000E+00
  8.80000000E+02  6.00000000E+00  0.00000000E+00
  8.90000000E+02  6.00000000E+00  0.00000000E+00
  9.00000000E+02  6.00000000E+00  0.00000000E+00
  9.10000000E+02  6.00000000E+00  0.00000000E+00
  9.20000000E+02  6.00000000E+00  0.00000000E+00
  9.30000000E+02  6.00000000E+00  0.00000000E+00
  9.40000000E+02  6.00000000E+00  0.00000000E+00
  9.50000000E+02  6.00000000E+00  0.00000000E+00
  9.60000000E+02  6.00000000E+00  0.00000000E+00
  9.70000000E+02  6.00000000E+00  0.00000000E+00
  9.80000000E+02  6.00000000E+00  0.00000000E+00
  9.90000000E+02  6.00000000E+00  0.00000000E+00
  1.00000000E+03  6.00000000E+00  0.00000000E+00
  0.00000000E+00  8.00000000E+00  0.00000000E+00
  1.00000000E+01  8.00000000E+00  0.00000000E+00
  2.00000000E+01  8.00000000E+00  0.00000000E+00
  3.00000000E+01  8.00000000E+00  0.00000000E+00
  4.00000000E+01  8.00000000E+00  0.00000000E+00
  5.00000000E+01  8.00000000E+00  0.00000000E+00
  6.00000000E+01  8.00000000E+00  0.00000000E+00
  7.00000000E+01  8.00000000E+00  0.00000000E+00
  8.00000000E+01  8.00000000E+00  0.00000000E+00
  9.00000000E+01  8.00000000E+00  0.00000000E+00
  1.00000000E+02  8.00000000E+00  0.00000000E+00
  1.10000000E+02  8.00000000E+00  0.00000000E+00
  1.20000000E+02  8.00000000E+00  0.00000000E+00
  1.30000000E+02  8.00000000E+00  0.00000000E+00
  1.40000000E+02  8.00000000E+00  0.00000000E+00
  1.50000000E+02  8.00000000E+00  0.00000000E+00
  1.60000000E+02  8.00000000E+00  0.00000000E+00
  1.70000000E+02  8.00000000E+00  0.00000000E+00
  1.80000000E+02  8.00000000E+00  0.00000000E+00
  1.90000000E+02  8.00000000E+00  0.00000000E+00
  2.00000000E+02  8.00000000E+00  0.00000000E+00
  2.10000000E+02  8.00000000E+00  0.00000000E+00
  2.20000000E+02  8.00000000E+00  0.00000000E+00
  2.30000000E+02  8.00000000E+00  0.00000000E+00
  2.40000000E+02  8.00000000E+00  0.00000000E+00
  2.50000000E+02  8.00000000E+00  0.00000000E+00
  2.60000000E+02  8.00000000E+00  0.00000000E+00
  2.70000000E+02  8.00000000E+00  0.00000000E+00
  2.80000000E+02  8.00000000E+00  0.00000000E+00
  2.90000000E+02  8.00000000E+00  0.00000000E+00
  3.00000000E+02  8.00000000E+00  0.00000000E+00
  3.10000000E+02  8.00000000E+00  0.00000000E+00
  3.20000000E+02  8.00000000E+00  0.00000000E+00
  3.30000000E+02  8.00000000E+00  0.00000000E+00
  3.40000000E+02  8.00000000E+00  0.00000000E+00
  3.50000000E+02  8.00000000E+00  0.00000000E+00
  3.60000000E+02  8.00000000E+00  0.00000000E+00
  3.70000000E+02  8.00000000E+00  0.00000000E+00
  3.80000000E+02  8.00000000E+00  0.00000000E+00
  3.90000000E+02  8.00000000E+00  0.00000000E+00
  4.00000000E+02  8.00000000E+00  0.00000000E+00
  4.10000000E+02  8.00000000E+00  0.00000000E+00
  4.20000000E+02  8.00000000E+00  0.00000000E+00
  4.30000000E+02  8.00000000E+00  0.00000000E+00
  4.40000000E+02  8.00000000E+00  0.00000000E+00
  4.50000000E+02  8.00000000E+00  0.00000000E+00
  4.60000000E+02  8.00000000E+00  0.00000000E+00
  4.70000000E+02  8.00000000E+00  0.00000000E+00
  4.80000000E+02  8.00000000E+00  0.00000000E+00
  4.90000000E+02  8.00000000E+00  0.00000000E+00
  5.00000000E+02  8.00000000E+00  0.00000000E+00
  5.10000000E+02  8.00000000E+00  0.00000000E+00
  5.20000000E+02  8.00000000E+00  0.00000000E+00
  5.30000000E+02  8.00000000E+00  0.00000000E+00
  5.40000000E+02  8.00000000E+00  0.00000000E+00
  5.50000000E+02  8.00000000E+00  0.00000000E+00
  5.60000000E+02  8.00000000E+00  0.00000000E+00
  5.70000000E+02  8.00000000E+00  0.00000000E+00
  5.80000000E+02  8.00000000E+00  0.00000000E+00
  5.90000000E+02  8.00000000E+00  0.00000000E+00
  6.00000000E+02  8.00000000E+00  0.00000000E+00
  6.10000000E+02  8.00000000E+00  0.00000000E+00
  6.20000000E+02  8.00000000E+00  0.00000000E+00
  6.30000000E+02  8.00000000E+00  0.00000000E+00
  6.40000000E+02  8.00000000E+00  0.00000000E+00
  6.50000000E+02  8.00000000E+00  0.00000000E+00
  6.60000000E+02  8.00000000E+00  0.00000000E+00
  6.70000000E+02  8.00000000E+00  0.00000000E+00
  6.80000000E+02  8.00000000E+00  0.00000000E+00
  6.90000000E+02  8.00000000E+00  0.00000000E+00
  7.00000000E+02  8.00000000E+00  0.00000000E+00
  7.10000000E+02  8.00000000E+00  0.00000000E+00
  7.20000000E+02  8.00000000E+00  0.00000000E+00
  7.30000000E+02  8.00000000E+00  0.00000000E+00
  7.40000000E+02  8.00000000E+00  0.00000000E+00
  7.50000000E+02  8.00000000E+00  0.00000000E+00
  7.60000000E+02  8.00000000E+00  0.00000000E+00
  7.70000000E+02  8.00000000E+00  0.00000000E+00
  7.80000000E+02  8.00000000E+00  0.00000000E+00
  7.90000000E+02  8.00000000E+00  0.00000000E+00
  8.00000000E+02  8.00000000E+00  0.00000000E+00
  8.10000000E+02  8.00000000E+00  0.00000000E+00
  8.20000000E+02  8.00000000E+00  0.00000000E+00
  8.30000000E+02  8.00000000E+00  0.00000000E+00
  8.40000000E+02  8.00000000E+00  0.00000000E+00
  8.50000000E+02  8.00000000E+00  0.00000000E+00
  8.60000000E+02  8.00000000E+00  0.00000000E+00
  8.70000000E+02  8.00000000E+00  0.00000000E+00
  8.80000000E+02  8.00000000E+00  0.00000000E+00
  8.90000000E+02  8.00000000E+00  0.00000000E+00
  9.00000000E+02  8.00000000E+00  0.00000000E+00
  9.10000000E+02  8.00000000E+00  0.00000000E+00
  9.20000000E+02  8.00000000E+00  0.00000000E+00
  9.30000000E+02  8.00000000E+00  0.00000000E+00
  9.40000000E+02  8.00000000E+00  0.00000000E+00
  9.50000000E+02  8.00000000E+00  0.00000000E+00
  9.60000000E+02  8.00000000E+00  0.00000000E+00
  9.70000000E+02  8.00000000E+00  0.00000000E+00
  9.80000000E+02  8.00000000E+00  0.00000000E+00
  9.90000000E+02  8.00000000E+00  0.00000000E+00
  1.00000000E+03  8.00000000E+00  0.00000000E+00
  0.00000000E+00  1.00000000E+01  0.00000000E+00
  1.00000000E+01  1.00000000E+01  0.00000000E+00
  2.00000000E+01  1.00000000E+01  0.00000000E+00
  3.00000000E+01  1.00000000E+01  0.00000000E+00
  4.00000000E+01  1.00000000E+01  0.00000000E+00
  5.00000000E+01  1.00000000E+01  0.00000000E+00
  6.00000000E+01  1.00000000E+01  0.00000000E+00
  7.00000000E+01  1.00000000E+01  0.00000000E+00
  8.00000000E+01  1.00000000E+01  0.00000000E+00
  9.00000000E+01  1.00000000E+01  0.00000000E+00
  1.00000000E+02  1.00000000E+01  0.00000000E+00
  1.10000000E+02  1.00000000E+01  0.00000000E+00
  1.20000000E+02  1.00000000E+01  0.00000000E+00
  1.30000000E+02  1.00000000E+01  0.00000000E+00
  1.40000000E+02  1.00000000E+01  0.00000000E+00
  1.50000000E+02  1.00000000E+01  0.00000000E+00
  1.60000000E+02  1.00000000E+01  0.00000000E+00
  1.70000000E+02  1.00000000E+01  0.00000000E+00
  1.80000000E+02  1.00000000E+01  0.00000000E+00
  1.90000000E+02  1.00000000E+01  0.00000000E+00
  2.00000000E+02  1.00000000E+01  0.00000000E+00
  2.10000000E+02  1.00000000E+01  0.00000000E+00
  2.20000000E+02  1.00000000E+01  0.00000000E+00
  2.30000000E+02  1.00000000E+01  0.00000000E+00
  2.40000000E+02  1.00000000E+01  0.00000000E+00
  2.50000000E+02  1.00000000E+01  0.00000000E+00
  2.60000000E+02  1.00000000E+01  0.00000000E+00
  2.70000000E+02  1.00000000E+01  0.00000000E+00
  2.80000000E+02  1.00000000E+01  0.00000000E+00
  2.90000000E+02  1.00000000E+01  0.00000000E+00
  3.00000000E+02  1.00000000E+01  0.00000000E+00
  3.10000000E+02  1.00000000E+01  0.00000000E+00
  3.20000000E+02  1.00000000E+01  0.00000000E+00
  3.30000000E+02  1.00000000E+01  0.00000000E+00
  3.40000000E+02  1.00000000E+01  0.00000000E+00
  3.50000000E+02  1.00000000E+01  0.00000000E+00
  3.60000000E+02  1.00000000E+01  0.00000000E+00
  3.70000000E+02  1.00000000E+01  0.00000000E+00
  3.80000000E+02  1.00000000E+01  0.00000000E+00
  3.90000000E+02  1.00000000E+01  0.00000000E+00
  4.00000000E+02  1.00000000E+01  0.00000000E+00
  4.10000000E+02  1.00000000E+01  0.00000000E+00
  4.20000000E+02  1.00000000E+01  0.00000000E+00
  4.30000000E+02  1.00000000E+01  0.00000000E+00
  4.40000000E+02  1.00000000E+01  0.00000000E+00
  4.50000000E+02  1.00000000E+01  0.00000000E+00
  4.60000000E+02  1.00000000E+01  0.00000000E+00
  4.70000000E+02  1.00000000E+01  0.00000000E+00
  4.80000000E+02  1.00000000E+01  0.00000000E+00
  4.90000000E+02  1.00000000E+01  0.00000000E+00
  5.00000000E+02  1.00000000E+01  0.00000000E+00
  5.10000000E+02  1.00000000E+01  0.00000000E+00
  5.20000000E+02  1.00000000E+01  0.00000000E+00
  5.30000000E+02  1.00000000E+01  0.00000000E+00
  5.40000000E+02  1.00000000E+01  0.00000000E+00
  5.50000000E+02  1.00000000E+01  0.00000000E+00
  5.60000000E+02  1.00000000E+01  0.00000000E+00
  5.70000000E+02  1.00000000E+01  0.00000000E+00
  5.80000000E+02  1.00000000E+01  0.00000000E+00
  5.90000000E+02  1.00000000E+01  0.00000000E+00
  6.00000000E+02  1.00000000E+01  0.00000000E+00
  6.10000000E+02  1.00000000E+01  0.00000000E+00
  6.20000000E+02  1.00000000E+01  0.00000000E+00
  6.30000000E+02  1.00000000E+01  0.00000000E+00
  6.40000000E+02  1.00000000E+01  0.00000000E+00
  6.50000000E+02  1.00000000E+01  0.00000000E+00
  6.60000000E+02  1.00000000E+01  0.00000000E+00
  6.70000000E+02  1.00000000E+01  0.00000000E+00
  6.80000000E+02  1.00000000E+01  0.00000000E+00
  6.90000000E+02  1.00000000E+01  0.00000000E+00
  7.00000000E+02  1.00000000E+01  0.00000000E+00
  7.10000000E+02  1.00000000E+01  0.00000000E+00
  7.20000000E+02  1.00000000E+01  0.00000000E+00
  7.30000000E+02  1.00000000E+01  0.00000000E+00
  7.40000000E+02  1.00000000E+01  0.00000000E+00
  7.50000000E+02  1.00000000E+01  0.00000000E+00
  7.60000000E+02  1.00000000E+01  0.00000000E+00
  7.70000000E+02  1.00000000E+01  0.00000000E+00
  7.80000000E+02  1.00000000E+01  0.00000000E+00
  7.90000000E+02  1.00000000E+01  0.00000000E+00
  8.00000000E+02  1.00000000E+01  0.00000000E+00
  8.10000000E+02  1.00000000E+01  0.00000000E+00
  8.20000000E+02  1.00000000E+01  0.00000000E+00
  8.30000000E+02  1.00000000E+01  0.00000000E+00
  8.40000000E+02  1.00000000E+01  0.00000000E+00
  8.50000000E+02  1.00000000E+01  0.00000000E+00
  8.60000000E+02  1.00000000E+01  0.00000000E+00
  8.70000000E+02  1.00000000E+01  0.00000000E+00
  8.80000000E+02  1.00000000E+01  0.00000000E+00
  8.90000000E+02  1.00000000E+01  0.00000000E+00
  9.00000000E+02  1.00000000E+01  0.00000000E+00
  9.10000000E+02  1.00000000E+01  0.00000000E+00
  9.20000000E+02  1.00000000E+01  0.00000000E+00
  9.30000000E+02  1.00000000E+01  0.00000000E+00
  9.40000000E+02  1.00000000E+01  0.00000000E+00
  9.50000000E+02  1.00000000E+01  0.00000000E+00
  9.60000000E+02  1.00000000E+01  0.00000000E+00
  9.70000000E+02  1.00000000E+01  0.00000000E+00
  9.80000000E+02  1.00000000E+01  0.00000000E+00
  9.90000000E+02  1.00000000E+01  0.00000000E+00
  1.00000000E+03  1.00000000E+01  0.00000000E+00
  0.00000000E+00  1.20000000E+01  0.00000000E+00
  1.00000000E+01  1.20000000E+01  0.00000000E+00
  2.00000000E+01  1.20000000E+01  0.00000000E+00
  3.00000000E+01  1.20000000E+01  0.00000000E+00
  4.00000000E+01  1.20000000E+01  0.00000000E+00
  5.00000000E+01  1.20000000E+01  0.00000000E+00
  6.00000000E+01  1.20000000E+01  0.00000000E+00
  7.00000000E+01  1.20000000E+01  0.00000000E+00
  8.00000000E+01  1.20000000E+01  0.00000000E+00
  9.00000000E+01  1.20000000E+01  0.00000000E+00
  1.00000000E+02  1.20000000E+01  0.00000000E+00
  1.10000000E+02  1.20000000E+01  0.00000000E+00
  1.20000000E+02  1.20000000E+01  0.00000000E+00
  1.30000000E+02  1.20000000E+01  0.00000000E+00
  1.40000000E+02  1.20000000E+01  0.00000000E+00
  1.50000000E+02  1.20000000E+01  0.00000000E+00
  1.60000000E+02  1.20000000E+01  0.00000000E+00
  1.70000000E+02  1.20000000E+01  0.00000000E+00
  1.80000000E+02  1.20000000E+01  0.00000000E+00
  1.90000000E+02  1.20000000E+01  0.00000000E+00
  2.00000000E+02  1.20000000E+01  0.00000000E+00
  2.10000000E+02  1.20000000E+01  0.00000000E+00
  2.20000000E+02  1.20000000E+01  0.00000000E+00
  2.30000000E+02  1.20000000E+01  0.00000000E+00
  2.40000000E+02  1.20000000E+01  0.00000000E+00
  2.50000000E+02  1.20000000E+01  0.00000000E+00
  2.60000000E+02  1.20000000E+01  0.00000000E+00
  2.70000000E+02  1.20000000E+01  0.00000000E+00
  2.80000000E+02  1.20000000E+01  0.00000000E+00
  2.90000000E+02  1.20000000E+01  0.00000000E+00
  3.00000000E+02  1.20000000E+01  0.00000000E+00
  3.10000000E+02  1.20000000E+01  0.00000000E+00
  3.20000000E+02  1.20000000E+01  0.00000000E+00
  3.30000000E+02  1.20000000E+01  0.00000000E+00
  3.40000000E+02  1.20000000E+01  0.00000000E+00
  3.50000000E+02  1.20000000E+01  0.00000000E+00
  3.60000000E+02  1.20000000E+01  0.00000000E+00
  3.70000000E+02  1.20000000E+01  0.00000000E+00
  3.80000000E+02  1.20000000E+01  0.00000000E+00
  3.90000000E+02  1.20000000E+01  0.00000000E+00
  4.00000000E+02  1.20000000E+01  0.00000000E+00
  4.10000000E+02  1.20000000E+01  0.00000000E+00
  4.20000000E+02  1.20000000E+01  0.00000000E+00
  4.30000000E+02  1.20000000E+01  0.00000000E+00
  4.40000000E+02  1.20000000E+01  0.00000000E+00
  4.50000000E+02  1.20000000E+01  0.00000000E+00
  4.60000000E+02  1.20000000E+01  0.00000000E+00
  4.70000000E+02  1.20000000E+01  0.00000000E+00
  4.80000000E+02  1.20000000E+01  0.00000000E+00
  4.90000000E+02  1.20000000E+01  0.00000000E+00
  5.00000000E+02  1.20000000E+01  0.00000000E+00
  5.10000000E+02  1.20000000E+01  0.00000000E+00
  5.20000000E+02  1.20000000E+01  0.00000000E+00
  5.30000000E+02  1.20000000E+01  0.00000000E+00
  5.40000000E+02  1.20000000E+01  0.00000000E+00
  5.50000000E+02  1.20000000E+01  0.00000000E+00
  5.60000000E+02  1.20000000E+01  0.00000000E+00
  5.70000000E+02  1.20000000E+01  0.00000000E+00
  5.80000000E+02  1.20000000E+01  0.00000000E+00
  5.90000000E+02  1.20000000E+01  0.00000000E+00
  6.00000000E+02  1.20000000E+01  0.00000000E+00
  6.10000000E+02  1.20000000E+01  0.00000000E+00
  6.20000000E+02  1.20000000E+01  0.00000000E+00
  6.30000000E+02  1.20000000E+01  0.00000000E+00
  6.40000000E+02  1.20000000E+01  0.00000000E+00
  6.50000000E+02  1.20000000E+01  0.00000000E+00
  6.60000000E+02  1.20000000E+01  0.00000000E+00
  6.70000000E+02  1.20000000E+01  0.00000000E+00
  6.80000000E+02  1.20000000E+01  0.00000000E+00
  6.90000000E+02  1.20000000E+01  0.00000000E+00
  7.00000000E+02  1.20000000E+01  0.00000000E+00
  7.10000000E+02  1.20000000E+01  0.00000000E+00
  7.20000000E+02  1.20000000E+01  0.00000000E+00
  7.30000000E+02  1.20000000E+01  0.00000000E+00
  7.40000000E+02  1.20000000E+01  0.00000000E+00
  7.50000000E+02  1.20000000E+01  0.00000000E+00
  7.60000000E+02  1.20000000E+01  0.00000000E+00
  7.70000000E+02  1.20000000E+01  0.00000000E+00
  7.80000000E+02  1.20000000E+01  0.00000000E+00
  7.90000000E+02  1.20000000E+01  0.00000000E+00
  8.00000000E+02  1.20000000E+01  0.00000000E+00
  8.10000000E+02  1.20000000E+01  0.00000000E+00
  8.20000000E+02  1.20000000E+01  0.00000000E+00
  8.30000000E+02  1.20000000E+01  0.00000000E+00
  8.40000000E+02  1.20000000E+01  0.00000000E+00
  8.50000000E+02  1.20000000E+01  0.00000000E+00
  8.60000000E+02  1.20000000E+01  0.00000000E+00
  8.70000000E+02  1.20000000E+01  0.00000000E+00
  8.80000000E+02  1.20000000E+01  0.00000000E+00
  8.90000000E+02  1.20000000E+01  0.00000000E+00
  9.00000000E+02  1.20000000E+01  0.00000000E+00
  9.10000000E+02  1.20000000E+01  0.00000000E+00
  9.20000000E+02  1.20000000E+01  0.00000000E+00
  9.30000000E+02  1.20000000E+01  0.00000000E+00
  9.40000000E+02  1.20000000E+01  0.00000000E+00
  9.50000000E+02  1.20000000E+01  0.00000000E+00
  9.60000000E+02  1.20000000E+01  0.00000000E+00
  9.70000000E+02  1.20000000E+01  0.00000000E+00
  9.80000000E+02  1.20000000E+01  0.00000000E+00
  9.90000000E+02  1.20000000E+01  0.00000000E+00
  1.00000000E+03  1.20000000E+01  0.00000000E+00
  0.00000000E+00  1.40000000E+01  0.00000000E+00
  1.00000000E+01  1.40000000E+01  0.00000000E+00
  2.00000000E+01  1.40000000E+01  0.00000000E+00
  3.00000000E+01  1.40000000E+01  0.00000000E+00
  4.00000000E+01  1.40000000E+01  0.00000000E+00
  5.00000000E+01  1.40000000E+01  0.00000000E+00
  6.00000000E+01  1.40000000E+01  0.00000000E+00
  7.00000000E+01  1.40000000E+01  0.00000000E+00
  8.00000000E+01  1.40000000E+01  0.00000000E+00
  9.00000000E+01  1.40000000E+01  0.00000000E+00
  1.00000000E+02  1.40000000E+01  0.00000000E+00
  1.10000000E+02  1.40000000E+01  0.00000000E+00
  1.20000000E+02  1.40000000E+01  0.00000000E+00
  1.30000000E+02  1.40000000E+01  0.00000000E+00
  1.40000000E+02  1.40000000E+01  0.00000000E+00
  1.50000000E+02  1.40000000E+01  0.00000000E+00
  1.60000000E+02  1.40000000E+01  0.00000000E+00
  1.70000000E+02  1.40000000E+01  0.00000000E+00
  1.80000000E+02  1.40000000E+01  0.00000000E+00
  1.90000000E+02  1.40000000E+01  0.00000000E+00
  2.00000000E+02  1.40000000E+01  0.00000000E+00
  2.10000000E+02  1.40000000E+01  0.00000000E+00
  2.20000000E+02  1.40000000E+01  0.00000000E+00
  2.30000000E+02  1.40000000E+01  0.00000000E+00
  2.40000000E+02  1.40000000E+01  0.00000000E+00
  2.50000000E+02  1.40000000E+01  0.00000000E+00
  2.60000000E+02  1.40000000E+01  0.00000000E+00
  2.70000000E+02  1.40000000E+01  0.00000000E+00
  2.80000000E+02  1.40000000E+01  0.00000000E+00
  2.90000000E+02  1.40000000E+01  0.00000000E+00
  3.00000000E+02  1.40000000E+01  0.00000000E+00
  3.10000000E+02  1.40000000E+01  0.00000000E+00
  3.20000000E+02  1.40000000E+01  0.00000000E+00
  3.30000000E+02  1.40000000E+01  0.00000000E+00
  3.40000000E+02  1.40000000E+01  0.00000000E+00
  3.50000000E+02  1.40000000E+01  0.00000000E+00
  3.60000000E+02  1.40000000E+01  0.00000000E+00
  3.70000000E+02  1.40000000E+01  0.00000000E+00
  3.80000000E+02  1.40000000E+01  0.00000000E+00
  3.90000000E+02  1.40000000E+01  0.00000000E+00
  4.00000000E+02  1.40000000E+01  0.00000000E+00
  4.10000000E+02  1.40000000E+01  0.00000000E+00
  4.20000000E+02  1.40000000E+01  0.00000000E+00
  4.30000000E+02  1.40000000E+01  0.00000000E+00
  4.40000000E+02  1.40000000E+01  0.00000000E+00
  4.50000000E+02  1.40000000E+01  0.00000000E+00
  4.60000000E+02  1.40000000E+01  0.00000000E+00
  4.70000000E+02  1.40000000E+01  0.00000000E+00
  4.80000000E+02  1.40000000E+01  0.00000000E+00
  4.90000000E+02  1.40000000E+01  0.00000000E+00
  5.00000000E+02  1.40000000E+01  0.00000000E+00
  5.10000000E+02  1.40000000E+01  0.00000000E+00
  5.20000000E+02  1.40000000E+01  0.00000000E+00
  5.30000000E+02  1.40000000E+01  0.00000000E+00
  5.40000000E+02  1.40000000E+01  0.00000000E+00
  5.50000000E+02  1.40000000E+01  0.00000000E+00
  5.60000000E+02  1.40000000E+01  0.00000000E+00
  5.70000000E+02  1.40000000E+01  0.00000000E+00
  5.80000000E+02  1.40000000E+01  0.00000000E+00
  5.90000000E+02  1.40000000E+01  0.00000000E+00
  6.00000000E+02  1.40000000E+01  0.00000000E+00
  6.10000000E+02  1.40000000E+01  0.00000000E+00
  6.20000000E+02  1.40000000E+01  0.00000000E+00
  6.30000000E+02  1.40000000E+01  0.00000000E+00
  6.40000000E+02  1.40000000E+01  0.00000000E+00
  6.50000000E+02  1.40000000E+01  0.00000000E+00
  6.60000000E+02  1.40000000E+01  0.00000000E+00
  6.70000000E+02  1.40000000E+01  0.00000000E+00
  6.80000000E+02  1.40000000E+01  0.00000000E+00
  6.90000000E+02  1.40000000E+01  0.00000000E+00
  7.00000000E+02  1.40000000E+01  0.00000000E+00
  7.10000000E+02  1.40000000E+01  0.00000000E+00
  7.20000000E+02  1.40000000E+01  0.00000000E+00
  7.30000000E+02  1.40000000E+01  0.00000000E+00
  7.40000000E+02  1.40000000E+01  0.00000000E+00
  7.50000000E+02  1.40000000E+01  0.00000000E+00
  7.60000000E+02  1.40000000E+01  0.00000000E+00
  7.70000000E+02  1.40000000E+01  0.00000000E+00
  7.80000000E+02  1.40000000E+01  0.00000000E+00
  7.90000000E+02  1.40000000E+01  0.00000000E+00
  8.00000000E+02  1.40000000E+01  0.00000000E+00
  8.10000000E+02  1.40000000E+01  0.00000000E+00
  8.20000000E+02  1.40000000E+01  0.00000000E+00
  8.30000000E+02  1.40000000E+01  0.00000000E+00
  8.40000000E+02  1.40000000E+01  0.00000000E+00
  8.50000000E+02  1.40000000E+01  0.00000000E+00
  8.60000000E+02  1.40000000E+01  0.00000000E+00
  8.70000000E+02  1.40000000E+01  0.00000000E+00
  8.80000000E+02  1.40000000E+01  0.00000000E+00
  8.90000000E+02  1.40000000E+01  0.00000000E+00
  9.00000000E+02  1.40000000E+01  0.00000000E+00
  9.10000000E+02  1.40000000E+01  0.00000000E+00
  9.20000000E+02  1.40000000E+01  0.00000000E+00
  9.30000000E+02  1.40000000E+01  0.00000000E+00
  9.40000000E+02  1.40000000E+01  0.00000000E+00
  9.50000000E+02  1.40000000E+01  0.00000000E+00
  9.60000000E+02  1.40000000E+01  0.00000000E+00
  9.70000000E+02  1.40000000E+01  0.00000000E+00
  9.80000000E+02  1.40000000E+01  0.00000000E+00
  9.90000000E+02  1.40000000E+01  0.00000000E+00
  1.00000000E+03  1.40000000E+01  0.00000000E+00
  0.00000000E+00  1.60000000E+01  0.00000000E+00
  1.00000000E+01  1.60000000E+01  0.00000000E+00
  2.00000000E+01  1.60000000E+01  0.00000000E+00
  3.00000000E+01  1.60000000E+01  0.00000000E+00
  4.00000000E+01  1.60000000E+01  0.00000000E+00
  5.00000000E+01  1.60000000E+01  0.00000000E+00
  6.00000000E+01  1.60000000E+01  0.00000000E+00
  7.00000000E+01  1.60000000E+01  0.00000000E+00
  8.00000000E+01  1.60000000E+01  0.00000000E+00
  9.00000000E+01  1.60000000E+01  0.00000000E+00
  1.00000000E+02  1.60000000E+01  0.00000000E+00
  1.10000000E+02  1.60000000E+01  0.00000000E+00
  1.20000000E+02  1.60000000E+01  0.00000000E+00
  1.30000000E+02  1.60000000E+01  0.00000000E+00
  1.40000000E+02  1.60000000E+01  0.00000000E+00
  1.50000000E+02  1.60000000E+01  0.00000000E+00
  1.60000000E+02  1.60000000E+01  0.00000000E+00
  1.70000000E+02  1.60000000E+01  0.00000000E+00
  1.80000000E+02  1.60000000E+01  0.00000000E+00
  1.90000000E+02  1.60000000E+01  0.00000000E+00
  2.00000000E+02  1.60000000E+01  0.00000000E+00
  2.10000000E+02  1.60000000E+01  0.00000000E+00
  2.20000000E+02  1.60000000E+01  0.00000000E+00
  2.30000000E+02  1.60000000E+01  0.00000000E+00
  2.40000000E+02  1.60000000E+01  0.00000000E+00
  2.50000000E+02  1.60000000E+01  0.00000000E+00
  2.60000000E+02  1.60000000E+01  0.00000000E+00
  2.70000000E+02  1.60000000E+01  0.00000000E+00
  2.80000000E+02  1.60000000E+01  0.00000000E+00
  2.90000000E+02  1.60000000E+01  0.00000000E+00
  3.00000000E+02  1.60000000E+01  0.00000000E+00
  3.10000000E+02  1.60000000E+01  0.00000000E+00
  3.20000000E+02  1.60000000E+01  0.00000000E+00
  3.30000000E+02  1.60000000E+01  0.00000000E+00
  3.40000000E+02  1.60000000E+01  0.00000000E+00
  3.50000000E+02  1.60000000E+01  0.00000000E+00
  3.60000000E+02  1.60000000E+01  0.00000000E+00
  3.70000000E+02  1.60000000E+01  0.00000000E+00
  3.80000000E+02  1.60000000E+01  0.00000000E+00
  3.90000000E+02  1.60000000E+01  0.00000000E+00
  4.00000000E+02  1.60000000E+01  0.00000000E+00
  4.10000000E+02  1.60000000E+01  0.00000000E+00
  4.20000000E+02  1.60000000E+01  0.00000000E+00
  4.30000000E+02  1.60000000E+01  0.00000000E+00
  4.40000000E+02  1.60000000E+01  0.00000000E+00
  4.50000000E+02  1.60000000E+01  0.00000000E+00
  4.60000000E+02  1.60000000E+01  0.00000000E+00
  4.70000000E+02  1.60000000E+01  0.00000000E+00
  4.80000000E+02  1.60000000E+01  0.00000000E+00
  4.90000000E+02  1.60000000E+01  0.00000000E+00
  5.00000000E+02  1.60000000E+01  0.00000000E+00
  5.10000000E+02  1.60000000E+01  0.00000000E+00
  5.20000000E+02  1.60000000E+01  0.00000000E+00
  5.30000000E+02  1.60000000E+01  0.00000000E+00
  5.40000000E+02  1.60000000E+01  0.00000000E+00
  5.50000000E+02  1.60000000E+01  0.00000000E+00
  5.60000000E+02  1.60000000E+01  0.00000000E+00
  5.70000000E+02  1.60000000E+01  0.00000000E+00
  5.80000000E+02  1.60000000E+01  0.00000000E+00
  5.90000000E+02  1.60000000E+01  0.00000000E+00
  6.00000000E+02  1.60000000E+01  0.00000000E+00
  6.10000000E+02  1.60000000E+01  0.00000000E+00
  6.20000000E+02  1.60000000E+01  0.00000000E+00
  6.30000000E+02  1.60000000E+01  0.00000000E+00
  6.40000000E+02  1.60000000E+01  0.00000000E+00
  6.50000000E+02  1.60000000E+01  0.00000000E+00
  6.60000000E+02  1.60000000E+01  0.00000000E+00
  6.70000000E+02  1.60000000E+01  0.00000000E+00
  6.80000000E+02  1.60000000E+01  0.00000000E+00
  6.90000000E+02  1.60000000E+01  0.00000000E+00
  7.00000000E+02  1.60000000E+01  0.00000000E+00
  7.10000000E+02  1.60000000E+01  0.00000000E+00
  7.20000000E+02  1.60000000E+01  0.00000000E+00
  7.30000000E+02  1.60000000E+01  0.00000000E+00
  7.40000000E+02  1.60000000E+01  0.00000000E+00
  7.50000000E+02  1.60000000E+01  0.00000000E+00
  7.60000000E+02  1.60000000E+01  0.00000000E+00
  7.70000000E+02  1.60000000E+01  0.00000000E+00
  7.80000000E+02  1.60000000E+01  0.00000000E+00
  7.90000000E+02  1.60000000E+01  0.00000000E+00
  8.00000000E+02  1.60000000E+01  0.00000000E+00
  8.10000000E+02  1.60000000E+01  0.00000000E+00
  8.20000000E+02  1.60000000E+01  0.00000000E+00
  8.30000000E+02  1.60000000E+01  0.00000000E+00
  8.40000000E+02  1.60000000E+01  0.00000000E+00
  8.50000000E+02  1.60000000E+01  0.00000000E+00
  8.60000000E+02  1.60000000E+01  0.00000000E+00
  8.70000000E+02  1.60000000E+01  0.00000000E+00
  8.80000000E+02  1.60000000E+01  0.00000000E+00
  8.90000000E+02  1.60000000E+01  0.00000000E+00
  9.00000000E+02  1.60000000E+01  0.00000000E+00
  9.10000000E+02  1.60000000E+01  0.00000000E+00
  9.20000000E+02  1.60000000E+01  0.00000000E+00
  9.30000000E+02  1.60000000E+01  0.00000000E+00
  9.40000000E+02  1.60000000E+01  0.00000000E+00
  9.50000000E+02  1.60000000E+01  0.00000000E+00
  9.60000000E+02  1.60000000E+01  0.00000000E+00
  9.70000000E+02  1.60000000E+01  0.00000000E+00
  9.80000000E+02  1.60000000E+01  0.00000000E+00
  9.90000000E+02  1.60000000E+01  0.00000000E+00
  1.00000000E+03  1.60000000E+01  0.00000000E+00
  0.00000000E+00  1.80000000E+01  0.00000000E+00
  1.00000000E+01  1.80000000E+01  0.00000000E+00
  2.00000000E+01  1.80000000E+01  0.00000000E+00
  3.00000000E+01  1.80000000E+01  0.00000000E+00
  4.00000000E+01  1.80000000E+01  0.00000000E+00
  5.00000000E+01  1.80000000E+01  0.00000000E+00
  6.00000000E+01  1.80000000E+01  0.00000000E+00
  7.00000000E+01  1.80000000E+01  0.00000000E+00
  8.00000000E+01  1.80000000E+01  0.00000000E+00
  9.00000000E+01  1.80000000E+01  0.00000000E+00
  1.00000000E+02  1.80000000E+01  0.00000000E+00
  1.10000000E+02  1.80000000E+01  0.00000000E+00
  1.20000000E+02  1.80000000E+01  0.00000000E+00
  1.30000000E+02  1.80000000E+01  0.00000000E+00
  1.40000000E+02  1.80000000E+01  0.00000000E+00
  1.50000000E+02  1.80000000E+01  0.00000000E+00
  1.60000000E+02  1.80000000E+01  0.00000000E+00
  1.70000000E+02  1.80000000E+01  0.00000000E+00
  1.80000000E+02  1.80000000E+01  0.00000000E+00
  1.90000000E+02  1.80000000E+01  0.00000000E+00
  2.00000000E+02  1.80000000E+01  0.00000000E+00
  2.10000000E+02  1.80000000E+01  0.00000000E+00
  2.20000000E+02  1.80000000E+01  0.00000000E+00
  2.30000000E+02  1.80000000E+01  0.00000000E+00
  2.40000000E+02  1.80000000E+01  0.00000000E+00
  2.50000000E+02  1.80000000E+01  0.00000000E+00
  2.60000000E+02  1.80000000E+01  0.00000000E+00
  2.70000000E+02  1.80000000E+01  0.00000000E+00
  2.80000000E+02  1.80000000E+01  0.00000000E+00
  2.90000000E+02  1.80000000E+01  0.00000000E+00
  3.00000000E+02  1.80000000E+01  0.00000000E+00
  3.10000000E+02  1.80000000E+01  0.00000000E+00
  3.20000000E+02  1.80000000E+01  0.00000000E+00
  3.30000000E+02  1.80000000E+01  0.00000000E+00
  3.40000000E+02  1.80000000E+01  0.00000000E+00
  3.50000000E+02  1.80000000E+01  0.00000000E+00
  3.60000000E+02  1.80000000E+01  0.00000000E+00
  3.70000000E+02  1.80000000E+01  0.00000000E+00
  3.80000000E+02  1.80000000E+01  0.00000000E+00
  3.90000000E+02  1.80000000E+01  0.00000000E+00
  4.00000000E+02  1.80000000E+01  0.00000000E+00
  4.10000000E+02  1.80000000E+01  0.00000000E+00
  4.20000000E+02  1.80000000E+01  0.00000000E+00
  4.30000000E+02  1.80000000E+01  0.00000000E+00
  4.40000000E+02  1.80000000E+01  0.00000000E+00
  4.50000000E+02  1.80000000E+01  0.00000000E+00
  4.60000000E+02  1.80000000E+01  0.00000000E+00
  4.70000000E+02  1.80000000E+01  0.00000000E+00
  4.80000000E+02  1.80000000E+01  0.00000000E+00
  4.90000000E+02  1.80000000E+01  0.00000000E+00
  5.00000000E+02  1.80000000E+01  0.00000000E+00
  5.10000000E+02  1.80000000E+01  0.00000000E+00
  5.20000000E+02  1.80000000E+01  0.00000000E+00
  5.30000000E+02  1.80000000E+01  0.00000000E+00
  5.40000000E+02  1.80000000E+01  0.00000000E+00
  5.50000000E+02  1.80000000E+01  0.00000000E+00
  5.60000000E+02  1.80000000E+01  0.00000000E+00
  5.70000000E+02  1.80000000E+01  0.00000000E+00
  5.80000000E+02  1.80000000E+01  0.00000000E+00
  5.90000000E+02  1.80000000E+01  0.00000000E+00
  6.00000000E+02  1.80000000E+01  0.00000000E+00
  6.10000000E+02  1.80000000E+01  0.00000000E+00
  6.20000000E+02  1.80000000E+01  0.00000000E+00
  6.30000000E+02  1.80000000E+01  0.00000000E+00
  6.40000000E+02  1.80000000E+01  0.00000000E+00
  6.50000000E+02  1.80000000E+01  0.00000000E+00
  6.60000000E+02  1.80000000E+01  0.00000000E+00
  6.70000000E+02  1.80000000E+01  0.00000000E+00
  6.80000000E+02  1.80000000E+01  0.00000000E+00
  6.90000000E+02  1.80000000E+01  0.00000000E+00
  7.00000000E+02  1.80000000E+01  0.00000000E+00
  7.10000000E+02  1.80000000E+01  0.00000000E+00
  7.20000000E+02  1.80000000E+01  0.00000000E+00
  7.30000000E+02  1.80000000E+01  0.00000000E+00
  7.40000000E+02  1.80000000E+01  0.00000000E+00
  7.50000000E+02  1.80000000E+01  0.00000000E+00
  7.60000000E+02  1.80000000E+01  0.00000000E+00
  7.70000000E+02  1.80000000E+01  0.00000000E+00
  7.80000000E+02  1.80000000E+01  0.00000000E+00
  7.90000000E+02  1.80000000E+01  0.00000000E+00
  8.00000000E+02  1.80000000E+01  0.00000000E+00
  8.10000000E+02  1.80000000E+01  0.00000000E+00
  8.20000000E+02  1.80000000E+01  0.00000000E+00
  8.30000000E+02  1.80000000E+01  0.00000000E+00
  8.40000000E+02  1.80000000E+01  0.00000000E+00
  8.50000000E+02  1.80000000E+01  0.00000000E+00
  8.60000000E+02  1.80000000E+01  0.00000000E+00
  8.70000000E+02  1.80000000E+01  0.00000000E+00
  8.80000000E+02  1.80000000E+01  0.00000000E+00
  8.90000000E+02  1.80000000E+01  0.00000000E+00
  9.00000000E+02  1.80000000E+01  0.00000000E+00
  9.10000000E+02  1.80000000E+01  0.00000000E+00
  9.20000000E+02  1.80000000E+01  0.00000000E+00
  9.30000000E+02  1.80000000E+01  0.00000000E+00
  9.40000000E+02  1.80000000E+01  0.00000000E+00
  9.50000000E+02  1.80000000E+01  0.00000000E+00
  9.60000000E+02  1.80000000E+01  0.00000000E+00
  9.70000000E+02  1.80000000E+01  0.00000000E+00
  9.80000000E+02  1.80000000E+01  0.00000000E+00
  9.90000000E+02  1.80000000E+01  0.00000000E+00
  1.00000000E+03  1.80000000E+01  0.00000000E+00
  0.00000000E+00  2.00000000E+01  0.00000000E+00
  1.00000000E+01  2.00000000E+01  0.00000000E+00
  2.00000000E+01  2.00000000E+01  0.00000000E+00
  3.00000000E+01  2.00000000E+01  0.00000000E+00
  4.00000000E+01  2.00000000E+01  0.00000000E+00
  5.00000000E+01  2.00000000E+01  0.00000000E+00
  6.00000000E+01  2.00000000E+01  0.00000000E+00
  7.00000000E+01  2.00000000E+01  0.00000000E+00
  8.00000000E+01  2.00000000E+01  0.00000000E+00
  9.00000000E+01  2.00000000E+01  0.00000000E+00
  1.00000000E+02  2.00000000E+01  0.00000000E+00
  1.10000000E+02  2.00000000E+01  0.00000000E+00
  1.20000000E+02  2.00000000E+01  0.00000000E+00
  1.30000000E+02  2.00000000E+01  0.00000000E+00
  1.40000000E+02  2.00000000E+01  0.00000000E+00
  1.50000000E+02  2.00000000E+01  0.00000000E+00
  1.60000000E+02  2.00000000E+01  0.00000000E+00
  1.70000000E+02  2.00000000E+01  0.00000000E+00
  1.80000000E+02  2.00000000E+01  0.00000000E+00
  1.90000000E+02  2.00000000E+01  0.00000000E+00
  2.00000000E+02  2.00000000E+01  0.00000000E+00
  2.10000000E+02  2.00000000E+01  0.00000000E+00
  2.20000000E+02  2.00000000E+01  0.00000000E+00
  2.30000000E+02  2.00000000E+01  0.00000000E+00
  2.40000000E+02  2.00000000E+01  0.00000000E+00
  2.50000000E+02  2.00000000E+01  0.00000000E+00
  2.60000000E+02  2.00000000E+01  0.00000000E+00
  2.70000000E+02  2.00000000E+01  0.00000000E+00
  2.80000000E+02  2.00000000E+01  0.00000000E+00
  2.90000000E+02  2.00000000E+01  0.00000000E+00
  3.00000000E+02  2.00000000E+01  0.00000000E+00
  3.10000000E+02  2.00000000E+01  0.00000000E+00
  3.20000000E+02  2.00000000E+01  0.00000000E+00
  3.30000000E+02  2.00000000E+01  0.00000000E+00
  3.40000000E+02  2.00000000E+01  0.00000000E+00
  3.50000000E+02  2.00000000E+01  0.00000000E+00
  3.60000000E+02  2.00000000E+01  0.00000000E+00
  3.70000000E+02  2.00000000E+01  0.00000000E+00
  3.80000000E+02  2.00000000E+01  0.00000000E+00
  3.90000000E+02  2.00000000E+01  0.00000000E+00
  4.00000000E+02  2.00000000E+01  0.00000000E+00
  4.10000000E+02  2.00000000E+01  0.00000000E+00
  4.20000000E+02  2.00000000E+01  0.00000000E+00
  4.30000000E+02  2.00000000E+01  0.00000000E+00
  4.40000000E+02  2.00000000E+01  0.00000000E+00
  4.50000000E+02  2.00000000E+01  0.00000000E+00
  4.60000000E+02  2.00000000E+01  0.00000000E+00
  4.70000000E+02  2.00000000E+01  0.00000000E+00
  4.80000000E+02  2.00000000E+01  0.00000000E+00
  4.90000000E+02  2.00000000E+01  0.00000000E+00
  5.00000000E+02  2.00000000E+01  0.00000000E+00
  5.10000000E+02  2.00000000E+01  0.00000000E+00
  5.20000000E+02  2.00000000E+01  0.00000000E+00
  5.30000000E+02  2.00000000E+01  0.00000000E+00
  5.40000000E+02  2.00000000E+01  0.00000000E+00
  5.50000000E+02  2.00000000E+01  0.00000000E+00
  5.60000000E+02  2.00000000E+01  0.00000000E+00
  5.70000000E+02  2.00000000E+01  0.00000000E+00
  5.80000000E+02  2.00000000E+01  0.00000000E+00
  5.90000000E+02  2.00000000E+01  0.00000000E+00
  6.00000000E+02  2.00000000E+01  0.00000000E+00
  6.10000000E+02  2.00000000E+01  0.00000000E+00
  6.20000000E+02  2.00000000E+01  0.00000000E+00
  6.30000000E+02  2.00000000E+01  0.00000000E+00
  6.40000000E+02  2.00000000E+01  0.00000000E+00
  6.50000000E+02  2.00000000E+01  0.00000000E+00
  6.60000000E+02  2.00000000E+01  0.00000000E+00
  6.70000000E+02  2.00000000E+01  0.00000000E+00
  6.80000000E+02  2.00000000E+01  0.00000000E+00
  6.90000000E+02  2.00000000E+01  0.00000000E+00
  7.00000000E+02  2.00000000E+01  0.00000000E+00
  7.10000000E+02  2.00000000E+01  0.00000000E+00
  7.20000000E+02  2.00000000E+01  0.00000000E+00
  7.30000000E+02  2.00000000E+01  0.00000000E+00
  7.40000000E+02  2.00000000E+01  0.00000000E+00
  7.50000000E+02  2.00000000E+01  0.00000000E+00
  7.60000000E+02  2.00000000E+01  0.00000000E+00
  7.70000000E+02  2.00000000E+01  0.00000000E+00
  7.80000000E+02  2.00000000E+01  0.00000000E+00
  7.90000000E+02  2.00000000E+01  0.00000000E+00
  8.00000000E+02  2.00000000E+01  0.00000000E+00
  8.10000000E+02  2.00000000E+01  0.00000000E+00
  8.20000000E+02  2.00000000E+01  0.00000000E+00
  8.30000000E+02  2.00000000E+01  0.00000000E+00
  8.40000000E+02  2.00000000E+01  0.00000000E+00
  8.50000000E+02  2.00000000E+01  0.00000000E+00
  8.60000000E+02  2.00000000E+01  0.00000000E+00
  8.70000000E+02  2.00000000E+01  0.00000000E+00
  8.80000000E+02  2.00000000E+01  0.00000000E+00
  8.90000000E+02  2.00000000E+01  0.00000000E+00
  9.00000000E+02  2.00000000E+01  0.00000000E+00
  9.10000000E+02  2.00000000E+01  0.00000000E+00
  9.20000000E+02  2.00000000E+01  0.00000000E+00
  9.30000000E+02  2.00000000E+01  0.00000000E+00
  9.40000000E+02  2.00000000E+01  0.00000000E+00
  9.50000000E+02  2.00000000E+01  0.00000000E+00
  9.60000000E+02  2.00000000E+01  0.00000000E+00
  9.70000000E+02  2.00000000E+01  0.00000000E+00
  9.80000000E+02  2.00000000E+01  0.00000000E+00
  9.90000000E+02  2.00000000E+01  0.00000000E+00
  1.00000000E+03  2.00000000E+01  0.00000000E+00
  0.00000000E+00  2.20000000E+01  0.00000000E+00
  1.00000000E+01  2.20000000E+01  0.00000000E+00
  2.00000000E+01  2.20000000E+01  0.00000000E+00
  3.00000000E+01  2.20000000E+01  0.00000000E+00
  4.00000000E+01  2.20000000E+01  0.00000000E+00
  5.00000000E+01  2.20000000E+01  0.00000000E+00
  6.00000000E+01  2.20000000E+01  0.00000000E+00
  7.00000000E+01  2.20000000E+01  0.00000000E+00
  8.00000000E+01  2.20000000E+01  0.00000000E+00
  9.00000000E+01  2.20000000E+01  0.00000000E+00
  1.00000000E+02  2.20000000E+01  0.00000000E+00
  1.10000000E+02  2.20000000E+01  0.00000000E+00
  1.20000000E+02  2.20000000E+01  0.00000000E+00
  1.30000000E+02  2.20000000E+01  0.00000000E+00
  1.40000000E+02  2.20000000E+01  0.00000000E+00
  1.50000000E+02  2.20000000E+01  0.00000000E+00
  1.60000000E+02  2.20000000E+01  0.00000000E+00
  1.70000000E+02  2.20000000E+01  0.00000000E+00
  1.80000000E+02  2.20000000E+01  0.00000000E+00
  1.90000000E+02  2.20000000E+01  0.00000000E+00
  2.00000000E+02  2.20000000E+01  0.00000000E+00
  2.10000000E+02  2.20000000E+01  0.00000000E+00
  2.20000000E+02  2.20000000E+01  0.00000000E+00
  2.30000000E+02  2.20000000E+01  0.00000000E+00
  2.40000000E+02  2.20000000E+01  0.00000000E+00
  2.50000000E+02  2.20000000E+01  0.00000000E+00
  2.60000000E+02  2.20000000E+01  0.00000000E+00
  2.70000000E+02  2.20000000E+01  0.00000000E+00
  2.80000000E+02  2.20000000E+01  0.00000000E+00
  2.90000000E+02  2.20000000E+01  0.00000000E+00
  3.00000000E+02  2.20000000E+01  0.00000000E+00
  3.10000000E+02  2.20000000E+01  0.00000000E+00
  3.20000000E+02  2.20000000E+01  0.00000000E+00
  3.30000000E+02  2.20000000E+01  0.00000000E+00
  3.40000000E+02  2.20000000E+01  0.00000000E+00
  3.50000000E+02  2.20000000E+01  0.00000000E+00
  3.60000000E+02  2.20000000E+01  0.00000000E+00
  3.70000000E+02  2.20000000E+01  0.00000000E+00
  3.80000000E+02  2.20000000E+01  0.00000000E+00
  3.90000000E+02  2.20000000E+01  0.00000000E+00
  4.00000000E+02  2.20000000E+01  0.00000000E+00
  4.10000000E+02  2.20000000E+01  0.00000000E+00
  4.20000000E+02  2.20000000E+01  0.00000000E+00
  4.30000000E+02  2.20000000E+01  0.00000000E+00
  4.40000000E+02  2.20000000E+01  0.00000000E+00
  4.50000000E+02  2.20000000E+01  0.00000000E+00
  4.60000000E+02  2.20000000E+01  0.00000000E+00
  4.70000000E+02  2.20000000E+01  0.00000000E+00
  4.80000000E+02  2.20000000E+01  0.00000000E+00
  4.90000000E+02  2.20000000E+01  0.00000000E+00
  5.00000000E+02  2.20000000E+01  0.00000000E+00
  5.10000000E+02  2.20000000E+01  0.00000000E+00
  5.20000000E+02  2.20000000E+01  0.00000000E+00
  5.30000000E+02  2.20000000E+01  0.00000000E+00
  5.40000000E+02  2.20000000E+01  0.00000000E+00
  5.50000000E+02  2.20000000E+01  0.00000000E+00
  5.60000000E+02  2.20000000E+01  0.00000000E+00
  5.70000000E+02  2.20000000E+01  0.00000000E+00
  5.80000000E+02  2.20000000E+01  0.00000000E+00
  5.90000000E+02  2.20000000E+01  0.00000000E+00
  6.00000000E+02  2.20000000E+01  0.00000000E+00
  6.10000000E+02  2.20000000E+01  0.00000000E+00
  6.20000000E+02  2.20000000E+01  0.00000000E+00
  6.30000000E+02  2.20000000E+01  0.00000000E+00
  6.40000000E+02  2.20000000E+01  0.00000000E+00
  6.50000000E+02  2.20000000E+01  0.00000000E+00
  6.60000000E+02  2.20000000E+01  0.00000000E+00
  6.70000000E+02  2.20000000E+01  0.00000000E+00
  6.80000000E+02  2.20000000E+01  0.00000000E+00
  6.90000000E+02  2.20000000E+01  0.00000000E+00
  7.00000000E+02  2.20000000E+01  0.00000000E+00
  7.10000000E+02  2.20000000E+01  0.00000000E+00
  7.20000000E+02  2.20000000E+01  0.00000000E+00
  7.30000000E+02  2.20000000E+01  0.00000000E+00
  7.40000000E+02  2.20000000E+01  0.00000000E+00
  7.50000000E+02  2.20000000E+01  0.00000000E+00
  7.60000000E+02  2.20000000E+01  0.00000000E+00
  7.70000000E+02  2.20000000E+01  0.00000000E+00
  7.80000000E+02  2.20000000E+01  0.00000000E+00
  7.90000000E+02  2.20000000E+01  0.00000000E+00
  8.00000000E+02  2.20000000E+01  0.00000000E+00
  8.10000000E+02  2.20000000E+01  0.00000000E+00
  8.20000000E+02  2.20000000E+01  0.00000000E+00
  8.30000000E+02  2.20000000E+01  0.00000000E+00
  8.40000000E+02  2.20000000E+01  0.00000000E+00
  8.50000000E+02  2.20000000E+01  0.00000000E+00
  8.60000000E+02  2.20000000E+01  0.00000000E+00
  8.70000000E+02  2.20000000E+01  0.00000000E+00
  8.80000000E+02  2.20000000E+01  0.00000000E+00
  8.90000000E+02  2.20000000E+01  0.00000000E+00
  9.00000000E+02  2.20000000E+01  0.00000000E+00
  9.10000000E+02  2.20000000E+01  0.00000000E+00
  9.20000000E+02  2.20000000E+01  0.00000000E+00
  9.30000000E+02  2.20000000E+01  0.00000000E+00
  9.40000000E+02  2.20000000E+01  0.00000000E+00
  9.50000000E+02  2.20000000E+01  0.00000000E+00
  9.60000000E+02  2.20000000E+01  0.00000000E+00
  9.70000000E+02  2.20000000E+01  0.00000000E+00
  9.80000000E+02  2.20000000E+01  0.00000000E+00
  9.90000000E+02  2.20000000E+01  0.00000000E+00
  1.00000000E+03  2.20000000E+01  0.00000000E+00
  0.00000000E+00  2.40000000E+01  0.00000000E+00
  1.00000000E+01  2.40000000E+01  0.00000000E+00
  2.00000000E+01  2.40000000E+01  0.00000000E+00
  3.00000000E+01  2.40000000E+01  0.00000000E+00
  4.00000000E+01  2.40000000E+01  0.00000000E+00
  5.00000000E+01  2.40000000E+01  0.00000000E+00
  6.00000000E+01  2.40000000E+01  0.00000000E+00
  7.00000000E+01  2.40000000E+01  0.00000000E+00
  8.00000000E+01  2.40000000E+01  0.00000000E+00
  9.00000000E+01  2.40000000E+01  0.00000000E+00
  1.00000000E+02  2.40000000E+01  0.00000000E+00
  1.10000000E+02  2.40000000E+01  0.00000000E+00
  1.20000000E+02  2.40000000E+01  0.00000000E+00
  1.30000000E+02  2.40000000E+01  0.00000000E+00
  1.40000000E+02  2.40000000E+01  0.00000000E+00
  1.50000000E+02  2.40000000E+01  0.00000000E+00
  1.60000000E+02  2.40000000E+01  0.00000000E+00
  1.70000000E+02  2.40000000E+01  0.00000000E+00
  1.80000000E+02  2.40000000E+01  0.00000000E+00
  1.90000000E+02  2.40000000E+01  0.00000000E+00
  2.00000000E+02  2.40000000E+01  0.00000000E+00
  2.10000000E+02  2.40000000E+01  0.00000000E+00
  2.20000000E+02  2.40000000E+01  0.00000000E+00
  2.30000000E+02  2.40000000E+01  0.00000000E+00
  2.40000000E+02  2.40000000E+01  0.00000000E+00
  2.50000000E+02  2.40000000E+01  0.00000000E+00
  2.60000000E+02  2.40000000E+01  0.00000000E+00
  2.70000000E+02  2.40000000E+01  0.00000000E+00
  2.80000000E+02  2.40000000E+01  0.00000000E+00
  2.90000000E+02  2.40000000E+01  0.00000000E+00
  3.00000000E+02  2.40000000E+01  0.00000000E+00
  3.10000000E+02  2.40000000E+01  0.00000000E+00
  3.20000000E+02  2.40000000E+01  0.00000000E+00
  3.30000000E+02  2.40000000E+01  0.00000000E+00
  3.40000000E+02  2.40000000E+01  0.00000000E+00
  3.50000000E+02  2.40000000E+01  0.00000000E+00
  3.60000000E+02  2.40000000E+01  0.00000000E+00
  3.70000000E+02  2.40000000E+01  0.00000000E+00
  3.80000000E+02  2.40000000E+01  0.00000000E+00
  3.90000000E+02  2.40000000E+01  0.00000000E+00
  4.00000000E+02  2.40000000E+01  0.00000000E+00
  4.10000000E+02  2.40000000E+01  0.00000000E+00
  4.20000000E+02  2.40000000E+01  0.00000000E+00
  4.30000000E+02  2.40000000E+01  0.00000000E+00
  4.40000000E+02  2.40000000E+01  0.00000000E+00
  4.50000000E+02  2.40000000E+01  0.00000000E+00
  4.60000000E+02  2.40000000E+01  0.00000000E+00
  4.70000000E+02  2.40000000E+01  0.00000000E+00
  4.80000000E+02  2.40000000E+01  0.00000000E+00
  4.90000000E+02  2.40000000E+01  0.00000000E+00
  5.00000000E+02  2.40000000E+01  0.00000000E+00
  5.10000000E+02  2.40000000E+01  0.00000000E+00
  5.20000000E+02  2.40000000E+01  0.00000000E+00
  5.30000000E+02  2.40000000E+01  0.00000000E+00
  5.40000000E+02  2.40000000E+01  0.00000000E+00
  5.50000000E+02  2.40000000E+01  0.00000000E+00
  5.60000000E+02  2.40000000E+01  0.00000000E+00
  5.70000000E+02  2.40000000E+01  0.00000000E+00
  5.80000000E+02  2.40000000E+01  0.00000000E+00
  5.90000000E+02  2.40000000E+01  0.00000000E+00
  6.00000000E+02  2.40000000E+01  0.00000000E+00
  6.10000000E+02  2.40000000E+01  0.00000000E+00
  6.20000000E+02  2.40000000E+01  0.00000000E+00
  6.30000000E+02  2.40000000E+01  0.00000000E+00
  6.40000000E+02  2.40000000E+01  0.00000000E+00
  6.50000000E+02  2.40000000E+01  0.00000000E+00
  6.60000000E+02  2.40000000E+01  0.00000000E+00
  6.70000000E+02  2.40000000E+01  0.00000000E+00
  6.80000000E+02  2.40000000E+01  0.00000000E+00
  6.90000000E+02  2.40000000E+01  0.00000000E+00
  7.00000000E+02  2.40000000E+01  0.00000000E+00
  7.10000000E+02  2.40000000E+01  0.00000000E+00
  7.20000000E+02  2.40000000E+01  0.00000000E+00
  7.30000000E+02  2.40000000E+01  0.00000000E+00
  7.40000000E+02  2.40000000E+01  0.00000000E+00
  7.50000000E+02  2.40000000E+01  0.00000000E+00
  7.60000000E+02  2.40000000E+01  0.00000000E+00
  7.70000000E+02  2.40000000E+01  0.00000000E+00
  7.80000000E+02  2.40000000E+01  0.00000000E+00
  7.90000000E+02  2.40000000E+01  0.00000000E+00
  8.00000000E+02  2.40000000E+01  0.00000000E+00
  8.10000000E+02  2.40000000E+01  0.00000000E+00
  8.20000000E+02  2.40000000E+01  0.00000000E+00
  8.30000000E+02  2.40000000E+01  0.00000000E+00
  8.40000000E+02  2.40000000E+01  0.00000000E+00
  8.50000000E+02  2.40000000E+01  0.00000000E+00
  8.60000000E+02  2.40000000E+01  0.00000000E+00
  8.70000000E+02  2.40000000E+01  0.00000000E+00
  8.80000000E+02  2.40000000E+01  0.00000000E+00
  8.90000000E+02  2.40000000E+01  0.00000000E+00
  9.00000000E+02  2.40000000E+01  0.00000000E+00
  9.10000000E+02  2.40000000E+01  0.00000000E+00
  9.20000000E+02  2.40000000E+01  0.00000000E+00
  9.30000000E+02  2.40000000E+01  0.00000000E+00
  9.40000000E+02  2.40000000E+01  0.00000000E+00
  9.50000000E+02  2.40000000E+01  0.00000000E+00
  9.60000000E+02  2.40000000E+01  0.00000000E+00
  9.70000000E+02  2.40000000E+01  0.00000000E+00
  9.80000000E+02  2.40000000E+01  0.00000000E+00
  9.90000000E+02  2.40000000E+01  0.00000000E+00
  1.00000000E+03  2.40000000E+01  0.00000000E+00
  0.00000000E+00  2.60000000E+01  0.00000000E+00
  1.00000000E+01  2.60000000E+01  0.00000000E+00
  2.00000000E+01  2.60000000E+01  0.00000000E+00
  3.00000000E+01  2.60000000E+01  0.00000000E+00
  4.00000000E+01  2.60000000E+01  0.00000000E+00
  5.00000000E+01  2.60000000E+01  0.00000000E+00
  6.00000000E+01  2.60000000E+01  0.00000000E+00
  7.00000000E+01  2.60000000E+01  0.00000000E+00
  8.00000000E+01  2.60000000E+01  0.00000000E+00
  9.00000000E+01  2.60000000E+01  0.00000000E+00
  1.00000000E+02  2.60000000E+01  0.00000000E+00
  1.10000000E+02  2.60000000E+01  0.00000000E+00
  1.20000000E+02  2.60000000E+01  0.00000000E+00
  1.30000000E+02  2.60000000E+01  0.00000000E+00
  1.40000000E+02  2.60000000E+01  0.00000000E+00
  1.50000000E+02  2.60000000E+01  0.00000000E+00
  1.60000000E+02  2.60000000E+01  0.00000000E+00
  1.70000000E+02  2.60000000E+01  0.00000000E+00
  1.80000000E+02  2.60000000E+01  0.00000000E+00
  1.90000000E+02  2.60000000E+01  0.00000000E+00
  2.00000000E+02  2.60000000E+01  0.00000000E+00
  2.10000000E+02  2.60000000E+01  0.00000000E+00
  2.20000000E+02  2.60000000E+01  0.00000000E+00
  2.30000000E+02  2.60000000E+01  0.00000000E+00
  2.40000000E+02  2.60000000E+01  0.00000000E+00
  2.50000000E+02  2.60000000E+01  0.00000000E+00
  2.60000000E+02  2.60000000E+01  0.00000000E+00
  2.70000000E+02  2.60000000E+01  0.00000000E+00
  2.80000000E+02  2.60000000E+01  0.00000000E+00
  2.90000000E+02  2.60000000E+01  0.00000000E+00
  3.00000000E+02  2.60000000E+01  0.00000000E+00
  3.10000000E+02  2.60000000E+01  0.00000000E+00
  3.20000000E+02  2.60000000E+01  0.00000000E+00
  3.30000000E+02  2.60000000E+01  0.00000000E+00
  3.40000000E+02  2.60000000E+01  0.00000000E+00
  3.50000000E+02  2.60000000E+01  0.00000000E+00
  3.60000000E+02  2.60000000E+01  0.00000000E+00
  3.70000000E+02  2.60000000E+01  0.00000000E+00
  3.80000000E+02  2.60000000E+01  0.00000000E+00
  3.90000000E+02  2.60000000E+01  0.00000000E+00
  4.00000000E+02  2.60000000E+01  0.00000000E+00
  4.10000000E+02  2.60000000E+01  0.00000000E+00
  4.20000000E+02  2.60000000E+01  0.00000000E+00
  4.30000000E+02  2.60000000E+01  0.00000000E+00
  4.40000000E+02  2.60000000E+01  0.00000000E+00
  4.50000000E+02  2.60000000E+01  0.00000000E+00
  4.60000000E+02  2.60000000E+01  0.00000000E+00
  4.70000000E+02  2.60000000E+01  0.00000000E+00
  4.80000000E+02  2.60000000E+01  0.00000000E+00
  4.90000000E+02  2.60000000E+01  0.00000000E+00
  5.00000000E+02  2.60000000E+01  0.00000000E+00
  5.10000000E+02  2.60000000E+01  0.00000000E+00
  5.20000000E+02  2.60000000E+01  0.00000000E+00
  5.30000000E+02  2.60000000E+01  0.00000000E+00
  5.40000000E+02  2.60000000E+01  0.00000000E+00
  5.50000000E+02  2.60000000E+01  0.00000000E+00
  5.60000000E+02  2.60000000E+01  0.00000000E+00
  5.70000000E+02  2.60000000E+01  0.00000000E+00
  5.80000000E+02  2.60000000E+01  0.00000000E+00
  5.90000000E+02  2.60000000E+01  0.00000000E+00
  6.00000000E+02  2.60000000E+01  0.00000000E+00
  6.10000000E+02  2.60000000E+01  0.00000000E+00
  6.20000000E+02  2.60000000E+01  0.00000000E+00
  6.30000000E+02  2.60000000E+01  0.00000000E+00
  6.40000000E+02  2.60000000E+01  0.00000000E+00
  6.50000000E+02  2.60000000E+01  0.00000000E+00
  6.60000000E+02  2.60000000E+01  0.00000000E+00
  6.70000000E+02  2.60000000E+01  0.00000000E+00
  6.80000000E+02  2.60000000E+01  0.00000000E+00
  6.90000000E+02  2.60000000E+01  0.00000000E+00
  7.00000000E+02  2.60000000E+01  0.00000000E+00
  7.10000000E+02  2.60000000E+01  0.00000000E+00
  7.20000000E+02  2.60000000E+01  0.00000000E+00
  7.30000000E+02  2.60000000E+01  0.00000000E+00
  7.40000000E+02  2.60000000E+01  0.00000000E+00
  7.50000000E+02  2.60000000E+01  0.00000000E+00
  7.60000000E+02  2.60000000E+01  0.00000000E+00
  7.70000000E+02  2.60000000E+01  0.00000000E+00
  7.80000000E+02  2.60000000E+01  0.00000000E+00
  7.90000000E+02  2.60000000E+01  0.00000000E+00
  8.00000000E+02  2.60000000E+01  0.00000000E+00
  8.10000000E+02  2.60000000E+01  0.00000000E+00
  8.20000000E+02  2.60000000E+01  0.00000000E+00
  8.30000000E+02  2.60000000E+01  0.00000000E+00
  8.40000000E+02  2.60000000E+01  0.00000000E+00
  8.50000000E+02  2.60000000E+01  0.00000000E+00
  8.60000000E+02  2.60000000E+01  0.00000000E+00
  8.70000000E+02  2.60000000E+01  0.00000000E+00
  8.80000000E+02  2.60000000E+01  0.00000000E+00
  8.90000000E+02  2.60000000E+01  0.00000000E+00
  9.00000000E+02  2.60000000E+01  0.00000000E+00
  9.10000000E+02  2.60000000E+01  0.00000000E+00
  9.20000000E+02  2.60000000E+01  0.00000000E+00
  9.30000000E+02  2.60000000E+01  0.00000000E+00
  9.40000000E+02  2.60000000E+01  0.00000000E+00
  9.50000000E+02  2.60000000E+01  0.00000000E+00
  9.60000000E+02  2.60000000E+01  0.00000000E+00
  9.70000000E+02  2.60000000E+01  0.00000000E+00
  9.80000000E+02  2.60000000E+01  0.00000000E+00
  9.90000000E+02  2.60000000E+01  0.00000000E+00
  1.00000000E+03  2.60000000E+01  0.00000000E+00
  0.00000000E+00  2.80000000E+01  0.00000000E+00
  1.00000000E+01  2.80000000E+01  0.00000000E+00
  2.00000000E+01  2.80000000E+01  0.00000000E+00
  3.00000000E+01  2.80000000E+01  0.00000000E+00
  4.00000000E+01  2.80000000E+01  0.00000000E+00
  5.00000000E+01  2.80000000E+01  0.00000000E+00
  6.00000000E+01  2.80000000E+01  0.00000000E+00
  7.00000000E+01  2.80000000E+01  0.00000000E+00
  8.00000000E+01  2.80000000E+01  0.00000000E+00
  9.00000000E+01  2.80000000E+01  0.00000000E+00
  1.00000000E+02  2.80000000E+01  0.00000000E+00
  1.10000000E+02  2.80000000E+01  0.00000000E+00
  1.20000000E+02  2.80000000E+01  0.00000000E+00
  1.30000000E+02  2.80000000E+01  0.00000000E+00
  1.40000000E+02  2.80000000E+01  0.00000000E+00
  1.50000000E+02  2.80000000E+01  0.00000000E+00
  1.60000000E+02  2.80000000E+01  0.00000000E+00
  1.70000000E+02  2.80000000E+01  0.00000000E+00
  1.80000000E+02  2.80000000E+01  0.00000000E+00
  1.90000000E+02  2.80000000E+01  0.00000000E+00
  2.00000000E+02  2.80000000E+01  0.00000000E+00
  2.10000000E+02  2.80000000E+01  0.00000000E+00
  2.20000000E+02  2.80000000E+01  0.00000000E+00
  2.30000000E+02  2.80000000E+01  0.00000000E+00
  2.40000000E+02  2.80000000E+01  0.00000000E+00
  2.50000000E+02  2.80000000E+01  0.00000000E+00
  2.60000000E+02  2.80000000E+01  0.00000000E+00
  2.70000000E+02  2.80000000E+01  0.00000000E+00
  2.80000000E+02  2.80000000E+01  0.00000000E+00
  2.90000000E+02  2.80000000E+01  0.00000000E+00
  3.00000000E+02  2.80000000E+01  0.00000000E+00
  3.10000000E+02  2.80000000E+01  0.00000000E+00
  3.20000000E+02  2.80000000E+01  0.00000000E+00
  3.30000000E+02  2.80000000E+01  0.00000000E+00
  3.40000000E+02  2.80000000E+01  0.00000000E+00
  3.50000000E+02  2.80000000E+01  0.00000000E+00
  3.60000000E+02  2.80000000E+01  0.00000000E+00
  3.70000000E+02  2.80000000E+01  0.00000000E+00
  3.80000000E+02  2.80000000E+01  0.00000000E+00
  3.90000000E+02  2.80000000E+01  0.00000000E+00
  4.00000000E+02  2.80000000E+01  0.00000000E+00
  4.10000000E+02  2.80000000E+01  0.00000000E+00
  4.20000000E+02  2.80000000E+01  0.00000000E+00
  4.30000000E+02  2.80000000E+01  0.00000000E+00
  4.40000000E+02  2.80000000E+01  0.00000000E+00
  4.50000000E+02  2.80000000E+01  0.00000000E+00
  4.60000000E+02  2.80000000E+01  0.00000000E+00
  4.70000000E+02  2.80000000E+01  0.00000000E+00
  4.80000000E+02  2.80000000E+01  0.00000000E+00
  4.90000000E+02  2.80000000E+01  0.00000000E+00
  5.00000000E+02  2.80000000E+01  0.00000000E+00
  5.10000000E+02  2.80000000E+01  0.00000000E+00
  5.20000000E+02  2.80000000E+01  0.00000000E+00
  5.30000000E+02  2.80000000E+01  0.00000000E+00
  5.40000000E+02  2.80000000E+01  0.00000000E+00
  5.50000000E+02  2.80000000E+01  0.00000000E+00
  5.60000000E+02  2.80000000E+01  0.00000000E+00
  5.70000000E+02  2.80000000E+01  0.00000000E+00
  5.80000000E+02  2.80000000E+01  0.00000000E+00
  5.90000000E+02  2.80000000E+01  0.00000000E+00
  6.00000000E+02  2.80000000E+01  0.00000000E+00
  6.10000000E+02  2.80000000E+01  0.00000000E+00
  6.20000000E+02  2.80000000E+01  0.00000000E+00
  6.30000000E+02  2.80000000E+01  0.00000000E+00
  6.40000000E+02  2.80000000E+01  0.00000000E+00
  6.50000000E+02  2.80000000E+01  0.00000000E+00
  6.60000000E+02  2.80000000E+01  0.00000000E+00
  6.70000000E+02  2.80000000E+01  0.00000000E+00
  6.80000000E+02  2.80000000E+01  0.00000000E+00
  6.90000000E+02  2.80000000E+01  0.00000000E+00
  7.00000000E+02  2.80000000E+01  0.00000000E+00
  7.10000000E+02  2.80000000E+01  0.00000000E+00
  7.20000000E+02  2.80000000E+01  0.00000000E+00
  7.30000000E+02  2.80000000E+01  0.00000000E+00
  7.40000000E+02  2.80000000E+01  0.00000000E+00
  7.50000000E+02  2.80000000E+01  0.00000000E+00
  7.60000000E+02  2.80000000E+01  0.00000000E+00
  7.70000000E+02  2.80000000E+01  0.00000000E+00
  7.80000000E+02  2.80000000E+01  0.00000000E+00
  7.90000000E+02  2.80000000E+01  0.00000000E+00
  8.00000000E+02  2.80000000E+01  0.00000000E+00
  8.10000000E+02  2.80000000E+01  0.00000000E+00
  8.20000000E+02  2.80000000E+01  0.00000000E+00
  8.30000000E+02  2.80000000E+01  0.00000000E+00
  8.40000000E+02  2.80000000E+01  0.00000000E+00
  8.50000000E+02  2.80000000E+01  0.00000000E+00
  8.60000000E+02  2.80000000E+01  0.00000000E+00
  8.70000000E+02  2.80000000E+01  0.00000000E+00
  8.80000000E+02  2.80000000E+01  0.00000000E+00
  8.90000000E+02  2.80000000E+01  0.00000000E+00
  9.00000000E+02  2.80000000E+01  0.00000000E+00
  9.10000000E+02  2.80000000E+01  0.00000000E+00
  9.20000000E+02  2.80000000E+01  0.00000000E+00
  9.30000000E+02  2.80000000E+01  0.00000000E+00
  9.40000000E+02  2.80000000E+01  0.00000000E+00
  9.50000000E+02  2.80000000E+01  0.00000000E+00
  9.60000000E+02  2.80000000E+01  0.00000000E+00
  9.70000000E+02  2.80000000E+01  0.00000000E+00
  9.80000000E+02  2.80000000E+01  0.00000000E+00
  9.90000000E+02  2.80000000E+01  0.00000000E+00
  1.00000000E+03  2.80000000E+01  0.00000000E+00
  0.00000000E+00  3.00000000E+01  0.00000000E+00
  1.00000000E+01  3.00000000E+01  0.00000000E+00
  2.00000000E+01  3.00000000E+01  0.00000000E+00
  3.00000000E+01  3.00000000E+01  0.00000000E+00
  4.00000000E+01  3.00000000E+01  0.00000000E+00
  5.00000000E+01  3.00000000E+01  0.00000000E+00
  6.00000000E+01  3.00000000E+01  0.00000000E+00
  7.00000000E+01  3.00000000E+01  0.00000000E+00
  8.00000000E+01  3.00000000E+01  0.00000000E+00
  9.00000000E+01  3.00000000E+01  0.00000000E+00
  1.00000000E+02  3.00000000E+01  0.00000000E+00
  1.10000000E+02  3.00000000E+01  0.00000000E+00
  1.20000000E+02  3.00000000E+01  0.00000000E+00
  1.30000000E+02  3.00000000E+01  0.00000000E+00
  1.40000000E+02  3.00000000E+01  0.00000000E+00
  1.50000000E+02  3.00000000E+01  0.00000000E+00
  1.60000000E+02  3.00000000E+01  0.00000000E+00
  1.70000000E+02  3.00000000E+01  0.00000000E+00
  1.80000000E+02  3.00000000E+01  0.00000000E+00
  1.90000000E+02  3.00000000E+01  0.00000000E+00
  2.00000000E+02  3.00000000E+01  0.00000000E+00
  2.10000000E+02  3.00000000E+01  0.00000000E+00
  2.20000000E+02  3.00000000E+01  0.00000000E+00
  2.30000000E+02  3.00000000E+01  0.00000000E+00
  2.40000000E+02  3.00000000E+01  0.00000000E+00
  2.50000000E+02  3.00000000E+01  0.00000000E+00
  2.60000000E+02  3.00000000E+01  0.00000000E+00
  2.70000000E+02  3.00000000E+01  0.00000000E+00
  2.80000000E+02  3.00000000E+01  0.00000000E+00
  2.90000000E+02  3.00000000E+01  0.00000000E+00
  3.00000000E+02  3.00000000E+01  0.00000000E+00
  3.10000000E+02  3.00000000E+01  0.00000000E+00
  3.20000000E+02  3.00000000E+01  0.00000000E+00
  3.30000000E+02  3.00000000E+01  0.00000000E+00
  3.40000000E+02  3.00000000E+01  0.00000000E+00
  3.50000000E+02  3.00000000E+01  0.00000000E+00
  3.60000000E+02  3.00000000E+01  0.00000000E+00
  3.70000000E+02  3.00000000E+01  0.00000000E+00
  3.80000000E+02  3.00000000E+01  0.00000000E+00
  3.90000000E+02  3.00000000E+01  0.00000000E+00
  4.00000000E+02  3.00000000E+01  0.00000000E+00
  4.10000000E+02  3.00000000E+01  0.00000000E+00
  4.20000000E+02  3.00000000E+01  0.00000000E+00
  4.30000000E+02  3.00000000E+01  0.00000000E+00
  4.40000000E+02  3.00000000E+01  0.00000000E+00
  4.50000000E+02  3.00000000E+01  0.00000000E+00
  4.60000000E+02  3.00000000E+01  0.00000000E+00
  4.70000000E+02  3.00000000E+01  0.00000000E+00
  4.80000000E+02  3.00000000E+01  0.00000000E+00
  4.90000000E+02  3.00000000E+01  0.00000000E+00
  5.00000000E+02  3.00000000E+01  0.00000000E+00
  5.10000000E+02  3.00000000E+01  0.00000000E+00
  5.20000000E+02  3.00000000E+01  0.00000000E+00
  5.30000000E+02  3.00000000E+01  0.00000000E+00
  5.40000000E+02  3.00000000E+01  0.00000000E+00
  5.50000000E+02  3.00000000E+01  0.00000000E+00
  5.60000000E+02  3.00000000E+01  0.00000000E+00
  5.70000000E+02  3.00000000E+01  0.00000000E+00
  5.80000000E+02  3.00000000E+01  0.00000000E+00
  5.90000000E+02  3.00000000E+01  0.00000000E+00
  6.00000000E+02  3.00000000E+01  0.00000000E+00
  6.10000000E+02  3.00000000E+01  0.00000000E+00
  6.20000000E+02  3.00000000E+01  0.00000000E+00
  6.30000000E+02  3.00000000E+01  0.00000000E+00
  6.40000000E+02  3.00000000E+01  0.00000000E+00
  6.50000000E+02  3.00000000E+01  0.00000000E+00
  6.60000000E+02  3.00000000E+01  0.00000000E+00
  6.70000000E+02  3.00000000E+01  0.00000000E+00
  6.80000000E+02  3.00000000E+01  0.00000000E+00
  6.90000000E+02  3.00000000E+01  0.00000000E+00
  7.00000000E+02  3.00000000E+01  0.00000000E+00
  7.10000000E+02  3.00000000E+01  0.00000000E+00
  7.20000000E+02  3.00000000E+01  0.00000000E+00
  7.30000000E+02  3.00000000E+01  0.00000000E+00
  7.40000000E+02  3.00000000E+01  0.00000000E+00
  7.50000000E+02  3.00000000E+01  0.00000000E+00
  7.60000000E+02  3.00000000E+01  0.00000000E+00
  7.70000000E+02  3.00000000E+01  0.00000000E+00
  7.80000000E+02  3.00000000E+01  0.00000000E+00
  7.90000000E+02  3.00000000E+01  0.00000000E+00
  8.00000000E+02  3.00000000E+01  0.00000000E+00
  8.10000000E+02  3.00000000E+01  0.00000000E+00
  8.20000000E+02  3.00000000E+01  0.00000000E+00
  8.30000000E+02  3.00000000E+01  0.00000000E+00
  8.40000000E+02  3.00000000E+01  0.00000000E+00
  8.50000000E+02  3.00000000E+01  0.00000000E+00
  8.60000000E+02  3.00000000E+01  0.00000000E+00
  8.70000000E+02  3.00000000E+01  0.00000000E+00
  8.80000000E+02  3.00000000E+01  0.00000000E+00
  8.90000000E+02  3.00000000E+01  0.00000000E+00
  9.00000000E+02  3.00000000E+01  0.00000000E+00
  9.10000000E+02  3.00000000E+01  0.00000000E+00
  9.20000000E+02  3.00000000E+01  0.00000000E+00
  9.30000000E+02  3.00000000E+01  0.00000000E+00
  9.40000000E+02  3.00000000E+01  0.00000000E+00
  9.50000000E+02  3.00000000E+01  0.00000000E+00
  9.60000000E+02  3.00000000E+01  0.00000000E+00
  9.70000000E+02  3.00000000E+01  0.00000000E+00
  9.80000000E+02  3.00000000E+01  0.00000000E+00
  9.90000000E+02  3.00000000E+01  0.00000000E+00
  1.00000000E+03  3.00000000E+01  0.00000000E+00
  0.00000000E+00  3.20000000E+01  0.00000000E+00
  1.00000000E+01  3.20000000E+01  0.00000000E+00
  2.00000000E+01  3.20000000E+01  0.00000000E+00
  3.00000000E+01  3.20000000E+01  0.00000000E+00
  4.00000000E+01  3.20000000E+01  0.00000000E+00
  5.00000000E+01  3.20000000E+01  0.00000000E+00
  6.00000000E+01  3.20000000E+01  0.00000000E+00
  7.00000000E+01  3.20000000E+01  0.00000000E+00
  8.00000000E+01  3.20000000E+01  0.00000000E+00
  9.00000000E+01  3.20000000E+01  0.00000000E+00
  1.00000000E+02  3.20000000E+01  0.00000000E+00
  1.10000000E+02  3.20000000E+01  0.00000000E+00
  1.20000000E+02  3.20000000E+01  0.00000000E+00
  1.30000000E+02  3.20000000E+01  0.00000000E+00
  1.40000000E+02  3.20000000E+01  0.00000000E+00
  1.50000000E+02  3.20000000E+01  0.00000000E+00
  1.60000000E+02  3.20000000E+01  0.00000000E+00
  1.70000000E+02  3.20000000E+01  0.00000000E+00
  1.80000000E+02  3.20000000E+01  0.00000000E+00
  1.90000000E+02  3.20000000E+01  0.00000000E+00
  2.00000000E+02  3.20000000E+01  0.00000000E+00
  2.10000000E+02  3.20000000E+01  0.00000000E+00
  2.20000000E+02  3.20000000E+01  0.00000000E+00
  2.30000000E+02  3.20000000E+01  0.00000000E+00
  2.40000000E+02  3.20000000E+01  0.00000000E+00
  2.50000000E+02  3.20000000E+01  0.00000000E+00
  2.60000000E+02  3.20000000E+01  0.00000000E+00
  2.70000000E+02  3.20000000E+01  0.00000000E+00
  2.80000000E+02  3.20000000E+01  0.00000000E+00
  2.90000000E+02  3.20000000E+01  0.00000000E+00
  3.00000000E+02  3.20000000E+01  0.00000000E+00
  3.10000000E+02  3.20000000E+01  0.00000000E+00
  3.20000000E+02  3.20000000E+01  0.00000000E+00
  3.30000000E+02  3.20000000E+01  0.00000000E+00
  3.40000000E+02  3.20000000E+01  0.00000000E+00
  3.50000000E+02  3.20000000E+01  0.00000000E+00
  3.60000000E+02  3.20000000E+01  0.00000000E+00
  3.70000000E+02  3.20000000E+01  0.00000000E+00
  3.80000000E+02  3.20000000E+01  0.00000000E+00
  3.90000000E+02  3.20000000E+01  0.00000000E+00
  4.00000000E+02  3.20000000E+01  0.00000000E+00
  4.10000000E+02  3.20000000E+01  0.00000000E+00
  4.20000000E+02  3.20000000E+01  0.00000000E+00
  4.30000000E+02  3.20000000E+01  0.00000000E+00
  4.40000000E+02  3.20000000E+01  0.00000000E+00
  4.50000000E+02  3.20000000E+01  0.00000000E+00
  4.60000000E+02  3.20000000E+01  0.00000000E+00
  4.70000000E+02  3.20000000E+01  0.00000000E+00
  4.80000000E+02  3.20000000E+01  0.00000000E+00
  4.90000000E+02  3.20000000E+01  0.00000000E+00
  5.00000000E+02  3.20000000E+01  0.00000000E+00
  5.10000000E+02  3.20000000E+01  0.00000000E+00
  5.20000000E+02  3.20000000E+01  0.00000000E+00
  5.30000000E+02  3.20000000E+01  0.00000000E+00
  5.40000000E+02  3.20000000E+01  0.00000000E+00
  5.50000000E+02  3.20000000E+01  0.00000000E+00
  5.60000000E+02  3.20000000E+01  0.00000000E+00
  5.70000000E+02  3.20000000E+01  0.00000000E+00
  5.80000000E+02  3.20000000E+01  0.00000000E+00
  5.90000000E+02  3.20000000E+01  0.00000000E+00
  6.00000000E+02  3.20000000E+01  0.00000000E+00
  6.10000000E+02  3.20000000E+01  0.00000000E+00
  6.20000000E+02  3.20000000E+01  0.00000000E+00
  6.30000000E+02  3.20000000E+01  0.00000000E+00
  6.40000000E+02  3.20000000E+01  0.00000000E+00
  6.50000000E+02  3.20000000E+01  0.00000000E+00
  6.60000000E+02  3.20000000E+01  0.00000000E+00
  6.70000000E+02  3.20000000E+01  0.00000000E+00
  6.80000000E+02  3.20000000E+01  0.00000000E+00
  6.90000000E+02  3.20000000E+01  0.00000000E+00
  7.00000000E+02  3.20000000E+01  0.00000000E+00
  7.10000000E+02  3.20000000E+01  0.00000000E+00
  7.20000000E+02  3.20000000E+01  0.00000000E+00
  7.30000000E+02  3.20000000E+01  0.00000000E+00
  7.40000000E+02  3.20000000E+01  0.00000000E+00
  7.50000000E+02  3.20000000E+01  0.00000000E+00
  7.60000000E+02  3.20000000E+01  0.00000000E+00
  7.70000000E+02  3.20000000E+01  0.00000000E+00
  7.80000000E+02  3.20000000E+01  0.00000000E+00
  7.90000000E+02  3.20000000E+01  0.00000000E+00
  8.00000000E+02  3.20000000E+01  0.00000000E+00
  8.10000000E+02  3.20000000E+01  0.00000000E+00
  8.20000000E+02  3.20000000E+01  0.00000000E+00
  8.30000000E+02  3.20000000E+01  0.00000000E+00
  8.40000000E+02  3.20000000E+01  0.00000000E+00
  8.50000000E+02  3.20000000E+01  0.00000000E+00
  8.60000000E+02  3.20000000E+01  0.00000000E+00
  8.70000000E+02  3.20000000E+01  0.00000000E+00
  8.80000000E+02  3.20000000E+01  0.00000000E+00
  8.90000000E+02  3.20000000E+01  0.00000000E+00
  9.00000000E+02  3.20000000E+01  0.00000000E+00
  9.10000000E+02  3.20000000E+01  0.00000000E+00
  9.20000000E+02  3.20000000E+01  0.00000000E+00
  9.30000000E+02  3.20000000E+01  0.00000000E+00
  9.40000000E+02  3.20000000E+01  0.00000000E+00
  9.50000000E+02  3.20000000E+01  0.00000000E+00
  9.60000000E+02  3.20000000E+01  0.00000000E+00
  9.70000000E+02  3.20000000E+01  0.00000000E+00
  9.80000000E+02  3.20000000E+01  0.00000000E+00
  9.90000000E+02  3.20000000E+01  0.00000000E+00
  1.00000000E+03  3.20000000E+01  0.00000000E+00
  0.00000000E+00  3.40000000E+01  0.00000000E+00
  1.00000000E+01  3.40000000E+01  0.00000000E+00
  2.00000000E+01  3.40000000E+01  0.00000000E+00
  3.00000000E+01  3.40000000E+01  0.00000000E+00
  4.00000000E+01  3.40000000E+01  0.00000000E+00
  5.00000000E+01  3.40000000E+01  0.00000000E+00
  6.00000000E+01  3.40000000E+01  0.00000000E+00
  7.00000000E+01  3.40000000E+01  0.00000000E+00
  8.00000000E+01  3.40000000E+01  0.00000000E+00
  9.00000000E+01  3.40000000E+01  0.00000000E+00
  1.00000000E+02  3.40000000E+01  0.00000000E+00
  1.10000000E+02  3.40000000E+01  0.00000000E+00
  1.20000000E+02  3.40000000E+01  0.00000000E+00
  1.30000000E+02  3.40000000E+01  0.00000000E+00
  1.40000000E+02  3.40000000E+01  0.00000000E+00
  1.50000000E+02  3.40000000E+01  0.00000000E+00
  1.60000000E+02  3.40000000E+01  0.00000000E+00
  1.70000000E+02  3.40000000E+01  0.00000000E+00
  1.80000000E+02  3.40000000E+01  0.00000000E+00
  1.90000000E+02  3.40000000E+01  0.00000000E+00
  2.00000000E+02  3.40000000E+01  0.00000000E+00
  2.10000000E+02  3.40000000E+01  0.00000000E+00
  2.20000000E+02  3.40000000E+01  0.00000000E+00
  2.30000000E+02  3.40000000E+01  0.00000000E+00
  2.40000000E+02  3.40000000E+01  0.00000000E+00
  2.50000000E+02  3.40000000E+01  0.00000000E+00
  2.60000000E+02  3.40000000E+01  0.00000000E+00
  2.70000000E+02  3.40000000E+01  0.00000000E+00
  2.80000000E+02  3.40000000E+01  0.00000000E+00
  2.90000000E+02  3.40000000E+01  0.00000000E+00
  3.00000000E+02  3.40000000E+01  0.00000000E+00
  3.10000000E+02  3.40000000E+01  0.00000000E+00
  3.20000000E+02  3.40000000E+01  0.00000000E+00
  3.30000000E+02  3.40000000E+01  0.00000000E+00
  3.40000000E+02  3.40000000E+01  0.00000000E+00
  3.50000000E+02  3.40000000E+01  0.00000000E+00
  3.60000000E+02  3.40000000E+01  0.00000000E+00
  3.70000000E+02  3.40000000E+01  0.00000000E+00
  3.80000000E+02  3.40000000E+01  0.00000000E+00
  3.90000000E+02  3.40000000E+01  0.00000000E+00
  4.00000000E+02  3.40000000E+01  0.00000000E+00
  4.10000000E+02  3.40000000E+01  0.00000000E+00
  4.20000000E+02  3.40000000E+01  0.00000000E+00
  4.30000000E+02  3.40000000E+01  0.00000000E+00
  4.40000000E+02  3.40000000E+01  0.00000000E+00
  4.50000000E+02  3.40000000E+01  0.00000000E+00
  4.60000000E+02  3.40000000E+01  0.00000000E+00
  4.70000000E+02  3.40000000E+01  0.00000000E+00
  4.80000000E+02  3.40000000E+01  0.00000000E+00
  4.90000000E+02  3.40000000E+01  0.00000000E+00
  5.00000000E+02  3.40000000E+01  0.00000000E+00
  5.10000000E+02  3.40000000E+01  0.00000000E+00
  5.20000000E+02  3.40000000E+01  0.00000000E+00
  5.30000000E+02  3.40000000E+01  0.00000000E+00
  5.40000000E+02  3.40000000E+01  0.00000000E+00
  5.50000000E+02  3.40000000E+01  0.00000000E+00
  5.60000000E+02  3.40000000E+01  0.00000000E+00
  5.70000000E+02  3.40000000E+01  0.00000000E+00
  5.80000000E+02  3.40000000E+01  0.00000000E+00
  5.90000000E+02  3.40000000E+01  0.00000000E+00
  6.00000000E+02  3.40000000E+01  0.00000000E+00
  6.10000000E+02  3.40000000E+01  0.00000000E+00
  6.20000000E+02  3.40000000E+01  0.00000000E+00
  6.30000000E+02  3.40000000E+01  0.00000000E+00
  6.40000000E+02  3.40000000E+01  0.00000000E+00
  6.50000000E+02  3.40000000E+01  0.00000000E+00
  6.60000000E+02  3.40000000E+01  0.00000000E+00
  6.70000000E+02  3.40000000E+01  0.00000000E+00
  6.80000000E+02  3.40000000E+01  0.00000000E+00
  6.90000000E+02  3.40000000E+01  0.00000000E+00
  7.00000000E+02  3.40000000E+01  0.00000000E+00
  7.10000000E+02  3.40000000E+01  0.00000000E+00
  7.20000000E+02  3.40000000E+01  0.00000000E+00
  7.30000000E+02  3.40000000E+01  0.00000000E+00
  7.40000000E+02  3.40000000E+01  0.00000000E+00
  7.50000000E+02  3.40000000E+01  0.00000000E+00
  7.60000000E+02  3.40000000E+01  0.00000000E+00
  7.70000000E+02  3.40000000E+01  0.00000000E+00
  7.80000000E+02  3.40000000E+01  0.00000000E+00
  7.90000000E+02  3.40000000E+01  0.00000000E+00
  8.00000000E+02  3.40000000E+01  0.00000000E+00
  8.10000000E+02  3.40000000E+01  0.00000000E+00
  8.20000000E+02  3.40000000E+01  0.00000000E+00
  8.30000000E+02  3.40000000E+01  0.00000000E+00
  8.40000000E+02  3.40000000E+01  0.00000000E+00
  8.50000000E+02  3.40000000E+01  0.00000000E+00
  8.60000000E+02  3.40000000E+01  0.00000000E+00
  8.70000000E+02  3.40000000E+01  0.00000000E+00
  8.80000000E+02  3.40000000E+01  0.00000000E+00
  8.90000000E+02  3.40000000E+01  0.00000000E+00
  9.00000000E+02  3.40000000E+01  0.00000000E+00
  9.10000000E+02  3.40000000E+01  0.00000000E+00
  9.20000000E+02  3.40000000E+01  0.00000000E+00
  9.30000000E+02  3.40000000E+01  0.00000000E+00
  9.40000000E+02  3.40000000E+01  0.00000000E+00
  9.50000000E+02  3.40000000E+01  0.00000000E+00
  9.60000000E+02  3.40000000E+01  0.00000000E+00
  9.70000000E+02  3.40000000E+01  0.00000000E+00
  9.80000000E+02  3.40000000E+01  0.00000000E+00
  9.90000000E+02  3.40000000E+01  0.00000000E+00
  1.00000000E+03  3.40000000E+01  0.00000000E+00
  0.00000000E+00  3.60000000E+01  0.00000000E+00
  1.00000000E+01  3.60000000E+01  0.00000000E+00
  2.00000000E+01  3.60000000E+01  0.00000000E+00
  3.00000000E+01  3.60000000E+01  0.00000000E+00
  4.00000000E+01  3.60000000E+01  0.00000000E+00
  5.00000000E+01  3.60000000E+01  0.00000000E+00
  6.00000000E+01  3.60000000E+01  0.00000000E+00
  7.00000000E+01  3.60000000E+01  0.00000000E+00
  8.00000000E+01  3.60000000E+01  0.00000000E+00
  9.00000000E+01  3.60000000E+01  0.00000000E+00
  1.00000000E+02  3.60000000E+01  0.00000000E+00
  1.10000000E+02  3.60000000E+01  0.00000000E+00
  1.20000000E+02  3.60000000E+01  0.00000000E+00
  1.30000000E+02  3.60000000E+01  0.00000000E+00
  1.40000000E+02  3.60000000E+01  0.00000000E+00
  1.50000000E+02  3.60000000E+01  0.00000000E+00
  1.60000000E+02  3.60000000E+01  0.00000000E+00
  1.70000000E+02  3.60000000E+01  0.00000000E+00
  1.80000000E+02  3.60000000E+01  0.00000000E+00
  1.90000000E+02  3.60000000E+01  0.00000000E+00
  2.00000000E+02  3.60000000E+01  0.00000000E+00
  2.10000000E+02  3.60000000E+01  0.00000000E+00
  2.20000000E+02  3.60000000E+01  0.00000000E+00
  2.30000000E+02  3.60000000E+01  0.00000000E+00
  2.40000000E+02  3.60000000E+01  0.00000000E+00
  2.50000000E+02  3.60000000E+01  0.00000000E+00
  2.60000000E+02  3.60000000E+01  0.00000000E+00
  2.70000000E+02  3.60000000E+01  0.00000000E+00
  2.80000000E+02  3.60000000E+01  0.00000000E+00
  2.90000000E+02  3.60000000E+01  0.00000000E+00
  3.00000000E+02  3.60000000E+01  0.00000000E+00
  3.10000000E+02  3.60000000E+01  0.00000000E+00
  3.20000000E+02  3.60000000E+01  0.00000000E+00
  3.30000000E+02  3.60000000E+01  0.00000000E+00
  3.40000000E+02  3.60000000E+01  0.00000000E+00
  3.50000000E+02  3.60000000E+01  0.00000000E+00
  3.60000000E+02  3.60000000E+01  0.00000000E+00
  3.70000000E+02  3.60000000E+01  0.00000000E+00
  3.80000000E+02  3.60000000E+01  0.00000000E+00
  3.90000000E+02  3.60000000E+01  0.00000000E+00
  4.00000000E+02  3.60000000E+01  0.00000000E+00
  4.10000000E+02  3.60000000E+01  0.00000000E+00
  4.20000000E+02  3.60000000E+01  0.00000000E+00
  4.30000000E+02  3.60000000E+01  0.00000000E+00
  4.40000000E+02  3.60000000E+01  0.00000000E+00
  4.50000000E+02  3.60000000E+01  0.00000000E+00
  4.60000000E+02  3.60000000E+01  0.00000000E+00
  4.70000000E+02  3.60000000E+01  0.00000000E+00
  4.80000000E+02  3.60000000E+01  0.00000000E+00
  4.90000000E+02  3.60000000E+01  0.00000000E+00
  5.00000000E+02  3.60000000E+01  0.00000000E+00
  5.10000000E+02  3.60000000E+01  0.00000000E+00
  5.20000000E+02  3.60000000E+01  0.00000000E+00
  5.30000000E+02  3.60000000E+01  0.00000000E+00
  5.40000000E+02  3.60000000E+01  0.00000000E+00
  5.50000000E+02  3.60000000E+01  0.00000000E+00
  5.60000000E+02  3.60000000E+01  0.00000000E+00
  5.70000000E+02  3.60000000E+01  0.00000000E+00
  5.80000000E+02  3.60000000E+01  0.00000000E+00
  5.90000000E+02  3.60000000E+01  0.00000000E+00
  6.00000000E+02  3.60000000E+01  0.00000000E+00
  6.10000000E+02  3.60000000E+01  0.00000000E+00
  6.20000000E+02  3.60000000E+01  0.00000000E+00
  6.30000000E+02  3.60000000E+01  0.00000000E+00
  6.40000000E+02  3.60000000E+01  0.00000000E+00
  6.50000000E+02  3.60000000E+01  0.00000000E+00
  6.60000000E+02  3.60000000E+01  0.00000000E+00
  6.70000000E+02  3.60000000E+01  0.00000000E+00
  6.80000000E+02  3.60000000E+01  0.00000000E+00
  6.90000000E+02  3.60000000E+01  0.00000000E+00
  7.00000000E+02  3.60000000E+01  0.00000000E+00
  7.10000000E+02  3.60000000E+01  0.00000000E+00
  7.20000000E+02  3.60000000E+01  0.00000000E+00
  7.30000000E+02  3.60000000E+01  0.00000000E+00
  7.40000000E+02  3.60000000E+01  0.00000000E+00
  7.50000000E+02  3.60000000E+01  0.00000000E+00
  7.60000000E+02  3.60000000E+01  0.00000000E+00
  7.70000000E+02  3.60000000E+01  0.00000000E+00
  7.80000000E+02  3.60000000E+01  0.00000000E+00
  7.90000000E+02  3.60000000E+01  0.00000000E+00
  8.00000000E+02  3.60000000E+01  0.00000000E+00
  8.10000000E+02  3.60000000E+01  0.00000000E+00
  8.20000000E+02  3.60000000E+01  0.00000000E+00
  8.30000000E+02  3.60000000E+01  0.00000000E+00
  8.40000000E+02  3.60000000E+01  0.00000000E+00
  8.50000000E+02  3.60000000E+01  0.00000000E+00
  8.60000000E+02  3.60000000E+01  0.00000000E+00
  8.70000000E+02  3.60000000E+01  0.00000000E+00
  8.80000000E+02  3.60000000E+01  0.00000000E+00
  8.90000000E+02  3.60000000E+01  0.00000000E+00
  9.00000000E+02  3.60000000E+01  0.00000000E+00
  9.10000000E+02  3.60000000E+01  0.00000000E+00
  9.20000000E+02  3.60000000E+01  0.00000000E+00
  9.30000000E+02  3.60000000E+01  0.00000000E+00
  9.40000000E+02  3.60000000E+01  0.00000000E+00
  9.50000000E+02  3.60000000E+01  0.00000000E+00
  9.60000000E+02  3.60000000E+01  0.00000000E+00
  9.70000000E+02  3.60000000E+01  0.00000000E+00
  9.80000000E+02  3.60000000E+01  0.00000000E+00
  9.90000000E+02  3.60000000E+01  0.00000000E+00
  1.00000000E+03  3.60000000E+01  0.00000000E+00
  0.00000000E+00  3.80000000E+01  0.00000000E+00
  1.00000000E+01  3.80000000E+01  0.00000000E+00
  2.00000000E+01  3.80000000E+01  0.00000000E+00
  3.00000000E+01  3.80000000E+01  0.00000000E+00
  4.00000000E+01  3.80000000E+01  0.00000000E+00
  5.00000000E+01  3.80000000E+01  0.00000000E+00
  6.00000000E+01  3.80000000E+01  0.00000000E+00
  7.00000000E+01  3.80000000E+01  0.00000000E+00
  8.00000000E+01  3.80000000E+01  0.00000000E+00
  9.00000000E+01  3.80000000E+01  0.00000000E+00
  1.00000000E+02  3.80000000E+01  0.00000000E+00
  1.10000000E+02  3.80000000E+01  0.00000000E+00
  1.20000000E+02  3.80000000E+01  0.00000000E+00
  1.30000000E+02  3.80000000E+01  0.00000000E+00
  1.40000000E+02  3.80000000E+01  0.00000000E+00
  1.50000000E+02  3.80000000E+01  0.00000000E+00
  1.60000000E+02  3.80000000E+01  0.00000000E+00
  1.70000000E+02  3.80000000E+01  0.00000000E+00
  1.80000000E+02  3.80000000E+01  0.00000000E+00
  1.90000000E+02  3.80000000E+01  0.00000000E+00
  2.00000000E+02  3.80000000E+01  0.00000000E+00
  2.10000000E+02  3.80000000E+01  0.00000000E+00
  2.20000000E+02  3.80000000E+01  0.00000000E+00
  2.30000000E+02  3.80000000E+01  0.00000000E+00
  2.40000000E+02  3.80000000E+01  0.00000000E+00
  2.50000000E+02  3.80000000E+01  0.00000000E+00
  2.60000000E+02  3.80000000E+01  0.00000000E+00
  2.70000000E+02  3.80000000E+01  0.00000000E+00
  2.80000000E+02  3.80000000E+01  0.00000000E+00
  2.90000000E+02  3.80000000E+01  0.00000000E+00
  3.00000000E+02  3.80000000E+01  0.00000000E+00
  3.10000000E+02  3.80000000E+01  0.00000000E+00
  3.20000000E+02  3.80000000E+01  0.00000000E+00
  3.30000000E+02  3.80000000E+01  0.00000000E+00
  3.40000000E+02  3.80000000E+01  0.00000000E+00
  3.50000000E+02  3.80000000E+01  0.00000000E+00
  3.60000000E+02  3.80000000E+01  0.00000000E+00
  3.70000000E+02  3.80000000E+01  0.00000000E+00
  3.80000000E+02  3.80000000E+01  0.00000000E+00
  3.90000000E+02  3.80000000E+01  0.00000000E+00
  4.00000000E+02  3.80000000E+01  0.00000000E+00
  4.10000000E+02  3.80000000E+01  0.00000000E+00
  4.20000000E+02  3.80000000E+01  0.00000000E+00
  4.30000000E+02  3.80000000E+01  0.00000000E+00
  4.40000000E+02  3.80000000E+01  0.00000000E+00
  4.50000000E+02  3.80000000E+01  0.00000000E+00
  4.60000000E+02  3.80000000E+01  0.00000000E+00
  4.70000000E+02  3.80000000E+01  0.00000000E+00
  4.80000000E+02  3.80000000E+01  0.00000000E+00
  4.90000000E+02  3.80000000E+01  0.00000000E+00
  5.00000000E+02  3.80000000E+01  0.00000000E+00
  5.10000000E+02  3.80000000E+01  0.00000000E+00
  5.20000000E+02  3.80000000E+01  0.00000000E+00
  5.30000000E+02  3.80000000E+01  0.00000000E+00
  5.40000000E+02  3.80000000E+01  0.00000000E+00
  5.50000000E+02  3.80000000E+01  0.00000000E+00
  5.60000000E+02  3.80000000E+01  0.00000000E+00
  5.70000000E+02  3.80000000E+01  0.00000000E+00
  5.80000000E+02  3.80000000E+01  0.00000000E+00
  5.90000000E+02  3.80000000E+01  0.00000000E+00
  6.00000000E+02  3.80000000E+01  0.00000000E+00
  6.10000000E+02  3.80000000E+01  0.00000000E+00
  6.20000000E+02  3.80000000E+01  0.00000000E+00
  6.30000000E+02  3.80000000E+01  0.00000000E+00
  6.40000000E+02  3.80000000E+01  0.00000000E+00
  6.50000000E+02  3.80000000E+01  0.00000000E+00
  6.60000000E+02  3.80000000E+01  0.00000000E+00
  6.70000000E+02  3.80000000E+01  0.00000000E+00
  6.80000000E+02  3.80000000E+01  0.00000000E+00
  6.90000000E+02  3.80000000E+01  0.00000000E+00
  7.00000000E+02  3.80000000E+01  0.00000000E+00
  7.10000000E+02  3.80000000E+01  0.00000000E+00
  7.20000000E+02  3.80000000E+01  0.00000000E+00
  7.30000000E+02  3.80000000E+01  0.00000000E+00
  7.40000000E+02  3.80000000E+01  0.00000000E+00
  7.50000000E+02  3.80000000E+01  0.00000000E+00
  7.60000000E+02  3.80000000E+01  0.00000000E+00
  7.70000000E+02  3.80000000E+01  0.00000000E+00
  7.80000000E+02  3.80000000E+01  0.00000000E+00
  7.90000000E+02  3.80000000E+01  0.00000000E+00
  8.00000000E+02  3.80000000E+01  0.00000000E+00
  8.10000000E+02  3.80000000E+01  0.00000000E+00
  8.20000000E+02  3.80000000E+01  0.00000000E+00
  8.30000000E+02  3.80000000E+01  0.00000000E+00
  8.40000000E+02  3.80000000E+01  0.00000000E+00
  8.50000000E+02  3.80000000E+01  0.00000000E+00
  8.60000000E+02  3.80000000E+01  0.00000000E+00
  8.70000000E+02  3.80000000E+01  0.00000000E+00
  8.80000000E+02  3.80000000E+01  0.00000000E+00
  8.90000000E+02  3.80000000E+01  0.00000000E+00
  9.00000000E+02  3.80000000E+01  0.00000000E+00
  9.10000000E+02  3.80000000E+01  0.00000000E+00
  9.20000000E+02  3.80000000E+01  0.00000000E+00
  9.30000000E+02  3.80000000E+01  0.00000000E+00
  9.40000000E+02  3.80000000E+01  0.00000000E+00
  9.50000000E+02  3.80000000E+01  0.00000000E+00
  9.60000000E+02  3.80000000E+01  0.00000000E+00
  9.70000000E+02  3.80000000E+01  0.00000000E+00
  9.80000000E+02  3.80000000E+01  0.00000000E+00
  9.90000000E+02  3.80000000E+01  0.00000000E+00
  1.00000000E+03  3.80000000E+01  0.00000000E+00
  0.00000000E+00  4.00000000E+01  0.00000000E+00
  1.00000000E+01  4.00000000E+01  0.00000000E+00
  2.00000000E+01  4.00000000E+01  0.00000000E+00
  3.00000000E+01  4.00000000E+01  0.00000000E+00
  4.00000000E+01  4.00000000E+01  0.00000000E+00
  5.00000000E+01  4.00000000E+01  0.00000000E+00
  6.00000000E+01  4.00000000E+01  0.00000000E+00
  7.00000000E+01  4.00000000E+01  0.00000000E+00
  8.00000000E+01  4.00000000E+01  0.00000000E+00
  9.00000000E+01  4.00000000E+01  0.00000000E+00
  1.00000000E+02  4.00000000E+01  0.00000000E+00
  1.10000000E+02  4.00000000E+01  0.00000000E+00
  1.20000000E+02  4.00000000E+01  0.00000000E+00
  1.30000000E+02  4.00000000E+01  0.00000000E+00
  1.40000000E+02  4.00000000E+01  0.00000000E+00
  1.50000000E+02  4.00000000E+01  0.00000000E+00
  1.60000000E+02  4.00000000E+01  0.00000000E+00
  1.70000000E+02  4.00000000E+01  0.00000000E+00
  1.80000000E+02  4.00000000E+01  0.00000000E+00
  1.90000000E+02  4.00000000E+01  0.00000000E+00
  2.00000000E+02  4.00000000E+01  0.00000000E+00
  2.10000000E+02  4.00000000E+01  0.00000000E+00
  2.20000000E+02  4.00000000E+01  0.00000000E+00
  2.30000000E+02  4.00000000E+01  0.00000000E+00
  2.40000000E+02  4.00000000E+01  0.00000000E+00
  2.50000000E+02  4.00000000E+01  0.00000000E+00
  2.60000000E+02  4.00000000E+01  0.00000000E+00
  2.70000000E+02  4.00000000E+01  0.00000000E+00
  2.80000000E+02  4.00000000E+01  0.00000000E+00
  2.90000000E+02  4.00000000E+01  0.00000000E+00
  3.00000000E+02  4.00000000E+01  0.00000000E+00
  3.10000000E+02  4.00000000E+01  0.00000000E+00
  3.20000000E+02  4.00000000E+01  0.00000000E+00
  3.30000000E+02  4.00000000E+01  0.00000000E+00
  3.40000000E+02  4.00000000E+01  0.00000000E+00
  3.50000000E+02  4.00000000E+01  0.00000000E+00
  3.60000000E+02  4.00000000E+01  0.00000000E+00
  3.70000000E+02  4.00000000E+01  0.00000000E+00
  3.80000000E+02  4.00000000E+01  0.00000000E+00
  3.90000000E+02  4.00000000E+01  0.00000000E+00
  4.00000000E+02  4.00000000E+01  0.00000000E+00
  4.10000000E+02  4.00000000E+01  0.00000000E+00
  4.20000000E+02  4.00000000E+01  0.00000000E+00
  4.30000000E+02  4.00000000E+01  0.00000000E+00
  4.40000000E+02  4.00000000E+01  0.00000000E+00
  4.50000000E+02  4.00000000E+01  0.00000000E+00
  4.60000000E+02  4.00000000E+01  0.00000000E+00
  4.70000000E+02  4.00000000E+01  0.00000000E+00
  4.80000000E+02  4.00000000E+01  0.00000000E+00
  4.90000000E+02  4.00000000E+01  0.00000000E+00
  5.00000000E+02  4.00000000E+01  0.00000000E+00
  5.10000000E+02  4.00000000E+01  0.00000000E+00
  5.20000000E+02  4.00000000E+01  0.00000000E+00
  5.30000000E+02  4.00000000E+01  0.00000000E+00
  5.40000000E+02  4.00000000E+01  0.00000000E+00
  5.50000000E+02  4.00000000E+01  0.00000000E+00
  5.60000000E+02  4.00000000E+01  0.00000000E+00
  5.70000000E+02  4.00000000E+01  0.00000000E+00
  5.80000000E+02  4.00000000E+01  0.00000000E+00
  5.90000000E+02  4.00000000E+01  0.00000000E+00
  6.00000000E+02  4.00000000E+01  0.00000000E+00
  6.10000000E+02  4.00000000E+01  0.00000000E+00
  6.20000000E+02  4.00000000E+01  0.00000000E+00
  6.30000000E+02  4.00000000E+01  0.00000000E+00
  6.40000000E+02  4.00000000E+01  0.00000000E+00
  6.50000000E+02  4.00000000E+01  0.00000000E+00
  6.60000000E+02  4.00000000E+01  0.00000000E+00
  6.70000000E+02  4.00000000E+01  0.00000000E+00
  6.80000000E+02  4.00000000E+01  0.00000000E+00
  6.90000000E+02  4.00000000E+01  0.00000000E+00
  7.00000000E+02  4.00000000E+01  0.00000000E+00
  7.10000000E+02  4.00000000E+01  0.00000000E+00
  7.20000000E+02  4.00000000E+01  0.00000000E+00
  7.30000000E+02  4.00000000E+01  0.00000000E+00
  7.40000000E+02  4.00000000E+01  0.00000000E+00
  7.50000000E+02  4.00000000E+01  0.00000000E+00
  7.60000000E+02  4.00000000E+01  0.00000000E+00
  7.70000000E+02  4.00000000E+01  0.00000000E+00
  7.80000000E+02  4.00000000E+01  0.00000000E+00
  7.90000000E+02  4.00000000E+01  0.00000000E+00
  8.00000000E+02  4.00000000E+01  0.00000000E+00
  8.10000000E+02  4.00000000E+01  0.00000000E+00
  8.20000000E+02  4.00000000E+01  0.00000000E+00
  8.30000000E+02  4.00000000E+01  0.00000000E+00
  8.40000000E+02  4.00000000E+01  0.00000000E+00
  8.50000000E+02  4.00000000E+01  0.00000000E+00
  8.60000000E+02  4.00000000E+01  0.00000000E+00
  8.70000000E+02  4.00000000E+01  0.00000000E+00
  8.80000000E+02  4.00000000E+01  0.00000000E+00
  8.90000000E+02  4.00000000E+01  0.00000000E+00
  9.00000000E+02  4.00000000E+01  0.00000000E+00
  9.10000000E+02  4.00000000E+01  0.00000000E+00
  9.20000000E+02  4.00000000E+01  0.00000000E+00
  9.30000000E+02  4.00000000E+01  0.00000000E+00
  9.40000000E+02  4.00000000E+01  0.00000000E+00
  9.50000000E+02  4.00000000E+01  0.00000000E+00
  9.60000000E+02  4.00000000E+01  0.00000000E+00
  9.70000000E+02  4.00000000E+01  0.00000000E+00
  9.80000000E+02  4.00000000E+01  0.00000000E+00
  9.90000000E+02  4.00000000E+01  0.00000000E+00
  1.00000000E+03  4.00000000E+01  0.00000000E+00
  0.00000000E+00  4.20000000E+01  0.00000000E+00
  1.00000000E+01  4.20000000E+01  0.00000000E+00
  2.00000000E+01  4.20000000E+01  0.00000000E+00
  3.00000000E+01  4.20000000E+01  0.00000000E+00
  4.00000000E+01  4.20000000E+01  0.00000000E+00
  5.00000000E+01  4.20000000E+01  0.00000000E+00
  6.00000000E+01  4.20000000E+01  0.00000000E+00
  7.00000000E+01  4.20000000E+01  0.00000000E+00
  8.00000000E+01  4.20000000E+01  0.00000000E+00
  9.00000000E+01  4.20000000E+01  0.00000000E+00
  1.00000000E+02  4.20000000E+01  0.00000000E+00
  1.10000000E+02  4.20000000E+01  0.00000000E+00
  1.20000000E+02  4.20000000E+01  0.00000000E+00
  1.30000000E+02  4.20000000E+01  0.00000000E+00
  1.40000000E+02  4.20000000E+01  0.00000000E+00
  1.50000000E+02  4.20000000E+01  0.00000000E+00
  1.60000000E+02  4.20000000E+01  0.00000000E+00
  1.70000000E+02  4.20000000E+01  0.00000000E+00
  1.80000000E+02  4.20000000E+01  0.00000000E+00
  1.90000000E+02  4.20000000E+01  0.00000000E+00
  2.00000000E+02  4.20000000E+01  0.00000000E+00
  2.10000000E+02  4.20000000E+01  0.00000000E+00
  2.20000000E+02  4.20000000E+01  0.00000000E+00
  2.30000000E+02  4.20000000E+01  0.00000000E+00
  2.40000000E+02  4.20000000E+01  0.00000000E+00
  2.50000000E+02  4.20000000E+01  0.00000000E+00
  2.60000000E+02  4.20000000E+01  0.00000000E+00
  2.70000000E+02  4.20000000E+01  0.00000000E+00
  2.80000000E+02  4.20000000E+01  0.00000000E+00
  2.90000000E+02  4.20000000E+01  0.00000000E+00
  3.00000000E+02  4.20000000E+01  0.00000000E+00
  3.10000000E+02  4.20000000E+01  0.00000000E+00
  3.20000000E+02  4.20000000E+01  0.00000000E+00
  3.30000000E+02  4.20000000E+01  0.00000000E+00
  3.40000000E+02  4.20000000E+01  0.00000000E+00
  3.50000000E+02  4.20000000E+01  0.00000000E+00
  3.60000000E+02  4.20000000E+01  0.00000000E+00
  3.70000000E+02  4.20000000E+01  0.00000000E+00
  3.80000000E+02  4.20000000E+01  0.00000000E+00
  3.90000000E+02  4.20000000E+01  0.00000000E+00
  4.00000000E+02  4.20000000E+01  0.00000000E+00
  4.10000000E+02  4.20000000E+01  0.00000000E+00
  4.20000000E+02  4.20000000E+01  0.00000000E+00
  4.30000000E+02  4.20000000E+01  0.00000000E+00
  4.40000000E+02  4.20000000E+01  0.00000000E+00
  4.50000000E+02  4.20000000E+01  0.00000000E+00
  4.60000000E+02  4.20000000E+01  0.00000000E+00
  4.70000000E+02  4.20000000E+01  0.00000000E+00
  4.80000000E+02  4.20000000E+01  0.00000000E+00
  4.90000000E+02  4.20000000E+01  0.00000000E+00
  5.00000000E+02  4.20000000E+01  0.00000000E+00
  5.10000000E+02  4.20000000E+01  0.00000000E+00
  5.20000000E+02  4.20000000E+01  0.00000000E+00
  5.30000000E+02  4.20000000E+01  0.00000000E+00
  5.40000000E+02  4.20000000E+01  0.00000000E+00
  5.50000000E+02  4.20000000E+01  0.00000000E+00
  5.60000000E+02  4.20000000E+01  0.00000000E+00
  5.70000000E+02  4.20000000E+01  0.00000000E+00
  5.80000000E+02  4.20000000E+01  0.00000000E+00
  5.90000000E+02  4.20000000E+01  0.00000000E+00
  6.00000000E+02  4.20000000E+01  0.00000000E+00
  6.10000000E+02  4.20000000E+01  0.00000000E+00
  6.20000000E+02  4.20000000E+01  0.00000000E+00
  6.30000000E+02  4.20000000E+01  0.00000000E+00
  6.40000000E+02  4.20000000E+01  0.00000000E+00
  6.50000000E+02  4.20000000E+01  0.00000000E+00
  6.60000000E+02  4.20000000E+01  0.00000000E+00
  6.70000000E+02  4.20000000E+01  0.00000000E+00
  6.80000000E+02  4.20000000E+01  0.00000000E+00
  6.90000000E+02  4.20000000E+01  0.00000000E+00
  7.00000000E+02  4.20000000E+01  0.00000000E+00
  7.10000000E+02  4.20000000E+01  0.00000000E+00
  7.20000000E+02  4.20000000E+01  0.00000000E+00
  7.30000000E+02  4.20000000E+01  0.00000000E+00
  7.40000000E+02  4.20000000E+01  0.00000000E+00
  7.50000000E+02  4.20000000E+01  0.00000000E+00
  7.60000000E+02  4.20000000E+01  0.00000000E+00
  7.70000000E+02  4.20000000E+01  0.00000000E+00
  7.80000000E+02  4.20000000E+01  0.00000000E+00
  7.90000000E+02  4.20000000E+01  0.00000000E+00
  8.00000000E+02  4.20000000E+01  0.00000000E+00
  8.10000000E+02  4.20000000E+01  0.00000000E+00
  8.20000000E+02  4.20000000E+01  0.00000000E+00
  8.30000000E+02  4.20000000E+01  0.00000000E+00
  8.40000000E+02  4.20000000E+01  0.00000000E+00
  8.50000000E+02  4.20000000E+01  0.00000000E+00
  8.60000000E+02  4.20000000E+01  0.00000000E+00
  8.70000000E+02  4.20000000E+01  0.00000000E+00
  8.80000000E+02  4.20000000E+01  0.00000000E+00
  8.90000000E+02  4.20000000E+01  0.00000000E+00
  9.00000000E+02  4.20000000E+01  0.00000000E+00
  9.10000000E+02  4.20000000E+01  0.00000000E+00
  9.20000000E+02  4.20000000E+01  0.00000000E+00
  9.30000000E+02  4.20000000E+01  0.00000000E+00
  9.40000000E+02  4.20000000E+01  0.00000000E+00
  9.50000000E+02  4.20000000E+01  0.00000000E+00
  9.60000000E+02  4.20000000E+01  0.00000000E+00
  9.70000000E+02  4.20000000E+01  0.00000000E+00
  9.80000000E+02  4.20000000E+01  0.00000000E+00
  9.90000000E+02  4.20000000E+01  0.00000000E+00
  1.00000000E+03  4.20000000E+01  0.00000000E+00
  0.00000000E+00  4.40000000E+01  0.00000000E+00
  1.00000000E+01  4.40000000E+01  0.00000000E+00
  2.00000000E+01  4.40000000E+01  0.00000000E+00
  3.00000000E+01  4.40000000E+01  0.00000000E+00
  4.00000000E+01  4.40000000E+01  0.00000000E+00
  5.00000000E+01  4.40000000E+01  0.00000000E+00
  6.00000000E+01  4.40000000E+01  0.00000000E+00
  7.00000000E+01  4.40000000E+01  0.00000000E+00
  8.00000000E+01  4.40000000E+01  0.00000000E+00
  9.00000000E+01  4.40000000E+01  0.00000000E+00
  1.00000000E+02  4.40000000E+01  0.00000000E+00
  1.10000000E+02  4.40000000E+01  0.00000000E+00
  1.20000000E+02  4.40000000E+01  0.00000000E+00
  1.30000000E+02  4.40000000E+01  0.00000000E+00
  1.40000000E+02  4.40000000E+01  0.00000000E+00
  1.50000000E+02  4.40000000E+01  0.00000000E+00
  1.60000000E+02  4.40000000E+01  0.00000000E+00
  1.70000000E+02  4.40000000E+01  0.00000000E+00
  1.80000000E+02  4.40000000E+01  0.00000000E+00
  1.90000000E+02  4.40000000E+01  0.00000000E+00
  2.00000000E+02  4.40000000E+01  0.00000000E+00
  2.10000000E+02  4.40000000E+01  0.00000000E+00
  2.20000000E+02  4.40000000E+01  0.00000000E+00
  2.30000000E+02  4.40000000E+01  0.00000000E+00
  2.40000000E+02  4.40000000E+01  0.00000000E+00
  2.50000000E+02  4.40000000E+01  0.00000000E+00
  2.60000000E+02  4.40000000E+01  0.00000000E+00
  2.70000000E+02  4.40000000E+01  0.00000000E+00
  2.80000000E+02  4.40000000E+01  0.00000000E+00
  2.90000000E+02  4.40000000E+01  0.00000000E+00
  3.00000000E+02  4.40000000E+01  0.00000000E+00
  3.10000000E+02  4.40000000E+01  0.00000000E+00
  3.20000000E+02  4.40000000E+01  0.00000000E+00
  3.30000000E+02  4.40000000E+01  0.00000000E+00
  3.40000000E+02  4.40000000E+01  0.00000000E+00
  3.50000000E+02  4.40000000E+01  0.00000000E+00
  3.60000000E+02  4.40000000E+01  0.00000000E+00
  3.70000000E+02  4.40000000E+01  0.00000000E+00
  3.80000000E+02  4.40000000E+01  0.00000000E+00
  3.90000000E+02  4.40000000E+01  0.00000000E+00
  4.00000000E+02  4.40000000E+01  0.00000000E+00
  4.10000000E+02  4.40000000E+01  0.00000000E+00
  4.20000000E+02  4.40000000E+01  0.00000000E+00
  4.30000000E+02  4.40000000E+01  0.00000000E+00
  4.40000000E+02  4.40000000E+01  0.00000000E+00
  4.50000000E+02  4.40000000E+01  0.00000000E+00
  4.60000000E+02  4.40000000E+01  0.00000000E+00
  4.70000000E+02  4.40000000E+01  0.00000000E+00
  4.80000000E+02  4.40000000E+01  0.00000000E+00
  4.90000000E+02  4.40000000E+01  0.00000000E+00
  5.00000000E+02  4.40000000E+01  0.00000000E+00
  5.10000000E+02  4.40000000E+01  0.00000000E+00
  5.20000000E+02  4.40000000E+01  0.00000000E+00
  5.30000000E+02  4.40000000E+01  0.00000000E+00
  5.40000000E+02  4.40000000E+01  0.00000000E+00
  5.50000000E+02  4.40000000E+01  0.00000000E+00
  5.60000000E+02  4.40000000E+01  0.00000000E+00
  5.70000000E+02  4.40000000E+01  0.00000000E+00
  5.80000000E+02  4.40000000E+01  0.00000000E+00
  5.90000000E+02  4.40000000E+01  0.00000000E+00
  6.00000000E+02  4.40000000E+01  0.00000000E+00
  6.10000000E+02  4.40000000E+01  0.00000000E+00
  6.20000000E+02  4.40000000E+01  0.00000000E+00
  6.30000000E+02  4.40000000E+01  0.00000000E+00
  6.40000000E+02  4.40000000E+01  0.00000000E+00
  6.50000000E+02  4.40000000E+01  0.00000000E+00
  6.60000000E+02  4.40000000E+01  0.00000000E+00
  6.70000000E+02  4.40000000E+01  0.00000000E+00
  6.80000000E+02  4.40000000E+01  0.00000000E+00
  6.90000000E+02  4.40000000E+01  0.00000000E+00
  7.00000000E+02  4.40000000E+01  0.00000000E+00
  7.10000000E+02  4.40000000E+01  0.00000000E+00
  7.20000000E+02  4.40000000E+01  0.00000000E+00
  7.30000000E+02  4.40000000E+01  0.00000000E+00
  7.40000000E+02  4.40000000E+01  0.00000000E+00
  7.50000000E+02  4.40000000E+01  0.00000000E+00
  7.60000000E+02  4.40000000E+01  0.00000000E+00
  7.70000000E+02  4.40000000E+01  0.00000000E+00
  7.80000000E+02  4.40000000E+01  0.00000000E+00
  7.90000000E+02  4.40000000E+01  0.00000000E+00
  8.00000000E+02  4.40000000E+01  0.00000000E+00
  8.10000000E+02  4.40000000E+01  0.00000000E+00
  8.20000000E+02  4.40000000E+01  0.00000000E+00
  8.30000000E+02  4.40000000E+01  0.00000000E+00
  8.40000000E+02  4.40000000E+01  0.00000000E+00
  8.50000000E+02  4.40000000E+01  0.00000000E+00
  8.60000000E+02  4.40000000E+01  0.00000000E+00
  8.70000000E+02  4.40000000E+01  0.00000000E+00
  8.80000000E+02  4.40000000E+01  0.00000000E+00
  8.90000000E+02  4.40000000E+01  0.00000000E+00
  9.00000000E+02  4.40000000E+01  0.00000000E+00
  9.10000000E+02  4.40000000E+01  0.00000000E+00
  9.20000000E+02  4.40000000E+01  0.00000000E+00
  9.30000000E+02  4.40000000E+01  0.00000000E+00
  9.40000000E+02  4.40000000E+01  0.00000000E+00
  9.50000000E+02  4.40000000E+01  0.00000000E+00
  9.60000000E+02  4.40000000E+01  0.00000000E+00
  9.70000000E+02  4.40000000E+01  0.00000000E+00
  9.80000000E+02  4.40000000E+01  0.00000000E+00
  9.90000000E+02  4.40000000E+01  0.00000000E+00
  1.00000000E+03  4.40000000E+01  0.00000000E+00
  0.00000000E+00  4.60000000E+01  0.00000000E+00
  1.00000000E+01  4.60000000E+01  0.00000000E+00
  2.00000000E+01  4.60000000E+01  0.00000000E+00
  3.00000000E+01  4.60000000E+01  0.00000000E+00
  4.00000000E+01  4.60000000E+01  0.00000000E+00
  5.00000000E+01  4.60000000E+01  0.00000000E+00
  6.00000000E+01  4.60000000E+01  0.00000000E+00
  7.00000000E+01  4.60000000E+01  0.00000000E+00
  8.00000000E+01  4.60000000E+01  0.00000000E+00
  9.00000000E+01  4.60000000E+01  0.00000000E+00
  1.00000000E+02  4.60000000E+01  0.00000000E+00
  1.10000000E+02  4.60000000E+01  0.00000000E+00
  1.20000000E+02  4.60000000E+01  0.00000000E+00
  1.30000000E+02  4.60000000E+01  0.00000000E+00
  1.40000000E+02  4.60000000E+01  0.00000000E+00
  1.50000000E+02  4.60000000E+01  0.00000000E+00
  1.60000000E+02  4.60000000E+01  0.00000000E+00
  1.70000000E+02  4.60000000E+01  0.00000000E+00
  1.80000000E+02  4.60000000E+01  0.00000000E+00
  1.90000000E+02  4.60000000E+01  0.00000000E+00
  2.00000000E+02  4.60000000E+01  0.00000000E+00
  2.10000000E+02  4.60000000E+01  0.00000000E+00
  2.20000000E+02  4.60000000E+01  0.00000000E+00
  2.30000000E+02  4.60000000E+01  0.00000000E+00
  2.40000000E+02  4.60000000E+01  0.00000000E+00
  2.50000000E+02  4.60000000E+01  0.00000000E+00
  2.60000000E+02  4.60000000E+01  0.00000000E+00
  2.70000000E+02  4.60000000E+01  0.00000000E+00
  2.80000000E+02  4.60000000E+01  0.00000000E+00
  2.90000000E+02  4.60000000E+01  0.00000000E+00
  3.00000000E+02  4.60000000E+01  0.00000000E+00
  3.10000000E+02  4.60000000E+01  0.00000000E+00
  3.20000000E+02  4.60000000E+01  0.00000000E+00
  3.30000000E+02  4.60000000E+01  0.00000000E+00
  3.40000000E+02  4.60000000E+01  0.00000000E+00
  3.50000000E+02  4.60000000E+01  0.00000000E+00
  3.60000000E+02  4.60000000E+01  0.00000000E+00
  3.70000000E+02  4.60000000E+01  0.00000000E+00
  3.80000000E+02  4.60000000E+01  0.00000000E+00
  3.90000000E+02  4.60000000E+01  0.00000000E+00
  4.00000000E+02  4.60000000E+01  0.00000000E+00
  4.10000000E+02  4.60000000E+01  0.00000000E+00
  4.20000000E+02  4.60000000E+01  0.00000000E+00
  4.30000000E+02  4.60000000E+01  0.00000000E+00
  4.40000000E+02  4.60000000E+01  0.00000000E+00
  4.50000000E+02  4.60000000E+01  0.00000000E+00
  4.60000000E+02  4.60000000E+01  0.00000000E+00
  4.70000000E+02  4.60000000E+01  0.00000000E+00
  4.80000000E+02  4.60000000E+01  0.00000000E+00
  4.90000000E+02  4.60000000E+01  0.00000000E+00
  5.00000000E+02  4.60000000E+01  0.00000000E+00
  5.10000000E+02  4.60000000E+01  0.00000000E+00
  5.20000000E+02  4.60000000E+01  0.00000000E+00
  5.30000000E+02  4.60000000E+01  0.00000000E+00
  5.40000000E+02  4.60000000E+01  0.00000000E+00
  5.50000000E+02  4.60000000E+01  0.00000000E+00
  5.60000000E+02  4.60000000E+01  0.00000000E+00
  5.70000000E+02  4.60000000E+01  0.00000000E+00
  5.80000000E+02  4.60000000E+01  0.00000000E+00
  5.90000000E+02  4.60000000E+01  0.00000000E+00
  6.00000000E+02  4.60000000E+01  0.00000000E+00
  6.10000000E+02  4.60000000E+01  0.00000000E+00
  6.20000000E+02  4.60000000E+01  0.00000000E+00
  6.30000000E+02  4.60000000E+01  0.00000000E+00
  6.40000000E+02  4.60000000E+01  0.00000000E+00
  6.50000000E+02  4.60000000E+01  0.00000000E+00
  6.60000000E+02  4.60000000E+01  0.00000000E+00
  6.70000000E+02  4.60000000E+01  0.00000000E+00
  6.80000000E+02  4.60000000E+01  0.00000000E+00
  6.90000000E+02  4.60000000E+01  0.00000000E+00
  7.00000000E+02  4.60000000E+01  0.00000000E+00
  7.10000000E+02  4.60000000E+01  0.00000000E+00
  7.20000000E+02  4.60000000E+01  0.00000000E+00
  7.30000000E+02  4.60000000E+01  0.00000000E+00
  7.40000000E+02  4.60000000E+01  0.00000000E+00
  7.50000000E+02  4.60000000E+01  0.00000000E+00
  7.60000000E+02  4.60000000E+01  0.00000000E+00
  7.70000000E+02  4.60000000E+01  0.00000000E+00
  7.80000000E+02  4.60000000E+01  0.00000000E+00
  7.90000000E+02  4.60000000E+01  0.00000000E+00
  8.00000000E+02  4.60000000E+01  0.00000000E+00
  8.10000000E+02  4.60000000E+01  0.00000000E+00
  8.20000000E+02  4.60000000E+01  0.00000000E+00
  8.30000000E+02  4.60000000E+01  0.00000000E+00
  8.40000000E+02  4.60000000E+01  0.00000000E+00
  8.50000000E+02  4.60000000E+01  0.00000000E+00
  8.60000000E+02  4.60000000E+01  0.00000000E+00
  8.70000000E+02  4.60000000E+01  0.00000000E+00
  8.80000000E+02  4.60000000E+01  0.00000000E+00
  8.90000000E+02  4.60000000E+01  0.00000000E+00
  9.00000000E+02  4.60000000E+01  0.00000000E+00
  9.10000000E+02  4.60000000E+01  0.00000000E+00
  9.20000000E+02  4.60000000E+01  0.00000000E+00
  9.30000000E+02  4.60000000E+01  0.00000000E+00
  9.40000000E+02  4.60000000E+01  0.00000000E+00
  9.50000000E+02  4.60000000E+01  0.00000000E+00
  9.60000000E+02  4.60000000E+01  0.00000000E+00
  9.70000000E+02  4.60000000E+01  0.00000000E+00
  9.80000000E+02  4.60000000E+01  0.00000000E+00
  9.90000000E+02  4.60000000E+01  0.00000000E+00
  1.00000000E+03  4.60000000E+01  0.00000000E+00
  0.00000000E+00  4.80000000E+01  0.00000000E+00
  1.00000000E+01  4.80000000E+01  0.00000000E+00
  2.00000000E+01  4.80000000E+01  0.00000000E+00
  3.00000000E+01  4.80000000E+01  0.00000000E+00
  4.00000000E+01  4.80000000E+01  0.00000000E+00
  5.00000000E+01  4.80000000E+01  0.00000000E+00
  6.00000000E+01  4.80000000E+01  0.00000000E+00
  7.00000000E+01  4.80000000E+01  0.00000000E+00
  8.00000000E+01  4.80000000E+01  0.00000000E+00
  9.00000000E+01  4.80000000E+01  0.00000000E+00
  1.00000000E+02  4.80000000E+01  0.00000000E+00
  1.10000000E+02  4.80000000E+01  0.00000000E+00
  1.20000000E+02  4.80000000E+01  0.00000000E+00
  1.30000000E+02  4.80000000E+01  0.00000000E+00
  1.40000000E+02  4.80000000E+01  0.00000000E+00
  1.50000000E+02  4.80000000E+01  0.00000000E+00
  1.60000000E+02  4.80000000E+01  0.00000000E+00
  1.70000000E+02  4.80000000E+01  0.00000000E+00
  1.80000000E+02  4.80000000E+01  0.00000000E+00
  1.90000000E+02  4.80000000E+01  0.00000000E+00
  2.00000000E+02  4.80000000E+01  0.00000000E+00
  2.10000000E+02  4.80000000E+01  0.00000000E+00
  2.20000000E+02  4.80000000E+01  0.00000000E+00
  2.30000000E+02  4.80000000E+01  0.00000000E+00
  2.40000000E+02  4.80000000E+01  0.00000000E+00
  2.50000000E+02  4.80000000E+01  0.00000000E+00
  2.60000000E+02  4.80000000E+01  0.00000000E+00
  2.70000000E+02  4.80000000E+01  0.00000000E+00
  2.80000000E+02  4.80000000E+01  0.00000000E+00
  2.90000000E+02  4.80000000E+01  0.00000000E+00
  3.00000000E+02  4.80000000E+01  0.00000000E+00
  3.10000000E+02  4.80000000E+01  0.00000000E+00
  3.20000000E+02  4.80000000E+01  0.00000000E+00
  3.30000000E+02  4.80000000E+01  0.00000000E+00
  3.40000000E+02  4.80000000E+01  0.00000000E+00
  3.50000000E+02  4.80000000E+01  0.00000000E+00
  3.60000000E+02  4.80000000E+01  0.00000000E+00
  3.70000000E+02  4.80000000E+01  0.00000000E+00
  3.80000000E+02  4.80000000E+01  0.00000000E+00
  3.90000000E+02  4.80000000E+01  0.00000000E+00
  4.00000000E+02  4.80000000E+01  0.00000000E+00
  4.10000000E+02  4.80000000E+01  0.00000000E+00
  4.20000000E+02  4.80000000E+01  0.00000000E+00
  4.30000000E+02  4.80000000E+01  0.00000000E+00
  4.40000000E+02  4.80000000E+01  0.00000000E+00
  4.50000000E+02  4.80000000E+01  0.00000000E+00
  4.60000000E+02  4.80000000E+01  0.00000000E+00
  4.70000000E+02  4.80000000E+01  0.00000000E+00
  4.80000000E+02  4.80000000E+01  0.00000000E+00
  4.90000000E+02  4.80000000E+01  0.00000000E+00
  5.00000000E+02  4.80000000E+01  0.00000000E+00
  5.10000000E+02  4.80000000E+01  0.00000000E+00
  5.20000000E+02  4.80000000E+01  0.00000000E+00
  5.30000000E+02  4.80000000E+01  0.00000000E+00
  5.40000000E+02  4.80000000E+01  0.00000000E+00
  5.50000000E+02  4.80000000E+01  0.00000000E+00
  5.60000000E+02  4.80000000E+01  0.00000000E+00
  5.70000000E+02  4.80000000E+01  0.00000000E+00
  5.80000000E+02  4.80000000E+01  0.00000000E+00
  5.90000000E+02  4.80000000E+01  0.00000000E+00
  6.00000000E+02  4.80000000E+01  0.00000000E+00
  6.10000000E+02  4.80000000E+01  0.00000000E+00
  6.20000000E+02  4.80000000E+01  0.00000000E+00
  6.30000000E+02  4.80000000E+01  0.00000000E+00
  6.40000000E+02  4.80000000E+01  0.00000000E+00
  6.50000000E+02  4.80000000E+01  0.00000000E+00
  6.60000000E+02  4.80000000E+01  0.00000000E+00
  6.70000000E+02  4.80000000E+01  0.00000000E+00
  6.80000000E+02  4.80000000E+01  0.00000000E+00
  6.90000000E+02  4.80000000E+01  0.00000000E+00
  7.00000000E+02  4.80000000E+01  0.00000000E+00
  7.10000000E+02  4.80000000E+01  0.00000000E+00
  7.20000000E+02  4.80000000E+01  0.00000000E+00
  7.30000000E+02  4.80000000E+01  0.00000000E+00
  7.40000000E+02  4.80000000E+01  0.00000000E+00
  7.50000000E+02  4.80000000E+01  0.00000000E+00
  7.60000000E+02  4.80000000E+01  0.00000000E+00
  7.70000000E+02  4.80000000E+01  0.00000000E+00
  7.80000000E+02  4.80000000E+01  0.00000000E+00
  7.90000000E+02  4.80000000E+01  0.00000000E+00
  8.00000000E+02  4.80000000E+01  0.00000000E+00
  8.10000000E+02  4.80000000E+01  0.00000000E+00
  8.20000000E+02  4.80000000E+01  0.00000000E+00
  8.30000000E+02  4.80000000E+01  0.00000000E+00
  8.40000000E+02  4.80000000E+01  0.00000000E+00
  8.50000000E+02  4.80000000E+01  0.00000000E+00
  8.60000000E+02  4.80000000E+01  0.00000000E+00
  8.70000000E+02  4.80000000E+01  0.00000000E+00
  8.80000000E+02  4.80000000E+01  0.00000000E+00
  8.90000000E+02  4.80000000E+01  0.00000000E+00
  9.00000000E+02  4.80000000E+01  0.00000000E+00
  9.10000000E+02  4.80000000E+01  0.00000000E+00
  9.20000000E+02  4.80000000E+01  0.00000000E+00
  9.30000000E+02  4.80000000E+01  0.00000000E+00
  9.40000000E+02  4.80000000E+01  0.00000000E+00
  9.50000000E+02  4.80000000E+01  0.00000000E+00
  9.60000000E+02  4.80000000E+01  0.00000000E+00
  9.70000000E+02  4.80000000E+01  0.00000000E+00
  9.80000000E+02  4.80000000E+01  0.00000000E+00
  9.90000000E+02  4.80000000E+01  0.00000000E+00
  1.00000000E+03  4.80000000E+01  0.00000000E+00
  0.00000000E+00  5.00000000E+01  0.00000000E+00
  1.00000000E+01  5.00000000E+01  0.00000000E+00
  2.00000000E+01  5.00000000E+01  0.00000000E+00
  3.00000000E+01  5.00000000E+01  0.00000000E+00
  4.00000000E+01  5.00000000E+01  0.00000000E+00
  5.00000000E+01  5.00000000E+01  0.00000000E+00
  6.00000000E+01  5.00000000E+01  0.00000000E+00
  7.00000000E+01  5.00000000E+01  0.00000000E+00
  8.00000000E+01  5.00000000E+01  0.00000000E+00
  9.00000000E+01  5.00000000E+01  0.00000000E+00
  1.00000000E+02  5.00000000E+01  0.00000000E+00
  1.10000000E+02  5.00000000E+01  0.00000000E+00
  1.20000000E+02  5.00000000E+01  0.00000000E+00
  1.30000000E+02  5.00000000E+01  0.00000000E+00
  1.40000000E+02  5.00000000E+01  0.00000000E+00
  1.50000000E+02  5.00000000E+01  0.00000000E+00
  1.60000000E+02  5.00000000E+01  0.00000000E+00
  1.70000000E+02  5.00000000E+01  0.00000000E+00
  1.80000000E+02  5.00000000E+01  0.00000000E+00
  1.90000000E+02  5.00000000E+01  0.00000000E+00
  2.00000000E+02  5.00000000E+01  0.00000000E+00
  2.10000000E+02  5.00000000E+01  0.00000000E+00
  2.20000000E+02  5.00000000E+01  0.00000000E+00
  2.30000000E+02  5.00000000E+01  0.00000000E+00
  2.40000000E+02  5.00000000E+01  0.00000000E+00
  2.50000000E+02  5.00000000E+01  0.00000000E+00
  2.60000000E+02  5.00000000E+01  0.00000000E+00
  2.70000000E+02  5.00000000E+01  0.00000000E+00
  2.80000000E+02  5.00000000E+01  0.00000000E+00
  2.90000000E+02  5.00000000E+01  0.00000000E+00
  3.00000000E+02  5.00000000E+01  0.00000000E+00
  3.10000000E+02  5.00000000E+01  0.00000000E+00
  3.20000000E+02  5.00000000E+01  0.00000000E+00
  3.30000000E+02  5.00000000E+01  0.00000000E+00
  3.40000000E+02  5.00000000E+01  0.00000000E+00
  3.50000000E+02  5.00000000E+01  0.00000000E+00
  3.60000000E+02  5.00000000E+01  0.00000000E+00
  3.70000000E+02  5.00000000E+01  0.00000000E+00
  3.80000000E+02  5.00000000E+01  0.00000000E+00
  3.90000000E+02  5.00000000E+01  0.00000000E+00
  4.00000000E+02  5.00000000E+01  0.00000000E+00
  4.10000000E+02  5.00000000E+01  0.00000000E+00
  4.20000000E+02  5.00000000E+01  0.00000000E+00
  4.30000000E+02  5.00000000E+01  0.00000000E+00
  4.40000000E+02  5.00000000E+01  0.00000000E+00
  4.50000000E+02  5.00000000E+01  0.00000000E+00
  4.60000000E+02  5.00000000E+01  0.00000000E+00
  4.70000000E+02  5.00000000E+01  0.00000000E+00
  4.80000000E+02  5.00000000E+01  0.00000000E+00
  4.90000000E+02  5.00000000E+01  0.00000000E+00
  5.00000000E+02  5.00000000E+01  0.00000000E+00
  5.10000000E+02  5.00000000E+01  0.00000000E+00
  5.20000000E+02  5.00000000E+01  0.00000000E+00
  5.30000000E+02  5.00000000E+01  0.00000000E+00
  5.40000000E+02  5.00000000E+01  0.00000000E+00
  5.50000000E+02  5.00000000E+01  0.00000000E+00
  5.60000000E+02  5.00000000E+01  0.00000000E+00
  5.70000000E+02  5.00000000E+01  0.00000000E+00
  5.80000000E+02  5.00000000E+01  0.00000000E+00
  5.90000000E+02  5.00000000E+01  0.00000000E+00
  6.00000000E+02  5.00000000E+01  0.00000000E+00
  6.10000000E+02  5.00000000E+01  0.00000000E+00
  6.20000000E+02  5.00000000E+01  0.00000000E+00
  6.30000000E+02  5.00000000E+01  0.00000000E+00
  6.40000000E+02  5.00000000E+01  0.00000000E+00
  6.50000000E+02  5.00000000E+01  0.00000000E+00
  6.60000000E+02  5.00000000E+01  0.00000000E+00
  6.70000000E+02  5.00000000E+01  0.00000000E+00
  6.80000000E+02  5.00000000E+01  0.00000000E+00
  6.90000000E+02  5.00000000E+01  0.00000000E+00
  7.00000000E+02  5.00000000E+01  0.00000000E+00
  7.10000000E+02  5.00000000E+01  0.00000000E+00
  7.20000000E+02  5.00000000E+01  0.00000000E+00
  7.30000000E+02  5.00000000E+01  0.00000000E+00
  7.40000000E+02  5.00000000E+01  0.00000000E+00
  7.50000000E+02  5.00000000E+01  0.00000000E+00
  7.60000000E+02  5.00000000E+01  0.00000000E+00
  7.70000000E+02  5.00000000E+01  0.00000000E+00
  7.80000000E+02  5.00000000E+01  0.00000000E+00
  7.90000000E+02  5.00000000E+01  0.00000000E+00
  8.00000000E+02  5.00000000E+01  0.00000000E+00
  8.10000000E+02  5.00000000E+01  0.00000000E+00
  8.20000000E+02  5.00000000E+01  0.00000000E+00
  8.30000000E+02  5.00000000E+01  0.00000000E+00
  8.40000000E+02  5.00000000E+01  0.00000000E+00
  8.50000000E+02  5.00000000E+01  0.00000000E+00
  8.60000000E+02  5.00000000E+01  0.00000000E+00
  8.70000000E+02  5.00000000E+01  0.00000000E+00
  8.80000000E+02  5.00000000E+01  0.00000000E+00
  8.90000000E+02  5.00000000E+01  0.00000000E+00
  9.00000000E+02  5.00000000E+01  0.00000000E+00
  9.10000000E+02  5.00000000E+01  0.00000000E+00
  9.20000000E+02  5.00000000E+01  0.00000000E+00
  9.30000000E+02  5.00000000E+01  0.00000000E+00
  9.40000000E+02  5.00000000E+01  0.00000000E+00
  9.50000000E+02  5.00000000E+01  0.00000000E+00
  9.60000000E+02  5.00000000E+01  0.00000000E+00
  9.70000000E+02  5.00000000E+01  0.00000000E+00
  9.80000000E+02  5.00000000E+01  0.00000000E+00
  9.90000000E+02  5.00000000E+01  0.00000000E+00
  1.00000000E+03  5.00000000E+01  0.00000000E+00
  0.00000000E+00  5.20000000E+01  0.00000000E+00
  1.00000000E+01  5.20000000E+01  0.00000000E+00
  2.00000000E+01  5.20000000E+01  0.00000000E+00
  3.00000000E+01  5.20000000E+01  0.00000000E+00
  4.00000000E+01  5.20000000E+01  0.00000000E+00
  5.00000000E+01  5.20000000E+01  0.00000000E+00
  6.00000000E+01  5.20000000E+01  0.00000000E+00
  7.00000000E+01  5.20000000E+01  0.00000000E+00
  8.00000000E+01  5.20000000E+01  0.00000000E+00
  9.00000000E+01  5.20000000E+01  0.00000000E+00
  1.00000000E+02  5.20000000E+01  0.00000000E+00
  1.10000000E+02  5.20000000E+01  0.00000000E+00
  1.20000000E+02  5.20000000E+01  0.00000000E+00
  1.30000000E+02  5.20000000E+01  0.00000000E+00
  1.40000000E+02  5.20000000E+01  0.00000000E+00
  1.50000000E+02  5.20000000E+01  0.00000000E+00
  1.60000000E+02  5.20000000E+01  0.00000000E+00
  1.70000000E+02  5.20000000E+01  0.00000000E+00
  1.80000000E+02  5.20000000E+01  0.00000000E+00
  1.90000000E+02  5.20000000E+01  0.00000000E+00
  2.00000000E+02  5.20000000E+01  0.00000000E+00
  2.10000000E+02  5.20000000E+01  0.00000000E+00
  2.20000000E+02  5.20000000E+01  0.00000000E+00
  2.30000000E+02  5.20000000E+01  0.00000000E+00
  2.40000000E+02  5.20000000E+01  0.00000000E+00
  2.50000000E+02  5.20000000E+01  0.00000000E+00
  2.60000000E+02  5.20000000E+01  0.00000000E+00
  2.70000000E+02  5.20000000E+01  0.00000000E+00
  2.80000000E+02  5.20000000E+01  0.00000000E+00
  2.90000000E+02  5.20000000E+01  0.00000000E+00
  3.00000000E+02  5.20000000E+01  0.00000000E+00
  3.10000000E+02  5.20000000E+01  0.00000000E+00
  3.20000000E+02  5.20000000E+01  0.00000000E+00
  3.30000000E+02  5.20000000E+01  0.00000000E+00
  3.40000000E+02  5.20000000E+01  0.00000000E+00
  3.50000000E+02  5.20000000E+01  0.00000000E+00
  3.60000000E+02  5.20000000E+01  0.00000000E+00
  3.70000000E+02  5.20000000E+01  0.00000000E+00
  3.80000000E+02  5.20000000E+01  0.00000000E+00
  3.90000000E+02  5.20000000E+01  0.00000000E+00
  4.00000000E+02  5.20000000E+01  0.00000000E+00
  4.10000000E+02  5.20000000E+01  0.00000000E+00
  4.20000000E+02  5.20000000E+01  0.00000000E+00
  4.30000000E+02  5.20000000E+01  0.00000000E+00
  4.40000000E+02  5.20000000E+01  0.00000000E+00
  4.50000000E+02  5.20000000E+01  0.00000000E+00
  4.60000000E+02  5.20000000E+01  0.00000000E+00
  4.70000000E+02  5.20000000E+01  0.00000000E+00
  4.80000000E+02  5.20000000E+01  0.00000000E+00
  4.90000000E+02  5.20000000E+01  0.00000000E+00
  5.00000000E+02  5.20000000E+01  0.00000000E+00
  5.10000000E+02  5.20000000E+01  0.00000000E+00
  5.20000000E+02  5.20000000E+01  0.00000000E+00
  5.30000000E+02  5.20000000E+01  0.00000000E+00
  5.40000000E+02  5.20000000E+01  0.00000000E+00
  5.50000000E+02  5.20000000E+01  0.00000000E+00
  5.60000000E+02  5.20000000E+01  0.00000000E+00
  5.70000000E+02  5.20000000E+01  0.00000000E+00
  5.80000000E+02  5.20000000E+01  0.00000000E+00
  5.90000000E+02  5.20000000E+01  0.00000000E+00
  6.00000000E+02  5.20000000E+01  0.00000000E+00
  6.10000000E+02  5.20000000E+01  0.00000000E+00
  6.20000000E+02  5.20000000E+01  0.00000000E+00
  6.30000000E+02  5.20000000E+01  0.00000000E+00
  6.40000000E+02  5.20000000E+01  0.00000000E+00
  6.50000000E+02  5.20000000E+01  0.00000000E+00
  6.60000000E+02  5.20000000E+01  0.00000000E+00
  6.70000000E+02  5.20000000E+01  0.00000000E+00
  6.80000000E+02  5.20000000E+01  0.00000000E+00
  6.90000000E+02  5.20000000E+01  0.00000000E+00
  7.00000000E+02  5.20000000E+01  0.00000000E+00
  7.10000000E+02  5.20000000E+01  0.00000000E+00
  7.20000000E+02  5.20000000E+01  0.00000000E+00
  7.30000000E+02  5.20000000E+01  0.00000000E+00
  7.40000000E+02  5.20000000E+01  0.00000000E+00
  7.50000000E+02  5.20000000E+01  0.00000000E+00
  7.60000000E+02  5.20000000E+01  0.00000000E+00
  7.70000000E+02  5.20000000E+01  0.00000000E+00
  7.80000000E+02  5.20000000E+01  0.00000000E+00
  7.90000000E+02  5.20000000E+01  0.00000000E+00
  8.00000000E+02  5.20000000E+01  0.00000000E+00
  8.10000000E+02  5.20000000E+01  0.00000000E+00
  8.20000000E+02  5.20000000E+01  0.00000000E+00
  8.30000000E+02  5.20000000E+01  0.00000000E+00
  8.40000000E+02  5.20000000E+01  0.00000000E+00
  8.50000000E+02  5.20000000E+01  0.00000000E+00
  8.60000000E+02  5.20000000E+01  0.00000000E+00
  8.70000000E+02  5.20000000E+01  0.00000000E+00
  8.80000000E+02  5.20000000E+01  0.00000000E+00
  8.90000000E+02  5.20000000E+01  0.00000000E+00
  9.00000000E+02  5.20000000E+01  0.00000000E+00
  9.10000000E+02  5.20000000E+01  0.00000000E+00
  9.20000000E+02  5.20000000E+01  0.00000000E+00
  9.30000000E+02  5.20000000E+01  0.00000000E+00
  9.40000000E+02  5.20000000E+01  0.00000000E+00
  9.50000000E+02  5.20000000E+01  0.00000000E+00
  9.60000000E+02  5.20000000E+01  0.00000000E+00
  9.70000000E+02  5.20000000E+01  0.00000000E+00
  9.80000000E+02  5.20000000E+01  0.00000000E+00
  9.90000000E+02  5.20000000E+01  0.00000000E+00
  1.00000000E+03  5.20000000E+01  0.00000000E+00
  0.00000000E+00  5.40000000E+01  0.00000000E+00
  1.00000000E+01  5.40000000E+01  0.00000000E+00
  2.00000000E+01  5.40000000E+01  0.00000000E+00
  3.00000000E+01  5.40000000E+01  0.00000000E+00
  4.00000000E+01  5.40000000E+01  0.00000000E+00
  5.00000000E+01  5.40000000E+01  0.00000000E+00
  6.00000000E+01  5.40000000E+01  0.00000000E+00
  7.00000000E+01  5.40000000E+01  0.00000000E+00
  8.00000000E+01  5.40000000E+01  0.00000000E+00
  9.00000000E+01  5.40000000E+01  0.00000000E+00
  1.00000000E+02  5.40000000E+01  0.00000000E+00
  1.10000000E+02  5.40000000E+01  0.00000000E+00
  1.20000000E+02  5.40000000E+01  0.00000000E+00
  1.30000000E+02  5.40000000E+01  0.00000000E+00
  1.40000000E+02  5.40000000E+01  0.00000000E+00
  1.50000000E+02  5.40000000E+01  0.00000000E+00
  1.60000000E+02  5.40000000E+01  0.00000000E+00
  1.70000000E+02  5.40000000E+01  0.00000000E+00
  1.80000000E+02  5.40000000E+01  0.00000000E+00
  1.90000000E+02  5.40000000E+01  0.00000000E+00
  2.00000000E+02  5.40000000E+01  0.00000000E+00
  2.10000000E+02  5.40000000E+01  0.00000000E+00
  2.20000000E+02  5.40000000E+01  0.00000000E+00
  2.30000000E+02  5.40000000E+01  0.00000000E+00
  2.40000000E+02  5.40000000E+01  0.00000000E+00
  2.50000000E+02  5.40000000E+01  0.00000000E+00
  2.60000000E+02  5.40000000E+01  0.00000000E+00
  2.70000000E+02  5.40000000E+01  0.00000000E+00
  2.80000000E+02  5.40000000E+01  0.00000000E+00
  2.90000000E+02  5.40000000E+01  0.00000000E+00
  3.00000000E+02  5.40000000E+01  0.00000000E+00
  3.10000000E+02  5.40000000E+01  0.00000000E+00
  3.20000000E+02  5.40000000E+01  0.00000000E+00
  3.30000000E+02  5.40000000E+01  0.00000000E+00
  3.40000000E+02  5.40000000E+01  0.00000000E+00
  3.50000000E+02  5.40000000E+01  0.00000000E+00
  3.60000000E+02  5.40000000E+01  0.00000000E+00
  3.70000000E+02  5.40000000E+01  0.00000000E+00
  3.80000000E+02  5.40000000E+01  0.00000000E+00
  3.90000000E+02  5.40000000E+01  0.00000000E+00
  4.00000000E+02  5.40000000E+01  0.00000000E+00
  4.10000000E+02  5.40000000E+01  0.00000000E+00
  4.20000000E+02  5.40000000E+01  0.00000000E+00
  4.30000000E+02  5.40000000E+01  0.00000000E+00
  4.40000000E+02  5.40000000E+01  0.00000000E+00
  4.50000000E+02  5.40000000E+01  0.00000000E+00
  4.60000000E+02  5.40000000E+01  0.00000000E+00
  4.70000000E+02  5.40000000E+01  0.00000000E+00
  4.80000000E+02  5.40000000E+01  0.00000000E+00
  4.90000000E+02  5.40000000E+01  0.00000000E+00
  5.00000000E+02  5.40000000E+01  0.00000000E+00
  5.10000000E+02  5.40000000E+01  0.00000000E+00
  5.20000000E+02  5.40000000E+01  0.00000000E+00
  5.30000000E+02  5.40000000E+01  0.00000000E+00
  5.40000000E+02  5.40000000E+01  0.00000000E+00
  5.50000000E+02  5.40000000E+01  0.00000000E+00
  5.60000000E+02  5.40000000E+01  0.00000000E+00
  5.70000000E+02  5.40000000E+01  0.00000000E+00
  5.80000000E+02  5.40000000E+01  0.00000000E+00
  5.90000000E+02  5.40000000E+01  0.00000000E+00
  6.00000000E+02  5.40000000E+01  0.00000000E+00
  6.10000000E+02  5.40000000E+01  0.00000000E+00
  6.20000000E+02  5.40000000E+01  0.00000000E+00
  6.30000000E+02  5.40000000E+01  0.00000000E+00
  6.40000000E+02  5.40000000E+01  0.00000000E+00
  6.50000000E+02  5.40000000E+01  0.00000000E+00
  6.60000000E+02  5.40000000E+01  0.00000000E+00
  6.70000000E+02  5.40000000E+01  0.00000000E+00
  6.80000000E+02  5.40000000E+01  0.00000000E+00
  6.90000000E+02  5.40000000E+01  0.00000000E+00
  7.00000000E+02  5.40000000E+01  0.00000000E+00
  7.10000000E+02  5.40000000E+01  0.00000000E+00
  7.20000000E+02  5.40000000E+01  0.00000000E+00
  7.30000000E+02  5.40000000E+01  0.00000000E+00
  7.40000000E+02  5.40000000E+01  0.00000000E+00
  7.50000000E+02  5.40000000E+01  0.00000000E+00
  7.60000000E+02  5.40000000E+01  0.00000000E+00
  7.70000000E+02  5.40000000E+01  0.00000000E+00
  7.80000000E+02  5.40000000E+01  0.00000000E+00
  7.90000000E+02  5.40000000E+01  0.00000000E+00
  8.00000000E+02  5.40000000E+01  0.00000000E+00
  8.10000000E+02  5.40000000E+01  0.00000000E+00
  8.20000000E+02  5.40000000E+01  0.00000000E+00
  8.30000000E+02  5.40000000E+01  0.00000000E+00
  8.40000000E+02  5.40000000E+01  0.00000000E+00
  8.50000000E+02  5.40000000E+01  0.00000000E+00
  8.60000000E+02  5.40000000E+01  0.00000000E+00
  8.70000000E+02  5.40000000E+01  0.00000000E+00
  8.80000000E+02  5.40000000E+01  0.00000000E+00
  8.90000000E+02  5.40000000E+01  0.00000000E+00
  9.00000000E+02  5.40000000E+01  0.00000000E+00
  9.10000000E+02  5.40000000E+01  0.00000000E+00
  9.20000000E+02  5.40000000E+01  0.00000000E+00
  9.30000000E+02  5.40000000E+01  0.00000000E+00
  9.40000000E+02  5.40000000E+01  0.00000000E+00
  9.50000000E+02  5.40000000E+01  0.00000000E+00
  9.60000000E+02  5.40000000E+01  0.00000000E+00
  9.70000000E+02  5.40000000E+01  0.00000000E+00
  9.80000000E+02  5.40000000E+01  0.00000000E+00
  9.90000000E+02  5.40000000E+01  0.00000000E+00
  1.00000000E+03  5.40000000E+01  0.00000000E+00
  0.00000000E+00  5.60000000E+01  0.00000000E+00
  1.00000000E+01  5.60000000E+01  0.00000000E+00
  2.00000000E+01  5.60000000E+01  0.00000000E+00
  3.00000000E+01  5.60000000E+01  0.00000000E+00
  4.00000000E+01  5.60000000E+01  0.00000000E+00
  5.00000000E+01  5.60000000E+01  0.00000000E+00
  6.00000000E+01  5.60000000E+01  0.00000000E+00
  7.00000000E+01  5.60000000E+01  0.00000000E+00
  8.00000000E+01  5.60000000E+01  0.00000000E+00
  9.00000000E+01  5.60000000E+01  0.00000000E+00
  1.00000000E+02  5.60000000E+01  0.00000000E+00
  1.10000000E+02  5.60000000E+01  0.00000000E+00
  1.20000000E+02  5.60000000E+01  0.00000000E+00
  1.30000000E+02  5.60000000E+01  0.00000000E+00
  1.40000000E+02  5.60000000E+01  0.00000000E+00
  1.50000000E+02  5.60000000E+01  0.00000000E+00
  1.60000000E+02  5.60000000E+01  0.00000000E+00
  1.70000000E+02  5.60000000E+01  0.00000000E+00
  1.80000000E+02  5.60000000E+01  0.00000000E+00
  1.90000000E+02  5.60000000E+01  0.00000000E+00
  2.00000000E+02  5.60000000E+01  0.00000000E+00
  2.10000000E+02  5.60000000E+01  0.00000000E+00
  2.20000000E+02  5.60000000E+01  0.00000000E+00
  2.30000000E+02  5.60000000E+01  0.00000000E+00
  2.40000000E+02  5.60000000E+01  0.00000000E+00
  2.50000000E+02  5.60000000E+01  0.00000000E+00
  2.60000000E+02  5.60000000E+01  0.00000000E+00
  2.70000000E+02  5.60000000E+01  0.00000000E+00
  2.80000000E+02  5.60000000E+01  0.00000000E+00
  2.90000000E+02  5.60000000E+01  0.00000000E+00
  3.00000000E+02  5.60000000E+01  0.00000000E+00
  3.10000000E+02  5.60000000E+01  0.00000000E+00
  3.20000000E+02  5.60000000E+01  0.00000000E+00
  3.30000000E+02  5.60000000E+01  0.00000000E+00
  3.40000000E+02  5.60000000E+01  0.00000000E+00
  3.50000000E+02  5.60000000E+01  0.00000000E+00
  3.60000000E+02  5.60000000E+01  0.00000000E+00
  3.70000000E+02  5.60000000E+01  0.00000000E+00
  3.80000000E+02  5.60000000E+01  0.00000000E+00
  3.90000000E+02  5.60000000E+01  0.00000000E+00
  4.00000000E+02  5.60000000E+01  0.00000000E+00
  4.10000000E+02  5.60000000E+01  0.00000000E+00
  4.20000000E+02  5.60000000E+01  0.00000000E+00
  4.30000000E+02  5.60000000E+01  0.00000000E+00
  4.40000000E+02  5.60000000E+01  0.00000000E+00
  4.50000000E+02  5.60000000E+01  0.00000000E+00
  4.60000000E+02  5.60000000E+01  0.00000000E+00
  4.70000000E+02  5.60000000E+01  0.00000000E+00
  4.80000000E+02  5.60000000E+01  0.00000000E+00
  4.90000000E+02  5.60000000E+01  0.00000000E+00
  5.00000000E+02  5.60000000E+01  0.00000000E+00
  5.10000000E+02  5.60000000E+01  0.00000000E+00
  5.20000000E+02  5.60000000E+01  0.00000000E+00
  5.30000000E+02  5.60000000E+01  0.00000000E+00
  5.40000000E+02  5.60000000E+01  0.00000000E+00
  5.50000000E+02  5.60000000E+01  0.00000000E+00
  5.60000000E+02  5.60000000E+01  0.00000000E+00
  5.70000000E+02  5.60000000E+01  0.00000000E+00
  5.80000000E+02  5.60000000E+01  0.00000000E+00
  5.90000000E+02  5.60000000E+01  0.00000000E+00
  6.00000000E+02  5.60000000E+01  0.00000000E+00
  6.10000000E+02  5.60000000E+01  0.00000000E+00
  6.20000000E+02  5.60000000E+01  0.00000000E+00
  6.30000000E+02  5.60000000E+01  0.00000000E+00
  6.40000000E+02  5.60000000E+01  0.00000000E+00
  6.50000000E+02  5.60000000E+01  0.00000000E+00
  6.60000000E+02  5.60000000E+01  0.00000000E+00
  6.70000000E+02  5.60000000E+01  0.00000000E+00
  6.80000000E+02  5.60000000E+01  0.00000000E+00
  6.90000000E+02  5.60000000E+01  0.00000000E+00
  7.00000000E+02  5.60000000E+01  0.00000000E+00
  7.10000000E+02  5.60000000E+01  0.00000000E+00
  7.20000000E+02  5.60000000E+01  0.00000000E+00
  7.30000000E+02  5.60000000E+01  0.00000000E+00
  7.40000000E+02  5.60000000E+01  0.00000000E+00
  7.50000000E+02  5.60000000E+01  0.00000000E+00
  7.60000000E+02  5.60000000E+01  0.00000000E+00
  7.70000000E+02  5.60000000E+01  0.00000000E+00
  7.80000000E+02  5.60000000E+01  0.00000000E+00
  7.90000000E+02  5.60000000E+01  0.00000000E+00
  8.00000000E+02  5.60000000E+01  0.00000000E+00
  8.10000000E+02  5.60000000E+01  0.00000000E+00
  8.20000000E+02  5.60000000E+01  0.00000000E+00
  8.30000000E+02  5.60000000E+01  0.00000000E+00
  8.40000000E+02  5.60000000E+01  0.00000000E+00
  8.50000000E+02  5.60000000E+01  0.00000000E+00
  8.60000000E+02  5.60000000E+01  0.00000000E+00
  8.70000000E+02  5.60000000E+01  0.00000000E+00
  8.80000000E+02  5.60000000E+01  0.00000000E+00
  8.90000000E+02  5.60000000E+01  0.00000000E+00
  9.00000000E+02  5.60000000E+01  0.00000000E+00
  9.10000000E+02  5.60000000E+01  0.00000000E+00
  9.20000000E+02  5.60000000E+01  0.00000000E+00
  9.30000000E+02  5.60000000E+01  0.00000000E+00
  9.40000000E+02  5.60000000E+01  0.00000000E+00
  9.50000000E+02  5.60000000E+01  0.00000000E+00
  9.60000000E+02  5.60000000E+01  0.00000000E+00
  9.70000000E+02  5.60000000E+01  0.00000000E+00
  9.80000000E+02  5.60000000E+01  0.00000000E+00
  9.90000000E+02  5.60000000E+01  0.00000000E+00
  1.00000000E+03  5.60000000E+01  0.00000000E+00
  0.00000000E+00  5.80000000E+01  0.00000000E+00
  1.00000000E+01  5.80000000E+01  0.00000000E+00
  2.00000000E+01  5.80000000E+01  0.00000000E+00
  3.00000000E+01  5.80000000E+01  0.00000000E+00
  4.00000000E+01  5.80000000E+01  0.00000000E+00
  5.00000000E+01  5.80000000E+01  0.00000000E+00
  6.00000000E+01  5.80000000E+01  0.00000000E+00
  7.00000000E+01  5.80000000E+01  0.00000000E+00
  8.00000000E+01  5.80000000E+01  0.00000000E+00
  9.00000000E+01  5.80000000E+01  0.00000000E+00
  1.00000000E+02  5.80000000E+01  0.00000000E+00
  1.10000000E+02  5.80000000E+01  0.00000000E+00
  1.20000000E+02  5.80000000E+01  0.00000000E+00
  1.30000000E+02  5.80000000E+01  0.00000000E+00
  1.40000000E+02  5.80000000E+01  0.00000000E+00
  1.50000000E+02  5.80000000E+01  0.00000000E+00
  1.60000000E+02  5.80000000E+01  0.00000000E+00
  1.70000000E+02  5.80000000E+01  0.00000000E+00
  1.80000000E+02  5.80000000E+01  0.00000000E+00
  1.90000000E+02  5.80000000E+01  0.00000000E+00
  2.00000000E+02  5.80000000E+01  0.00000000E+00
  2.10000000E+02  5.80000000E+01  0.00000000E+00
  2.20000000E+02  5.80000000E+01  0.00000000E+00
  2.30000000E+02  5.80000000E+01  0.00000000E+00
  2.40000000E+02  5.80000000E+01  0.00000000E+00
  2.50000000E+02  5.80000000E+01  0.00000000E+00
  2.60000000E+02  5.80000000E+01  0.00000000E+00
  2.70000000E+02  5.80000000E+01  0.00000000E+00
  2.80000000E+02  5.80000000E+01  0.00000000E+00
  2.90000000E+02  5.80000000E+01  0.00000000E+00
  3.00000000E+02  5.80000000E+01  0.00000000E+00
  3.10000000E+02  5.80000000E+01  0.00000000E+00
  3.20000000E+02  5.80000000E+01  0.00000000E+00
  3.30000000E+02  5.80000000E+01  0.00000000E+00
  3.40000000E+02  5.80000000E+01  0.00000000E+00
  3.50000000E+02  5.80000000E+01  0.00000000E+00
  3.60000000E+02  5.80000000E+01  0.00000000E+00
  3.70000000E+02  5.80000000E+01  0.00000000E+00
  3.80000000E+02  5.80000000E+01  0.00000000E+00
  3.90000000E+02  5.80000000E+01  0.00000000E+00
  4.00000000E+02  5.80000000E+01  0.00000000E+00
  4.10000000E+02  5.80000000E+01  0.00000000E+00
  4.20000000E+02  5.80000000E+01  0.00000000E+00
  4.30000000E+02  5.80000000E+01  0.00000000E+00
  4.40000000E+02  5.80000000E+01  0.00000000E+00
  4.50000000E+02  5.80000000E+01  0.00000000E+00
  4.60000000E+02  5.80000000E+01  0.00000000E+00
  4.70000000E+02  5.80000000E+01  0.00000000E+00
  4.80000000E+02  5.80000000E+01  0.00000000E+00
  4.90000000E+02  5.80000000E+01  0.00000000E+00
  5.00000000E+02  5.80000000E+01  0.00000000E+00
  5.10000000E+02  5.80000000E+01  0.00000000E+00
  5.20000000E+02  5.80000000E+01  0.00000000E+00
  5.30000000E+02  5.80000000E+01  0.00000000E+00
  5.40000000E+02  5.80000000E+01  0.00000000E+00
  5.50000000E+02  5.80000000E+01  0.00000000E+00
  5.60000000E+02  5.80000000E+01  0.00000000E+00
  5.70000000E+02  5.80000000E+01  0.00000000E+00
  5.80000000E+02  5.80000000E+01  0.00000000E+00
  5.90000000E+02  5.80000000E+01  0.00000000E+00
  6.00000000E+02  5.80000000E+01  0.00000000E+00
  6.10000000E+02  5.80000000E+01  0.00000000E+00
  6.20000000E+02  5.80000000E+01  0.00000000E+00
  6.30000000E+02  5.80000000E+01  0.00000000E+00
  6.40000000E+02  5.80000000E+01  0.00000000E+00
  6.50000000E+02  5.80000000E+01  0.00000000E+00
  6.60000000E+02  5.80000000E+01  0.00000000E+00
  6.70000000E+02  5.80000000E+01  0.00000000E+00
  6.80000000E+02  5.80000000E+01  0.00000000E+00
  6.90000000E+02  5.80000000E+01  0.00000000E+00
  7.00000000E+02  5.80000000E+01  0.00000000E+00
  7.10000000E+02  5.80000000E+01  0.00000000E+00
  7.20000000E+02  5.80000000E+01  0.00000000E+00
  7.30000000E+02  5.80000000E+01  0.00000000E+00
  7.40000000E+02  5.80000000E+01  0.00000000E+00
  7.50000000E+02  5.80000000E+01  0.00000000E+00
  7.60000000E+02  5.80000000E+01  0.00000000E+00
  7.70000000E+02  5.80000000E+01  0.00000000E+00
  7.80000000E+02  5.80000000E+01  0.00000000E+00
  7.90000000E+02  5.80000000E+01  0.00000000E+00
  8.00000000E+02  5.80000000E+01  0.00000000E+00
  8.10000000E+02  5.80000000E+01  0.00000000E+00
  8.20000000E+02  5.80000000E+01  0.00000000E+00
  8.30000000E+02  5.80000000E+01  0.00000000E+00
  8.40000000E+02  5.80000000E+01  0.00000000E+00
  8.50000000E+02  5.80000000E+01  0.00000000E+00
  8.60000000E+02  5.80000000E+01  0.00000000E+00
  8.70000000E+02  5.80000000E+01  0.00000000E+00
  8.80000000E+02  5.80000000E+01  0.00000000E+00
  8.90000000E+02  5.80000000E+01  0.00000000E+00
  9.00000000E+02  5.80000000E+01  0.00000000E+00
  9.10000000E+02  5.80000000E+01  0.00000000E+00
  9.20000000E+02  5.80000000E+01  0.00000000E+00
  9.30000000E+02  5.80000000E+01  0.00000000E+00
  9.40000000E+02  5.80000000E+01  0.00000000E+00
  9.50000000E+02  5.80000000E+01  0.00000000E+00
  9.60000000E+02  5.80000000E+01  0.00000000E+00
  9.70000000E+02  5.80000000E+01  0.00000000E+00
  9.80000000E+02  5.80000000E+01  0.00000000E+00
  9.90000000E+02  5.80000000E+01  0.00000000E+00
  1.00000000E+03  5.80000000E+01  0.00000000E+00
  0.00000000E+00  6.00000000E+01  0.00000000E+00
  1.00000000E+01  6.00000000E+01  0.00000000E+00
  2.00000000E+01  6.00000000E+01  0.00000000E+00
  3.00000000E+01  6.00000000E+01  0.00000000E+00
  4.00000000E+01  6.00000000E+01  0.00000000E+00
  5.00000000E+01  6.00000000E+01  0.00000000E+00
  6.00000000E+01  6.00000000E+01  0.00000000E+00
  7.00000000E+01  6.00000000E+01  0.00000000E+00
  8.00000000E+01  6.00000000E+01  0.00000000E+00
  9.00000000E+01  6.00000000E+01  0.00000000E+00
  1.00000000E+02  6.00000000E+01  0.00000000E+00
  1.10000000E+02  6.00000000E+01  0.00000000E+00
  1.20000000E+02  6.00000000E+01  0.00000000E+00
  1.30000000E+02  6.00000000E+01  0.00000000E+00
  1.40000000E+02  6.00000000E+01  0.00000000E+00
  1.50000000E+02  6.00000000E+01  0.00000000E+00
  1.60000000E+02  6.00000000E+01  0.00000000E+00
  1.70000000E+02  6.00000000E+01  0.00000000E+00
  1.80000000E+02  6.00000000E+01  0.00000000E+00
  1.90000000E+02  6.00000000E+01  0.00000000E+00
  2.00000000E+02  6.00000000E+01  0.00000000E+00
  2.10000000E+02  6.00000000E+01  0.00000000E+00
  2.20000000E+02  6.00000000E+01  0.00000000E+00
  2.30000000E+02  6.00000000E+01  0.00000000E+00
  2.40000000E+02  6.00000000E+01  0.00000000E+00
  2.50000000E+02  6.00000000E+01  0.00000000E+00
  2.60000000E+02  6.00000000E+01  0.00000000E+00
  2.70000000E+02  6.00000000E+01  0.00000000E+00
  2.80000000E+02  6.00000000E+01  0.00000000E+00
  2.90000000E+02  6.00000000E+01  0.00000000E+00
  3.00000000E+02  6.00000000E+01  0.00000000E+00
  3.10000000E+02  6.00000000E+01  0.00000000E+00
  3.20000000E+02  6.00000000E+01  0.00000000E+00
  3.30000000E+02  6.00000000E+01  0.00000000E+00
  3.40000000E+02  6.00000000E+01  0.00000000E+00
  3.50000000E+02  6.00000000E+01  0.00000000E+00
  3.60000000E+02  6.00000000E+01  0.00000000E+00
  3.70000000E+02  6.00000000E+01  0.00000000E+00
  3.80000000E+02  6.00000000E+01  0.00000000E+00
  3.90000000E+02  6.00000000E+01  0.00000000E+00
  4.00000000E+02  6.00000000E+01  0.00000000E+00
  4.10000000E+02  6.00000000E+01  0.00000000E+00
  4.20000000E+02  6.00000000E+01  0.00000000E+00
  4.30000000E+02  6.00000000E+01  0.00000000E+00
  4.40000000E+02  6.00000000E+01  0.00000000E+00
  4.50000000E+02  6.00000000E+01  0.00000000E+00
  4.60000000E+02  6.00000000E+01  0.00000000E+00
  4.70000000E+02  6.00000000E+01  0.00000000E+00
  4.80000000E+02  6.00000000E+01  0.00000000E+00
  4.90000000E+02  6.00000000E+01  0.00000000E+00
  5.00000000E+02  6.00000000E+01  0.00000000E+00
  5.10000000E+02  6.00000000E+01  0.00000000E+00
  5.20000000E+02  6.00000000E+01  0.00000000E+00
  5.30000000E+02  6.00000000E+01  0.00000000E+00
  5.40000000E+02  6.00000000E+01  0.00000000E+00
  5.50000000E+02  6.00000000E+01  0.00000000E+00
  5.60000000E+02  6.00000000E+01  0.00000000E+00
  5.70000000E+02  6.00000000E+01  0.00000000E+00
  5.80000000E+02  6.00000000E+01  0.00000000E+00
  5.90000000E+02  6.00000000E+01  0.00000000E+00
  6.00000000E+02  6.00000000E+01  0.00000000E+00
  6.10000000E+02  6.00000000E+01  0.00000000E+00
  6.20000000E+02  6.00000000E+01  0.00000000E+00
  6.30000000E+02  6.00000000E+01  0.00000000E+00
  6.40000000E+02  6.00000000E+01  0.00000000E+00
  6.50000000E+02  6.00000000E+01  0.00000000E+00
  6.60000000E+02  6.00000000E+01  0.00000000E+00
  6.70000000E+02  6.00000000E+01  0.00000000E+00
  6.80000000E+02  6.00000000E+01  0.00000000E+00
  6.90000000E+02  6.00000000E+01  0.00000000E+00
  7.00000000E+02  6.00000000E+01  0.00000000E+00
  7.10000000E+02  6.00000000E+01  0.00000000E+00
  7.20000000E+02  6.00000000E+01  0.00000000E+00
  7.30000000E+02  6.00000000E+01  0.00000000E+00
  7.40000000E+02  6.00000000E+01  0.00000000E+00
  7.50000000E+02  6.00000000E+01  0.00000000E+00
  7.60000000E+02  6.00000000E+01  0.00000000E+00
  7.70000000E+02  6.00000000E+01  0.00000000E+00
  7.80000000E+02  6.00000000E+01  0.00000000E+00
  7.90000000E+02  6.00000000E+01  0.00000000E+00
  8.00000000E+02  6.00000000E+01  0.00000000E+00
  8.10000000E+02  6.00000000E+01  0.00000000E+00
  8.20000000E+02  6.00000000E+01  0.00000000E+00
  8.30000000E+02  6.00000000E+01  0.00000000E+00
  8.40000000E+02  6.00000000E+01  0.00000000E+00
  8.50000000E+02  6.00000000E+01  0.00000000E+00
  8.60000000E+02  6.00000000E+01  0.00000000E+00
  8.70000000E+02  6.00000000E+01  0.00000000E+00
  8.80000000E+02  6.00000000E+01  0.00000000E+00
  8.90000000E+02  6.00000000E+01  0.00000000E+00
  9.00000000E+02  6.00000000E+01  0.00000000E+00
  9.10000000E+02  6.00000000E+01  0.00000000E+00
  9.20000000E+02  6.00000000E+01  0.00000000E+00
  9.30000000E+02  6.00000000E+01  0.00000000E+00
  9.40000000E+02  6.00000000E+01  0.00000000E+00
  9.50000000E+02  6.00000000E+01  0.00000000E+00
  9.60000000E+02  6.00000000E+01  0.00000000E+00
  9.70000000E+02  6.00000000E+01  0.00000000E+00
  9.80000000E+02  6.00000000E+01  0.00000000E+00
  9.90000000E+02  6.00000000E+01  0.00000000E+00
  1.00000000E+03  6.00000000E+01  0.00000000E+00
  0.00000000E+00  6.20000000E+01  0.00000000E+00
  1.00000000E+01  6.20000000E+01  0.00000000E+00
  2.00000000E+01  6.20000000E+01  0.00000000E+00
  3.00000000E+01  6.20000000E+01  0.00000000E+00
  4.00000000E+01  6.20000000E+01  0.00000000E+00
  5.00000000E+01  6.20000000E+01  0.00000000E+00
  6.00000000E+01  6.20000000E+01  0.00000000E+00
  7.00000000E+01  6.20000000E+01  0.00000000E+00
  8.00000000E+01  6.20000000E+01  0.00000000E+00
  9.00000000E+01  6.20000000E+01  0.00000000E+00
  1.00000000E+02  6.20000000E+01  0.00000000E+00
  1.10000000E+02  6.20000000E+01  0.00000000E+00
  1.20000000E+02  6.20000000E+01  0.00000000E+00
  1.30000000E+02  6.20000000E+01  0.00000000E+00
  1.40000000E+02  6.20000000E+01  0.00000000E+00
  1.50000000E+02  6.20000000E+01  0.00000000E+00
  1.60000000E+02  6.20000000E+01  0.00000000E+00
  1.70000000E+02  6.20000000E+01  0.00000000E+00
  1.80000000E+02  6.20000000E+01  0.00000000E+00
  1.90000000E+02  6.20000000E+01  0.00000000E+00
  2.00000000E+02  6.20000000E+01  0.00000000E+00
  2.10000000E+02  6.20000000E+01  0.00000000E+00
  2.20000000E+02  6.20000000E+01  0.00000000E+00
  2.30000000E+02  6.20000000E+01  0.00000000E+00
  2.40000000E+02  6.20000000E+01  0.00000000E+00
  2.50000000E+02  6.20000000E+01  0.00000000E+00
  2.60000000E+02  6.20000000E+01  0.00000000E+00
  2.70000000E+02  6.20000000E+01  0.00000000E+00
  2.80000000E+02  6.20000000E+01  0.00000000E+00
  2.90000000E+02  6.20000000E+01  0.00000000E+00
  3.00000000E+02  6.20000000E+01  0.00000000E+00
  3.10000000E+02  6.20000000E+01  0.00000000E+00
  3.20000000E+02  6.20000000E+01  0.00000000E+00
  3.30000000E+02  6.20000000E+01  0.00000000E+00
  3.40000000E+02  6.20000000E+01  0.00000000E+00
  3.50000000E+02  6.20000000E+01  0.00000000E+00
  3.60000000E+02  6.20000000E+01  0.00000000E+00
  3.70000000E+02  6.20000000E+01  0.00000000E+00
  3.80000000E+02  6.20000000E+01  0.00000000E+00
  3.90000000E+02  6.20000000E+01  0.00000000E+00
  4.00000000E+02  6.20000000E+01  0.00000000E+00
  4.10000000E+02  6.20000000E+01  0.00000000E+00
  4.20000000E+02  6.20000000E+01  0.00000000E+00
  4.30000000E+02  6.20000000E+01  0.00000000E+00
  4.40000000E+02  6.20000000E+01  0.00000000E+00
  4.50000000E+02  6.20000000E+01  0.00000000E+00
  4.60000000E+02  6.20000000E+01  0.00000000E+00
  4.70000000E+02  6.20000000E+01  0.00000000E+00
  4.80000000E+02  6.20000000E+01  0.00000000E+00
  4.90000000E+02  6.20000000E+01  0.00000000E+00
  5.00000000E+02  6.20000000E+01  0.00000000E+00
  5.10000000E+02  6.20000000E+01  0.00000000E+00
  5.20000000E+02  6.20000000E+01  0.00000000E+00
  5.30000000E+02  6.20000000E+01  0.00000000E+00
  5.40000000E+02  6.20000000E+01  0.00000000E+00
  5.50000000E+02  6.20000000E+01  0.00000000E+00
  5.60000000E+02  6.20000000E+01  0.00000000E+00
  5.70000000E+02  6.20000000E+01  0.00000000E+00
  5.80000000E+02  6.20000000E+01  0.00000000E+00
  5.90000000E+02  6.20000000E+01  0.00000000E+00
  6.00000000E+02  6.20000000E+01  0.00000000E+00
  6.10000000E+02  6.20000000E+01  0.00000000E+00
  6.20000000E+02  6.20000000E+01  0.00000000E+00
  6.30000000E+02  6.20000000E+01  0.00000000E+00
  6.40000000E+02  6.20000000E+01  0.00000000E+00
  6.50000000E+02  6.20000000E+01  0.00000000E+00
  6.60000000E+02  6.20000000E+01  0.00000000E+00
  6.70000000E+02  6.20000000E+01  0.00000000E+00
  6.80000000E+02  6.20000000E+01  0.00000000E+00
  6.90000000E+02  6.20000000E+01  0.00000000E+00
  7.00000000E+02  6.20000000E+01  0.00000000E+00
  7.10000000E+02  6.20000000E+01  0.00000000E+00
  7.20000000E+02  6.20000000E+01  0.00000000E+00
  7.30000000E+02  6.20000000E+01  0.00000000E+00
  7.40000000E+02  6.20000000E+01  0.00000000E+00
  7.50000000E+02  6.20000000E+01  0.00000000E+00
  7.60000000E+02  6.20000000E+01  0.00000000E+00
  7.70000000E+02  6.20000000E+01  0.00000000E+00
  7.80000000E+02  6.20000000E+01  0.00000000E+00
  7.90000000E+02  6.20000000E+01  0.00000000E+00
  8.00000000E+02  6.20000000E+01  0.00000000E+00
  8.10000000E+02  6.20000000E+01  0.00000000E+00
  8.20000000E+02  6.20000000E+01  0.00000000E+00
  8.30000000E+02  6.20000000E+01  0.00000000E+00
  8.40000000E+02  6.20000000E+01  0.00000000E+00
  8.50000000E+02  6.20000000E+01  0.00000000E+00
  8.60000000E+02  6.20000000E+01  0.00000000E+00
  8.70000000E+02  6.20000000E+01  0.00000000E+00
  8.80000000E+02  6.20000000E+01  0.00000000E+00
  8.90000000E+02  6.20000000E+01  0.00000000E+00
  9.00000000E+02  6.20000000E+01  0.00000000E+00
  9.10000000E+02  6.20000000E+01  0.00000000E+00
  9.20000000E+02  6.20000000E+01  0.00000000E+00
  9.30000000E+02  6.20000000E+01  0.00000000E+00
  9.40000000E+02  6.20000000E+01  0.00000000E+00
  9.50000000E+02  6.20000000E+01  0.00000000E+00
  9.60000000E+02  6.20000000E+01  0.00000000E+00
  9.70000000E+02  6.20000000E+01  0.00000000E+00
  9.80000000E+02  6.20000000E+01  0.00000000E+00
  9.90000000E+02  6.20000000E+01  0.00000000E+00
  1.00000000E+03  6.20000000E+01  0.00000000E+00
  0.00000000E+00  6.40000000E+01  0.00000000E+00
  1.00000000E+01  6.40000000E+01  0.00000000E+00
  2.00000000E+01  6.40000000E+01  0.00000000E+00
  3.00000000E+01  6.40000000E+01  0.00000000E+00
  4.00000000E+01  6.40000000E+01  0.00000000E+00
  5.00000000E+01  6.40000000E+01  0.00000000E+00
  6.00000000E+01  6.40000000E+01  0.00000000E+00
  7.00000000E+01  6.40000000E+01  0.00000000E+00
  8.00000000E+01  6.40000000E+01  0.00000000E+00
  9.00000000E+01  6.40000000E+01  0.00000000E+00
  1.00000000E+02  6.40000000E+01  0.00000000E+00
  1.10000000E+02  6.40000000E+01  0.00000000E+00
  1.20000000E+02  6.40000000E+01  0.00000000E+00
  1.30000000E+02  6.40000000E+01  0.00000000E+00
  1.40000000E+02  6.40000000E+01  0.00000000E+00
  1.50000000E+02  6.40000000E+01  0.00000000E+00
  1.60000000E+02  6.40000000E+01  0.00000000E+00
  1.70000000E+02  6.40000000E+01  0.00000000E+00
  1.80000000E+02  6.40000000E+01  0.00000000E+00
  1.90000000E+02  6.40000000E+01  0.00000000E+00
  2.00000000E+02  6.40000000E+01  0.00000000E+00
  2.10000000E+02  6.40000000E+01  0.00000000E+00
  2.20000000E+02  6.40000000E+01  0.00000000E+00
  2.30000000E+02  6.40000000E+01  0.00000000E+00
  2.40000000E+02  6.40000000E+01  0.00000000E+00
  2.50000000E+02  6.40000000E+01  0.00000000E+00
  2.60000000E+02  6.40000000E+01  0.00000000E+00
  2.70000000E+02  6.40000000E+01  0.00000000E+00
  2.80000000E+02  6.40000000E+01  0.00000000E+00
  2.90000000E+02  6.40000000E+01  0.00000000E+00
  3.00000000E+02  6.40000000E+01  0.00000000E+00
  3.10000000E+02  6.40000000E+01  0.00000000E+00
  3.20000000E+02  6.40000000E+01  0.00000000E+00
  3.30000000E+02  6.40000000E+01  0.00000000E+00
  3.40000000E+02  6.40000000E+01  0.00000000E+00
  3.50000000E+02  6.40000000E+01  0.00000000E+00
  3.60000000E+02  6.40000000E+01  0.00000000E+00
  3.70000000E+02  6.40000000E+01  0.00000000E+00
  3.80000000E+02  6.40000000E+01  0.00000000E+00
  3.90000000E+02  6.40000000E+01  0.00000000E+00
  4.00000000E+02  6.40000000E+01  0.00000000E+00
  4.10000000E+02  6.40000000E+01  0.00000000E+00
  4.20000000E+02  6.40000000E+01  0.00000000E+00
  4.30000000E+02  6.40000000E+01  0.00000000E+00
  4.40000000E+02  6.40000000E+01  0.00000000E+00
  4.50000000E+02  6.40000000E+01  0.00000000E+00
  4.60000000E+02  6.40000000E+01  0.00000000E+00
  4.70000000E+02  6.40000000E+01  0.00000000E+00
  4.80000000E+02  6.40000000E+01  0.00000000E+00
  4.90000000E+02  6.40000000E+01  0.00000000E+00
  5.00000000E+02  6.40000000E+01  0.00000000E+00
  5.10000000E+02  6.40000000E+01  0.00000000E+00
  5.20000000E+02  6.40000000E+01  0.00000000E+00
  5.30000000E+02  6.40000000E+01  0.00000000E+00
  5.40000000E+02  6.40000000E+01  0.00000000E+00
  5.50000000E+02  6.40000000E+01  0.00000000E+00
  5.60000000E+02  6.40000000E+01  0.00000000E+00
  5.70000000E+02  6.40000000E+01  0.00000000E+00
  5.80000000E+02  6.40000000E+01  0.00000000E+00
  5.90000000E+02  6.40000000E+01  0.00000000E+00
  6.00000000E+02  6.40000000E+01  0.00000000E+00
  6.10000000E+02  6.40000000E+01  0.00000000E+00
  6.20000000E+02  6.40000000E+01  0.00000000E+00
  6.30000000E+02  6.40000000E+01  0.00000000E+00
  6.40000000E+02  6.40000000E+01  0.00000000E+00
  6.50000000E+02  6.40000000E+01  0.00000000E+00
  6.60000000E+02  6.40000000E+01  0.00000000E+00
  6.70000000E+02  6.40000000E+01  0.00000000E+00
  6.80000000E+02  6.40000000E+01  0.00000000E+00
  6.90000000E+02  6.40000000E+01  0.00000000E+00
  7.00000000E+02  6.40000000E+01  0.00000000E+00
  7.10000000E+02  6.40000000E+01  0.00000000E+00
  7.20000000E+02  6.40000000E+01  0.00000000E+00
  7.30000000E+02  6.40000000E+01  0.00000000E+00
  7.40000000E+02  6.40000000E+01  0.00000000E+00
  7.50000000E+02  6.40000000E+01  0.00000000E+00
  7.60000000E+02  6.40000000E+01  0.00000000E+00
  7.70000000E+02  6.40000000E+01  0.00000000E+00
  7.80000000E+02  6.40000000E+01  0.00000000E+00
  7.90000000E+02  6.40000000E+01  0.00000000E+00
  8.00000000E+02  6.40000000E+01  0.00000000E+00
  8.10000000E+02  6.40000000E+01  0.00000000E+00
  8.20000000E+02  6.40000000E+01  0.00000000E+00
  8.30000000E+02  6.40000000E+01  0.00000000E+00
  8.40000000E+02  6.40000000E+01  0.00000000E+00
  8.50000000E+02  6.40000000E+01  0.00000000E+00
  8.60000000E+02  6.40000000E+01  0.00000000E+00
  8.70000000E+02  6.40000000E+01  0.00000000E+00
  8.80000000E+02  6.40000000E+01  0.00000000E+00
  8.90000000E+02  6.40000000E+01  0.00000000E+00
  9.00000000E+02  6.40000000E+01  0.00000000E+00
  9.10000000E+02  6.40000000E+01  0.00000000E+00
  9.20000000E+02  6.40000000E+01  0.00000000E+00
  9.30000000E+02  6.40000000E+01  0.00000000E+00
  9.40000000E+02  6.40000000E+01  0.00000000E+00
  9.50000000E+02  6.40000000E+01  0.00000000E+00
  9.60000000E+02  6.40000000E+01  0.00000000E+00
  9.70000000E+02  6.40000000E+01  0.00000000E+00
  9.80000000E+02  6.40000000E+01  0.00000000E+00
  9.90000000E+02  6.40000000E+01  0.00000000E+00
  1.00000000E+03  6.40000000E+01  0.00000000E+00
  0.00000000E+00  6.60000000E+01  0.00000000E+00
  1.00000000E+01  6.60000000E+01  0.00000000E+00
  2.00000000E+01  6.60000000E+01  0.00000000E+00
  3.00000000E+01  6.60000000E+01  0.00000000E+00
  4.00000000E+01  6.60000000E+01  0.00000000E+00
  5.00000000E+01  6.60000000E+01  0.00000000E+00
  6.00000000E+01  6.60000000E+01  0.00000000E+00
  7.00000000E+01  6.60000000E+01  0.00000000E+00
  8.00000000E+01  6.60000000E+01  0.00000000E+00
  9.00000000E+01  6.60000000E+01  0.00000000E+00
  1.00000000E+02  6.60000000E+01  0.00000000E+00
  1.10000000E+02  6.60000000E+01  0.00000000E+00
  1.20000000E+02  6.60000000E+01  0.00000000E+00
  1.30000000E+02  6.60000000E+01  0.00000000E+00
  1.40000000E+02  6.60000000E+01  0.00000000E+00
  1.50000000E+02  6.60000000E+01  0.00000000E+00
  1.60000000E+02  6.60000000E+01  0.00000000E+00
  1.70000000E+02  6.60000000E+01  0.00000000E+00
  1.80000000E+02  6.60000000E+01  0.00000000E+00
  1.90000000E+02  6.60000000E+01  0.00000000E+00
  2.00000000E+02  6.60000000E+01  0.00000000E+00
  2.10000000E+02  6.60000000E+01  0.00000000E+00
  2.20000000E+02  6.60000000E+01  0.00000000E+00
  2.30000000E+02  6.60000000E+01  0.00000000E+00
  2.40000000E+02  6.60000000E+01  0.00000000E+00
  2.50000000E+02  6.60000000E+01  0.00000000E+00
  2.60000000E+02  6.60000000E+01  0.00000000E+00
  2.70000000E+02  6.60000000E+01  0.00000000E+00
  2.80000000E+02  6.60000000E+01  0.00000000E+00
  2.90000000E+02  6.60000000E+01  0.00000000E+00
  3.00000000E+02  6.60000000E+01  0.00000000E+00
  3.10000000E+02  6.60000000E+01  0.00000000E+00
  3.20000000E+02  6.60000000E+01  0.00000000E+00
  3.30000000E+02  6.60000000E+01  0.00000000E+00
  3.40000000E+02  6.60000000E+01  0.00000000E+00
  3.50000000E+02  6.60000000E+01  0.00000000E+00
  3.60000000E+02  6.60000000E+01  0.00000000E+00
  3.70000000E+02  6.60000000E+01  0.00000000E+00
  3.80000000E+02  6.60000000E+01  0.00000000E+00
  3.90000000E+02  6.60000000E+01  0.00000000E+00
  4.00000000E+02  6.60000000E+01  0.00000000E+00
  4.10000000E+02  6.60000000E+01  0.00000000E+00
  4.20000000E+02  6.60000000E+01  0.00000000E+00
  4.30000000E+02  6.60000000E+01  0.00000000E+00
  4.40000000E+02  6.60000000E+01  0.00000000E+00
  4.50000000E+02  6.60000000E+01  0.00000000E+00
  4.60000000E+02  6.60000000E+01  0.00000000E+00
  4.70000000E+02  6.60000000E+01  0.00000000E+00
  4.80000000E+02  6.60000000E+01  0.00000000E+00
  4.90000000E+02  6.60000000E+01  0.00000000E+00
  5.00000000E+02  6.60000000E+01  0.00000000E+00
  5.10000000E+02  6.60000000E+01  0.00000000E+00
  5.20000000E+02  6.60000000E+01  0.00000000E+00
  5.30000000E+02  6.60000000E+01  0.00000000E+00
  5.40000000E+02  6.60000000E+01  0.00000000E+00
  5.50000000E+02  6.60000000E+01  0.00000000E+00
  5.60000000E+02  6.60000000E+01  0.00000000E+00
  5.70000000E+02  6.60000000E+01  0.00000000E+00
  5.80000000E+02  6.60000000E+01  0.00000000E+00
  5.90000000E+02  6.60000000E+01  0.00000000E+00
  6.00000000E+02  6.60000000E+01  0.00000000E+00
  6.10000000E+02  6.60000000E+01  0.00000000E+00
  6.20000000E+02  6.60000000E+01  0.00000000E+00
  6.30000000E+02  6.60000000E+01  0.00000000E+00
  6.40000000E+02  6.60000000E+01  0.00000000E+00
  6.50000000E+02  6.60000000E+01  0.00000000E+00
  6.60000000E+02  6.60000000E+01  0.00000000E+00
  6.70000000E+02  6.60000000E+01  0.00000000E+00
  6.80000000E+02  6.60000000E+01  0.00000000E+00
  6.90000000E+02  6.60000000E+01  0.00000000E+00
  7.00000000E+02  6.60000000E+01  0.00000000E+00
  7.10000000E+02  6.60000000E+01  0.00000000E+00
  7.20000000E+02  6.60000000E+01  0.00000000E+00
  7.30000000E+02  6.60000000E+01  0.00000000E+00
  7.40000000E+02  6.60000000E+01  0.00000000E+00
  7.50000000E+02  6.60000000E+01  0.00000000E+00
  7.60000000E+02  6.60000000E+01  0.00000000E+00
  7.70000000E+02  6.60000000E+01  0.00000000E+00
  7.80000000E+02  6.60000000E+01  0.00000000E+00
  7.90000000E+02  6.60000000E+01  0.00000000E+00
  8.00000000E+02  6.60000000E+01  0.00000000E+00
  8.10000000E+02  6.60000000E+01  0.00000000E+00
  8.20000000E+02  6.60000000E+01  0.00000000E+00
  8.30000000E+02  6.60000000E+01  0.00000000E+00
  8.40000000E+02  6.60000000E+01  0.00000000E+00
  8.50000000E+02  6.60000000E+01  0.00000000E+00
  8.60000000E+02  6.60000000E+01  0.00000000E+00
  8.70000000E+02  6.60000000E+01  0.00000000E+00
  8.80000000E+02  6.60000000E+01  0.00000000E+00
  8.90000000E+02  6.60000000E+01  0.00000000E+00
  9.00000000E+02  6.60000000E+01  0.00000000E+00
  9.10000000E+02  6.60000000E+01  0.00000000E+00
  9.20000000E+02  6.60000000E+01  0.00000000E+00
  9.30000000E+02  6.60000000E+01  0.00000000E+00
  9.40000000E+02  6.60000000E+01  0.00000000E+00
  9.50000000E+02  6.60000000E+01  0.00000000E+00
  9.60000000E+02  6.60000000E+01  0.00000000E+00
  9.70000000E+02  6.60000000E+01  0.00000000E+00
  9.80000000E+02  6.60000000E+01  0.00000000E+00
  9.90000000E+02  6.60000000E+01  0.00000000E+00
  1.00000000E+03  6.60000000E+01  0.00000000E+00
  0.00000000E+00  6.80000000E+01  0.00000000E+00
  1.00000000E+01  6.80000000E+01  0.00000000E+00
  2.00000000E+01  6.80000000E+01  0.00000000E+00
  3.00000000E+01  6.80000000E+01  0.00000000E+00
  4.00000000E+01  6.80000000E+01  0.00000000E+00
  5.00000000E+01  6.80000000E+01  0.00000000E+00
  6.00000000E+01  6.80000000E+01  0.00000000E+00
  7.00000000E+01  6.80000000E+01  0.00000000E+00
  8.00000000E+01  6.80000000E+01  0.00000000E+00
  9.00000000E+01  6.80000000E+01  0.00000000E+00
  1.00000000E+02  6.80000000E+01  0.00000000E+00
  1.10000000E+02  6.80000000E+01  0.00000000E+00
  1.20000000E+02  6.80000000E+01  0.00000000E+00
  1.30000000E+02  6.80000000E+01  0.00000000E+00
  1.40000000E+02  6.80000000E+01  0.00000000E+00
  1.50000000E+02  6.80000000E+01  0.00000000E+00
  1.60000000E+02  6.80000000E+01  0.00000000E+00
  1.70000000E+02  6.80000000E+01  0.00000000E+00
  1.80000000E+02  6.80000000E+01  0.00000000E+00
  1.90000000E+02  6.80000000E+01  0.00000000E+00
  2.00000000E+02  6.80000000E+01  0.00000000E+00
  2.10000000E+02  6.80000000E+01  0.00000000E+00
  2.20000000E+02  6.80000000E+01  0.00000000E+00
  2.30000000E+02  6.80000000E+01  0.00000000E+00
  2.40000000E+02  6.80000000E+01  0.00000000E+00
  2.50000000E+02  6.80000000E+01  0.00000000E+00
  2.60000000E+02  6.80000000E+01  0.00000000E+00
  2.70000000E+02  6.80000000E+01  0.00000000E+00
  2.80000000E+02  6.80000000E+01  0.00000000E+00
  2.90000000E+02  6.80000000E+01  0.00000000E+00
  3.00000000E+02  6.80000000E+01  0.00000000E+00
  3.10000000E+02  6.80000000E+01  0.00000000E+00
  3.20000000E+02  6.80000000E+01  0.00000000E+00
  3.30000000E+02  6.80000000E+01  0.00000000E+00
  3.40000000E+02  6.80000000E+01  0.00000000E+00
  3.50000000E+02  6.80000000E+01  0.00000000E+00
  3.60000000E+02  6.80000000E+01  0.00000000E+00
  3.70000000E+02  6.80000000E+01  0.00000000E+00
  3.80000000E+02  6.80000000E+01  0.00000000E+00
  3.90000000E+02  6.80000000E+01  0.00000000E+00
  4.00000000E+02  6.80000000E+01  0.00000000E+00
  4.10000000E+02  6.80000000E+01  0.00000000E+00
  4.20000000E+02  6.80000000E+01  0.00000000E+00
  4.30000000E+02  6.80000000E+01  0.00000000E+00
  4.40000000E+02  6.80000000E+01  0.00000000E+00
  4.50000000E+02  6.80000000E+01  0.00000000E+00
  4.60000000E+02  6.80000000E+01  0.00000000E+00
  4.70000000E+02  6.80000000E+01  0.00000000E+00
  4.80000000E+02  6.80000000E+01  0.00000000E+00
  4.90000000E+02  6.80000000E+01  0.00000000E+00
  5.00000000E+02  6.80000000E+01  0.00000000E+00
  5.10000000E+02  6.80000000E+01  0.00000000E+00
  5.20000000E+02  6.80000000E+01  0.00000000E+00
  5.30000000E+02  6.80000000E+01  0.00000000E+00
  5.40000000E+02  6.80000000E+01  0.00000000E+00
  5.50000000E+02  6.80000000E+01  0.00000000E+00
  5.60000000E+02  6.80000000E+01  0.00000000E+00
  5.70000000E+02  6.80000000E+01  0.00000000E+00
  5.80000000E+02  6.80000000E+01  0.00000000E+00
  5.90000000E+02  6.80000000E+01  0.00000000E+00
  6.00000000E+02  6.80000000E+01  0.00000000E+00
  6.10000000E+02  6.80000000E+01  0.00000000E+00
  6.20000000E+02  6.80000000E+01  0.00000000E+00
  6.30000000E+02  6.80000000E+01  0.00000000E+00
  6.40000000E+02  6.80000000E+01  0.00000000E+00
  6.50000000E+02  6.80000000E+01  0.00000000E+00
  6.60000000E+02  6.80000000E+01  0.00000000E+00
  6.70000000E+02  6.80000000E+01  0.00000000E+00
  6.80000000E+02  6.80000000E+01  0.00000000E+00
  6.90000000E+02  6.80000000E+01  0.00000000E+00
  7.00000000E+02  6.80000000E+01  0.00000000E+00
  7.10000000E+02  6.80000000E+01  0.00000000E+00
  7.20000000E+02  6.80000000E+01  0.00000000E+00
  7.30000000E+02  6.80000000E+01  0.00000000E+00
  7.40000000E+02  6.80000000E+01  0.00000000E+00
  7.50000000E+02  6.80000000E+01  0.00000000E+00
  7.60000000E+02  6.80000000E+01  0.00000000E+00
  7.70000000E+02  6.80000000E+01  0.00000000E+00
  7.80000000E+02  6.80000000E+01  0.00000000E+00
  7.90000000E+02  6.80000000E+01  0.00000000E+00
  8.00000000E+02  6.80000000E+01  0.00000000E+00
  8.10000000E+02  6.80000000E+01  0.00000000E+00
  8.20000000E+02  6.80000000E+01  0.00000000E+00
  8.30000000E+02  6.80000000E+01  0.00000000E+00
  8.40000000E+02  6.80000000E+01  0.00000000E+00
  8.50000000E+02  6.80000000E+01  0.00000000E+00
  8.60000000E+02  6.80000000E+01  0.00000000E+00
  8.70000000E+02  6.80000000E+01  0.00000000E+00
  8.80000000E+02  6.80000000E+01  0.00000000E+00
  8.90000000E+02  6.80000000E+01  0.00000000E+00
  9.00000000E+02  6.80000000E+01  0.00000000E+00
  9.10000000E+02  6.80000000E+01  0.00000000E+00
  9.20000000E+02  6.80000000E+01  0.00000000E+00
  9.30000000E+02  6.80000000E+01  0.00000000E+00
  9.40000000E+02  6.80000000E+01  0.00000000E+00
  9.50000000E+02  6.80000000E+01  0.00000000E+00
  9.60000000E+02  6.80000000E+01  0.00000000E+00
  9.70000000E+02  6.80000000E+01  0.00000000E+00
  9.80000000E+02  6.80000000E+01  0.00000000E+00
  9.90000000E+02  6.80000000E+01  0.00000000E+00
  1.00000000E+03  6.80000000E+01  0.00000000E+00
  0.00000000E+00  7.00000000E+01  0.00000000E+00
  1.00000000E+01  7.00000000E+01  0.00000000E+00
  2.00000000E+01  7.00000000E+01  0.00000000E+00
  3.00000000E+01  7.00000000E+01  0.00000000E+00
  4.00000000E+01  7.00000000E+01  0.00000000E+00
  5.00000000E+01  7.00000000E+01  0.00000000E+00
  6.00000000E+01  7.00000000E+01  0.00000000E+00
  7.00000000E+01  7.00000000E+01  0.00000000E+00
  8.00000000E+01  7.00000000E+01  0.00000000E+00
  9.00000000E+01  7.00000000E+01  0.00000000E+00
  1.00000000E+02  7.00000000E+01  0.00000000E+00
  1.10000000E+02  7.00000000E+01  0.00000000E+00
  1.20000000E+02  7.00000000E+01  0.00000000E+00
  1.30000000E+02  7.00000000E+01  0.00000000E+00
  1.40000000E+02  7.00000000E+01  0.00000000E+00
  1.50000000E+02  7.00000000E+01  0.00000000E+00
  1.60000000E+02  7.00000000E+01  0.00000000E+00
  1.70000000E+02  7.00000000E+01  0.00000000E+00
  1.80000000E+02  7.00000000E+01  0.00000000E+00
  1.90000000E+02  7.00000000E+01  0.00000000E+00
  2.00000000E+02  7.00000000E+01  0.00000000E+00
  2.10000000E+02  7.00000000E+01  0.00000000E+00
  2.20000000E+02  7.00000000E+01  0.00000000E+00
  2.30000000E+02  7.00000000E+01  0.00000000E+00
  2.40000000E+02  7.00000000E+01  0.00000000E+00
  2.50000000E+02  7.00000000E+01  0.00000000E+00
  2.60000000E+02  7.00000000E+01  0.00000000E+00
  2.70000000E+02  7.00000000E+01  0.00000000E+00
  2.80000000E+02  7.00000000E+01  0.00000000E+00
  2.90000000E+02  7.00000000E+01  0.00000000E+00
  3.00000000E+02  7.00000000E+01  0.00000000E+00
  3.10000000E+02  7.00000000E+01  0.00000000E+00
  3.20000000E+02  7.00000000E+01  0.00000000E+00
  3.30000000E+02  7.00000000E+01  0.00000000E+00
  3.40000000E+02  7.00000000E+01  0.00000000E+00
  3.50000000E+02  7.00000000E+01  0.00000000E+00
  3.60000000E+02  7.00000000E+01  0.00000000E+00
  3.70000000E+02  7.00000000E+01  0.00000000E+00
  3.80000000E+02  7.00000000E+01  0.00000000E+00
  3.90000000E+02  7.00000000E+01  0.00000000E+00
  4.00000000E+02  7.00000000E+01  0.00000000E+00
  4.10000000E+02  7.00000000E+01  0.00000000E+00
  4.20000000E+02  7.00000000E+01  0.00000000E+00
  4.30000000E+02  7.00000000E+01  0.00000000E+00
  4.40000000E+02  7.00000000E+01  0.00000000E+00
  4.50000000E+02  7.00000000E+01  0.00000000E+00
  4.60000000E+02  7.00000000E+01  0.00000000E+00
  4.70000000E+02  7.00000000E+01  0.00000000E+00
  4.80000000E+02  7.00000000E+01  0.00000000E+00
  4.90000000E+02  7.00000000E+01  0.00000000E+00
  5.00000000E+02  7.00000000E+01  0.00000000E+00
  5.10000000E+02  7.00000000E+01  0.00000000E+00
  5.20000000E+02  7.00000000E+01  0.00000000E+00
  5.30000000E+02  7.00000000E+01  0.00000000E+00
  5.40000000E+02  7.00000000E+01  0.00000000E+00
  5.50000000E+02  7.00000000E+01  0.00000000E+00
  5.60000000E+02  7.00000000E+01  0.00000000E+00
  5.70000000E+02  7.00000000E+01  0.00000000E+00
  5.80000000E+02  7.00000000E+01  0.00000000E+00
  5.90000000E+02  7.00000000E+01  0.00000000E+00
  6.00000000E+02  7.00000000E+01  0.00000000E+00
  6.10000000E+02  7.00000000E+01  0.00000000E+00
  6.20000000E+02  7.00000000E+01  0.00000000E+00
  6.30000000E+02  7.00000000E+01  0.00000000E+00
  6.40000000E+02  7.00000000E+01  0.00000000E+00
  6.50000000E+02  7.00000000E+01  0.00000000E+00
  6.60000000E+02  7.00000000E+01  0.00000000E+00
  6.70000000E+02  7.00000000E+01  0.00000000E+00
  6.80000000E+02  7.00000000E+01  0.00000000E+00
  6.90000000E+02  7.00000000E+01  0.00000000E+00
  7.00000000E+02  7.00000000E+01  0.00000000E+00
  7.10000000E+02  7.00000000E+01  0.00000000E+00
  7.20000000E+02  7.00000000E+01  0.00000000E+00
  7.30000000E+02  7.00000000E+01  0.00000000E+00
  7.40000000E+02  7.00000000E+01  0.00000000E+00
  7.50000000E+02  7.00000000E+01  0.00000000E+00
  7.60000000E+02  7.00000000E+01  0.00000000E+00
  7.70000000E+02  7.00000000E+01  0.00000000E+00
  7.80000000E+02  7.00000000E+01  0.00000000E+00
  7.90000000E+02  7.00000000E+01  0.00000000E+00
  8.00000000E+02  7.00000000E+01  0.00000000E+00
  8.10000000E+02  7.00000000E+01  0.00000000E+00
  8.20000000E+02  7.00000000E+01  0.00000000E+00
  8.30000000E+02  7.00000000E+01  0.00000000E+00
  8.40000000E+02  7.00000000E+01  0.00000000E+00
  8.50000000E+02  7.00000000E+01  0.00000000E+00
  8.60000000E+02  7.00000000E+01  0.00000000E+00
  8.70000000E+02  7.00000000E+01  0.00000000E+00
  8.80000000E+02  7.00000000E+01  0.00000000E+00
  8.90000000E+02  7.00000000E+01  0.00000000E+00
  9.00000000E+02  7.00000000E+01  0.00000000E+00
  9.10000000E+02  7.00000000E+01  0.00000000E+00
  9.20000000E+02  7.00000000E+01  0.00000000E+00
  9.30000000E+02  7.00000000E+01  0.00000000E+00
  9.40000000E+02  7.00000000E+01  0.00000000E+00
  9.50000000E+02  7.00000000E+01  0.00000000E+00
  9.60000000E+02  7.00000000E+01  0.00000000E+00
  9.70000000E+02  7.00000000E+01  0.00000000E+00
  9.80000000E+02  7.00000000E+01  0.00000000E+00
  9.90000000E+02  7.00000000E+01  0.00000000E+00
  1.00000000E+03  7.00000000E+01  0.00000000E+00
  0.00000000E+00  7.20000000E+01  0.00000000E+00
  1.00000000E+01  7.20000000E+01  0.00000000E+00
  2.00000000E+01  7.20000000E+01  0.00000000E+00
  3.00000000E+01  7.20000000E+01  0.00000000E+00
  4.00000000E+01  7.20000000E+01  0.00000000E+00
  5.00000000E+01  7.20000000E+01  0.00000000E+00
  6.00000000E+01  7.20000000E+01  0.00000000E+00
  7.00000000E+01  7.20000000E+01  0.00000000E+00
  8.00000000E+01  7.20000000E+01  0.00000000E+00
  9.00000000E+01  7.20000000E+01  0.00000000E+00
  1.00000000E+02  7.20000000E+01  0.00000000E+00
  1.10000000E+02  7.20000000E+01  0.00000000E+00
  1.20000000E+02  7.20000000E+01  0.00000000E+00
  1.30000000E+02  7.20000000E+01  0.00000000E+00
  1.40000000E+02  7.20000000E+01  0.00000000E+00
  1.50000000E+02  7.20000000E+01  0.00000000E+00
  1.60000000E+02  7.20000000E+01  0.00000000E+00
  1.70000000E+02  7.20000000E+01  0.00000000E+00
  1.80000000E+02  7.20000000E+01  0.00000000E+00
  1.90000000E+02  7.20000000E+01  0.00000000E+00
  2.00000000E+02  7.20000000E+01  0.00000000E+00
  2.10000000E+02  7.20000000E+01  0.00000000E+00
  2.20000000E+02  7.20000000E+01  0.00000000E+00
  2.30000000E+02  7.20000000E+01  0.00000000E+00
  2.40000000E+02  7.20000000E+01  0.00000000E+00
  2.50000000E+02  7.20000000E+01  0.00000000E+00
  2.60000000E+02  7.20000000E+01  0.00000000E+00
  2.70000000E+02  7.20000000E+01  0.00000000E+00
  2.80000000E+02  7.20000000E+01  0.00000000E+00
  2.90000000E+02  7.20000000E+01  0.00000000E+00
  3.00000000E+02  7.20000000E+01  0.00000000E+00
  3.10000000E+02  7.20000000E+01  0.00000000E+00
  3.20000000E+02  7.20000000E+01  0.00000000E+00
  3.30000000E+02  7.20000000E+01  0.00000000E+00
  3.40000000E+02  7.20000000E+01  0.00000000E+00
  3.50000000E+02  7.20000000E+01  0.00000000E+00
  3.60000000E+02  7.20000000E+01  0.00000000E+00
  3.70000000E+02  7.20000000E+01  0.00000000E+00
  3.80000000E+02  7.20000000E+01  0.00000000E+00
  3.90000000E+02  7.20000000E+01  0.00000000E+00
  4.00000000E+02  7.20000000E+01  0.00000000E+00
  4.10000000E+02  7.20000000E+01  0.00000000E+00
  4.20000000E+02  7.20000000E+01  0.00000000E+00
  4.30000000E+02  7.20000000E+01  0.00000000E+00
  4.40000000E+02  7.20000000E+01  0.00000000E+00
  4.50000000E+02  7.20000000E+01  0.00000000E+00
  4.60000000E+02  7.20000000E+01  0.00000000E+00
  4.70000000E+02  7.20000000E+01  0.00000000E+00
  4.80000000E+02  7.20000000E+01  0.00000000E+00
  4.90000000E+02  7.20000000E+01  0.00000000E+00
  5.00000000E+02  7.20000000E+01  0.00000000E+00
  5.10000000E+02  7.20000000E+01  0.00000000E+00
  5.20000000E+02  7.20000000E+01  0.00000000E+00
  5.30000000E+02  7.20000000E+01  0.00000000E+00
  5.40000000E+02  7.20000000E+01  0.00000000E+00
  5.50000000E+02  7.20000000E+01  0.00000000E+00
  5.60000000E+02  7.20000000E+01  0.00000000E+00
  5.70000000E+02  7.20000000E+01  0.00000000E+00
  5.80000000E+02  7.20000000E+01  0.00000000E+00
  5.90000000E+02  7.20000000E+01  0.00000000E+00
  6.00000000E+02  7.20000000E+01  0.00000000E+00
  6.10000000E+02  7.20000000E+01  0.00000000E+00
  6.20000000E+02  7.20000000E+01  0.00000000E+00
  6.30000000E+02  7.20000000E+01  0.00000000E+00
  6.40000000E+02  7.20000000E+01  0.00000000E+00
  6.50000000E+02  7.20000000E+01  0.00000000E+00
  6.60000000E+02  7.20000000E+01  0.00000000E+00
  6.70000000E+02  7.20000000E+01  0.00000000E+00
  6.80000000E+02  7.20000000E+01  0.00000000E+00
  6.90000000E+02  7.20000000E+01  0.00000000E+00
  7.00000000E+02  7.20000000E+01  0.00000000E+00
  7.10000000E+02  7.20000000E+01  0.00000000E+00
  7.20000000E+02  7.20000000E+01  0.00000000E+00
  7.30000000E+02  7.20000000E+01  0.00000000E+00
  7.40000000E+02  7.20000000E+01  0.00000000E+00
  7.50000000E+02  7.20000000E+01  0.00000000E+00
  7.60000000E+02  7.20000000E+01  0.00000000E+00
  7.70000000E+02  7.20000000E+01  0.00000000E+00
  7.80000000E+02  7.20000000E+01  0.00000000E+00
  7.90000000E+02  7.20000000E+01  0.00000000E+00
  8.00000000E+02  7.20000000E+01  0.00000000E+00
  8.10000000E+02  7.20000000E+01  0.00000000E+00
  8.20000000E+02  7.20000000E+01  0.00000000E+00
  8.30000000E+02  7.20000000E+01  0.00000000E+00
  8.40000000E+02  7.20000000E+01  0.00000000E+00
  8.50000000E+02  7.20000000E+01  0.00000000E+00
  8.60000000E+02  7.20000000E+01  0.00000000E+00
  8.70000000E+02  7.20000000E+01  0.00000000E+00
  8.80000000E+02  7.20000000E+01  0.00000000E+00
  8.90000000E+02  7.20000000E+01  0.00000000E+00
  9.00000000E+02  7.20000000E+01  0.00000000E+00
  9.10000000E+02  7.20000000E+01  0.00000000E+00
  9.20000000E+02  7.20000000E+01  0.00000000E+00
  9.30000000E+02  7.20000000E+01  0.00000000E+00
  9.40000000E+02  7.20000000E+01  0.00000000E+00
  9.50000000E+02  7.20000000E+01  0.00000000E+00
  9.60000000E+02  7.20000000E+01  0.00000000E+00
  9.70000000E+02  7.20000000E+01  0.00000000E+00
  9.80000000E+02  7.20000000E+01  0.00000000E+00
  9.90000000E+02  7.20000000E+01  0.00000000E+00
  1.00000000E+03  7.20000000E+01  0.00000000E+00
  0.00000000E+00  7.40000000E+01  0.00000000E+00
  1.00000000E+01  7.40000000E+01  0.00000000E+00
  2.00000000E+01  7.40000000E+01  0.00000000E+00
  3.00000000E+01  7.40000000E+01  0.00000000E+00
  4.00000000E+01  7.40000000E+01  0.00000000E+00
  5.00000000E+01  7.40000000E+01  0.00000000E+00
  6.00000000E+01  7.40000000E+01  0.00000000E+00
  7.00000000E+01  7.40000000E+01  0.00000000E+00
  8.00000000E+01  7.40000000E+01  0.00000000E+00
  9.00000000E+01  7.40000000E+01  0.00000000E+00
  1.00000000E+02  7.40000000E+01  0.00000000E+00
  1.10000000E+02  7.40000000E+01  0.00000000E+00
  1.20000000E+02  7.40000000E+01  0.00000000E+00
  1.30000000E+02  7.40000000E+01  0.00000000E+00
  1.40000000E+02  7.40000000E+01  0.00000000E+00
  1.50000000E+02  7.40000000E+01  0.00000000E+00
  1.60000000E+02  7.40000000E+01  0.00000000E+00
  1.70000000E+02  7.40000000E+01  0.00000000E+00
  1.80000000E+02  7.40000000E+01  0.00000000E+00
  1.90000000E+02  7.40000000E+01  0.00000000E+00
  2.00000000E+02  7.40000000E+01  0.00000000E+00
  2.10000000E+02  7.40000000E+01  0.00000000E+00
  2.20000000E+02  7.40000000E+01  0.00000000E+00
  2.30000000E+02  7.40000000E+01  0.00000000E+00
  2.40000000E+02  7.40000000E+01  0.00000000E+00
  2.50000000E+02  7.40000000E+01  0.00000000E+00
  2.60000000E+02  7.40000000E+01  0.00000000E+00
  2.70000000E+02  7.40000000E+01  0.00000000E+00
  2.80000000E+02  7.40000000E+01  0.00000000E+00
  2.90000000E+02  7.40000000E+01  0.00000000E+00
  3.00000000E+02  7.40000000E+01  0.00000000E+00
  3.10000000E+02  7.40000000E+01  0.00000000E+00
  3.20000000E+02  7.40000000E+01  0.00000000E+00
  3.30000000E+02  7.40000000E+01  0.00000000E+00
  3.40000000E+02  7.40000000E+01  0.00000000E+00
  3.50000000E+02  7.40000000E+01  0.00000000E+00
  3.60000000E+02  7.40000000E+01  0.00000000E+00
  3.70000000E+02  7.40000000E+01  0.00000000E+00
  3.80000000E+02  7.40000000E+01  0.00000000E+00
  3.90000000E+02  7.40000000E+01  0.00000000E+00
  4.00000000E+02  7.40000000E+01  0.00000000E+00
  4.10000000E+02  7.40000000E+01  0.00000000E+00
  4.20000000E+02  7.40000000E+01  0.00000000E+00
  4.30000000E+02  7.40000000E+01  0.00000000E+00
  4.40000000E+02  7.40000000E+01  0.00000000E+00
  4.50000000E+02  7.40000000E+01  0.00000000E+00
  4.60000000E+02  7.40000000E+01  0.00000000E+00
  4.70000000E+02  7.40000000E+01  0.00000000E+00
  4.80000000E+02  7.40000000E+01  0.00000000E+00
  4.90000000E+02  7.40000000E+01  0.00000000E+00
  5.00000000E+02  7.40000000E+01  0.00000000E+00
  5.10000000E+02  7.40000000E+01  0.00000000E+00
  5.20000000E+02  7.40000000E+01  0.00000000E+00
  5.30000000E+02  7.40000000E+01  0.00000000E+00
  5.40000000E+02  7.40000000E+01  0.00000000E+00
  5.50000000E+02  7.40000000E+01  0.00000000E+00
  5.60000000E+02  7.40000000E+01  0.00000000E+00
  5.70000000E+02  7.40000000E+01  0.00000000E+00
  5.80000000E+02  7.40000000E+01  0.00000000E+00
  5.90000000E+02  7.40000000E+01  0.00000000E+00
  6.00000000E+02  7.40000000E+01  0.00000000E+00
  6.10000000E+02  7.40000000E+01  0.00000000E+00
  6.20000000E+02  7.40000000E+01  0.00000000E+00
  6.30000000E+02  7.40000000E+01  0.00000000E+00
  6.40000000E+02  7.40000000E+01  0.00000000E+00
  6.50000000E+02  7.40000000E+01  0.00000000E+00
  6.60000000E+02  7.40000000E+01  0.00000000E+00
  6.70000000E+02  7.40000000E+01  0.00000000E+00
  6.80000000E+02  7.40000000E+01  0.00000000E+00
  6.90000000E+02  7.40000000E+01  0.00000000E+00
  7.00000000E+02  7.40000000E+01  0.00000000E+00
  7.10000000E+02  7.40000000E+01  0.00000000E+00
  7.20000000E+02  7.40000000E+01  0.00000000E+00
  7.30000000E+02  7.40000000E+01  0.00000000E+00
  7.40000000E+02  7.40000000E+01  0.00000000E+00
  7.50000000E+02  7.40000000E+01  0.00000000E+00
  7.60000000E+02  7.40000000E+01  0.00000000E+00
  7.70000000E+02  7.40000000E+01  0.00000000E+00
  7.80000000E+02  7.40000000E+01  0.00000000E+00
  7.90000000E+02  7.40000000E+01  0.00000000E+00
  8.00000000E+02  7.40000000E+01  0.00000000E+00
  8.10000000E+02  7.40000000E+01  0.00000000E+00
  8.20000000E+02  7.40000000E+01  0.00000000E+00
  8.30000000E+02  7.40000000E+01  0.00000000E+00
  8.40000000E+02  7.40000000E+01  0.00000000E+00
  8.50000000E+02  7.40000000E+01  0.00000000E+00
  8.60000000E+02  7.40000000E+01  0.00000000E+00
  8.70000000E+02  7.40000000E+01  0.00000000E+00
  8.80000000E+02  7.40000000E+01  0.00000000E+00
  8.90000000E+02  7.40000000E+01  0.00000000E+00
  9.00000000E+02  7.40000000E+01  0.00000000E+00
  9.10000000E+02  7.40000000E+01  0.00000000E+00
  9.20000000E+02  7.40000000E+01  0.00000000E+00
  9.30000000E+02  7.40000000E+01  0.00000000E+00
  9.40000000E+02  7.40000000E+01  0.00000000E+00
  9.50000000E+02  7.40000000E+01  0.00000000E+00
  9.60000000E+02  7.40000000E+01  0.00000000E+00
  9.70000000E+02  7.40000000E+01  0.00000000E+00
  9.80000000E+02  7.40000000E+01  0.00000000E+00
  9.90000000E+02  7.40000000E+01  0.00000000E+00
  1.00000000E+03  7.40000000E+01  0.00000000E+00
  0.00000000E+00  7.60000000E+01  0.00000000E+00
  1.00000000E+01  7.60000000E+01  0.00000000E+00
  2.00000000E+01  7.60000000E+01  0.00000000E+00
  3.00000000E+01  7.60000000E+01  0.00000000E+00
  4.00000000E+01  7.60000000E+01  0.00000000E+00
  5.00000000E+01  7.60000000E+01  0.00000000E+00
  6.00000000E+01  7.60000000E+01  0.00000000E+00
  7.00000000E+01  7.60000000E+01  0.00000000E+00
  8.00000000E+01  7.60000000E+01  0.00000000E+00
  9.00000000E+01  7.60000000E+01  0.00000000E+00
  1.00000000E+02  7.60000000E+01  0.00000000E+00
  1.10000000E+02  7.60000000E+01  0.00000000E+00
  1.20000000E+02  7.60000000E+01  0.00000000E+00
  1.30000000E+02  7.60000000E+01  0.00000000E+00
  1.40000000E+02  7.60000000E+01  0.00000000E+00
  1.50000000E+02  7.60000000E+01  0.00000000E+00
  1.60000000E+02  7.60000000E+01  0.00000000E+00
  1.70000000E+02  7.60000000E+01  0.00000000E+00
  1.80000000E+02  7.60000000E+01  0.00000000E+00
  1.90000000E+02  7.60000000E+01  0.00000000E+00
  2.00000000E+02  7.60000000E+01  0.00000000E+00
  2.10000000E+02  7.60000000E+01  0.00000000E+00
  2.20000000E+02  7.60000000E+01  0.00000000E+00
  2.30000000E+02  7.60000000E+01  0.00000000E+00
  2.40000000E+02  7.60000000E+01  0.00000000E+00
  2.50000000E+02  7.60000000E+01  0.00000000E+00
  2.60000000E+02  7.60000000E+01  0.00000000E+00
  2.70000000E+02  7.60000000E+01  0.00000000E+00
  2.80000000E+02  7.60000000E+01  0.00000000E+00
  2.90000000E+02  7.60000000E+01  0.00000000E+00
  3.00000000E+02  7.60000000E+01  0.00000000E+00
  3.10000000E+02  7.60000000E+01  0.00000000E+00
  3.20000000E+02  7.60000000E+01  0.00000000E+00
  3.30000000E+02  7.60000000E+01  0.00000000E+00
  3.40000000E+02  7.60000000E+01  0.00000000E+00
  3.50000000E+02  7.60000000E+01  0.00000000E+00
  3.60000000E+02  7.60000000E+01  0.00000000E+00
  3.70000000E+02  7.60000000E+01  0.00000000E+00
  3.80000000E+02  7.60000000E+01  0.00000000E+00
  3.90000000E+02  7.60000000E+01  0.00000000E+00
  4.00000000E+02  7.60000000E+01  0.00000000E+00
  4.10000000E+02  7.60000000E+01  0.00000000E+00
  4.20000000E+02  7.60000000E+01  0.00000000E+00
  4.30000000E+02  7.60000000E+01  0.00000000E+00
  4.40000000E+02  7.60000000E+01  0.00000000E+00
  4.50000000E+02  7.60000000E+01  0.00000000E+00
  4.60000000E+02  7.60000000E+01  0.00000000E+00
  4.70000000E+02  7.60000000E+01  0.00000000E+00
  4.80000000E+02  7.60000000E+01  0.00000000E+00
  4.90000000E+02  7.60000000E+01  0.00000000E+00
  5.00000000E+02  7.60000000E+01  0.00000000E+00
  5.10000000E+02  7.60000000E+01  0.00000000E+00
  5.20000000E+02  7.60000000E+01  0.00000000E+00
  5.30000000E+02  7.60000000E+01  0.00000000E+00
  5.40000000E+02  7.60000000E+01  0.00000000E+00
  5.50000000E+02  7.60000000E+01  0.00000000E+00
  5.60000000E+02  7.60000000E+01  0.00000000E+00
  5.70000000E+02  7.60000000E+01  0.00000000E+00
  5.80000000E+02  7.60000000E+01  0.00000000E+00
  5.90000000E+02  7.60000000E+01  0.00000000E+00
  6.00000000E+02  7.60000000E+01  0.00000000E+00
  6.10000000E+02  7.60000000E+01  0.00000000E+00
  6.20000000E+02  7.60000000E+01  0.00000000E+00
  6.30000000E+02  7.60000000E+01  0.00000000E+00
  6.40000000E+02  7.60000000E+01  0.00000000E+00
  6.50000000E+02  7.60000000E+01  0.00000000E+00
  6.60000000E+02  7.60000000E+01  0.00000000E+00
  6.70000000E+02  7.60000000E+01  0.00000000E+00
  6.80000000E+02  7.60000000E+01  0.00000000E+00
  6.90000000E+02  7.60000000E+01  0.00000000E+00
  7.00000000E+02  7.60000000E+01  0.00000000E+00
  7.10000000E+02  7.60000000E+01  0.00000000E+00
  7.20000000E+02  7.60000000E+01  0.00000000E+00
  7.30000000E+02  7.60000000E+01  0.00000000E+00
  7.40000000E+02  7.60000000E+01  0.00000000E+00
  7.50000000E+02  7.60000000E+01  0.00000000E+00
  7.60000000E+02  7.60000000E+01  0.00000000E+00
  7.70000000E+02  7.60000000E+01  0.00000000E+00
  7.80000000E+02  7.60000000E+01  0.00000000E+00
  7.90000000E+02  7.60000000E+01  0.00000000E+00
  8.00000000E+02  7.60000000E+01  0.00000000E+00
  8.10000000E+02  7.60000000E+01  0.00000000E+00
  8.20000000E+02  7.60000000E+01  0.00000000E+00
  8.30000000E+02  7.60000000E+01  0.00000000E+00
  8.40000000E+02  7.60000000E+01  0.00000000E+00
  8.50000000E+02  7.60000000E+01  0.00000000E+00
  8.60000000E+02  7.60000000E+01  0.00000000E+00
  8.70000000E+02  7.60000000E+01  0.00000000E+00
  8.80000000E+02  7.60000000E+01  0.00000000E+00
  8.90000000E+02  7.60000000E+01  0.00000000E+00
  9.00000000E+02  7.60000000E+01  0.00000000E+00
  9.10000000E+02  7.60000000E+01  0.00000000E+00
  9.20000000E+02  7.60000000E+01  0.00000000E+00
  9.30000000E+02  7.60000000E+01  0.00000000E+00
  9.40000000E+02  7.60000000E+01  0.00000000E+00
  9.50000000E+02  7.60000000E+01  0.00000000E+00
  9.60000000E+02  7.60000000E+01  0.00000000E+00
  9.70000000E+02  7.60000000E+01  0.00000000E+00
  9.80000000E+02  7.60000000E+01  0.00000000E+00
  9.90000000E+02  7.60000000E+01  0.00000000E+00
  1.00000000E+03  7.60000000E+01  0.00000000E+00
  0.00000000E+00  7.80000000E+01  0.00000000E+00
  1.00000000E+01  7.80000000E+01  0.00000000E+00
  2.00000000E+01  7.80000000E+01  0.00000000E+00
  3.00000000E+01  7.80000000E+01  0.00000000E+00
  4.00000000E+01  7.80000000E+01  0.00000000E+00
  5.00000000E+01  7.80000000E+01  0.00000000E+00
  6.00000000E+01  7.80000000E+01  0.00000000E+00
  7.00000000E+01  7.80000000E+01  0.00000000E+00
  8.00000000E+01  7.80000000E+01  0.00000000E+00
  9.00000000E+01  7.80000000E+01  0.00000000E+00
  1.00000000E+02  7.80000000E+01  0.00000000E+00
  1.10000000E+02  7.80000000E+01  0.00000000E+00
  1.20000000E+02  7.80000000E+01  0.00000000E+00
  1.30000000E+02  7.80000000E+01  0.00000000E+00
  1.40000000E+02  7.80000000E+01  0.00000000E+00
  1.50000000E+02  7.80000000E+01  0.00000000E+00
  1.60000000E+02  7.80000000E+01  0.00000000E+00
  1.70000000E+02  7.80000000E+01  0.00000000E+00
  1.80000000E+02  7.80000000E+01  0.00000000E+00
  1.90000000E+02  7.80000000E+01  0.00000000E+00
  2.00000000E+02  7.80000000E+01  0.00000000E+00
  2.10000000E+02  7.80000000E+01  0.00000000E+00
  2.20000000E+02  7.80000000E+01  0.00000000E+00
  2.30000000E+02  7.80000000E+01  0.00000000E+00
  2.40000000E+02  7.80000000E+01  0.00000000E+00
  2.50000000E+02  7.80000000E+01  0.00000000E+00
  2.60000000E+02  7.80000000E+01  0.00000000E+00
  2.70000000E+02  7.80000000E+01  0.00000000E+00
  2.80000000E+02  7.80000000E+01  0.00000000E+00
  2.90000000E+02  7.80000000E+01  0.00000000E+00
  3.00000000E+02  7.80000000E+01  0.00000000E+00
  3.10000000E+02  7.80000000E+01  0.00000000E+00
  3.20000000E+02  7.80000000E+01  0.00000000E+00
  3.30000000E+02  7.80000000E+01  0.00000000E+00
  3.40000000E+02  7.80000000E+01  0.00000000E+00
  3.50000000E+02  7.80000000E+01  0.00000000E+00
  3.60000000E+02  7.80000000E+01  0.00000000E+00
  3.70000000E+02  7.80000000E+01  0.00000000E+00
  3.80000000E+02  7.80000000E+01  0.00000000E+00
  3.90000000E+02  7.80000000E+01  0.00000000E+00
  4.00000000E+02  7.80000000E+01  0.00000000E+00
  4.10000000E+02  7.80000000E+01  0.00000000E+00
  4.20000000E+02  7.80000000E+01  0.00000000E+00
  4.30000000E+02  7.80000000E+01  0.00000000E+00
  4.40000000E+02  7.80000000E+01  0.00000000E+00
  4.50000000E+02  7.80000000E+01  0.00000000E+00
  4.60000000E+02  7.80000000E+01  0.00000000E+00
  4.70000000E+02  7.80000000E+01  0.00000000E+00
  4.80000000E+02  7.80000000E+01  0.00000000E+00
  4.90000000E+02  7.80000000E+01  0.00000000E+00
  5.00000000E+02  7.80000000E+01  0.00000000E+00
  5.10000000E+02  7.80000000E+01  0.00000000E+00
  5.20000000E+02  7.80000000E+01  0.00000000E+00
  5.30000000E+02  7.80000000E+01  0.00000000E+00
  5.40000000E+02  7.80000000E+01  0.00000000E+00
  5.50000000E+02  7.80000000E+01  0.00000000E+00
  5.60000000E+02  7.80000000E+01  0.00000000E+00
  5.70000000E+02  7.80000000E+01  0.00000000E+00
  5.80000000E+02  7.80000000E+01  0.00000000E+00
  5.90000000E+02  7.80000000E+01  0.00000000E+00
  6.00000000E+02  7.80000000E+01  0.00000000E+00
  6.10000000E+02  7.80000000E+01  0.00000000E+00
  6.20000000E+02  7.80000000E+01  0.00000000E+00
  6.30000000E+02  7.80000000E+01  0.00000000E+00
  6.40000000E+02  7.80000000E+01  0.00000000E+00
  6.50000000E+02  7.80000000E+01  0.00000000E+00
  6.60000000E+02  7.80000000E+01  0.00000000E+00
  6.70000000E+02  7.80000000E+01  0.00000000E+00
  6.80000000E+02  7.80000000E+01  0.00000000E+00
  6.90000000E+02  7.80000000E+01  0.00000000E+00
  7.00000000E+02  7.80000000E+01  0.00000000E+00
  7.10000000E+02  7.80000000E+01  0.00000000E+00
  7.20000000E+02  7.80000000E+01  0.00000000E+00
  7.30000000E+02  7.80000000E+01  0.00000000E+00
  7.40000000E+02  7.80000000E+01  0.00000000E+00
  7.50000000E+02  7.80000000E+01  0.00000000E+00
  7.60000000E+02  7.80000000E+01  0.00000000E+00
  7.70000000E+02  7.80000000E+01  0.00000000E+00
  7.80000000E+02  7.80000000E+01  0.00000000E+00
  7.90000000E+02  7.80000000E+01  0.00000000E+00
  8.00000000E+02  7.80000000E+01  0.00000000E+00
  8.10000000E+02  7.80000000E+01  0.00000000E+00
  8.20000000E+02  7.80000000E+01  0.00000000E+00
  8.30000000E+02  7.80000000E+01  0.00000000E+00
  8.40000000E+02  7.80000000E+01  0.00000000E+00
  8.50000000E+02  7.80000000E+01  0.00000000E+00
  8.60000000E+02  7.80000000E+01  0.00000000E+00
  8.70000000E+02  7.80000000E+01  0.00000000E+00
  8.80000000E+02  7.80000000E+01  0.00000000E+00
  8.90000000E+02  7.80000000E+01  0.00000000E+00
  9.00000000E+02  7.80000000E+01  0.00000000E+00
  9.10000000E+02  7.80000000E+01  0.00000000E+00
  9.20000000E+02  7.80000000E+01  0.00000000E+00
  9.30000000E+02  7.80000000E+01  0.00000000E+00
  9.40000000E+02  7.80000000E+01  0.00000000E+00
  9.50000000E+02  7.80000000E+01  0.00000000E+00
  9.60000000E+02  7.80000000E+01  0.00000000E+00
  9.70000000E+02  7.80000000E+01  0.00000000E+00
  9.80000000E+02  7.80000000E+01  0.00000000E+00
  9.90000000E+02  7.80000000E+01  0.00000000E+00
  1.00000000E+03  7.80000000E+01  0.00000000E+00
  0.00000000E+00  8.00000000E+01  0.00000000E+00
  1.00000000E+01  8.00000000E+01  0.00000000E+00
  2.00000000E+01  8.00000000E+01  0.00000000E+00
  3.00000000E+01  8.00000000E+01  0.00000000E+00
  4.00000000E+01  8.00000000E+01  0.00000000E+00
  5.00000000E+01  8.00000000E+01  0.00000000E+00
  6.00000000E+01  8.00000000E+01  0.00000000E+00
  7.00000000E+01  8.00000000E+01  0.00000000E+00
  8.00000000E+01  8.00000000E+01  0.00000000E+00
  9.00000000E+01  8.00000000E+01  0.00000000E+00
  1.00000000E+02  8.00000000E+01  0.00000000E+00
  1.10000000E+02  8.00000000E+01  0.00000000E+00
  1.20000000E+02  8.00000000E+01  0.00000000E+00
  1.30000000E+02  8.00000000E+01  0.00000000E+00
  1.40000000E+02  8.00000000E+01  0.00000000E+00
  1.50000000E+02  8.00000000E+01  0.00000000E+00
  1.60000000E+02  8.00000000E+01  0.00000000E+00
  1.70000000E+02  8.00000000E+01  0.00000000E+00
  1.80000000E+02  8.00000000E+01  0.00000000E+00
  1.90000000E+02  8.00000000E+01  0.00000000E+00
  2.00000000E+02  8.00000000E+01  0.00000000E+00
  2.10000000E+02  8.00000000E+01  0.00000000E+00
  2.20000000E+02  8.00000000E+01  0.00000000E+00
  2.30000000E+02  8.00000000E+01  0.00000000E+00
  2.40000000E+02  8.00000000E+01  0.00000000E+00
  2.50000000E+02  8.00000000E+01  0.00000000E+00
  2.60000000E+02  8.00000000E+01  0.00000000E+00
  2.70000000E+02  8.00000000E+01  0.00000000E+00
  2.80000000E+02  8.00000000E+01  0.00000000E+00
  2.90000000E+02  8.00000000E+01  0.00000000E+00
  3.00000000E+02  8.00000000E+01  0.00000000E+00
  3.10000000E+02  8.00000000E+01  0.00000000E+00
  3.20000000E+02  8.00000000E+01  0.00000000E+00
  3.30000000E+02  8.00000000E+01  0.00000000E+00
  3.40000000E+02  8.00000000E+01  0.00000000E+00
  3.50000000E+02  8.00000000E+01  0.00000000E+00
  3.60000000E+02  8.00000000E+01  0.00000000E+00
  3.70000000E+02  8.00000000E+01  0.00000000E+00
  3.80000000E+02  8.00000000E+01  0.00000000E+00
  3.90000000E+02  8.00000000E+01  0.00000000E+00
  4.00000000E+02  8.00000000E+01  0.00000000E+00
  4.10000000E+02  8.00000000E+01  0.00000000E+00
  4.20000000E+02  8.00000000E+01  0.00000000E+00
  4.30000000E+02  8.00000000E+01  0.00000000E+00
  4.40000000E+02  8.00000000E+01  0.00000000E+00
  4.50000000E+02  8.00000000E+01  0.00000000E+00
  4.60000000E+02  8.00000000E+01  0.00000000E+00
  4.70000000E+02  8.00000000E+01  0.00000000E+00
  4.80000000E+02  8.00000000E+01  0.00000000E+00
  4.90000000E+02  8.00000000E+01  0.00000000E+00
  5.00000000E+02  8.00000000E+01  0.00000000E+00
  5.10000000E+02  8.00000000E+01  0.00000000E+00
  5.20000000E+02  8.00000000E+01  0.00000000E+00
  5.30000000E+02  8.00000000E+01  0.00000000E+00
  5.40000000E+02  8.00000000E+01  0.00000000E+00
  5.50000000E+02  8.00000000E+01  0.00000000E+00
  5.60000000E+02  8.00000000E+01  0.00000000E+00
  5.70000000E+02  8.00000000E+01  0.00000000E+00
  5.80000000E+02  8.00000000E+01  0.00000000E+00
  5.90000000E+02  8.00000000E+01  0.00000000E+00
  6.00000000E+02  8.00000000E+01  0.00000000E+00
  6.10000000E+02  8.00000000E+01  0.00000000E+00
  6.20000000E+02  8.00000000E+01  0.00000000E+00
  6.30000000E+02  8.00000000E+01  0.00000000E+00
  6.40000000E+02  8.00000000E+01  0.00000000E+00
  6.50000000E+02  8.00000000E+01  0.00000000E+00
  6.60000000E+02  8.00000000E+01  0.00000000E+00
  6.70000000E+02  8.00000000E+01  0.00000000E+00
  6.80000000E+02  8.00000000E+01  0.00000000E+00
  6.90000000E+02  8.00000000E+01  0.00000000E+00
  7.00000000E+02  8.00000000E+01  0.00000000E+00
  7.10000000E+02  8.00000000E+01  0.00000000E+00
  7.20000000E+02  8.00000000E+01  0.00000000E+00
  7.30000000E+02  8.00000000E+01  0.00000000E+00
  7.40000000E+02  8.00000000E+01  0.00000000E+00
  7.50000000E+02  8.00000000E+01  0.00000000E+00
  7.60000000E+02  8.00000000E+01  0.00000000E+00
  7.70000000E+02  8.00000000E+01  0.00000000E+00
  7.80000000E+02  8.00000000E+01  0.00000000E+00
  7.90000000E+02  8.00000000E+01  0.00000000E+00
  8.00000000E+02  8.00000000E+01  0.00000000E+00
  8.10000000E+02  8.00000000E+01  0.00000000E+00
  8.20000000E+02  8.00000000E+01  0.00000000E+00
  8.30000000E+02  8.00000000E+01  0.00000000E+00
  8.40000000E+02  8.00000000E+01  0.00000000E+00
  8.50000000E+02  8.00000000E+01  0.00000000E+00
  8.60000000E+02  8.00000000E+01  0.00000000E+00
  8.70000000E+02  8.00000000E+01  0.00000000E+00
  8.80000000E+02  8.00000000E+01  0.00000000E+00
  8.90000000E+02  8.00000000E+01  0.00000000E+00
  9.00000000E+02  8.00000000E+01  0.00000000E+00
  9.10000000E+02  8.00000000E+01  0.00000000E+00
  9.20000000E+02  8.00000000E+01  0.00000000E+00
  9.30000000E+02  8.00000000E+01  0.00000000E+00
  9.40000000E+02  8.00000000E+01  0.00000000E+00
  9.50000000E+02  8.00000000E+01  0.00000000E+00
  9.60000000E+02  8.00000000E+01  0.00000000E+00
  9.70000000E+02  8.00000000E+01  0.00000000E+00
  9.80000000E+02  8.00000000E+01  0.00000000E+00
  9.90000000E+02  8.00000000E+01  0.00000000E+00
  1.00000000E+03  8.00000000E+01  0.00000000E+00
  0.00000000E+00  8.20000000E+01  0.00000000E+00
  1.00000000E+01  8.20000000E+01  0.00000000E+00
  2.00000000E+01  8.20000000E+01  0.00000000E+00
  3.00000000E+01  8.20000000E+01  0.00000000E+00
  4.00000000E+01  8.20000000E+01  0.00000000E+00
  5.00000000E+01  8.20000000E+01  0.00000000E+00
  6.00000000E+01  8.20000000E+01  0.00000000E+00
  7.00000000E+01  8.20000000E+01  0.00000000E+00
  8.00000000E+01  8.20000000E+01  0.00000000E+00
  9.00000000E+01  8.20000000E+01  0.00000000E+00
  1.00000000E+02  8.20000000E+01  0.00000000E+00
  1.10000000E+02  8.20000000E+01  0.00000000E+00
  1.20000000E+02  8.20000000E+01  0.00000000E+00
  1.30000000E+02  8.20000000E+01  0.00000000E+00
  1.40000000E+02  8.20000000E+01  0.00000000E+00
  1.50000000E+02  8.20000000E+01  0.00000000E+00
  1.60000000E+02  8.20000000E+01  0.00000000E+00
  1.70000000E+02  8.20000000E+01  0.00000000E+00
  1.80000000E+02  8.20000000E+01  0.00000000E+00
  1.90000000E+02  8.20000000E+01  0.00000000E+00
  2.00000000E+02  8.20000000E+01  0.00000000E+00
  2.10000000E+02  8.20000000E+01  0.00000000E+00
  2.20000000E+02  8.20000000E+01  0.00000000E+00
  2.30000000E+02  8.20000000E+01  0.00000000E+00
  2.40000000E+02  8.20000000E+01  0.00000000E+00
  2.50000000E+02  8.20000000E+01  0.00000000E+00
  2.60000000E+02  8.20000000E+01  0.00000000E+00
  2.70000000E+02  8.20000000E+01  0.00000000E+00
  2.80000000E+02  8.20000000E+01  0.00000000E+00
  2.90000000E+02  8.20000000E+01  0.00000000E+00
  3.00000000E+02  8.20000000E+01  0.00000000E+00
  3.10000000E+02  8.20000000E+01  0.00000000E+00
  3.20000000E+02  8.20000000E+01  0.00000000E+00
  3.30000000E+02  8.20000000E+01  0.00000000E+00
  3.40000000E+02  8.20000000E+01  0.00000000E+00
  3.50000000E+02  8.20000000E+01  0.00000000E+00
  3.60000000E+02  8.20000000E+01  0.00000000E+00
  3.70000000E+02  8.20000000E+01  0.00000000E+00
  3.80000000E+02  8.20000000E+01  0.00000000E+00
  3.90000000E+02  8.20000000E+01  0.00000000E+00
  4.00000000E+02  8.20000000E+01  0.00000000E+00
  4.10000000E+02  8.20000000E+01  0.00000000E+00
  4.20000000E+02  8.20000000E+01  0.00000000E+00
  4.30000000E+02  8.20000000E+01  0.00000000E+00
  4.40000000E+02  8.20000000E+01  0.00000000E+00
  4.50000000E+02  8.20000000E+01  0.00000000E+00
  4.60000000E+02  8.20000000E+01  0.00000000E+00
  4.70000000E+02  8.20000000E+01  0.00000000E+00
  4.80000000E+02  8.20000000E+01  0.00000000E+00
  4.90000000E+02  8.20000000E+01  0.00000000E+00
  5.00000000E+02  8.20000000E+01  0.00000000E+00
  5.10000000E+02  8.20000000E+01  0.00000000E+00
  5.20000000E+02  8.20000000E+01  0.00000000E+00
  5.30000000E+02  8.20000000E+01  0.00000000E+00
  5.40000000E+02  8.20000000E+01  0.00000000E+00
  5.50000000E+02  8.20000000E+01  0.00000000E+00
  5.60000000E+02  8.20000000E+01  0.00000000E+00
  5.70000000E+02  8.20000000E+01  0.00000000E+00
  5.80000000E+02  8.20000000E+01  0.00000000E+00
  5.90000000E+02  8.20000000E+01  0.00000000E+00
  6.00000000E+02  8.20000000E+01  0.00000000E+00
  6.10000000E+02  8.20000000E+01  0.00000000E+00
  6.20000000E+02  8.20000000E+01  0.00000000E+00
  6.30000000E+02  8.20000000E+01  0.00000000E+00
  6.40000000E+02  8.20000000E+01  0.00000000E+00
  6.50000000E+02  8.20000000E+01  0.00000000E+00
  6.60000000E+02  8.20000000E+01  0.00000000E+00
  6.70000000E+02  8.20000000E+01  0.00000000E+00
  6.80000000E+02  8.20000000E+01  0.00000000E+00
  6.90000000E+02  8.20000000E+01  0.00000000E+00
  7.00000000E+02  8.20000000E+01  0.00000000E+00
  7.10000000E+02  8.20000000E+01  0.00000000E+00
  7.20000000E+02  8.20000000E+01  0.00000000E+00
  7.30000000E+02  8.20000000E+01  0.00000000E+00
  7.40000000E+02  8.20000000E+01  0.00000000E+00
  7.50000000E+02  8.20000000E+01  0.00000000E+00
  7.60000000E+02  8.20000000E+01  0.00000000E+00
  7.70000000E+02  8.20000000E+01  0.00000000E+00
  7.80000000E+02  8.20000000E+01  0.00000000E+00
  7.90000000E+02  8.20000000E+01  0.00000000E+00
  8.00000000E+02  8.20000000E+01  0.00000000E+00
  8.10000000E+02  8.20000000E+01  0.00000000E+00
  8.20000000E+02  8.20000000E+01  0.00000000E+00
  8.30000000E+02  8.20000000E+01  0.00000000E+00
  8.40000000E+02  8.20000000E+01  0.00000000E+00
  8.50000000E+02  8.20000000E+01  0.00000000E+00
  8.60000000E+02  8.20000000E+01  0.00000000E+00
  8.70000000E+02  8.20000000E+01  0.00000000E+00
  8.80000000E+02  8.20000000E+01  0.00000000E+00
  8.90000000E+02  8.20000000E+01  0.00000000E+00
  9.00000000E+02  8.20000000E+01  0.00000000E+00
  9.10000000E+02  8.20000000E+01  0.00000000E+00
  9.20000000E+02  8.20000000E+01  0.00000000E+00
  9.30000000E+02  8.20000000E+01  0.00000000E+00
  9.40000000E+02  8.20000000E+01  0.00000000E+00
  9.50000000E+02  8.20000000E+01  0.00000000E+00
  9.60000000E+02  8.20000000E+01  0.00000000E+00
  9.70000000E+02  8.20000000E+01  0.00000000E+00
  9.80000000E+02  8.20000000E+01  0.00000000E+00
  9.90000000E+02  8.20000000E+01  0.00000000E+00
  1.00000000E+03  8.20000000E+01  0.00000000E+00
  0.00000000E+00  8.40000000E+01  0.00000000E+00
  1.00000000E+01  8.40000000E+01  0.00000000E+00
  2.00000000E+01  8.40000000E+01  0.00000000E+00
  3.00000000E+01  8.40000000E+01  0.00000000E+00
  4.00000000E+01  8.40000000E+01  0.00000000E+00
  5.00000000E+01  8.40000000E+01  0.00000000E+00
  6.00000000E+01  8.40000000E+01  0.00000000E+00
  7.00000000E+01  8.40000000E+01  0.00000000E+00
  8.00000000E+01  8.40000000E+01  0.00000000E+00
  9.00000000E+01  8.40000000E+01  0.00000000E+00
  1.00000000E+02  8.40000000E+01  0.00000000E+00
  1.10000000E+02  8.40000000E+01  0.00000000E+00
  1.20000000E+02  8.40000000E+01  0.00000000E+00
  1.30000000E+02  8.40000000E+01  0.00000000E+00
  1.40000000E+02  8.40000000E+01  0.00000000E+00
  1.50000000E+02  8.40000000E+01  0.00000000E+00
  1.60000000E+02  8.40000000E+01  0.00000000E+00
  1.70000000E+02  8.40000000E+01  0.00000000E+00
  1.80000000E+02  8.40000000E+01  0.00000000E+00
  1.90000000E+02  8.40000000E+01  0.00000000E+00
  2.00000000E+02  8.40000000E+01  0.00000000E+00
  2.10000000E+02  8.40000000E+01  0.00000000E+00
  2.20000000E+02  8.40000000E+01  0.00000000E+00
  2.30000000E+02  8.40000000E+01  0.00000000E+00
  2.40000000E+02  8.40000000E+01  0.00000000E+00
  2.50000000E+02  8.40000000E+01  0.00000000E+00
  2.60000000E+02  8.40000000E+01  0.00000000E+00
  2.70000000E+02  8.40000000E+01  0.00000000E+00
  2.80000000E+02  8.40000000E+01  0.00000000E+00
  2.90000000E+02  8.40000000E+01  0.00000000E+00
  3.00000000E+02  8.40000000E+01  0.00000000E+00
  3.10000000E+02  8.40000000E+01  0.00000000E+00
  3.20000000E+02  8.40000000E+01  0.00000000E+00
  3.30000000E+02  8.40000000E+01  0.00000000E+00
  3.40000000E+02  8.40000000E+01  0.00000000E+00
  3.50000000E+02  8.40000000E+01  0.00000000E+00
  3.60000000E+02  8.40000000E+01  0.00000000E+00
  3.70000000E+02  8.40000000E+01  0.00000000E+00
  3.80000000E+02  8.40000000E+01  0.00000000E+00
  3.90000000E+02  8.40000000E+01  0.00000000E+00
  4.00000000E+02  8.40000000E+01  0.00000000E+00
  4.10000000E+02  8.40000000E+01  0.00000000E+00
  4.20000000E+02  8.40000000E+01  0.00000000E+00
  4.30000000E+02  8.40000000E+01  0.00000000E+00
  4.40000000E+02  8.40000000E+01  0.00000000E+00
  4.50000000E+02  8.40000000E+01  0.00000000E+00
  4.60000000E+02  8.40000000E+01  0.00000000E+00
  4.70000000E+02  8.40000000E+01  0.00000000E+00
  4.80000000E+02  8.40000000E+01  0.00000000E+00
  4.90000000E+02  8.40000000E+01  0.00000000E+00
  5.00000000E+02  8.40000000E+01  0.00000000E+00
  5.10000000E+02  8.40000000E+01  0.00000000E+00
  5.20000000E+02  8.40000000E+01  0.00000000E+00
  5.30000000E+02  8.40000000E+01  0.00000000E+00
  5.40000000E+02  8.40000000E+01  0.00000000E+00
  5.50000000E+02  8.40000000E+01  0.00000000E+00
  5.60000000E+02  8.40000000E+01  0.00000000E+00
  5.70000000E+02  8.40000000E+01  0.00000000E+00
  5.80000000E+02  8.40000000E+01  0.00000000E+00
  5.90000000E+02  8.40000000E+01  0.00000000E+00
  6.00000000E+02  8.40000000E+01  0.00000000E+00
  6.10000000E+02  8.40000000E+01  0.00000000E+00
  6.20000000E+02  8.40000000E+01  0.00000000E+00
  6.30000000E+02  8.40000000E+01  0.00000000E+00
  6.40000000E+02  8.40000000E+01  0.00000000E+00
  6.50000000E+02  8.40000000E+01  0.00000000E+00
  6.60000000E+02  8.40000000E+01  0.00000000E+00
  6.70000000E+02  8.40000000E+01  0.00000000E+00
  6.80000000E+02  8.40000000E+01  0.00000000E+00
  6.90000000E+02  8.40000000E+01  0.00000000E+00
  7.00000000E+02  8.40000000E+01  0.00000000E+00
  7.10000000E+02  8.40000000E+01  0.00000000E+00
  7.20000000E+02  8.40000000E+01  0.00000000E+00
  7.30000000E+02  8.40000000E+01  0.00000000E+00
  7.40000000E+02  8.40000000E+01  0.00000000E+00
  7.50000000E+02  8.40000000E+01  0.00000000E+00
  7.60000000E+02  8.40000000E+01  0.00000000E+00
  7.70000000E+02  8.40000000E+01  0.00000000E+00
  7.80000000E+02  8.40000000E+01  0.00000000E+00
  7.90000000E+02  8.40000000E+01  0.00000000E+00
  8.00000000E+02  8.40000000E+01  0.00000000E+00
  8.10000000E+02  8.40000000E+01  0.00000000E+00
  8.20000000E+02  8.40000000E+01  0.00000000E+00
  8.30000000E+02  8.40000000E+01  0.00000000E+00
  8.40000000E+02  8.40000000E+01  0.00000000E+00
  8.50000000E+02  8.40000000E+01  0.00000000E+00
  8.60000000E+02  8.40000000E+01  0.00000000E+00
  8.70000000E+02  8.40000000E+01  0.00000000E+00
  8.80000000E+02  8.40000000E+01  0.00000000E+00
  8.90000000E+02  8.40000000E+01  0.00000000E+00
  9.00000000E+02  8.40000000E+01  0.00000000E+00
  9.10000000E+02  8.40000000E+01  0.00000000E+00
  9.20000000E+02  8.40000000E+01  0.00000000E+00
  9.30000000E+02  8.40000000E+01  0.00000000E+00
  9.40000000E+02  8.40000000E+01  0.00000000E+00
  9.50000000E+02  8.40000000E+01  0.00000000E+00
  9.60000000E+02  8.40000000E+01  0.00000000E+00
  9.70000000E+02  8.40000000E+01  0.00000000E+00
  9.80000000E+02  8.40000000E+01  0.00000000E+00
  9.90000000E+02  8.40000000E+01  0.00000000E+00
  1.00000000E+03  8.40000000E+01  0.00000000E+00
  0.00000000E+00  8.60000000E+01  0.00000000E+00
  1.00000000E+01  8.60000000E+01  0.00000000E+00
  2.00000000E+01  8.60000000E+01  0.00000000E+00
  3.00000000E+01  8.60000000E+01  0.00000000E+00
  4.00000000E+01  8.60000000E+01  0.00000000E+00
  5.00000000E+01  8.60000000E+01  0.00000000E+00
  6.00000000E+01  8.60000000E+01  0.00000000E+00
  7.00000000E+01  8.60000000E+01  0.00000000E+00
  8.00000000E+01  8.60000000E+01  0.00000000E+00
  9.00000000E+01  8.60000000E+01  0.00000000E+00
  1.00000000E+02  8.60000000E+01  0.00000000E+00
  1.10000000E+02  8.60000000E+01  0.00000000E+00
  1.20000000E+02  8.60000000E+01  0.00000000E+00
  1.30000000E+02  8.60000000E+01  0.00000000E+00
  1.40000000E+02  8.60000000E+01  0.00000000E+00
  1.50000000E+02  8.60000000E+01  0.00000000E+00
  1.60000000E+02  8.60000000E+01  0.00000000E+00
  1.70000000E+02  8.60000000E+01  0.00000000E+00
  1.80000000E+02  8.60000000E+01  0.00000000E+00
  1.90000000E+02  8.60000000E+01  0.00000000E+00
  2.00000000E+02  8.60000000E+01  0.00000000E+00
  2.10000000E+02  8.60000000E+01  0.00000000E+00
  2.20000000E+02  8.60000000E+01  0.00000000E+00
  2.30000000E+02  8.60000000E+01  0.00000000E+00
  2.40000000E+02  8.60000000E+01  0.00000000E+00
  2.50000000E+02  8.60000000E+01  0.00000000E+00
  2.60000000E+02  8.60000000E+01  0.00000000E+00
  2.70000000E+02  8.60000000E+01  0.00000000E+00
  2.80000000E+02  8.60000000E+01  0.00000000E+00
  2.90000000E+02  8.60000000E+01  0.00000000E+00
  3.00000000E+02  8.60000000E+01  0.00000000E+00
  3.10000000E+02  8.60000000E+01  0.00000000E+00
  3.20000000E+02  8.60000000E+01  0.00000000E+00
  3.30000000E+02  8.60000000E+01  0.00000000E+00
  3.40000000E+02  8.60000000E+01  0.00000000E+00
  3.50000000E+02  8.60000000E+01  0.00000000E+00
  3.60000000E+02  8.60000000E+01  0.00000000E+00
  3.70000000E+02  8.60000000E+01  0.00000000E+00
  3.80000000E+02  8.60000000E+01  0.00000000E+00
  3.90000000E+02  8.60000000E+01  0.00000000E+00
  4.00000000E+02  8.60000000E+01  0.00000000E+00
  4.10000000E+02  8.60000000E+01  0.00000000E+00
  4.20000000E+02  8.60000000E+01  0.00000000E+00
  4.30000000E+02  8.60000000E+01  0.00000000E+00
  4.40000000E+02  8.60000000E+01  0.00000000E+00
  4.50000000E+02  8.60000000E+01  0.00000000E+00
  4.60000000E+02  8.60000000E+01  0.00000000E+00
  4.70000000E+02  8.60000000E+01  0.00000000E+00
  4.80000000E+02  8.60000000E+01  0.00000000E+00
  4.90000000E+02  8.60000000E+01  0.00000000E+00
  5.00000000E+02  8.60000000E+01  0.00000000E+00
  5.10000000E+02  8.60000000E+01  0.00000000E+00
  5.20000000E+02  8.60000000E+01  0.00000000E+00
  5.30000000E+02  8.60000000E+01  0.00000000E+00
  5.40000000E+02  8.60000000E+01  0.00000000E+00
  5.50000000E+02  8.60000000E+01  0.00000000E+00
  5.60000000E+02  8.60000000E+01  0.00000000E+00
  5.70000000E+02  8.60000000E+01  0.00000000E+00
  5.80000000E+02  8.60000000E+01  0.00000000E+00
  5.90000000E+02  8.60000000E+01  0.00000000E+00
  6.00000000E+02  8.60000000E+01  0.00000000E+00
  6.10000000E+02  8.60000000E+01  0.00000000E+00
  6.20000000E+02  8.60000000E+01  0.00000000E+00
  6.30000000E+02  8.60000000E+01  0.00000000E+00
  6.40000000E+02  8.60000000E+01  0.00000000E+00
  6.50000000E+02  8.60000000E+01  0.00000000E+00
  6.60000000E+02  8.60000000E+01  0.00000000E+00
  6.70000000E+02  8.60000000E+01  0.00000000E+00
  6.80000000E+02  8.60000000E+01  0.00000000E+00
  6.90000000E+02  8.60000000E+01  0.00000000E+00
  7.00000000E+02  8.60000000E+01  0.00000000E+00
  7.10000000E+02  8.60000000E+01  0.00000000E+00
  7.20000000E+02  8.60000000E+01  0.00000000E+00
  7.30000000E+02  8.60000000E+01  0.00000000E+00
  7.40000000E+02  8.60000000E+01  0.00000000E+00
  7.50000000E+02  8.60000000E+01  0.00000000E+00
  7.60000000E+02  8.60000000E+01  0.00000000E+00
  7.70000000E+02  8.60000000E+01  0.00000000E+00
  7.80000000E+02  8.60000000E+01  0.00000000E+00
  7.90000000E+02  8.60000000E+01  0.00000000E+00
  8.00000000E+02  8.60000000E+01  0.00000000E+00
  8.10000000E+02  8.60000000E+01  0.00000000E+00
  8.20000000E+02  8.60000000E+01  0.00000000E+00
  8.30000000E+02  8.60000000E+01  0.00000000E+00
  8.40000000E+02  8.60000000E+01  0.00000000E+00
  8.50000000E+02  8.60000000E+01  0.00000000E+00
  8.60000000E+02  8.60000000E+01  0.00000000E+00
  8.70000000E+02  8.60000000E+01  0.00000000E+00
  8.80000000E+02  8.60000000E+01  0.00000000E+00
  8.90000000E+02  8.60000000E+01  0.00000000E+00
  9.00000000E+02  8.60000000E+01  0.00000000E+00
  9.10000000E+02  8.60000000E+01  0.00000000E+00
  9.20000000E+02  8.60000000E+01  0.00000000E+00
  9.30000000E+02  8.60000000E+01  0.00000000E+00
  9.40000000E+02  8.60000000E+01  0.00000000E+00
  9.50000000E+02  8.60000000E+01  0.00000000E+00
  9.60000000E+02  8.60000000E+01  0.00000000E+00
  9.70000000E+02  8.60000000E+01  0.00000000E+00
  9.80000000E+02  8.60000000E+01  0.00000000E+00
  9.90000000E+02  8.60000000E+01  0.00000000E+00
  1.00000000E+03  8.60000000E+01  0.00000000E+00
  0.00000000E+00  8.80000000E+01  0.00000000E+00
  1.00000000E+01  8.80000000E+01  0.00000000E+00
  2.00000000E+01  8.80000000E+01  0.00000000E+00
  3.00000000E+01  8.80000000E+01  0.00000000E+00
  4.00000000E+01  8.80000000E+01  0.00000000E+00
  5.00000000E+01  8.80000000E+01  0.00000000E+00
  6.00000000E+01  8.80000000E+01  0.00000000E+00
  7.00000000E+01  8.80000000E+01  0.00000000E+00
  8.00000000E+01  8.80000000E+01  0.00000000E+00
  9.00000000E+01  8.80000000E+01  0.00000000E+00
  1.00000000E+02  8.80000000E+01  0.00000000E+00
  1.10000000E+02  8.80000000E+01  0.00000000E+00
  1.20000000E+02  8.80000000E+01  0.00000000E+00
  1.30000000E+02  8.80000000E+01  0.00000000E+00
  1.40000000E+02  8.80000000E+01  0.00000000E+00
  1.50000000E+02  8.80000000E+01  0.00000000E+00
  1.60000000E+02  8.80000000E+01  0.00000000E+00
  1.70000000E+02  8.80000000E+01  0.00000000E+00
  1.80000000E+02  8.80000000E+01  0.00000000E+00
  1.90000000E+02  8.80000000E+01  0.00000000E+00
  2.00000000E+02  8.80000000E+01  0.00000000E+00
  2.10000000E+02  8.80000000E+01  0.00000000E+00
  2.20000000E+02  8.80000000E+01  0.00000000E+00
  2.30000000E+02  8.80000000E+01  0.00000000E+00
  2.40000000E+02  8.80000000E+01  0.00000000E+00
  2.50000000E+02  8.80000000E+01  0.00000000E+00
  2.60000000E+02  8.80000000E+01  0.00000000E+00
  2.70000000E+02  8.80000000E+01  0.00000000E+00
  2.80000000E+02  8.80000000E+01  0.00000000E+00
  2.90000000E+02  8.80000000E+01  0.00000000E+00
  3.00000000E+02  8.80000000E+01  0.00000000E+00
  3.10000000E+02  8.80000000E+01  0.00000000E+00
  3.20000000E+02  8.80000000E+01  0.00000000E+00
  3.30000000E+02  8.80000000E+01  0.00000000E+00
  3.40000000E+02  8.80000000E+01  0.00000000E+00
  3.50000000E+02  8.80000000E+01  0.00000000E+00
  3.60000000E+02  8.80000000E+01  0.00000000E+00
  3.70000000E+02  8.80000000E+01  0.00000000E+00
  3.80000000E+02  8.80000000E+01  0.00000000E+00
  3.90000000E+02  8.80000000E+01  0.00000000E+00
  4.00000000E+02  8.80000000E+01  0.00000000E+00
  4.10000000E+02  8.80000000E+01  0.00000000E+00
  4.20000000E+02  8.80000000E+01  0.00000000E+00
  4.30000000E+02  8.80000000E+01  0.00000000E+00
  4.40000000E+02  8.80000000E+01  0.00000000E+00
  4.50000000E+02  8.80000000E+01  0.00000000E+00
  4.60000000E+02  8.80000000E+01  0.00000000E+00
  4.70000000E+02  8.80000000E+01  0.00000000E+00
  4.80000000E+02  8.80000000E+01  0.00000000E+00
  4.90000000E+02  8.80000000E+01  0.00000000E+00
  5.00000000E+02  8.80000000E+01  0.00000000E+00
  5.10000000E+02  8.80000000E+01  0.00000000E+00
  5.20000000E+02  8.80000000E+01  0.00000000E+00
  5.30000000E+02  8.80000000E+01  0.00000000E+00
  5.40000000E+02  8.80000000E+01  0.00000000E+00
  5.50000000E+02  8.80000000E+01  0.00000000E+00
  5.60000000E+02  8.80000000E+01  0.00000000E+00
  5.70000000E+02  8.80000000E+01  0.00000000E+00
  5.80000000E+02  8.80000000E+01  0.00000000E+00
  5.90000000E+02  8.80000000E+01  0.00000000E+00
  6.00000000E+02  8.80000000E+01  0.00000000E+00
  6.10000000E+02  8.80000000E+01  0.00000000E+00
  6.20000000E+02  8.80000000E+01  0.00000000E+00
  6.30000000E+02  8.80000000E+01  0.00000000E+00
  6.40000000E+02  8.80000000E+01  0.00000000E+00
  6.50000000E+02  8.80000000E+01  0.00000000E+00
  6.60000000E+02  8.80000000E+01  0.00000000E+00
  6.70000000E+02  8.80000000E+01  0.00000000E+00
  6.80000000E+02  8.80000000E+01  0.00000000E+00
  6.90000000E+02  8.80000000E+01  0.00000000E+00
  7.00000000E+02  8.80000000E+01  0.00000000E+00
  7.10000000E+02  8.80000000E+01  0.00000000E+00
  7.20000000E+02  8.80000000E+01  0.00000000E+00
  7.30000000E+02  8.80000000E+01  0.00000000E+00
  7.40000000E+02  8.80000000E+01  0.00000000E+00
  7.50000000E+02  8.80000000E+01  0.00000000E+00
  7.60000000E+02  8.80000000E+01  0.00000000E+00
  7.70000000E+02  8.80000000E+01  0.00000000E+00
  7.80000000E+02  8.80000000E+01  0.00000000E+00
  7.90000000E+02  8.80000000E+01  0.00000000E+00
  8.00000000E+02  8.80000000E+01  0.00000000E+00
  8.10000000E+02  8.80000000E+01  0.00000000E+00
  8.20000000E+02  8.80000000E+01  0.00000000E+00
  8.30000000E+02  8.80000000E+01  0.00000000E+00
  8.40000000E+02  8.80000000E+01  0.00000000E+00
  8.50000000E+02  8.80000000E+01  0.00000000E+00
  8.60000000E+02  8.80000000E+01  0.00000000E+00
  8.70000000E+02  8.80000000E+01  0.00000000E+00
  8.80000000E+02  8.80000000E+01  0.00000000E+00
  8.90000000E+02  8.80000000E+01  0.00000000E+00
  9.00000000E+02  8.80000000E+01  0.00000000E+00
  9.10000000E+02  8.80000000E+01  0.00000000E+00
  9.20000000E+02  8.80000000E+01  0.00000000E+00
  9.30000000E+02  8.80000000E+01  0.00000000E+00
  9.40000000E+02  8.80000000E+01  0.00000000E+00
  9.50000000E+02  8.80000000E+01  0.00000000E+00
  9.60000000E+02  8.80000000E+01  0.00000000E+00
  9.70000000E+02  8.80000000E+01  0.00000000E+00
  9.80000000E+02  8.80000000E+01  0.00000000E+00
  9.90000000E+02  8.80000000E+01  0.00000000E+00
  1.00000000E+03  8.80000000E+01  0.00000000E+00
  0.00000000E+00  9.00000000E+01  0.00000000E+00
  1.00000000E+01  9.00000000E+01  0.00000000E+00
  2.00000000E+01  9.00000000E+01  0.00000000E+00
  3.00000000E+01  9.00000000E+01  0.00000000E+00
  4.00000000E+01  9.00000000E+01  0.00000000E+00
  5.00000000E+01  9.00000000E+01  0.00000000E+00
  6.00000000E+01  9.00000000E+01  0.00000000E+00
  7.00000000E+01  9.00000000E+01  0.00000000E+00
  8.00000000E+01  9.00000000E+01  0.00000000E+00
  9.00000000E+01  9.00000000E+01  0.00000000E+00
  1.00000000E+02  9.00000000E+01  0.00000000E+00
  1.10000000E+02  9.00000000E+01  0.00000000E+00
  1.20000000E+02  9.00000000E+01  0.00000000E+00
  1.30000000E+02  9.00000000E+01  0.00000000E+00
  1.40000000E+02  9.00000000E+01  0.00000000E+00
  1.50000000E+02  9.00000000E+01  0.00000000E+00
  1.60000000E+02  9.00000000E+01  0.00000000E+00
  1.70000000E+02  9.00000000E+01  0.00000000E+00
  1.80000000E+02  9.00000000E+01  0.00000000E+00
  1.90000000E+02  9.00000000E+01  0.00000000E+00
  2.00000000E+02  9.00000000E+01  0.00000000E+00
  2.10000000E+02  9.00000000E+01  0.00000000E+00
  2.20000000E+02  9.00000000E+01  0.00000000E+00
  2.30000000E+02  9.00000000E+01  0.00000000E+00
  2.40000000E+02  9.00000000E+01  0.00000000E+00
  2.50000000E+02  9.00000000E+01  0.00000000E+00
  2.60000000E+02  9.00000000E+01  0.00000000E+00
  2.70000000E+02  9.00000000E+01  0.00000000E+00
  2.80000000E+02  9.00000000E+01  0.00000000E+00
  2.90000000E+02  9.00000000E+01  0.00000000E+00
  3.00000000E+02  9.00000000E+01  0.00000000E+00
  3.10000000E+02  9.00000000E+01  0.00000000E+00
  3.20000000E+02  9.00000000E+01  0.00000000E+00
  3.30000000E+02  9.00000000E+01  0.00000000E+00
  3.40000000E+02  9.00000000E+01  0.00000000E+00
  3.50000000E+02  9.00000000E+01  0.00000000E+00
  3.60000000E+02  9.00000000E+01  0.00000000E+00
  3.70000000E+02  9.00000000E+01  0.00000000E+00
  3.80000000E+02  9.00000000E+01  0.00000000E+00
  3.90000000E+02  9.00000000E+01  0.00000000E+00
  4.00000000E+02  9.00000000E+01  0.00000000E+00
  4.10000000E+02  9.00000000E+01  0.00000000E+00
  4.20000000E+02  9.00000000E+01  0.00000000E+00
  4.30000000E+02  9.00000000E+01  0.00000000E+00
  4.40000000E+02  9.00000000E+01  0.00000000E+00
  4.50000000E+02  9.00000000E+01  0.00000000E+00
  4.60000000E+02  9.00000000E+01  0.00000000E+00
  4.70000000E+02  9.00000000E+01  0.00000000E+00
  4.80000000E+02  9.00000000E+01  0.00000000E+00
  4.90000000E+02  9.00000000E+01  0.00000000E+00
  5.00000000E+02  9.00000000E+01  0.00000000E+00
  5.10000000E+02  9.00000000E+01  0.00000000E+00
  5.20000000E+02  9.00000000E+01  0.00000000E+00
  5.30000000E+02  9.00000000E+01  0.00000000E+00
  5.40000000E+02  9.00000000E+01  0.00000000E+00
  5.50000000E+02  9.00000000E+01  0.00000000E+00
  5.60000000E+02  9.00000000E+01  0.00000000E+00
  5.70000000E+02  9.00000000E+01  0.00000000E+00
  5.80000000E+02  9.00000000E+01  0.00000000E+00
  5.90000000E+02  9.00000000E+01  0.00000000E+00
  6.00000000E+02  9.00000000E+01  0.00000000E+00
  6.10000000E+02  9.00000000E+01  0.00000000E+00
  6.20000000E+02  9.00000000E+01  0.00000000E+00
  6.30000000E+02  9.00000000E+01  0.00000000E+00
  6.40000000E+02  9.00000000E+01  0.00000000E+00
  6.50000000E+02  9.00000000E+01  0.00000000E+00
  6.60000000E+02  9.00000000E+01  0.00000000E+00
  6.70000000E+02  9.00000000E+01  0.00000000E+00
  6.80000000E+02  9.00000000E+01  0.00000000E+00
  6.90000000E+02  9.00000000E+01  0.00000000E+00
  7.00000000E+02  9.00000000E+01  0.00000000E+00
  7.10000000E+02  9.00000000E+01  0.00000000E+00
  7.20000000E+02  9.00000000E+01  0.00000000E+00
  7.30000000E+02  9.00000000E+01  0.00000000E+00
  7.40000000E+02  9.00000000E+01  0.00000000E+00
  7.50000000E+02  9.00000000E+01  0.00000000E+00
  7.60000000E+02  9.00000000E+01  0.00000000E+00
  7.70000000E+02  9.00000000E+01  0.00000000E+00
  7.80000000E+02  9.00000000E+01  0.00000000E+00
  7.90000000E+02  9.00000000E+01  0.00000000E+00
  8.00000000E+02  9.00000000E+01  0.00000000E+00
  8.10000000E+02  9.00000000E+01  0.00000000E+00
  8.20000000E+02  9.00000000E+01  0.00000000E+00
  8.30000000E+02  9.00000000E+01  0.00000000E+00
  8.40000000E+02  9.00000000E+01  0.00000000E+00
  8.50000000E+02  9.00000000E+01  0.00000000E+00
  8.60000000E+02  9.00000000E+01  0.00000000E+00
  8.70000000E+02  9.00000000E+01  0.00000000E+00
  8.80000000E+02  9.00000000E+01  0.00000000E+00
  8.90000000E+02  9.00000000E+01  0.00000000E+00
  9.00000000E+02  9.00000000E+01  0.00000000E+00
  9.10000000E+02  9.00000000E+01  0.00000000E+00
  9.20000000E+02  9.00000000E+01  0.00000000E+00
  9.30000000E+02  9.00000000E+01  0.00000000E+00
  9.40000000E+02  9.00000000E+01  0.00000000E+00
  9.50000000E+02  9.00000000E+01  0.00000000E+00
  9.60000000E+02  9.00000000E+01  0.00000000E+00
  9.70000000E+02  9.00000000E+01  0.00000000E+00
  9.80000000E+02  9.00000000E+01  0.00000000E+00
  9.90000000E+02  9.00000000E+01  0.00000000E+00
  1.00000000E+03  9.00000000E+01  0.00000000E+00
  0.00000000E+00  9.20000000E+01  0.00000000E+00
  1.00000000E+01  9.20000000E+01  0.00000000E+00
  2.00000000E+01  9.20000000E+01  0.00000000E+00
  3.00000000E+01  9.20000000E+01  0.00000000E+00
  4.00000000E+01  9.20000000E+01  0.00000000E+00
  5.00000000E+01  9.20000000E+01  0.00000000E+00
  6.00000000E+01  9.20000000E+01  0.00000000E+00
  7.00000000E+01  9.20000000E+01  0.00000000E+00
  8.00000000E+01  9.20000000E+01  0.00000000E+00
  9.00000000E+01  9.20000000E+01  0.00000000E+00
  1.00000000E+02  9.20000000E+01  0.00000000E+00
  1.10000000E+02  9.20000000E+01  0.00000000E+00
  1.20000000E+02  9.20000000E+01  0.00000000E+00
  1.30000000E+02  9.20000000E+01  0.00000000E+00
  1.40000000E+02  9.20000000E+01  0.00000000E+00
  1.50000000E+02  9.20000000E+01  0.00000000E+00
  1.60000000E+02  9.20000000E+01  0.00000000E+00
  1.70000000E+02  9.20000000E+01  0.00000000E+00
  1.80000000E+02  9.20000000E+01  0.00000000E+00
  1.90000000E+02  9.20000000E+01  0.00000000E+00
  2.00000000E+02  9.20000000E+01  0.00000000E+00
  2.10000000E+02  9.20000000E+01  0.00000000E+00
  2.20000000E+02  9.20000000E+01  0.00000000E+00
  2.30000000E+02  9.20000000E+01  0.00000000E+00
  2.40000000E+02  9.20000000E+01  0.00000000E+00
  2.50000000E+02  9.20000000E+01  0.00000000E+00
  2.60000000E+02  9.20000000E+01  0.00000000E+00
  2.70000000E+02  9.20000000E+01  0.00000000E+00
  2.80000000E+02  9.20000000E+01  0.00000000E+00
  2.90000000E+02  9.20000000E+01  0.00000000E+00
  3.00000000E+02  9.20000000E+01  0.00000000E+00
  3.10000000E+02  9.20000000E+01  0.00000000E+00
  3.20000000E+02  9.20000000E+01  0.00000000E+00
  3.30000000E+02  9.20000000E+01  0.00000000E+00
  3.40000000E+02  9.20000000E+01  0.00000000E+00
  3.50000000E+02  9.20000000E+01  0.00000000E+00
  3.60000000E+02  9.20000000E+01  0.00000000E+00
  3.70000000E+02  9.20000000E+01  0.00000000E+00
  3.80000000E+02  9.20000000E+01  0.00000000E+00
  3.90000000E+02  9.20000000E+01  0.00000000E+00
  4.00000000E+02  9.20000000E+01  0.00000000E+00
  4.10000000E+02  9.20000000E+01  0.00000000E+00
  4.20000000E+02  9.20000000E+01  0.00000000E+00
  4.30000000E+02  9.20000000E+01  0.00000000E+00
  4.40000000E+02  9.20000000E+01  0.00000000E+00
  4.50000000E+02  9.20000000E+01  0.00000000E+00
  4.60000000E+02  9.20000000E+01  0.00000000E+00
  4.70000000E+02  9.20000000E+01  0.00000000E+00
  4.80000000E+02  9.20000000E+01  0.00000000E+00
  4.90000000E+02  9.20000000E+01  0.00000000E+00
  5.00000000E+02  9.20000000E+01  0.00000000E+00
  5.10000000E+02  9.20000000E+01  0.00000000E+00
  5.20000000E+02  9.20000000E+01  0.00000000E+00
  5.30000000E+02  9.20000000E+01  0.00000000E+00
  5.40000000E+02  9.20000000E+01  0.00000000E+00
  5.50000000E+02  9.20000000E+01  0.00000000E+00
  5.60000000E+02  9.20000000E+01  0.00000000E+00
  5.70000000E+02  9.20000000E+01  0.00000000E+00
  5.80000000E+02  9.20000000E+01  0.00000000E+00
  5.90000000E+02  9.20000000E+01  0.00000000E+00
  6.00000000E+02  9.20000000E+01  0.00000000E+00
  6.10000000E+02  9.20000000E+01  0.00000000E+00
  6.20000000E+02  9.20000000E+01  0.00000000E+00
  6.30000000E+02  9.20000000E+01  0.00000000E+00
  6.40000000E+02  9.20000000E+01  0.00000000E+00
  6.50000000E+02  9.20000000E+01  0.00000000E+00
  6.60000000E+02  9.20000000E+01  0.00000000E+00
  6.70000000E+02  9.20000000E+01  0.00000000E+00
  6.80000000E+02  9.20000000E+01  0.00000000E+00
  6.90000000E+02  9.20000000E+01  0.00000000E+00
  7.00000000E+02  9.20000000E+01  0.00000000E+00
  7.10000000E+02  9.20000000E+01  0.00000000E+00
  7.20000000E+02  9.20000000E+01  0.00000000E+00
  7.30000000E+02  9.20000000E+01  0.00000000E+00
  7.40000000E+02  9.20000000E+01  0.00000000E+00
  7.50000000E+02  9.20000000E+01  0.00000000E+00
  7.60000000E+02  9.20000000E+01  0.00000000E+00
  7.70000000E+02  9.20000000E+01  0.00000000E+00
  7.80000000E+02  9.20000000E+01  0.00000000E+00
  7.90000000E+02  9.20000000E+01  0.00000000E+00
  8.00000000E+02  9.20000000E+01  0.00000000E+00
  8.10000000E+02  9.20000000E+01  0.00000000E+00
  8.20000000E+02  9.20000000E+01  0.00000000E+00
  8.30000000E+02  9.20000000E+01  0.00000000E+00
  8.40000000E+02  9.20000000E+01  0.00000000E+00
  8.50000000E+02  9.20000000E+01  0.00000000E+00
  8.60000000E+02  9.20000000E+01  0.00000000E+00
  8.70000000E+02  9.20000000E+01  0.00000000E+00
  8.80000000E+02  9.20000000E+01  0.00000000E+00
  8.90000000E+02  9.20000000E+01  0.00000000E+00
  9.00000000E+02  9.20000000E+01  0.00000000E+00
  9.10000000E+02  9.20000000E+01  0.00000000E+00
  9.20000000E+02  9.20000000E+01  0.00000000E+00
  9.30000000E+02  9.20000000E+01  0.00000000E+00
  9.40000000E+02  9.20000000E+01  0.00000000E+00
  9.50000000E+02  9.20000000E+01  0.00000000E+00
  9.60000000E+02  9.20000000E+01  0.00000000E+00
  9.70000000E+02  9.20000000E+01  0.00000000E+00
  9.80000000E+02  9.20000000E+01  0.00000000E+00
  9.90000000E+02  9.20000000E+01  0.00000000E+00
  1.00000000E+03  9.20000000E+01  0.00000000E+00
  0.00000000E+00  9.40000000E+01  0.00000000E+00
  1.00000000E+01  9.40000000E+01  0.00000000E+00
  2.00000000E+01  9.40000000E+01  0.00000000E+00
  3.00000000E+01  9.40000000E+01  0.00000000E+00
  4.00000000E+01  9.40000000E+01  0.00000000E+00
  5.00000000E+01  9.40000000E+01  0.00000000E+00
  6.00000000E+01  9.40000000E+01  0.00000000E+00
  7.00000000E+01  9.40000000E+01  0.00000000E+00
  8.00000000E+01  9.40000000E+01  0.00000000E+00
  9.00000000E+01  9.40000000E+01  0.00000000E+00
  1.00000000E+02  9.40000000E+01  0.00000000E+00
  1.10000000E+02  9.40000000E+01  0.00000000E+00
  1.20000000E+02  9.40000000E+01  0.00000000E+00
  1.30000000E+02  9.40000000E+01  0.00000000E+00
  1.40000000E+02  9.40000000E+01  0.00000000E+00
  1.50000000E+02  9.40000000E+01  0.00000000E+00
  1.60000000E+02  9.40000000E+01  0.00000000E+00
  1.70000000E+02  9.40000000E+01  0.00000000E+00
  1.80000000E+02  9.40000000E+01  0.00000000E+00
  1.90000000E+02  9.40000000E+01  0.00000000E+00
  2.00000000E+02  9.40000000E+01  0.00000000E+00
  2.10000000E+02  9.40000000E+01  0.00000000E+00
  2.20000000E+02  9.40000000E+01  0.00000000E+00
  2.30000000E+02  9.40000000E+01  0.00000000E+00
  2.40000000E+02  9.40000000E+01  0.00000000E+00
  2.50000000E+02  9.40000000E+01  0.00000000E+00
  2.60000000E+02  9.40000000E+01  0.00000000E+00
  2.70000000E+02  9.40000000E+01  0.00000000E+00
  2.80000000E+02  9.40000000E+01  0.00000000E+00
  2.90000000E+02  9.40000000E+01  0.00000000E+00
  3.00000000E+02  9.40000000E+01  0.00000000E+00
  3.10000000E+02  9.40000000E+01  0.00000000E+00
  3.20000000E+02  9.40000000E+01  0.00000000E+00
  3.30000000E+02  9.40000000E+01  0.00000000E+00
  3.40000000E+02  9.40000000E+01  0.00000000E+00
  3.50000000E+02  9.40000000E+01  0.00000000E+00
  3.60000000E+02  9.40000000E+01  0.00000000E+00
  3.70000000E+02  9.40000000E+01  0.00000000E+00
  3.80000000E+02  9.40000000E+01  0.00000000E+00
  3.90000000E+02  9.40000000E+01  0.00000000E+00
  4.00000000E+02  9.40000000E+01  0.00000000E+00
  4.10000000E+02  9.40000000E+01  0.00000000E+00
  4.20000000E+02  9.40000000E+01  0.00000000E+00
  4.30000000E+02  9.40000000E+01  0.00000000E+00
  4.40000000E+02  9.40000000E+01  0.00000000E+00
  4.50000000E+02  9.40000000E+01  0.00000000E+00
  4.60000000E+02  9.40000000E+01  0.00000000E+00
  4.70000000E+02  9.40000000E+01  0.00000000E+00
  4.80000000E+02  9.40000000E+01  0.00000000E+00
  4.90000000E+02  9.40000000E+01  0.00000000E+00
  5.00000000E+02  9.40000000E+01  0.00000000E+00
  5.10000000E+02  9.40000000E+01  0.00000000E+00
  5.20000000E+02  9.40000000E+01  0.00000000E+00
  5.30000000E+02  9.40000000E+01  0.00000000E+00
  5.40000000E+02  9.40000000E+01  0.00000000E+00
  5.50000000E+02  9.40000000E+01  0.00000000E+00
  5.60000000E+02  9.40000000E+01  0.00000000E+00
  5.70000000E+02  9.40000000E+01  0.00000000E+00
  5.80000000E+02  9.40000000E+01  0.00000000E+00
  5.90000000E+02  9.40000000E+01  0.00000000E+00
  6.00000000E+02  9.40000000E+01  0.00000000E+00
  6.10000000E+02  9.40000000E+01  0.00000000E+00
  6.20000000E+02  9.40000000E+01  0.00000000E+00
  6.30000000E+02  9.40000000E+01  0.00000000E+00
  6.40000000E+02  9.40000000E+01  0.00000000E+00
  6.50000000E+02  9.40000000E+01  0.00000000E+00
  6.60000000E+02  9.40000000E+01  0.00000000E+00
  6.70000000E+02  9.40000000E+01  0.00000000E+00
  6.80000000E+02  9.40000000E+01  0.00000000E+00
  6.90000000E+02  9.40000000E+01  0.00000000E+00
  7.00000000E+02  9.40000000E+01  0.00000000E+00
  7.10000000E+02  9.40000000E+01  0.00000000E+00
  7.20000000E+02  9.40000000E+01  0.00000000E+00
  7.30000000E+02  9.40000000E+01  0.00000000E+00
  7.40000000E+02  9.40000000E+01  0.00000000E+00
  7.50000000E+02  9.40000000E+01  0.00000000E+00
  7.60000000E+02  9.40000000E+01  0.00000000E+00
  7.70000000E+02  9.40000000E+01  0.00000000E+00
  7.80000000E+02  9.40000000E+01  0.00000000E+00
  7.90000000E+02  9.40000000E+01  0.00000000E+00
  8.00000000E+02  9.40000000E+01  0.00000000E+00
  8.10000000E+02  9.40000000E+01  0.00000000E+00
  8.20000000E+02  9.40000000E+01  0.00000000E+00
  8.30000000E+02  9.40000000E+01  0.00000000E+00
  8.40000000E+02  9.40000000E+01  0.00000000E+00
  8.50000000E+02  9.40000000E+01  0.00000000E+00
  8.60000000E+02  9.40000000E+01  0.00000000E+00
  8.70000000E+02  9.40000000E+01  0.00000000E+00
  8.80000000E+02  9.40000000E+01  0.00000000E+00
  8.90000000E+02  9.40000000E+01  0.00000000E+00
  9.00000000E+02  9.40000000E+01  0.00000000E+00
  9.10000000E+02  9.40000000E+01  0.00000000E+00
  9.20000000E+02  9.40000000E+01  0.00000000E+00
  9.30000000E+02  9.40000000E+01  0.00000000E+00
  9.40000000E+02  9.40000000E+01  0.00000000E+00
  9.50000000E+02  9.40000000E+01  0.00000000E+00
  9.60000000E+02  9.40000000E+01  0.00000000E+00
  9.70000000E+02  9.40000000E+01  0.00000000E+00
  9.80000000E+02  9.40000000E+01  0.00000000E+00
  9.90000000E+02  9.40000000E+01  0.00000000E+00
  1.00000000E+03  9.40000000E+01  0.00000000E+00
  0.00000000E+00  9.60000000E+01  0.00000000E+00
  1.00000000E+01  9.60000000E+01  0.00000000E+00
  2.00000000E+01  9.60000000E+01  0.00000000E+00
  3.00000000E+01  9.60000000E+01  0.00000000E+00
  4.00000000E+01  9.60000000E+01  0.00000000E+00
  5.00000000E+01  9.60000000E+01  0.00000000E+00
  6.00000000E+01  9.60000000E+01  0.00000000E+00
  7.00000000E+01  9.60000000E+01  0.00000000E+00
  8.00000000E+01  9.60000000E+01  0.00000000E+00
  9.00000000E+01  9.60000000E+01  0.00000000E+00
  1.00000000E+02  9.60000000E+01  0.00000000E+00
  1.10000000E+02  9.60000000E+01  0.00000000E+00
  1.20000000E+02  9.60000000E+01  0.00000000E+00
  1.30000000E+02  9.60000000E+01  0.00000000E+00
  1.40000000E+02  9.60000000E+01  0.00000000E+00
  1.50000000E+02  9.60000000E+01  0.00000000E+00
  1.60000000E+02  9.60000000E+01  0.00000000E+00
  1.70000000E+02  9.60000000E+01  0.00000000E+00
  1.80000000E+02  9.60000000E+01  0.00000000E+00
  1.90000000E+02  9.60000000E+01  0.00000000E+00
  2.00000000E+02  9.60000000E+01  0.00000000E+00
  2.10000000E+02  9.60000000E+01  0.00000000E+00
  2.20000000E+02  9.60000000E+01  0.00000000E+00
  2.30000000E+02  9.60000000E+01  0.00000000E+00
  2.40000000E+02  9.60000000E+01  0.00000000E+00
  2.50000000E+02  9.60000000E+01  0.00000000E+00
  2.60000000E+02  9.60000000E+01  0.00000000E+00
  2.70000000E+02  9.60000000E+01  0.00000000E+00
  2.80000000E+02  9.60000000E+01  0.00000000E+00
  2.90000000E+02  9.60000000E+01  0.00000000E+00
  3.00000000E+02  9.60000000E+01  0.00000000E+00
  3.10000000E+02  9.60000000E+01  0.00000000E+00
  3.20000000E+02  9.60000000E+01  0.00000000E+00
  3.30000000E+02  9.60000000E+01  0.00000000E+00
  3.40000000E+02  9.60000000E+01  0.00000000E+00
  3.50000000E+02  9.60000000E+01  0.00000000E+00
  3.60000000E+02  9.60000000E+01  0.00000000E+00
  3.70000000E+02  9.60000000E+01  0.00000000E+00
  3.80000000E+02  9.60000000E+01  0.00000000E+00
  3.90000000E+02  9.60000000E+01  0.00000000E+00
  4.00000000E+02  9.60000000E+01  0.00000000E+00
  4.10000000E+02  9.60000000E+01  0.00000000E+00
  4.20000000E+02  9.60000000E+01  0.00000000E+00
  4.30000000E+02  9.60000000E+01  0.00000000E+00
  4.40000000E+02  9.60000000E+01  0.00000000E+00
  4.50000000E+02  9.60000000E+01  0.00000000E+00
  4.60000000E+02  9.60000000E+01  0.00000000E+00
  4.70000000E+02  9.60000000E+01  0.00000000E+00
  4.80000000E+02  9.60000000E+01  0.00000000E+00
  4.90000000E+02  9.60000000E+01  0.00000000E+00
  5.00000000E+02  9.60000000E+01  0.00000000E+00
  5.10000000E+02  9.60000000E+01  0.00000000E+00
  5.20000000E+02  9.60000000E+01  0.00000000E+00
  5.30000000E+02  9.60000000E+01  0.00000000E+00
  5.40000000E+02  9.60000000E+01  0.00000000E+00
  5.50000000E+02  9.60000000E+01  0.00000000E+00
  5.60000000E+02  9.60000000E+01  0.00000000E+00
  5.70000000E+02  9.60000000E+01  0.00000000E+00
  5.80000000E+02  9.60000000E+01  0.00000000E+00
  5.90000000E+02  9.60000000E+01  0.00000000E+00
  6.00000000E+02  9.60000000E+01  0.00000000E+00
  6.10000000E+02  9.60000000E+01  0.00000000E+00
  6.20000000E+02  9.60000000E+01  0.00000000E+00
  6.30000000E+02  9.60000000E+01  0.00000000E+00
  6.40000000E+02  9.60000000E+01  0.00000000E+00
  6.50000000E+02  9.60000000E+01  0.00000000E+00
  6.60000000E+02  9.60000000E+01  0.00000000E+00
  6.70000000E+02  9.60000000E+01  0.00000000E+00
  6.80000000E+02  9.60000000E+01  0.00000000E+00
  6.90000000E+02  9.60000000E+01  0.00000000E+00
  7.00000000E+02  9.60000000E+01  0.00000000E+00
  7.10000000E+02  9.60000000E+01  0.00000000E+00
  7.20000000E+02  9.60000000E+01  0.00000000E+00
  7.30000000E+02  9.60000000E+01  0.00000000E+00
  7.40000000E+02  9.60000000E+01  0.00000000E+00
  7.50000000E+02  9.60000000E+01  0.00000000E+00
  7.60000000E+02  9.60000000E+01  0.00000000E+00
  7.70000000E+02  9.60000000E+01  0.00000000E+00
  7.80000000E+02  9.60000000E+01  0.00000000E+00
  7.90000000E+02  9.60000000E+01  0.00000000E+00
  8.00000000E+02  9.60000000E+01  0.00000000E+00
  8.10000000E+02  9.60000000E+01  0.00000000E+00
  8.20000000E+02  9.60000000E+01  0.00000000E+00
  8.30000000E+02  9.60000000E+01  0.00000000E+00
  8.40000000E+02  9.60000000E+01  0.00000000E+00
  8.50000000E+02  9.60000000E+01  0.00000000E+00
  8.60000000E+02  9.60000000E+01  0.00000000E+00
  8.70000000E+02  9.60000000E+01  0.00000000E+00
  8.80000000E+02  9.60000000E+01  0.00000000E+00
  8.90000000E+02  9.60000000E+01  0.00000000E+00
  9.00000000E+02  9.60000000E+01  0.00000000E+00
  9.10000000E+02  9.60000000E+01  0.00000000E+00
  9.20000000E+02  9.60000000E+01  0.00000000E+00
  9.30000000E+02  9.60000000E+01  0.00000000E+00
  9.40000000E+02  9.60000000E+01  0.00000000E+00
  9.50000000E+02  9.60000000E+01  0.00000000E+00
  9.60000000E+02  9.60000000E+01  0.00000000E+00
  9.70000000E+02  9.60000000E+01  0.00000000E+00
  9.80000000E+02  9.60000000E+01  0.00000000E+00
  9.90000000E+02  9.60000000E+01  0.00000000E+00
  1.00000000E+03  9.60000000E+01  0.00000000E+00
  0.00000000E+00  9.80000000E+01  0.00000000E+00
  1.00000000E+01  9.80000000E+01  0.00000000E+00
  2.00000000E+01  9.80000000E+01  0.00000000E+00
  3.00000000E+01  9.80000000E+01  0.00000000E+00
  4.00000000E+01  9.80000000E+01  0.00000000E+00
  5.00000000E+01  9.80000000E+01  0.00000000E+00
  6.00000000E+01  9.80000000E+01  0.00000000E+00
  7.00000000E+01  9.80000000E+01  0.00000000E+00
  8.00000000E+01  9.80000000E+01  0.00000000E+00
  9.00000000E+01  9.80000000E+01  0.00000000E+00
  1.00000000E+02  9.80000000E+01  0.00000000E+00
  1.10000000E+02  9.80000000E+01  0.00000000E+00
  1.20000000E+02  9.80000000E+01  0.00000000E+00
  1.30000000E+02  9.80000000E+01  0.00000000E+00
  1.40000000E+02  9.80000000E+01  0.00000000E+00
  1.50000000E+02  9.80000000E+01  0.00000000E+00
  1.60000000E+02  9.80000000E+01  0.00000000E+00
  1.70000000E+02  9.80000000E+01  0.00000000E+00
  1.80000000E+02  9.80000000E+01  0.00000000E+00
  1.90000000E+02  9.80000000E+01  0.00000000E+00
  2.00000000E+02  9.80000000E+01  0.00000000E+00
  2.10000000E+02  9.80000000E+01  0.00000000E+00
  2.20000000E+02  9.80000000E+01  0.00000000E+00
  2.30000000E+02  9.80000000E+01  0.00000000E+00
  2.40000000E+02  9.80000000E+01  0.00000000E+00
  2.50000000E+02  9.80000000E+01  0.00000000E+00
  2.60000000E+02  9.80000000E+01  0.00000000E+00
  2.70000000E+02  9.80000000E+01  0.00000000E+00
  2.80000000E+02  9.80000000E+01  0.00000000E+00
  2.90000000E+02  9.80000000E+01  0.00000000E+00
  3.00000000E+02  9.80000000E+01  0.00000000E+00
  3.10000000E+02  9.80000000E+01  0.00000000E+00
  3.20000000E+02  9.80000000E+01  0.00000000E+00
  3.30000000E+02  9.80000000E+01  0.00000000E+00
  3.40000000E+02  9.80000000E+01  0.00000000E+00
  3.50000000E+02  9.80000000E+01  0.00000000E+00
  3.60000000E+02  9.80000000E+01  0.00000000E+00
  3.70000000E+02  9.80000000E+01  0.00000000E+00
  3.80000000E+02  9.80000000E+01  0.00000000E+00
  3.90000000E+02  9.80000000E+01  0.00000000E+00
  4.00000000E+02  9.80000000E+01  0.00000000E+00
  4.10000000E+02  9.80000000E+01  0.00000000E+00
  4.20000000E+02  9.80000000E+01  0.00000000E+00
  4.30000000E+02  9.80000000E+01  0.00000000E+00
  4.40000000E+02  9.80000000E+01  0.00000000E+00
  4.50000000E+02  9.80000000E+01  0.00000000E+00
  4.60000000E+02  9.80000000E+01  0.00000000E+00
  4.70000000E+02  9.80000000E+01  0.00000000E+00
  4.80000000E+02  9.80000000E+01  0.00000000E+00
  4.90000000E+02  9.80000000E+01  0.00000000E+00
  5.00000000E+02  9.80000000E+01  0.00000000E+00
  5.10000000E+02  9.80000000E+01  0.00000000E+00
  5.20000000E+02  9.80000000E+01  0.00000000E+00
  5.30000000E+02  9.80000000E+01  0.00000000E+00
  5.40000000E+02  9.80000000E+01  0.00000000E+00
  5.50000000E+02  9.80000000E+01  0.00000000E+00
  5.60000000E+02  9.80000000E+01  0.00000000E+00
  5.70000000E+02  9.80000000E+01  0.00000000E+00
  5.80000000E+02  9.80000000E+01  0.00000000E+00
  5.90000000E+02  9.80000000E+01  0.00000000E+00
  6.00000000E+02  9.80000000E+01  0.00000000E+00
  6.10000000E+02  9.80000000E+01  0.00000000E+00
  6.20000000E+02  9.80000000E+01  0.00000000E+00
  6.30000000E+02  9.80000000E+01  0.00000000E+00
  6.40000000E+02  9.80000000E+01  0.00000000E+00
  6.50000000E+02  9.80000000E+01  0.00000000E+00
  6.60000000E+02  9.80000000E+01  0.00000000E+00
  6.70000000E+02  9.80000000E+01  0.00000000E+00
  6.80000000E+02  9.80000000E+01  0.00000000E+00
  6.90000000E+02  9.80000000E+01  0.00000000E+00
  7.00000000E+02  9.80000000E+01  0.00000000E+00
  7.10000000E+02  9.80000000E+01  0.00000000E+00
  7.20000000E+02  9.80000000E+01  0.00000000E+00
  7.30000000E+02  9.80000000E+01  0.00000000E+00
  7.40000000E+02  9.80000000E+01  0.00000000E+00
  7.50000000E+02  9.80000000E+01  0.00000000E+00
  7.60000000E+02  9.80000000E+01  0.00000000E+00
  7.70000000E+02  9.80000000E+01  0.00000000E+00
  7.80000000E+02  9.80000000E+01  0.00000000E+00
  7.90000000E+02  9.80000000E+01  0.00000000E+00
  8.00000000E+02  9.80000000E+01  0.00000000E+00
  8.10000000E+02  9.80000000E+01  0.00000000E+00
  8.20000000E+02  9.80000000E+01  0.00000000E+00
  8.30000000E+02  9.80000000E+01  0.00000000E+00
  8.40000000E+02  9.80000000E+01  0.00000000E+00
  8.50000000E+02  9.80000000E+01  0.00000000E+00
  8.60000000E+02  9.80000000E+01  0.00000000E+00
  8.70000000E+02  9.80000000E+01  0.00000000E+00
  8.80000000E+02  9.80000000E+01  0.00000000E+00
  8.90000000E+02  9.80000000E+01  0.00000000E+00
  9.00000000E+02  9.80000000E+01  0.00000000E+00
  9.10000000E+02  9.80000000E+01  0.00000000E+00
  9.20000000E+02  9.80000000E+01  0.00000000E+00
  9.30000000E+02  9.80000000E+01  0.00000000E+00
  9.40000000E+02  9.80000000E+01  0.00000000E+00
  9.50000000E+02  9.80000000E+01  0.00000000E+00
  9.60000000E+02  9.80000000E+01  0.00000000E+00
  9.70000000E+02  9.80000000E+01  0.00000000E+00
  9.80000000E+02  9.80000000E+01  0.00000000E+00
  9.90000000E+02  9.80000000E+01  0.00000000E+00
  1.00000000E+03  9.80000000E+01  0.00000000E+00
  0.00000000E+00  1.00000000E+02  0.00000000E+00
  1.00000000E+01  1.00000000E+02  0.00000000E+00
  2.00000000E+01  1.00000000E+02  0.00000000E+00
  3.00000000E+01  1.00000000E+02  0.00000000E+00
  4.00000000E+01  1.00000000E+02  0.00000000E+00
  5.00000000E+01  1.00000000E+02  0.00000000E+00
  6.00000000E+01  1.00000000E+02  0.00000000E+00
  7.00000000E+01  1.00000000E+02  0.00000000E+00
  8.00000000E+01  1.00000000E+02  0.00000000E+00
  9.00000000E+01  1.00000000E+02  0.00000000E+00
  1.00000000E+02  1.00000000E+02  0.00000000E+00
  1.10000000E+02  1.00000000E+02  0.00000000E+00
  1.20000000E+02  1.00000000E+02  0.00000000E+00
  1.30000000E+02  1.00000000E+02  0.00000000E+00
  1.40000000E+02  1.00000000E+02  0.00000000E+00
  1.50000000E+02  1.00000000E+02  0.00000000E+00
  1.60000000E+02  1.00000000E+02  0.00000000E+00
  1.70000000E+02  1.00000000E+02  0.00000000E+00
  1.80000000E+02  1.00000000E+02  0.00000000E+00
  1.90000000E+02  1.00000000E+02  0.00000000E+00
  2.00000000E+02  1.00000000E+02  0.00000000E+00
  2.10000000E+02  1.00000000E+02  0.00000000E+00
  2.20000000E+02  1.00000000E+02  0.00000000E+00
  2.30000000E+02  1.00000000E+02  0.00000000E+00
  2.40000000E+02  1.00000000E+02  0.00000000E+00
  2.50000000E+02  1.00000000E+02  0.00000000E+00
  2.60000000E+02  1.00000000E+02  0.00000000E+00
  2.70000000E+02  1.00000000E+02  0.00000000E+00
  2.80000000E+02  1.00000000E+02  0.00000000E+00
  2.90000000E+02  1.00000000E+02  0.00000000E+00
  3.00000000E+02  1.00000000E+02  0.00000000E+00
  3.10000000E+02  1.00000000E+02  0.00000000E+00
  3.20000000E+02  1.00000000E+02  0.00000000E+00
  3.30000000E+02  1.00000000E+02  0.00000000E+00
  3.40000000E+02  1.00000000E+02  0.00000000E+00
  3.50000000E+02  1.00000000E+02  0.00000000E+00
  3.60000000E+02  1.00000000E+02  0.00000000E+00
  3.70000000E+02  1.00000000E+02  0.00000000E+00
  3.80000000E+02  1.00000000E+02  0.00000000E+00
  3.90000000E+02  1.00000000E+02  0.00000000E+00
  4.00000000E+02  1.00000000E+02  0.00000000E+00
  4.10000000E+02  1.00000000E+02  0.00000000E+00
  4.20000000E+02  1.00000000E+02  0.00000000E+00
  4.30000000E+02  1.00000000E+02  0.00000000E+00
  4.40000000E+02  1.00000000E+02  0.00000000E+00
  4.50000000E+02  1.00000000E+02  0.00000000E+00
  4.60000000E+02  1.00000000E+02  0.00000000E+00
  4.70000000E+02  1.00000000E+02  0.00000000E+00
  4.80000000E+02  1.00000000E+02  0.00000000E+00
  4.90000000E+02  1.00000000E+02  0.00000000E+00
  5.00000000E+02  1.00000000E+02  0.00000000E+00
  5.10000000E+02  1.00000000E+02  0.00000000E+00
  5.20000000E+02  1.00000000E+02  0.00000000E+00
  5.30000000E+02  1.00000000E+02  0.00000000E+00
  5.40000000E+02  1.00000000E+02  0.00000000E+00
  5.50000000E+02  1.00000000E+02  0.00000000E+00
  5.60000000E+02  1.00000000E+02  0.00000000E+00
  5.70000000E+02  1.00000000E+02  0.00000000E+00
  5.80000000E+02  1.00000000E+02  0.00000000E+00
  5.90000000E+02  1.00000000E+02  0.00000000E+00
  6.00000000E+02  1.00000000E+02  0.00000000E+00
  6.10000000E+02  1.00000000E+02  0.00000000E+00
  6.20000000E+02  1.00000000E+02  0.00000000E+00
  6.30000000E+02  1.00000000E+02  0.00000000E+00
  6.40000000E+02  1.00000000E+02  0.00000000E+00
  6.50000000E+02  1.00000000E+02  0.00000000E+00
  6.60000000E+02  1.00000000E+02  0.00000000E+00
  6.70000000E+02  1.00000000E+02  0.00000000E+00
  6.80000000E+02  1.00000000E+02  0.00000000E+00
  6.90000000E+02  1.00000000E+02  0.00000000E+00
  7.00000000E+02  1.00000000E+02  0.00000000E+00
  7.10000000E+02  1.00000000E+02  0.00000000E+00
  7.20000000E+02  1.00000000E+02  0.00000000E+00
  7.30000000E+02  1.00000000E+02  0.00000000E+00
  7.40000000E+02  1.00000000E+02  0.00000000E+00
  7.50000000E+02  1.00000000E+02  0.00000000E+00
  7.60000000E+02  1.00000000E+02  0.00000000E+00
  7.70000000E+02  1.00000000E+02  0.00000000E+00
  7.80000000E+02  1.00000000E+02  0.00000000E+00
  7.90000000E+02  1.00000000E+02  0.00000000E+00
  8.00000000E+02  1.00000000E+02  0.00000000E+00
  8.10000000E+02  1.00000000E+02  0.00000000E+00
  8.20000000E+02  1.00000000E+02  0.00000000E+00
  8.30000000E+02  1.00000000E+02  0.00000000E+00
  8.40000000E+02  1.00000000E+02  0.00000000E+00
  8.50000000E+02  1.00000000E+02  0.00000000E+00
  8.60000000E+02  1.00000000E+02  0.00000000E+00
  8.70000000E+02  1.00000000E+02  0.00000000E+00
  8.80000000E+02  1.00000000E+02  0.00000000E+00
  8.90000000E+02  1.00000000E+02  0.00000000E+00
  9.00000000E+02  1.00000000E+02  0.00000000E+00
  9.10000000E+02  1.00000000E+02  0.00000000E+00
  9.20000000E+02  1.00000000E+02  0.00000000E+00
  9.30000000E+02  1.00000000E+02  0.00000000E+00
  9.40000000E+02  1.00000000E+02  0.00000000E+00
  9.50000000E+02  1.00000000E+02  0.00000000E+00
  9.60000000E+02  1.00000000E+02  0.00000000E+00
  9.70000000E+02  1.00000000E+02  0.00000000E+00
  9.80000000E+02  1.00000000E+02  0.00000000E+00
  9.90000000E+02  1.00000000E+02  0.00000000E+00
  1.00000000E+03  1.00000000E+02  0.00000000E+00
CELLS      5000     25000
         4           0           1         102         101
         4           1           2         103         102
         4           2           3         104         103
         4           3           4         105         104
         4           4           5         106         105
         4           5           6         107         106
         4           6           7         108         107
         4           7           8         109         108
         4           8           9         110         109
         4           9          10         111         110
         4          10          11         112         111
         4          11          12         113         112
         4          12          13         114         113
         4          13          14         115         114
         4          14          15         116         115
         4          15          16         117         116
         4          16          17         118         117
         4          17          18         119         118
         4          18          19         120         119
         4          19          20         121         120
         4          20          21         122         121
         4          21          22         123         122
         4          22          23         124         123
         4          23          24         125         124
         4          24          25         126         125
         4          25          26         127         126
         4          26          27         128         127
         4          27          28         129         128
         4          28          29         130         129
         4          29          30         131         130
         4          30          31         132         131
         4          31          32         133         132
         4          32          33         134         133
         4          33          34         135         134
         4          34          35         136         135
         4          35          36         137         136
         4          36          37         138         137
         4          37          38         139         138
         4          38          39         140         139
         4          39          40         141         140
         4          40          41         142         141
         4          41          42         143         142
         4          42          43         144         143
         4          43          44         145         144
         4          44          45         146         145
         4          45          46         147         146
         4          46          47         148         147
         4          47          48         149         148
         4          48          49         150         149
         4          49          50         151         150
         4          50          51         152         151
         4          51          52         153         152
         4          52          53         154         153
         4          53          54         155         154
         4          54          55         156         155
         4          55          56         157         156
         4          56          57         158         157
         4          57          58         159         158
         4          58          59         160         159
         4          59          60         161         160
         4          60          61         162         161
         4          61          62         163         162
         4          62          63         164         163
         4          63          64         165         164
         4          64          65         166         165
         4          65          66         167         166
         4          66          67         168         167
         4          67          68         169         168
         4          68          69         170         169
         4          69          70         171         170
         4          70          71         172         171
         4          71          72         173         172
         4          72          73         174         173
         4          73          74         175         174
         4          74          75         176         175
         4          75          76         177         176
         4          76          77         178         177
         4          77          78         179         178
         4          78          79         180         179
         4          79          80         181         180
         4          80          81         182         181
         4          81          82         183         182
         4          82          83         184         183
         4          83          84         185         184
         4          84          85         186         185
         4          85          86         187         186
         4          86          87         188         187
         4          87          88         189         188
         4          88          89         190         189
         4          89          90         191         190
         4          90          91         192         191
         4          91          92         193         192
         4          92          93         194         193
         4          93          94         195         194
         4          94          95         196         195
         4          95          96         197         196
         4          96          97         198         197
         4          97          98         199         198
         4          98          99         200         199
         4          99         100         201         200
         4         101         102         203         202
         4         102         103         204         203
         4         103         104         205         204
         4         104         105         206         205
         4         105         106         207         206
         4         106         107         208         207
         4         107         108         209         208
         4         108         109         210         209
         4         109         110         211         210
         4         110         111         212         211
         4         111         112         213         212
         4         112         113         214         213
         4         113         114         215         214
         4         114         115         216         215
         4         115         116         217         216
         4         116         117         218         217
         4         117         118         219         218
         4         118         119         220         219
         4         119         120         221         220
         4         120         121         222         221
         4         121         122         223         222
         4         122         123         224         223
         4         123         124         225         224
         4         124         125         226         225
         4         125         126         227         226
         4         126         127         228         227
         4         127         128         229         228
         4         128         129         230         229
         4         129         130         231         230
         4         130         131         232         231
         4         131         132         233         232
         4         132         133         234         233
         4         133         134         235         234
         4         134         135         236         235
         4         135         136         237         236
         4         136         137         238         237
         4         137         138         239         238
         4         138         139         240         239
         4         139         140         241         240
         4         140         141         242         241
         4         141         142         243         242
         4         142         143         244         243
         4         143         144         245         244
         4         144         145         246         245
         4         145         146         247         246
         4         146         147         248         247
         4         147         148         249         248
         4         148         149         250         249
         4         149         150         251         250
         4         150         151         252         251
         4         151         152         253         252
         4         152         153         254         253
         4         153         154         255         254
         4         154         155         256         255
         4         155         156         257         256
         4         156         157         258         257
         4         157         158         259         258
         4         158         159         260         259
         4         159         160         261         260
         4         160         161         262         261
         4         161         162         263         262
         4         162         163         264         263
         4         163         164         265         264
         4         164         165         266         265
         4         165         166         267         266
         4         166         167         268         267
         4         167         168         269         268
         4         168         169         270         269
         4         169         170         271         270
         4         170         171         272         271
         4         171         172         273         272
         4         172         173         274         273
         4         173         174         275         274
         4         174         175         276         275
         4         175         176         277         276
         4         176         177         278         277
         4         177         178         279         278
         4         178         179         280         279
         4         179         180         281         280
         4         180         181         282         281
         4         181         182         283         282
         4         182         183         284         283
         4         183         184         285         284
         4         184         185         286         285
         4         185         186         287         286
         4         186         187         288         287
         4         187         188         289         288
         4         188         189         290         289
         4         189         190         291         290
         4         190         191         292         291
         4         191         192         293         292
         4         192         193         294         293
         4         193         194         295         294
         4         194         195         296         295
         4         195         196         297         296
         4         196         197         298         297
         4         197         198         299         298
         4         198         199         300         299
         4         199         200         301         300
         4         200         201         302         301
         4         202         203         304         303
         4         203         204         305         304
         4         204         205         306         305
         4         205         206         307         306
         4         206         207         308         307
         4         207         208         309         308
         4         208         209         310         309
         4         209         210         311         310
         4         210         211         312         311
         4         211         212         313         312
         4         212         213         314         313
         4         213         214         315         314
         4         214         215         316         315
         4         215         216         317         316
         4         216         217         318         317
         4         217         218         319         318
         4         218         219         320         319
         4         219         220         321         320
         4         220         221         322         321
         4         221         222         323         322
         4         222         223         324         323
         4         223         224         325         324
         4         224         225         326         325
         4         225         226         327         326
         4         226         227         328         327
         4         227         228         329         328
         4         228         229         330         329
         4         229         230         331         330
         4         230         231         332         331
         4         231         232         333         332
         4         232         233         334         333
         4         233         234         335         334
         4         234         235         336         335
         4         235         236         337         336
         4         236         237         338         337
         4         237         238         339         338
         4         238         239         340         339
         4         239         240         341         340
         4         240         241         342         341
         4         241         242         343         342
         4         242         243         344         343
         4         243         244         345         344
         4         244         245         346         345
         4         245         246         347         346
         4         246         247         348         347
         4         247         248         349         348
         4         248         249         350         349
         4         249         250         351         350
         4         250         251         352         351
         4         251         252         353         352
         4         252         253         354         353
         4         253         254         355         354
         4         254         255         356         355
         4         255         256         357         356
         4         256         257         358         357
         4         257         258         359         358
         4         258         259         360         359
         4         259         260         361         360
         4         260         261         362         361
         4         261         262         363         362
         4         262         263         364         363
         4         263         264         365         364
         4         264         265         366         365
         4         265         266         367         366
         4         266         267         368         367
         4         267         268         369         368
         4         268         269         370         369
         4         269         270         371         370
         4         270         271         372         371
         4         271         272         373         372
         4         272         273         374         373
         4         273         274         375         374
         4         274         275         376         375
         4         275         276         377         376
         4         276         277         378         377
         4         277         278         379         378
         4         278         279         380         379
         4         279         280         381         380
         4         280         281         382         381
         4         281         282         383         382
         4         282         283         384         383
         4         283         284         385         384
         4         284         285         386         385
         4         285         286         387         386
         4         286         287         388         387
         4         287         288         389         388
         4         288         289         390         389
         4         289         290         391         390
         4         290         291         392         391
         4         291         292         393         392
         4         292         293         394         393
         4         293         294         395         394
         4         294         295         396         395
         4         295         296         397         396
         4         296         297         398         397
         4         297         298         399         398
         4         298         299         400         399
         4         299         300         401         400
         4         300         301         402         401
         4         301         302         403         402
         4         303         304         405         404
         4         304         305         406         405
         4         305         306         407         406
         4         306         307         408         407
         4         307         308         409         408
         4         308         309         410         409
         4         309         310         411         410
         4         310         311         412         411
         4         311         312         413         412
         4         312         313         414         413
         4         313         314         415         414
         4         314         315         416         415
         4         315         316         417         416
         4         316         317         418         417
         4         317         318         419         418
         4         318         319         420         419
         4         319         320         421         420
         4         320         321         422         421
         4         321         322         423         422
         4         322         323         424         423
         4         323         324         425         424
         4         324         325         426         425
         4         325         326         427         426
         4         326         327         428         427
         4         327         328         429         428
         4         328         329         430         429
         4         329         330         431         430
         4         330         331         432         431
         4         331         332         433         432
         4         332         333         434         433
         4         333         334         435         434
         4         334         335         436         435
         4         335         336         437         436
         4         336         337         438         437
         4         337         338         439         438
         4         338         339         440         439
         4         339         340         441         440
         4         340         341         442         441
         4         341         342         443         442
         4         342         343         444         443
         4         343         344         445         444
         4         344         345         446         445
         4         345         346         447         446
         4         346         347         448         447
         4         347         348         449         448
         4         348         349         450         449
         4         349         350         451         450
         4         350         351         452         451
         4         351         352         453         452
         4         352         353         454         453
         4         353         354         455         454
         4         354         355         456         455
         4         355         356         457         456
         4         356         357         458         457
         4         357         358         459         458
         4         358         359         460         459
         4         359         360         461         460
         4         360         361         462         461
         4         361         362         463         462
         4         362         363         464         463
         4         363         364         465         464
         4         364         365         466         465
         4         365         366         467         466
         4         366         367         468         467
         4         367         368         469         468
         4         368         369         470         469
         4         369         370         471         470
         4         370         371         472         471
         4         371         372         473         472
         4         372         373         474         473
         4         373         374         475         474
         4         374         375         476         475
         4         375         376         477         476
         4         376         377         478         477
         4         377         378         479         478
         4         378         379         480         479
         4         379         380         481         480
         4         380         381         482         481
         4         381         382         483         482
         4         382         383         484         483
         4         383         384         485         484
         4         384         385         486         485
         4         385         386         487         486
         4         386         387         488         487
         4         387         388         489         488
         4         388         389         490         489
         4         389         390         491         490
         4         390         391         492         491
         4         391         392         493         492
         4         392         393         494         493
         4         393         394         495         494
         4         394         395         496         495
         4         395         396         497         496
         4         396         397         498         497
         4         397         398         499         498
         4         398         399         500         499
         4         399         400         501         500
         4         400         401         502         501
         4         401         402         503         502
         4         402         403         504         503
         4         404         405         506         505
         4         405         406         507         506
         4         406         407         508         507
         4         407         408         509         508
         4         408         409         510         509
         4         409         410         511         510
         4         410         411         512         511
         4         411         412         513         512
         4         412         413         514         513
         4         413         414         515         514
         4         414         415         516         515
         4         415         416         517         516
         4         416         417         518         517
         4         417         418         519         518
         4         418         419         520         519
         4         419         420         521         520
         4         420         421         522         521
         4         421         422         523         522
         4         422         423         524         523
         4         423         424         525         524
         4         424         425         526         525
         4         425         426         527         526
         4         426         427         528         527
         4         427         428         529         528
         4         428         429         530         529
         4         429         430         531         530
         4         430         431         532         531
         4         431         432         533         532
         4         432         433         534         533
         4         433         434         535         534
         4         434         435         536         535
         4         435         436         537         536
         4         436         437         538         537
         4         437         438         539         538
         4         438         439         540         539
         4         439         440         541         540
         4         440         441         542         541
         4         441         442         543         542
         4         442         443         544         543
         4         443         444         545         544
         4         444         445         546         545
         4         445         446         547         546
         4         446         447         548         547
         4         447         448         549         548
         4         448         449         550         549
         4         449         450         551         550
         4         450         451         552         551
         4         451         452         553         552
         4         452         453         554         553
         4         453         454         555         554
         4         454         455         556         555
         4         455         456         557         556
         4         456         457         558         557
         4         457         458         559         558
         4         458         459         560         559
         4         459         460         561         560
         4         460         461         562         561
         4         461         462         563         562
         4         462         463         564         563
         4         463         464         565         564
         4         464         465         566         565
         4         465         466         567         566
         4         466         467         568         567
         4         467         468         569         568
         4         468         469         570         569
         4         469         470         571         570
         4         470         471         572         571
         4         471         472         573         572
         4         472         473         574         573
         4         473         474         575         574
         4         474         475         576         575
         4         475         476         577         576
         4         476         477         578         577
         4         477         478         579         578
         4         478         479         580         579
         4         479         480         581         580
         4         480         481         582         581
         4         481         482         583         582
         4         482         483         584         583
         4         483         484         585         584
         4         484         485         586         585
         4         485         486         587         586
         4         486         487         588         587
         4         487         488         589         588
         4         488         489         590         589
         4         489         490         591         590
         4         490         491         592         591
         4         491         492         593         592
         4         492         493         594         593
         4         493         494         595         594
         4         494         495         596         595
         4         495         496         597         596
         4         496         497         598         597
         4         497         498         599         598
         4         498         499         600         599
         4         499         500         601         600
         4         500         501         602         601
         4         501         502         603         602
         4         502         503         604         603
         4         503         504         605         604
         4         505         506         607         606
         4         506         507         608         607
         4         507         508         609         608
         4         508         509         610         609
         4         509         510         611         610
         4         510         511         612         611
         4         511         512         613         612
         4         512         513         614         613
         4         513         514         615         614
         4         514         515         616         615
         4         515         516         617         616
         4         516         517         618         617
         4         517         518         619         618
         4         518         519         620         619
         4         519         520         621         620
         4         520         521         622         621
         4         521         522         623         622
         4         522         523         624         623
         4         523         524         625         624
         4         524         525         626         625
         4         525         526         627         626
         4         526         527         628         627
         4         527         528         629         628
         4         528         529         630         629
         4         529         530         631         630
         4         530         531         632         631
         4         531         532         633         632
         4         532         533         634         633
         4         533         534         635         634
         4         534         535         636         635
         4         535         536         637         636
         4         536         537         638         637
         4         537         538         639         638
         4         538         539         640         639
         4         539         540         641         640
         4         540         541         642         641
         4         541         542         643         642
         4         542         543         644         643
         4         543         544         645         644
         4         544         545         646         645
         4         545         546         647         646
         4         546         547         648         647
         4         547         548         649         648
         4         548         549         650         649
         4         549         550         651         650
         4         550         551         652         651
         4         551         552         653         652
         4         552         553         654         653
         4         553         554         655         654
         4         554         555         656         655
         4         555         556         657         656
         4         556         557         658         657
         4         557         558         659         658
         4         558         559         660         659
         4         559         560         661         660
         4         560         561         662         661
         4         561         562         663         662
         4         562         563         664         663
         4         563         564         665         664
         4         564         565         666         665
         4         565         566         667         666
         4         566         567         668         667
         4         567         568         669         668
         4         568         569         670         669
         4         569         570         671         670
         4         570         571         672         671
         4         571         572         673         672
         4         572         573         674         673
         4         573         574         675         674
         4         574         575         676         675
         4         575         576         677         676
         4         576         577         678         677
         4         577         578         679         678
         4         578         579         680         679
         4         579         580         681         680
         4         580         581         682         681
         4         581         582         683         682
         4         582         583         684         683
         4         583         584         685         684
         4         584         585         686         685
         4         585         586         687         686
         4         586         587         688         687
         4         587         588         689         688
         4         588         589         690         689
         4         589         590         691         690
         4         590         591         692         691
         4         591         592         693         692
         4         592         593         694         693
         4         593         594         695         694
         4         594         595         696         695
         4         595         596         697         696
         4         596         597         698         697
         4         597         598         699         698
         4         598         599         700         699
         4         599         600         701         700
         4         600         601         702         701
         4         601         602         703         702
         4         602         603         704         703
         4         603         604         705         704
         4         604         605         706         705
         4         606         607         708         707
         4         607         608         709         708
         4         608         609         710         709
         4         609         610         711         710
         4         610         611         712         711
         4         611         612         713         712
         4         612         613         714         713
         4         613         614         715         714
         4         614         615         716         715
         4         615         616         717         716
         4         616         617         718         717
         4         617         618         719         718
         4         618         619         720         719
         4         619         620         721         720
         4         620         621         722         721
         4         621         622         723         722
         4         622         623         724         723
         4         623         624         725         724
         4         624         625         726         725
         4         625         626         727         726
         4         626         627         728         727
         4         627         628         729         728
         4         628         629         730         729
         4         629         630         731         730
         4         630         631         732         731
         4         631         632         733         732
         4         632         633         734         733
         4         633         634         735         734
         4         634         635         736         735
         4         635         636         737         736
         4         636         637         738         737
         4         637         638         739         738
         4         638         639         740         739
         4         639         640         741         740
         4         640         641         742         741
         4         641         642         743         742
         4         642         643         744         743
         4         643         644         745         744
         4         644         645         746         745
         4         645         646         747         746
         4         646         647         748         747
         4         647         648         749         748
         4         648         649         750         749
         4         649         650         751         750
         4         650         651         752         751
         4         651         652         753         752
         4         652         653         754         753
         4         653         654         755         754
         4         654         655         756         755
         4         655         656         757         756
         4         656         657         758         757
         4         657         658         759         758
         4         658         659         760         759
         4         659         660         761         760
         4         660         661         762         761
         4         661         662         763         762
         4         662         663         764         763
         4         663         664         765         764
         4         664         665         766         765
         4         665         666         767         766
         4         666         667         768         767
         4         667         668         769         768
         4         668         669         770         769
         4         669         670         771         770
         4         670         671         772         771
         4         671         672         773         772
         4         672         673         774         773
         4         673         674         775         774
         4         674         675         776         775
         4         675         676         777         776
         4         676         677         778         777
         4         677         678         779         778
         4         678         679         780         779
         4         679         680         781         780
         4         680         681         782         781
         4         681         682         783         782
         4         682         683         784         783
         4         683         684         785         784
         4         684         685         786         785
         4         685         686         787         786
         4         686         687         788         787
         4         687         688         789         788
         4         688         689         790         789
         4         689         690         791         790
         4         690         691         792         791
         4         691         692         793         792
         4         692         693         794         793
         4         693         694         795         794
         4         694         695         796         795
         4         695         696         797         796
         4         696         697         798         797
         4         697         698         799         798
         4         698         699         800         799
         4         699         700         801         800
         4         700         701         802         801
         4         701         702         803         802
         4         702         703         804         803
         4         703         704         805         804
         4         704         705         806         805
         4         705         706         807         806
         4         707         708         809         808
         4         708         709         810         809
         4         709         710         811         810
         4         710         711         812         811
         4         711         712         813         812
         4         712         713         814         813
         4         713         714         815         814
         4         714         715         816         815
         4         715         716         817         816
         4         716         717         818         817
         4         717         718         819         818
         4         718         719         820         819
         4         719         720         821         820
         4         720         721         822         821
         4         721         722         823         822
         4         722         723         824         823
         4         723         724         825         824
         4         724         725         826         825
         4         725         726         827         826
         4         726         727         828         827
         4         727         728         829         828
         4         728         729         830         829
         4         729         730         831         830
         4         730         731         832         831
         4         731         732         833         832
         4         732         733         834         833
         4         733         734         835         834
         4         734         735         836         835
         4         735         736         837         836
         4         736         737         838         837
         4         737         738         839         838
         4         738         739         840         839
         4         739         740         841         840
         4         740         741         842         841
         4         741         742         843         842
         4         742         743         844         843
         4         743         744         845         844
         4         744         745         846         845
         4         745         746         847         846
         4         746         747         848         847
         4         747         748         849         848
         4         748         749         850         849
         4         749         750         851         850
         4         750         751         852         851
         4         751         752         853         852
         4         752         753         854         853
         4         753         754         855         854
         4         754         755         856         855
         4         755         756         857         856
         4         756         757         858         857
         4         757         758         859         858
         4         758         759         860         859
         4         759         760         861         860
         4         760         761         862         861
         4         761         762         863         862
         4         762         763         864         863
         4         763         764         865         864
         4         764         765         866         865
         4         765         766         867         866
         4         766         767         868         867
         4         767         768         869         868
         4         768         769         870         869
         4         769         770         871         870
         4         770         771         872         871
         4         771         772         873         872
         4         772         773         874         873
         4         773         774         875         874
         4         774         775         876         875
         4         775         776         877         876
         4         776         777         878         877
         4         777         778         879         878
         4         778         779         880         879
         4         779         780         881         880
         4         780         781         882         881
         4         781         782         883         882
         4         782         783         884         883
         4         783         784         885         884
         4         784         785         886         885
         4         785         786         887         886
         4         786         787         888         887
         4         787         788         889         888
         4         788         789         890         889
         4         789         790         891         890
         4         790         791         892         891
         4         791         792         893         892
         4         792         793         894         893
         4         793         794         895         894
         4         794         795         896         895
         4         795         796         897         896
         4         796         797         898         897
         4         797         798         899         898
         4         798         799         900         899
         4         799         800         901         900
         4         800         801         902         901
         4         801         802         903         902
         4         802         803         904         903
         4         803         804         905         904
         4         804         805         906         905
         4         805         806         907         906
         4         806         807         908         907
         4         808         809         910         909
         4         809         810         911         910
         4         810         811         912         911
         4         811         812         913         912
         4         812         813         914         913
         4         813         814         915         914
         4         814         815         916         915
         4         815         816         917         916
         4         816         817         918         917
         4         817         818         919         918
         4         818         819         920         919
         4         819         820         921         920
         4         820         821         922         921
         4         821         822         923         922
         4         822         823         924         923
         4         823         824         925         924
         4         824         825         926         925
         4         825         826         927         926
         4         826         827         928         927
         4         827         828         929         928
         4         828         829         930         929
         4         829         830         931         930
         4         830         831         932         931
         4         831         832         933         932
         4         832         833         934         933
         4         833         834         935         934
         4         834         835         936         935
         4         835         836         937         936
         4         836         837         938         937
         4         837         838         939         938
         4         838         839         940         939
         4         839         840         941         940
         4         840         841         942         941
         4         841         842         943         942
         4         842         843         944         943
         4         843         844         945         944
         4         844         845         946         945
         4         845         846         947         946
         4         846         847         948         947
         4         847         848         949         948
         4         848         849         950         949
         4         849         850         951         950
         4         850         851         952         951
         4         851         852         953         952
         4         852         853         954         953
         4         853         854         955         954
         4         854         855         956         955
         4         855         856         957         956
         4         856         857         958         957
         4         857         858         959         958
         4         858         859         960         959
         4         859         860         961         960
         4         860         861         962         961
         4         861         862         963         962
         4         862         863         964         963
         4         863         864         965         964
         4         864         865         966         965
         4         865         866         967         966
         4         866         867         968         967
         4         867         868         969         968
         4         868         869         970         969
         4         869         870         971         970
         4         870         871         972         971
         4         871         872         973         972
         4         872         873         974         973
         4         873         874         975         974
         4         874         875         976         975
         4         875         876         977         976
         4         876         877         978         977
         4         877         878         979         978
         4         878         879         980         979
         4         879         880         981         980
         4         880         881         982         981
         4         881         882         983         982
         4         882         883         984         983
         4         883         884         985         984
         4         884         885         986         985
         4         885         886         987         986
         4         886         887         988         987
         4         887         888         989         988
         4         888         889         990         989
         4         889         890         991         990
         4         890         891         992         991
         4         891         892         993         992
         4         892         893         994         993
         4         893         894         995         994
         4         894         895         996         995
         4         895         896         997         996
         4         896         897         998         997
         4         897         898         999         998
         4         898         899        1000         999
         4         899         900        1001        1000
         4         900         901        1002        1001
         4         901         902        1003        1002
         4         902         903        1004        1003
         4         903         904        1005        1004
         4         904         905        1006        1005
         4         905         906        1007        1006
         4         906         907        1008        1007
         4         907         908        1009        1008
         4         909         910        1011        1010
         4         910         911        1012        1011
         4         911         912        1013        1012
         4         912         913        1014        1013
         4         913         914        1015        1014
         4         914         915        1016        1015
         4         915         916        1017        1016
         4         916         917        1018        1017
         4         917         918        1019        1018
         4         918         919        1020        1019
         4         919         920        1021        1020
         4         920         921        1022        1021
         4         921         922        1023        1022
         4         922         923        1024        1023
         4         923         924        1025        1024
         4         924         925        1026        1025
         4         925         926        1027        1026
         4         926         927        1028        1027
         4         927         928        1029        1028
         4         928         929        1030        1029
         4         929         930        1031        1030
         4         930         931        1032        1031
         4         931         932        1033        1032
         4         932         933        1034        1033
         4         933         934        1035        1034
         4         934         935        1036        1035
         4         935         936        1037        1036
         4         936         937        1038        1037
         4         937         938        1039        1038
         4         938         939        1040        1039
         4         939         940        1041        1040
         4         940         941        1042        1041
         4         941         942        1043        1042
         4         942         943        1044        1043
         4         943         944        1045        1044
         4         944         945        1046        1045
         4         945         946        1047        1046
         4         946         947        1048        1047
         4         947         948        1049        1048
         4         948         949        1050        1049
         4         949         950        1051        1050
         4         950         951        1052        1051
         4         951         952        1053        1052
         4         952         953        1054        1053
         4         953         954        1055        1054
         4         954         955        1056        1055
         4         955         956        1057        1056
         4         956         957        1058        1057
         4         957         958        1059        1058
         4         958         959        1060        1059
         4         959         960        1061        1060
         4         960         961        1062        1061
         4         961         962        1063        1062
         4         962         963        1064        1063
         4         963         964        1065        1064
         4         964         965        1066        1065
         4         965         966        1067        1066
         4         966         967        1068        1067
         4         967         968        1069        1068
         4         968         969        1070        1069
         4         969         970        1071        1070
         4         970         971        1072        1071
         4         971         972        1073        1072
         4         972         973        1074        1073
         4         973         974        1075        1074
         4         974         975        1076        1075
         4         975         976        1077        1076
         4         976         977        1078        1077
         4         977         978        1079        1078
         4         978         979        1080        1079
         4         979         980        1081        1080
         4         980         981        1082        1081
         4         981         982        1083        1082
         4         982         983        1084        1083
         4         983         984        1085        1084
         4         984         985        1086        1085
         4         985         986        1087        1086
         4         986         987        1088        1087
         4         987         988        1089        1088
         4         988         989        1090        1089
         4         989         990        1091        1090
         4         990         991        1092        1091
         4         991         992        1093        1092
         4         992         993        1094        1093
         4         993         994        1095        1094
         4         994         995        1096        1095
         4         995         996        1097        1096
         4         996         997        1098        1097
         4         997         998        1099        1098
         4         998         999        1100        1099
         4         999        1000        1101        1100
         4        1000        1001        1102        1101
         4        1001        1002        1103        1102
         4        1002        1003        1104        1103
         4        1003        1004        1105        1104
         4        1004        1005        1106        1105
         4        1005        1006        1107        1106
         4        1006        1007        1108        1107
         4        1007        1008        1109        1108
         4        1008        1009        1110        1109
         4        1010        1011        1112        1111
         4        1011        1012        1113        1112
         4        1012        1013        1114        1113
         4        1013        1014        1115        1114
         4        1014        1015        1116        1115
         4        1015        1016        1117        1116
         4        1016        1017        1118        1117
         4        1017        1018        1119        1118
         4        1018        1019        1120        1119
         4        1019        1020        1121        1120
         4        1020        1021        1122        1121
         4        1021        1022        1123        1122
         4        1022        1023        1124        1123
         4        1023        1024        1125        1124
         4        1024        1025        1126        1125
         4        1025        1026        1127        1126
         4        1026        1027        1128        1127
         4        1027        1028        1129        1128
         4        1028        1029        1130        1129
         4        1029        1030        1131        1130
         4        1030        1031        1132        1131
         4        1031        1032        1133        1132
         4        1032        1033        1134        1133
         4        1033        1034        1135        1134
         4        1034        1035        1136        1135
         4        1035        1036        1137        1136
         4        1036        1037        1138        1137
         4        1037        1038        1139        1138
         4        1038        1039        1140        1139
         4        1039        1040        1141        1140
         4        1040        1041        1142        1141
         4        1041        1042        1143        1142
         4        1042        1043        1144        1143
         4        1043        1044        1145        1144
         4        1044        1045        1146        1145
         4        1045        1046        1147        1146
         4        1046        1047        1148        1147
         4        1047        1048        1149        1148
         4        1048        1049        1150        1149
         4        1049        1050        1151        1150
         4        1050        1051        1152        1151
         4        1051        1052        1153        1152
         4        1052        1053        1154        1153
         4        1053        1054        1155        1154
         4        1054        1055        1156        1155
         4        1055        1056        1157        1156
         4        1056        1057        1158        1157
         4        1057        1058        1159        1158
         4        1058        1059        1160        1159
         4        1059        1060        1161        1160
         4        1060        1061        1162        1161
         4        1061        1062        1163        1162
         4        1062        1063        1164        1163
         4        1063        1064        1165        1164
         4        1064        1065        1166        1165
         4        1065        1066        1167        1166
         4        1066        1067        1168        1167
         4        1067        1068        1169        1168
         4        1068        1069        1170        1169
         4        1069        1070        1171        1170
         4        1070        1071        1172        1171
         4        1071        1072        1173        1172
         4        1072        1073        1174        1173
         4        1073        1074        1175        1174
         4        1074        1075        1176        1175
         4        1075        1076        1177        1176
         4        1076        1077        1178        1177
         4        1077        1078        1179        1178
         4        1078        1079        1180        1179
         4        1079        1080        1181        1180
         4        1080        1081        1182        1181
         4        1081        1082        1183        1182
         4        1082        1083        1184        1183
         4        1083        1084        1185        1184
         4        1084        1085        1186        1185
         4        1085        1086        1187        1186
         4        1086        1087        1188        1187
         4        1087        1088        1189        1188
         4        1088        1089        1190        1189
         4        1089        1090        1191        1190
         4        1090        1091        1192        1191
         4        1091        1092        1193        1192
         4        1092        1093        1194        1193
         4        1093        1094        1195        1194
         4        1094        1095        1196        1195
         4        1095        1096        1197        1196
         4        1096        1097        1198        1197
         4        1097        1098        1199        1198
         4        1098        1099        1200        1199
         4        1099        1100        1201        1200
         4        1100        1101        1202        1201
         4        1101        1102        1203        1202
         4        1102        1103        1204        1203
         4        1103        1104        1205        1204
         4        1104        1105        1206        1205
         4        1105        1106        1207        1206
         4        1106        1107        1208        1207
         4        1107        1108        1209        1208
         4        1108        1109        1210        1209
         4        1109        1110        1211        1210
         4        1111        1112        1213        1212
         4        1112        1113        1214        1213
         4        1113        1114        1215        1214
         4        1114        1115        1216        1215
         4        1115        1116        1217        1216
         4        1116        1117        1218        1217
         4        1117        1118        1219        1218
         4        1118        1119        1220        1219
         4        1119        1120        1221        1220
         4        1120        1121        1222        1221
         4        1121        1122        1223        1222
         4        1122        1123        1224        1223
         4        1123        1124        1225        1224
         4        1124        1125        1226        1225
         4        1125        1126        1227        1226
         4        1126        1127        1228        1227
         4        1127        1128        1229        1228
         4        1128        1129        1230        1229
         4        1129        1130        1231        1230
         4        1130        1131        1232        1231
         4        1131        1132        1233        1232
         4        1132        1133        1234        1233
         4        1133        1134        1235        1234
         4        1134        1135        1236        1235
         4        1135        1136        1237        1236
         4        1136        1137        1238        1237
         4        1137        1138        1239        1238
         4        1138        1139        1240        1239
         4        1139        1140        1241        1240
         4        1140        1141        1242        1241
         4        1141        1142        1243        1242
         4        1142        1143        1244        1243
         4        1143        1144        1245        1244
         4        1144        1145        1246        1245
         4        1145        1146        1247        1246
         4        1146        1147        1248        1247
         4        1147        1148        1249        1248
         4        1148        1149        1250        1249
         4        1149        1150        1251        1250
         4        1150        1151        1252        1251
         4        1151        1152        1253        1252
         4        1152        1153        1254        1253
         4        1153        1154        1255        1254
         4        1154        1155        1256        1255
         4        1155        1156        1257        1256
         4        1156        1157        1258        1257
         4        1157        1158        1259        1258
         4        1158        1159        1260        1259
         4        1159        1160        1261        1260
         4        1160        1161        1262        1261
         4        1161        1162        1263        1262
         4        1162        1163        1264        1263
         4        1163        1164        1265        1264
         4        1164        1165        1266        1265
         4        1165        1166        1267        1266
         4        1166        1167        1268        1267
         4        1167        1168        1269        1268
         4        1168        1169        1270        1269
         4        1169        1170        1271        1270
         4        1170        1171        1272        1271
         4        1171        1172        1273        1272
         4        1172        1173        1274        1273
         4        1173        1174        1275        1274
         4        1174        1175        1276        1275
         4        1175        1176        1277        1276
         4        1176        1177        1278        1277
         4        1177        1178        1279        1278
         4        1178        1179        1280        1279
         4        1179        1180        1281        1280
         4        1180        1181        1282        1281
         4        1181        1182        1283        1282
         4        1182        1183        1284        1283
         4        1183        1184        1285        1284
         4        1184        1185        1286        1285
         4        1185        1186        1287        1286
         4        1186        1187        1288        1287
         4        1187        1188        1289        1288
         4        1188        1189        1290        1289
         4        1189        1190        1291        1290
         4        1190        1191        1292        1291
         4        1191        1192        1293        1292
         4        1192        1193        1294        1293
         4        1193        1194        1295        1294
         4        1194        1195        1296        1295
         4        1195        1196        1297        1296
         4        1196        1197        1298        1297
         4        1197        1198        1299        1298
         4        1198        1199        1300        1299
         4        1199        1200        1301        1300
         4        1200        1201        1302        1301
         4        1201        1202        1303        1302
         4        1202        1203        1304        1303
         4        1203        1204        1305        1304
         4        1204        1205        1306        1305
         4        1205        1206        1307        1306
         4        1206        1207        1308        1307
         4        1207        1208        1309        1308
         4        1208        1209        1310        1309
         4        1209        1210        1311        1310
         4        1210        1211        1312        1311
         4        1212        1213        1314        1313
         4        1213        1214        1315        1314
         4        1214        1215        1316        1315
         4        1215        1216        1317        1316
         4        1216        1217        1318        1317
         4        1217        1218        1319        1318
         4        1218        1219        1320        1319
         4        1219        1220        1321        1320
         4        1220        1221        1322        1321
         4        1221        1222        1323        1322
         4        1222        1223        1324        1323
         4        1223        1224        1325        1324
         4        1224        1225        1326        1325
         4        1225        1226        1327        1326
         4        1226        1227        1328        1327
         4        1227        1228        1329        1328
         4        1228        1229        1330        1329
         4        1229        1230        1331        1330
         4        1230        1231        1332        1331
         4        1231        1232        1333        1332
         4        1232        1233        1334        1333
         4        1233        1234        1335        1334
         4        1234        1235        1336        1335
         4        1235        1236        1337        1336
         4        1236        1237        1338        1337
         4        1237        1238        1339        1338
         4        1238        1239        1340        1339
         4        1239        1240        1341        1340
         4        1240        1241        1342        1341
         4        1241        1242        1343        1342
         4        1242        1243        1344        1343
         4        1243        1244        1345        1344
         4        1244        1245        1346        1345
         4        1245        1246        1347        1346
         4        1246        1247        1348        1347
         4        1247        1248        1349        1348
         4        1248        1249        1350        1349
         4        1249        1250        1351        1350
         4        1250        1251        1352        1351
         4        1251        1252        1353        1352
         4        1252        1253        1354        1353
         4        1253        1254        1355        1354
         4        1254        1255        1356        1355
         4        1255        1256        1357        1356
         4        1256        1257        1358        1357
         4        1257        1258        1359        1358
         4        1258        1259        1360        1359
         4        1259        1260        1361        1360
         4        1260        1261        1362        1361
         4        1261        1262        1363        1362
         4        1262        1263        1364        1363
         4        1263        1264        1365        1364
         4        1264        1265        1366        1365
         4        1265        1266        1367        1366
         4        1266        1267        1368        1367
         4        1267        1268        1369        1368
         4        1268        1269        1370        1369
         4        1269        1270        1371        1370
         4        1270        1271        1372        1371
         4        1271        1272        1373        1372
         4        1272        1273        1374        1373
         4        1273        1274        1375        1374
         4        1274        1275        1376        1375
         4        1275        1276        1377        1376
         4        1276        1277        1378        1377
         4        1277        1278        1379        1378
         4        1278        1279        1380        1379
         4        1279        1280        1381        1380
         4        1280        1281        1382        1381
         4        1281        1282        1383        1382
         4        1282        1283        1384        1383
         4        1283        1284        1385        1384
         4        1284        1285        1386        1385
         4        1285        1286        1387        1386
         4        1286        1287        1388        1387
         4        1287        1288        1389        1388
         4        1288        1289        1390        1389
         4        1289        1290        1391        1390
         4        1290        1291        1392        1391
         4        1291        1292        1393        1392
         4        1292        1293        1394        1393
         4        1293        1294        1395        1394
         4        1294        1295        1396        1395
         4        1295        1296        1397        1396
         4        1296        1297        1398        1397
         4        1297        1298        1399        1398
         4        1298        1299        1400        1399
         4        1299        1300        1401        1400
         4        1300        1301        1402        1401
         4        1301        1302        1403        1402
         4        1302        1303        1404        1403
         4        1303        1304        1405        1404
         4        1304        1305        1406        1405
         4        1305        1306        1407        1406
         4        1306        1307        1408        1407
         4        1307        1308        1409        1408
         4        1308        1309        1410        1409
         4        1309        1310        1411        1410
         4        1310        1311        1412        1411
         4        1311        1312        1413        1412
         4        1313        1314        1415        1414
         4        1314        1315        1416        1415
         4        1315        1316        1417        1416
         4        1316        1317        1418        1417
         4        1317        1318        1419        1418
         4        1318        1319        1420        1419
         4        1319        1320        1421        1420
         4        1320        1321        1422        1421
         4        1321        1322        1423        1422
         4        1322        1323        1424        1423
         4        1323        1324        1425        1424
         4        1324        1325        1426        1425
         4        1325        1326        1427        1426
         4        1326        1327        1428        1427
         4        1327        1328        1429        1428
         4        1328        1329        1430        1429
         4        1329        1330        1431        1430
         4        1330        1331        1432        1431
         4        1331        1332        1433        1432
         4        1332        1333        1434        1433
         4        1333        1334        1435        1434
         4        1334        1335        1436        1435
         4        1335        1336        1437        1436
         4        1336        1337        1438        1437
         4        1337        1338        1439        1438
         4        1338        1339        1440        1439
         4        1339        1340        1441        1440
         4        1340        1341        1442        1441
         4        1341        1342        1443        1442
         4        1342        1343        1444        1443
         4        1343        1344        1445        1444
         4        1344        1345        1446        1445
         4        1345        1346        1447        1446
         4        1346        1347        1448        1447
         4        1347        1348        1449        1448
         4        1348        1349        1450        1449
         4        1349        1350        1451        1450
         4        1350        1351        1452        1451
         4        1351        1352        1453        1452
         4        1352        1353        1454        1453
         4        1353        1354        1455        1454
         4        1354        1355        1456        1455
         4        1355        1356        1457        1456
         4        1356        1357        1458        1457
         4        1357        1358        1459        1458
         4        1358        1359        1460        1459
         4        1359        1360        1461        1460
         4        1360        1361        1462        1461
         4        1361        1362        1463        1462
         4        1362        1363        1464        1463
         4        1363        1364        1465        1464
         4        1364        1365        1466        1465
         4        1365        1366        1467        1466
         4        1366        1367        1468        1467
         4        1367        1368        1469        1468
         4        1368        1369        1470        1469
         4        1369        1370        1471        1470
         4        1370        1371        1472        1471
         4        1371        1372        1473        1472
         4        1372        1373        1474        1473
         4        1373        1374        1475        1474
         4        1374        1375        1476        1475
         4        1375        1376        1477        1476
         4        1376        1377        1478        1477
         4        1377        1378        1479        1478
         4        1378        1379        1480        1479
         4        1379        1380        1481        1480
         4        1380        1381        1482        1481
         4        1381        1382        1483        1482
         4        1382        1383        1484        1483
         4        1383        1384        1485        1484
         4        1384        1385        1486        1485
         4        1385        1386        1487        1486
         4        1386        1387        1488        1487
         4        1387        1388        1489        1488
         4        1388        1389        1490        1489
         4        1389        1390        1491        1490
         4        1390        1391        1492        1491
         4        1391        1392        1493        1492
         4        1392        1393        1494        1493
         4        1393        1394        1495        1494
         4        1394        1395        1496        1495
         4        1395        1396        1497        1496
         4        1396        1397        1498        1497
         4        1397        1398        1499        1498
         4        1398        1399        1500        1499
         4        1399        1400        1501        1500
         4        1400        1401        1502        1501
         4        1401        1402        1503        1502
         4        1402        1403        1504        1503
         4        1403        1404        1505        1504
         4        1404        1405        1506        1505
         4        1405        1406        1507        1506
         4        1406        1407        1508        1507
         4        1407        1408        1509        1508
         4        1408        1409        1510        1509
         4        1409        1410        1511        1510
         4        1410        1411        1512        1511
         4        1411        1412        1513        1512
         4        1412        1413        1514        1513
         4        1414        1415        1516        1515
         4        1415        1416        1517        1516
         4        1416        1417        1518        1517
         4        1417        1418        1519        1518
         4        1418        1419        1520        1519
         4        1419        1420        1521        1520
         4        1420        1421        1522        1521
         4        1421        1422        1523        1522
         4        1422        1423        1524        1523
         4        1423        1424        1525        1524
         4        1424        1425        1526        1525
         4        1425        1426        1527        1526
         4        1426        1427        1528        1527
         4        1427        1428        1529        1528
         4        1428        1429        1530        1529
         4        1429        1430        1531        1530
         4        1430        1431        1532        1531
         4        1431        1432        1533        1532
         4        1432        1433        1534        1533
         4        1433        1434        1535        1534
         4        1434        1435        1536        1535
         4        1435        1436        1537        1536
         4        1436        1437        1538        1537
         4        1437        1438        1539        1538
         4        1438        1439        1540        1539
         4        1439        1440        1541        1540
         4        1440        1441        1542        1541
         4        1441        1442        1543        1542
         4        1442        1443        1544        1543
         4        1443        1444        1545        1544
         4        1444        1445        1546        1545
         4        1445        1446        1547        1546
         4        1446        1447        1548        1547
         4        1447        1448        1549        1548
         4        1448        1449        1550        1549
         4        1449        1450        1551        1550
         4        1450        1451        1552        1551
         4        1451        1452        1553        1552
         4        1452        1453        1554        1553
         4        1453        1454        1555        1554
         4        1454        1455        1556        1555
         4        1455        1456        1557        1556
         4        1456        1457        1558        1557
         4        1457        1458        1559        1558
         4        1458        1459        1560        1559
         4        1459        1460        1561        1560
         4        1460        1461        1562        1561
         4        1461        1462        1563        1562
         4        1462        1463        1564        1563
         4        1463        1464        1565        1564
         4        1464        1465        1566        1565
         4        1465        1466        1567        1566
         4        1466        1467        1568        1567
         4        1467        1468        1569        1568
         4        1468        1469        1570        1569
         4        1469        1470        1571        1570
         4        1470        1471        1572        1571
         4        1471        1472        1573        1572
         4        1472        1473        1574        1573
         4        1473        1474        1575        1574
         4        1474        1475        1576        1575
         4        1475        1476        1577        1576
         4        1476        1477        1578        1577
         4        1477        1478        1579        1578
         4        1478        1479        1580        1579
         4        1479        1480        1581        1580
         4        1480        1481        1582        1581
         4        1481        1482        1583        1582
         4        1482        1483        1584        1583
         4        1483        1484        1585        1584
         4        1484        1485        1586        1585
         4        1485        1486        1587        1586
         4        1486        1487        1588        1587
         4        1487        1488        1589        1588
         4        1488        1489        1590        1589
         4        1489        1490        1591        1590
         4        1490        1491        1592        1591
         4        1491        1492        1593        1592
         4        1492        1493        1594        1593
         4        1493        1494        1595        1594
         4        1494        1495        1596        1595
         4        1495        1496        1597        1596
         4        1496        1497        1598        1597
         4        1497        1498        1599        1598
         4        1498        1499        1600        1599
         4        1499        1500        1601        1600
         4        1500        1501        1602        1601
         4        1501        1502        1603        1602
         4        1502        1503        1604        1603
         4        1503        1504        1605        1604
         4        1504        1505        1606        1605
         4        1505        1506        1607        1606
         4        1506        1507        1608        1607
         4        1507        1508        1609        1608
         4        1508        1509        1610        1609
         4        1509        1510        1611        1610
         4        1510        1511        1612        1611
         4        1511        1512        1613        1612
         4        1512        1513        1614        1613
         4        1513        1514        1615        1614
         4        1515        1516        1617        1616
         4        1516        1517        1618        1617
         4        1517        1518        1619        1618
         4        1518        1519        1620        1619
         4        1519        1520        1621        1620
         4        1520        1521        1622        1621
         4        1521        1522        1623        1622
         4        1522        1523        1624        1623
         4        1523        1524        1625        1624
         4        1524        1525        1626        1625
         4        1525        1526        1627        1626
         4        1526        1527        1628        1627
         4        1527        1528        1629        1628
         4        1528        1529        1630        1629
         4        1529        1530        1631        1630
         4        1530        1531        1632        1631
         4        1531        1532        1633        1632
         4        1532        1533        1634        1633
         4        1533        1534        1635        1634
         4        1534        1535        1636        1635
         4        1535        1536        1637        1636
         4        1536        1537        1638        1637
         4        1537        1538        1639        1638
         4        1538        1539        1640        1639
         4        1539        1540        1641        1640
         4        1540        1541        1642        1641
         4        1541        1542        1643        1642
         4        1542        1543        1644        1643
         4        1543        1544        1645        1644
         4        1544        1545        1646        1645
         4        1545        1546        1647        1646
         4        1546        1547        1648        1647
         4        1547        1548        1649        1648
         4        1548        1549        1650        1649
         4        1549        1550        1651        1650
         4        1550        1551        1652        1651
         4        1551        1552        1653        1652
         4        1552        1553        1654        1653
         4        1553        1554        1655        1654
         4        1554        1555        1656        1655
         4        1555        1556        1657        1656
         4        1556        1557        1658        1657
         4        1557        1558        1659        1658
         4        1558        1559        1660        1659
         4        1559        1560        1661        1660
         4        1560        1561        1662        1661
         4        1561        1562        1663        1662
         4        1562        1563        1664        1663
         4        1563        1564        1665        1664
         4        1564        1565        1666        1665
         4        1565        1566        1667        1666
         4        1566        1567        1668        1667
         4        1567        1568        1669        1668
         4        1568        1569        1670        1669
         4        1569        1570        1671        1670
         4        1570        1571        1672        1671
         4        1571        1572        1673        1672
         4        1572        1573        1674        1673
         4        1573        1574        1675        1674
         4        1574        1575        1676        1675
         4        1575        1576        1677        1676
         4        1576        1577        1678        1677
         4        1577        1578        1679        1678
         4        1578        1579        1680        1679
         4        1579        1580        1681        1680
         4        1580        1581        1682        1681
         4        1581        1582        1683        1682
         4        1582        1583        1684        1683
         4        1583        1584        1685        1684
         4        1584        1585        1686        1685
         4        1585        1586        1687        1686
         4        1586        1587        1688        1687
         4        1587        1588        1689        1688
         4        1588        1589        1690        1689
         4        1589        1590        1691        1690
         4        1590        1591        1692        1691
         4        1591        1592        1693        1692
         4        1592        1593        1694        1693
         4        1593        1594        1695        1694
         4        1594        1595        1696        1695
         4        1595        1596        1697        1696
         4        1596        1597        1698        1697
         4        1597        1598        1699        1698
         4        1598        1599        1700        1699
         4        1599        1600        1701        1700
         4        1600        1601        1702        1701
         4        1601        1602        1703        1702
         4        1602        1603        1704        1703
         4        1603        1604        1705        1704
         4        1604        1605        1706        1705
         4        1605        1606        1707        1706
         4        1606        1607        1708        1707
         4        1607        1608        1709        1708
         4        1608        1609        1710        1709
         4        1609        1610        1711        1710
         4        1610        1611        1712        1711
         4        1611        1612        1713        1712
         4        1612        1613        1714        1713
         4        1613        1614        1715        1714
         4        1614        1615        1716        1715
         4        1616        1617        1718        1717
         4        1617        1618        1719        1718
         4        1618        1619        1720        1719
         4        1619        1620        1721        1720
         4        1620        1621        1722        1721
         4        1621        1622        1723        1722
         4        1622        1623        1724        1723
         4        1623        1624        1725        1724
         4        1624        1625        1726        1725
         4        1625        1626        1727        1726
         4        1626        1627        1728        1727
         4        1627        1628        1729        1728
         4        1628        1629        1730        1729
         4        1629        1630        1731        1730
         4        1630        1631        1732        1731
         4        1631        1632        1733        1732
         4        1632        1633        1734        1733
         4        1633        1634        1735        1734
         4        1634        1635        1736        1735
         4        1635        1636        1737        1736
         4        1636        1637        1738        1737
         4        1637        1638        1739        1738
         4        1638        1639        1740        1739
         4        1639        1640        1741        1740
         4        1640        1641        1742        1741
         4        1641        1642        1743        1742
         4        1642        1643        1744        1743
         4        1643        1644        1745        1744
         4        1644        1645        1746        1745
         4        1645        1646        1747        1746
         4        1646        1647        1748        1747
         4        1647        1648        1749        1748
         4        1648        1649        1750        1749
         4        1649        1650        1751        1750
         4        1650        1651        1752        1751
         4        1651        1652        1753        1752
         4        1652        1653        1754        1753
         4        1653        1654        1755        1754
         4        1654        1655        1756        1755
         4        1655        1656        1757        1756
         4        1656        1657        1758        1757
         4        1657        1658        1759        1758
         4        1658        1659        1760        1759
         4        1659        1660        1761        1760
         4        1660        1661        1762        1761
         4        1661        1662        1763        1762
         4        1662        1663        1764        1763
         4        1663        1664        1765        1764
         4        1664        1665        1766        1765
         4        1665        1666        1767        1766
         4        1666        1667        1768        1767
         4        1667        1668        1769        1768
         4        1668        1669        1770        1769
         4        1669        1670        1771        1770
         4        1670        1671        1772        1771
         4        1671        1672        1773        1772
         4        1672        1673        1774        1773
         4        1673        1674        1775        1774
         4        1674        1675        1776        1775
         4        1675        1676        1777        1776
         4        1676        1677        1778        1777
         4        1677        1678        1779        1778
         4        1678        1679        1780        1779
         4        1679        1680        1781        1780
         4        1680        1681        1782        1781
         4        1681        1682        1783        1782
         4        1682        1683        1784        1783
         4        1683        1684        1785        1784
         4        1684        1685        1786        1785
         4        1685        1686        1787        1786
         4        1686        1687        1788        1787
         4        1687        1688        1789        1788
         4        1688        1689        1790        1789
         4        1689        1690        1791        1790
         4        1690        1691        1792        1791
         4        1691        1692        1793        1792
         4        1692        1693        1794        1793
         4        1693        1694        1795        1794
         4        1694        1695        1796        1795
         4        1695        1696        1797        1796
         4        1696        1697        1798        1797
         4        1697        1698        1799        1798
         4        1698        1699        1800        1799
         4        1699        1700        1801        1800
         4        1700        1701        1802        1801
         4        1701        1702        1803        1802
         4        1702        1703        1804        1803
         4        1703        1704        1805        1804
         4        1704        1705        1806        1805
         4        1705        1706        1807        1806
         4        1706        1707        1808        1807
         4        1707        1708        1809        1808
         4        1708        1709        1810        1809
         4        1709        1710        1811        1810
         4        1710        1711        1812        1811
         4        1711        1712        1813        1812
         4        1712        1713        1814        1813
         4        1713        1714        1815        1814
         4        1714        1715        1816        1815
         4        1715        1716        1817        1816
         4        1717        1718        1819        1818
         4        1718        1719        1820        1819
         4        1719        1720        1821        1820
         4        1720        1721        1822        1821
         4        1721        1722        1823        1822
         4        1722        1723        1824        1823
         4        1723        1724        1825        1824
         4        1724        1725        1826        1825
         4        1725        1726        1827        1826
         4        1726        1727        1828        1827
         4        1727        1728        1829        1828
         4        1728        1729        1830        1829
         4        1729        1730        1831        1830
         4        1730        1731        1832        1831
         4        1731        1732        1833        1832
         4        1732        1733        1834        1833
         4        1733        1734        1835        1834
         4        1734        1735        1836        1835
         4        1735        1736        1837        1836
         4        1736        1737        1838        1837
         4        1737        1738        1839        1838
         4        1738        1739        1840        1839
         4        1739        1740        1841        1840
         4        1740        1741        1842        1841
         4        1741        1742        1843        1842
         4        1742        1743        1844        1843
         4        1743        1744        1845        1844
         4        1744        1745        1846        1845
         4        1745        1746        1847        1846
         4        1746        1747        1848        1847
         4        1747        1748        1849        1848
         4        1748        1749        1850        1849
         4        1749        1750        1851        1850
         4        1750        1751        1852        1851
         4        1751        1752        1853        1852
         4        1752        1753        1854        1853
         4        1753        1754        1855        1854
         4        1754        1755        1856        1855
         4        1755        1756        1857        1856
         4        1756        1757        1858        1857
         4        1757        1758        1859        1858
         4        1758        1759        1860        1859
         4        1759        1760        1861        1860
         4        1760        1761        1862        1861
         4        1761        1762        1863        1862
         4        1762        1763        1864        1863
         4        1763        1764        1865        1864
         4        1764        1765        1866        1865
         4        1765        1766        1867        1866
         4        1766        1767        1868        1867
         4        1767        1768        1869        1868
         4        1768        1769        1870        1869
         4        1769        1770        1871        1870
         4        1770        1771        1872        1871
         4        1771        1772        1873        1872
         4        1772        1773        1874        1873
         4        1773        1774        1875        1874
         4        1774        1775        1876        1875
         4        1775        1776        1877        1876
         4        1776        1777        1878        1877
         4        1777        1778        1879        1878
         4        1778        1779        1880        1879
         4        1779        1780        1881        1880
         4        1780        1781        1882        1881
         4        1781        1782        1883        1882
         4        1782        1783        1884        1883
         4        1783        1784        1885        1884
         4        1784        1785        1886        1885
         4        1785        1786        1887        1886
         4        1786        1787        1888        1887
         4        1787        1788        1889        1888
         4        1788        1789        1890        1889
         4        1789        1790        1891        1890
         4        1790        1791        1892        1891
         4        1791        1792        1893        1892
         4        1792        1793        1894        1893
         4        1793        1794        1895        1894
         4        1794        1795        1896        1895
         4        1795        1796        1897        1896
         4        1796        1797        1898        1897
         4        1797        1798        1899        1898
         4        1798        1799        1900        1899
         4        1799        1800        1901        1900
         4        1800        1801        1902        1901
         4        1801        1802        1903        1902
         4        1802        1803        1904        1903
         4        1803        1804        1905        1904
         4        1804        1805        1906        1905
         4        1805        1806        1907        1906
         4        1806        1807        1908        1907
         4        1807        1808        1909        1908
         4        1808        1809        1910        1909
         4        1809        1810        1911        1910
         4        1810        1811        1912        1911
         4        1811        1812        1913        1912
         4        1812        1813        1914        1913
         4        1813        1814        1915        1914
         4        1814        1815        1916        1915
         4        1815        1816        1917        1916
         4        1816        1817        1918        1917
         4        1818        1819        1920        1919
         4        1819        1820        1921        1920
         4        1820        1821        1922        1921
         4        1821        1822        1923        1922
         4        1822        1823        1924        1923
         4        1823        1824        1925        1924
         4        1824        1825        1926        1925
         4        1825        1826        1927        1926
         4        1826        1827        1928        1927
         4        1827        1828        1929        1928
         4        1828        1829        1930        1929
         4        1829        1830        1931        1930
         4        1830        1831        1932        1931
         4        1831        1832        1933        1932
         4        1832        1833        1934        1933
         4        1833        1834        1935        1934
         4        1834        1835        1936        1935
         4        1835        1836        1937        1936
         4        1836        1837        1938        1937
         4        1837        1838        1939        1938
         4        1838        1839        1940        1939
         4        1839        1840        1941        1940
         4        1840        1841        1942        1941
         4        1841        1842        1943        1942
         4        1842        1843        1944        1943
         4        1843        1844        1945        1944
         4        1844        1845        1946        1945
         4        1845        1846        1947        1946
         4        1846        1847        1948        1947
         4        1847        1848        1949        1948
         4        1848        1849        1950        1949
         4        1849        1850        1951        1950
         4        1850        1851        1952        1951
         4        1851        1852        1953        1952
         4        1852        1853        1954        1953
         4        1853        1854        1955        1954
         4        1854        1855        1956        1955
         4        1855        1856        1957        1956
         4        1856        1857        1958        1957
         4        1857        1858        1959        1958
         4        1858        1859        1960        1959
         4        1859        1860        1961        1960
         4        1860        1861        1962        1961
         4        1861        1862        1963        1962
         4        1862        1863        1964        1963
         4        1863        1864        1965        1964
         4        1864        1865        1966        1965
         4        1865        1866        1967        1966
         4        1866        1867        1968        1967
         4        1867        1868        1969        1968
         4        1868        1869        1970        1969
         4        1869        1870        1971        1970
         4        1870        1871        1972        1971
         4        1871        1872        1973        1972
         4        1872        1873        1974        1973
         4        1873        1874        1975        1974
         4        1874        1875        1976        1975
         4        1875        1876        1977        1976
         4        1876        1877        1978        1977
         4        1877        1878        1979        1978
         4        1878        1879        1980        1979
         4        1879        1880        1981        1980
         4        1880        1881        1982        1981
         4        1881        1882        1983        1982
         4        1882        1883        1984        1983
         4        1883        1884        1985        1984
         4        1884        1885        1986        1985
         4        1885        1886        1987        1986
         4        1886        1887        1988        1987
         4        1887        1888        1989        1988
         4        1888        1889        1990        1989
         4        1889        1890        1991        1990
         4        1890        1891        1992        1991
         4        1891        1892        1993        1992
         4        1892        1893        1994        1993
         4        1893        1894        1995        1994
         4        1894        1895        1996        1995
         4        1895        1896        1997        1996
         4        1896        1897        1998        1997
         4        1897        1898        1999        1998
         4        1898        1899        2000        1999
         4        1899        1900        2001        2000
         4        1900        1901        2002        2001
         4        1901        1902        2003        2002
         4        1902        1903        2004        2003
         4        1903        1904        2005        2004
         4        1904        1905        2006        2005
         4        1905        1906        2007        2006
         4        1906        1907        2008        2007
         4        1907        1908        2009        2008
         4        1908        1909        2010        2009
         4        1909        1910        2011        2010
         4        1910        1911        2012        2011
         4        1911        1912        2013        2012
         4        1912        1913        2014        2013
         4        1913        1914        2015        2014
         4        1914        1915        2016        2015
         4        1915        1916        2017        2016
         4        1916        1917        2018        2017
         4        1917        1918        2019        2018
         4        1919        1920        2021        2020
         4        1920        1921        2022        2021
         4        1921        1922        2023        2022
         4        1922        1923        2024        2023
         4        1923        1924        2025        2024
         4        1924        1925        2026        2025
         4        1925        1926        2027        2026
         4        1926        1927        2028        2027
         4        1927        1928        2029        2028
         4        1928        1929        2030        2029
         4        1929        1930        2031        2030
         4        1930        1931        2032        2031
         4        1931        1932        2033        2032
         4        1932        1933        2034        2033
         4        1933        1934        2035        2034
         4        1934        1935        2036        2035
         4        1935        1936        2037        2036
         4        1936        1937        2038        2037
         4        1937        1938        2039        2038
         4        1938        1939        2040        2039
         4        1939        1940        2041        2040
         4        1940        1941        2042        2041
         4        1941        1942        2043        2042
         4        1942        1943        2044        2043
         4        1943        1944        2045        2044
         4        1944        1945        2046        2045
         4        1945        1946        2047        2046
         4        1946        1947        2048        2047
         4        1947        1948        2049        2048
         4        1948        1949        2050        2049
         4        1949        1950        2051        2050
         4        1950        1951        2052        2051
         4        1951        1952        2053        2052
         4        1952        1953        2054        2053
         4        1953        1954        2055        2054
         4        1954        1955        2056        2055
         4        1955        1956        2057        2056
         4        1956        1957        2058        2057
         4        1957        1958        2059        2058
         4        1958        1959        2060        2059
         4        1959        1960        2061        2060
         4        1960        1961        2062        2061
         4        1961        1962        2063        2062
         4        1962        1963        2064        2063
         4        1963        1964        2065        2064
         4        1964        1965        2066        2065
         4        1965        1966        2067        2066
         4        1966        1967        2068        2067
         4        1967        1968        2069        2068
         4        1968        1969        2070        2069
         4        1969        1970        2071        2070
         4        1970        1971        2072        2071
         4        1971        1972        2073        2072
         4        1972        1973        2074        2073
         4        1973        1974        2075        2074
         4        1974        1975        2076        2075
         4        1975        1976        2077        2076
         4        1976        1977        2078        2077
         4        1977        1978        2079        2078
         4        1978        1979        2080        2079
         4        1979        1980        2081        2080
         4        1980        1981        2082        2081
         4        1981        1982        2083        2082
         4        1982        1983        2084        2083
         4        1983        1984        2085        2084
         4        1984        1985        2086        2085
         4        1985        1986        2087        2086
         4        1986        1987        2088        2087
         4        1987        1988        2089        2088
         4        1988        1989        2090        2089
         4        1989        1990        2091        2090
         4        1990        1991        2092        2091
         4        1991        1992        2093        2092
         4        1992        1993        2094        2093
         4        1993        1994        2095        2094
         4        1994        1995        2096        2095
         4        1995        1996        2097        2096
         4        1996        1997        2098        2097
         4        1997        1998        2099        2098
         4        1998        1999        2100        2099
         4        1999        2000        2101        2100
         4        2000        2001        2102        2101
         4        2001        2002        2103        2102
         4        2002        2003        2104        2103
         4        2003        2004        2105        2104
         4        2004        2005        2106        2105
         4        2005        2006        2107        2106
         4        2006        2007        2108        2107
         4        2007        2008        2109        2108
         4        2008        2009        2110        2109
         4        2009        2010        2111        2110
         4        2010        2011        2112        2111
         4        2011        2012        2113        2112
         4        2012        2013        2114        2113
         4        2013        2014        2115        2114
         4        2014        2015        2116        2115
         4        2015        2016        2117        2116
         4        2016        2017        2118        2117
         4        2017        2018        2119        2118
         4        2018        2019        2120        2119
         4        2020        2021        2122        2121
         4        2021        2022        2123        2122
         4        2022        2023        2124        2123
         4        2023        2024        2125        2124
         4        2024        2025        2126        2125
         4        2025        2026        2127        2126
         4        2026        2027        2128        2127
         4        2027        2028        2129        2128
         4        2028        2029        2130        2129
         4        2029        2030        2131        2130
         4        2030        2031        2132        2131
         4        2031        2032        2133        2132
         4        2032        2033        2134        2133
         4        2033        2034        2135        2134
         4        2034        2035        2136        2135
         4        2035        2036        2137        2136
         4        2036        2037        2138        2137
         4        2037        2038        2139        2138
         4        2038        2039        2140        2139
         4        2039        2040        2141        2140
         4        2040        2041        2142        2141
         4        2041        2042        2143        2142
         4        2042        2043        2144        2143
         4        2043        2044        2145        2144
         4        2044        2045        2146        2145
         4        2045        2046        2147        2146
         4        2046        2047        2148        2147
         4        2047        2048        2149        2148
         4        2048        2049        2150        2149
         4        2049        2050        2151        2150
         4        2050        2051        2152        2151
         4        2051        2052        2153        2152
         4        2052        2053        2154        2153
         4        2053        2054        2155        2154
         4        2054        2055        2156        2155
         4        2055        2056        2157        2156
         4        2056        2057        2158        2157
         4        2057        2058        2159        2158
         4        2058        2059        2160        2159
         4        2059        2060        2161        2160
         4        2060        2061        2162        2161
         4        2061        2062        2163        2162
         4        2062        2063        2164        2163
         4        2063        2064        2165        2164
         4        2064        2065        2166        2165
         4        2065        2066        2167        2166
         4        2066        2067        2168        2167
         4        2067        2068        2169        2168
         4        2068        2069        2170        2169
         4        2069        2070        2171        2170
         4        2070        2071        2172        2171
         4        2071        2072        2173        2172
         4        2072        2073        2174        2173
         4        2073        2074        2175        2174
         4        2074        2075        2176        2175
         4        2075        2076        2177        2176
         4        2076        2077        2178        2177
         4        2077        2078        2179        2178
         4        2078        2079        2180        2179
         4        2079        2080        2181        2180
         4        2080        2081        2182        2181
         4        2081        2082        2183        2182
         4        2082        2083        2184        2183
         4        2083        2084        2185        2184
         4        2084        2085        2186        2185
         4        2085        2086        2187        2186
         4        2086        2087        2188        2187
         4        2087        2088        2189        2188
         4        2088        2089        2190        2189
         4        2089        2090        2191        2190
         4        2090        2091        2192        2191
         4        2091        2092        2193        2192
         4        2092        2093        2194        2193
         4        2093        2094        2195        2194
         4        2094        2095        2196        2195
         4        2095        2096        2197        2196
         4        2096        2097        2198        2197
         4        2097        2098        2199        2198
         4        2098        2099        2200        2199
         4        2099        2100        2201        2200
         4        2100        2101        2202        2201
         4        2101        2102        2203        2202
         4        2102        2103        2204        2203
         4        2103        2104        2205        2204
         4        2104        2105        2206        2205
         4        2105        2106        2207        2206
         4        2106        2107        2208        2207
         4        2107        2108        2209        2208
         4        2108        2109        2210        2209
         4        2109        2110        2211        2210
         4        2110        2111        2212        2211
         4        2111        2112        2213        2212
         4        2112        2113        2214        2213
         4        2113        2114        2215        2214
         4        2114        2115        2216        2215
         4        2115        2116        2217        2216
         4        2116        2117        2218        2217
         4        2117        2118        2219        2218
         4        2118        2119        2220        2219
         4        2119        2120        2221        2220
         4        2121        2122        2223        2222
         4        2122        2123        2224        2223
         4        2123        2124        2225        2224
         4        2124        2125        2226        2225
         4        2125        2126        2227        2226
         4        2126        2127        2228        2227
         4        2127        2128        2229        2228
         4        2128        2129        2230        2229
         4        2129        2130        2231        2230
         4        2130        2131        2232        2231
         4        2131        2132        2233        2232
         4        2132        2133        2234        2233
         4        2133        2134        2235        2234
         4        2134        2135        2236        2235
         4        2135        2136        2237        2236
         4        2136        2137        2238        2237
         4        2137        2138        2239        2238
         4        2138        2139        2240        2239
         4        2139        2140        2241        2240
         4        2140        2141        2242        2241
         4        2141        2142        2243        2242
         4        2142        2143        2244        2243
         4        2143        2144        2245        2244
         4        2144        2145        2246        2245
         4        2145        2146        2247        2246
         4        2146        2147        2248        2247
         4        2147        2148        2249        2248
         4        2148        2149        2250        2249
         4        2149        2150        2251        2250
         4        2150        2151        2252        2251
         4        2151        2152        2253        2252
         4        2152        2153        2254        2253
         4        2153        2154        2255        2254
         4        2154        2155        2256        2255
         4        2155        2156        2257        2256
         4        2156        2157        2258        2257
         4        2157        2158        2259        2258
         4        2158        2159        2260        2259
         4        2159        2160        2261        2260
         4        2160        2161        2262        2261
         4        2161        2162        2263        2262
         4        2162        2163        2264        2263
         4        2163        2164        2265        2264
         4        2164        2165        2266        2265
         4        2165        2166        2267        2266
         4        2166        2167        2268        2267
         4        2167        2168        2269        2268
         4        2168        2169        2270        2269
         4        2169        2170        2271        2270
         4        2170        2171        2272        2271
         4        2171        2172        2273        2272
         4        2172        2173        2274        2273
         4        2173        2174        2275        2274
         4        2174        2175        2276        2275
         4        2175        2176        2277        2276
         4        2176        2177        2278        2277
         4        2177        2178        2279        2278
         4        2178        2179        2280        2279
         4        2179        2180        2281        2280
         4        2180        2181        2282        2281
         4        2181        2182        2283        2282
         4        2182        2183        2284        2283
         4        2183        2184        2285        2284
         4        2184        2185        2286        2285
         4        2185        2186        2287        2286
         4        2186        2187        2288        2287
         4        2187        2188        2289        2288
         4        2188        2189        2290        2289
         4        2189        2190        2291        2290
         4        2190        2191        2292        2291
         4        2191        2192        2293        2292
         4        2192        2193        2294        2293
         4        2193        2194        2295        2294
         4        2194        2195        2296        2295
         4        2195        2196        2297        2296
         4        2196        2197        2298        2297
         4        2197        2198        2299        2298
         4        2198        2199        2300        2299
         4        2199        2200        2301        2300
         4        2200        2201        2302        2301
         4        2201        2202        2303        2302
         4        2202        2203        2304        2303
         4        2203        2204        2305        2304
         4        2204        2205        2306        2305
         4        2205        2206        2307        2306
         4        2206        2207        2308        2307
         4        2207        2208        2309        2308
         4        2208        2209        2310        2309
         4        2209        2210        2311        2310
         4        2210        2211        2312        2311
         4        2211        2212        2313        2312
         4        2212        2213        2314        2313
         4        2213        2214        2315        2314
         4        2214        2215        2316        2315
         4        2215        2216        2317        2316
         4        2216        2217        2318        2317
         4        2217        2218        2319        2318
         4        2218        2219        2320        2319
         4        2219        2220        2321        2320
         4        2220        2221        2322        2321
         4        2222        2223        2324        2323
         4        2223        2224        2325        2324
         4        2224        2225        2326        2325
         4        2225        2226        2327        2326
         4        2226        2227        2328        2327
         4        2227        2228        2329        2328
         4        2228        2229        2330        2329
         4        2229        2230        2331        2330
         4        2230        2231        2332        2331
         4        2231        2232        2333        2332
         4        2232        2233        2334        2333
         4        2233        2234        2335        2334
         4        2234        2235        2336        2335
         4        2235        2236        2337        2336
         4        2236        2237        2338        2337
         4        2237        2238        2339        2338
         4        2238        2239        2340        2339
         4        2239        2240        2341        2340
         4        2240        2241        2342        2341
         4        2241        2242        2343        2342
         4        2242        2243        2344        2343
         4        2243        2244        2345        2344
         4        2244        2245        2346        2345
         4        2245        2246        2347        2346
         4        2246        2247        2348        2347
         4        2247        2248        2349        2348
         4        2248        2249        2350        2349
         4        2249        2250        2351        2350
         4        2250        2251        2352        2351
         4        2251        2252        2353        2352
         4        2252        2253        2354        2353
         4        2253        2254        2355        2354
         4        2254        2255        2356        2355
         4        2255        2256        2357        2356
         4        2256        2257        2358        2357
         4        2257        2258        2359        2358
         4        2258        2259        2360        2359
         4        2259        2260        2361        2360
         4        2260        2261        2362        2361
         4        2261        2262        2363        2362
         4        2262        2263        2364        2363
         4        2263        2264        2365        2364
         4        2264        2265        2366        2365
         4        2265        2266        2367        2366
         4        2266        2267        2368        2367
         4        2267        2268        2369        2368
         4        2268        2269        2370        2369
         4        2269        2270        2371        2370
         4        2270        2271        2372        2371
         4        2271        2272        2373        2372
         4        2272        2273        2374        2373
         4        2273        2274        2375        2374
         4        2274        2275        2376        2375
         4        2275        2276        2377        2376
         4        2276        2277        2378        2377
         4        2277        2278        2379        2378
         4        2278        2279        2380        2379
         4        2279        2280        2381        2380
         4        2280        2281        2382        2381
         4        2281        2282        2383        2382
         4        2282        2283        2384        2383
         4        2283        2284        2385        2384
         4        2284        2285        2386        2385
         4        2285        2286        2387        2386
         4        2286        2287        2388        2387
         4        2287        2288        2389        2388
         4        2288        2289        2390        2389
         4        2289        2290        2391        2390
         4        2290        2291        2392        2391
         4        2291        2292        2393        2392
         4        2292        2293        2394        2393
         4        2293        2294        2395        2394
         4        2294        2295        2396        2395
         4        2295        2296        2397        2396
         4        2296        2297        2398        2397
         4        2297        2298        2399        2398
         4        2298        2299        2400        2399
         4        2299        2300        2401        2400
         4        2300        2301        2402        2401
         4        2301        2302        2403        2402
         4        2302        2303        2404        2403
         4        2303        2304        2405        2404
         4        2304        2305        2406        2405
         4        2305        2306        2407        2406
         4        2306        2307        2408        2407
         4        2307        2308        2409        2408
         4        2308        2309        2410        2409
         4        2309        2310        2411        2410
         4        2310        2311        2412        2411
         4        2311        2312        2413        2412
         4        2312        2313        2414        2413
         4        2313        2314        2415        2414
         4        2314        2315        2416        2415
         4        2315        2316        2417        2416
         4        2316        2317        2418        2417
         4        2317        2318        2419        2418
         4        2318        2319        2420        2419
         4        2319        2320        2421        2420
         4        2320        2321        2422        2421
         4        2321        2322        2423        2422
         4        2323        2324        2425        2424
         4        2324        2325        2426        2425
         4        2325        2326        2427        2426
         4        2326        2327        2428        2427
         4        2327        2328        2429        2428
         4        2328        2329        2430        2429
         4        2329        2330        2431        2430
         4        2330        2331        2432        2431
         4        2331        2332        2433        2432
         4        2332        2333        2434        2433
         4        2333        2334        2435        2434
         4        2334        2335        2436        2435
         4        2335        2336        2437        2436
         4        2336        2337        2438        2437
         4        2337        2338        2439        2438
         4        2338        2339        2440        2439
         4        2339        2340        2441        2440
         4        2340        2341        2442        2441
         4        2341        2342        2443        2442
         4        2342        2343        2444        2443
         4        2343        2344        2445        2444
         4        2344        2345        2446        2445
         4        2345        2346        2447        2446
         4        2346        2347        2448        2447
         4        2347        2348        2449        2448
         4        2348        2349        2450        2449
         4        2349        2350        2451        2450
         4        2350        2351        2452        2451
         4        2351        2352        2453        2452
         4        2352        2353        2454        2453
         4        2353        2354        2455        2454
         4        2354        2355        2456        2455
         4        2355        2356        2457        2456
         4        2356        2357        2458        2457
         4        2357        2358        2459        2458
         4        2358        2359        2460        2459
         4        2359        2360        2461        2460
         4        2360        2361        2462        2461
         4        2361        2362        2463        2462
         4        2362        2363        2464        2463
         4        2363        2364        2465        2464
         4        2364        2365        2466        2465
         4        2365        2366        2467        2466
         4        2366        2367        2468        2467
         4        2367        2368        2469        2468
         4        2368        2369        2470        2469
         4        2369        2370        2471        2470
         4        2370        2371        2472        2471
         4        2371        2372        2473        2472
         4        2372        2373        2474        2473
         4        2373        2374        2475        2474
         4        2374        2375        2476        2475
         4        2375        2376        2477        2476
         4        2376        2377        2478        2477
         4        2377        2378        2479        2478
         4        2378        2379        2480        2479
         4        2379        2380        2481        2480
         4        2380        2381        2482        2481
         4        2381        2382        2483        2482
         4        2382        2383        2484        2483
         4        2383        2384        2485        2484
         4        2384        2385        2486        2485
         4        2385        2386        2487        2486
         4        2386        2387        2488        2487
         4        2387        2388        2489        2488
         4        2388        2389        2490        2489
         4        2389        2390        2491        2490
         4        2390        2391        2492        2491
         4        2391        2392        2493        2492
         4        2392        2393        2494        2493
         4        2393        2394        2495        2494
         4        2394        2395        2496        2495
         4        2395        2396        2497        2496
         4        2396        2397        2498        2497
         4        2397        2398        2499        2498
         4        2398        2399        2500        2499
         4        2399        2400        2501        2500
         4        2400        2401        2502        2501
         4        2401        2402        2503        2502
         4        2402        2403        2504        2503
         4        2403        2404        2505        2504
         4        2404        2405        2506        2505
         4        2405        2406        2507        2506
         4        2406        2407        2508        2507
         4        2407        2408        2509        2508
         4        2408        2409        2510        2509
         4        2409        2410        2511        2510
         4        2410        2411        2512        2511
         4        2411        2412        2513        2512
         4        2412        2413        2514        2513
         4        2413        2414        2515        2514
         4        2414        2415        2516        2515
         4        2415        2416        2517        2516
         4        2416        2417        2518        2517
         4        2417        2418        2519        2518
         4        2418        2419        2520        2519
         4        2419        2420        2521        2520
         4        2420        2421        2522        2521
         4        2421        2422        2523        2522
         4        2422        2423        2524        2523
         4        2424        2425        2526        2525
         4        2425        2426        2527        2526
         4        2426        2427        2528        2527
         4        2427        2428        2529        2528
         4        2428        2429        2530        2529
         4        2429        2430        2531        2530
         4        2430        2431        2532        2531
         4        2431        2432        2533        2532
         4        2432        2433        2534        2533
         4        2433        2434        2535        2534
         4        2434        2435        2536        2535
         4        2435        2436        2537        2536
         4        2436        2437        2538        2537
         4        2437        2438        2539        2538
         4        2438        2439        2540        2539
         4        2439        2440        2541        2540
         4        2440        2441        2542        2541
         4        2441        2442        2543        2542
         4        2442        2443        2544        2543
         4        2443        2444        2545        2544
         4        2444        2445        2546        2545
         4        2445        2446        2547        2546
         4        2446        2447        2548        2547
         4        2447        2448        2549        2548
         4        2448        2449        2550        2549
         4        2449        2450        2551        2550
         4        2450        2451        2552        2551
         4        2451        2452        2553        2552
         4        2452        2453        2554        2553
         4        2453        2454        2555        2554
         4        2454        2455        2556        2555
         4        2455        2456        2557        2556
         4        2456        2457        2558        2557
         4        2457        2458        2559        2558
         4        2458        2459        2560        2559
         4        2459        2460        2561        2560
         4        2460        2461        2562        2561
         4        2461        2462        2563        2562
         4        2462        2463        2564        2563
         4        2463        2464        2565        2564
         4        2464        2465        2566        2565
         4        2465        2466        2567        2566
         4        2466        2467        2568        2567
         4        2467        2468        2569        2568
         4        2468        2469        2570        2569
         4        2469        2470        2571        2570
         4        2470        2471        2572        2571
         4        2471        2472        2573        2572
         4        2472        2473        2574        2573
         4        2473        2474        2575        2574
         4        2474        2475        2576        2575
         4        2475        2476        2577        2576
         4        2476        2477        2578        2577
         4        2477        2478        2579        2578
         4        2478        2479        2580        2579
         4        2479        2480        2581        2580
         4        2480        2481        2582        2581
         4        2481        2482        2583        2582
         4        2482        2483        2584        2583
         4        2483        2484        2585        2584
         4        2484        2485        2586        2585
         4        2485        2486        2587        2586
         4        2486        2487        2588        2587
         4        2487        2488        2589        2588
         4        2488        2489        2590        2589
         4        2489        2490        2591        2590
         4        2490        2491        2592        2591
         4        2491        2492        2593        2592
         4        2492        2493        2594        2593
         4        2493        2494        2595        2594
         4        2494        2495        2596        2595
         4        2495        2496        2597        2596
         4        2496        2497        2598        2597
         4        2497        2498        2599        2598
         4        2498        2499        2600        2599
         4        2499        2500        2601        2600
         4        2500        2501        2602        2601
         4        2501        2502        2603        2602
         4        2502        2503        2604        2603
         4        2503        2504        2605        2604
         4        2504        2505        2606        2605
         4        2505        2506        2607        2606
         4        2506        2507        2608        2607
         4        2507        2508        2609        2608
         4        2508        2509        2610        2609
         4        2509        2510        2611        2610
         4        2510        2511        2612        2611
         4        2511        2512        2613        2612
         4        2512        2513        2614        2613
         4        2513        2514        2615        2614
         4        2514        2515        2616        2615
         4        2515        2516        2617        2616
         4        2516        2517        2618        2617
         4        2517        2518        2619        2618
         4        2518        2519        2620        2619
         4        2519        2520        2621        2620
         4        2520        2521        2622        2621
         4        2521        2522        2623        2622
         4        2522        2523        2624        2623
         4        2523        2524        2625        2624
         4        2525        2526        2627        2626
         4        2526        2527        2628        2627
         4        2527        2528        2629        2628
         4        2528        2529        2630        2629
         4        2529        2530        2631        2630
         4        2530        2531        2632        2631
         4        2531        2532        2633        2632
         4        2532        2533        2634        2633
         4        2533        2534        2635        2634
         4        2534        2535        2636        2635
         4        2535        2536        2637        2636
         4        2536        2537        2638        2637
         4        2537        2538        2639        2638
         4        2538        2539        2640        2639
         4        2539        2540        2641        2640
         4        2540        2541        2642        2641
         4        2541        2542        2643        2642
         4        2542        2543        2644        2643
         4        2543        2544        2645        2644
         4        2544        2545        2646        2645
         4        2545        2546        2647        2646
         4        2546        2547        2648        2647
         4        2547        2548        2649        2648
         4        2548        2549        2650        2649
         4        2549        2550        2651        2650
         4        2550        2551        2652        2651
         4        2551        2552        2653        2652
         4        2552        2553        2654        2653
         4        2553        2554        2655        2654
         4        2554        2555        2656        2655
         4        2555        2556        2657        2656
         4        2556        2557        2658        2657
         4        2557        2558        2659        2658
         4        2558        2559        2660        2659
         4        2559        2560        2661        2660
         4        2560        2561        2662        2661
         4        2561        2562        2663        2662
         4        2562        2563        2664        2663
         4        2563        2564        2665        2664
         4        2564        2565        2666        2665
         4        2565        2566        2667        2666
         4        2566        2567        2668        2667
         4        2567        2568        2669        2668
         4        2568        2569        2670        2669
         4        2569        2570        2671        2670
         4        2570        2571        2672        2671
         4        2571        2572        2673        2672
         4        2572        2573        2674        2673
         4        2573        2574        2675        2674
         4        2574        2575        2676        2675
         4        2575        2576        2677        2676
         4        2576        2577        2678        2677
         4        2577        2578        2679        2678
         4        2578        2579        2680        2679
         4        2579        2580        2681        2680
         4        2580        2581        2682        2681
         4        2581        2582        2683        2682
         4        2582        2583        2684        2683
         4        2583        2584        2685        2684
         4        2584        2585        2686        2685
         4        2585        2586        2687        2686
         4        2586        2587        2688        2687
         4        2587        2588        2689        2688
         4        2588        2589        2690        2689
         4        2589        2590        2691        2690
         4        2590        2591        2692        2691
         4        2591        2592        2693        2692
         4        2592        2593        2694        2693
         4        2593        2594        2695        2694
         4        2594        2595        2696        2695
         4        2595        2596        2697        2696
         4        2596        2597        2698        2697
         4        2597        2598        2699        2698
         4        2598        2599        2700        2699
         4        2599        2600        2701        2700
         4        2600        2601        2702        2701
         4        2601        2602        2703        2702
         4        2602        2603        2704        2703
         4        2603        2604        2705        2704
         4        2604        2605        2706        2705
         4        2605        2606        2707        2706
         4        2606        2607        2708        2707
         4        2607        2608        2709        2708
         4        2608        2609        2710        2709
         4        2609        2610        2711        2710
         4        2610        2611        2712        2711
         4        2611        2612        2713        2712
         4        2612        2613        2714        2713
         4        2613        2614        2715        2714
         4        2614        2615        2716        2715
         4        2615        2616        2717        2716
         4        2616        2617        2718        2717
         4        2617        2618        2719        2718
         4        2618        2619        2720        2719
         4        2619        2620        2721        2720
         4        2620        2621        2722        2721
         4        2621        2622        2723        2722
         4        2622        2623        2724        2723
         4        2623        2624        2725        2724
         4        2624        2625        2726        2725
         4        2626        2627        2728        2727
         4        2627        2628        2729        2728
         4        2628        2629        2730        2729
         4        2629        2630        2731        2730
         4        2630        2631        2732        2731
         4        2631        2632        2733        2732
         4        2632        2633        2734        2733
         4        2633        2634        2735        2734
         4        2634        2635        2736        2735
         4        2635        2636        2737        2736
         4        2636        2637        2738        2737
         4        2637        2638        2739        2738
         4        2638        2639        2740        2739
         4        2639        2640        2741        2740
         4        2640        2641        2742        2741
         4        2641        2642        2743        2742
         4        2642        2643        2744        2743
         4        2643        2644        2745        2744
         4        2644        2645        2746        2745
         4        2645        2646        2747        2746
         4        2646        2647        2748        2747
         4        2647        2648        2749        2748
         4        2648        2649        2750        2749
         4        2649        2650        2751        2750
         4        2650        2651        2752        2751
         4        2651        2652        2753        2752
         4        2652        2653        2754        2753
         4        2653        2654        2755        2754
         4        2654        2655        2756        2755
         4        2655        2656        2757        2756
         4        2656        2657        2758        2757
         4        2657        2658        2759        2758
         4        2658        2659        2760        2759
         4        2659        2660        2761        2760
         4        2660        2661        2762        2761
         4        2661        2662        2763        2762
         4        2662        2663        2764        2763
         4        2663        2664        2765        2764
         4        2664        2665        2766        2765
         4        2665        2666        2767        2766
         4        2666        2667        2768        2767
         4        2667        2668        2769        2768
         4        2668        2669        2770        2769
         4        2669        2670        2771        2770
         4        2670        2671        2772        2771
         4        2671        2672        2773        2772
         4        2672        2673        2774        2773
         4        2673        2674        2775        2774
         4        2674        2675        2776        2775
         4        2675        2676        2777        2776
         4        2676        2677        2778        2777
         4        2677        2678        2779        2778
         4        2678        2679        2780        2779
         4        2679        2680        2781        2780
         4        2680        2681        2782        2781
         4        2681        2682        2783        2782
         4        2682        2683        2784        2783
         4        2683        2684        2785        2784
         4        2684        2685        2786        2785
         4        2685        2686        2787        2786
         4        2686        2687        2788        2787
         4        2687        2688        2789        2788
         4        2688        2689        2790        2789
         4        2689        2690        2791        2790
         4        2690        2691        2792        2791
         4        2691        2692        2793        2792
         4        2692        2693        2794        2793
         4        2693        2694        2795        2794
         4        2694        2695        2796        2795
         4        2695        2696        2797        2796
         4        2696        2697        2798        2797
         4        2697        2698        2799        2798
         4        2698        2699        2800        2799
         4        2699        2700        2801        2800
         4        2700        2701        2802        2801
         4        2701        2702        2803        2802
         4        2702        2703        2804        2803
         4        2703        2704        2805        2804
         4        2704        2705        2806        2805
         4        2705        2706        2807        2806
         4        2706        2707        2808        2807
         4        2707        2708        2809        2808
         4        2708        2709        2810        2809
         4        2709        2710        2811        2810
         4        2710        2711        2812        2811
         4        2711        2712        2813        2812
         4        2712        2713        2814        2813
         4        2713        2714        2815        2814
         4        2714        2715        2816        2815
         4        2715        2716        2817        2816
         4        2716        2717        2818        2817
         4        2717        2718        2819        2818
         4        2718        2719        2820        2819
         4        2719        2720        2821        2820
         4        2720        2721        2822        2821
         4        2721        2722        2823        2822
         4        2722        2723        2824        2823
         4        2723        2724        2825        2824
         4        2724        2725        2826        2825
         4        2725        2726        2827        2826
         4        2727        2728        2829        2828
         4        2728        2729        2830        2829
         4        2729        2730        2831        2830
         4        2730        2731        2832        2831
         4        2731        2732        2833        2832
         4        2732        2733        2834        2833
         4        2733        2734        2835        2834
         4        2734        2735        2836        2835
         4        2735        2736        2837        2836
         4        2736        2737        2838        2837
         4        2737        2738        2839        2838
         4        2738        2739        2840        2839
         4        2739        2740        2841        2840
         4        2740        2741        2842        2841
         4        2741        2742        2843        2842
         4        2742        2743        2844        2843
         4        2743        2744        2845        2844
         4        2744        2745        2846        2845
         4        2745        2746        2847        2846
         4        2746        2747        2848        2847
         4        2747        2748        2849        2848
         4        2748        2749        2850        2849
         4        2749        2750        2851        2850
         4        2750        2751        2852        2851
         4        2751        2752        2853        2852
         4        2752        2753        2854        2853
         4        2753        2754        2855        2854
         4        2754        2755        2856        2855
         4        2755        2756        2857        2856
         4        2756        2757        2858        2857
         4        2757        2758        2859        2858
         4        2758        2759        2860        2859
         4        2759        2760        2861        2860
         4        2760        2761        2862        2861
         4        2761        2762        2863        2862
         4        2762        2763        2864        2863
         4        2763        2764        2865        2864
         4        2764        2765        2866        2865
         4        2765        2766        2867        2866
         4        2766        2767        2868        2867
         4        2767        2768        2869        2868
         4        2768        2769        2870        2869
         4        2769        2770        2871        2870
         4        2770        2771        2872        2871
         4        2771        2772        2873        2872
         4        2772        2773        2874        2873
         4        2773        2774        2875        2874
         4        2774        2775        2876        2875
         4        2775        2776        2877        2876
         4        2776        2777        2878        2877
         4        2777        2778        2879        2878
         4        2778        2779        2880        2879
         4        2779        2780        2881        2880
         4        2780        2781        2882        2881
         4        2781        2782        2883        2882
         4        2782        2783        2884        2883
         4        2783        2784        2885        2884
         4        2784        2785        2886        2885
         4        2785        2786        2887        2886
         4        2786        2787        2888        2887
         4        2787        2788        2889        2888
         4        2788        2789        2890        2889
         4        2789        2790        2891        2890
         4        2790        2791        2892        2891
         4        2791        2792        2893        2892
         4        2792        2793        2894        2893
         4        2793        2794        2895        2894
         4        2794        2795        2896        2895
         4        2795        2796        2897        2896
         4        2796        2797        2898        2897
         4        2797        2798        2899        2898
         4        2798        2799        2900        2899
         4        2799        2800        2901        2900
         4        2800        2801        2902        2901
         4        2801        2802        2903        2902
         4        2802        2803        2904        2903
         4        2803        2804        2905        2904
         4        2804        2805        2906        2905
         4        2805        2806        2907        2906
         4        2806        2807        2908        2907
         4        2807        2808        2909        2908
         4        2808        2809        2910        2909
         4        2809        2810        2911        2910
         4        2810        2811        2912        2911
         4        2811        2812        2913        2912
         4        2812        2813        2914        2913
         4        2813        2814        2915        2914
         4        2814        2815        2916        2915
         4        2815        2816        2917        2916
         4        2816        2817        2918        2917
         4        2817        2818        2919        2918
         4        2818        2819        2920        2919
         4        2819        2820        2921        2920
         4        2820        2821        2922        2921
         4        2821        2822        2923        2922
         4        2822        2823        2924        2923
         4        2823        2824        2925        2924
         4        2824        2825        2926        2925
         4        2825        2826        2927        2926
         4        2826        2827        2928        2927
         4        2828        2829        2930        2929
         4        2829        2830        2931        2930
         4        2830        2831        2932        2931
         4        2831        2832        2933        2932
         4        2832        2833        2934        2933
         4        2833        2834        2935        2934
         4        2834        2835        2936        2935
         4        2835        2836        2937        2936
         4        2836        2837        2938        2937
         4        2837        2838        2939        2938
         4        2838        2839        2940        2939
         4        2839        2840        2941        2940
         4        2840        2841        2942        2941
         4        2841        2842        2943        2942
         4        2842        2843        2944        2943
         4        2843        2844        2945        2944
         4        2844        2845        2946        2945
         4        2845        2846        2947        2946
         4        2846        2847        2948        2947
         4        2847        2848        2949        2948
         4        2848        2849        2950        2949
         4        2849        2850        2951        2950
         4        2850        2851        2952        2951
         4        2851        2852        2953        2952
         4        2852        2853        2954        2953
         4        2853        2854        2955        2954
         4        2854        2855        2956        2955
         4        2855        2856        2957        2956
         4        2856        2857        2958        2957
         4        2857        2858        2959        2958
         4        2858        2859        2960        2959
         4        2859        2860        2961        2960
         4        2860        2861        2962        2961
         4        2861        2862        2963        2962
         4        2862        2863        2964        2963
         4        2863        2864        2965        2964
         4        2864        2865        2966        2965
         4        2865        2866        2967        2966
         4        2866        2867        2968        2967
         4        2867        2868        2969        2968
         4        2868        2869        2970        2969
         4        2869        2870        2971        2970
         4        2870        2871        2972        2971
         4        2871        2872        2973        2972
         4        2872        2873        2974        2973
         4        2873        2874        2975        2974
         4        2874        2875        2976        2975
         4        2875        2876        2977        2976
         4        2876        2877        2978        2977
         4        2877        2878        2979        2978
         4        2878        2879        2980        2979
         4        2879        2880        2981        2980
         4        2880        2881        2982        2981
         4        2881        2882        2983        2982
         4        2882        2883        2984        2983
         4        2883        2884        2985        2984
         4        2884        2885        2986        2985
         4        2885        2886        2987        2986
         4        2886        2887        2988        2987
         4        2887        2888        2989        2988
         4        2888        2889        2990        2989
         4        2889        2890        2991        2990
         4        2890        2891        2992        2991
         4        2891        2892        2993        2992
         4        2892        2893        2994        2993
         4        2893        2894        2995        2994
         4        2894        2895        2996        2995
         4        2895        2896        2997        2996
         4        2896        2897        2998        2997
         4        2897        2898        2999        2998
         4        2898        2899        3000        2999
         4        2899        2900        3001        3000
         4        2900        2901        3002        3001
         4        2901        2902        3003        3002
         4        2902        2903        3004        3003
         4        2903        2904        3005        3004
         4        2904        2905        3006        3005
         4        2905        2906        3007        3006
         4        2906        2907        3008        3007
         4        2907        2908        3009        3008
         4        2908        2909        3010        3009
         4        2909        2910        3011        3010
         4        2910        2911        3012        3011
         4        2911        2912        3013        3012
         4        2912        2913        3014        3013
         4        2913        2914        3015        3014
         4        2914        2915        3016        3015
         4        2915        2916        3017        3016
         4        2916        2917        3018        3017
         4        2917        2918        3019        3018
         4        2918        2919        3020        3019
         4        2919        2920        3021        3020
         4        2920        2921        3022        3021
         4        2921        2922        3023        3022
         4        2922        2923        3024        3023
         4        2923        2924        3025        3024
         4        2924        2925        3026        3025
         4        2925        2926        3027        3026
         4        2926        2927        3028        3027
         4        2927        2928        3029        3028
         4        2929        2930        3031        3030
         4        2930        2931        3032        3031
         4        2931        2932        3033        3032
         4        2932        2933        3034        3033
         4        2933        2934        3035        3034
         4        2934        2935        3036        3035
         4        2935        2936        3037        3036
         4        2936        2937        3038        3037
         4        2937        2938        3039        3038
         4        2938        2939        3040        3039
         4        2939        2940        3041        3040
         4        2940        2941        3042        3041
         4        2941        2942        3043        3042
         4        2942        2943        3044        3043
         4        2943        2944        3045        3044
         4        2944        2945        3046        3045
         4        2945        2946        3047        3046
         4        2946        2947        3048        3047
         4        2947        2948        3049        3048
         4        2948        2949        3050        3049
         4        2949        2950        3051        3050
         4        2950        2951        3052        3051
         4        2951        2952        3053        3052
         4        2952        2953        3054        3053
         4        2953        2954        3055        3054
         4        2954        2955        3056        3055
         4        2955        2956        3057        3056
         4        2956        2957        3058        3057
         4        2957        2958        3059        3058
         4        2958        2959        3060        3059
         4        2959        2960        3061        3060
         4        2960        2961        3062        3061
         4        2961        2962        3063        3062
         4        2962        2963        3064        3063
         4        2963        2964        3065        3064
         4        2964        2965        3066        3065
         4        2965        2966        3067        3066
         4        2966        2967        3068        3067
         4        2967        2968        3069        3068
         4        2968        2969        3070        3069
         4        2969        2970        3071        3070
         4        2970        2971        3072        3071
         4        2971        2972        3073        3072
         4        2972        2973        3074        3073
         4        2973        2974        3075        3074
         4        2974        2975        3076        3075
         4        2975        2976        3077        3076
         4        2976        2977        3078        3077
         4        2977        2978        3079        3078
         4        2978        2979        3080        3079
         4        2979        2980        3081        3080
         4        2980        2981        3082        3081
         4        2981        2982        3083        3082
         4        2982        2983        3084        3083
         4        2983        2984        3085        3084
         4        2984        2985        3086        3085
         4        2985        2986        3087        3086
         4        2986        2987        3088        3087
         4        2987        2988        3089        3088
         4        2988        2989        3090        3089
         4        2989        2990        3091        3090
         4        2990        2991        3092        3091
         4        2991        2992        3093        3092
         4        2992        2993        3094        3093
         4        2993        2994        3095        3094
         4        2994        2995        3096        3095
         4        2995        2996        3097        3096
         4        2996        2997        3098        3097
         4        2997        2998        3099        3098
         4        2998        2999        3100        3099
         4        2999        3000        3101        3100
         4        3000        3001        3102        3101
         4        3001        3002        3103        3102
         4        3002        3003        3104        3103
         4        3003        3004        3105        3104
         4        3004        3005        3106        3105
         4        3005        3006        3107        3106
         4        3006        3007        3108        3107
         4        3007        3008        3109        3108
         4        3008        3009        3110        3109
         4        3009        3010        3111        3110
         4        3010        3011        3112        3111
         4        3011        3012        3113        3112
         4        3012        3013        3114        3113
         4        3013        3014        3115        3114
         4        3014        3015        3116        3115
         4        3015        3016        3117        3116
         4        3016        3017        3118        3117
         4        3017        3018        3119        3118
         4        3018        3019        3120        3119
         4        3019        3020        3121        3120
         4        3020        3021        3122        3121
         4        3021        3022        3123        3122
         4        3022        3023        3124        3123
         4        3023        3024        3125        3124
         4        3024        3025        3126        3125
         4        3025        3026        3127        3126
         4        3026        3027        3128        3127
         4        3027        3028        3129        3128
         4        3028        3029        3130        3129
         4        3030        3031        3132        3131
         4        3031        3032        3133        3132
         4        3032        3033        3134        3133
         4        3033        3034        3135        3134
         4        3034        3035        3136        3135
         4        3035        3036        3137        3136
         4        3036        3037        3138        3137
         4        3037        3038        3139        3138
         4        3038        3039        3140        3139
         4        3039        3040        3141        3140
         4        3040        3041        3142        3141
         4        3041        3042        3143        3142
         4        3042        3043        3144        3143
         4        3043        3044        3145        3144
         4        3044        3045        3146        3145
         4        3045        3046        3147        3146
         4        3046        3047        3148        3147
         4        3047        3048        3149        3148
         4        3048        3049        3150        3149
         4        3049        3050        3151        3150
         4        3050        3051        3152        3151
         4        3051        3052        3153        3152
         4        3052        3053        3154        3153
         4        3053        3054        3155        3154
         4        3054        3055        3156        3155
         4        3055        3056        3157        3156
         4        3056        3057        3158        3157
         4        3057        3058        3159        3158
         4        3058        3059        3160        3159
         4        3059        3060        3161        3160
         4        3060        3061        3162        3161
         4        3061        3062        3163        3162
         4        3062        3063        3164        3163
         4        3063        3064        3165        3164
         4        3064        3065        3166        3165
         4        3065        3066        3167        3166
         4        3066        3067        3168        3167
         4        3067        3068        3169        3168
         4        3068        3069        3170        3169
         4        3069        3070        3171        3170
         4        3070        3071        3172        3171
         4        3071        3072        3173        3172
         4        3072        3073        3174        3173
         4        3073        3074        3175        3174
         4        3074        3075        3176        3175
         4        3075        3076        3177        3176
         4        3076        3077        3178        3177
         4        3077        3078        3179        3178
         4        3078        3079        3180        3179
         4        3079        3080        3181        3180
         4        3080        3081        3182        3181
         4        3081        3082        3183        3182
         4        3082        3083        3184        3183
         4        3083        3084        3185        3184
         4        3084        3085        3186        3185
         4        3085        3086        3187        3186
         4        3086        3087        3188        3187
         4        3087        3088        3189        3188
         4        3088        3089        3190        3189
         4        3089        3090        3191        3190
         4        3090        3091        3192        3191
         4        3091        3092        3193        3192
         4        3092        3093        3194        3193
         4        3093        3094        3195        3194
         4        3094        3095        3196        3195
         4        3095        3096        3197        3196
         4        3096        3097        3198        3197
         4        3097        3098        3199        3198
         4        3098        3099        3200        3199
         4        3099        3100        3201        3200
         4        3100        3101        3202        3201
         4        3101        3102        3203        3202
         4        3102        3103        3204        3203
         4        3103        3104        3205        3204
         4        3104        3105        3206        3205
         4        3105        3106        3207        3206
         4        3106        3107        3208        3207
         4        3107        3108        3209        3208
         4        3108        3109        3210        3209
         4        3109        3110        3211        3210
         4        3110        3111        3212        3211
         4        3111        3112        3213        3212
         4        3112        3113        3214        3213
         4        3113        3114        3215        3214
         4        3114        3115        3216        3215
         4        3115        3116        3217        3216
         4        3116        3117        3218        3217
         4        3117        3118        3219        3218
         4        3118        3119        3220        3219
         4        3119        3120        3221        3220
         4        3120        3121        3222        3221
         4        3121        3122        3223        3222
         4        3122        3123        3224        3223
         4        3123        3124        3225        3224
         4        3124        3125        3226        3225
         4        3125        3126        3227        3226
         4        3126        3127        3228        3227
         4        3127        3128        3229        3228
         4        3128        3129        3230        3229
         4        3129        3130        3231        3230
         4        3131        3132        3233        3232
         4        3132        3133        3234        3233
         4        3133        3134        3235        3234
         4        3134        3135        3236        3235
         4        3135        3136        3237        3236
         4        3136        3137        3238        3237
         4        3137        3138        3239        3238
         4        3138        3139        3240        3239
         4        3139        3140        3241        3240
         4        3140        3141        3242        3241
         4        3141        3142        3243        3242
         4        3142        3143        3244        3243
         4        3143        3144        3245        3244
         4        3144        3145        3246        3245
         4        3145        3146        3247        3246
         4        3146        3147        3248        3247
         4        3147        3148        3249        3248
         4        3148        3149        3250        3249
         4        3149        3150        3251        3250
         4        3150        3151        3252        3251
         4        3151        3152        3253        3252
         4        3152        3153        3254        3253
         4        3153        3154        3255        3254
         4        3154        3155        3256        3255
         4        3155        3156        3257        3256
         4        3156        3157        3258        3257
         4        3157        3158        3259        3258
         4        3158        3159        3260        3259
         4        3159        3160        3261        3260
         4        3160        3161        3262        3261
         4        3161        3162        3263        3262
         4        3162        3163        3264        3263
         4        3163        3164        3265        3264
         4        3164        3165        3266        3265
         4        3165        3166        3267        3266
         4        3166        3167        3268        3267
         4        3167        3168        3269        3268
         4        3168        3169        3270        3269
         4        3169        3170        3271        3270
         4        3170        3171        3272        3271
         4        3171        3172        3273        3272
         4        3172        3173        3274        3273
         4        3173        3174        3275        3274
         4        3174        3175        3276        3275
         4        3175        3176        3277        3276
         4        3176        3177        3278        3277
         4        3177        3178        3279        3278
         4        3178        3179        3280        3279
         4        3179        3180        3281        3280
         4        3180        3181        3282        3281
         4        3181        3182        3283        3282
         4        3182        3183        3284        3283
         4        3183        3184        3285        3284
         4        3184        3185        3286        3285
         4        3185        3186        3287        3286
         4        3186        3187        3288        3287
         4        3187        3188        3289        3288
         4        3188        3189        3290        3289
         4        3189        3190        3291        3290
         4        3190        3191        3292        3291
         4        3191        3192        3293        3292
         4        3192        3193        3294        3293
         4        3193        3194        3295        3294
         4        3194        3195        3296        3295
         4        3195        3196        3297        3296
         4        3196        3197        3298        3297
         4        3197        3198        3299        3298
         4        3198        3199        3300        3299
         4        3199        3200        3301        3300
         4        3200        3201        3302        3301
         4        3201        3202        3303        3302
         4        3202        3203        3304        3303
         4        3203        3204        3305        3304
         4        3204        3205        3306        3305
         4        3205        3206        3307        3306
         4        3206        3207        3308        3307
         4        3207        3208        3309        3308
         4        3208        3209        3310        3309
         4        3209        3210        3311        3310
         4        3210        3211        3312        3311
         4        3211        3212        3313        3312
         4        3212        3213        3314        3313
         4        3213        3214        3315        3314
         4        3214        3215        3316        3315
         4        3215        3216        3317        3316
         4        3216        3217        3318        3317
         4        3217        3218        3319        3318
         4        3218        3219        3320        3319
         4        3219        3220        3321        3320
         4        3220        3221        3322        3321
         4        3221        3222        3323        3322
         4        3222        3223        3324        3323
         4        3223        3224        3325        3324
         4        3224        3225        3326        3325
         4        3225        3226        3327        3326
         4        3226        3227        3328        3327
         4        3227        3228        3329        3328
         4        3228        3229        3330        3329
         4        3229        3230        3331        3330
         4        3230        3231        3332        3331
         4        3232        3233        3334        3333
         4        3233        3234        3335        3334
         4        3234        3235        3336        3335
         4        3235        3236        3337        3336
         4        3236        3237        3338        3337
         4        3237        3238        3339        3338
         4        3238        3239        3340        3339
         4        3239        3240        3341        3340
         4        3240        3241        3342        3341
         4        3241        3242        3343        3342
         4        3242        3243        3344        3343
         4        3243        3244        3345        3344
         4        3244        3245        3346        3345
         4        3245        3246        3347        3346
         4        3246        3247        3348        3347
         4        3247        3248        3349        3348
         4        3248        3249        3350        3349
         4        3249        3250        3351        3350
         4        3250        3251        3352        3351
         4        3251        3252        3353        3352
         4        3252        3253        3354        3353
         4        3253        3254        3355        3354
         4        3254        3255        3356        3355
         4        3255        3256        3357        3356
         4        3256        3257        3358        3357
         4        3257        3258        3359        3358
         4        3258        3259        3360        3359
         4        3259        3260        3361        3360
         4        3260        3261        3362        3361
         4        3261        3262        3363        3362
         4        3262        3263        3364        3363
         4        3263        3264        3365        3364
         4        3264        3265        3366        3365
         4        3265        3266        3367        3366
         4        3266        3267        3368        3367
         4        3267        3268        3369        3368
         4        3268        3269        3370        3369
         4        3269        3270        3371        3370
         4        3270        3271        3372        3371
         4        3271        3272        3373        3372
         4        3272        3273        3374        3373
         4        3273        3274        3375        3374
         4        3274        3275        3376        3375
         4        3275        3276        3377        3376
         4        3276        3277        3378        3377
         4        3277        3278        3379        3378
         4        3278        3279        3380        3379
         4        3279        3280        3381        3380
         4        3280        3281        3382        3381
         4        3281        3282        3383        3382
         4        3282        3283        3384        3383
         4        3283        3284        3385        3384
         4        3284        3285        3386        3385
         4        3285        3286        3387        3386
         4        3286        3287        3388        3387
         4        3287        3288        3389        3388
         4        3288        3289        3390        3389
         4        3289        3290        3391        3390
         4        3290        3291        3392        3391
         4        3291        3292        3393        3392
         4        3292        3293        3394        3393
         4        3293        3294        3395        3394
         4        3294        3295        3396        3395
         4        3295        3296        3397        3396
         4        3296        3297        3398        3397
         4        3297        3298        3399        3398
         4        3298        3299        3400        3399
         4        3299        3300        3401        3400
         4        3300        3301        3402        3401
         4        3301        3302        3403        3402
         4        3302        3303        3404        3403
         4        3303        3304        3405        3404
         4        3304        3305        3406        3405
         4        3305        3306        3407        3406
         4        3306        3307        3408        3407
         4        3307        3308        3409        3408
         4        3308        3309        3410        3409
         4        3309        3310        3411        3410
         4        3310        3311        3412        3411
         4        3311        3312        3413        3412
         4        3312        3313        3414        3413
         4        3313        3314        3415        3414
         4        3314        3315        3416        3415
         4        3315        3316        3417        3416
         4        3316        3317        3418        3417
         4        3317        3318        3419        3418
         4        3318        3319        3420        3419
         4        3319        3320        3421        3420
         4        3320        3321        3422        3421
         4        3321        3322        3423        3422
         4        3322        3323        3424        3423
         4        3323        3324        3425        3424
         4        3324        3325        3426        3425
         4        3325        3326        3427        3426
         4        3326        3327        3428        3427
         4        3327        3328        3429        3428
         4        3328        3329        3430        3429
         4        3329        3330        3431        3430
         4        3330        3331        3432        3431
         4        3331        3332        3433        3432
         4        3333        3334        3435        3434
         4        3334        3335        3436        3435
         4        3335        3336        3437        3436
         4        3336        3337        3438        3437
         4        3337        3338        3439        3438
         4        3338        3339        3440        3439
         4        3339        3340        3441        3440
         4        3340        3341        3442        3441
         4        3341        3342        3443        3442
         4        3342        3343        3444        3443
         4        3343        3344        3445        3444
         4        3344        3345        3446        3445
         4        3345        3346        3447        3446
         4        3346        3347        3448        3447
         4        3347        3348        3449        3448
         4        3348        3349        3450        3449
         4        3349        3350        3451        3450
         4        3350        3351        3452        3451
         4        3351        3352        3453        3452
         4        3352        3353        3454        3453
         4        3353        3354        3455        3454
         4        3354        3355        3456        3455
         4        3355        3356        3457        3456
         4        3356        3357        3458        3457
         4        3357        3358        3459        3458
         4        3358        3359        3460        3459
         4        3359        3360        3461        3460
         4        3360        3361        3462        3461
         4        3361        3362        3463        3462
         4        3362        3363        3464        3463
         4        3363        3364        3465        3464
         4        3364        3365        3466        3465
         4        3365        3366        3467        3466
         4        3366        3367        3468        3467
         4        3367        3368        3469        3468
         4        3368        3369        3470        3469
         4        3369        3370        3471        3470
         4        3370        3371        3472        3471
         4        3371        3372        3473        3472
         4        3372        3373        3474        3473
         4        3373        3374        3475        3474
         4        3374        3375        3476        3475
         4        3375        3376        3477        3476
         4        3376        3377        3478        3477
         4        3377        3378        3479        3478
         4        3378        3379        3480        3479
         4        3379        3380        3481        3480
         4        3380        3381        3482        3481
         4        3381        3382        3483        3482
         4        3382        3383        3484        3483
         4        3383        3384        3485        3484
         4        3384        3385        3486        3485
         4        3385        3386        3487        3486
         4        3386        3387        3488        3487
         4        3387        3388        3489        3488
         4        3388        3389        3490        3489
         4        3389        3390        3491        3490
         4        3390        3391        3492        3491
         4        3391        3392        3493        3492
         4        3392        3393        3494        3493
         4        3393        3394        3495        3494
         4        3394        3395        3496        3495
         4        3395        3396        3497        3496
         4        3396        3397        3498        3497
         4        3397        3398        3499        3498
         4        3398        3399        3500        3499
         4        3399        3400        3501        3500
         4        3400        3401        3502        3501
         4        3401        3402        3503        3502
         4        3402        3403        3504        3503
         4        3403        3404        3505        3504
         4        3404        3405        3506        3505
         4        3405        3406        3507        3506
         4        3406        3407        3508        3507
         4        3407        3408        3509        3508
         4        3408        3409        3510        3509
         4        3409        3410        3511        3510
         4        3410        3411        3512        3511
         4        3411        3412        3513        3512
         4        3412        3413        3514        3513
         4        3413        3414        3515        3514
         4        3414        3415        3516        3515
         4        3415        3416        3517        3516
         4        3416        3417        3518        3517
         4        3417        3418        3519        3518
         4        3418        3419        3520        3519
         4        3419        3420        3521        3520
         4        3420        3421        3522        3521
         4        3421        3422        3523        3522
         4        3422        3423        3524        3523
         4        3423        3424        3525        3524
         4        3424        3425        3526        3525
         4        3425        3426        3527        3526
         4        3426        3427        3528        3527
         4        3427        3428        3529        3528
         4        3428        3429        3530        3529
         4        3429        3430        3531        3530
         4        3430        3431        3532        3531
         4        3431        3432        3533        3532
         4        3432        3433        3534        3533
         4        3434        3435        3536        3535
         4        3435        3436        3537        3536
         4        3436        3437        3538        3537
         4        3437        3438        3539        3538
         4        3438        3439        3540        3539
         4        3439        3440        3541        3540
         4        3440        3441        3542        3541
         4        3441        3442        3543        3542
         4        3442        3443        3544        3543
         4        3443        3444        3545        3544
         4        3444        3445        3546        3545
         4        3445        3446        3547        3546
         4        3446        3447        3548        3547
         4        3447        3448        3549        3548
         4        3448        3449        3550        3549
         4        3449        3450        3551        3550
         4        3450        3451        3552        3551
         4        3451        3452        3553        3552
         4        3452        3453        3554        3553
         4        3453        3454        3555        3554
         4        3454        3455        3556        3555
         4        3455        3456        3557        3556
         4        3456        3457        3558        3557
         4        3457        3458        3559        3558
         4        3458        3459        3560        3559
         4        3459        3460        3561        3560
         4        3460        3461        3562        3561
         4        3461        3462        3563        3562
         4        3462        3463        3564        3563
         4        3463        3464        3565        3564
         4        3464        3465        3566        3565
         4        3465        3466        3567        3566
         4        3466        3467        3568        3567
         4        3467        3468        3569        3568
         4        3468        3469        3570        3569
         4        3469        3470        3571        3570
         4        3470        3471        3572        3571
         4        3471        3472        3573        3572
         4        3472        3473        3574        3573
         4        3473        3474        3575        3574
         4        3474        3475        3576        3575
         4        3475        3476        3577        3576
         4        3476        3477        3578        3577
         4        3477        3478        3579        3578
         4        3478        3479        3580        3579
         4        3479        3480        3581        3580
         4        3480        3481        3582        3581
         4        3481        3482        3583        3582
         4        3482        3483        3584        3583
         4        3483        3484        3585        3584
         4        3484        3485        3586        3585
         4        3485        3486        3587        3586
         4        3486        3487        3588        3587
         4        3487        3488        3589        3588
         4        3488        3489        3590        3589
         4        3489        3490        3591        3590
         4        3490        3491        3592        3591
         4        3491        3492        3593        3592
         4        3492        3493        3594        3593
         4        3493        3494        3595        3594
         4        3494        3495        3596        3595
         4        3495        3496        3597        3596
         4        3496        3497        3598        3597
         4        3497        3498        3599        3598
         4        3498        3499        3600        3599
         4        3499        3500        3601        3600
         4        3500        3501        3602        3601
         4        3501        3502        3603        3602
         4        3502        3503        3604        3603
         4        3503        3504        3605        3604
         4        3504        3505        3606        3605
         4        3505        3506        3607        3606
         4        3506        3507        3608        3607
         4        3507        3508        3609        3608
         4        3508        3509        3610        3609
         4        3509        3510        3611        3610
         4        3510        3511        3612        3611
         4        3511        3512        3613        3612
         4        3512        3513        3614        3613
         4        3513        3514        3615        3614
         4        3514        3515        3616        3615
         4        3515        3516        3617        3616
         4        3516        3517        3618        3617
         4        3517        3518        3619        3618
         4        3518        3519        3620        3619
         4        3519        3520        3621        3620
         4        3520        3521        3622        3621
         4        3521        3522        3623        3622
         4        3522        3523        3624        3623
         4        3523        3524        3625        3624
         4        3524        3525        3626        3625
         4        3525        3526        3627        3626
         4        3526        3527        3628        3627
         4        3527        3528        3629        3628
         4        3528        3529        3630        3629
         4        3529        3530        3631        3630
         4        3530        3531        3632        3631
         4        3531        3532        3633        3632
         4        3532        3533        3634        3633
         4        3533        3534        3635        3634
         4        3535        3536        3637        3636
         4        3536        3537        3638        3637
         4        3537        3538        3639        3638
         4        3538        3539        3640        3639
         4        3539        3540        3641        3640
         4        3540        3541        3642        3641
         4        3541        3542        3643        3642
         4        3542        3543        3644        3643
         4        3543        3544        3645        3644
         4        3544        3545        3646        3645
         4        3545        3546        3647        3646
         4        3546        3547        3648        3647
         4        3547        3548        3649        3648
         4        3548        3549        3650        3649
         4        3549        3550        3651        3650
         4        3550        3551        3652        3651
         4        3551        3552        3653        3652
         4        3552        3553        3654        3653
         4        3553        3554        3655        3654
         4        3554        3555        3656        3655
         4        3555        3556        3657        3656
         4        3556        3557        3658        3657
         4        3557        3558        3659        3658
         4        3558        3559        3660        3659
         4        3559        3560        3661        3660
         4        3560        3561        3662        3661
         4        3561        3562        3663        3662
         4        3562        3563        3664        3663
         4        3563        3564        3665        3664
         4        3564        3565        3666        3665
         4        3565        3566        3667        3666
         4        3566        3567        3668        3667
         4        3567        3568        3669        3668
         4        3568        3569        3670        3669
         4        3569        3570        3671        3670
         4        3570        3571        3672        3671
         4        3571        3572        3673        3672
         4        3572        3573        3674        3673
         4        3573        3574        3675        3674
         4        3574        3575        3676        3675
         4        3575        3576        3677        3676
         4        3576        3577        3678        3677
         4        3577        3578        3679        3678
         4        3578        3579        3680        3679
         4        3579        3580        3681        3680
         4        3580        3581        3682        3681
         4        3581        3582        3683        3682
         4        3582        3583        3684        3683
         4        3583        3584        3685        3684
         4        3584        3585        3686        3685
         4        3585        3586        3687        3686
         4        3586        3587        3688        3687
         4        3587        3588        3689        3688
         4        3588        3589        3690        3689
         4        3589        3590        3691        3690
         4        3590        3591        3692        3691
         4        3591        3592        3693        3692
         4        3592        3593        3694        3693
         4        3593        3594        3695        3694
         4        3594        3595        3696        3695
         4        3595        3596        3697        3696
         4        3596        3597        3698        3697
         4        3597        3598        3699        3698
         4        3598        3599        3700        3699
         4        3599        3600        3701        3700
         4        3600        3601        3702        3701
         4        3601        3602        3703        3702
         4        3602        3603        3704        3703
         4        3603        3604        3705        3704
         4        3604        3605        3706        3705
         4        3605        3606        3707        3706
         4        3606        3607        3708        3707
         4        3607        3608        3709        3708
         4        3608        3609        3710        3709
         4        3609        3610        3711        3710
         4        3610        3611        3712        3711
         4        3611        3612        3713        3712
         4        3612        3613        3714        3713
         4        3613        3614        3715        3714
         4        3614        3615        3716        3715
         4        3615        3616        3717        3716
         4        3616        3617        3718        3717
         4        3617        3618        3719        3718
         4        3618        3619        3720        3719
         4        3619        3620        3721        3720
         4        3620        3621        3722        3721
         4        3621        3622        3723        3722
         4        3622        3623        3724        3723
         4        3623        3624        3725        3724
         4        3624        3625        3726        3725
         4        3625        3626        3727        3726
         4        3626        3627        3728        3727
         4        3627        3628        3729        3728
         4        3628        3629        3730        3729
         4        3629        3630        3731        3730
         4        3630        3631        3732        3731
         4        3631        3632        3733        3732
         4        3632        3633        3734        3733
         4        3633        3634        3735        3734
         4        3634        3635        3736        3735
         4        3636        3637        3738        3737
         4        3637        3638        3739        3738
         4        3638        3639        3740        3739
         4        3639        3640        3741        3740
         4        3640        3641        3742        3741
         4        3641        3642        3743        3742
         4        3642        3643        3744        3743
         4        3643        3644        3745        3744
         4        3644        3645        3746        3745
         4        3645        3646        3747        3746
         4        3646        3647        3748        3747
         4        3647        3648        3749        3748
         4        3648        3649        3750        3749
         4        3649        3650        3751        3750
         4        3650        3651        3752        3751
         4        3651        3652        3753        3752
         4        3652        3653        3754        3753
         4        3653        3654        3755        3754
         4        3654        3655        3756        3755
         4        3655        3656        3757        3756
         4        3656        3657        3758        3757
         4        3657        3658        3759        3758
         4        3658        3659        3760        3759
         4        3659        3660        3761        3760
         4        3660        3661        3762        3761
         4        3661        3662        3763        3762
         4        3662        3663        3764        3763
         4        3663        3664        3765        3764
         4        3664        3665        3766        3765
         4        3665        3666        3767        3766
         4        3666        3667        3768        3767
         4        3667        3668        3769        3768
         4        3668        3669        3770        3769
         4        3669        3670        3771        3770
         4        3670        3671        3772        3771
         4        3671        3672        3773        3772
         4        3672        3673        3774        3773
         4        3673        3674        3775        3774
         4        3674        3675        3776        3775
         4        3675        3676        3777        3776
         4        3676        3677        3778        3777
         4        3677        3678        3779        3778
         4        3678        3679        3780        3779
         4        3679        3680        3781        3780
         4        3680        3681        3782        3781
         4        3681        3682        3783        3782
         4        3682        3683        3784        3783
         4        3683        3684        3785        3784
         4        3684        3685        3786        3785
         4        3685        3686        3787        3786
         4        3686        3687        3788        3787
         4        3687        3688        3789        3788
         4        3688        3689        3790        3789
         4        3689        3690        3791        3790
         4        3690        3691        3792        3791
         4        3691        3692        3793        3792
         4        3692        3693        3794        3793
         4        3693        3694        3795        3794
         4        3694        3695        3796        3795
         4        3695        3696        3797        3796
         4        3696        3697        3798        3797
         4        3697        3698        3799        3798
         4        3698        3699        3800        3799
         4        3699        3700        3801        3800
         4        3700        3701        3802        3801
         4        3701        3702        3803        3802
         4        3702        3703        3804        3803
         4        3703        3704        3805        3804
         4        3704        3705        3806        3805
         4        3705        3706        3807        3806
         4        3706        3707        3808        3807
         4        3707        3708        3809        3808
         4        3708        3709        3810        3809
         4        3709        3710        3811        3810
         4        3710        3711        3812        3811
         4        3711        3712        3813        3812
         4        3712        3713        3814        3813
         4        3713        3714        3815        3814
         4        3714        3715        3816        3815
         4        3715        3716        3817        3816
         4        3716        3717        3818        3817
         4        3717        3718        3819        3818
         4        3718        3719        3820        3819
         4        3719        3720        3821        3820
         4        3720        3721        3822        3821
         4        3721        3722        3823        3822
         4        3722        3723        3824        3823
         4        3723        3724        3825        3824
         4        3724        3725        3826        3825
         4        3725        3726        3827        3826
         4        3726        3727        3828        3827
         4        3727        3728        3829        3828
         4        3728        3729        3830        3829
         4        3729        3730        3831        3830
         4        3730        3731        3832        3831
         4        3731        3732        3833        3832
         4        3732        3733        3834        3833
         4        3733        3734        3835        3834
         4        3734        3735        3836        3835
         4        3735        3736        3837        3836
         4        3737        3738        3839        3838
         4        3738        3739        3840        3839
         4        3739        3740        3841        3840
         4        3740        3741        3842        3841
         4        3741        3742        3843        3842
         4        3742        3743        3844        3843
         4        3743        3744        3845        3844
         4        3744        3745        3846        3845
         4        3745        3746        3847        3846
         4        3746        3747        3848        3847
         4        3747        3748        3849        3848
         4        3748        3749        3850        3849
         4        3749        3750        3851        3850
         4        3750        3751        3852        3851
         4        3751        3752        3853        3852
         4        3752        3753        3854        3853
         4        3753        3754        3855        3854
         4        3754        3755        3856        3855
         4        3755        3756        3857        3856
         4        3756        3757        3858        3857
         4        3757        3758        3859        3858
         4        3758        3759        3860        3859
         4        3759        3760        3861        3860
         4        3760        3761        3862        3861
         4        3761        3762        3863        3862
         4        3762        3763        3864        3863
         4        3763        3764        3865        3864
         4        3764        3765        3866        3865
         4        3765        3766        3867        3866
         4        3766        3767        3868        3867
         4        3767        3768        3869        3868
         4        3768        3769        3870        3869
         4        3769        3770        3871        3870
         4        3770        3771        3872        3871
         4        3771        3772        3873        3872
         4        3772        3773        3874        3873
         4        3773        3774        3875        3874
         4        3774        3775        3876        3875
         4        3775        3776        3877        3876
         4        3776        3777        3878        3877
         4        3777        3778        3879        3878
         4        3778        3779        3880        3879
         4        3779        3780        3881        3880
         4        3780        3781        3882        3881
         4        3781        3782        3883        3882
         4        3782        3783        3884        3883
         4        3783        3784        3885        3884
         4        3784        3785        3886        3885
         4        3785        3786        3887        3886
         4        3786        3787        3888        3887
         4        3787        3788        3889        3888
         4        3788        3789        3890        3889
         4        3789        3790        3891        3890
         4        3790        3791        3892        3891
         4        3791        3792        3893        3892
         4        3792        3793        3894        3893
         4        3793        3794        3895        3894
         4        3794        3795        3896        3895
         4        3795        3796        3897        3896
         4        3796        3797        3898        3897
         4        3797        3798        3899        3898
         4        3798        3799        3900        3899
         4        3799        3800        3901        3900
         4        3800        3801        3902        3901
         4        3801        3802        3903        3902
         4        3802        3803        3904        3903
         4        3803        3804        3905        3904
         4        3804        3805        3906        3905
         4        3805        3806        3907        3906
         4        3806        3807        3908        3907
         4        3807        3808        3909        3908
         4        3808        3809        3910        3909
         4        3809        3810        3911        3910
         4        3810        3811        3912        3911
         4        3811        3812        3913        3912
         4        3812        3813        3914        3913
         4        3813        3814        3915        3914
         4        3814        3815        3916        3915
         4        3815        3816        3917        3916
         4        3816        3817        3918        3917
         4        3817        3818        3919        3918
         4        3818        3819        3920        3919
         4        3819        3820        3921        3920
         4        3820        3821        3922        3921
         4        3821        3822        3923        3922
         4        3822        3823        3924        3923
         4        3823        3824        3925        3924
         4        3824        3825        3926        3925
         4        3825        3826        3927        3926
         4        3826        3827        3928        3927
         4        3827        3828        3929        3928
         4        3828        3829        3930        3929
         4        3829        3830        3931        3930
         4        3830        3831        3932        3931
         4        3831        3832        3933        3932
         4        3832        3833        3934        3933
         4        3833        3834        3935        3934
         4        3834        3835        3936        3935
         4        3835        3836        3937        3936
         4        3836        3837        3938        3937
         4        3838        3839        3940        3939
         4        3839        3840        3941        3940
         4        3840        3841        3942        3941
         4        3841        3842        3943        3942
         4        3842        3843        3944        3943
         4        3843        3844        3945        3944
         4        3844        3845        3946        3945
         4        3845        3846        3947        3946
         4        3846        3847        3948        3947
         4        3847        3848        3949        3948
         4        3848        3849        3950        3949
         4        3849        3850        3951        3950
         4        3850        3851        3952        3951
         4        3851        3852        3953        3952
         4        3852        3853        3954        3953
         4        3853        3854        3955        3954
         4        3854        3855        3956        3955
         4        3855        3856        3957        3956
         4        3856        3857        3958        3957
         4        3857        3858        3959        3958
         4        3858        3859        3960        3959
         4        3859        3860        3961        3960
         4        3860        3861        3962        3961
         4        3861        3862        3963        3962
         4        3862        3863        3964        3963
         4        3863        3864        3965        3964
         4        3864        3865        3966        3965
         4        3865        3866        3967        3966
         4        3866        3867        3968        3967
         4        3867        3868        3969        3968
         4        3868        3869        3970        3969
         4        3869        3870        3971        3970
         4        3870        3871        3972        3971
         4        3871        3872        3973        3972
         4        3872        3873        3974        3973
         4        3873        3874        3975        3974
         4        3874        3875        3976        3975
         4        3875        3876        3977        3976
         4        3876        3877        3978        3977
         4        3877        3878        3979        3978
         4        3878        3879        3980        3979
         4        3879        3880        3981        3980
         4        3880        3881        3982        3981
         4        3881        3882        3983        3982
         4        3882        3883        3984        3983
         4        3883        3884        3985        3984
         4        3884        3885        3986        3985
         4        3885        3886        3987        3986
         4        3886        3887        3988        3987
         4        3887        3888        3989        3988
         4        3888        3889        3990        3989
         4        3889        3890        3991        3990
         4        3890        3891        3992        3991
         4        3891        3892        3993        3992
         4        3892        3893        3994        3993
         4        3893        3894        3995        3994
         4        3894        3895        3996        3995
         4        3895        3896        3997        3996
         4        3896        3897        3998        3997
         4        3897        3898        3999        3998
         4        3898        3899        4000        3999
         4        3899        3900        4001        4000
         4        3900        3901        4002        4001
         4        3901        3902        4003        4002
         4        3902        3903        4004        4003
         4        3903        3904        4005        4004
         4        3904        3905        4006        4005
         4        3905        3906        4007        4006
         4        3906        3907        4008        4007
         4        3907        3908        4009        4008
         4        3908        3909        4010        4009
         4        3909        3910        4011        4010
         4        3910        3911        4012        4011
         4        3911        3912        4013        4012
         4        3912        3913        4014        4013
         4        3913        3914        4015        4014
         4        3914        3915        4016        4015
         4        3915        3916        4017        4016
         4        3916        3917        4018        4017
         4        3917        3918        4019        4018
         4        3918        3919        4020        4019
         4        3919        3920        4021        4020
         4        3920        3921        4022        4021
         4        3921        3922        4023        4022
         4        3922        3923        4024        4023
         4        3923        3924        4025        4024
         4        3924        3925        4026        4025
         4        3925        3926        4027        4026
         4        3926        3927        4028        4027
         4        3927        3928        4029        4028
         4        3928        3929        4030        4029
         4        3929        3930        4031        4030
         4        3930        3931        4032        4031
         4        3931        3932        4033        4032
         4        3932        3933        4034        4033
         4        3933        3934        4035        4034
         4        3934        3935        4036        4035
         4        3935        3936        4037        4036
         4        3936        3937        4038        4037
         4        3937        3938        4039        4038
         4        3939        3940        4041        4040
         4        3940        3941        4042        4041
         4        3941        3942        4043        4042
         4        3942        3943        4044        4043
         4        3943        3944        4045        4044
         4        3944        3945        4046        4045
         4        3945        3946        4047        4046
         4        3946        3947        4048        4047
         4        3947        3948        4049        4048
         4        3948        3949        4050        4049
         4        3949        3950        4051        4050
         4        3950        3951        4052        4051
         4        3951        3952        4053        4052
         4        3952        3953        4054        4053
         4        3953        3954        4055        4054
         4        3954        3955        4056        4055
         4        3955        3956        4057        4056
         4        3956        3957        4058        4057
         4        3957        3958        4059        4058
         4        3958        3959        4060        4059
         4        3959        3960        4061        4060
         4        3960        3961        4062        4061
         4        3961        3962        4063        4062
         4        3962        3963        4064        4063
         4        3963        3964        4065        4064
         4        3964        3965        4066        4065
         4        3965        3966        4067        4066
         4        3966        3967        4068        4067
         4        3967        3968        4069        4068
         4        3968        3969        4070        4069
         4        3969        3970        4071        4070
         4        3970        3971        4072        4071
         4        3971        3972        4073        4072
         4        3972        3973        4074        4073
         4        3973        3974        4075        4074
         4        3974        3975        4076        4075
         4        3975        3976        4077        4076
         4        3976        3977        4078        4077
         4        3977        3978        4079        4078
         4        3978        3979        4080        4079
         4        3979        3980        4081        4080
         4        3980        3981        4082        4081
         4        3981        3982        4083        4082
         4        3982        3983        4084        4083
         4        3983        3984        4085        4084
         4        3984        3985        4086        4085
         4        3985        3986        4087        4086
         4        3986        3987        4088        4087
         4        3987        3988        4089        4088
         4        3988        3989        4090        4089
         4        3989        3990        4091        4090
         4        3990        3991        4092        4091
         4        3991        3992        4093        4092
         4        3992        3993        4094        4093
         4        3993        3994        4095        4094
         4        3994        3995        4096        4095
         4        3995        3996        4097        4096
         4        3996        3997        4098        4097
         4        3997        3998        4099        4098
         4        3998        3999        4100        4099
         4        3999        4000        4101        4100
         4        4000        4001        4102        4101
         4        4001        4002        4103        4102
         4        4002        4003        4104        4103
         4        4003        4004        4105        4104
         4        4004        4005        4106        4105
         4        4005        4006        4107        4106
         4        4006        4007        4108        4107
         4        4007        4008        4109        4108
         4        4008        4009        4110        4109
         4        4009        4010        4111        4110
         4        4010        4011        4112        4111
         4        4011        4012        4113        4112
         4        4012        4013        4114        4113
         4        4013        4014        4115        4114
         4        4014        4015        4116        4115
         4        4015        4016        4117        4116
         4        4016        4017        4118        4117
         4        4017        4018        4119        4118
         4        4018        4019        4120        4119
         4        4019        4020        4121        4120
         4        4020        4021        4122        4121
         4        4021        4022        4123        4122
         4        4022        4023        4124        4123
         4        4023        4024        4125        4124
         4        4024        4025        4126        4125
         4        4025        4026        4127        4126
         4        4026        4027        4128        4127
         4        4027        4028        4129        4128
         4        4028        4029        4130        4129
         4        4029        4030        4131        4130
         4        4030        4031        4132        4131
         4        4031        4032        4133        4132
         4        4032        4033        4134        4133
         4        4033        4034        4135        4134
         4        4034        4035        4136        4135
         4        4035        4036        4137        4136
         4        4036        4037        4138        4137
         4        4037        4038        4139        4138
         4        4038        4039        4140        4139
         4        4040        4041        4142        4141
         4        4041        4042        4143        4142
         4        4042        4043        4144        4143
         4        4043        4044        4145        4144
         4        4044        4045        4146        4145
         4        4045        4046        4147        4146
         4        4046        4047        4148        4147
         4        4047        4048        4149        4148
         4        4048        4049        4150        4149
         4        4049        4050        4151        4150
         4        4050        4051        4152        4151
         4        4051        4052        4153        4152
         4        4052        4053        4154        4153
         4        4053        4054        4155        4154
         4        4054        4055        4156        4155
         4        4055        4056        4157        4156
         4        4056        4057        4158        4157
         4        4057        4058        4159        4158
         4        4058        4059        4160        4159
         4        4059        4060        4161        4160
         4        4060        4061        4162        4161
         4        4061        4062        4163        4162
         4        4062        4063        4164        4163
         4        4063        4064        4165        4164
         4        4064        4065        4166        4165
         4        4065        4066        4167        4166
         4        4066        4067        4168        4167
         4        4067        4068        4169        4168
         4        4068        4069        4170        4169
         4        4069        4070        4171        4170
         4        4070        4071        4172        4171
         4        4071        4072        4173        4172
         4        4072        4073        4174        4173
         4        4073        4074        4175        4174
         4        4074        4075        4176        4175
         4        4075        4076        4177        4176
         4        4076        4077        4178        4177
         4        4077        4078        4179        4178
         4        4078        4079        4180        4179
         4        4079        4080        4181        4180
         4        4080        4081        4182        4181
         4        4081        4082        4183        4182
         4        4082        4083        4184        4183
         4        4083        4084        4185        4184
         4        4084        4085        4186        4185
         4        4085        4086        4187        4186
         4        4086        4087        4188        4187
         4        4087        4088        4189        4188
         4        4088        4089        4190        4189
         4        4089        4090        4191        4190
         4        4090        4091        4192        4191
         4        4091        4092        4193        4192
         4        4092        4093        4194        4193
         4        4093        4094        4195        4194
         4        4094        4095        4196        4195
         4        4095        4096        4197        4196
         4        4096        4097        4198        4197
         4        4097        4098        4199        4198
         4        4098        4099        4200        4199
         4        4099        4100        4201        4200
         4        4100        4101        4202        4201
         4        4101        4102        4203        4202
         4        4102        4103        4204        4203
         4        4103        4104        4205        4204
         4        4104        4105        4206        4205
         4        4105        4106        4207        4206
         4        4106        4107        4208        4207
         4        4107        4108        4209        4208
         4        4108        4109        4210        4209
         4        4109        4110        4211        4210
         4        4110        4111        4212        4211
         4        4111        4112        4213        4212
         4        4112        4113        4214        4213
         4        4113        4114        4215        4214
         4        4114        4115        4216        4215
         4        4115        4116        4217        4216
         4        4116        4117        4218        4217
         4        4117        4118        4219        4218
         4        4118        4119        4220        4219
         4        4119        4120        4221        4220
         4        4120        4121        4222        4221
         4        4121        4122        4223        4222
         4        4122        4123        4224        4223
         4        4123        4124        4225        4224
         4        4124        4125        4226        4225
         4        4125        4126        4227        4226
         4        4126        4127        4228        4227
         4        4127        4128        4229        4228
         4        4128        4129        4230        4229
         4        4129        4130        4231        4230
         4        4130        4131        4232        4231
         4        4131        4132        4233        4232
         4        4132        4133        4234        4233
         4        4133        4134        4235        4234
         4        4134        4135        4236        4235
         4        4135        4136        4237        4236
         4        4136        4137        4238        4237
         4        4137        4138        4239        4238
         4        4138        4139        4240        4239
         4        4139        4140        4241        4240
         4        4141        4142        4243        4242
         4        4142        4143        4244        4243
         4        4143        4144        4245        4244
         4        4144        4145        4246        4245
         4        4145        4146        4247        4246
         4        4146        4147        4248        4247
         4        4147        4148        4249        4248
         4        4148        4149        4250        4249
         4        4149        4150        4251        4250
         4        4150        4151        4252        4251
         4        4151        4152        4253        4252
         4        4152        4153        4254        4253
         4        4153        4154        4255        4254
         4        4154        4155        4256        4255
         4        4155        4156        4257        4256
         4        4156        4157        4258        4257
         4        4157        4158        4259        4258
         4        4158        4159        4260        4259
         4        4159        4160        4261        4260
         4        4160        4161        4262        4261
         4        4161        4162        4263        4262
         4        4162        4163        4264        4263
         4        4163        4164        4265        4264
         4        4164        4165        4266        4265
         4        4165        4166        4267        4266
         4        4166        4167        4268        4267
         4        4167        4168        4269        4268
         4        4168        4169        4270        4269
         4        4169        4170        4271        4270
         4        4170        4171        4272        4271
         4        4171        4172        4273        4272
         4        4172        4173        4274        4273
         4        4173        4174        4275        4274
         4        4174        4175        4276        4275
         4        4175        4176        4277        4276
         4        4176        4177        4278        4277
         4        4177        4178        4279        4278
         4        4178        4179        4280        4279
         4        4179        4180        4281        4280
         4        4180        4181        4282        4281
         4        4181        4182        4283        4282
         4        4182        4183        4284        4283
         4        4183        4184        4285        4284
         4        4184        4185        4286        4285
         4        4185        4186        4287        4286
         4        4186        4187        4288        4287
         4        4187        4188        4289        4288
         4        4188        4189        4290        4289
         4        4189        4190        4291        4290
         4        4190        4191        4292        4291
         4        4191        4192        4293        4292
         4        4192        4193        4294        4293
         4        4193        4194        4295        4294
         4        4194        4195        4296        4295
         4        4195        4196        4297        4296
         4        4196        4197        4298        4297
         4        4197        4198        4299        4298
         4        4198        4199        4300        4299
         4        4199        4200        4301        4300
         4        4200        4201        4302        4301
         4        4201        4202        4303        4302
         4        4202        4203        4304        4303
         4        4203        4204        4305        4304
         4        4204        4205        4306        4305
         4        4205        4206        4307        4306
         4        4206        4207        4308        4307
         4        4207        4208        4309        4308
         4        4208        4209        4310        4309
         4        4209        4210        4311        4310
         4        4210        4211        4312        4311
         4        4211        4212        4313        4312
         4        4212        4213        4314        4313
         4        4213        4214        4315        4314
         4        4214        4215        4316        4315
         4        4215        4216        4317        4316
         4        4216        4217        4318        4317
         4        4217        4218        4319        4318
         4        4218        4219        4320        4319
         4        4219        4220        4321        4320
         4        4220        4221        4322        4321
         4        4221        4222        4323        4322
         4        4222        4223        4324        4323
         4        4223        4224        4325        4324
         4        4224        4225        4326        4325
         4        4225        4226        4327        4326
         4        4226        4227        4328        4327
         4        4227        4228        4329        4328
         4        4228        4229        4330        4329
         4        4229        4230        4331        4330
         4        4230        4231        4332        4331
         4        4231        4232        4333        4332
         4        4232        4233        4334        4333
         4        4233        4234        4335        4334
         4        4234        4235        4336        4335
         4        4235        4236        4337        4336
         4        4236        4237        4338        4337
         4        4237        4238        4339        4338
         4        4238        4239        4340        4339
         4        4239        4240        4341        4340
         4        4240        4241        4342        4341
         4        4242        4243        4344        4343
         4        4243        4244        4345        4344
         4        4244        4245        4346        4345
         4        4245        4246        4347        4346
         4        4246        4247        4348        4347
         4        4247        4248        4349        4348
         4        4248        4249        4350        4349
         4        4249        4250        4351        4350
         4        4250        4251        4352        4351
         4        4251        4252        4353        4352
         4        4252        4253        4354        4353
         4        4253        4254        4355        4354
         4        4254        4255        4356        4355
         4        4255        4256        4357        4356
         4        4256        4257        4358        4357
         4        4257        4258        4359        4358
         4        4258        4259        4360        4359
         4        4259        4260        4361        4360
         4        4260        4261        4362        4361
         4        4261        4262        4363        4362
         4        4262        4263        4364        4363
         4        4263        4264        4365        4364
         4        4264        4265        4366        4365
         4        4265        4266        4367        4366
         4        4266        4267        4368        4367
         4        4267        4268        4369        4368
         4        4268        4269        4370        4369
         4        4269        4270        4371        4370
         4        4270        4271        4372        4371
         4        4271        4272        4373        4372
         4        4272        4273        4374        4373
         4        4273        4274        4375        4374
         4        4274        4275        4376        4375
         4        4275        4276        4377        4376
         4        4276        4277        4378        4377
         4        4277        4278        4379        4378
         4        4278        4279        4380        4379
         4        4279        4280        4381        4380
         4        4280        4281        4382        4381
         4        4281        4282        4383        4382
         4        4282        4283        4384        4383
         4        4283        4284        4385        4384
         4        4284        4285        4386        4385
         4        4285        4286        4387        4386
         4        4286        4287        4388        4387
         4        4287        4288        4389        4388
         4        4288        4289        4390        4389
         4        4289        4290        4391        4390
         4        4290        4291        4392        4391
         4        4291        4292        4393        4392
         4        4292        4293        4394        4393
         4        4293        4294        4395        4394
         4        4294        4295        4396        4395
         4        4295        4296        4397        4396
         4        4296        4297        4398        4397
         4        4297        4298        4399        4398
         4        4298        4299        4400        4399
         4        4299        4300        4401        4400
         4        4300        4301        4402        4401
         4        4301        4302        4403        4402
         4        4302        4303        4404        4403
         4        4303        4304        4405        4404
         4        4304        4305        4406        4405
         4        4305        4306        4407        4406
         4        4306        4307        4408        4407
         4        4307        4308        4409        4408
         4        4308        4309        4410        4409
         4        4309        4310        4411        4410
         4        4310        4311        4412        4411
         4        4311        4312        4413        4412
         4        4312        4313        4414        4413
         4        4313        4314        4415        4414
         4        4314        4315        4416        4415
         4        4315        4316        4417        4416
         4        4316        4317        4418        4417
         4        4317        4318        4419        4418
         4        4318        4319        4420        4419
         4        4319        4320        4421        4420
         4        4320        4321        4422        4421
         4        4321        4322        4423        4422
         4        4322        4323        4424        4423
         4        4323        4324        4425        4424
         4        4324        4325        4426        4425
         4        4325        4326        4427        4426
         4        4326        4327        4428        4427
         4        4327        4328        4429        4428
         4        4328        4329        4430        4429
         4        4329        4330        4431        4430
         4        4330        4331        4432        4431
         4        4331        4332        4433        4432
         4        4332        4333        4434        4433
         4        4333        4334        4435        4434
         4        4334        4335        4436        4435
         4        4335        4336        4437        4436
         4        4336        4337        4438        4437
         4        4337        4338        4439        4438
         4        4338        4339        4440        4439
         4        4339        4340        4441        4440
         4        4340        4341        4442        4441
         4        4341        4342        4443        4442
         4        4343        4344        4445        4444
         4        4344        4345        4446        4445
         4        4345        4346        4447        4446
         4        4346        4347        4448        4447
         4        4347        4348        4449        4448
         4        4348        4349        4450        4449
         4        4349        4350        4451        4450
         4        4350        4351        4452        4451
         4        4351        4352        4453        4452
         4        4352        4353        4454        4453
         4        4353        4354        4455        4454
         4        4354        4355        4456        4455
         4        4355        4356        4457        4456
         4        4356        4357        4458        4457
         4        4357        4358        4459        4458
         4        4358        4359        4460        4459
         4        4359        4360        4461        4460
         4        4360        4361        4462        4461
         4        4361        4362        4463        4462
         4        4362        4363        4464        4463
         4        4363        4364        4465        4464
         4        4364        4365        4466        4465
         4        4365        4366        4467        4466
         4        4366        4367        4468        4467
         4        4367        4368        4469        4468
         4        4368        4369        4470        4469
         4        4369        4370        4471        4470
         4        4370        4371        4472        4471
         4        4371        4372        4473        4472
         4        4372        4373        4474        4473
         4        4373        4374        4475        4474
         4        4374        4375        4476        4475
         4        4375        4376        4477        4476
         4        4376        4377        4478        4477
         4        4377        4378        4479        4478
         4        4378        4379        4480        4479
         4        4379        4380        4481        4480
         4        4380        4381        4482        4481
         4        4381        4382        4483        4482
         4        4382        4383        4484        4483
         4        4383        4384        4485        4484
         4        4384        4385        4486        4485
         4        4385        4386        4487        4486
         4        4386        4387        4488        4487
         4        4387        4388        4489        4488
         4        4388        4389        4490        4489
         4        4389        4390        4491        4490
         4        4390        4391        4492        4491
         4        4391        4392        4493        4492
         4        4392        4393        4494        4493
         4        4393        4394        4495        4494
         4        4394        4395        4496        4495
         4        4395        4396        4497        4496
         4        4396        4397        4498        4497
         4        4397        4398        4499        4498
         4        4398        4399        4500        4499
         4        4399        4400        4501        4500
         4        4400        4401        4502        4501
         4        4401        4402        4503        4502
         4        4402        4403        4504        4503
         4        4403        4404        4505        4504
         4        4404        4405        4506        4505
         4        4405        4406        4507        4506
         4        4406        4407        4508        4507
         4        4407        4408        4509        4508
         4        4408        4409        4510        4509
         4        4409        4410        4511        4510
         4        4410        4411        4512        4511
         4        4411        4412        4513        4512
         4        4412        4413        4514        4513
         4        4413        4414        4515        4514
         4        4414        4415        4516        4515
         4        4415        4416        4517        4516
         4        4416        4417        4518        4517
         4        4417        4418        4519        4518
         4        4418        4419        4520        4519
         4        4419        4420        4521        4520
         4        4420        4421        4522        4521
         4        4421        4422        4523        4522
         4        4422        4423        4524        4523
         4        4423        4424        4525        4524
         4        4424        4425        4526        4525
         4        4425        4426        4527        4526
         4        4426        4427        4528        4527
         4        4427        4428        4529        4528
         4        4428        4429        4530        4529
         4        4429        4430        4531        4530
         4        4430        4431        4532        4531
         4        4431        4432        4533        4532
         4        4432        4433        4534        4533
         4        4433        4434        4535        4534
         4        4434        4435        4536        4535
         4        4435        4436        4537        4536
         4        4436        4437        4538        4537
         4        4437        4438        4539        4538
         4        4438        4439        4540        4539
         4        4439        4440        4541        4540
         4        4440        4441        4542        4541
         4        4441        4442        4543        4542
         4        4442        4443        4544        4543
         4        4444        4445        4546        4545
         4        4445        4446        4547        4546
         4        4446        4447        4548        4547
         4        4447        4448        4549        4548
         4        4448        4449        4550        4549
         4        4449        4450        4551        4550
         4        4450        4451        4552        4551
         4        4451        4452        4553        4552
         4        4452        4453        4554        4553
         4        4453        4454        4555        4554
         4        4454        4455        4556        4555
         4        4455        4456        4557        4556
         4        4456        4457        4558        4557
         4        4457        4458        4559        4558
         4        4458        4459        4560        4559
         4        4459        4460        4561        4560
         4        4460        4461        4562        4561
         4        4461        4462        4563        4562
         4        4462        4463        4564        4563
         4        4463        4464        4565        4564
         4        4464        4465        4566        4565
         4        4465        4466        4567        4566
         4        4466        4467        4568        4567
         4        4467        4468        4569        4568
         4        4468        4469        4570        4569
         4        4469        4470        4571        4570
         4        4470        4471        4572        4571
         4        4471        4472        4573        4572
         4        4472        4473        4574        4573
         4        4473        4474        4575        4574
         4        4474        4475        4576        4575
         4        4475        4476        4577        4576
         4        4476        4477        4578        4577
         4        4477        4478        4579        4578
         4        4478        4479        4580        4579
         4        4479        4480        4581        4580
         4        4480        4481        4582        4581
         4        4481        4482        4583        4582
         4        4482        4483        4584        4583
         4        4483        4484        4585        4584
         4        4484        4485        4586        4585
         4        4485        4486        4587        4586
         4        4486        4487        4588        4587
         4        4487        4488        4589        4588
         4        4488        4489        4590        4589
         4        4489        4490        4591        4590
         4        4490        4491        4592        4591
         4        4491        4492        4593        4592
         4        4492        4493        4594        4593
         4        4493        4494        4595        4594
         4        4494        4495        4596        4595
         4        4495        4496        4597        4596
         4        4496        4497        4598        4597
         4        4497        4498        4599        4598
         4        4498        4499        4600        4599
         4        4499        4500        4601        4600
         4        4500        4501        4602        4601
         4        4501        4502        4603        4602
         4        4502        4503        4604        4603
         4        4503        4504        4605        4604
         4        4504        4505        4606        4605
         4        4505        4506        4607        4606
         4        4506        4507        4608        4607
         4        4507        4508        4609        4608
         4        4508        4509        4610        4609
         4        4509        4510        4611        4610
         4        4510        4511        4612        4611
         4        4511        4512        4613        4612
         4        4512        4513        4614        4613
         4        4513        4514        4615        4614
         4        4514        4515        4616        4615
         4        4515        4516        4617        4616
         4        4516        4517        4618        4617
         4        4517        4518        4619        4618
         4        4518        4519        4620        4619
         4        4519        4520        4621        4620
         4        4520        4521        4622        4621
         4        4521        4522        4623        4622
         4        4522        4523        4624        4623
         4        4523        4524        4625        4624
         4        4524        4525        4626        4625
         4        4525        4526        4627        4626
         4        4526        4527        4628        4627
         4        4527        4528        4629        4628
         4        4528        4529        4630        4629
         4        4529        4530        4631        4630
         4        4530        4531        4632        4631
         4        4531        4532        4633        4632
         4        4532        4533        4634        4633
         4        4533        4534        4635        4634
         4        4534        4535        4636        4635
         4        4535        4536        4637        4636
         4        4536        4537        4638        4637
         4        4537        4538        4639        4638
         4        4538        4539        4640        4639
         4        4539        4540        4641        4640
         4        4540        4541        4642        4641
         4        4541        4542        4643        4642
         4        4542        4543        4644        4643
         4        4543        4544        4645        4644
         4        4545        4546        4647        4646
         4        4546        4547        4648        4647
         4        4547        4548        4649        4648
         4        4548        4549        4650        4649
         4        4549        4550        4651        4650
         4        4550        4551        4652        4651
         4        4551        4552        4653        4652
         4        4552        4553        4654        4653
         4        4553        4554        4655        4654
         4        4554        4555        4656        4655
         4        4555        4556        4657        4656
         4        4556        4557        4658        4657
         4        4557        4558        4659        4658
         4        4558        4559        4660        4659
         4        4559        4560        4661        4660
         4        4560        4561        4662        4661
         4        4561        4562        4663        4662
         4        4562        4563        4664        4663
         4        4563        4564        4665        4664
         4        4564        4565        4666        4665
         4        4565        4566        4667        4666
         4        4566        4567        4668        4667
         4        4567        4568        4669        4668
         4        4568        4569        4670        4669
         4        4569        4570        4671        4670
         4        4570        4571        4672        4671
         4        4571        4572        4673        4672
         4        4572        4573        4674        4673
         4        4573        4574        4675        4674
         4        4574        4575        4676        4675
         4        4575        4576        4677        4676
         4        4576        4577        4678        4677
         4        4577        4578        4679        4678
         4        4578        4579        4680        4679
         4        4579        4580        4681        4680
         4        4580        4581        4682        4681
         4        4581        4582        4683        4682
         4        4582        4583        4684        4683
         4        4583        4584        4685        4684
         4        4584        4585        4686        4685
         4        4585        4586        4687        4686
         4        4586        4587        4688        4687
         4        4587        4588        4689        4688
         4        4588        4589        4690        4689
         4        4589        4590        4691        4690
         4        4590        4591        4692        4691
         4        4591        4592        4693        4692
         4        4592        4593        4694        4693
         4        4593        4594        4695        4694
         4        4594        4595        4696        4695
         4        4595        4596        4697        4696
         4        4596        4597        4698        4697
         4        4597        4598        4699        4698
         4        4598        4599        4700        4699
         4        4599        4600        4701        4700
         4        4600        4601        4702        4701
         4        4601        4602        4703        4702
         4        4602        4603        4704        4703
         4        4603        4604        4705        4704
         4        4604        4605        4706        4705
         4        4605        4606        4707        4706
         4        4606        4607        4708        4707
         4        4607        4608        4709        4708
         4        4608        4609        4710        4709
         4        4609        4610        4711        4710
         4        4610        4611        4712        4711
         4        4611        4612        4713        4712
         4        4612        4613        4714        4713
         4        4613        4614        4715        4714
         4        4614        4615        4716        4715
         4        4615        4616        4717        4716
         4        4616        4617        4718        4717
         4        4617        4618        4719        4718
         4        4618        4619        4720        4719
         4        4619        4620        4721        4720
         4        4620        4621        4722        4721
         4        4621        4622        4723        4722
         4        4622        4623        4724        4723
         4        4623        4624        4725        4724
         4        4624        4625        4726        4725
         4        4625        4626        4727        4726
         4        4626        4627        4728        4727
         4        4627        4628        4729        4728
         4        4628        4629        4730        4729
         4        4629        4630        4731        4730
         4        4630        4631        4732        4731
         4        4631        4632        4733        4732
         4        4632        4633        4734        4733
         4        4633        4634        4735        4734
         4        4634        4635        4736        4735
         4        4635        4636        4737        4736
         4        4636        4637        4738        4737
         4        4637        4638        4739        4738
         4        4638        4639        4740        4739
         4        4639        4640        4741        4740
         4        4640        4641        4742        4741
         4        4641        4642        4743        4742
         4        4642        4643        4744        4743
         4        4643        4644        4745        4744
         4        4644        4645        4746        4745
         4        4646        4647        4748        4747
         4        4647        4648        4749        4748
         4        4648        4649        4750        4749
         4        4649        4650        4751        4750
         4        4650        4651        4752        4751
         4        4651        4652        4753        4752
         4        4652        4653        4754        4753
         4        4653        4654        4755        4754
         4        4654        4655        4756        4755
         4        4655        4656        4757        4756
         4        4656        4657        4758        4757
         4        4657        4658        4759        4758
         4        4658        4659        4760        4759
         4        4659        4660        4761        4760
         4        4660        4661        4762        4761
         4        4661        4662        4763        4762
         4        4662        4663        4764        4763
         4        4663        4664        4765        4764
         4        4664        4665        4766        4765
         4        4665        4666        4767        4766
         4        4666        4667        4768        4767
         4        4667        4668        4769        4768
         4        4668        4669        4770        4769
         4        4669        4670        4771        4770
         4        4670        4671        4772        4771
         4        4671        4672        4773        4772
         4        4672        4673        4774        4773
         4        4673        4674        4775        4774
         4        4674        4675        4776        4775
         4        4675        4676        4777        4776
         4        4676        4677        4778        4777
         4        4677        4678        4779        4778
         4        4678        4679        4780        4779
         4        4679        4680        4781        4780
         4        4680        4681        4782        4781
         4        4681        4682        4783        4782
         4        4682        4683        4784        4783
         4        4683        4684        4785        4784
         4        4684        4685        4786        4785
         4        4685        4686        4787        4786
         4        4686        4687        4788        4787
         4        4687        4688        4789        4788
         4        4688        4689        4790        4789
         4        4689        4690        4791        4790
         4        4690        4691        4792        4791
         4        4691        4692        4793        4792
         4        4692        4693        4794        4793
         4        4693        4694        4795        4794
         4        4694        4695        4796        4795
         4        4695        4696        4797        4796
         4        4696        4697        4798        4797
         4        4697        4698        4799        4798
         4        4698        4699        4800        4799
         4        4699        4700        4801        4800
         4        4700        4701        4802        4801
         4        4701        4702        4803        4802
         4        4702        4703        4804        4803
         4        4703        4704        4805        4804
         4        4704        4705        4806        4805
         4        4705        4706        4807        4806
         4        4706        4707        4808        4807
         4        4707        4708        4809        4808
         4        4708        4709        4810        4809
         4        4709        4710        4811        4810
         4        4710        4711        4812        4811
         4        4711        4712        4813        4812
         4        4712        4713        4814        4813
         4        4713        4714        4815        4814
         4        4714        4715        4816        4815
         4        4715        4716        4817        4816
         4        4716        4717        4818        4817
         4        4717        4718        4819        4818
         4        4718        4719        4820        4819
         4        4719        4720        4821        4820
         4        4720        4721        4822        4821
         4        4721        4722        4823        4822
         4        4722        4723        4824        4823
         4        4723        4724        4825        4824
         4        4724        4725        4826        4825
         4        4725        4726        4827        4826
         4        4726        4727        4828        4827
         4        4727        4728        4829        4828
         4        4728        4729        4830        4829
         4        4729        4730        4831        4830
         4        4730        4731        4832        4831
         4        4731        4732        4833        4832
         4        4732        4733        4834        4833
         4        4733        4734        4835        4834
         4        4734        4735        4836        4835
         4        4735        4736        4837        4836
         4        4736        4737        4838        4837
         4        4737        4738        4839        4838
         4        4738        4739        4840        4839
         4        4739        4740        4841        4840
         4        4740        4741        4842        4841
         4        4741        4742        4843        4842
         4        4742        4743        4844        4843
         4        4743        4744        4845        4844
         4        4744        4745        4846        4845
         4        4745        4746        4847        4846
         4        4747        4748        4849        4848
         4        4748        4749        4850        4849
         4        4749        4750        4851        4850
         4        4750        4751        4852        4851
         4        4751        4752        4853        4852
         4        4752        4753        4854        4853
         4        4753        4754        4855        4854
         4        4754        4755        4856        4855
         4        4755        4756        4857        4856
         4        4756        4757        4858        4857
         4        4757        4758        4859        4858
         4        4758        4759        4860        4859
         4        4759        4760        4861        4860
         4        4760        4761        4862        4861
         4        4761        4762        4863        4862
         4        4762        4763        4864        4863
         4        4763        4764        4865        4864
         4        4764        4765        4866        4865
         4        4765        4766        4867        4866
         4        4766        4767        4868        4867
         4        4767        4768        4869        4868
         4        4768        4769        4870        4869
         4        4769        4770        4871        4870
         4        4770        4771        4872        4871
         4        4771        4772        4873        4872
         4        4772        4773        4874        4873
         4        4773        4774        4875        4874
         4        4774        4775        4876        4875
         4        4775        4776        4877        4876
         4        4776        4777        4878        4877
         4        4777        4778        4879        4878
         4        4778        4779        4880        4879
         4        4779        4780        4881        4880
         4        4780        4781        4882        4881
         4        4781        4782        4883        4882
         4        4782        4783        4884        4883
         4        4783        4784        4885        4884
         4        4784        4785        4886        4885
         4        4785        4786        4887        4886
         4        4786        4787        4888        4887
         4        4787        4788        4889        4888
         4        4788        4789        4890        4889
         4        4789        4790        4891        4890
         4        4790        4791        4892        4891
         4        4791        4792        4893        4892
         4        4792        4793        4894        4893
         4        4793        4794        4895        4894
         4        4794        4795        4896        4895
         4        4795        4796        4897        4896
         4        4796        4797        4898        4897
         4        4797        4798        4899        4898
         4        4798        4799        4900        4899
         4        4799        4800        4901        4900
         4        4800        4801        4902        4901
         4        4801        4802        4903        4902
         4        4802        4803        4904        4903
         4        4803        4804        4905        4904
         4        4804        4805        4906        4905
         4        4805        4806        4907        4906
         4        4806        4807        4908        4907
         4        4807        4808        4909        4908
         4        4808        4809        4910        4909
         4        4809        4810        4911        4910
         4        4810        4811        4912        4911
         4        4811        4812        4913        4912
         4        4812        4813        4914        4913
         4        4813        4814        4915        4914
         4        4814        4815        4916        4915
         4        4815        4816        4917        4916
         4        4816        4817        4918        4917
         4        4817        4818        4919        4918
         4        4818        4819        4920        4919
         4        4819        4820        4921        4920
         4        4820        4821        4922        4921
         4        4821        4822        4923        4922
         4        4822        4823        4924        4923
         4        4823        4824        4925        4924
         4        4824        4825        4926        4925
         4        4825        4826        4927        4926
         4        4826        4827        4928        4927
         4        4827        4828        4929        4928
         4        4828        4829        4930        4929
         4        4829        4830        4931        4930
         4        4830        4831        4932        4931
         4        4831        4832        4933        4932
         4        4832        4833        4934        4933
         4        4833        4834        4935        4934
         4        4834        4835        4936        4935
         4        4835        4836        4937        4936
         4        4836        4837        4938        4937
         4        4837        4838        4939        4938
         4        4838        4839        4940        4939
         4        4839        4840        4941        4940
         4        4840        4841        4942        4941
         4        4841        4842        4943        4942
         4        4842        4843        4944        4943
         4        4843        4844        4945        4944
         4        4844        4845        4946        4945
         4        4845        4846        4947        4946
         4        4846        4847        4948        4947
         4        4848        4849        4950        4949
         4        4849        4850        4951        4950
         4        4850        4851        4952        4951
         4        4851        4852        4953        4952
         4        4852        4853        4954        4953
         4        4853        4854        4955        4954
         4        4854        4855        4956        4955
         4        4855        4856        4957        4956
         4        4856        4857        4958        4957
         4        4857        4858        4959        4958
         4        4858        4859        4960        4959
         4        4859        4860        4961        4960
         4        4860        4861        4962        4961
         4        4861        4862        4963        4962
         4        4862        4863        4964        4963
         4        4863        4864        4965        4964
         4        4864        4865        4966        4965
         4        4865        4866        4967        4966
         4        4866        4867        4968        4967
         4        4867        4868        4969        4968
         4        4868        4869        4970        4969
         4        4869        4870        4971        4970
         4        4870        4871        4972        4971
         4        4871        4872        4973        4972
         4        4872        4873        4974        4973
         4        4873        4874        4975        4974
         4        4874        4875        4976        4975
         4        4875        4876        4977        4976
         4        4876        4877        4978        4977
         4        4877        4878        4979        4978
         4        4878        4879        4980        4979
         4        4879        4880        4981        4980
         4        4880        4881        4982        4981
         4        4881        4882        4983        4982
         4        4882        4883        4984        4983
         4        4883        4884        4985        4984
         4        4884        4885        4986        4985
         4        4885        4886        4987        4986
         4        4886        4887        4988        4987
         4        4887        4888        4989        4988
         4        4888        4889        4990        4989
         4        4889        4890        4991        4990
         4        4890        4891        4992        4991
         4        4891        4892        4993        4992
         4        4892        4893        4994        4993
         4        4893        4894        4995        4994
         4        4894        4895        4996        4995
         4        4895        4896        4997        4996
         4        4896        4897        4998        4997
         4        4897        4898        4999        4998
         4        4898        4899        5000        4999
         4        4899        4900        5001        5000
         4        4900        4901        5002        5001
         4        4901        4902        5003        5002
         4        4902        4903        5004        5003
         4        4903        4904        5005        5004
         4        4904        4905        5006        5005
         4        4905        4906        5007        5006
         4        4906        4907        5008        5007
         4        4907        4908        5009        5008
         4        4908        4909        5010        5009
         4        4909        4910        5011        5010
         4        4910        4911        5012        5011
         4        4911        4912        5013        5012
         4        4912        4913        5014        5013
         4        4913        4914        5015        5014
         4        4914        4915        5016        5015
         4        4915        4916        5017        5016
         4        4916        4917        5018        5017
         4        4917        4918        5019        5018
         4        4918        4919        5020        5019
         4        4919        4920        5021        5020
         4        4920        4921        5022        5021
         4        4921        4922        5023        5022
         4        4922        4923        5024        5023
         4        4923        4924        5025        5024
         4        4924        4925        5026        5025
         4        4925        4926        5027        5026
         4        4926        4927        5028        5027
         4        4927        4928        5029        5028
         4        4928        4929        5030        5029
         4        4929        4930        5031        5030
         4        4930        4931        5032        5031
         4        4931        4932        5033        5032
         4        4932        4933        5034        5033
         4        4933        4934        5035        5034
         4        4934        4935        5036        5035
         4        4935        4936        5037        5036
         4        4936        4937        5038        5037
         4        4937        4938        5039        5038
         4        4938        4939        5040        5039
         4        4939        4940        5041        5040
         4        4940        4941        5042        5041
         4        4941        4942        5043        5042
         4        4942        4943        5044        5043
         4        4943        4944        5045        5044
         4        4944        4945        5046        5045
         4        4945        4946        5047        5046
         4        4946        4947        5048        5047
         4        4947        4948        5049        5048
         4        4949        4950        5051        5050
         4        4950        4951        5052        5051
         4        4951        4952        5053        5052
         4        4952        4953        5054        5053
         4        4953        4954        5055        5054
         4        4954        4955        5056        5055
         4        4955        4956        5057        5056
         4        4956        4957        5058        5057
         4        4957        4958        5059        5058
         4        4958        4959        5060        5059
         4        4959        4960        5061        5060
         4        4960        4961        5062        5061
         4        4961        4962        5063        5062
         4        4962        4963        5064        5063
         4        4963        4964        5065        5064
         4        4964        4965        5066        5065
         4        4965        4966        5067        5066
         4        4966        4967        5068        5067
         4        4967        4968        5069        5068
         4        4968        4969        5070        5069
         4        4969        4970        5071        5070
         4        4970        4971        5072        5071
         4        4971        4972        5073        5072
         4        4972        4973        5074        5073
         4        4973        4974        5075        5074
         4        4974        4975        5076        5075
         4        4975        4976        5077        5076
         4        4976        4977        5078        5077
         4        4977        4978        5079        5078
         4        4978        4979        5080        5079
         4        4979        4980        5081        5080
         4        4980        4981        5082        5081
         4        4981        4982        5083        5082
         4        4982        4983        5084        5083
         4        4983        4984        5085        5084
         4        4984        4985        5086        5085
         4        4985        4986        5087        5086
         4        4986        4987        5088        5087
         4        4987        4988        5089        5088
         4        4988        4989        5090        5089
         4        4989        4990        5091        5090
         4        4990        4991        5092        5091
         4        4991        4992        5093        5092
         4        4992        4993        5094        5093
         4        4993        4994        5095        5094
         4        4994        4995        5096        5095
         4        4995        4996        5097        5096
         4        4996        4997        5098        5097
         4        4997        4998        5099        5098
         4        4998        4999        5100        5099
         4        4999        5000        5101        5100
         4        5000        5001        5102        5101
         4        5001        5002        5103        5102
         4        5002        5003        5104        5103
         4        5003        5004        5105        5104
         4        5004        5005        5106        5105
         4        5005        5006        5107        5106
         4        5006        5007        5108        5107
         4        5007        5008        5109        5108
         4        5008        5009        5110        5109
         4        5009        5010        5111        5110
         4        5010        5011        5112        5111
         4        5011        5012        5113        5112
         4        5012        5013        5114        5113
         4        5013        5014        5115        5114
         4        5014        5015        5116        5115
         4        5015        5016        5117        5116
         4        5016        5017        5118        5117
         4        5017        5018        5119        5118
         4        5018        5019        5120        5119
         4        5019        5020        5121        5120
         4        5020        5021        5122        5121
         4        5021        5022        5123        5122
         4        5022        5023        5124        5123
         4        5023        5024        5125        5124
         4        5024        5025        5126        5125
         4        5025        5026        5127        5126
         4        5026        5027        5128        5127
         4        5027        5028        5129        5128
         4        5028        5029        5130        5129
         4        5029        5030        5131        5130
         4        5030        5031        5132        5131
         4        5031        5032        5133        5132
         4        5032        5033        5134        5133
         4        5033        5034        5135        5134
         4        5034        5035        5136        5135
         4        5035        5036        5137        5136
         4        5036        5037        5138        5137
         4        5037        5038        5139        5138
         4        5038        5039        5140        5139
         4        5039        5040        5141        5140
         4        5040        5041        5142        5141
         4        5041        5042        5143        5142
         4        5042        5043        5144        5143
         4        5043        5044        5145        5144
         4        5044        5045        5146        5145
         4        5045        5046        5147        5146
         4        5046        5047        5148        5147
         4        5047        5048        5149        5148
         4        5048        5049        5150        5149
CELL_TYPES       5000
9
9
9
9
9
9
9
9
9
9
9
9
9
9
9
9
9
9
9
9
9
9
9
9
9
9
9
9
9
9
9
9
9
9
9
9
9
9
9
9
9
9
9
9
9
9
9
9
9
9
9
9
9
9
9
9
9
9
9
9
9
9
9
9
9
9
9
9
9
9
9
9
9
9
9
9
9
9
9
9
9
9
9
9
9
9
9
9
9
9
9
9
9
9
9
9
9
9
9
9
9
9
9
9
9
9
9
9
9
9
9
9
9
9
9
9
9
9
9
9
9
9
9
9
9
9
9
9
9
9
9
9
9
9
9
9
9
9
9
9
9
9
9
9
9
9
9
9
9
9
9
9
9
9
9
9
9
9
9
9
9
9
9
9
9
9
9
9
9
9
9
9
9
9
9
9
9
9
9
9
9
9
9
9
9
9
9
9
9
9
9
9
9
9
9
9
9
9
9
9
9
9
9
9
9
9
9
9
9
9
9
9
9
9
9
9
9
9
9
9
9
9
9
9
9
9
9
9
9
9
9
9
9
9
9
9
9
9
9
9
9
9
9
9
9
9
9
9
9
9
9
9
9
9
9
9
9
9
9
9
9
9
9
9
9
9
9
9
9
9
9
9
9
9
9
9
9
9
9
9
9
9
9
9
9
9
9
9
9
9
9
9
9
9
9
9
9
9
9
9
9
9
9
9
9
9
9
9
9
9
9
9
9
9
9
9
9
9
9
9
9
9
9
9
9
9
9
9
9
9
9
9
9
9
9
9
9
9
9
9
9
9
9
9
9
9
9
9
9
9
9
9
9
9
9
9
9
9
9
9
9
9
9
9
9
9
9
9
9
9
9
9
9
9
9
9
9
9
9
9
9
9
9
9
9
9
9
9
9
9
9
9
9
9
9
9
9
9
9
9
9
9
9
9
9
9
9
9
9
9
9
9
9
9
9
9
9
9
9
9
9
9
9
9
9
9
9
9
9
9
9
9
9
9
9
9
9
9
9
9
9
9
9
9
9
9
9
9
9
9
9
9
9
9
9
9
9
9
9
9
9
9
9
9
9
9
9
9
9
9
9
9
9
9
9
9
9
9
9
9
9
9
9
9
9
9
9
9
9
9
9
9
9
9
9
9
9
9
9
9
9
9
9
9
9
9
9
9
9
9
9
9
9
9
9
9
9
9
9
9
9
9
9
9
9
9
9
9
9
9
9
9
9
9
9
9
9
9
9
9
9
9
9
9
9
9
9
9
9
9
9
9
9
9
9
9
9
9
9
9
9
9
9
9
9
9
9
9
9
9
9
9
9
9
9
9
9
9
9
9
9
9
9
9
9
9
9
9
9
9
9
9
9
9
9
9
9
9
9
9
9
9
9
9
9
9
9
9
9
9
9
9
9
9
9
9
9
9
9
9
9
9
9
9
9
9
9
9
9
9
9
9
9
9
9
9
9
9
9
9
9
9
9
9
9
9
9
9
9
9
9
9
9
9
9
9
9
9
9
9
9
9
9
9
9
9
9
9
9
9
9
9
9
9
9
9
9
9
9
9
9
9
9
9
9
9
9
9
9
9
9
9
9
9
9
9
9
9
9
9
9
9
9
9
9
9
9
9
9
9
9
9
9
9
9
9
9
9
9
9
9
9
9
9
9
9
9
9
9
9
9
9
9
9
9
9
9
9
9
9
9
9
9
9
9
9
9
9
9
9
9
9
9
9
9
9
9
9
9
9
9
9
9
9
9
9
9
9
9
9
9
9
9
9
9
9
9
9
9
9
9
9
9
9
9
9
9
9
9
9
9
9
9
9
9
9
9
9
9
9
9
9
9
9
9
9
9
9
9
9
9
9
9
9
9
9
9
9
9
9
9
9
9
9
9
9
9
9
9
9
9
9
9
9
9
9
9
9
9
9
9
9
9
9
9
9
9
9
9
9
9
9
9
9
9
9
9
9
9
9
9
9
9
9
9
9
9
9
9
9
9
9
9
9
9
9
9
9
9
9
9
9
9
9
9
9
9
9
9
9
9
9
9
9
9
9
9
9
9
9
9
9
9
9
9
9
9
9
9
9
9
9
9
9
9
9
9
9
9
9
9
9
9
9
9
9
9
9
9
9
9
9
9
9
9
9
9
9
9
9
9
9
9
9
9
9
9
9
9
9
9
9
9
9
9
9
9
9
9
9
9
9
9
9
9
9
9
9
9
9
9
9
9
9
9
9
9
9
9
9
9
9
9
9
9
9
9
9
9
9
9
9
9
9
9
9
9
9
9
9
9
9
9
9
9
9
9
9
9
9
9
9
9
9
9
9
9
9
9
9
9
9
9
9
9
9
9
9
9
9
9
9
9
9
9
9
9
9
9
9
9
9
9
9
9
9
9
9
9
9
9
9
9
9
9
9
9
9
9
9
9
9
9
9
9
9
9
9
9
9
9
9
9
9
9
9
9
9
9
9
9
9
9
9
9
9
9
9
9
9
9
9
9
9
9
9
9
9
9
9
9
9
9
9
9
9
9
9
9
9
9
9
9
9
9
9
9
9
9
9
9
9
9
9
9
9
9
9
9
9
9
9
9
9
9
9
9
9
9
9
9
9
9
9
9
9
9
9
9
9
9
9
9
9
9
9
9
9
9
9
9
9
9
9
9
9
9
9
9
9
9
9
9
9
9
9
9
9
9
9
9
9
9
9
9
9
9
9
9
9
9
9
9
9
9
9
9
9
9
9
9
9
9
9
9
9
9
9
9
9
9
9
9
9
9
9
9
9
9
9
9
9
9
9
9
9
9
9
9
9
9
9
9
9
9
9
9
9
9
9
9
9
9
9
9
9
9
9
9
9
9
9
9
9
9
9
9
9
9
9
9
9
9
9
9
9
9
9
9
9
9
9
9
9
9
9
9
9
9
9
9
9
9
9
9
9
9
9
9
9
9
9
9
9
9
9
9
9
9
9
9
9
9
9
9
9
9
9
9
9
9
9
9
9
9
9
9
9
9
9
9
9
9
9
9
9
9
9
9
9
9
9
9
9
9
9
9
9
9
9
9
9
9
9
9
9
9
9
9
9
9
9
9
9
9
9
9
9
9
9
9
9
9
9
9
9
9
9
9
9
9
9
9
9
9
9
9
9
9
9
9
9
9
9
9
9
9
9
9
9
9
9
9
9
9
9
9
9
9
9
9
9
9
9
9
9
9
9
9
9
9
9
9
9
9
9
9
9
9
9
9
9
9
9
9
9
9
9
9
9
9
9
9
9
9
9
9
9
9
9
9
9
9
9
9
9
9
9
9
9
9
9
9
9
9
9
9
9
9
9
9
9
9
9
9
9
9
9
9
9
9
9
9
9
9
9
9
9
9
9
9
9
9
9
9
9
9
9
9
9
9
9
9
9
9
9
9
9
9
9
9
9
9
9
9
9
9
9
9
9
9
9
9
9
9
9
9
9
9
9
9
9
9
9
9
9
9
9
9
9
9
9
9
9
9
9
9
9
9
9
9
9
9
9
9
9
9
9
9
9
9
9
9
9
9
9
9
9
9
9
9
9
9
9
9
9
9
9
9
9
9
9
9
9
9
9
9
9
9
9
9
9
9
9
9
9
9
9
9
9
9
9
9
9
9
9
9
9
9
9
9
9
9
9
9
9
9
9
9
9
9
9
9
9
9
9
9
9
9
9
9
9
9
9
9
9
9
9
9
9
9
9
9
9
9
9
9
9
9
9
9
9
9
9
9
9
9
9
9
9
9
9
9
9
9
9
9
9
9
9
9
9
9
9
9
9
9
9
9
9
9
9
9
9
9
9
9
9
9
9
9
9
9
9
9
9
9
9
9
9
9
9
9
9
9
9
9
9
9
9
9
9
9
9
9
9
9
9
9
9
9
9
9
9
9
9
9
9
9
9
9
9
9
9
9
9
9
9
9
9
9
9
9
9
9
9
9
9
9
9
9
9
9
9
9
9
9
9
9
9
9
9
9
9
9
9
9
9
9
9
9
9
9
9
9
9
9
9
9
9
9
9
9
9
9
9
9
9
9
9
9
9
9
9
9
9
9
9
9
9
9
9
9
9
9
9
9
9
9
9
9
9
9
9
9
9
9
9
9
9
9
9
9
9
9
9
9
9
9
9
9
9
9
9
9
9
9
9
9
9
9
9
9
9
9
9
9
9
9
9
9
9
9
9
9
9
9
9
9
9
9
9
9
9
9
9
9
9
9
9
9
9
9
9
9
9
9
9
9
9
9
9
9
9
9
9
9
9
9
9
9
9
9
9
9
9
9
9
9
9
9
9
9
9
9
9
9
9
9
9
9
9
9
9
9
9
9
9
9
9
9
9
9
9
9
9
9
9
9
9
9
9
9
9
9
9
9
9
9
9
9
9
9
9
9
9
9
9
9
9
9
9
9
9
9
9
9
9
9
9
9
9
9
9
9
9
9
9
9
9
9
9
9
9
9
9
9
9
9
9
9
9
9
9
9
9
9
9
9
9
9
9
9
9
9
9
9
9
9
9
9
9
9
9
9
9
9
9
9
9
9
9
9
9
9
9
9
9
9
9
9
9
9
9
9
9
9
9
9
9
9
9
9
9
9
9
9
9
9
9
9
9
9
9
9
9
9
9
9
9
9
9
9
9
9
9
9
9
9
9
9
9
9
9
9
9
9
9
9
9
9
9
9
9
9
9
9
9
9
9
9
9
9
9
9
9
9
9
9
9
9
9
9
9
9
9
9
9
9
9
9
9
9
9
9
9
9
9
9
9
9
9
9
9
9
9
9
9
9
9
9
9
9
9
9
9
9
9
9
9
9
9
9
9
9
9
9
9
9
9
9
9
9
9
9
9
9
9
9
9
9
9
9
9
9
9
9
9
9
9
9
9
9
9
9
9
9
9
9
9
9
9
9
9
9
9
9
9
9
9
9
9
9
9
9
9
9
9
9
9
9
9
9
9
9
9
9
9
9
9
9
9
9
9
9
9
9
9
9
9
9
9
9
9
9
9
9
9
9
9
9
9
9
9
9
9
9
9
9
9
9
9
9
9
9
9
9
9
9
9
9
9
9
9
9
9
9
9
9
9
9
9
9
9
9
9
9
9
9
9
9
9
9
9
9
9
9
9
9
9
9
9
9
9
9
9
9
9
9
9
9
9
9
9
9
9
9
9
9
9
9
9
9
9
9
9
9
9
9
9
9
9
9
9
9
9
9
9
9
9
9
9
9
9
9
9
9
9
9
9
9
9
9
9
9
9
9
9
9
9
9
9
9
9
9
9
9
9
9
9
9
9
9
9
9
9
9
9
9
9
9
9
9
9
9
9
9
9
9
9
9
9
9
9
9
9
9
9
9
9
9
9
9
9
9
9
9
9
9
9
9
9
9
9
9
9
9
9
9
9
9
9
9
9
9
9
9
9
9
9
9
9
9
9
9
9
9
9
9
9
9
9
9
9
9
9
9
9
9
9
9
9
9
9
9
9
9
9
9
9
9
9
9
9
9
9
9
9
9
9
9
9
9
9
9
9
9
9
9
9
9
9
9
9
9
9
9
9
9
9
9
9
9
9
9
9
9
9
9
9
9
9
9
9
9
9
9
9
9
9
9
9
9
9
9
9
9
9
9
9
9
9
9
9
9
9
9
9
9
9
9
9
9
9
9
9
9
9
9
9
9
9
9
9
9
9
9
9
9
9
9
9
9
9
9
9
9
9
9
9
9
9
9
9
9
9
9
9
9
9
9
9
9
9
9
9
9
9
9
9
9
9
9
9
9
9
9
9
9
9
9
9
9
9
9
9
9
9
9
9
9
9
9
9
9
9
9
9
9
9
9
9
9
9
9
9
9
9
9
9
9
9
9
9
9
9
9
9
9
9
9
9
9
9
9
9
9
9
9
9
9
9
9
9
9
9
9
9
9
9
9
9
9
9
9
9
9
9
9
9
9
9
9
9
9
9
9
9
9
9
9
9
9
9
9
9
9
9
9
9
9
9
9
9
9
9
9
9
9
9
9
9
9
9
9
9
9
9
9
9
9
9
9
9
9
9
9
9
9
9
9
9
9
9
9
9
9
9
9
9
9
9
9
9
9
9
9
9
9
9
9
9
9
9
9
9
9
9
9
9
9
9
9
9
9
9
9
9
9
9
9
9
9
9
9
9
9
9
9
9
9
9
9
9
9
9
9
9
9
9
9
9
9
9
9
9
9
9
9
9
9
9
9
9
9
9
9
9
9
9
9
9
9
9
9
9
9
9
9
9
9
9
9
9
9
9
9
9
9
9
9
9
9
9
9
9
9
9
9
9
9
9
9
9
9
9
9
9
9
9
9
9
9
9
9
9
9
9
9
9
9
9
9
9
9
9
9
9
9
9
9
9
9
9
9
9
9
9
9
9
9
9
9
9
9
9
9
9
9
9
9
9
9
9
9
9
9
9
9
9
9
9
9
9
9
9
9
9
9
9
9
9
9
9
9
9
9
9
9
9
9
9
9
9
9
9
9
9
9
9
9
9
9
9
9
9
9
9
9
9
9
9
9
9
9
9
9
9
9
9
9
9
9
9
9
9
9
9
9
9
9
9
9
9
9
9
9
9
9
9
9
9
9
9
9
9
9
9
9
9
9
9
9
9
9
9
9
9
9
9
9
9
9
9
9
9
9
9
9
9
9
9
9
9
9
9
9
9
9
9
9
9
9
9
9
9
9
9
9
9
9
9
9
9
9
9
9
9
9
9
9
9
9
9
9
9
9
9
9
9
9
9
9
9
9
9
9
9
9
9
9
9
9
9
9
9
9
9
9
9
9
9
9
9
9
9
9
9
9
9
9
9
9
9
9
9
9
9
9
9
9
9
9
9
9
9
9
9
9
9
9
9
9
9
9
9
9
9
9
9
9
9
9
9
9
9
9
9
9
9
9
9
9
9
9
9
9
9
9
9
9
9
9
9
9
9
9
9
9
9
9
9
9
9
9
9
9
9
9
9
9
9
9
9
9
9
9
9
9
9
9
9
9
9
9
9
9
9
9
9
9
9
9
9
9
9
9
9
9
9
9
9
9
9
9
9
9
9
9
9
9
9
9
9
9
9
9
9
9
9
9
9
9
9
9
9
9
9
9
9
9
9
9
9
9
9
9
9
9
9
9
9
9
9
9
9
9
9
9
9
9
9
9
9
9
9
9
9
9
9
9
9
9
9
9
9
9
9
9
9
9
9
9
9
9
9
9
9
9
9
9
9
9
9
9
9
9
9
9
9
9
9
9
9
9
9
9
9
9
9
9
9
9
9
9
9
9
9
9
9
9
9
9
9
9
9
9
9
9
9
9
9
9
9
9
9
9
9
9
9
9
9
9
9
9
9
9
9
9
9
9
9
9
9
9
9
9
9
9
9
9
9
9
9
9
9
9
9
9
9
9
9
9
9
9
9
9
9
9
9
9
9
9
9
9
9
9
9
9
9
9
9
9
9
9
9
9
9
9
9
9
9
9
9
9
9
9
9
9
9
9
9
9
9
9
9
9
9
9
9
9
9
9
9
9
9
9
9
9
9
9
9
9
9
9
9
9
9
9
9
9
9
9
9
9
9
9
9
9
9
9
9
9
9
9
9
9
9
9
9
9
9
9
9
9
9
9
9
9
9
9
9
9
9
9
9
9
9
9
9
9
9
9
9
9
9
9
9
9
9
9
9
9
9
9
9
9
9
9
9
9
9
9
9
9
9
9
9
9
9
9
9
9
9
9
9
9
9
9
9
9
9
9
9
9
9
9
9
9
9
9
9
9
9
9
9
9
9
9
9
9
9
9
9
9
9
9
9
9
9
9
9
9
9
9
9
9
9
9
9
9
9
9
9
9
9
9
9
9
9
9
9
9
9
9
9
9
9
9
9
9
9
9
9
9
9
9
9
9
9
9
9
9
9
9
9
9
9
9
9
9
9
9
9
9
9
9
9
9
9
9
9
9
9
9
9
9
9
9
9
9
9
9
9
9
9
9
9
9
9
9
9
9
9
9
9
9
9
9
9
9
9
9
9
9
9
9
9
9
9
9
9
9
9
9
9
9
9
9
9
9
9
9
9
9
9
9
9
9
9
9
9
9
9
9
9
9
9
9
9
9
9
9
9
9
9
9
9
9
9
9
9
9
9
9
9
9
9
9
9
9
9
9
9
9
9
9
9
9
9
9
9
9
9
9
9
9
9
9
9
9
9
9
9
9
9
9
9
9
9
9
9
9
9
9
9
9
9
9
9
9
9
9
9
9
9
9
9
9
9
9
9
9
9
9
9
9
9
9
9
9
9
9
9
9
9
9
9
9
9
9
9
9
9
9
9
9
9
9
9
9
9
9
9
9
9
9
9
9
9
9
9
9
9
9
9
9
9
9
9
9
9
9
9
9
9
9
9
9
9
9
9
9
9
9
9
9
9
9
9
9
9
9
9
9
9
9
9
9
9
9
9
9
9
9
9
9
9
9
9
9
9
9
9
9
9
9
9
9
9
9
9
9
9
9
9
9
9
9
9
9
9
9
9
9
9
9
9
9
9
9
9
9
9
9
9
9
9
9
9
9
9
9
9
9
9
9
9
9
9
9
9
9
9
9
9
9
9
9
9
9
9
9
9
9
9
9
9
9
9
9
9
9
9
9
9
9
9
9
9
9
9
9
9
9
9
9
9
9
9
9
9
9
9
9
9
9
9
9
9
9
9
9
9
9
9
9
9
9
9
9
9
9
9
9
9
9
9
9
9
9
9
9
9
9
9
9
9
9
9
9
9
9
9
9
9
9
9
9
9
9
9
9
9
9
9
9
9
9
9
9
9
9
9
9
9
9
9
9
9
9
9
9
9
9
9
9
9
9
9
9
9
9
9
9
9
9
9
9
9
9
9
9
9
9
9
9
9
9
9
9
9
9
9
9
9
9
9
9
9
9
9
9
9
9
9
9
9
9
9
9
9
9
9
9
9
9
9
9
9
9
9
9
9
9
9
9
9
9
9
9
9
9
9
9
9
9
9
9
9
9
9
9
9
9
9
9
9
9
9
9
9
9
9
9
9
9
9
9
9
9
9
9
9
9
9
9
9
9
9
9
9
9
9
9
9
9
9
9
9
9
9
9
9
9
9
9
9
9
9
9
9
9
9
9
9
9
9
9
9
9
9
9
9
9
9
9
9
9
9
9
9
9
9
9
9
9
9
9
9
9
9
9
9
9
9
9
9
9
9
9
9
9
9
9
9
9
9
9
9
9
9
9
9
9
9
9
9
9
9
9
9
9
9
9
9
9
9
9
9
9
9
9
9
9
9
9
9
9
9
9
9
9
9
9
9
9
9
9
9
9
9
9
9
9
9
9
9
9
9
9
9
9
9
9
9
9
9
9
9
9
9
9
9
9
9
9
9
9
9
9
9
9
9
9
9
9
9
9
9
9
9
9
9
9
9
9
9
9
9
9
9
9
9
9
9
9
9
9
9
9
9
9
9
9
9
9
9
9
9
9
9
9
9
9
9
9
9
9
9
9
9
9
9
9
9
9
9
9
9
9
9
9
9
9
9
9
9
9
9
9
9
9
9
9
9
9
9
9
9
9
9
9
9
9
9
9
9
9
9
9
9
9
9
9
9
9
9
9
9
9
9
9
9
9
9
9
9
9
9
9
9
9
9
9
9
9
9
9
9
9
9
9
9
9
9
9
9
9
9
9
9
9
9
9
9
9
9
9
9
9
9
9
9
9
9
9
9
9
9
9
9
9
9
9
9
9
9
9
9
9
9
9
9
9
9
9
9
9
9
9
9
9
9
9
9
9
9
9
9
9
9
9
9
9
9
9
9
9
9
9
9
9
9
9
9
9
9
9
9
9
9
9
9
9
9
9
9
9
9
9
9
9
9
9
9
9
9
9
9
9
9
9
9
9
9
9
9
9
9
9
9
9
9
9
9
9
9
9
9
9
9
9
9
9
9
9
9
9
9
9
9
9
9
9
9
9
9
9
9
9
9
9
9
9
9
9
9
9
9
9
9
9
9
9
9
9
9
9
9
9
9
9
9
9
9
9
9
9
9
9
9
9
9
9
9
9
9
9
9
9
9
9
9
9
9
9
9
9
9
9
9
9
9
9
9
9
9
9
9
9
9
9
9
9
9
9
9
9
9
9
9
9
9
9
9
9
9
9
9
9
9
9
9
9
9
9
9
9
9
9
9
9
9
9
9
9
9
9
9
9
9
9
9
9
9
9
9
9
9
9
9
9
9
9
9
9
9
9
9
9
9
9
9
9
9
9
9
9
9
9
9
9
9
9
9
9
9
9
9
9
9
9
9
9
9
9
9
9
9
9
9
9
9
9
9
9
9
9
9
9
9
9
9
9
9
9
9
9
9
9
9
9
9
9
9
9
9
9
9
9
9
9
9
9
9
9
9
9
9
9
9
9
9
9
9
9
9
9
9
9
9
9
9
9
9
9
9
9
9
9
9
9
9
9
9
9
9
9
9
9
9
9
9
9
9
9
9
9
9
9
9
9
9
9
9
9
9
9
9
9
9
9
9
9
9
9
9
9
9
9
9
9
9
9
9
9
9
9
9
9
9
9
9
9
9
9
9
9
9
9
9
9
9
9
9
9
9
9
9
9
9
9
9
9
9
9
9
9
9
9
9
9
9
9
9
9
9
9
9
9
9
9
9
9
9
9
9
9
9
9
9
9
9
9
9
9
9
9
9
9
9
9
9
9
9
9
9
9
9
9
9
9
9
9
9
9
9
9
9
9
9
9
9
9
9
9
9
9
9
9
9
9
9
9
9
9
9
9
9
9
9
9
9
9
9
9
9
9
9
9
9
9
9
9
9
9
9
9
9
9
9
9
9
9
9
9
9
9
9
9
9
9
9
9
9
9
9
9
9
9
9
9
9
9
9
9
9
9
9
9
9
9
9
9
9
9
9
9
9
9
9
9
9
9
9
9
9
9
9
9
9
9
9
9
9
9
9
9
9
9
9
9
9
9
9
9
9
9
9
9
9
9
9
9
9
9
9
9
9
9
9
9
9
9
9
9
9
9
9
9
9
9
9
9
9
9
9
9
9
9
9
9
9
9
9
9
9
9
9
9
9
9
9
9
9
9
9
9
9
9
9
9
9
9
9
9
9
9
9
9
9
9
9
9
9
9
9
9
9
9
9
9
9
9
9
9
9
9
9
9
9
9
9
9
9
9
9
9
9
9
9
9
9
9
9
9
9
9
9
9
9
9
9
9
9
9
9
9
9
9
9
9
9
9
9
9
9
9
9
9
9
9
9
9
9
9
9
9
9
9
9
9
9
9
9
9
9
9
9
POINT_DATA      5151
SCALARS p double 
LOOKUP_TABLE default
   50000000.0000000     
   49990849.0317852     
   49981662.6311100     
   49972405.2541120     
   49963041.1339396     
   49953534.1687960     
   49943847.8094334     
   49933944.9459171     
   49923787.7934828     
   49913337.7773153     
   49902555.4160852     
   49891400.2040807     
   49879830.4917834     
   49867803.3647467     
   49855274.5206402     
   49842198.1443430     
   49828526.7809719     
   49814211.2067573     
   49799200.2976838     
   49783440.8958397     
   49766877.6734358     
   49749452.9944782     
   49731106.7741055     
   49711776.3356269     
   49691396.2653297     
   49669898.2651589     
   49647211.0034086     
   49623259.9636053     
   49597967.2918076     
   49571251.6425984     
   49543028.0240953     
   49513207.6423656     
   49481697.7456960     
   49448401.4692328     
   49413217.6805879     
   49376040.8270807     
   49336760.7853775     
   49295262.7143826     
   49251426.9123370     
   49205128.6791858     
   49156238.1853977     
   49104620.3485389     
   49050134.7190409     
   48992635.3767418     
   48931970.8399283     
   48867983.9887732     
   48800512.0052221     
   48729386.3315673     
   48654432.6501347     
   48575470.8866981     
   48492315.2404481     
   48404774.2435499     
   48312650.8535451     
   48215742.5820789     
   48113841.6636643     
   48006735.2684315     
   47894205.7630447     
   47776031.0242046     
   47651984.8093932     
   47521837.1897318     
   47385355.0500565     
   47242302.6614984     
   47092442.3320485     
   46935535.1407400     
   46771341.7611951     
   46599623.3803659     
   46420142.7183269     
   46232665.1549307     
   46036959.9690306     
   45832801.6957648     
   45619971.6070819     
   45398259.3202429     
   45167464.5384425     
   44927398.9269203     
   44677888.1269590     
   44418773.9089517     
   44149916.4642324     
   43871196.8335607     
   43582519.4679804     
   43283814.9151824     
   42975042.6214379     
   42656193.8355539     
   42327294.5970629     
   41988408.7859106     
   41639641.2051536     
   41281140.6614990     
   40913103.0008164     
   40535774.0468538     
   40149452.3811800     
   39754491.8906528     
   39351303.9952967     
   38940359.4541512     
   38522189.6291747     
   38097387.0673941     
   37666605.2388749     
   37230557.2424182     
   36790013.2617932     
   36345796.5223731     
   35898777.4607932     
   35449865.7781765     
   35000000.0000000     
   50000000.0000000     
   49990849.0317852     
   49981662.6311100     
   49972405.2541121     
   49963041.1339396     
   49953534.1687960     
   49943847.8094334     
   49933944.9459171     
   49923787.7934828     
   49913337.7773153     
   49902555.4160852     
   49891400.2040807     
   49879830.4917834     
   49867803.3647466     
   49855274.5206402     
   49842198.1443430     
   49828526.7809719     
   49814211.2067573     
   49799200.2976839     
   49783440.8958397     
   49766877.6734358     
   49749452.9944782     
   49731106.7741055     
   49711776.3356269     
   49691396.2653297     
   49669898.2651589     
   49647211.0034086     
   49623259.9636053     
   49597967.2918076     
   49571251.6425984     
   49543028.0240953     
   49513207.6423656     
   49481697.7456960     
   49448401.4692328     
   49413217.6805879     
   49376040.8270807     
   49336760.7853774     
   49295262.7143826     
   49251426.9123369     
   49205128.6791858     
   49156238.1853977     
   49104620.3485389     
   49050134.7190410     
   48992635.3767418     
   48931970.8399283     
   48867983.9887732     
   48800512.0052221     
   48729386.3315673     
   48654432.6501347     
   48575470.8866981     
   48492315.2404481     
   48404774.2435499     
   48312650.8535452     
   48215742.5820789     
   48113841.6636643     
   48006735.2684316     
   47894205.7630446     
   47776031.0242046     
   47651984.8093932     
   47521837.1897318     
   47385355.0500565     
   47242302.6614983     
   47092442.3320485     
   46935535.1407400     
   46771341.7611951     
   46599623.3803658     
   46420142.7183269     
   46232665.1549307     
   46036959.9690306     
   45832801.6957648     
   45619971.6070819     
   45398259.3202429     
   45167464.5384424     
   44927398.9269203     
   44677888.1269590     
   44418773.9089517     
   44149916.4642324     
   43871196.8335607     
   43582519.4679804     
   43283814.9151824     
   42975042.6214379     
   42656193.8355539     
   42327294.5970629     
   41988408.7859106     
   41639641.2051536     
   41281140.6614990     
   40913103.0008164     
   40535774.0468538     
   40149452.3811800     
   39754491.8906528     
   39351303.9952967     
   38940359.4541511     
   38522189.6291747     
   38097387.0673941     
   37666605.2388749     
   37230557.2424182     
   36790013.2617932     
   36345796.5223731     
   35898777.4607932     
   35449865.7781764     
   35000000.0000000     
   50000000.0000000     
   49990849.0317852     
   49981662.6311100     
   49972405.2541121     
   49963041.1339396     
   49953534.1687960     
   49943847.8094334     
   49933944.9459171     
   49923787.7934828     
   49913337.7773153     
   49902555.4160852     
   49891400.2040807     
   49879830.4917833     
   49867803.3647466     
   49855274.5206402     
   49842198.1443430     
   49828526.7809719     
   49814211.2067573     
   49799200.2976838     
   49783440.8958397     
   49766877.6734358     
   49749452.9944781     
   49731106.7741055     
   49711776.3356269     
   49691396.2653297     
   49669898.2651589     
   49647211.0034086     
   49623259.9636053     
   49597967.2918076     
   49571251.6425984     
   49543028.0240953     
   49513207.6423656     
   49481697.7456960     
   49448401.4692328     
   49413217.6805879     
   49376040.8270807     
   49336760.7853774     
   49295262.7143826     
   49251426.9123369     
   49205128.6791858     
   49156238.1853977     
   49104620.3485389     
   49050134.7190410     
   48992635.3767418     
   48931970.8399283     
   48867983.9887732     
   48800512.0052221     
   48729386.3315673     
   48654432.6501346     
   48575470.8866981     
   48492315.2404481     
   48404774.2435499     
   48312650.8535452     
   48215742.5820789     
   48113841.6636643     
   48006735.2684315     
   47894205.7630446     
   47776031.0242046     
   47651984.8093931     
   47521837.1897318     
   47385355.0500565     
   47242302.6614983     
   47092442.3320485     
   46935535.1407401     
   46771341.7611951     
   46599623.3803658     
   46420142.7183269     
   46232665.1549307     
   46036959.9690305     
   45832801.6957648     
   45619971.6070819     
   45398259.3202429     
   45167464.5384424     
   44927398.9269202     
   44677888.1269590     
   44418773.9089517     
   44149916.4642324     
   43871196.8335607     
   43582519.4679804     
   43283814.9151824     
   42975042.6214379     
   42656193.8355539     
   42327294.5970628     
   41988408.7859107     
   41639641.2051535     
   41281140.6614990     
   40913103.0008164     
   40535774.0468537     
   40149452.3811800     
   39754491.8906528     
   39351303.9952967     
   38940359.4541512     
   38522189.6291747     
   38097387.0673941     
   37666605.2388749     
   37230557.2424182     
   36790013.2617932     
   36345796.5223731     
   35898777.4607932     
   35449865.7781765     
   35000000.0000000     
   50000000.0000000     
   49990849.0317852     
   49981662.6311100     
   49972405.2541121     
   49963041.1339396     
   49953534.1687960     
   49943847.8094334     
   49933944.9459171     
   49923787.7934828     
   49913337.7773153     
   49902555.4160852     
   49891400.2040806     
   49879830.4917834     
   49867803.3647466     
   49855274.5206402     
   49842198.1443429     
   49828526.7809718     
   49814211.2067573     
   49799200.2976838     
   49783440.8958397     
   49766877.6734358     
   49749452.9944781     
   49731106.7741055     
   49711776.3356269     
   49691396.2653296     
   49669898.2651589     
   49647211.0034086     
   49623259.9636053     
   49597967.2918076     
   49571251.6425984     
   49543028.0240952     
   49513207.6423656     
   49481697.7456960     
   49448401.4692328     
   49413217.6805879     
   49376040.8270807     
   49336760.7853774     
   49295262.7143826     
   49251426.9123369     
   49205128.6791858     
   49156238.1853977     
   49104620.3485389     
   49050134.7190410     
   48992635.3767418     
   48931970.8399283     
   48867983.9887732     
   48800512.0052220     
   48729386.3315673     
   48654432.6501346     
   48575470.8866981     
   48492315.2404481     
   48404774.2435499     
   48312650.8535452     
   48215742.5820789     
   48113841.6636642     
   48006735.2684315     
   47894205.7630446     
   47776031.0242046     
   47651984.8093931     
   47521837.1897317     
   47385355.0500565     
   47242302.6614983     
   47092442.3320485     
   46935535.1407401     
   46771341.7611951     
   46599623.3803658     
   46420142.7183269     
   46232665.1549307     
   46036959.9690305     
   45832801.6957648     
   45619971.6070819     
   45398259.3202429     
   45167464.5384424     
   44927398.9269202     
   44677888.1269590     
   44418773.9089517     
   44149916.4642324     
   43871196.8335607     
   43582519.4679805     
   43283814.9151824     
   42975042.6214378     
   42656193.8355539     
   42327294.5970628     
   41988408.7859106     
   41639641.2051535     
   41281140.6614989     
   40913103.0008164     
   40535774.0468537     
   40149452.3811799     
   39754491.8906528     
   39351303.9952967     
   38940359.4541512     
   38522189.6291746     
   38097387.0673941     
   37666605.2388748     
   37230557.2424182     
   36790013.2617932     
   36345796.5223731     
   35898777.4607932     
   35449865.7781765     
   35000000.0000000     
   50000000.0000000     
   49990849.0317852     
   49981662.6311100     
   49972405.2541121     
   49963041.1339396     
   49953534.1687960     
   49943847.8094334     
   49933944.9459171     
   49923787.7934828     
   49913337.7773152     
   49902555.4160851     
   49891400.2040806     
   49879830.4917833     
   49867803.3647466     
   49855274.5206401     
   49842198.1443429     
   49828526.7809718     
   49814211.2067573     
   49799200.2976838     
   49783440.8958397     
   49766877.6734357     
   49749452.9944780     
   49731106.7741054     
   49711776.3356269     
   49691396.2653296     
   49669898.2651589     
   49647211.0034086     
   49623259.9636053     
   49597967.2918076     
   49571251.6425984     
   49543028.0240952     
   49513207.6423655     
   49481697.7456959     
   49448401.4692327     
   49413217.6805879     
   49376040.8270807     
   49336760.7853774     
   49295262.7143826     
   49251426.9123369     
   49205128.6791858     
   49156238.1853976     
   49104620.3485388     
   49050134.7190409     
   48992635.3767418     
   48931970.8399283     
   48867983.9887732     
   48800512.0052220     
   48729386.3315673     
   48654432.6501346     
   48575470.8866981     
   48492315.2404480     
   48404774.2435499     
   48312650.8535451     
   48215742.5820789     
   48113841.6636642     
   48006735.2684315     
   47894205.7630446     
   47776031.0242046     
   47651984.8093930     
   47521837.1897317     
   47385355.0500565     
   47242302.6614983     
   47092442.3320484     
   46935535.1407401     
   46771341.7611950     
   46599623.3803657     
   46420142.7183269     
   46232665.1549307     
   46036959.9690305     
   45832801.6957647     
   45619971.6070819     
   45398259.3202429     
   45167464.5384424     
   44927398.9269202     
   44677888.1269590     
   44418773.9089516     
   44149916.4642323     
   43871196.8335607     
   43582519.4679805     
   43283814.9151823     
   42975042.6214378     
   42656193.8355538     
   42327294.5970628     
   41988408.7859106     
   41639641.2051535     
   41281140.6614989     
   40913103.0008163     
   40535774.0468537     
   40149452.3811799     
   39754491.8906528     
   39351303.9952967     
   38940359.4541511     
   38522189.6291746     
   38097387.0673940     
   37666605.2388748     
   37230557.2424182     
   36790013.2617931     
   36345796.5223731     
   35898777.4607932     
   35449865.7781765     
   35000000.0000000     
   50000000.0000000     
   49990849.0317852     
   49981662.6311100     
   49972405.2541121     
   49963041.1339397     
   49953534.1687959     
   49943847.8094333     
   49933944.9459170     
   49923787.7934827     
   49913337.7773152     
   49902555.4160852     
   49891400.2040806     
   49879830.4917833     
   49867803.3647465     
   49855274.5206401     
   49842198.1443429     
   49828526.7809718     
   49814211.2067572     
   49799200.2976838     
   49783440.8958396     
   49766877.6734357     
   49749452.9944780     
   49731106.7741054     
   49711776.3356269     
   49691396.2653296     
   49669898.2651588     
   49647211.0034086     
   49623259.9636053     
   49597967.2918075     
   49571251.6425983     
   49543028.0240952     
   49513207.6423655     
   49481697.7456959     
   49448401.4692327     
   49413217.6805879     
   49376040.8270807     
   49336760.7853774     
   49295262.7143825     
   49251426.9123369     
   49205128.6791858     
   49156238.1853976     
   49104620.3485388     
   49050134.7190409     
   48992635.3767418     
   48931970.8399282     
   48867983.9887732     
   48800512.0052220     
   48729386.3315673     
   48654432.6501346     
   48575470.8866980     
   48492315.2404480     
   48404774.2435499     
   48312650.8535451     
   48215742.5820789     
   48113841.6636641     
   48006735.2684314     
   47894205.7630445     
   47776031.0242046     
   47651984.8093930     
   47521837.1897317     
   47385355.0500564     
   47242302.6614982     
   47092442.3320484     
   46935535.1407401     
   46771341.7611950     
   46599623.3803657     
   46420142.7183268     
   46232665.1549307     
   46036959.9690304     
   45832801.6957647     
   45619971.6070818     
   45398259.3202429     
   45167464.5384423     
   44927398.9269201     
   44677888.1269589     
   44418773.9089516     
   44149916.4642323     
   43871196.8335606     
   43582519.4679804     
   43283814.9151823     
   42975042.6214378     
   42656193.8355538     
   42327294.5970628     
   41988408.7859106     
   41639641.2051534     
   41281140.6614989     
   40913103.0008163     
   40535774.0468536     
   40149452.3811799     
   39754491.8906528     
   39351303.9952967     
   38940359.4541511     
   38522189.6291746     
   38097387.0673940     
   37666605.2388748     
   37230557.2424182     
   36790013.2617931     
   36345796.5223730     
   35898777.4607932     
   35449865.7781765     
   35000000.0000000     
   50000000.0000000     
   49990849.0317852     
   49981662.6311100     
   49972405.2541121     
   49963041.1339396     
   49953534.1687959     
   49943847.8094333     
   49933944.9459170     
   49923787.7934827     
   49913337.7773152     
   49902555.4160852     
   49891400.2040806     
   49879830.4917832     
   49867803.3647465     
   49855274.5206401     
   49842198.1443428     
   49828526.7809717     
   49814211.2067572     
   49799200.2976837     
   49783440.8958396     
   49766877.6734356     
   49749452.9944779     
   49731106.7741054     
   49711776.3356268     
   49691396.2653296     
   49669898.2651588     
   49647211.0034086     
   49623259.9636052     
   49597967.2918075     
   49571251.6425983     
   49543028.0240951     
   49513207.6423655     
   49481697.7456958     
   49448401.4692327     
   49413217.6805879     
   49376040.8270807     
   49336760.7853774     
   49295262.7143825     
   49251426.9123369     
   49205128.6791857     
   49156238.1853976     
   49104620.3485388     
   49050134.7190408     
   48992635.3767417     
   48931970.8399282     
   48867983.9887732     
   48800512.0052220     
   48729386.3315672     
   48654432.6501346     
   48575470.8866980     
   48492315.2404479     
   48404774.2435499     
   48312650.8535451     
   48215742.5820788     
   48113841.6636641     
   48006735.2684314     
   47894205.7630445     
   47776031.0242046     
   47651984.8093929     
   47521837.1897317     
   47385355.0500564     
   47242302.6614982     
   47092442.3320484     
   46935535.1407400     
   46771341.7611950     
   46599623.3803657     
   46420142.7183268     
   46232665.1549306     
   46036959.9690304     
   45832801.6957647     
   45619971.6070818     
   45398259.3202428     
   45167464.5384423     
   44927398.9269201     
   44677888.1269589     
   44418773.9089515     
   44149916.4642322     
   43871196.8335606     
   43582519.4679804     
   43283814.9151822     
   42975042.6214377     
   42656193.8355537     
   42327294.5970627     
   41988408.7859106     
   41639641.2051534     
   41281140.6614988     
   40913103.0008163     
   40535774.0468536     
   40149452.3811799     
   39754491.8906527     
   39351303.9952967     
   38940359.4541511     
   38522189.6291746     
   38097387.0673939     
   37666605.2388748     
   37230557.2424181     
   36790013.2617931     
   36345796.5223730     
   35898777.4607932     
   35449865.7781765     
   35000000.0000000     
   50000000.0000000     
   49990849.0317852     
   49981662.6311100     
   49972405.2541121     
   49963041.1339396     
   49953534.1687958     
   49943847.8094333     
   49933944.9459170     
   49923787.7934827     
   49913337.7773151     
   49902555.4160852     
   49891400.2040805     
   49879830.4917832     
   49867803.3647465     
   49855274.5206401     
   49842198.1443427     
   49828526.7809717     
   49814211.2067571     
   49799200.2976837     
   49783440.8958396     
   49766877.6734356     
   49749452.9944779     
   49731106.7741053     
   49711776.3356267     
   49691396.2653296     
   49669898.2651588     
   49647211.0034086     
   49623259.9636052     
   49597967.2918075     
   49571251.6425983     
   49543028.0240951     
   49513207.6423654     
   49481697.7456958     
   49448401.4692327     
   49413217.6805879     
   49376040.8270807     
   49336760.7853774     
   49295262.7143824     
   49251426.9123368     
   49205128.6791857     
   49156238.1853976     
   49104620.3485388     
   49050134.7190408     
   48992635.3767416     
   48931970.8399282     
   48867983.9887731     
   48800512.0052219     
   48729386.3315672     
   48654432.6501347     
   48575470.8866980     
   48492315.2404480     
   48404774.2435499     
   48312650.8535451     
   48215742.5820788     
   48113841.6636641     
   48006735.2684314     
   47894205.7630445     
   47776031.0242046     
   47651984.8093929     
   47521837.1897316     
   47385355.0500564     
   47242302.6614982     
   47092442.3320483     
   46935535.1407400     
   46771341.7611949     
   46599623.3803657     
   46420142.7183268     
   46232665.1549305     
   46036959.9690304     
   45832801.6957647     
   45619971.6070817     
   45398259.3202428     
   45167464.5384422     
   44927398.9269200     
   44677888.1269588     
   44418773.9089515     
   44149916.4642322     
   43871196.8335606     
   43582519.4679804     
   43283814.9151822     
   42975042.6214376     
   42656193.8355537     
   42327294.5970627     
   41988408.7859105     
   41639641.2051534     
   41281140.6614988     
   40913103.0008162     
   40535774.0468535     
   40149452.3811799     
   39754491.8906527     
   39351303.9952967     
   38940359.4541512     
   38522189.6291745     
   38097387.0673939     
   37666605.2388747     
   37230557.2424181     
   36790013.2617931     
   36345796.5223730     
   35898777.4607932     
   35449865.7781765     
   35000000.0000000     
   50000000.0000000     
   49990849.0317852     
   49981662.6311100     
   49972405.2541121     
   49963041.1339396     
   49953534.1687959     
   49943847.8094333     
   49933944.9459171     
   49923787.7934826     
   49913337.7773151     
   49902555.4160851     
   49891400.2040805     
   49879830.4917832     
   49867803.3647464     
   49855274.5206401     
   49842198.1443427     
   49828526.7809716     
   49814211.2067571     
   49799200.2976837     
   49783440.8958395     
   49766877.6734355     
   49749452.9944778     
   49731106.7741053     
   49711776.3356267     
   49691396.2653295     
   49669898.2651588     
   49647211.0034086     
   49623259.9636052     
   49597967.2918074     
   49571251.6425983     
   49543028.0240951     
   49513207.6423653     
   49481697.7456958     
   49448401.4692327     
   49413217.6805878     
   49376040.8270806     
   49336760.7853773     
   49295262.7143824     
   49251426.9123368     
   49205128.6791856     
   49156238.1853975     
   49104620.3485387     
   49050134.7190408     
   48992635.3767416     
   48931970.8399282     
   48867983.9887730     
   48800512.0052219     
   48729386.3315673     
   48654432.6501346     
   48575470.8866979     
   48492315.2404479     
   48404774.2435499     
   48312650.8535451     
   48215742.5820788     
   48113841.6636641     
   48006735.2684313     
   47894205.7630445     
   47776031.0242046     
   47651984.8093929     
   47521837.1897316     
   47385355.0500564     
   47242302.6614982     
   47092442.3320483     
   46935535.1407400     
   46771341.7611949     
   46599623.3803657     
   46420142.7183268     
   46232665.1549305     
   46036959.9690304     
   45832801.6957646     
   45619971.6070817     
   45398259.3202427     
   45167464.5384422     
   44927398.9269199     
   44677888.1269588     
   44418773.9089515     
   44149916.4642322     
   43871196.8335605     
   43582519.4679803     
   43283814.9151822     
   42975042.6214376     
   42656193.8355537     
   42327294.5970626     
   41988408.7859105     
   41639641.2051533     
   41281140.6614988     
   40913103.0008162     
   40535774.0468535     
   40149452.3811798     
   39754491.8906527     
   39351303.9952966     
   38940359.4541511     
   38522189.6291745     
   38097387.0673939     
   37666605.2388747     
   37230557.2424180     
   36790013.2617931     
   36345796.5223730     
   35898777.4607932     
   35449865.7781765     
   35000000.0000000     
   50000000.0000000     
   49990849.0317852     
   49981662.6311100     
   49972405.2541121     
   49963041.1339396     
   49953534.1687958     
   49943847.8094332     
   49933944.9459171     
   49923787.7934826     
   49913337.7773151     
   49902555.4160851     
   49891400.2040805     
   49879830.4917831     
   49867803.3647464     
   49855274.5206401     
   49842198.1443426     
   49828526.7809716     
   49814211.2067571     
   49799200.2976836     
   49783440.8958395     
   49766877.6734355     
   49749452.9944778     
   49731106.7741053     
   49711776.3356267     
   49691396.2653296     
   49669898.2651588     
   49647211.0034086     
   49623259.9636052     
   49597967.2918074     
   49571251.6425983     
   49543028.0240951     
   49513207.6423654     
   49481697.7456958     
   49448401.4692327     
   49413217.6805878     
   49376040.8270806     
   49336760.7853774     
   49295262.7143824     
   49251426.9123368     
   49205128.6791856     
   49156238.1853975     
   49104620.3485387     
   49050134.7190408     
   48992635.3767416     
   48931970.8399282     
   48867983.9887730     
   48800512.0052219     
   48729386.3315673     
   48654432.6501347     
   48575470.8866979     
   48492315.2404479     
   48404774.2435498     
   48312650.8535451     
   48215742.5820787     
   48113841.6636641     
   48006735.2684313     
   47894205.7630445     
   47776031.0242046     
   47651984.8093929     
   47521837.1897315     
   47385355.0500564     
   47242302.6614981     
   47092442.3320483     
   46935535.1407400     
   46771341.7611949     
   46599623.3803657     
   46420142.7183268     
   46232665.1549305     
   46036959.9690303     
   45832801.6957647     
   45619971.6070817     
   45398259.3202427     
   45167464.5384421     
   44927398.9269198     
   44677888.1269587     
   44418773.9089514     
   44149916.4642321     
   43871196.8335605     
   43582519.4679803     
   43283814.9151822     
   42975042.6214375     
   42656193.8355536     
   42327294.5970626     
   41988408.7859105     
   41639641.2051533     
   41281140.6614987     
   40913103.0008162     
   40535774.0468535     
   40149452.3811798     
   39754491.8906527     
   39351303.9952966     
   38940359.4541511     
   38522189.6291745     
   38097387.0673939     
   37666605.2388746     
   37230557.2424180     
   36790013.2617930     
   36345796.5223730     
   35898777.4607931     
   35449865.7781764     
   35000000.0000000     
   50000000.0000000     
   49990849.0317852     
   49981662.6311100     
   49972405.2541121     
   49963041.1339396     
   49953534.1687958     
   49943847.8094332     
   49933944.9459170     
   49923787.7934826     
   49913337.7773151     
   49902555.4160850     
   49891400.2040804     
   49879830.4917831     
   49867803.3647463     
   49855274.5206400     
   49842198.1443426     
   49828526.7809715     
   49814211.2067570     
   49799200.2976836     
   49783440.8958394     
   49766877.6734354     
   49749452.9944777     
   49731106.7741053     
   49711776.3356266     
   49691396.2653296     
   49669898.2651588     
   49647211.0034086     
   49623259.9636052     
   49597967.2918074     
   49571251.6425982     
   49543028.0240951     
   49513207.6423654     
   49481697.7456958     
   49448401.4692327     
   49413217.6805879     
   49376040.8270806     
   49336760.7853773     
   49295262.7143824     
   49251426.9123368     
   49205128.6791856     
   49156238.1853974     
   49104620.3485386     
   49050134.7190408     
   48992635.3767416     
   48931970.8399282     
   48867983.9887730     
   48800512.0052219     
   48729386.3315673     
   48654432.6501347     
   48575470.8866978     
   48492315.2404479     
   48404774.2435498     
   48312650.8535451     
   48215742.5820787     
   48113841.6636640     
   48006735.2684313     
   47894205.7630444     
   47776031.0242046     
   47651984.8093929     
   47521837.1897316     
   47385355.0500563     
   47242302.6614981     
   47092442.3320483     
   46935535.1407400     
   46771341.7611949     
   46599623.3803657     
   46420142.7183268     
   46232665.1549305     
   46036959.9690303     
   45832801.6957646     
   45619971.6070817     
   45398259.3202426     
   45167464.5384421     
   44927398.9269198     
   44677888.1269587     
   44418773.9089514     
   44149916.4642320     
   43871196.8335604     
   43582519.4679803     
   43283814.9151821     
   42975042.6214375     
   42656193.8355536     
   42327294.5970626     
   41988408.7859104     
   41639641.2051533     
   41281140.6614987     
   40913103.0008162     
   40535774.0468534     
   40149452.3811797     
   39754491.8906527     
   39351303.9952966     
   38940359.4541511     
   38522189.6291745     
   38097387.0673938     
   37666605.2388746     
   37230557.2424180     
   36790013.2617930     
   36345796.5223729     
   35898777.4607931     
   35449865.7781764     
   35000000.0000000     
   50000000.0000000     
   49990849.0317852     
   49981662.6311100     
   49972405.2541121     
   49963041.1339396     
   49953534.1687959     
   49943847.8094332     
   49933944.9459170     
   49923787.7934826     
   49913337.7773151     
   49902555.4160850     
   49891400.2040803     
   49879830.4917831     
   49867803.3647463     
   49855274.5206400     
   49842198.1443426     
   49828526.7809715     
   49814211.2067570     
   49799200.2976836     
   49783440.8958394     
   49766877.6734354     
   49749452.9944777     
   49731106.7741053     
   49711776.3356266     
   49691396.2653296     
   49669898.2651588     
   49647211.0034086     
   49623259.9636052     
   49597967.2918074     
   49571251.6425982     
   49543028.0240951     
   49513207.6423654     
   49481697.7456958     
   49448401.4692327     
   49413217.6805880     
   49376040.8270806     
   49336760.7853774     
   49295262.7143824     
   49251426.9123368     
   49205128.6791856     
   49156238.1853975     
   49104620.3485387     
   49050134.7190408     
   48992635.3767416     
   48931970.8399282     
   48867983.9887730     
   48800512.0052219     
   48729386.3315672     
   48654432.6501347     
   48575470.8866979     
   48492315.2404479     
   48404774.2435498     
   48312650.8535451     
   48215742.5820787     
   48113841.6636640     
   48006735.2684313     
   47894205.7630445     
   47776031.0242046     
   47651984.8093929     
   47521837.1897316     
   47385355.0500563     
   47242302.6614981     
   47092442.3320483     
   46935535.1407399     
   46771341.7611949     
   46599623.3803657     
   46420142.7183268     
   46232665.1549305     
   46036959.9690303     
   45832801.6957646     
   45619971.6070817     
   45398259.3202426     
   45167464.5384421     
   44927398.9269198     
   44677888.1269587     
   44418773.9089514     
   44149916.4642320     
   43871196.8335604     
   43582519.4679802     
   43283814.9151821     
   42975042.6214375     
   42656193.8355535     
   42327294.5970625     
   41988408.7859104     
   41639641.2051533     
   41281140.6614987     
   40913103.0008161     
   40535774.0468534     
   40149452.3811797     
   39754491.8906527     
   39351303.9952966     
   38940359.4541510     
   38522189.6291744     
   38097387.0673938     
   37666605.2388746     
   37230557.2424179     
   36790013.2617930     
   36345796.5223729     
   35898777.4607931     
   35449865.7781764     
   35000000.0000000     
   50000000.0000000     
   49990849.0317852     
   49981662.6311101     
   49972405.2541121     
   49963041.1339395     
   49953534.1687959     
   49943847.8094332     
   49933944.9459170     
   49923787.7934826     
   49913337.7773150     
   49902555.4160849     
   49891400.2040803     
   49879830.4917831     
   49867803.3647463     
   49855274.5206400     
   49842198.1443425     
   49828526.7809715     
   49814211.2067569     
   49799200.2976836     
   49783440.8958394     
   49766877.6734354     
   49749452.9944777     
   49731106.7741053     
   49711776.3356267     
   49691396.2653296     
   49669898.2651589     
   49647211.0034086     
   49623259.9636052     
   49597967.2918075     
   49571251.6425982     
   49543028.0240952     
   49513207.6423655     
   49481697.7456958     
   49448401.4692328     
   49413217.6805880     
   49376040.8270807     
   49336760.7853774     
   49295262.7143824     
   49251426.9123368     
   49205128.6791857     
   49156238.1853975     
   49104620.3485387     
   49050134.7190408     
   48992635.3767416     
   48931970.8399283     
   48867983.9887730     
   48800512.0052220     
   48729386.3315672     
   48654432.6501347     
   48575470.8866979     
   48492315.2404480     
   48404774.2435498     
   48312650.8535451     
   48215742.5820788     
   48113841.6636640     
   48006735.2684313     
   47894205.7630444     
   47776031.0242046     
   47651984.8093930     
   47521837.1897315     
   47385355.0500563     
   47242302.6614981     
   47092442.3320483     
   46935535.1407400     
   46771341.7611949     
   46599623.3803657     
   46420142.7183268     
   46232665.1549306     
   46036959.9690304     
   45832801.6957646     
   45619971.6070817     
   45398259.3202426     
   45167464.5384420     
   44927398.9269197     
   44677888.1269587     
   44418773.9089513     
   44149916.4642320     
   43871196.8335603     
   43582519.4679802     
   43283814.9151820     
   42975042.6214374     
   42656193.8355535     
   42327294.5970625     
   41988408.7859104     
   41639641.2051533     
   41281140.6614986     
   40913103.0008160     
   40535774.0468534     
   40149452.3811797     
   39754491.8906526     
   39351303.9952966     
   38940359.4541510     
   38522189.6291743     
   38097387.0673937     
   37666605.2388746     
   37230557.2424179     
   36790013.2617929     
   36345796.5223729     
   35898777.4607931     
   35449865.7781764     
   35000000.0000000     
   50000000.0000000     
   49990849.0317852     
   49981662.6311100     
   49972405.2541121     
   49963041.1339395     
   49953534.1687958     
   49943847.8094332     
   49933944.9459170     
   49923787.7934825     
   49913337.7773151     
   49902555.4160849     
   49891400.2040803     
   49879830.4917831     
   49867803.3647463     
   49855274.5206400     
   49842198.1443425     
   49828526.7809714     
   49814211.2067568     
   49799200.2976835     
   49783440.8958393     
   49766877.6734353     
   49749452.9944777     
   49731106.7741052     
   49711776.3356267     
   49691396.2653296     
   49669898.2651589     
   49647211.0034086     
   49623259.9636052     
   49597967.2918075     
   49571251.6425983     
   49543028.0240952     
   49513207.6423655     
   49481697.7456959     
   49448401.4692328     
   49413217.6805880     
   49376040.8270808     
   49336760.7853774     
   49295262.7143825     
   49251426.9123369     
   49205128.6791857     
   49156238.1853976     
   49104620.3485388     
   49050134.7190409     
   48992635.3767417     
   48931970.8399283     
   48867983.9887731     
   48800512.0052220     
   48729386.3315673     
   48654432.6501347     
   48575470.8866980     
   48492315.2404480     
   48404774.2435498     
   48312650.8535451     
   48215742.5820787     
   48113841.6636641     
   48006735.2684314     
   47894205.7630444     
   47776031.0242046     
   47651984.8093930     
   47521837.1897316     
   47385355.0500564     
   47242302.6614982     
   47092442.3320484     
   46935535.1407400     
   46771341.7611950     
   46599623.3803658     
   46420142.7183268     
   46232665.1549306     
   46036959.9690304     
   45832801.6957646     
   45619971.6070817     
   45398259.3202426     
   45167464.5384420     
   44927398.9269197     
   44677888.1269586     
   44418773.9089513     
   44149916.4642320     
   43871196.8335603     
   43582519.4679801     
   43283814.9151820     
   42975042.6214374     
   42656193.8355535     
   42327294.5970625     
   41988408.7859104     
   41639641.2051533     
   41281140.6614985     
   40913103.0008160     
   40535774.0468534     
   40149452.3811796     
   39754491.8906526     
   39351303.9952965     
   38940359.4541510     
   38522189.6291743     
   38097387.0673937     
   37666605.2388745     
   37230557.2424178     
   36790013.2617929     
   36345796.5223729     
   35898777.4607930     
   35449865.7781764     
   35000000.0000000     
   50000000.0000000     
   49990849.0317852     
   49981662.6311100     
   49972405.2541121     
   49963041.1339396     
   49953534.1687958     
   49943847.8094332     
   49933944.9459170     
   49923787.7934826     
   49913337.7773150     
   49902555.4160848     
   49891400.2040802     
   49879830.4917830     
   49867803.3647463     
   49855274.5206400     
   49842198.1443425     
   49828526.7809714     
   49814211.2067568     
   49799200.2976835     
   49783440.8958393     
   49766877.6734353     
   49749452.9944777     
   49731106.7741052     
   49711776.3356267     
   49691396.2653297     
   49669898.2651589     
   49647211.0034086     
   49623259.9636053     
   49597967.2918075     
   49571251.6425983     
   49543028.0240952     
   49513207.6423656     
   49481697.7456959     
   49448401.4692329     
   49413217.6805881     
   49376040.8270808     
   49336760.7853774     
   49295262.7143826     
   49251426.9123369     
   49205128.6791857     
   49156238.1853976     
   49104620.3485388     
   49050134.7190409     
   48992635.3767417     
   48931970.8399283     
   48867983.9887731     
   48800512.0052220     
   48729386.3315673     
   48654432.6501347     
   48575470.8866980     
   48492315.2404480     
   48404774.2435498     
   48312650.8535451     
   48215742.5820788     
   48113841.6636641     
   48006735.2684314     
   47894205.7630444     
   47776031.0242046     
   47651984.8093929     
   47521837.1897315     
   47385355.0500564     
   47242302.6614982     
   47092442.3320484     
   46935535.1407400     
   46771341.7611950     
   46599623.3803658     
   46420142.7183268     
   46232665.1549307     
   46036959.9690305     
   45832801.6957646     
   45619971.6070817     
   45398259.3202425     
   45167464.5384420     
   44927398.9269197     
   44677888.1269586     
   44418773.9089513     
   44149916.4642319     
   43871196.8335603     
   43582519.4679801     
   43283814.9151820     
   42975042.6214374     
   42656193.8355534     
   42327294.5970625     
   41988408.7859104     
   41639641.2051532     
   41281140.6614985     
   40913103.0008160     
   40535774.0468533     
   40149452.3811796     
   39754491.8906525     
   39351303.9952965     
   38940359.4541509     
   38522189.6291743     
   38097387.0673937     
   37666605.2388745     
   37230557.2424178     
   36790013.2617928     
   36345796.5223728     
   35898777.4607930     
   35449865.7781764     
   35000000.0000000     
   50000000.0000000     
   49990849.0317852     
   49981662.6311100     
   49972405.2541121     
   49963041.1339395     
   49953534.1687958     
   49943847.8094332     
   49933944.9459170     
   49923787.7934825     
   49913337.7773149     
   49902555.4160848     
   49891400.2040802     
   49879830.4917830     
   49867803.3647462     
   49855274.5206399     
   49842198.1443425     
   49828526.7809713     
   49814211.2067568     
   49799200.2976834     
   49783440.8958392     
   49766877.6734353     
   49749452.9944777     
   49731106.7741052     
   49711776.3356267     
   49691396.2653297     
   49669898.2651589     
   49647211.0034086     
   49623259.9636053     
   49597967.2918076     
   49571251.6425983     
   49543028.0240953     
   49513207.6423656     
   49481697.7456959     
   49448401.4692329     
   49413217.6805881     
   49376040.8270809     
   49336760.7853775     
   49295262.7143826     
   49251426.9123369     
   49205128.6791858     
   49156238.1853977     
   49104620.3485388     
   49050134.7190410     
   48992635.3767417     
   48931970.8399283     
   48867983.9887732     
   48800512.0052220     
   48729386.3315673     
   48654432.6501347     
   48575470.8866980     
   48492315.2404481     
   48404774.2435498     
   48312650.8535451     
   48215742.5820788     
   48113841.6636641     
   48006735.2684313     
   47894205.7630444     
   47776031.0242046     
   47651984.8093929     
   47521837.1897315     
   47385355.0500564     
   47242302.6614982     
   47092442.3320484     
   46935535.1407401     
   46771341.7611950     
   46599623.3803659     
   46420142.7183269     
   46232665.1549307     
   46036959.9690305     
   45832801.6957647     
   45619971.6070817     
   45398259.3202425     
   45167464.5384420     
   44927398.9269197     
   44677888.1269586     
   44418773.9089513     
   44149916.4642319     
   43871196.8335602     
   43582519.4679800     
   43283814.9151819     
   42975042.6214373     
   42656193.8355534     
   42327294.5970624     
   41988408.7859103     
   41639641.2051531     
   41281140.6614985     
   40913103.0008159     
   40535774.0468533     
   40149452.3811795     
   39754491.8906525     
   39351303.9952964     
   38940359.4541508     
   38522189.6291742     
   38097387.0673937     
   37666605.2388745     
   37230557.2424177     
   36790013.2617928     
   36345796.5223728     
   35898777.4607930     
   35449865.7781764     
   35000000.0000000     
   50000000.0000000     
   49990849.0317851     
   49981662.6311100     
   49972405.2541120     
   49963041.1339394     
   49953534.1687957     
   49943847.8094331     
   49933944.9459170     
   49923787.7934826     
   49913337.7773148     
   49902555.4160847     
   49891400.2040801     
   49879830.4917829     
   49867803.3647462     
   49855274.5206399     
   49842198.1443425     
   49828526.7809713     
   49814211.2067567     
   49799200.2976834     
   49783440.8958392     
   49766877.6734352     
   49749452.9944776     
   49731106.7741052     
   49711776.3356267     
   49691396.2653297     
   49669898.2651588     
   49647211.0034086     
   49623259.9636053     
   49597967.2918076     
   49571251.6425983     
   49543028.0240953     
   49513207.6423656     
   49481697.7456959     
   49448401.4692330     
   49413217.6805882     
   49376040.8270809     
   49336760.7853775     
   49295262.7143826     
   49251426.9123369     
   49205128.6791858     
   49156238.1853977     
   49104620.3485389     
   49050134.7190410     
   48992635.3767417     
   48931970.8399283     
   48867983.9887732     
   48800512.0052220     
   48729386.3315673     
   48654432.6501347     
   48575470.8866981     
   48492315.2404481     
   48404774.2435499     
   48312650.8535451     
   48215742.5820788     
   48113841.6636641     
   48006735.2684313     
   47894205.7630445     
   47776031.0242046     
   47651984.8093929     
   47521837.1897315     
   47385355.0500563     
   47242302.6614982     
   47092442.3320484     
   46935535.1407402     
   46771341.7611951     
   46599623.3803659     
   46420142.7183269     
   46232665.1549307     
   46036959.9690305     
   45832801.6957647     
   45619971.6070817     
   45398259.3202426     
   45167464.5384419     
   44927398.9269197     
   44677888.1269585     
   44418773.9089513     
   44149916.4642318     
   43871196.8335603     
   43582519.4679799     
   43283814.9151819     
   42975042.6214373     
   42656193.8355533     
   42327294.5970624     
   41988408.7859102     
   41639641.2051531     
   41281140.6614985     
   40913103.0008159     
   40535774.0468532     
   40149452.3811795     
   39754491.8906524     
   39351303.9952964     
   38940359.4541508     
   38522189.6291742     
   38097387.0673936     
   37666605.2388745     
   37230557.2424177     
   36790013.2617928     
   36345796.5223728     
   35898777.4607930     
   35449865.7781764     
   35000000.0000000     
   50000000.0000000     
   49990849.0317851     
   49981662.6311100     
   49972405.2541120     
   49963041.1339394     
   49953534.1687957     
   49943847.8094331     
   49933944.9459170     
   49923787.7934825     
   49913337.7773148     
   49902555.4160846     
   49891400.2040801     
   49879830.4917829     
   49867803.3647462     
   49855274.5206398     
   49842198.1443424     
   49828526.7809713     
   49814211.2067567     
   49799200.2976833     
   49783440.8958391     
   49766877.6734352     
   49749452.9944776     
   49731106.7741052     
   49711776.3356267     
   49691396.2653297     
   49669898.2651589     
   49647211.0034086     
   49623259.9636054     
   49597967.2918076     
   49571251.6425984     
   49543028.0240954     
   49513207.6423657     
   49481697.7456960     
   49448401.4692331     
   49413217.6805883     
   49376040.8270810     
   49336760.7853775     
   49295262.7143826     
   49251426.9123370     
   49205128.6791859     
   49156238.1853978     
   49104620.3485389     
   49050134.7190411     
   48992635.3767418     
   48931970.8399284     
   48867983.9887733     
   48800512.0052221     
   48729386.3315673     
   48654432.6501347     
   48575470.8866981     
   48492315.2404481     
   48404774.2435499     
   48312650.8535451     
   48215742.5820788     
   48113841.6636641     
   48006735.2684313     
   47894205.7630445     
   47776031.0242046     
   47651984.8093929     
   47521837.1897315     
   47385355.0500563     
   47242302.6614982     
   47092442.3320485     
   46935535.1407402     
   46771341.7611952     
   46599623.3803660     
   46420142.7183270     
   46232665.1549308     
   46036959.9690306     
   45832801.6957647     
   45619971.6070817     
   45398259.3202426     
   45167464.5384419     
   44927398.9269197     
   44677888.1269585     
   44418773.9089512     
   44149916.4642318     
   43871196.8335602     
   43582519.4679799     
   43283814.9151818     
   42975042.6214372     
   42656193.8355533     
   42327294.5970624     
   41988408.7859102     
   41639641.2051531     
   41281140.6614985     
   40913103.0008158     
   40535774.0468531     
   40149452.3811794     
   39754491.8906524     
   39351303.9952963     
   38940359.4541507     
   38522189.6291742     
   38097387.0673936     
   37666605.2388744     
   37230557.2424177     
   36790013.2617927     
   36345796.5223728     
   35898777.4607930     
   35449865.7781764     
   35000000.0000000     
   50000000.0000000     
   49990849.0317851     
   49981662.6311100     
   49972405.2541119     
   49963041.1339394     
   49953534.1687957     
   49943847.8094331     
   49933944.9459170     
   49923787.7934825     
   49913337.7773148     
   49902555.4160846     
   49891400.2040801     
   49879830.4917828     
   49867803.3647462     
   49855274.5206398     
   49842198.1443424     
   49828526.7809713     
   49814211.2067567     
   49799200.2976833     
   49783440.8958391     
   49766877.6734352     
   49749452.9944776     
   49731106.7741051     
   49711776.3356267     
   49691396.2653297     
   49669898.2651589     
   49647211.0034086     
   49623259.9636054     
   49597967.2918076     
   49571251.6425985     
   49543028.0240954     
   49513207.6423656     
   49481697.7456960     
   49448401.4692331     
   49413217.6805883     
   49376040.8270811     
   49336760.7853776     
   49295262.7143827     
   49251426.9123370     
   49205128.6791859     
   49156238.1853979     
   49104620.3485390     
   49050134.7190411     
   48992635.3767419     
   48931970.8399284     
   48867983.9887733     
   48800512.0052221     
   48729386.3315674     
   48654432.6501348     
   48575470.8866982     
   48492315.2404481     
   48404774.2435499     
   48312650.8535452     
   48215742.5820788     
   48113841.6636641     
   48006735.2684314     
   47894205.7630445     
   47776031.0242046     
   47651984.8093929     
   47521837.1897316     
   47385355.0500563     
   47242302.6614982     
   47092442.3320485     
   46935535.1407403     
   46771341.7611952     
   46599623.3803661     
   46420142.7183270     
   46232665.1549308     
   46036959.9690306     
   45832801.6957647     
   45619971.6070817     
   45398259.3202426     
   45167464.5384419     
   44927398.9269196     
   44677888.1269585     
   44418773.9089512     
   44149916.4642318     
   43871196.8335602     
   43582519.4679799     
   43283814.9151818     
   42975042.6214372     
   42656193.8355533     
   42327294.5970623     
   41988408.7859101     
   41639641.2051530     
   41281140.6614984     
   40913103.0008158     
   40535774.0468531     
   40149452.3811793     
   39754491.8906523     
   39351303.9952962     
   38940359.4541507     
   38522189.6291742     
   38097387.0673936     
   37666605.2388743     
   37230557.2424176     
   36790013.2617926     
   36345796.5223728     
   35898777.4607930     
   35449865.7781764     
   35000000.0000000     
   50000000.0000000     
   49990849.0317851     
   49981662.6311100     
   49972405.2541119     
   49963041.1339394     
   49953534.1687957     
   49943847.8094331     
   49933944.9459169     
   49923787.7934824     
   49913337.7773147     
   49902555.4160846     
   49891400.2040800     
   49879830.4917828     
   49867803.3647461     
   49855274.5206397     
   49842198.1443423     
   49828526.7809713     
   49814211.2067567     
   49799200.2976832     
   49783440.8958391     
   49766877.6734352     
   49749452.9944776     
   49731106.7741051     
   49711776.3356267     
   49691396.2653297     
   49669898.2651589     
   49647211.0034086     
   49623259.9636054     
   49597967.2918076     
   49571251.6425985     
   49543028.0240954     
   49513207.6423657     
   49481697.7456960     
   49448401.4692332     
   49413217.6805883     
   49376040.8270812     
   49336760.7853776     
   49295262.7143827     
   49251426.9123371     
   49205128.6791860     
   49156238.1853980     
   49104620.3485391     
   49050134.7190412     
   48992635.3767419     
   48931970.8399284     
   48867983.9887734     
   48800512.0052221     
   48729386.3315674     
   48654432.6501348     
   48575470.8866982     
   48492315.2404482     
   48404774.2435500     
   48312650.8535452     
   48215742.5820788     
   48113841.6636641     
   48006735.2684314     
   47894205.7630445     
   47776031.0242046     
   47651984.8093929     
   47521837.1897316     
   47385355.0500563     
   47242302.6614983     
   47092442.3320485     
   46935535.1407403     
   46771341.7611952     
   46599623.3803661     
   46420142.7183271     
   46232665.1549308     
   46036959.9690306     
   45832801.6957647     
   45619971.6070818     
   45398259.3202425     
   45167464.5384419     
   44927398.9269196     
   44677888.1269585     
   44418773.9089512     
   44149916.4642318     
   43871196.8335602     
   43582519.4679799     
   43283814.9151818     
   42975042.6214372     
   42656193.8355532     
   42327294.5970623     
   41988408.7859101     
   41639641.2051530     
   41281140.6614984     
   40913103.0008157     
   40535774.0468530     
   40149452.3811793     
   39754491.8906522     
   39351303.9952961     
   38940359.4541507     
   38522189.6291741     
   38097387.0673935     
   37666605.2388743     
   37230557.2424176     
   36790013.2617926     
   36345796.5223727     
   35898777.4607930     
   35449865.7781764     
   35000000.0000000     
   50000000.0000000     
   49990849.0317851     
   49981662.6311100     
   49972405.2541119     
   49963041.1339394     
   49953534.1687956     
   49943847.8094331     
   49933944.9459169     
   49923787.7934823     
   49913337.7773147     
   49902555.4160846     
   49891400.2040800     
   49879830.4917828     
   49867803.3647460     
   49855274.5206398     
   49842198.1443423     
   49828526.7809712     
   49814211.2067566     
   49799200.2976832     
   49783440.8958390     
   49766877.6734352     
   49749452.9944776     
   49731106.7741050     
   49711776.3356267     
   49691396.2653297     
   49669898.2651588     
   49647211.0034086     
   49623259.9636054     
   49597967.2918076     
   49571251.6425986     
   49543028.0240954     
   49513207.6423657     
   49481697.7456961     
   49448401.4692332     
   49413217.6805883     
   49376040.8270812     
   49336760.7853777     
   49295262.7143827     
   49251426.9123371     
   49205128.6791860     
   49156238.1853980     
   49104620.3485392     
   49050134.7190413     
   48992635.3767419     
   48931970.8399284     
   48867983.9887734     
   48800512.0052222     
   48729386.3315674     
   48654432.6501349     
   48575470.8866982     
   48492315.2404482     
   48404774.2435501     
   48312650.8535452     
   48215742.5820789     
   48113841.6636642     
   48006735.2684314     
   47894205.7630445     
   47776031.0242046     
   47651984.8093929     
   47521837.1897315     
   47385355.0500563     
   47242302.6614983     
   47092442.3320485     
   46935535.1407403     
   46771341.7611953     
   46599623.3803661     
   46420142.7183271     
   46232665.1549309     
   46036959.9690306     
   45832801.6957648     
   45619971.6070818     
   45398259.3202426     
   45167464.5384419     
   44927398.9269196     
   44677888.1269585     
   44418773.9089512     
   44149916.4642318     
   43871196.8335602     
   43582519.4679799     
   43283814.9151817     
   42975042.6214372     
   42656193.8355532     
   42327294.5970623     
   41988408.7859101     
   41639641.2051530     
   41281140.6614984     
   40913103.0008157     
   40535774.0468530     
   40149452.3811793     
   39754491.8906521     
   39351303.9952961     
   38940359.4541507     
   38522189.6291741     
   38097387.0673936     
   37666605.2388743     
   37230557.2424176     
   36790013.2617926     
   36345796.5223727     
   35898777.4607930     
   35449865.7781764     
   35000000.0000000     
   50000000.0000000     
   49990849.0317851     
   49981662.6311100     
   49972405.2541120     
   49963041.1339394     
   49953534.1687956     
   49943847.8094331     
   49933944.9459169     
   49923787.7934823     
   49913337.7773146     
   49902555.4160846     
   49891400.2040800     
   49879830.4917828     
   49867803.3647460     
   49855274.5206398     
   49842198.1443423     
   49828526.7809712     
   49814211.2067566     
   49799200.2976832     
   49783440.8958390     
   49766877.6734351     
   49749452.9944775     
   49731106.7741050     
   49711776.3356267     
   49691396.2653297     
   49669898.2651588     
   49647211.0034086     
   49623259.9636054     
   49597967.2918076     
   49571251.6425986     
   49543028.0240954     
   49513207.6423658     
   49481697.7456961     
   49448401.4692332     
   49413217.6805884     
   49376040.8270812     
   49336760.7853777     
   49295262.7143828     
   49251426.9123372     
   49205128.6791861     
   49156238.1853982     
   49104620.3485392     
   49050134.7190414     
   48992635.3767420     
   48931970.8399285     
   48867983.9887735     
   48800512.0052222     
   48729386.3315675     
   48654432.6501349     
   48575470.8866983     
   48492315.2404483     
   48404774.2435501     
   48312650.8535453     
   48215742.5820789     
   48113841.6636642     
   48006735.2684314     
   47894205.7630445     
   47776031.0242046     
   47651984.8093929     
   47521837.1897316     
   47385355.0500563     
   47242302.6614983     
   47092442.3320486     
   46935535.1407403     
   46771341.7611953     
   46599623.3803662     
   46420142.7183272     
   46232665.1549309     
   46036959.9690307     
   45832801.6957648     
   45619971.6070818     
   45398259.3202426     
   45167464.5384419     
   44927398.9269196     
   44677888.1269585     
   44418773.9089512     
   44149916.4642318     
   43871196.8335602     
   43582519.4679799     
   43283814.9151817     
   42975042.6214372     
   42656193.8355532     
   42327294.5970623     
   41988408.7859100     
   41639641.2051530     
   41281140.6614984     
   40913103.0008157     
   40535774.0468530     
   40149452.3811792     
   39754491.8906521     
   39351303.9952961     
   38940359.4541507     
   38522189.6291741     
   38097387.0673935     
   37666605.2388742     
   37230557.2424175     
   36790013.2617925     
   36345796.5223726     
   35898777.4607930     
   35449865.7781763     
   35000000.0000000     
   50000000.0000000     
   49990849.0317851     
   49981662.6311099     
   49972405.2541120     
   49963041.1339393     
   49953534.1687956     
   49943847.8094330     
   49933944.9459168     
   49923787.7934822     
   49913337.7773146     
   49902555.4160845     
   49891400.2040800     
   49879830.4917828     
   49867803.3647460     
   49855274.5206398     
   49842198.1443423     
   49828526.7809712     
   49814211.2067566     
   49799200.2976831     
   49783440.8958391     
   49766877.6734351     
   49749452.9944774     
   49731106.7741050     
   49711776.3356267     
   49691396.2653296     
   49669898.2651588     
   49647211.0034086     
   49623259.9636054     
   49597967.2918077     
   49571251.6425986     
   49543028.0240954     
   49513207.6423658     
   49481697.7456961     
   49448401.4692332     
   49413217.6805884     
   49376040.8270812     
   49336760.7853778     
   49295262.7143828     
   49251426.9123373     
   49205128.6791862     
   49156238.1853982     
   49104620.3485393     
   49050134.7190414     
   48992635.3767421     
   48931970.8399286     
   48867983.9887735     
   48800512.0052223     
   48729386.3315675     
   48654432.6501350     
   48575470.8866984     
   48492315.2404484     
   48404774.2435502     
   48312650.8535454     
   48215742.5820790     
   48113841.6636643     
   48006735.2684314     
   47894205.7630445     
   47776031.0242046     
   47651984.8093930     
   47521837.1897315     
   47385355.0500564     
   47242302.6614983     
   47092442.3320486     
   46935535.1407403     
   46771341.7611953     
   46599623.3803662     
   46420142.7183273     
   46232665.1549310     
   46036959.9690307     
   45832801.6957649     
   45619971.6070818     
   45398259.3202426     
   45167464.5384420     
   44927398.9269197     
   44677888.1269585     
   44418773.9089512     
   44149916.4642318     
   43871196.8335602     
   43582519.4679799     
   43283814.9151817     
   42975042.6214372     
   42656193.8355532     
   42327294.5970624     
   41988408.7859101     
   41639641.2051530     
   41281140.6614983     
   40913103.0008157     
   40535774.0468529     
   40149452.3811792     
   39754491.8906520     
   39351303.9952961     
   38940359.4541507     
   38522189.6291741     
   38097387.0673935     
   37666605.2388742     
   37230557.2424175     
   36790013.2617925     
   36345796.5223726     
   35898777.4607929     
   35449865.7781764     
   35000000.0000000     
   50000000.0000000     
   49990849.0317851     
   49981662.6311099     
   49972405.2541120     
   49963041.1339393     
   49953534.1687956     
   49943847.8094330     
   49933944.9459167     
   49923787.7934822     
   49913337.7773146     
   49902555.4160844     
   49891400.2040800     
   49879830.4917827     
   49867803.3647460     
   49855274.5206398     
   49842198.1443423     
   49828526.7809711     
   49814211.2067565     
   49799200.2976831     
   49783440.8958390     
   49766877.6734351     
   49749452.9944775     
   49731106.7741050     
   49711776.3356266     
   49691396.2653296     
   49669898.2651588     
   49647211.0034086     
   49623259.9636054     
   49597967.2918077     
   49571251.6425986     
   49543028.0240954     
   49513207.6423658     
   49481697.7456961     
   49448401.4692331     
   49413217.6805884     
   49376040.8270812     
   49336760.7853777     
   49295262.7143829     
   49251426.9123373     
   49205128.6791863     
   49156238.1853983     
   49104620.3485395     
   49050134.7190415     
   48992635.3767422     
   48931970.8399287     
   48867983.9887736     
   48800512.0052224     
   48729386.3315676     
   48654432.6501350     
   48575470.8866984     
   48492315.2404484     
   48404774.2435502     
   48312650.8535455     
   48215742.5820790     
   48113841.6636643     
   48006735.2684314     
   47894205.7630445     
   47776031.0242046     
   47651984.8093929     
   47521837.1897315     
   47385355.0500564     
   47242302.6614983     
   47092442.3320486     
   46935535.1407403     
   46771341.7611953     
   46599623.3803662     
   46420142.7183273     
   46232665.1549311     
   46036959.9690307     
   45832801.6957649     
   45619971.6070819     
   45398259.3202427     
   45167464.5384420     
   44927398.9269197     
   44677888.1269585     
   44418773.9089512     
   44149916.4642317     
   43871196.8335602     
   43582519.4679799     
   43283814.9151817     
   42975042.6214372     
   42656193.8355532     
   42327294.5970623     
   41988408.7859101     
   41639641.2051530     
   41281140.6614983     
   40913103.0008157     
   40535774.0468529     
   40149452.3811791     
   39754491.8906520     
   39351303.9952960     
   38940359.4541506     
   38522189.6291740     
   38097387.0673934     
   37666605.2388742     
   37230557.2424174     
   36790013.2617925     
   36345796.5223725     
   35898777.4607930     
   35449865.7781763     
   35000000.0000000     
   50000000.0000000     
   49990849.0317851     
   49981662.6311100     
   49972405.2541120     
   49963041.1339393     
   49953534.1687955     
   49943847.8094329     
   49933944.9459167     
   49923787.7934822     
   49913337.7773145     
   49902555.4160844     
   49891400.2040799     
   49879830.4917827     
   49867803.3647460     
   49855274.5206397     
   49842198.1443422     
   49828526.7809711     
   49814211.2067565     
   49799200.2976831     
   49783440.8958390     
   49766877.6734351     
   49749452.9944774     
   49731106.7741050     
   49711776.3356265     
   49691396.2653296     
   49669898.2651588     
   49647211.0034085     
   49623259.9636054     
   49597967.2918076     
   49571251.6425986     
   49543028.0240954     
   49513207.6423657     
   49481697.7456961     
   49448401.4692331     
   49413217.6805884     
   49376040.8270812     
   49336760.7853777     
   49295262.7143830     
   49251426.9123374     
   49205128.6791864     
   49156238.1853984     
   49104620.3485396     
   49050134.7190416     
   48992635.3767423     
   48931970.8399287     
   48867983.9887737     
   48800512.0052225     
   48729386.3315677     
   48654432.6501351     
   48575470.8866985     
   48492315.2404485     
   48404774.2435503     
   48312650.8535455     
   48215742.5820791     
   48113841.6636643     
   48006735.2684315     
   47894205.7630445     
   47776031.0242046     
   47651984.8093929     
   47521837.1897315     
   47385355.0500564     
   47242302.6614983     
   47092442.3320487     
   46935535.1407404     
   46771341.7611953     
   46599623.3803662     
   46420142.7183273     
   46232665.1549311     
   46036959.9690308     
   45832801.6957649     
   45619971.6070820     
   45398259.3202427     
   45167464.5384420     
   44927398.9269198     
   44677888.1269585     
   44418773.9089512     
   44149916.4642317     
   43871196.8335601     
   43582519.4679799     
   43283814.9151816     
   42975042.6214372     
   42656193.8355532     
   42327294.5970623     
   41988408.7859100     
   41639641.2051529     
   41281140.6614984     
   40913103.0008156     
   40535774.0468529     
   40149452.3811791     
   39754491.8906520     
   39351303.9952960     
   38940359.4541506     
   38522189.6291740     
   38097387.0673934     
   37666605.2388741     
   37230557.2424174     
   36790013.2617924     
   36345796.5223725     
   35898777.4607929     
   35449865.7781763     
   35000000.0000000     
   50000000.0000000     
   49990849.0317851     
   49981662.6311099     
   49972405.2541120     
   49963041.1339393     
   49953534.1687955     
   49943847.8094329     
   49933944.9459166     
   49923787.7934821     
   49913337.7773145     
   49902555.4160844     
   49891400.2040799     
   49879830.4917826     
   49867803.3647460     
   49855274.5206397     
   49842198.1443422     
   49828526.7809711     
   49814211.2067565     
   49799200.2976830     
   49783440.8958389     
   49766877.6734350     
   49749452.9944774     
   49731106.7741049     
   49711776.3356265     
   49691396.2653295     
   49669898.2651588     
   49647211.0034085     
   49623259.9636053     
   49597967.2918076     
   49571251.6425986     
   49543028.0240954     
   49513207.6423657     
   49481697.7456961     
   49448401.4692331     
   49413217.6805883     
   49376040.8270812     
   49336760.7853777     
   49295262.7143829     
   49251426.9123374     
   49205128.6791864     
   49156238.1853984     
   49104620.3485396     
   49050134.7190417     
   48992635.3767424     
   48931970.8399288     
   48867983.9887738     
   48800512.0052225     
   48729386.3315678     
   48654432.6501352     
   48575470.8866985     
   48492315.2404485     
   48404774.2435504     
   48312650.8535455     
   48215742.5820791     
   48113841.6636643     
   48006735.2684315     
   47894205.7630445     
   47776031.0242046     
   47651984.8093929     
   47521837.1897315     
   47385355.0500565     
   47242302.6614983     
   47092442.3320487     
   46935535.1407404     
   46771341.7611953     
   46599623.3803663     
   46420142.7183273     
   46232665.1549312     
   46036959.9690308     
   45832801.6957650     
   45619971.6070820     
   45398259.3202428     
   45167464.5384420     
   44927398.9269198     
   44677888.1269585     
   44418773.9089512     
   44149916.4642317     
   43871196.8335601     
   43582519.4679799     
   43283814.9151816     
   42975042.6214371     
   42656193.8355531     
   42327294.5970623     
   41988408.7859100     
   41639641.2051529     
   41281140.6614983     
   40913103.0008155     
   40535774.0468528     
   40149452.3811791     
   39754491.8906519     
   39351303.9952959     
   38940359.4541505     
   38522189.6291740     
   38097387.0673933     
   37666605.2388741     
   37230557.2424173     
   36790013.2617924     
   36345796.5223725     
   35898777.4607928     
   35449865.7781763     
   35000000.0000000     
   50000000.0000000     
   49990849.0317851     
   49981662.6311099     
   49972405.2541119     
   49963041.1339393     
   49953534.1687954     
   49943847.8094329     
   49933944.9459166     
   49923787.7934821     
   49913337.7773145     
   49902555.4160843     
   49891400.2040798     
   49879830.4917826     
   49867803.3647460     
   49855274.5206397     
   49842198.1443422     
   49828526.7809711     
   49814211.2067564     
   49799200.2976830     
   49783440.8958389     
   49766877.6734350     
   49749452.9944773     
   49731106.7741048     
   49711776.3356264     
   49691396.2653294     
   49669898.2651587     
   49647211.0034085     
   49623259.9636052     
   49597967.2918076     
   49571251.6425986     
   49543028.0240953     
   49513207.6423657     
   49481697.7456961     
   49448401.4692331     
   49413217.6805883     
   49376040.8270812     
   49336760.7853778     
   49295262.7143830     
   49251426.9123374     
   49205128.6791864     
   49156238.1853984     
   49104620.3485397     
   49050134.7190418     
   48992635.3767424     
   48931970.8399289     
   48867983.9887737     
   48800512.0052225     
   48729386.3315678     
   48654432.6501352     
   48575470.8866986     
   48492315.2404485     
   48404774.2435504     
   48312650.8535456     
   48215742.5820791     
   48113841.6636644     
   48006735.2684314     
   47894205.7630445     
   47776031.0242046     
   47651984.8093929     
   47521837.1897315     
   47385355.0500565     
   47242302.6614983     
   47092442.3320487     
   46935535.1407403     
   46771341.7611953     
   46599623.3803663     
   46420142.7183273     
   46232665.1549312     
   46036959.9690309     
   45832801.6957650     
   45619971.6070820     
   45398259.3202428     
   45167464.5384421     
   44927398.9269198     
   44677888.1269585     
   44418773.9089511     
   44149916.4642316     
   43871196.8335600     
   43582519.4679798     
   43283814.9151816     
   42975042.6214371     
   42656193.8355531     
   42327294.5970623     
   41988408.7859100     
   41639641.2051528     
   41281140.6614983     
   40913103.0008155     
   40535774.0468528     
   40149452.3811791     
   39754491.8906518     
   39351303.9952960     
   38940359.4541504     
   38522189.6291739     
   38097387.0673933     
   37666605.2388740     
   37230557.2424173     
   36790013.2617923     
   36345796.5223724     
   35898777.4607928     
   35449865.7781763     
   35000000.0000000     
   50000000.0000000     
   49990849.0317851     
   49981662.6311100     
   49972405.2541119     
   49963041.1339393     
   49953534.1687954     
   49943847.8094329     
   49933944.9459166     
   49923787.7934821     
   49913337.7773144     
   49902555.4160843     
   49891400.2040798     
   49879830.4917825     
   49867803.3647459     
   49855274.5206397     
   49842198.1443422     
   49828526.7809710     
   49814211.2067564     
   49799200.2976830     
   49783440.8958389     
   49766877.6734349     
   49749452.9944772     
   49731106.7741048     
   49711776.3356263     
   49691396.2653294     
   49669898.2651587     
   49647211.0034085     
   49623259.9636051     
   49597967.2918075     
   49571251.6425985     
   49543028.0240954     
   49513207.6423657     
   49481697.7456961     
   49448401.4692330     
   49413217.6805883     
   49376040.8270812     
   49336760.7853777     
   49295262.7143830     
   49251426.9123374     
   49205128.6791864     
   49156238.1853985     
   49104620.3485397     
   49050134.7190418     
   48992635.3767425     
   48931970.8399289     
   48867983.9887738     
   48800512.0052225     
   48729386.3315679     
   48654432.6501352     
   48575470.8866986     
   48492315.2404486     
   48404774.2435504     
   48312650.8535456     
   48215742.5820792     
   48113841.6636644     
   48006735.2684314     
   47894205.7630446     
   47776031.0242046     
   47651984.8093929     
   47521837.1897315     
   47385355.0500565     
   47242302.6614983     
   47092442.3320487     
   46935535.1407403     
   46771341.7611954     
   46599623.3803664     
   46420142.7183274     
   46232665.1549312     
   46036959.9690309     
   45832801.6957650     
   45619971.6070820     
   45398259.3202428     
   45167464.5384421     
   44927398.9269198     
   44677888.1269584     
   44418773.9089511     
   44149916.4642316     
   43871196.8335600     
   43582519.4679798     
   43283814.9151816     
   42975042.6214371     
   42656193.8355531     
   42327294.5970622     
   41988408.7859099     
   41639641.2051528     
   41281140.6614982     
   40913103.0008155     
   40535774.0468528     
   40149452.3811790     
   39754491.8906518     
   39351303.9952959     
   38940359.4541503     
   38522189.6291738     
   38097387.0673932     
   37666605.2388739     
   37230557.2424172     
   36790013.2617923     
   36345796.5223724     
   35898777.4607927     
   35449865.7781762     
   35000000.0000000     
   50000000.0000000     
   49990849.0317851     
   49981662.6311100     
   49972405.2541119     
   49963041.1339393     
   49953534.1687954     
   49943847.8094329     
   49933944.9459166     
   49923787.7934820     
   49913337.7773144     
   49902555.4160843     
   49891400.2040797     
   49879830.4917824     
   49867803.3647459     
   49855274.5206397     
   49842198.1443423     
   49828526.7809710     
   49814211.2067564     
   49799200.2976830     
   49783440.8958389     
   49766877.6734348     
   49749452.9944771     
   49731106.7741047     
   49711776.3356263     
   49691396.2653293     
   49669898.2651586     
   49647211.0034084     
   49623259.9636051     
   49597967.2918075     
   49571251.6425985     
   49543028.0240954     
   49513207.6423657     
   49481697.7456960     
   49448401.4692330     
   49413217.6805883     
   49376040.8270811     
   49336760.7853777     
   49295262.7143830     
   49251426.9123374     
   49205128.6791864     
   49156238.1853985     
   49104620.3485398     
   49050134.7190418     
   48992635.3767425     
   48931970.8399289     
   48867983.9887738     
   48800512.0052226     
   48729386.3315679     
   48654432.6501352     
   48575470.8866986     
   48492315.2404486     
   48404774.2435505     
   48312650.8535456     
   48215742.5820793     
   48113841.6636644     
   48006735.2684315     
   47894205.7630446     
   47776031.0242047     
   47651984.8093929     
   47521837.1897316     
   47385355.0500565     
   47242302.6614984     
   47092442.3320486     
   46935535.1407404     
   46771341.7611954     
   46599623.3803664     
   46420142.7183275     
   46232665.1549313     
   46036959.9690310     
   45832801.6957651     
   45619971.6070820     
   45398259.3202429     
   45167464.5384422     
   44927398.9269199     
   44677888.1269584     
   44418773.9089511     
   44149916.4642316     
   43871196.8335600     
   43582519.4679797     
   43283814.9151816     
   42975042.6214370     
   42656193.8355531     
   42327294.5970621     
   41988408.7859099     
   41639641.2051528     
   41281140.6614982     
   40913103.0008155     
   40535774.0468527     
   40149452.3811789     
   39754491.8906518     
   39351303.9952959     
   38940359.4541503     
   38522189.6291737     
   38097387.0673931     
   37666605.2388739     
   37230557.2424172     
   36790013.2617923     
   36345796.5223723     
   35898777.4607927     
   35449865.7781762     
   35000000.0000000     
   50000000.0000000     
   49990849.0317852     
   49981662.6311100     
   49972405.2541119     
   49963041.1339394     
   49953534.1687955     
   49943847.8094328     
   49933944.9459166     
   49923787.7934820     
   49913337.7773144     
   49902555.4160843     
   49891400.2040798     
   49879830.4917824     
   49867803.3647458     
   49855274.5206397     
   49842198.1443422     
   49828526.7809710     
   49814211.2067563     
   49799200.2976829     
   49783440.8958388     
   49766877.6734347     
   49749452.9944770     
   49731106.7741047     
   49711776.3356262     
   49691396.2653292     
   49669898.2651585     
   49647211.0034083     
   49623259.9636051     
   49597967.2918075     
   49571251.6425985     
   49543028.0240954     
   49513207.6423657     
   49481697.7456960     
   49448401.4692329     
   49413217.6805883     
   49376040.8270811     
   49336760.7853777     
   49295262.7143829     
   49251426.9123375     
   49205128.6791865     
   49156238.1853985     
   49104620.3485398     
   49050134.7190418     
   48992635.3767425     
   48931970.8399289     
   48867983.9887738     
   48800512.0052226     
   48729386.3315679     
   48654432.6501352     
   48575470.8866986     
   48492315.2404487     
   48404774.2435505     
   48312650.8535456     
   48215742.5820793     
   48113841.6636645     
   48006735.2684315     
   47894205.7630446     
   47776031.0242047     
   47651984.8093930     
   47521837.1897317     
   47385355.0500565     
   47242302.6614985     
   47092442.3320486     
   46935535.1407405     
   46771341.7611955     
   46599623.3803665     
   46420142.7183275     
   46232665.1549314     
   46036959.9690311     
   45832801.6957651     
   45619971.6070821     
   45398259.3202429     
   45167464.5384422     
   44927398.9269199     
   44677888.1269583     
   44418773.9089511     
   44149916.4642316     
   43871196.8335600     
   43582519.4679797     
   43283814.9151816     
   42975042.6214370     
   42656193.8355531     
   42327294.5970621     
   41988408.7859098     
   41639641.2051527     
   41281140.6614981     
   40913103.0008154     
   40535774.0468527     
   40149452.3811788     
   39754491.8906518     
   39351303.9952958     
   38940359.4541502     
   38522189.6291736     
   38097387.0673931     
   37666605.2388738     
   37230557.2424172     
   36790013.2617923     
   36345796.5223722     
   35898777.4607926     
   35449865.7781762     
   35000000.0000000     
   50000000.0000000     
   49990849.0317851     
   49981662.6311099     
   49972405.2541120     
   49963041.1339394     
   49953534.1687954     
   49943847.8094328     
   49933944.9459167     
   49923787.7934820     
   49913337.7773144     
   49902555.4160843     
   49891400.2040797     
   49879830.4917824     
   49867803.3647457     
   49855274.5206396     
   49842198.1443422     
   49828526.7809709     
   49814211.2067563     
   49799200.2976829     
   49783440.8958388     
   49766877.6734347     
   49749452.9944770     
   49731106.7741046     
   49711776.3356262     
   49691396.2653291     
   49669898.2651585     
   49647211.0034082     
   49623259.9636051     
   49597967.2918075     
   49571251.6425984     
   49543028.0240953     
   49513207.6423657     
   49481697.7456960     
   49448401.4692329     
   49413217.6805883     
   49376040.8270810     
   49336760.7853777     
   49295262.7143829     
   49251426.9123375     
   49205128.6791864     
   49156238.1853985     
   49104620.3485399     
   49050134.7190418     
   48992635.3767426     
   48931970.8399289     
   48867983.9887738     
   48800512.0052226     
   48729386.3315679     
   48654432.6501352     
   48575470.8866986     
   48492315.2404487     
   48404774.2435505     
   48312650.8535457     
   48215742.5820793     
   48113841.6636645     
   48006735.2684315     
   47894205.7630446     
   47776031.0242047     
   47651984.8093930     
   47521837.1897317     
   47385355.0500566     
   47242302.6614986     
   47092442.3320487     
   46935535.1407405     
   46771341.7611956     
   46599623.3803666     
   46420142.7183277     
   46232665.1549314     
   46036959.9690312     
   45832801.6957652     
   45619971.6070821     
   45398259.3202429     
   45167464.5384421     
   44927398.9269199     
   44677888.1269583     
   44418773.9089510     
   44149916.4642316     
   43871196.8335600     
   43582519.4679797     
   43283814.9151815     
   42975042.6214370     
   42656193.8355530     
   42327294.5970621     
   41988408.7859098     
   41639641.2051527     
   41281140.6614980     
   40913103.0008153     
   40535774.0468527     
   40149452.3811788     
   39754491.8906517     
   39351303.9952958     
   38940359.4541502     
   38522189.6291735     
   38097387.0673931     
   37666605.2388737     
   37230557.2424171     
   36790013.2617922     
   36345796.5223722     
   35898777.4607926     
   35449865.7781762     
   35000000.0000000     
   50000000.0000000     
   49990849.0317851     
   49981662.6311099     
   49972405.2541119     
   49963041.1339394     
   49953534.1687954     
   49943847.8094328     
   49933944.9459166     
   49923787.7934819     
   49913337.7773143     
   49902555.4160842     
   49891400.2040796     
   49879830.4917824     
   49867803.3647457     
   49855274.5206396     
   49842198.1443421     
   49828526.7809709     
   49814211.2067562     
   49799200.2976829     
   49783440.8958387     
   49766877.6734346     
   49749452.9944769     
   49731106.7741045     
   49711776.3356262     
   49691396.2653290     
   49669898.2651584     
   49647211.0034082     
   49623259.9636050     
   49597967.2918074     
   49571251.6425983     
   49543028.0240953     
   49513207.6423657     
   49481697.7456960     
   49448401.4692329     
   49413217.6805883     
   49376040.8270810     
   49336760.7853777     
   49295262.7143829     
   49251426.9123375     
   49205128.6791865     
   49156238.1853985     
   49104620.3485399     
   49050134.7190418     
   48992635.3767426     
   48931970.8399289     
   48867983.9887738     
   48800512.0052225     
   48729386.3315680     
   48654432.6501353     
   48575470.8866986     
   48492315.2404487     
   48404774.2435505     
   48312650.8535457     
   48215742.5820793     
   48113841.6636645     
   48006735.2684316     
   47894205.7630447     
   47776031.0242047     
   47651984.8093931     
   47521837.1897318     
   47385355.0500567     
   47242302.6614987     
   47092442.3320487     
   46935535.1407406     
   46771341.7611957     
   46599623.3803667     
   46420142.7183278     
   46232665.1549315     
   46036959.9690312     
   45832801.6957652     
   45619971.6070821     
   45398259.3202429     
   45167464.5384421     
   44927398.9269199     
   44677888.1269583     
   44418773.9089510     
   44149916.4642316     
   43871196.8335599     
   43582519.4679798     
   43283814.9151815     
   42975042.6214370     
   42656193.8355530     
   42327294.5970620     
   41988408.7859098     
   41639641.2051526     
   41281140.6614980     
   40913103.0008153     
   40535774.0468526     
   40149452.3811788     
   39754491.8906517     
   39351303.9952958     
   38940359.4541501     
   38522189.6291735     
   38097387.0673930     
   37666605.2388737     
   37230557.2424170     
   36790013.2617921     
   36345796.5223722     
   35898777.4607926     
   35449865.7781762     
   35000000.0000000     
   50000000.0000000     
   49990849.0317851     
   49981662.6311099     
   49972405.2541120     
   49963041.1339393     
   49953534.1687954     
   49943847.8094327     
   49933944.9459165     
   49923787.7934819     
   49913337.7773143     
   49902555.4160842     
   49891400.2040796     
   49879830.4917823     
   49867803.3647457     
   49855274.5206395     
   49842198.1443421     
   49828526.7809709     
   49814211.2067562     
   49799200.2976828     
   49783440.8958387     
   49766877.6734345     
   49749452.9944769     
   49731106.7741044     
   49711776.3356261     
   49691396.2653289     
   49669898.2651583     
   49647211.0034081     
   49623259.9636049     
   49597967.2918074     
   49571251.6425983     
   49543028.0240953     
   49513207.6423657     
   49481697.7456960     
   49448401.4692329     
   49413217.6805882     
   49376040.8270810     
   49336760.7853777     
   49295262.7143829     
   49251426.9123375     
   49205128.6791865     
   49156238.1853986     
   49104620.3485399     
   49050134.7190419     
   48992635.3767426     
   48931970.8399290     
   48867983.9887738     
   48800512.0052226     
   48729386.3315679     
   48654432.6501353     
   48575470.8866985     
   48492315.2404487     
   48404774.2435504     
   48312650.8535457     
   48215742.5820793     
   48113841.6636645     
   48006735.2684317     
   47894205.7630447     
   47776031.0242048     
   47651984.8093932     
   47521837.1897319     
   47385355.0500569     
   47242302.6614987     
   47092442.3320488     
   46935535.1407407     
   46771341.7611958     
   46599623.3803668     
   46420142.7183279     
   46232665.1549316     
   46036959.9690312     
   45832801.6957653     
   45619971.6070822     
   45398259.3202430     
   45167464.5384421     
   44927398.9269198     
   44677888.1269584     
   44418773.9089510     
   44149916.4642316     
   43871196.8335599     
   43582519.4679797     
   43283814.9151815     
   42975042.6214370     
   42656193.8355530     
   42327294.5970620     
   41988408.7859098     
   41639641.2051526     
   41281140.6614979     
   40913103.0008153     
   40535774.0468526     
   40149452.3811788     
   39754491.8906516     
   39351303.9952957     
   38940359.4541501     
   38522189.6291734     
   38097387.0673929     
   37666605.2388737     
   37230557.2424170     
   36790013.2617921     
   36345796.5223722     
   35898777.4607925     
   35449865.7781761     
   35000000.0000000     
   50000000.0000000     
   49990849.0317852     
   49981662.6311100     
   49972405.2541119     
   49963041.1339393     
   49953534.1687954     
   49943847.8094328     
   49933944.9459164     
   49923787.7934819     
   49913337.7773142     
   49902555.4160841     
   49891400.2040796     
   49879830.4917823     
   49867803.3647457     
   49855274.5206395     
   49842198.1443420     
   49828526.7809708     
   49814211.2067561     
   49799200.2976827     
   49783440.8958386     
   49766877.6734345     
   49749452.9944768     
   49731106.7741043     
   49711776.3356260     
   49691396.2653288     
   49669898.2651582     
   49647211.0034081     
   49623259.9636048     
   49597967.2918074     
   49571251.6425982     
   49543028.0240952     
   49513207.6423656     
   49481697.7456960     
   49448401.4692329     
   49413217.6805882     
   49376040.8270810     
   49336760.7853776     
   49295262.7143829     
   49251426.9123376     
   49205128.6791865     
   49156238.1853986     
   49104620.3485399     
   49050134.7190419     
   48992635.3767427     
   48931970.8399290     
   48867983.9887738     
   48800512.0052227     
   48729386.3315679     
   48654432.6501354     
   48575470.8866985     
   48492315.2404487     
   48404774.2435504     
   48312650.8535457     
   48215742.5820793     
   48113841.6636646     
   48006735.2684317     
   47894205.7630447     
   47776031.0242049     
   47651984.8093932     
   47521837.1897321     
   47385355.0500569     
   47242302.6614988     
   47092442.3320490     
   46935535.1407408     
   46771341.7611959     
   46599623.3803669     
   46420142.7183280     
   46232665.1549317     
   46036959.9690313     
   45832801.6957654     
   45619971.6070823     
   45398259.3202429     
   45167464.5384421     
   44927398.9269197     
   44677888.1269584     
   44418773.9089509     
   44149916.4642316     
   43871196.8335599     
   43582519.4679797     
   43283814.9151816     
   42975042.6214371     
   42656193.8355530     
   42327294.5970619     
   41988408.7859097     
   41639641.2051525     
   41281140.6614979     
   40913103.0008153     
   40535774.0468526     
   40149452.3811787     
   39754491.8906516     
   39351303.9952956     
   38940359.4541500     
   38522189.6291734     
   38097387.0673928     
   37666605.2388736     
   37230557.2424170     
   36790013.2617921     
   36345796.5223722     
   35898777.4607925     
   35449865.7781761     
   35000000.0000000     
   50000000.0000000     
   49990849.0317852     
   49981662.6311099     
   49972405.2541119     
   49963041.1339393     
   49953534.1687953     
   49943847.8094327     
   49933944.9459163     
   49923787.7934819     
   49913337.7773142     
   49902555.4160841     
   49891400.2040795     
   49879830.4917823     
   49867803.3647456     
   49855274.5206394     
   49842198.1443419     
   49828526.7809708     
   49814211.2067561     
   49799200.2976826     
   49783440.8958385     
   49766877.6734344     
   49749452.9944768     
   49731106.7741042     
   49711776.3356259     
   49691396.2653288     
   49669898.2651581     
   49647211.0034081     
   49623259.9636048     
   49597967.2918073     
   49571251.6425982     
   49543028.0240952     
   49513207.6423656     
   49481697.7456960     
   49448401.4692330     
   49413217.6805882     
   49376040.8270810     
   49336760.7853776     
   49295262.7143829     
   49251426.9123375     
   49205128.6791866     
   49156238.1853986     
   49104620.3485400     
   49050134.7190420     
   48992635.3767427     
   48931970.8399291     
   48867983.9887738     
   48800512.0052227     
   48729386.3315680     
   48654432.6501354     
   48575470.8866985     
   48492315.2404487     
   48404774.2435504     
   48312650.8535457     
   48215742.5820793     
   48113841.6636646     
   48006735.2684317     
   47894205.7630447     
   47776031.0242051     
   47651984.8093933     
   47521837.1897321     
   47385355.0500570     
   47242302.6614989     
   47092442.3320491     
   46935535.1407408     
   46771341.7611960     
   46599623.3803670     
   46420142.7183281     
   46232665.1549316     
   46036959.9690313     
   45832801.6957653     
   45619971.6070823     
   45398259.3202429     
   45167464.5384421     
   44927398.9269197     
   44677888.1269583     
   44418773.9089509     
   44149916.4642315     
   43871196.8335599     
   43582519.4679797     
   43283814.9151816     
   42975042.6214370     
   42656193.8355529     
   42327294.5970619     
   41988408.7859097     
   41639641.2051525     
   41281140.6614978     
   40913103.0008153     
   40535774.0468526     
   40149452.3811787     
   39754491.8906516     
   39351303.9952956     
   38940359.4541500     
   38522189.6291733     
   38097387.0673928     
   37666605.2388735     
   37230557.2424169     
   36790013.2617921     
   36345796.5223721     
   35898777.4607925     
   35449865.7781761     
   35000000.0000000     
   50000000.0000000     
   49990849.0317852     
   49981662.6311100     
   49972405.2541120     
   49963041.1339393     
   49953534.1687953     
   49943847.8094327     
   49933944.9459163     
   49923787.7934818     
   49913337.7773142     
   49902555.4160840     
   49891400.2040795     
   49879830.4917823     
   49867803.3647457     
   49855274.5206393     
   49842198.1443419     
   49828526.7809708     
   49814211.2067560     
   49799200.2976826     
   49783440.8958385     
   49766877.6734344     
   49749452.9944767     
   49731106.7741043     
   49711776.3356258     
   49691396.2653287     
   49669898.2651581     
   49647211.0034080     
   49623259.9636047     
   49597967.2918073     
   49571251.6425982     
   49543028.0240952     
   49513207.6423656     
   49481697.7456960     
   49448401.4692329     
   49413217.6805882     
   49376040.8270811     
   49336760.7853777     
   49295262.7143830     
   49251426.9123375     
   49205128.6791867     
   49156238.1853987     
   49104620.3485400     
   49050134.7190421     
   48992635.3767428     
   48931970.8399290     
   48867983.9887739     
   48800512.0052227     
   48729386.3315680     
   48654432.6501354     
   48575470.8866985     
   48492315.2404487     
   48404774.2435504     
   48312650.8535457     
   48215742.5820793     
   48113841.6636647     
   48006735.2684318     
   47894205.7630448     
   47776031.0242051     
   47651984.8093934     
   47521837.1897323     
   47385355.0500571     
   47242302.6614989     
   47092442.3320492     
   46935535.1407409     
   46771341.7611961     
   46599623.3803670     
   46420142.7183281     
   46232665.1549317     
   46036959.9690313     
   45832801.6957654     
   45619971.6070823     
   45398259.3202430     
   45167464.5384421     
   44927398.9269197     
   44677888.1269584     
   44418773.9089509     
   44149916.4642315     
   43871196.8335599     
   43582519.4679796     
   43283814.9151816     
   42975042.6214371     
   42656193.8355530     
   42327294.5970619     
   41988408.7859097     
   41639641.2051524     
   41281140.6614978     
   40913103.0008153     
   40535774.0468526     
   40149452.3811787     
   39754491.8906515     
   39351303.9952955     
   38940359.4541499     
   38522189.6291732     
   38097387.0673927     
   37666605.2388735     
   37230557.2424168     
   36790013.2617921     
   36345796.5223721     
   35898777.4607925     
   35449865.7781760     
   35000000.0000000     
   50000000.0000000     
   49990849.0317852     
   49981662.6311100     
   49972405.2541120     
   49963041.1339392     
   49953534.1687953     
   49943847.8094327     
   49933944.9459163     
   49923787.7934817     
   49913337.7773142     
   49902555.4160839     
   49891400.2040794     
   49879830.4917823     
   49867803.3647457     
   49855274.5206393     
   49842198.1443418     
   49828526.7809708     
   49814211.2067560     
   49799200.2976825     
   49783440.8958384     
   49766877.6734343     
   49749452.9944766     
   49731106.7741042     
   49711776.3356258     
   49691396.2653287     
   49669898.2651580     
   49647211.0034080     
   49623259.9636047     
   49597967.2918072     
   49571251.6425981     
   49543028.0240951     
   49513207.6423657     
   49481697.7456960     
   49448401.4692329     
   49413217.6805883     
   49376040.8270811     
   49336760.7853777     
   49295262.7143830     
   49251426.9123375     
   49205128.6791867     
   49156238.1853988     
   49104620.3485401     
   49050134.7190422     
   48992635.3767428     
   48931970.8399291     
   48867983.9887740     
   48800512.0052226     
   48729386.3315680     
   48654432.6501354     
   48575470.8866986     
   48492315.2404487     
   48404774.2435505     
   48312650.8535457     
   48215742.5820793     
   48113841.6636647     
   48006735.2684318     
   47894205.7630448     
   47776031.0242051     
   47651984.8093935     
   47521837.1897324     
   47385355.0500572     
   47242302.6614990     
   47092442.3320493     
   46935535.1407410     
   46771341.7611961     
   46599623.3803671     
   46420142.7183282     
   46232665.1549317     
   46036959.9690314     
   45832801.6957655     
   45619971.6070823     
   45398259.3202430     
   45167464.5384421     
   44927398.9269197     
   44677888.1269584     
   44418773.9089509     
   44149916.4642314     
   43871196.8335599     
   43582519.4679796     
   43283814.9151816     
   42975042.6214370     
   42656193.8355529     
   42327294.5970619     
   41988408.7859096     
   41639641.2051524     
   41281140.6614978     
   40913103.0008152     
   40535774.0468526     
   40149452.3811787     
   39754491.8906515     
   39351303.9952955     
   38940359.4541498     
   38522189.6291732     
   38097387.0673926     
   37666605.2388735     
   37230557.2424168     
   36790013.2617920     
   36345796.5223721     
   35898777.4607924     
   35449865.7781760     
   35000000.0000000     
   50000000.0000000     
   49990849.0317852     
   49981662.6311100     
   49972405.2541120     
   49963041.1339392     
   49953534.1687953     
   49943847.8094326     
   49933944.9459162     
   49923787.7934816     
   49913337.7773141     
   49902555.4160838     
   49891400.2040793     
   49879830.4917823     
   49867803.3647456     
   49855274.5206393     
   49842198.1443418     
   49828526.7809708     
   49814211.2067559     
   49799200.2976824     
   49783440.8958383     
   49766877.6734342     
   49749452.9944766     
   49731106.7741041     
   49711776.3356257     
   49691396.2653287     
   49669898.2651581     
   49647211.0034079     
   49623259.9636047     
   49597967.2918072     
   49571251.6425981     
   49543028.0240951     
   49513207.6423657     
   49481697.7456960     
   49448401.4692330     
   49413217.6805883     
   49376040.8270811     
   49336760.7853777     
   49295262.7143830     
   49251426.9123376     
   49205128.6791868     
   49156238.1853989     
   49104620.3485402     
   49050134.7190422     
   48992635.3767429     
   48931970.8399291     
   48867983.9887741     
   48800512.0052226     
   48729386.3315680     
   48654432.6501354     
   48575470.8866986     
   48492315.2404487     
   48404774.2435504     
   48312650.8535456     
   48215742.5820794     
   48113841.6636647     
   48006735.2684318     
   47894205.7630449     
   47776031.0242052     
   47651984.8093936     
   47521837.1897324     
   47385355.0500573     
   47242302.6614991     
   47092442.3320494     
   46935535.1407411     
   46771341.7611962     
   46599623.3803671     
   46420142.7183283     
   46232665.1549318     
   46036959.9690315     
   45832801.6957655     
   45619971.6070824     
   45398259.3202431     
   45167464.5384422     
   44927398.9269197     
   44677888.1269584     
   44418773.9089509     
   44149916.4642314     
   43871196.8335599     
   43582519.4679796     
   43283814.9151815     
   42975042.6214370     
   42656193.8355529     
   42327294.5970618     
   41988408.7859097     
   41639641.2051524     
   41281140.6614977     
   40913103.0008152     
   40535774.0468526     
   40149452.3811786     
   39754491.8906515     
   39351303.9952954     
   38940359.4541498     
   38522189.6291732     
   38097387.0673925     
   37666605.2388735     
   37230557.2424167     
   36790013.2617920     
   36345796.5223721     
   35898777.4607924     
   35449865.7781760     
   35000000.0000000     
   50000000.0000000     
   49990849.0317852     
   49981662.6311100     
   49972405.2541120     
   49963041.1339392     
   49953534.1687953     
   49943847.8094326     
   49933944.9459161     
   49923787.7934816     
   49913337.7773141     
   49902555.4160838     
   49891400.2040793     
   49879830.4917822     
   49867803.3647456     
   49855274.5206392     
   49842198.1443417     
   49828526.7809707     
   49814211.2067560     
   49799200.2976823     
   49783440.8958382     
   49766877.6734341     
   49749452.9944766     
   49731106.7741041     
   49711776.3356256     
   49691396.2653287     
   49669898.2651580     
   49647211.0034079     
   49623259.9636047     
   49597967.2918071     
   49571251.6425981     
   49543028.0240951     
   49513207.6423658     
   49481697.7456960     
   49448401.4692330     
   49413217.6805883     
   49376040.8270811     
   49336760.7853778     
   49295262.7143831     
   49251426.9123376     
   49205128.6791869     
   49156238.1853989     
   49104620.3485402     
   49050134.7190423     
   48992635.3767429     
   48931970.8399291     
   48867983.9887741     
   48800512.0052227     
   48729386.3315681     
   48654432.6501354     
   48575470.8866986     
   48492315.2404486     
   48404774.2435505     
   48312650.8535456     
   48215742.5820794     
   48113841.6636647     
   48006735.2684318     
   47894205.7630449     
   47776031.0242053     
   47651984.8093937     
   47521837.1897325     
   47385355.0500574     
   47242302.6614992     
   47092442.3320494     
   46935535.1407412     
   46771341.7611962     
   46599623.3803672     
   46420142.7183283     
   46232665.1549318     
   46036959.9690315     
   45832801.6957655     
   45619971.6070824     
   45398259.3202432     
   45167464.5384422     
   44927398.9269197     
   44677888.1269584     
   44418773.9089509     
   44149916.4642314     
   43871196.8335599     
   43582519.4679796     
   43283814.9151815     
   42975042.6214370     
   42656193.8355529     
   42327294.5970618     
   41988408.7859096     
   41639641.2051524     
   41281140.6614977     
   40913103.0008152     
   40535774.0468526     
   40149452.3811786     
   39754491.8906515     
   39351303.9952953     
   38940359.4541498     
   38522189.6291731     
   38097387.0673925     
   37666605.2388734     
   37230557.2424167     
   36790013.2617919     
   36345796.5223721     
   35898777.4607924     
   35449865.7781760     
   35000000.0000000     
   50000000.0000000     
   49990849.0317852     
   49981662.6311100     
   49972405.2541120     
   49963041.1339392     
   49953534.1687953     
   49943847.8094326     
   49933944.9459161     
   49923787.7934816     
   49913337.7773140     
   49902555.4160837     
   49891400.2040793     
   49879830.4917822     
   49867803.3647456     
   49855274.5206392     
   49842198.1443417     
   49828526.7809707     
   49814211.2067560     
   49799200.2976823     
   49783440.8958382     
   49766877.6734341     
   49749452.9944766     
   49731106.7741041     
   49711776.3356256     
   49691396.2653287     
   49669898.2651580     
   49647211.0034079     
   49623259.9636047     
   49597967.2918071     
   49571251.6425981     
   49543028.0240951     
   49513207.6423658     
   49481697.7456960     
   49448401.4692330     
   49413217.6805884     
   49376040.8270811     
   49336760.7853778     
   49295262.7143832     
   49251426.9123376     
   49205128.6791869     
   49156238.1853990     
   49104620.3485402     
   49050134.7190422     
   48992635.3767429     
   48931970.8399292     
   48867983.9887741     
   48800512.0052228     
   48729386.3315681     
   48654432.6501354     
   48575470.8866987     
   48492315.2404487     
   48404774.2435504     
   48312650.8535456     
   48215742.5820795     
   48113841.6636647     
   48006735.2684318     
   47894205.7630450     
   47776031.0242053     
   47651984.8093938     
   47521837.1897326     
   47385355.0500574     
   47242302.6614993     
   47092442.3320495     
   46935535.1407413     
   46771341.7611963     
   46599623.3803673     
   46420142.7183283     
   46232665.1549319     
   46036959.9690316     
   45832801.6957655     
   45619971.6070824     
   45398259.3202432     
   45167464.5384423     
   44927398.9269198     
   44677888.1269584     
   44418773.9089510     
   44149916.4642314     
   43871196.8335599     
   43582519.4679796     
   43283814.9151815     
   42975042.6214370     
   42656193.8355529     
   42327294.5970618     
   41988408.7859096     
   41639641.2051524     
   41281140.6614977     
   40913103.0008152     
   40535774.0468525     
   40149452.3811786     
   39754491.8906514     
   39351303.9952953     
   38940359.4541498     
   38522189.6291731     
   38097387.0673925     
   37666605.2388734     
   37230557.2424167     
   36790013.2617919     
   36345796.5223721     
   35898777.4607924     
   35449865.7781760     
   35000000.0000000     
   50000000.0000000     
   49990849.0317851     
   49981662.6311099     
   49972405.2541120     
   49963041.1339392     
   49953534.1687953     
   49943847.8094326     
   49933944.9459161     
   49923787.7934815     
   49913337.7773139     
   49902555.4160837     
   49891400.2040792     
   49879830.4917822     
   49867803.3647455     
   49855274.5206391     
   49842198.1443416     
   49828526.7809706     
   49814211.2067559     
   49799200.2976822     
   49783440.8958381     
   49766877.6734340     
   49749452.9944765     
   49731106.7741041     
   49711776.3356256     
   49691396.2653286     
   49669898.2651580     
   49647211.0034079     
   49623259.9636046     
   49597967.2918071     
   49571251.6425981     
   49543028.0240951     
   49513207.6423658     
   49481697.7456961     
   49448401.4692330     
   49413217.6805884     
   49376040.8270811     
   49336760.7853779     
   49295262.7143832     
   49251426.9123378     
   49205128.6791869     
   49156238.1853991     
   49104620.3485402     
   49050134.7190422     
   48992635.3767430     
   48931970.8399293     
   48867983.9887741     
   48800512.0052228     
   48729386.3315681     
   48654432.6501354     
   48575470.8866987     
   48492315.2404487     
   48404774.2435505     
   48312650.8535456     
   48215742.5820795     
   48113841.6636647     
   48006735.2684319     
   47894205.7630450     
   47776031.0242053     
   47651984.8093939     
   47521837.1897327     
   47385355.0500575     
   47242302.6614994     
   47092442.3320496     
   46935535.1407414     
   46771341.7611964     
   46599623.3803673     
   46420142.7183283     
   46232665.1549319     
   46036959.9690316     
   45832801.6957655     
   45619971.6070825     
   45398259.3202432     
   45167464.5384423     
   44927398.9269198     
   44677888.1269583     
   44418773.9089510     
   44149916.4642314     
   43871196.8335599     
   43582519.4679796     
   43283814.9151815     
   42975042.6214369     
   42656193.8355528     
   42327294.5970618     
   41988408.7859096     
   41639641.2051524     
   41281140.6614977     
   40913103.0008152     
   40535774.0468525     
   40149452.3811786     
   39754491.8906514     
   39351303.9952953     
   38940359.4541497     
   38522189.6291730     
   38097387.0673924     
   37666605.2388733     
   37230557.2424167     
   36790013.2617919     
   36345796.5223721     
   35898777.4607924     
   35449865.7781760     
   35000000.0000000     
   50000000.0000000     
   49990849.0317851     
   49981662.6311099     
   49972405.2541120     
   49963041.1339392     
   49953534.1687953     
   49943847.8094326     
   49933944.9459160     
   49923787.7934815     
   49913337.7773139     
   49902555.4160837     
   49891400.2040792     
   49879830.4917822     
   49867803.3647455     
   49855274.5206391     
   49842198.1443416     
   49828526.7809705     
   49814211.2067559     
   49799200.2976822     
   49783440.8958379     
   49766877.6734340     
   49749452.9944764     
   49731106.7741040     
   49711776.3356256     
   49691396.2653286     
   49669898.2651580     
   49647211.0034079     
   49623259.9636047     
   49597967.2918071     
   49571251.6425980     
   49543028.0240952     
   49513207.6423658     
   49481697.7456961     
   49448401.4692330     
   49413217.6805884     
   49376040.8270811     
   49336760.7853779     
   49295262.7143833     
   49251426.9123378     
   49205128.6791869     
   49156238.1853991     
   49104620.3485403     
   49050134.7190422     
   48992635.3767430     
   48931970.8399294     
   48867983.9887741     
   48800512.0052229     
   48729386.3315681     
   48654432.6501354     
   48575470.8866987     
   48492315.2404487     
   48404774.2435505     
   48312650.8535457     
   48215742.5820795     
   48113841.6636647     
   48006735.2684319     
   47894205.7630451     
   47776031.0242053     
   47651984.8093940     
   47521837.1897328     
   47385355.0500576     
   47242302.6614994     
   47092442.3320497     
   46935535.1407415     
   46771341.7611965     
   46599623.3803674     
   46420142.7183283     
   46232665.1549320     
   46036959.9690317     
   45832801.6957656     
   45619971.6070826     
   45398259.3202432     
   45167464.5384424     
   44927398.9269199     
   44677888.1269583     
   44418773.9089510     
   44149916.4642314     
   43871196.8335599     
   43582519.4679796     
   43283814.9151815     
   42975042.6214369     
   42656193.8355528     
   42327294.5970618     
   41988408.7859096     
   41639641.2051524     
   41281140.6614977     
   40913103.0008151     
   40535774.0468524     
   40149452.3811786     
   39754491.8906514     
   39351303.9952952     
   38940359.4541496     
   38522189.6291730     
   38097387.0673923     
   37666605.2388733     
   37230557.2424167     
   36790013.2617919     
   36345796.5223721     
   35898777.4607924     
   35449865.7781760     
   35000000.0000000     
   50000000.0000000     
   49990849.0317851     
   49981662.6311099     
   49972405.2541119     
   49963041.1339392     
   49953534.1687953     
   49943847.8094326     
   49933944.9459160     
   49923787.7934815     
   49913337.7773138     
   49902555.4160837     
   49891400.2040792     
   49879830.4917822     
   49867803.3647454     
   49855274.5206391     
   49842198.1443416     
   49828526.7809705     
   49814211.2067558     
   49799200.2976821     
   49783440.8958379     
   49766877.6734339     
   49749452.9944764     
   49731106.7741040     
   49711776.3356256     
   49691396.2653286     
   49669898.2651580     
   49647211.0034078     
   49623259.9636047     
   49597967.2918071     
   49571251.6425980     
   49543028.0240952     
   49513207.6423657     
   49481697.7456962     
   49448401.4692331     
   49413217.6805884     
   49376040.8270812     
   49336760.7853780     
   49295262.7143834     
   49251426.9123378     
   49205128.6791869     
   49156238.1853992     
   49104620.3485403     
   49050134.7190422     
   48992635.3767430     
   48931970.8399294     
   48867983.9887742     
   48800512.0052230     
   48729386.3315681     
   48654432.6501354     
   48575470.8866987     
   48492315.2404486     
   48404774.2435505     
   48312650.8535457     
   48215742.5820795     
   48113841.6636646     
   48006735.2684319     
   47894205.7630451     
   47776031.0242054     
   47651984.8093940     
   47521837.1897329     
   47385355.0500577     
   47242302.6614995     
   47092442.3320497     
   46935535.1407416     
   46771341.7611965     
   46599623.3803675     
   46420142.7183284     
   46232665.1549320     
   46036959.9690317     
   45832801.6957657     
   45619971.6070826     
   45398259.3202432     
   45167464.5384424     
   44927398.9269199     
   44677888.1269584     
   44418773.9089510     
   44149916.4642315     
   43871196.8335599     
   43582519.4679796     
   43283814.9151814     
   42975042.6214369     
   42656193.8355528     
   42327294.5970618     
   41988408.7859096     
   41639641.2051524     
   41281140.6614977     
   40913103.0008151     
   40535774.0468524     
   40149452.3811785     
   39754491.8906514     
   39351303.9952951     
   38940359.4541495     
   38522189.6291729     
   38097387.0673923     
   37666605.2388733     
   37230557.2424167     
   36790013.2617918     
   36345796.5223720     
   35898777.4607924     
   35449865.7781760     
   35000000.0000000     
   50000000.0000000     
   49990849.0317851     
   49981662.6311099     
   49972405.2541119     
   49963041.1339393     
   49953534.1687953     
   49943847.8094325     
   49933944.9459160     
   49923787.7934815     
   49913337.7773138     
   49902555.4160837     
   49891400.2040792     
   49879830.4917821     
   49867803.3647454     
   49855274.5206390     
   49842198.1443416     
   49828526.7809705     
   49814211.2067558     
   49799200.2976821     
   49783440.8958378     
   49766877.6734339     
   49749452.9944764     
   49731106.7741039     
   49711776.3356256     
   49691396.2653285     
   49669898.2651580     
   49647211.0034078     
   49623259.9636047     
   49597967.2918071     
   49571251.6425981     
   49543028.0240952     
   49513207.6423656     
   49481697.7456962     
   49448401.4692331     
   49413217.6805884     
   49376040.8270812     
   49336760.7853780     
   49295262.7143834     
   49251426.9123378     
   49205128.6791870     
   49156238.1853992     
   49104620.3485403     
   49050134.7190423     
   48992635.3767430     
   48931970.8399294     
   48867983.9887743     
   48800512.0052230     
   48729386.3315681     
   48654432.6501355     
   48575470.8866987     
   48492315.2404486     
   48404774.2435505     
   48312650.8535457     
   48215742.5820795     
   48113841.6636647     
   48006735.2684318     
   47894205.7630452     
   47776031.0242054     
   47651984.8093941     
   47521837.1897330     
   47385355.0500577     
   47242302.6614996     
   47092442.3320498     
   46935535.1407417     
   46771341.7611966     
   46599623.3803675     
   46420142.7183284     
   46232665.1549321     
   46036959.9690318     
   45832801.6957657     
   45619971.6070826     
   45398259.3202433     
   45167464.5384424     
   44927398.9269199     
   44677888.1269584     
   44418773.9089509     
   44149916.4642315     
   43871196.8335599     
   43582519.4679796     
   43283814.9151814     
   42975042.6214368     
   42656193.8355528     
   42327294.5970618     
   41988408.7859096     
   41639641.2051524     
   41281140.6614977     
   40913103.0008151     
   40535774.0468524     
   40149452.3811784     
   39754491.8906513     
   39351303.9952951     
   38940359.4541495     
   38522189.6291729     
   38097387.0673922     
   37666605.2388732     
   37230557.2424167     
   36790013.2617918     
   36345796.5223720     
   35898777.4607924     
   35449865.7781760     
   35000000.0000000     
   50000000.0000000     
   49990849.0317851     
   49981662.6311099     
   49972405.2541118     
   49963041.1339393     
   49953534.1687953     
   49943847.8094325     
   49933944.9459160     
   49923787.7934814     
   49913337.7773137     
   49902555.4160837     
   49891400.2040791     
   49879830.4917821     
   49867803.3647454     
   49855274.5206390     
   49842198.1443416     
   49828526.7809705     
   49814211.2067557     
   49799200.2976820     
   49783440.8958378     
   49766877.6734339     
   49749452.9944763     
   49731106.7741039     
   49711776.3356256     
   49691396.2653285     
   49669898.2651580     
   49647211.0034079     
   49623259.9636047     
   49597967.2918071     
   49571251.6425981     
   49543028.0240952     
   49513207.6423656     
   49481697.7456963     
   49448401.4692332     
   49413217.6805884     
   49376040.8270813     
   49336760.7853781     
   49295262.7143834     
   49251426.9123378     
   49205128.6791870     
   49156238.1853992     
   49104620.3485403     
   49050134.7190422     
   48992635.3767430     
   48931970.8399294     
   48867983.9887743     
   48800512.0052230     
   48729386.3315681     
   48654432.6501355     
   48575470.8866988     
   48492315.2404486     
   48404774.2435505     
   48312650.8535457     
   48215742.5820794     
   48113841.6636647     
   48006735.2684319     
   47894205.7630452     
   47776031.0242055     
   47651984.8093941     
   47521837.1897330     
   47385355.0500578     
   47242302.6614996     
   47092442.3320498     
   46935535.1407417     
   46771341.7611967     
   46599623.3803676     
   46420142.7183285     
   46232665.1549321     
   46036959.9690318     
   45832801.6957658     
   45619971.6070827     
   45398259.3202433     
   45167464.5384424     
   44927398.9269199     
   44677888.1269585     
   44418773.9089509     
   44149916.4642315     
   43871196.8335599     
   43582519.4679796     
   43283814.9151813     
   42975042.6214368     
   42656193.8355527     
   42327294.5970618     
   41988408.7859096     
   41639641.2051523     
   41281140.6614977     
   40913103.0008151     
   40535774.0468523     
   40149452.3811784     
   39754491.8906512     
   39351303.9952951     
   38940359.4541495     
   38522189.6291728     
   38097387.0673922     
   37666605.2388731     
   37230557.2424167     
   36790013.2617918     
   36345796.5223719     
   35898777.4607924     
   35449865.7781759     
   35000000.0000000     
   50000000.0000000     
   49990849.0317851     
   49981662.6311099     
   49972405.2541118     
   49963041.1339393     
   49953534.1687953     
   49943847.8094324     
   49933944.9459160     
   49923787.7934814     
   49913337.7773137     
   49902555.4160836     
   49891400.2040791     
   49879830.4917821     
   49867803.3647453     
   49855274.5206390     
   49842198.1443416     
   49828526.7809705     
   49814211.2067557     
   49799200.2976821     
   49783440.8958378     
   49766877.6734338     
   49749452.9944763     
   49731106.7741039     
   49711776.3356256     
   49691396.2653285     
   49669898.2651580     
   49647211.0034079     
   49623259.9636047     
   49597967.2918072     
   49571251.6425981     
   49543028.0240952     
   49513207.6423656     
   49481697.7456962     
   49448401.4692332     
   49413217.6805884     
   49376040.8270814     
   49336760.7853781     
   49295262.7143835     
   49251426.9123379     
   49205128.6791871     
   49156238.1853992     
   49104620.3485403     
   49050134.7190423     
   48992635.3767430     
   48931970.8399294     
   48867983.9887743     
   48800512.0052230     
   48729386.3315680     
   48654432.6501355     
   48575470.8866988     
   48492315.2404487     
   48404774.2435505     
   48312650.8535457     
   48215742.5820794     
   48113841.6636647     
   48006735.2684319     
   47894205.7630452     
   47776031.0242054     
   47651984.8093942     
   47521837.1897329     
   47385355.0500578     
   47242302.6614996     
   47092442.3320499     
   46935535.1407418     
   46771341.7611967     
   46599623.3803676     
   46420142.7183285     
   46232665.1549322     
   46036959.9690318     
   45832801.6957658     
   45619971.6070827     
   45398259.3202433     
   45167464.5384424     
   44927398.9269200     
   44677888.1269585     
   44418773.9089510     
   44149916.4642315     
   43871196.8335599     
   43582519.4679796     
   43283814.9151814     
   42975042.6214368     
   42656193.8355527     
   42327294.5970619     
   41988408.7859096     
   41639641.2051523     
   41281140.6614977     
   40913103.0008151     
   40535774.0468522     
   40149452.3811783     
   39754491.8906512     
   39351303.9952950     
   38940359.4541495     
   38522189.6291729     
   38097387.0673922     
   37666605.2388731     
   37230557.2424166     
   36790013.2617918     
   36345796.5223718     
   35898777.4607923     
   35449865.7781759     
   35000000.0000000     
   50000000.0000000     
   49990849.0317851     
   49981662.6311098     
   49972405.2541118     
   49963041.1339392     
   49953534.1687953     
   49943847.8094324     
   49933944.9459159     
   49923787.7934814     
   49913337.7773137     
   49902555.4160836     
   49891400.2040791     
   49879830.4917821     
   49867803.3647453     
   49855274.5206391     
   49842198.1443417     
   49828526.7809705     
   49814211.2067556     
   49799200.2976820     
   49783440.8958377     
   49766877.6734337     
   49749452.9944764     
   49731106.7741039     
   49711776.3356256     
   49691396.2653285     
   49669898.2651580     
   49647211.0034080     
   49623259.9636047     
   49597967.2918072     
   49571251.6425982     
   49543028.0240952     
   49513207.6423656     
   49481697.7456963     
   49448401.4692332     
   49413217.6805884     
   49376040.8270815     
   49336760.7853781     
   49295262.7143835     
   49251426.9123379     
   49205128.6791871     
   49156238.1853993     
   49104620.3485403     
   49050134.7190423     
   48992635.3767430     
   48931970.8399294     
   48867983.9887743     
   48800512.0052229     
   48729386.3315680     
   48654432.6501356     
   48575470.8866988     
   48492315.2404486     
   48404774.2435504     
   48312650.8535457     
   48215742.5820794     
   48113841.6636647     
   48006735.2684319     
   47894205.7630453     
   47776031.0242054     
   47651984.8093942     
   47521837.1897329     
   47385355.0500578     
   47242302.6614996     
   47092442.3320499     
   46935535.1407418     
   46771341.7611968     
   46599623.3803677     
   46420142.7183286     
   46232665.1549322     
   46036959.9690318     
   45832801.6957658     
   45619971.6070827     
   45398259.3202433     
   45167464.5384425     
   44927398.9269200     
   44677888.1269585     
   44418773.9089510     
   44149916.4642316     
   43871196.8335600     
   43582519.4679796     
   43283814.9151814     
   42975042.6214367     
   42656193.8355528     
   42327294.5970618     
   41988408.7859096     
   41639641.2051523     
   41281140.6614977     
   40913103.0008150     
   40535774.0468522     
   40149452.3811783     
   39754491.8906512     
   39351303.9952950     
   38940359.4541495     
   38522189.6291729     
   38097387.0673922     
   37666605.2388731     
   37230557.2424166     
   36790013.2617918     
   36345796.5223718     
   35898777.4607923     
   35449865.7781759     
   35000000.0000000     
   50000000.0000000     
   49990849.0317851     
   49981662.6311099     
   49972405.2541118     
   49963041.1339392     
   49953534.1687953     
   49943847.8094324     
   49933944.9459159     
   49923787.7934814     
   49913337.7773137     
   49902555.4160835     
   49891400.2040791     
   49879830.4917821     
   49867803.3647453     
   49855274.5206391     
   49842198.1443417     
   49828526.7809704     
   49814211.2067557     
   49799200.2976820     
   49783440.8958377     
   49766877.6734338     
   49749452.9944764     
   49731106.7741039     
   49711776.3356256     
   49691396.2653285     
   49669898.2651581     
   49647211.0034080     
   49623259.9636047     
   49597967.2918073     
   49571251.6425982     
   49543028.0240952     
   49513207.6423656     
   49481697.7456963     
   49448401.4692332     
   49413217.6805885     
   49376040.8270815     
   49336760.7853782     
   49295262.7143835     
   49251426.9123380     
   49205128.6791871     
   49156238.1853993     
   49104620.3485404     
   49050134.7190423     
   48992635.3767430     
   48931970.8399294     
   48867983.9887743     
   48800512.0052229     
   48729386.3315680     
   48654432.6501355     
   48575470.8866988     
   48492315.2404486     
   48404774.2435504     
   48312650.8535457     
   48215742.5820793     
   48113841.6636647     
   48006735.2684319     
   47894205.7630453     
   47776031.0242054     
   47651984.8093942     
   47521837.1897330     
   47385355.0500578     
   47242302.6614997     
   47092442.3320499     
   46935535.1407418     
   46771341.7611969     
   46599623.3803678     
   46420142.7183287     
   46232665.1549322     
   46036959.9690319     
   45832801.6957658     
   45619971.6070826     
   45398259.3202434     
   45167464.5384425     
   44927398.9269200     
   44677888.1269585     
   44418773.9089511     
   44149916.4642316     
   43871196.8335600     
   43582519.4679796     
   43283814.9151814     
   42975042.6214367     
   42656193.8355527     
   42327294.5970618     
   41988408.7859096     
   41639641.2051523     
   41281140.6614976     
   40913103.0008149     
   40535774.0468522     
   40149452.3811783     
   39754491.8906512     
   39351303.9952950     
   38940359.4541495     
   38522189.6291729     
   38097387.0673922     
   37666605.2388731     
   37230557.2424166     
   36790013.2617917     
   36345796.5223718     
   35898777.4607923     
   35449865.7781759     
   35000000.0000000     
   50000000.0000000     
   49990849.0317851     
   49981662.6311099     
   49972405.2541118     
   49963041.1339392     
   49953534.1687953     
   49943847.8094324     
   49933944.9459159     
   49923787.7934813     
   49913337.7773137     
   49902555.4160835     
   49891400.2040791     
   49879830.4917820     
   49867803.3647453     
   49855274.5206392     
   49842198.1443417     
   49828526.7809704     
   49814211.2067556     
   49799200.2976820     
   49783440.8958376     
   49766877.6734337     
   49749452.9944764     
   49731106.7741039     
   49711776.3356255     
   49691396.2653285     
   49669898.2651580     
   49647211.0034080     
   49623259.9636047     
   49597967.2918073     
   49571251.6425982     
   49543028.0240952     
   49513207.6423656     
   49481697.7456963     
   49448401.4692332     
   49413217.6805885     
   49376040.8270815     
   49336760.7853782     
   49295262.7143835     
   49251426.9123380     
   49205128.6791872     
   49156238.1853993     
   49104620.3485404     
   49050134.7190423     
   48992635.3767430     
   48931970.8399294     
   48867983.9887743     
   48800512.0052229     
   48729386.3315680     
   48654432.6501355     
   48575470.8866988     
   48492315.2404486     
   48404774.2435505     
   48312650.8535457     
   48215742.5820793     
   48113841.6636647     
   48006735.2684319     
   47894205.7630453     
   47776031.0242054     
   47651984.8093942     
   47521837.1897330     
   47385355.0500579     
   47242302.6614997     
   47092442.3320499     
   46935535.1407418     
   46771341.7611970     
   46599623.3803678     
   46420142.7183287     
   46232665.1549322     
   46036959.9690319     
   45832801.6957659     
   45619971.6070827     
   45398259.3202433     
   45167464.5384426     
   44927398.9269200     
   44677888.1269585     
   44418773.9089512     
   44149916.4642317     
   43871196.8335600     
   43582519.4679797     
   43283814.9151814     
   42975042.6214367     
   42656193.8355527     
   42327294.5970617     
   41988408.7859096     
   41639641.2051523     
   41281140.6614975     
   40913103.0008149     
   40535774.0468522     
   40149452.3811783     
   39754491.8906512     
   39351303.9952950     
   38940359.4541495     
   38522189.6291729     
   38097387.0673922     
   37666605.2388730     
   37230557.2424165     
   36790013.2617916     
   36345796.5223718     
   35898777.4607922     
   35449865.7781760     
   35000000.0000000     
   50000000.0000000     
   49990849.0317851     
   49981662.6311099     
   49972405.2541118     
   49963041.1339391     
   49953534.1687953     
   49943847.8094324     
   49933944.9459159     
   49923787.7934814     
   49913337.7773136     
   49902555.4160835     
   49891400.2040791     
   49879830.4917820     
   49867803.3647453     
   49855274.5206392     
   49842198.1443418     
   49828526.7809704     
   49814211.2067556     
   49799200.2976819     
   49783440.8958377     
   49766877.6734337     
   49749452.9944765     
   49731106.7741039     
   49711776.3356255     
   49691396.2653285     
   49669898.2651580     
   49647211.0034080     
   49623259.9636047     
   49597967.2918074     
   49571251.6425983     
   49543028.0240952     
   49513207.6423656     
   49481697.7456962     
   49448401.4692332     
   49413217.6805885     
   49376040.8270815     
   49336760.7853782     
   49295262.7143835     
   49251426.9123380     
   49205128.6791872     
   49156238.1853993     
   49104620.3485403     
   49050134.7190424     
   48992635.3767430     
   48931970.8399294     
   48867983.9887743     
   48800512.0052228     
   48729386.3315680     
   48654432.6501355     
   48575470.8866988     
   48492315.2404485     
   48404774.2435505     
   48312650.8535457     
   48215742.5820793     
   48113841.6636647     
   48006735.2684320     
   47894205.7630452     
   47776031.0242055     
   47651984.8093943     
   47521837.1897329     
   47385355.0500578     
   47242302.6614998     
   47092442.3320499     
   46935535.1407418     
   46771341.7611970     
   46599623.3803678     
   46420142.7183287     
   46232665.1549322     
   46036959.9690318     
   45832801.6957659     
   45619971.6070827     
   45398259.3202434     
   45167464.5384426     
   44927398.9269200     
   44677888.1269586     
   44418773.9089511     
   44149916.4642318     
   43871196.8335600     
   43582519.4679797     
   43283814.9151814     
   42975042.6214368     
   42656193.8355527     
   42327294.5970618     
   41988408.7859096     
   41639641.2051523     
   41281140.6614975     
   40913103.0008149     
   40535774.0468521     
   40149452.3811783     
   39754491.8906511     
   39351303.9952950     
   38940359.4541495     
   38522189.6291729     
   38097387.0673922     
   37666605.2388730     
   37230557.2424165     
   36790013.2617916     
   36345796.5223719     
   35898777.4607922     
   35449865.7781760     
   35000000.0000000     
   50000000.0000000     
   49990849.0317851     
   49981662.6311099     
   49972405.2541118     
   49963041.1339392     
   49953534.1687953     
   49943847.8094324     
   49933944.9459159     
   49923787.7934813     
   49913337.7773136     
   49902555.4160835     
   49891400.2040791     
   49879830.4917820     
   49867803.3647453     
   49855274.5206391     
   49842198.1443418     
   49828526.7809704     
   49814211.2067556     
   49799200.2976819     
   49783440.8958376     
   49766877.6734337     
   49749452.9944764     
   49731106.7741039     
   49711776.3356255     
   49691396.2653285     
   49669898.2651580     
   49647211.0034080     
   49623259.9636047     
   49597967.2918073     
   49571251.6425983     
   49543028.0240952     
   49513207.6423656     
   49481697.7456962     
   49448401.4692332     
   49413217.6805885     
   49376040.8270815     
   49336760.7853782     
   49295262.7143835     
   49251426.9123381     
   49205128.6791872     
   49156238.1853993     
   49104620.3485404     
   49050134.7190424     
   48992635.3767430     
   48931970.8399294     
   48867983.9887743     
   48800512.0052228     
   48729386.3315680     
   48654432.6501355     
   48575470.8866988     
   48492315.2404486     
   48404774.2435505     
   48312650.8535457     
   48215742.5820793     
   48113841.6636647     
   48006735.2684320     
   47894205.7630453     
   47776031.0242055     
   47651984.8093942     
   47521837.1897329     
   47385355.0500578     
   47242302.6614998     
   47092442.3320500     
   46935535.1407417     
   46771341.7611970     
   46599623.3803679     
   46420142.7183287     
   46232665.1549322     
   46036959.9690319     
   45832801.6957658     
   45619971.6070827     
   45398259.3202434     
   45167464.5384426     
   44927398.9269200     
   44677888.1269586     
   44418773.9089511     
   44149916.4642317     
   43871196.8335601     
   43582519.4679797     
   43283814.9151814     
   42975042.6214367     
   42656193.8355527     
   42327294.5970618     
   41988408.7859096     
   41639641.2051523     
   41281140.6614975     
   40913103.0008149     
   40535774.0468521     
   40149452.3811783     
   39754491.8906511     
   39351303.9952950     
   38940359.4541495     
   38522189.6291728     
   38097387.0673922     
   37666605.2388730     
   37230557.2424164     
   36790013.2617916     
   36345796.5223718     
   35898777.4607922     
   35449865.7781760     
   35000000.0000000     
VECTORS u double 
    0.00000E+00         0.00000E+00         0.00000E+00
    0.00000E+00         0.00000E+00         0.00000E+00
    0.00000E+00         0.00000E+00         0.00000E+00
    0.00000E+00         0.00000E+00         0.00000E+00
    0.00000E+00         0.00000E+00         0.00000E+00
    0.00000E+00         0.00000E+00         0.00000E+00
    0.00000E+00         0.00000E+00         0.00000E+00
    0.00000E+00         0.00000E+00         0.00000E+00
    0.00000E+00         0.00000E+00         0.00000E+00
    0.00000E+00         0.00000E+00         0.00000E+00
    0.00000E+00         0.00000E+00         0.00000E+00
    0.00000E+00         0.00000E+00         0.00000E+00
    0.00000E+00         0.00000E+00         0.00000E+00
    0.00000E+00         0.00000E+00         0.00000E+00
    0.00000E+00         0.00000E+00         0.00000E+00
    0.00000E+00         0.00000E+00         0.00000E+00
    0.00000E+00         0.00000E+00         0.00000E+00
    0.00000E+00         0.00000E+00         0.00000E+00
    0.00000E+00         0.00000E+00         0.00000E+00
    0.00000E+00         0.00000E+00         0.00000E+00
    0.00000E+00         0.00000E+00         0.00000E+00
    0.00000E+00         0.00000E+00         0.00000E+00
    0.00000E+00         0.00000E+00         0.00000E+00
    0.00000E+00         0.00000E+00         0.00000E+00
    0.00000E+00         0.00000E+00         0.00000E+00
    0.00000E+00         0.00000E+00         0.00000E+00
    0.00000E+00         0.00000E+00         0.00000E+00
    0.00000E+00         0.00000E+00         0.00000E+00
    0.00000E+00         0.00000E+00         0.00000E+00
    0.00000E+00         0.00000E+00         0.00000E+00
    0.00000E+00         0.00000E+00         0.00000E+00
    0.00000E+00         0.00000E+00         0.00000E+00
    0.00000E+00         0.00000E+00         0.00000E+00
    0.00000E+00         0.00000E+00         0.00000E+00
    0.00000E+00         0.00000E+00         0.00000E+00
    0.00000E+00         0.00000E+00         0.00000E+00
    0.00000E+00         0.00000E+00         0.00000E+00
    0.00000E+00         0.00000E+00         0.00000E+00
    0.00000E+00         0.00000E+00         0.00000E+00
    0.00000E+00         0.00000E+00         0.00000E+00
    0.00000E+00         0.00000E+00         0.00000E+00
    0.00000E+00         0.00000E+00         0.00000E+00
    0.00000E+00         0.00000E+00         0.00000E+00
    0.00000E+00         0.00000E+00         0.00000E+00
    0.00000E+00         0.00000E+00         0.00000E+00
    0.00000E+00         0.00000E+00         0.00000E+00
    0.00000E+00         0.00000E+00         0.00000E+00
    0.00000E+00         0.00000E+00         0.00000E+00
    0.00000E+00         0.00000E+00         0.00000E+00
    0.00000E+00         0.00000E+00         0.00000E+00
    0.00000E+00         0.00000E+00         0.00000E+00
    0.00000E+00         0.00000E+00         0.00000E+00
    0.00000E+00         0.00000E+00         0.00000E+00
    0.00000E+00         0.00000E+00         0.00000E+00
    0.00000E+00         0.00000E+00         0.00000E+00
    0.00000E+00         0.00000E+00         0.00000E+00
    0.00000E+00         0.00000E+00         0.00000E+00
    0.00000E+00         0.00000E+00         0.00000E+00
    0.00000E+00         0.00000E+00         0.00000E+00
    0.00000E+00         0.00000E+00         0.00000E+00
    0.00000E+00         0.00000E+00         0.00000E+00
    0.00000E+00         0.00000E+00         0.00000E+00
    0.00000E+00         0.00000E+00         0.00000E+00
    0.00000E+00         0.00000E+00         0.00000E+00
    0.00000E+00         0.00000E+00         0.00000E+00
    0.00000E+00         0.00000E+00         0.00000E+00
    0.00000E+00         0.00000E+00         0.00000E+00
    0.00000E+00         0.00000E+00         0.00000E+00
    0.00000E+00         0.00000E+00         0.00000E+00
    0.00000E+00         0.00000E+00         0.00000E+00
    0.00000E+00         0.00000E+00         0.00000E+00
    0.00000E+00         0.00000E+00         0.00000E+00
    0.00000E+00         0.00000E+00         0.00000E+00
    0.00000E+00         0.00000E+00         0.00000E+00
    0.00000E+00         0.00000E+00         0.00000E+00
    0.00000E+00         0.00000E+00         0.00000E+00
    0.00000E+00         0.00000E+00         0.00000E+00
    0.00000E+00         0.00000E+00         0.00000E+00
    0.00000E+00         0.00000E+00         0.00000E+00
    0.00000E+00         0.00000E+00         0.00000E+00
    0.00000E+00         0.00000E+00         0.00000E+00
    0.00000E+00         0.00000E+00         0.00000E+00
    0.00000E+00         0.00000E+00         0.00000E+00
    0.00000E+00         0.00000E+00         0.00000E+00
    0.00000E+00         0.00000E+00         0.00000E+00
    0.00000E+00         0.00000E+00         0.00000E+00
    0.00000E+00         0.00000E+00         0.00000E+00
    0.00000E+00         0.00000E+00         0.00000E+00
    0.00000E+00         0.00000E+00         0.00000E+00
    0.00000E+00         0.00000E+00         0.00000E+00
    0.00000E+00         0.00000E+00         0.00000E+00
    0.00000E+00         0.00000E+00         0.00000E+00
    0.00000E+00         0.00000E+00         0.00000E+00
    0.00000E+00         0.00000E+00         0.00000E+00
    0.00000E+00         0.00000E+00         0.00000E+00
    0.00000E+00         0.00000E+00         0.00000E+00
    0.00000E+00         0.00000E+00         0.00000E+00
    0.00000E+00         0.00000E+00         0.00000E+00
    0.00000E+00         0.00000E+00         0.00000E+00
    0.00000E+00         0.00000E+00         0.00000E+00
    0.00000E+00         0.00000E+00         0.00000E+00
    0.00000E+00         0.31107E-05         0.00000E+00
    0.30329E-05         0.29160E-05         0.00000E+00
    0.51993E-05         0.24949E-05         0.00000E+00
    0.71042E-05         0.19830E-05         0.00000E+00
    0.88430E-05         0.13698E-05         0.00000E+00
    0.10488E-04         0.67670E-06         0.00000E+00
    0.12080E-04        -0.84352E-07         0.00000E+00
    0.13643E-04        -0.90004E-06         0.00000E+00
    0.15195E-04        -0.17598E-05         0.00000E+00
    0.16749E-04        -0.26550E-05         0.00000E+00
    0.18314E-04        -0.35796E-05         0.00000E+00
    0.19897E-04        -0.45295E-05         0.00000E+00
    0.21505E-04        -0.55029E-05         0.00000E+00
    0.23145E-04        -0.64992E-05         0.00000E+00
    0.24823E-04        -0.75196E-05         0.00000E+00
    0.26544E-04        -0.85662E-05         0.00000E+00
    0.28317E-04        -0.96419E-05         0.00000E+00
    0.30147E-04        -0.10750E-04         0.00000E+00
    0.32041E-04        -0.11896E-04         0.00000E+00
    0.34007E-04        -0.13083E-04         0.00000E+00
    0.36051E-04        -0.14318E-04         0.00000E+00
    0.38179E-04        -0.15604E-04         0.00000E+00
    0.40400E-04        -0.16949E-04         0.00000E+00
    0.42720E-04        -0.18357E-04         0.00000E+00
    0.45146E-04        -0.19836E-04         0.00000E+00
    0.47684E-04        -0.21390E-04         0.00000E+00
    0.50343E-04        -0.23028E-04         0.00000E+00
    0.53128E-04        -0.24755E-04         0.00000E+00
    0.56047E-04        -0.26578E-04         0.00000E+00
    0.59106E-04        -0.28506E-04         0.00000E+00
    0.62313E-04        -0.30545E-04         0.00000E+00
    0.65674E-04        -0.32704E-04         0.00000E+00
    0.69195E-04        -0.34991E-04         0.00000E+00
    0.72885E-04        -0.37414E-04         0.00000E+00
    0.76748E-04        -0.39982E-04         0.00000E+00
    0.80793E-04        -0.42705E-04         0.00000E+00
    0.85024E-04        -0.45593E-04         0.00000E+00
    0.89450E-04        -0.48656E-04         0.00000E+00
    0.94076E-04        -0.51905E-04         0.00000E+00
    0.98909E-04        -0.55351E-04         0.00000E+00
    0.10395E-03        -0.59005E-04         0.00000E+00
    0.10922E-03        -0.62881E-04         0.00000E+00
    0.11471E-03        -0.66991E-04         0.00000E+00
    0.12042E-03        -0.71349E-04         0.00000E+00
    0.12638E-03        -0.75968E-04         0.00000E+00
    0.13257E-03        -0.80865E-04         0.00000E+00
    0.13900E-03        -0.86054E-04         0.00000E+00
    0.14568E-03        -0.91551E-04         0.00000E+00
    0.15262E-03        -0.97373E-04         0.00000E+00
    0.15980E-03        -0.10354E-03         0.00000E+00
    0.16724E-03        -0.11007E-03         0.00000E+00
    0.17493E-03        -0.11698E-03         0.00000E+00
    0.18288E-03        -0.12428E-03         0.00000E+00
    0.19108E-03        -0.13202E-03         0.00000E+00
    0.19953E-03        -0.14019E-03         0.00000E+00
    0.20822E-03        -0.14883E-03         0.00000E+00
    0.21715E-03        -0.15796E-03         0.00000E+00
    0.22632E-03        -0.16761E-03         0.00000E+00
    0.23571E-03        -0.17779E-03         0.00000E+00
    0.24531E-03        -0.18854E-03         0.00000E+00
    0.25511E-03        -0.19988E-03         0.00000E+00
    0.26509E-03        -0.21185E-03         0.00000E+00
    0.27523E-03        -0.22446E-03         0.00000E+00
    0.28551E-03        -0.23775E-03         0.00000E+00
    0.29590E-03        -0.25176E-03         0.00000E+00
    0.30637E-03        -0.26651E-03         0.00000E+00
    0.31689E-03        -0.28203E-03         0.00000E+00
    0.32742E-03        -0.29837E-03         0.00000E+00
    0.33792E-03        -0.31555E-03         0.00000E+00
    0.34833E-03        -0.33362E-03         0.00000E+00
    0.35860E-03        -0.35260E-03         0.00000E+00
    0.36868E-03        -0.37254E-03         0.00000E+00
    0.37849E-03        -0.39347E-03         0.00000E+00
    0.38797E-03        -0.41545E-03         0.00000E+00
    0.39702E-03        -0.43849E-03         0.00000E+00
    0.40557E-03        -0.46266E-03         0.00000E+00
    0.41352E-03        -0.48798E-03         0.00000E+00
    0.42076E-03        -0.51450E-03         0.00000E+00
    0.42719E-03        -0.54225E-03         0.00000E+00
    0.43270E-03        -0.57127E-03         0.00000E+00
    0.43715E-03        -0.60159E-03         0.00000E+00
    0.44042E-03        -0.63324E-03         0.00000E+00
    0.44238E-03        -0.66624E-03         0.00000E+00
    0.44290E-03        -0.70058E-03         0.00000E+00
    0.44184E-03        -0.73627E-03         0.00000E+00
    0.43908E-03        -0.77328E-03         0.00000E+00
    0.43449E-03        -0.81154E-03         0.00000E+00
    0.42794E-03        -0.85096E-03         0.00000E+00
    0.41933E-03        -0.89142E-03         0.00000E+00
    0.40854E-03        -0.93271E-03         0.00000E+00
    0.39546E-03        -0.97459E-03         0.00000E+00
    0.37997E-03        -0.10167E-02         0.00000E+00
    0.36192E-03        -0.10586E-02         0.00000E+00
    0.34108E-03        -0.10998E-02         0.00000E+00
    0.31706E-03        -0.11396E-02         0.00000E+00
    0.28926E-03        -0.11772E-02         0.00000E+00
    0.25667E-03        -0.12119E-02         0.00000E+00
    0.21762E-03        -0.12427E-02         0.00000E+00
    0.16886E-03        -0.12686E-02         0.00000E+00
    0.10609E-03        -0.12898E-02         0.00000E+00
    0.00000E+00        -0.12995E-02         0.00000E+00
    0.00000E+00         0.59166E-05         0.00000E+00
    0.58263E-05         0.55808E-05         0.00000E+00
    0.10201E-04         0.47955E-05         0.00000E+00
    0.14013E-04         0.37854E-05         0.00000E+00
    0.17501E-04         0.25731E-05         0.00000E+00
    0.20798E-04         0.11931E-05         0.00000E+00
    0.23985E-04        -0.32498E-06         0.00000E+00
    0.27112E-04        -0.19547E-05         0.00000E+00
    0.30214E-04        -0.36738E-05         0.00000E+00
    0.33318E-04        -0.54649E-05         0.00000E+00
    0.36440E-04        -0.73155E-05         0.00000E+00
    0.39597E-04        -0.92175E-05         0.00000E+00
    0.42802E-04        -0.11167E-04         0.00000E+00
    0.46070E-04        -0.13163E-04         0.00000E+00
    0.49411E-04        -0.15208E-04         0.00000E+00
    0.52840E-04        -0.17306E-04         0.00000E+00
    0.56370E-04        -0.19462E-04         0.00000E+00
    0.60014E-04        -0.21685E-04         0.00000E+00
    0.63785E-04        -0.23983E-04         0.00000E+00
    0.67698E-04        -0.26365E-04         0.00000E+00
    0.71766E-04        -0.28842E-04         0.00000E+00
    0.76004E-04        -0.31424E-04         0.00000E+00
    0.80425E-04        -0.34123E-04         0.00000E+00
    0.85042E-04        -0.36950E-04         0.00000E+00
    0.89871E-04        -0.39917E-04         0.00000E+00
    0.94924E-04        -0.43037E-04         0.00000E+00
    0.10022E-03        -0.46324E-04         0.00000E+00
    0.10576E-03        -0.49791E-04         0.00000E+00
    0.11157E-03        -0.53452E-04         0.00000E+00
    0.11766E-03        -0.57321E-04         0.00000E+00
    0.12404E-03        -0.61415E-04         0.00000E+00
    0.13073E-03        -0.65748E-04         0.00000E+00
    0.13774E-03        -0.70337E-04         0.00000E+00
    0.14509E-03        -0.75200E-04         0.00000E+00
    0.15278E-03        -0.80355E-04         0.00000E+00
    0.16083E-03        -0.85819E-04         0.00000E+00
    0.16925E-03        -0.91614E-04         0.00000E+00
    0.17806E-03        -0.97759E-04         0.00000E+00
    0.18727E-03        -0.10428E-03         0.00000E+00
    0.19689E-03        -0.11119E-03         0.00000E+00
    0.20693E-03        -0.11852E-03         0.00000E+00
    0.21741E-03        -0.12629E-03         0.00000E+00
    0.22833E-03        -0.13453E-03         0.00000E+00
    0.23971E-03        -0.14327E-03         0.00000E+00
    0.25156E-03        -0.15254E-03         0.00000E+00
    0.26388E-03        -0.16235E-03         0.00000E+00
    0.27669E-03        -0.17275E-03         0.00000E+00
    0.28999E-03        -0.18377E-03         0.00000E+00
    0.30378E-03        -0.19544E-03         0.00000E+00
    0.31808E-03        -0.20780E-03         0.00000E+00
    0.33288E-03        -0.22088E-03         0.00000E+00
    0.34819E-03        -0.23472E-03         0.00000E+00
    0.36401E-03        -0.24936E-03         0.00000E+00
    0.38033E-03        -0.26485E-03         0.00000E+00
    0.39714E-03        -0.28122E-03         0.00000E+00
    0.41445E-03        -0.29853E-03         0.00000E+00
    0.43223E-03        -0.31681E-03         0.00000E+00
    0.45047E-03        -0.33613E-03         0.00000E+00
    0.46916E-03        -0.35652E-03         0.00000E+00
    0.48826E-03        -0.37803E-03         0.00000E+00
    0.50776E-03        -0.40074E-03         0.00000E+00
    0.52762E-03        -0.42468E-03         0.00000E+00
    0.54780E-03        -0.44992E-03         0.00000E+00
    0.56825E-03        -0.47652E-03         0.00000E+00
    0.58893E-03        -0.50454E-03         0.00000E+00
    0.60976E-03        -0.53405E-03         0.00000E+00
    0.63070E-03        -0.56510E-03         0.00000E+00
    0.65165E-03        -0.59777E-03         0.00000E+00
    0.67253E-03        -0.63213E-03         0.00000E+00
    0.69324E-03        -0.66824E-03         0.00000E+00
    0.71368E-03        -0.70619E-03         0.00000E+00
    0.73373E-03        -0.74605E-03         0.00000E+00
    0.75325E-03        -0.78789E-03         0.00000E+00
    0.77209E-03        -0.83179E-03         0.00000E+00
    0.79011E-03        -0.87784E-03         0.00000E+00
    0.80711E-03        -0.92612E-03         0.00000E+00
    0.82291E-03        -0.97669E-03         0.00000E+00
    0.83731E-03        -0.10296E-02         0.00000E+00
    0.85009E-03        -0.10851E-02         0.00000E+00
    0.86101E-03        -0.11430E-02         0.00000E+00
    0.86984E-03        -0.12035E-02         0.00000E+00
    0.87632E-03        -0.12667E-02         0.00000E+00
    0.88018E-03        -0.13326E-02         0.00000E+00
    0.88116E-03        -0.14011E-02         0.00000E+00
    0.87899E-03        -0.14723E-02         0.00000E+00
    0.87340E-03        -0.15462E-02         0.00000E+00
    0.86414E-03        -0.16225E-02         0.00000E+00
    0.85097E-03        -0.17011E-02         0.00000E+00
    0.83363E-03        -0.17818E-02         0.00000E+00
    0.81191E-03        -0.18642E-02         0.00000E+00
    0.78558E-03        -0.19477E-02         0.00000E+00
    0.75437E-03        -0.20317E-02         0.00000E+00
    0.71796E-03        -0.21153E-02         0.00000E+00
    0.67587E-03        -0.21974E-02         0.00000E+00
    0.62733E-03        -0.22766E-02         0.00000E+00
    0.57113E-03        -0.23515E-02         0.00000E+00
    0.50524E-03        -0.24203E-02         0.00000E+00
    0.42628E-03        -0.24812E-02         0.00000E+00
    0.32841E-03        -0.25320E-02         0.00000E+00
    0.20056E-03        -0.25715E-02         0.00000E+00
    0.00000E+00        -0.25884E-02         0.00000E+00
    0.00000E+00         0.84540E-05         0.00000E+00
    0.84373E-05         0.80068E-05         0.00000E+00
    0.15014E-04         0.68994E-05         0.00000E+00
    0.20737E-04         0.54104E-05         0.00000E+00
    0.25980E-04         0.36102E-05         0.00000E+00
    0.30934E-04         0.15504E-05         0.00000E+00
    0.35717E-04        -0.72099E-06         0.00000E+00
    0.40407E-04        -0.31629E-05         0.00000E+00
    0.45057E-04        -0.57409E-05         0.00000E+00
    0.49704E-04        -0.84284E-05         0.00000E+00
    0.54376E-04        -0.11206E-04         0.00000E+00
    0.59098E-04        -0.14063E-04         0.00000E+00
    0.63889E-04        -0.16991E-04         0.00000E+00
    0.68771E-04        -0.19990E-04         0.00000E+00
    0.73763E-04        -0.23063E-04         0.00000E+00
    0.78885E-04        -0.26216E-04         0.00000E+00
    0.84156E-04        -0.29459E-04         0.00000E+00
    0.89596E-04        -0.32802E-04         0.00000E+00
    0.95227E-04        -0.36259E-04         0.00000E+00
    0.10107E-03        -0.39843E-04         0.00000E+00
    0.10714E-03        -0.43570E-04         0.00000E+00
    0.11347E-03        -0.47456E-04         0.00000E+00
    0.12007E-03        -0.51517E-04         0.00000E+00
    0.12696E-03        -0.55773E-04         0.00000E+00
    0.13417E-03        -0.60239E-04         0.00000E+00
    0.14171E-03        -0.64937E-04         0.00000E+00
    0.14961E-03        -0.69886E-04         0.00000E+00
    0.15789E-03        -0.75105E-04         0.00000E+00
    0.16656E-03        -0.80616E-04         0.00000E+00
    0.17565E-03        -0.86441E-04         0.00000E+00
    0.18518E-03        -0.92603E-04         0.00000E+00
    0.19517E-03        -0.99126E-04         0.00000E+00
    0.20563E-03        -0.10603E-03         0.00000E+00
    0.21659E-03        -0.11335E-03         0.00000E+00
    0.22807E-03        -0.12111E-03         0.00000E+00
    0.24009E-03        -0.12933E-03         0.00000E+00
    0.25266E-03        -0.13805E-03         0.00000E+00
    0.26581E-03        -0.14730E-03         0.00000E+00
    0.27956E-03        -0.15711E-03         0.00000E+00
    0.29392E-03        -0.16750E-03         0.00000E+00
    0.30891E-03        -0.17853E-03         0.00000E+00
    0.32455E-03        -0.19022E-03         0.00000E+00
    0.34086E-03        -0.20262E-03         0.00000E+00
    0.35784E-03        -0.21576E-03         0.00000E+00
    0.37553E-03        -0.22969E-03         0.00000E+00
    0.39392E-03        -0.24445E-03         0.00000E+00
    0.41304E-03        -0.26009E-03         0.00000E+00
    0.43289E-03        -0.27665E-03         0.00000E+00
    0.45349E-03        -0.29419E-03         0.00000E+00
    0.47483E-03        -0.31276E-03         0.00000E+00
    0.49692E-03        -0.33242E-03         0.00000E+00
    0.51978E-03        -0.35322E-03         0.00000E+00
    0.54338E-03        -0.37522E-03         0.00000E+00
    0.56774E-03        -0.39849E-03         0.00000E+00
    0.59284E-03        -0.42309E-03         0.00000E+00
    0.61867E-03        -0.44908E-03         0.00000E+00
    0.64520E-03        -0.47654E-03         0.00000E+00
    0.67243E-03        -0.50554E-03         0.00000E+00
    0.70032E-03        -0.53615E-03         0.00000E+00
    0.72884E-03        -0.56846E-03         0.00000E+00
    0.75794E-03        -0.60254E-03         0.00000E+00
    0.78758E-03        -0.63848E-03         0.00000E+00
    0.81770E-03        -0.67637E-03         0.00000E+00
    0.84822E-03        -0.71628E-03         0.00000E+00
    0.87907E-03        -0.75832E-03         0.00000E+00
    0.91017E-03        -0.80259E-03         0.00000E+00
    0.94141E-03        -0.84917E-03         0.00000E+00
    0.97268E-03        -0.89817E-03         0.00000E+00
    0.10038E-02        -0.94970E-03         0.00000E+00
    0.10348E-02        -0.10039E-02         0.00000E+00
    0.10653E-02        -0.10607E-02         0.00000E+00
    0.10952E-02        -0.11205E-02         0.00000E+00
    0.11243E-02        -0.11832E-02         0.00000E+00
    0.11524E-02        -0.12490E-02         0.00000E+00
    0.11793E-02        -0.13180E-02         0.00000E+00
    0.12046E-02        -0.13903E-02         0.00000E+00
    0.12282E-02        -0.14661E-02         0.00000E+00
    0.12497E-02        -0.15454E-02         0.00000E+00
    0.12687E-02        -0.16284E-02         0.00000E+00
    0.12850E-02        -0.17152E-02         0.00000E+00
    0.12982E-02        -0.18058E-02         0.00000E+00
    0.13078E-02        -0.19004E-02         0.00000E+00
    0.13135E-02        -0.19990E-02         0.00000E+00
    0.13149E-02        -0.21016E-02         0.00000E+00
    0.13115E-02        -0.22081E-02         0.00000E+00
    0.13031E-02        -0.23186E-02         0.00000E+00
    0.12891E-02        -0.24328E-02         0.00000E+00
    0.12692E-02        -0.25505E-02         0.00000E+00
    0.12430E-02        -0.26713E-02         0.00000E+00
    0.12103E-02        -0.27945E-02         0.00000E+00
    0.11705E-02        -0.29194E-02         0.00000E+00
    0.11234E-02        -0.30450E-02         0.00000E+00
    0.10683E-02        -0.31700E-02         0.00000E+00
    0.10046E-02        -0.32927E-02         0.00000E+00
    0.93105E-03        -0.34111E-02         0.00000E+00
    0.84589E-03        -0.35228E-02         0.00000E+00
    0.74608E-03        -0.36252E-02         0.00000E+00
    0.62662E-03        -0.37154E-02         0.00000E+00
    0.47910E-03        -0.37902E-02         0.00000E+00
    0.28625E-03        -0.38459E-02         0.00000E+00
    0.00000E+00        -0.38683E-02         0.00000E+00
    0.00000E+00         0.10749E-04         0.00000E+00
    0.10904E-04         0.10207E-04         0.00000E+00
    0.19652E-04         0.88082E-05         0.00000E+00
    0.27286E-04         0.68602E-05         0.00000E+00
    0.34285E-04         0.44827E-05         0.00000E+00
    0.40897E-04         0.17499E-05         0.00000E+00
    0.47278E-04        -0.12712E-05         0.00000E+00
    0.53531E-04        -0.45235E-05         0.00000E+00
    0.59724E-04        -0.79599E-05         0.00000E+00
    0.65908E-04        -0.11544E-04         0.00000E+00
    0.72122E-04        -0.15251E-04         0.00000E+00
    0.78398E-04        -0.19063E-04         0.00000E+00
    0.84764E-04        -0.22972E-04         0.00000E+00
    0.91248E-04        -0.26977E-04         0.00000E+00
    0.97876E-04        -0.31082E-04         0.00000E+00
    0.10467E-03        -0.35296E-04         0.00000E+00
    0.11167E-03        -0.39630E-04         0.00000E+00
    0.11889E-03        -0.44099E-04         0.00000E+00
    0.12636E-03        -0.48720E-04         0.00000E+00
    0.13412E-03        -0.53513E-04         0.00000E+00
    0.14217E-03        -0.58498E-04         0.00000E+00
    0.15057E-03        -0.63696E-04         0.00000E+00
    0.15932E-03        -0.69130E-04         0.00000E+00
    0.16847E-03        -0.74823E-04         0.00000E+00
    0.17803E-03        -0.80800E-04         0.00000E+00
    0.18804E-03        -0.87086E-04         0.00000E+00
    0.19852E-03        -0.93707E-04         0.00000E+00
    0.20951E-03        -0.10069E-03         0.00000E+00
    0.22101E-03        -0.10807E-03         0.00000E+00
    0.23308E-03        -0.11586E-03         0.00000E+00
    0.24572E-03        -0.12410E-03         0.00000E+00
    0.25897E-03        -0.13283E-03         0.00000E+00
    0.27285E-03        -0.14207E-03         0.00000E+00
    0.28740E-03        -0.15187E-03         0.00000E+00
    0.30263E-03        -0.16224E-03         0.00000E+00
    0.31857E-03        -0.17324E-03         0.00000E+00
    0.33526E-03        -0.18491E-03         0.00000E+00
    0.35271E-03        -0.19727E-03         0.00000E+00
    0.37094E-03        -0.21039E-03         0.00000E+00
    0.39000E-03        -0.22429E-03         0.00000E+00
    0.40989E-03        -0.23903E-03         0.00000E+00
    0.43064E-03        -0.25467E-03         0.00000E+00
    0.45227E-03        -0.27124E-03         0.00000E+00
    0.47481E-03        -0.28880E-03         0.00000E+00
    0.49828E-03        -0.30742E-03         0.00000E+00
    0.52268E-03        -0.32715E-03         0.00000E+00
    0.54805E-03        -0.34804E-03         0.00000E+00
    0.57439E-03        -0.37018E-03         0.00000E+00
    0.60171E-03        -0.39361E-03         0.00000E+00
    0.63002E-03        -0.41842E-03         0.00000E+00
    0.65934E-03        -0.44468E-03         0.00000E+00
    0.68966E-03        -0.47246E-03         0.00000E+00
    0.72098E-03        -0.50184E-03         0.00000E+00
    0.75330E-03        -0.53291E-03         0.00000E+00
    0.78659E-03        -0.56575E-03         0.00000E+00
    0.82086E-03        -0.60046E-03         0.00000E+00
    0.85607E-03        -0.63711E-03         0.00000E+00
    0.89220E-03        -0.67582E-03         0.00000E+00
    0.92920E-03        -0.71668E-03         0.00000E+00
    0.96703E-03        -0.75980E-03         0.00000E+00
    0.10056E-02        -0.80528E-03         0.00000E+00
    0.10450E-02        -0.85323E-03         0.00000E+00
    0.10849E-02        -0.90376E-03         0.00000E+00
    0.11254E-02        -0.95701E-03         0.00000E+00
    0.11663E-02        -0.10131E-02         0.00000E+00
    0.12076E-02        -0.10721E-02         0.00000E+00
    0.12490E-02        -0.11342E-02         0.00000E+00
    0.12905E-02        -0.11995E-02         0.00000E+00
    0.13319E-02        -0.12682E-02         0.00000E+00
    0.13729E-02        -0.13404E-02         0.00000E+00
    0.14133E-02        -0.14162E-02         0.00000E+00
    0.14530E-02        -0.14959E-02         0.00000E+00
    0.14916E-02        -0.15794E-02         0.00000E+00
    0.15289E-02        -0.16671E-02         0.00000E+00
    0.15646E-02        -0.17590E-02         0.00000E+00
    0.15982E-02        -0.18553E-02         0.00000E+00
    0.16295E-02        -0.19562E-02         0.00000E+00
    0.16579E-02        -0.20618E-02         0.00000E+00
    0.16832E-02        -0.21723E-02         0.00000E+00
    0.17048E-02        -0.22878E-02         0.00000E+00
    0.17222E-02        -0.24084E-02         0.00000E+00
    0.17349E-02        -0.25342E-02         0.00000E+00
    0.17424E-02        -0.26654E-02         0.00000E+00
    0.17441E-02        -0.28019E-02         0.00000E+00
    0.17396E-02        -0.29437E-02         0.00000E+00
    0.17282E-02        -0.30906E-02         0.00000E+00
    0.17094E-02        -0.32425E-02         0.00000E+00
    0.16828E-02        -0.33990E-02         0.00000E+00
    0.16477E-02        -0.35596E-02         0.00000E+00
    0.16038E-02        -0.37235E-02         0.00000E+00
    0.15504E-02        -0.38896E-02         0.00000E+00
    0.14871E-02        -0.40566E-02         0.00000E+00
    0.14131E-02        -0.42227E-02         0.00000E+00
    0.13274E-02        -0.43857E-02         0.00000E+00
    0.12285E-02        -0.45429E-02         0.00000E+00
    0.11138E-02        -0.46911E-02         0.00000E+00
    0.97959E-03        -0.48267E-02         0.00000E+00
    0.81918E-03        -0.49454E-02         0.00000E+00
    0.62169E-03        -0.50432E-02         0.00000E+00
    0.36508E-03        -0.51134E-02         0.00000E+00
    0.00000E+00        -0.51405E-02         0.00000E+00
    0.00000E+00         0.12820E-04         0.00000E+00
    0.13253E-04         0.12194E-04         0.00000E+00
    0.24131E-04         0.10526E-04         0.00000E+00
    0.33669E-04         0.81370E-05         0.00000E+00
    0.42423E-04         0.51924E-05         0.00000E+00
    0.50693E-04         0.17928E-05         0.00000E+00
    0.58671E-04        -0.19744E-05         0.00000E+00
    0.66483E-04        -0.60352E-05         0.00000E+00
    0.74215E-04        -0.10330E-04         0.00000E+00
    0.81930E-04        -0.14811E-04         0.00000E+00
    0.89677E-04        -0.19447E-04         0.00000E+00
    0.97497E-04        -0.24217E-04         0.00000E+00
    0.10543E-03        -0.29110E-04         0.00000E+00
    0.11350E-03        -0.34124E-04         0.00000E+00
    0.12175E-03        -0.39265E-04         0.00000E+00
    0.13021E-03        -0.44542E-04         0.00000E+00
    0.13891E-03        -0.49972E-04         0.00000E+00
    0.14789E-03        -0.55572E-04         0.00000E+00
    0.15719E-03        -0.61365E-04         0.00000E+00
    0.16683E-03        -0.67373E-04         0.00000E+00
    0.17686E-03        -0.73623E-04         0.00000E+00
    0.18730E-03        -0.80141E-04         0.00000E+00
    0.19819E-03        -0.86956E-04         0.00000E+00
    0.20956E-03        -0.94096E-04         0.00000E+00
    0.22146E-03        -0.10159E-03         0.00000E+00
    0.23391E-03        -0.10948E-03         0.00000E+00
    0.24694E-03        -0.11778E-03         0.00000E+00
    0.26060E-03        -0.12654E-03         0.00000E+00
    0.27492E-03        -0.13579E-03         0.00000E+00
    0.28992E-03        -0.14557E-03         0.00000E+00
    0.30564E-03        -0.15591E-03         0.00000E+00
    0.32213E-03        -0.16686E-03         0.00000E+00
    0.33939E-03        -0.17845E-03         0.00000E+00
    0.35749E-03        -0.19073E-03         0.00000E+00
    0.37643E-03        -0.20374E-03         0.00000E+00
    0.39626E-03        -0.21754E-03         0.00000E+00
    0.41702E-03        -0.23216E-03         0.00000E+00
    0.43872E-03        -0.24767E-03         0.00000E+00
    0.46140E-03        -0.26411E-03         0.00000E+00
    0.48510E-03        -0.28154E-03         0.00000E+00
    0.50984E-03        -0.30002E-03         0.00000E+00
    0.53565E-03        -0.31961E-03         0.00000E+00
    0.56256E-03        -0.34038E-03         0.00000E+00
    0.59060E-03        -0.36239E-03         0.00000E+00
    0.61978E-03        -0.38571E-03         0.00000E+00
    0.65014E-03        -0.41043E-03         0.00000E+00
    0.68169E-03        -0.43661E-03         0.00000E+00
    0.71445E-03        -0.46433E-03         0.00000E+00
    0.74844E-03        -0.49368E-03         0.00000E+00
    0.78366E-03        -0.52476E-03         0.00000E+00
    0.82012E-03        -0.55764E-03         0.00000E+00
    0.85783E-03        -0.59242E-03         0.00000E+00
    0.89679E-03        -0.62921E-03         0.00000E+00
    0.93698E-03        -0.66810E-03         0.00000E+00
    0.97840E-03        -0.70921E-03         0.00000E+00
    0.10210E-02        -0.75265E-03         0.00000E+00
    0.10648E-02        -0.79852E-03         0.00000E+00
    0.11097E-02        -0.84696E-03         0.00000E+00
    0.11558E-02        -0.89809E-03         0.00000E+00
    0.12028E-02        -0.95203E-03         0.00000E+00
    0.12508E-02        -0.10089E-02         0.00000E+00
    0.12998E-02        -0.10689E-02         0.00000E+00
    0.13494E-02        -0.11321E-02         0.00000E+00
    0.13998E-02        -0.11987E-02         0.00000E+00
    0.14507E-02        -0.12688E-02         0.00000E+00
    0.15020E-02        -0.13426E-02         0.00000E+00
    0.15536E-02        -0.14202E-02         0.00000E+00
    0.16052E-02        -0.15019E-02         0.00000E+00
    0.16566E-02        -0.15877E-02         0.00000E+00
    0.17076E-02        -0.16779E-02         0.00000E+00
    0.17579E-02        -0.17726E-02         0.00000E+00
    0.18073E-02        -0.18721E-02         0.00000E+00
    0.18553E-02        -0.19765E-02         0.00000E+00
    0.19017E-02        -0.20859E-02         0.00000E+00
    0.19460E-02        -0.22007E-02         0.00000E+00
    0.19879E-02        -0.23210E-02         0.00000E+00
    0.20267E-02        -0.24469E-02         0.00000E+00
    0.20621E-02        -0.25787E-02         0.00000E+00
    0.20935E-02        -0.27166E-02         0.00000E+00
    0.21203E-02        -0.28607E-02         0.00000E+00
    0.21419E-02        -0.30112E-02         0.00000E+00
    0.21577E-02        -0.31682E-02         0.00000E+00
    0.21670E-02        -0.33318E-02         0.00000E+00
    0.21690E-02        -0.35021E-02         0.00000E+00
    0.21632E-02        -0.36789E-02         0.00000E+00
    0.21489E-02        -0.38621E-02         0.00000E+00
    0.21253E-02        -0.40516E-02         0.00000E+00
    0.20918E-02        -0.42467E-02         0.00000E+00
    0.20478E-02        -0.44469E-02         0.00000E+00
    0.19925E-02        -0.46512E-02         0.00000E+00
    0.19254E-02        -0.48583E-02         0.00000E+00
    0.18457E-02        -0.50664E-02         0.00000E+00
    0.17525E-02        -0.52735E-02         0.00000E+00
    0.16445E-02        -0.54765E-02         0.00000E+00
    0.15198E-02        -0.56723E-02         0.00000E+00
    0.13753E-02        -0.58565E-02         0.00000E+00
    0.12062E-02        -0.60247E-02         0.00000E+00
    0.10045E-02        -0.61715E-02         0.00000E+00
    0.75702E-03        -0.62910E-02         0.00000E+00
    0.43838E-03        -0.63747E-02         0.00000E+00
    0.00000E+00        -0.64061E-02         0.00000E+00
    0.00000E+00         0.14685E-04         0.00000E+00
    0.15503E-04         0.13980E-04         0.00000E+00
    0.28465E-04         0.12057E-04         0.00000E+00
    0.39895E-04         0.92436E-05         0.00000E+00
    0.50398E-04         0.57414E-05         0.00000E+00
    0.60325E-04         0.16809E-05         0.00000E+00
    0.69898E-04        -0.28290E-05         0.00000E+00
    0.79266E-04        -0.76968E-05         0.00000E+00
    0.88531E-04        -0.12848E-04         0.00000E+00
    0.97769E-04        -0.18228E-04         0.00000E+00
    0.10704E-03        -0.23794E-04         0.00000E+00
    0.11639E-03        -0.29524E-04         0.00000E+00
    0.12587E-03        -0.35402E-04         0.00000E+00
    0.13552E-03        -0.41428E-04         0.00000E+00
    0.14538E-03        -0.47607E-04         0.00000E+00
    0.15548E-03        -0.53953E-04         0.00000E+00
    0.16588E-03        -0.60483E-04         0.00000E+00
    0.17660E-03        -0.67220E-04         0.00000E+00
    0.18770E-03        -0.74190E-04         0.00000E+00
    0.19921E-03        -0.81420E-04         0.00000E+00
    0.21118E-03        -0.88943E-04         0.00000E+00
    0.22365E-03        -0.96789E-04         0.00000E+00
    0.23665E-03        -0.10499E-03         0.00000E+00
    0.25023E-03        -0.11359E-03         0.00000E+00
    0.26443E-03        -0.12262E-03         0.00000E+00
    0.27930E-03        -0.13211E-03         0.00000E+00
    0.29486E-03        -0.14211E-03         0.00000E+00
    0.31117E-03        -0.15266E-03         0.00000E+00
    0.32826E-03        -0.16380E-03         0.00000E+00
    0.34618E-03        -0.17557E-03         0.00000E+00
    0.36495E-03        -0.18802E-03         0.00000E+00
    0.38463E-03        -0.20120E-03         0.00000E+00
    0.40525E-03        -0.21516E-03         0.00000E+00
    0.42685E-03        -0.22994E-03         0.00000E+00
    0.44947E-03        -0.24561E-03         0.00000E+00
    0.47315E-03        -0.26221E-03         0.00000E+00
    0.49793E-03        -0.27981E-03         0.00000E+00
    0.52384E-03        -0.29847E-03         0.00000E+00
    0.55093E-03        -0.31826E-03         0.00000E+00
    0.57923E-03        -0.33923E-03         0.00000E+00
    0.60877E-03        -0.36147E-03         0.00000E+00
    0.63959E-03        -0.38504E-03         0.00000E+00
    0.67172E-03        -0.41003E-03         0.00000E+00
    0.70519E-03        -0.43650E-03         0.00000E+00
    0.74004E-03        -0.46456E-03         0.00000E+00
    0.77629E-03        -0.49428E-03         0.00000E+00
    0.81396E-03        -0.52577E-03         0.00000E+00
    0.85308E-03        -0.55910E-03         0.00000E+00
    0.89365E-03        -0.59440E-03         0.00000E+00
    0.93571E-03        -0.63175E-03         0.00000E+00
    0.97925E-03        -0.67128E-03         0.00000E+00
    0.10243E-02        -0.71309E-03         0.00000E+00
    0.10708E-02        -0.75731E-03         0.00000E+00
    0.11188E-02        -0.80405E-03         0.00000E+00
    0.11682E-02        -0.85345E-03         0.00000E+00
    0.12191E-02        -0.90563E-03         0.00000E+00
    0.12714E-02        -0.96075E-03         0.00000E+00
    0.13251E-02        -0.10189E-02         0.00000E+00
    0.13800E-02        -0.10803E-02         0.00000E+00
    0.14362E-02        -0.11451E-02         0.00000E+00
    0.14936E-02        -0.12134E-02         0.00000E+00
    0.15519E-02        -0.12854E-02         0.00000E+00
    0.16113E-02        -0.13613E-02         0.00000E+00
    0.16714E-02        -0.14413E-02         0.00000E+00
    0.17322E-02        -0.15254E-02         0.00000E+00
    0.17935E-02        -0.16140E-02         0.00000E+00
    0.18550E-02        -0.17071E-02         0.00000E+00
    0.19166E-02        -0.18051E-02         0.00000E+00
    0.19780E-02        -0.19081E-02         0.00000E+00
    0.20389E-02        -0.20163E-02         0.00000E+00
    0.20990E-02        -0.21299E-02         0.00000E+00
    0.21579E-02        -0.22492E-02         0.00000E+00
    0.22153E-02        -0.23743E-02         0.00000E+00
    0.22707E-02        -0.25056E-02         0.00000E+00
    0.23236E-02        -0.26432E-02         0.00000E+00
    0.23736E-02        -0.27873E-02         0.00000E+00
    0.24200E-02        -0.29382E-02         0.00000E+00
    0.24623E-02        -0.30962E-02         0.00000E+00
    0.24998E-02        -0.32614E-02         0.00000E+00
    0.25318E-02        -0.34340E-02         0.00000E+00
    0.25575E-02        -0.36143E-02         0.00000E+00
    0.25763E-02        -0.38023E-02         0.00000E+00
    0.25873E-02        -0.39982E-02         0.00000E+00
    0.25897E-02        -0.42021E-02         0.00000E+00
    0.25826E-02        -0.44138E-02         0.00000E+00
    0.25653E-02        -0.46331E-02         0.00000E+00
    0.25368E-02        -0.48599E-02         0.00000E+00
    0.24964E-02        -0.50935E-02         0.00000E+00
    0.24433E-02        -0.53331E-02         0.00000E+00
    0.23767E-02        -0.55776E-02         0.00000E+00
    0.22957E-02        -0.58254E-02         0.00000E+00
    0.21995E-02        -0.60745E-02         0.00000E+00
    0.20868E-02        -0.63222E-02         0.00000E+00
    0.19562E-02        -0.65651E-02         0.00000E+00
    0.18053E-02        -0.67990E-02         0.00000E+00
    0.16306E-02        -0.70190E-02         0.00000E+00
    0.14262E-02        -0.72193E-02         0.00000E+00
    0.11831E-02        -0.73935E-02         0.00000E+00
    0.88586E-03        -0.75341E-02         0.00000E+00
    0.50713E-03        -0.76303E-02         0.00000E+00
    0.00000E+00        -0.76656E-02         0.00000E+00
    0.00000E+00         0.16356E-04         0.00000E+00
    0.17668E-04         0.15575E-04         0.00000E+00
    0.32667E-04         0.13409E-04         0.00000E+00
    0.45972E-04         0.10183E-04         0.00000E+00
    0.58218E-04         0.61322E-05         0.00000E+00
    0.69798E-04         0.14161E-05         0.00000E+00
    0.80962E-04        -0.38335E-05         0.00000E+00
    0.91880E-04        -0.95066E-05         0.00000E+00
    0.10267E-03        -0.15515E-04         0.00000E+00
    0.11343E-03        -0.21792E-04         0.00000E+00
    0.12421E-03        -0.28291E-04         0.00000E+00
    0.13509E-03        -0.34980E-04         0.00000E+00
    0.14610E-03        -0.41847E-04         0.00000E+00
    0.15731E-03        -0.48887E-04         0.00000E+00
    0.16876E-03        -0.56108E-04         0.00000E+00
    0.18049E-03        -0.63526E-04         0.00000E+00
    0.19256E-03        -0.71161E-04         0.00000E+00
    0.20501E-03        -0.79039E-04         0.00000E+00
    0.21789E-03        -0.87192E-04         0.00000E+00
    0.23126E-03        -0.95651E-04         0.00000E+00
    0.24515E-03        -0.10445E-03         0.00000E+00
    0.25962E-03        -0.11363E-03         0.00000E+00
    0.27471E-03        -0.12324E-03         0.00000E+00
    0.29047E-03        -0.13330E-03         0.00000E+00
    0.30696E-03        -0.14386E-03         0.00000E+00
    0.32421E-03        -0.15498E-03         0.00000E+00
    0.34228E-03        -0.16669E-03         0.00000E+00
    0.36121E-03        -0.17904E-03         0.00000E+00
    0.38104E-03        -0.19207E-03         0.00000E+00
    0.40184E-03        -0.20586E-03         0.00000E+00
    0.42363E-03        -0.22043E-03         0.00000E+00
    0.44647E-03        -0.23586E-03         0.00000E+00
    0.47041E-03        -0.25219E-03         0.00000E+00
    0.49548E-03        -0.26949E-03         0.00000E+00
    0.52174E-03        -0.28783E-03         0.00000E+00
    0.54923E-03        -0.30726E-03         0.00000E+00
    0.57799E-03        -0.32786E-03         0.00000E+00
    0.60807E-03        -0.34969E-03         0.00000E+00
    0.63951E-03        -0.37284E-03         0.00000E+00
    0.67236E-03        -0.39737E-03         0.00000E+00
    0.70665E-03        -0.42338E-03         0.00000E+00
    0.74242E-03        -0.45096E-03         0.00000E+00
    0.77972E-03        -0.48018E-03         0.00000E+00
    0.81858E-03        -0.51114E-03         0.00000E+00
    0.85903E-03        -0.54395E-03         0.00000E+00
    0.90111E-03        -0.57870E-03         0.00000E+00
    0.94484E-03        -0.61551E-03         0.00000E+00
    0.99024E-03        -0.65448E-03         0.00000E+00
    0.10373E-02        -0.69574E-03         0.00000E+00
    0.10862E-02        -0.73940E-03         0.00000E+00
    0.11367E-02        -0.78559E-03         0.00000E+00
    0.11890E-02        -0.83445E-03         0.00000E+00
    0.12430E-02        -0.88612E-03         0.00000E+00
    0.12987E-02        -0.94073E-03         0.00000E+00
    0.13561E-02        -0.99843E-03         0.00000E+00
    0.14152E-02        -0.10594E-02         0.00000E+00
    0.14759E-02        -0.11238E-02         0.00000E+00
    0.15382E-02        -0.11917E-02         0.00000E+00
    0.16019E-02        -0.12634E-02         0.00000E+00
    0.16672E-02        -0.13391E-02         0.00000E+00
    0.17337E-02        -0.14188E-02         0.00000E+00
    0.18015E-02        -0.15029E-02         0.00000E+00
    0.18704E-02        -0.15915E-02         0.00000E+00
    0.19402E-02        -0.16847E-02         0.00000E+00
    0.20108E-02        -0.17829E-02         0.00000E+00
    0.20819E-02        -0.18863E-02         0.00000E+00
    0.21534E-02        -0.19950E-02         0.00000E+00
    0.22249E-02        -0.21093E-02         0.00000E+00
    0.22962E-02        -0.22294E-02         0.00000E+00
    0.23669E-02        -0.23556E-02         0.00000E+00
    0.24366E-02        -0.24880E-02         0.00000E+00
    0.25051E-02        -0.26271E-02         0.00000E+00
    0.25717E-02        -0.27730E-02         0.00000E+00
    0.26360E-02        -0.29260E-02         0.00000E+00
    0.26975E-02        -0.30863E-02         0.00000E+00
    0.27555E-02        -0.32543E-02         0.00000E+00
    0.28094E-02        -0.34301E-02         0.00000E+00
    0.28585E-02        -0.36142E-02         0.00000E+00
    0.29020E-02        -0.38066E-02         0.00000E+00
    0.29391E-02        -0.40076E-02         0.00000E+00
    0.29690E-02        -0.42175E-02         0.00000E+00
    0.29908E-02        -0.44365E-02         0.00000E+00
    0.30035E-02        -0.46646E-02         0.00000E+00
    0.30062E-02        -0.49019E-02         0.00000E+00
    0.29978E-02        -0.51483E-02         0.00000E+00
    0.29775E-02        -0.54036E-02         0.00000E+00
    0.29441E-02        -0.56675E-02         0.00000E+00
    0.28968E-02        -0.59393E-02         0.00000E+00
    0.28346E-02        -0.62182E-02         0.00000E+00
    0.27565E-02        -0.65027E-02         0.00000E+00
    0.26615E-02        -0.67910E-02         0.00000E+00
    0.25485E-02        -0.70808E-02         0.00000E+00
    0.24162E-02        -0.73689E-02         0.00000E+00
    0.22627E-02        -0.76513E-02         0.00000E+00
    0.20853E-02        -0.79232E-02         0.00000E+00
    0.18800E-02        -0.81786E-02         0.00000E+00
    0.16401E-02        -0.84107E-02         0.00000E+00
    0.13554E-02        -0.86117E-02         0.00000E+00
    0.10089E-02        -0.87726E-02         0.00000E+00
    0.57205E-03        -0.88808E-02         0.00000E+00
    0.00000E+00        -0.89199E-02         0.00000E+00
    0.00000E+00         0.17844E-04         0.00000E+00
    0.19760E-04         0.16989E-04         0.00000E+00
    0.36750E-04         0.14588E-04         0.00000E+00
    0.51908E-04         0.10960E-04         0.00000E+00
    0.65888E-04         0.63674E-05         0.00000E+00
    0.79114E-04         0.10003E-05         0.00000E+00
    0.91864E-04        -0.49860E-05         0.00000E+00
    0.10433E-03        -0.11463E-04         0.00000E+00
    0.11664E-03        -0.18328E-04         0.00000E+00
    0.12890E-03        -0.25503E-04         0.00000E+00
    0.14119E-03        -0.32934E-04         0.00000E+00
    0.15357E-03        -0.40586E-04         0.00000E+00
    0.16611E-03        -0.48442E-04         0.00000E+00
    0.17887E-03        -0.56499E-04         0.00000E+00
    0.19189E-03        -0.64766E-04         0.00000E+00
    0.20523E-03        -0.73259E-04         0.00000E+00
    0.21896E-03        -0.82003E-04         0.00000E+00
    0.23312E-03        -0.91028E-04         0.00000E+00
    0.24777E-03        -0.10037E-03         0.00000E+00
    0.26296E-03        -0.11006E-03         0.00000E+00
    0.27875E-03        -0.12015E-03         0.00000E+00
    0.29520E-03        -0.13068E-03         0.00000E+00
    0.31236E-03        -0.14168E-03         0.00000E+00
    0.33028E-03        -0.15322E-03         0.00000E+00
    0.34902E-03        -0.16533E-03         0.00000E+00
    0.36864E-03        -0.17808E-03         0.00000E+00
    0.38918E-03        -0.19150E-03         0.00000E+00
    0.41070E-03        -0.20566E-03         0.00000E+00
    0.43325E-03        -0.22061E-03         0.00000E+00
    0.45689E-03        -0.23642E-03         0.00000E+00
    0.48167E-03        -0.25313E-03         0.00000E+00
    0.50764E-03        -0.27082E-03         0.00000E+00
    0.53486E-03        -0.28954E-03         0.00000E+00
    0.56336E-03        -0.30938E-03         0.00000E+00
    0.59322E-03        -0.33040E-03         0.00000E+00
    0.62448E-03        -0.35267E-03         0.00000E+00
    0.65718E-03        -0.37628E-03         0.00000E+00
    0.69138E-03        -0.40130E-03         0.00000E+00
    0.72713E-03        -0.42783E-03         0.00000E+00
    0.76448E-03        -0.45595E-03         0.00000E+00
    0.80347E-03        -0.48575E-03         0.00000E+00
    0.84415E-03        -0.51734E-03         0.00000E+00
    0.88656E-03        -0.55082E-03         0.00000E+00
    0.93075E-03        -0.58629E-03         0.00000E+00
    0.97674E-03        -0.62387E-03         0.00000E+00
    0.10246E-02        -0.66367E-03         0.00000E+00
    0.10743E-02        -0.70582E-03         0.00000E+00
    0.11259E-02        -0.75045E-03         0.00000E+00
    0.11795E-02        -0.79769E-03         0.00000E+00
    0.12350E-02        -0.84768E-03         0.00000E+00
    0.12925E-02        -0.90056E-03         0.00000E+00
    0.13519E-02        -0.95649E-03         0.00000E+00
    0.14133E-02        -0.10156E-02         0.00000E+00
    0.14767E-02        -0.10781E-02         0.00000E+00
    0.15420E-02        -0.11442E-02         0.00000E+00
    0.16091E-02        -0.12139E-02         0.00000E+00
    0.16782E-02        -0.12876E-02         0.00000E+00
    0.17490E-02        -0.13653E-02         0.00000E+00
    0.18215E-02        -0.14473E-02         0.00000E+00
    0.18957E-02        -0.15338E-02         0.00000E+00
    0.19714E-02        -0.16250E-02         0.00000E+00
    0.20485E-02        -0.17212E-02         0.00000E+00
    0.21268E-02        -0.18224E-02         0.00000E+00
    0.22062E-02        -0.19291E-02         0.00000E+00
    0.22865E-02        -0.20413E-02         0.00000E+00
    0.23674E-02        -0.21594E-02         0.00000E+00
    0.24486E-02        -0.22837E-02         0.00000E+00
    0.25300E-02        -0.24143E-02         0.00000E+00
    0.26110E-02        -0.25515E-02         0.00000E+00
    0.26915E-02        -0.26957E-02         0.00000E+00
    0.27708E-02        -0.28470E-02         0.00000E+00
    0.28487E-02        -0.30058E-02         0.00000E+00
    0.29244E-02        -0.31724E-02         0.00000E+00
    0.29976E-02        -0.33471E-02         0.00000E+00
    0.30675E-02        -0.35302E-02         0.00000E+00
    0.31335E-02        -0.37219E-02         0.00000E+00
    0.31949E-02        -0.39226E-02         0.00000E+00
    0.32507E-02        -0.41326E-02         0.00000E+00
    0.33002E-02        -0.43521E-02         0.00000E+00
    0.33425E-02        -0.45815E-02         0.00000E+00
    0.33765E-02        -0.48210E-02         0.00000E+00
    0.34012E-02        -0.50707E-02         0.00000E+00
    0.34156E-02        -0.53308E-02         0.00000E+00
    0.34186E-02        -0.56014E-02         0.00000E+00
    0.34089E-02        -0.58824E-02         0.00000E+00
    0.33855E-02        -0.61735E-02         0.00000E+00
    0.33473E-02        -0.64744E-02         0.00000E+00
    0.32931E-02        -0.67842E-02         0.00000E+00
    0.32217E-02        -0.71021E-02         0.00000E+00
    0.31320E-02        -0.74264E-02         0.00000E+00
    0.30229E-02        -0.77550E-02         0.00000E+00
    0.28930E-02        -0.80853E-02         0.00000E+00
    0.27409E-02        -0.84136E-02         0.00000E+00
    0.25642E-02        -0.87353E-02         0.00000E+00
    0.23601E-02        -0.90449E-02         0.00000E+00
    0.21238E-02        -0.93354E-02         0.00000E+00
    0.18482E-02        -0.95989E-02         0.00000E+00
    0.15220E-02        -0.98262E-02         0.00000E+00
    0.11269E-02        -0.10007E-01         0.00000E+00
    0.63373E-03        -0.10127E-01         0.00000E+00
    0.00000E+00        -0.10169E-01         0.00000E+00
    0.00000E+00         0.19161E-04         0.00000E+00
    0.21787E-04         0.18233E-04         0.00000E+00
    0.40724E-04         0.15600E-04         0.00000E+00
    0.57711E-04         0.11578E-04         0.00000E+00
    0.73413E-04         0.64500E-05         0.00000E+00
    0.88279E-04         0.43603E-06         0.00000E+00
    0.10261E-03        -0.62849E-05         0.00000E+00
    0.11661E-03        -0.13565E-04         0.00000E+00
    0.13044E-03        -0.21285E-04         0.00000E+00
    0.14419E-03        -0.29359E-04         0.00000E+00
    0.15798E-03        -0.37723E-04         0.00000E+00
    0.17186E-03        -0.46338E-04         0.00000E+00
    0.18591E-03        -0.55186E-04         0.00000E+00
    0.20019E-03        -0.64262E-04         0.00000E+00
    0.21477E-03        -0.73577E-04         0.00000E+00
    0.22971E-03        -0.83149E-04         0.00000E+00
    0.24507E-03        -0.93006E-04         0.00000E+00
    0.26092E-03        -0.10318E-03         0.00000E+00
    0.27731E-03        -0.11372E-03         0.00000E+00
    0.29431E-03        -0.12465E-03         0.00000E+00
    0.31198E-03        -0.13603E-03         0.00000E+00
    0.33039E-03        -0.14791E-03         0.00000E+00
    0.34959E-03        -0.16033E-03         0.00000E+00
    0.36965E-03        -0.17335E-03         0.00000E+00
    0.39062E-03        -0.18702E-03         0.00000E+00
    0.41257E-03        -0.20140E-03         0.00000E+00
    0.43555E-03        -0.21656E-03         0.00000E+00
    0.45964E-03        -0.23254E-03         0.00000E+00
    0.48488E-03        -0.24941E-03         0.00000E+00
    0.51134E-03        -0.26725E-03         0.00000E+00
    0.53907E-03        -0.28611E-03         0.00000E+00
    0.56813E-03        -0.30607E-03         0.00000E+00
    0.59859E-03        -0.32720E-03         0.00000E+00
    0.63049E-03        -0.34959E-03         0.00000E+00
    0.66391E-03        -0.37330E-03         0.00000E+00
    0.69889E-03        -0.39844E-03         0.00000E+00
    0.73549E-03        -0.42507E-03         0.00000E+00
    0.77377E-03        -0.45330E-03         0.00000E+00
    0.81378E-03        -0.48322E-03         0.00000E+00
    0.85558E-03        -0.51494E-03         0.00000E+00
    0.89922E-03        -0.54856E-03         0.00000E+00
    0.94475E-03        -0.58418E-03         0.00000E+00
    0.99222E-03        -0.62194E-03         0.00000E+00
    0.10417E-02        -0.66193E-03         0.00000E+00
    0.10932E-02        -0.70430E-03         0.00000E+00
    0.11467E-02        -0.74918E-03         0.00000E+00
    0.12024E-02        -0.79670E-03         0.00000E+00
    0.12602E-02        -0.84700E-03         0.00000E+00
    0.13201E-02        -0.90024E-03         0.00000E+00
    0.13822E-02        -0.95658E-03         0.00000E+00
    0.14466E-02        -0.10162E-02         0.00000E+00
    0.15131E-02        -0.10792E-02         0.00000E+00
    0.15818E-02        -0.11458E-02         0.00000E+00
    0.16527E-02        -0.12162E-02         0.00000E+00
    0.17258E-02        -0.12906E-02         0.00000E+00
    0.18010E-02        -0.13692E-02         0.00000E+00
    0.18783E-02        -0.14521E-02         0.00000E+00
    0.19576E-02        -0.15397E-02         0.00000E+00
    0.20388E-02        -0.16320E-02         0.00000E+00
    0.21218E-02        -0.17294E-02         0.00000E+00
    0.22065E-02        -0.18321E-02         0.00000E+00
    0.22928E-02        -0.19403E-02         0.00000E+00
    0.23805E-02        -0.20543E-02         0.00000E+00
    0.24694E-02        -0.21743E-02         0.00000E+00
    0.25593E-02        -0.23006E-02         0.00000E+00
    0.26498E-02        -0.24335E-02         0.00000E+00
    0.27408E-02        -0.25732E-02         0.00000E+00
    0.28319E-02        -0.27201E-02         0.00000E+00
    0.29226E-02        -0.28745E-02         0.00000E+00
    0.30127E-02        -0.30366E-02         0.00000E+00
    0.31016E-02        -0.32068E-02         0.00000E+00
    0.31887E-02        -0.33853E-02         0.00000E+00
    0.32736E-02        -0.35726E-02         0.00000E+00
    0.33555E-02        -0.37689E-02         0.00000E+00
    0.34339E-02        -0.39746E-02         0.00000E+00
    0.35078E-02        -0.41901E-02         0.00000E+00
    0.35765E-02        -0.44156E-02         0.00000E+00
    0.36391E-02        -0.46515E-02         0.00000E+00
    0.36945E-02        -0.48981E-02         0.00000E+00
    0.37419E-02        -0.51557E-02         0.00000E+00
    0.37800E-02        -0.54246E-02         0.00000E+00
    0.38077E-02        -0.57050E-02         0.00000E+00
    0.38238E-02        -0.59970E-02         0.00000E+00
    0.38270E-02        -0.63007E-02         0.00000E+00
    0.38160E-02        -0.66161E-02         0.00000E+00
    0.37897E-02        -0.69428E-02         0.00000E+00
    0.37465E-02        -0.72805E-02         0.00000E+00
    0.36853E-02        -0.76282E-02         0.00000E+00
    0.36047E-02        -0.79848E-02         0.00000E+00
    0.35034E-02        -0.83487E-02         0.00000E+00
    0.33801E-02        -0.87175E-02         0.00000E+00
    0.32332E-02        -0.90880E-02         0.00000E+00
    0.30610E-02        -0.94563E-02         0.00000E+00
    0.28610E-02        -0.98171E-02         0.00000E+00
    0.26298E-02        -0.10164E-01         0.00000E+00
    0.23624E-02        -0.10489E-01         0.00000E+00
    0.20509E-02        -0.10784E-01         0.00000E+00
    0.16833E-02        -0.11037E-01         0.00000E+00
    0.12403E-02        -0.11237E-01         0.00000E+00
    0.69261E-03        -0.11368E-01         0.00000E+00
    0.00000E+00        -0.11414E-01         0.00000E+00
    0.00000E+00         0.20314E-04         0.00000E+00
    0.23756E-04         0.19313E-04         0.00000E+00
    0.44597E-04         0.16452E-04         0.00000E+00
    0.63389E-04         0.12041E-04         0.00000E+00
    0.80800E-04         0.63832E-05         0.00000E+00
    0.97296E-04        -0.27443E-06         0.00000E+00
    0.11320E-03        -0.77279E-05         0.00000E+00
    0.12873E-03        -0.15809E-04         0.00000E+00
    0.14406E-03        -0.24386E-04         0.00000E+00
    0.15931E-03        -0.33358E-04         0.00000E+00
    0.17457E-03        -0.42655E-04         0.00000E+00
    0.18993E-03        -0.52235E-04         0.00000E+00
    0.20548E-03        -0.62076E-04         0.00000E+00
    0.22128E-03        -0.72174E-04         0.00000E+00
    0.23740E-03        -0.82539E-04         0.00000E+00
    0.25391E-03        -0.93194E-04         0.00000E+00
    0.27089E-03        -0.10417E-03         0.00000E+00
    0.28841E-03        -0.11550E-03         0.00000E+00
    0.30652E-03        -0.12723E-03         0.00000E+00
    0.32531E-03        -0.13941E-03         0.00000E+00
    0.34484E-03        -0.15209E-03         0.00000E+00
    0.36518E-03        -0.16533E-03         0.00000E+00
    0.38640E-03        -0.17917E-03         0.00000E+00
    0.40856E-03        -0.19368E-03         0.00000E+00
    0.43174E-03        -0.20892E-03         0.00000E+00
    0.45600E-03        -0.22495E-03         0.00000E+00
    0.48140E-03        -0.24184E-03         0.00000E+00
    0.50802E-03        -0.25966E-03         0.00000E+00
    0.53592E-03        -0.27847E-03         0.00000E+00
    0.56516E-03        -0.29835E-03         0.00000E+00
    0.59581E-03        -0.31937E-03         0.00000E+00
    0.62793E-03        -0.34162E-03         0.00000E+00
    0.66159E-03        -0.36517E-03         0.00000E+00
    0.69686E-03        -0.39012E-03         0.00000E+00
    0.73379E-03        -0.41655E-03         0.00000E+00
    0.77246E-03        -0.44455E-03         0.00000E+00
    0.81291E-03        -0.47423E-03         0.00000E+00
    0.85523E-03        -0.50568E-03         0.00000E+00
    0.89945E-03        -0.53902E-03         0.00000E+00
    0.94566E-03        -0.57435E-03         0.00000E+00
    0.99389E-03        -0.61180E-03         0.00000E+00
    0.10442E-02        -0.65148E-03         0.00000E+00
    0.10967E-02        -0.69352E-03         0.00000E+00
    0.11514E-02        -0.73807E-03         0.00000E+00
    0.12083E-02        -0.78525E-03         0.00000E+00
    0.12675E-02        -0.83521E-03         0.00000E+00
    0.13290E-02        -0.88812E-03         0.00000E+00
    0.13929E-02        -0.94412E-03         0.00000E+00
    0.14591E-02        -0.10034E-02         0.00000E+00
    0.15278E-02        -0.10661E-02         0.00000E+00
    0.15989E-02        -0.11324E-02         0.00000E+00
    0.16725E-02        -0.12025E-02         0.00000E+00
    0.17485E-02        -0.12767E-02         0.00000E+00
    0.18269E-02        -0.13550E-02         0.00000E+00
    0.19076E-02        -0.14378E-02         0.00000E+00
    0.19908E-02        -0.15251E-02         0.00000E+00
    0.20762E-02        -0.16174E-02         0.00000E+00
    0.21638E-02        -0.17148E-02         0.00000E+00
    0.22536E-02        -0.18175E-02         0.00000E+00
    0.23454E-02        -0.19258E-02         0.00000E+00
    0.24391E-02        -0.20399E-02         0.00000E+00
    0.25345E-02        -0.21602E-02         0.00000E+00
    0.26315E-02        -0.22869E-02         0.00000E+00
    0.27298E-02        -0.24203E-02         0.00000E+00
    0.28291E-02        -0.25607E-02         0.00000E+00
    0.29293E-02        -0.27083E-02         0.00000E+00
    0.30299E-02        -0.28636E-02         0.00000E+00
    0.31306E-02        -0.30268E-02         0.00000E+00
    0.32310E-02        -0.31983E-02         0.00000E+00
    0.33306E-02        -0.33783E-02         0.00000E+00
    0.34289E-02        -0.35673E-02         0.00000E+00
    0.35253E-02        -0.37655E-02         0.00000E+00
    0.36192E-02        -0.39735E-02         0.00000E+00
    0.37098E-02        -0.41914E-02         0.00000E+00
    0.37965E-02        -0.44198E-02         0.00000E+00
    0.38783E-02        -0.46588E-02         0.00000E+00
    0.39543E-02        -0.49091E-02         0.00000E+00
    0.40236E-02        -0.51708E-02         0.00000E+00
    0.40850E-02        -0.54444E-02         0.00000E+00
    0.41374E-02        -0.57301E-02         0.00000E+00
    0.41796E-02        -0.60283E-02         0.00000E+00
    0.42102E-02        -0.63392E-02         0.00000E+00
    0.42280E-02        -0.66630E-02         0.00000E+00
    0.42315E-02        -0.69998E-02         0.00000E+00
    0.42193E-02        -0.73494E-02         0.00000E+00
    0.41899E-02        -0.77115E-02         0.00000E+00
    0.41419E-02        -0.80858E-02         0.00000E+00
    0.40737E-02        -0.84712E-02         0.00000E+00
    0.39839E-02        -0.88664E-02         0.00000E+00
    0.38710E-02        -0.92696E-02         0.00000E+00
    0.37333E-02        -0.96783E-02         0.00000E+00
    0.35693E-02        -0.10089E-01         0.00000E+00
    0.33768E-02        -0.10497E-01         0.00000E+00
    0.31532E-02        -0.10897E-01         0.00000E+00
    0.28948E-02        -0.11281E-01         0.00000E+00
    0.25961E-02        -0.11641E-01         0.00000E+00
    0.22487E-02        -0.11966E-01         0.00000E+00
    0.18397E-02        -0.12245E-01         0.00000E+00
    0.13495E-02        -0.12463E-01         0.00000E+00
    0.74906E-03        -0.12606E-01         0.00000E+00
    0.00000E+00        -0.12655E-01         0.00000E+00
    0.00000E+00         0.21314E-04         0.00000E+00
    0.25673E-04         0.20239E-04         0.00000E+00
    0.48377E-04         0.17151E-04         0.00000E+00
    0.68950E-04         0.12355E-04         0.00000E+00
    0.88053E-04         0.61703E-05         0.00000E+00
    0.10617E-03        -0.11285E-05         0.00000E+00
    0.12364E-03        -0.93129E-05         0.00000E+00
    0.14069E-03        -0.18195E-04         0.00000E+00
    0.15752E-03        -0.27627E-04         0.00000E+00
    0.17424E-03        -0.37498E-04         0.00000E+00
    0.19097E-03        -0.47730E-04         0.00000E+00
    0.20780E-03        -0.58276E-04         0.00000E+00
    0.22483E-03        -0.69111E-04         0.00000E+00
    0.24212E-03        -0.80232E-04         0.00000E+00
    0.25977E-03        -0.91651E-04         0.00000E+00
    0.27784E-03        -0.10339E-03         0.00000E+00
    0.29642E-03        -0.11549E-03         0.00000E+00
    0.31558E-03        -0.12798E-03         0.00000E+00
    0.33540E-03        -0.14092E-03         0.00000E+00
    0.35596E-03        -0.15435E-03         0.00000E+00
    0.37732E-03        -0.16833E-03         0.00000E+00
    0.39957E-03        -0.18293E-03         0.00000E+00
    0.42278E-03        -0.19820E-03         0.00000E+00
    0.44703E-03        -0.21421E-03         0.00000E+00
    0.47238E-03        -0.23103E-03         0.00000E+00
    0.49892E-03        -0.24872E-03         0.00000E+00
    0.52672E-03        -0.26735E-03         0.00000E+00
    0.55584E-03        -0.28701E-03         0.00000E+00
    0.58636E-03        -0.30777E-03         0.00000E+00
    0.61835E-03        -0.32970E-03         0.00000E+00
    0.65188E-03        -0.35290E-03         0.00000E+00
    0.68703E-03        -0.37745E-03         0.00000E+00
    0.72386E-03        -0.40344E-03         0.00000E+00
    0.76245E-03        -0.43096E-03         0.00000E+00
    0.80286E-03        -0.46012E-03         0.00000E+00
    0.84517E-03        -0.49101E-03         0.00000E+00
    0.88943E-03        -0.52374E-03         0.00000E+00
    0.93573E-03        -0.55844E-03         0.00000E+00
    0.98413E-03        -0.59520E-03         0.00000E+00
    0.10347E-02        -0.63417E-03         0.00000E+00
    0.10875E-02        -0.67546E-03         0.00000E+00
    0.11425E-02        -0.71921E-03         0.00000E+00
    0.12000E-02        -0.76557E-03         0.00000E+00
    0.12598E-02        -0.81467E-03         0.00000E+00
    0.13221E-02        -0.86668E-03         0.00000E+00
    0.13868E-02        -0.92176E-03         0.00000E+00
    0.14542E-02        -0.98007E-03         0.00000E+00
    0.15241E-02        -0.10418E-02         0.00000E+00
    0.15966E-02        -0.11071E-02         0.00000E+00
    0.16718E-02        -0.11762E-02         0.00000E+00
    0.17496E-02        -0.12492E-02         0.00000E+00
    0.18301E-02        -0.13265E-02         0.00000E+00
    0.19132E-02        -0.14082E-02         0.00000E+00
    0.19990E-02        -0.14944E-02         0.00000E+00
    0.20874E-02        -0.15856E-02         0.00000E+00
    0.21784E-02        -0.16818E-02         0.00000E+00
    0.22719E-02        -0.17834E-02         0.00000E+00
    0.23678E-02        -0.18906E-02         0.00000E+00
    0.24661E-02        -0.20037E-02         0.00000E+00
    0.25666E-02        -0.21229E-02         0.00000E+00
    0.26691E-02        -0.22485E-02         0.00000E+00
    0.27736E-02        -0.23809E-02         0.00000E+00
    0.28797E-02        -0.25203E-02         0.00000E+00
    0.29873E-02        -0.26671E-02         0.00000E+00
    0.30960E-02        -0.28216E-02         0.00000E+00
    0.32057E-02        -0.29840E-02         0.00000E+00
    0.33158E-02        -0.31548E-02         0.00000E+00
    0.34261E-02        -0.33343E-02         0.00000E+00
    0.35360E-02        -0.35228E-02         0.00000E+00
    0.36451E-02        -0.37208E-02         0.00000E+00
    0.37527E-02        -0.39285E-02         0.00000E+00
    0.38583E-02        -0.41465E-02         0.00000E+00
    0.39612E-02        -0.43750E-02         0.00000E+00
    0.40605E-02        -0.46146E-02         0.00000E+00
    0.41554E-02        -0.48655E-02         0.00000E+00
    0.42450E-02        -0.51281E-02         0.00000E+00
    0.43284E-02        -0.54030E-02         0.00000E+00
    0.44043E-02        -0.56905E-02         0.00000E+00
    0.44716E-02        -0.59909E-02         0.00000E+00
    0.45291E-02        -0.63047E-02         0.00000E+00
    0.45753E-02        -0.66321E-02         0.00000E+00
    0.46089E-02        -0.69735E-02         0.00000E+00
    0.46284E-02        -0.73289E-02         0.00000E+00
    0.46323E-02        -0.76985E-02         0.00000E+00
    0.46188E-02        -0.80822E-02         0.00000E+00
    0.45865E-02        -0.84796E-02         0.00000E+00
    0.45335E-02        -0.88902E-02         0.00000E+00
    0.44584E-02        -0.93131E-02         0.00000E+00
    0.43593E-02        -0.97468E-02         0.00000E+00
    0.42347E-02        -0.10189E-01         0.00000E+00
    0.40827E-02        -0.10637E-01         0.00000E+00
    0.39014E-02        -0.11088E-01         0.00000E+00
    0.36885E-02        -0.11535E-01         0.00000E+00
    0.34412E-02        -0.11974E-01         0.00000E+00
    0.31553E-02        -0.12395E-01         0.00000E+00
    0.28251E-02        -0.12789E-01         0.00000E+00
    0.24418E-02        -0.13145E-01         0.00000E+00
    0.19918E-02        -0.13449E-01         0.00000E+00
    0.14552E-02        -0.13686E-01         0.00000E+00
    0.80338E-03        -0.13840E-01         0.00000E+00
    0.00000E+00        -0.13893E-01         0.00000E+00
    0.00000E+00         0.22167E-04         0.00000E+00
    0.27542E-04         0.21019E-04         0.00000E+00
    0.52072E-04         0.17703E-04         0.00000E+00
    0.74398E-04         0.12524E-04         0.00000E+00
    0.95179E-04         0.58148E-05         0.00000E+00
    0.11490E-03        -0.21233E-05         0.00000E+00
    0.13392E-03        -0.11038E-04         0.00000E+00
    0.15249E-03        -0.20721E-04         0.00000E+00
    0.17080E-03        -0.31008E-04         0.00000E+00
    0.18899E-03        -0.41777E-04         0.00000E+00
    0.20718E-03        -0.52944E-04         0.00000E+00
    0.22547E-03        -0.64457E-04         0.00000E+00
    0.24396E-03        -0.76288E-04         0.00000E+00
    0.26273E-03        -0.88435E-04         0.00000E+00
    0.28189E-03        -0.10091E-03         0.00000E+00
    0.30150E-03        -0.11374E-03         0.00000E+00
    0.32166E-03        -0.12696E-03         0.00000E+00
    0.34244E-03        -0.14061E-03         0.00000E+00
    0.36394E-03        -0.15476E-03         0.00000E+00
    0.38624E-03        -0.16945E-03         0.00000E+00
    0.40941E-03        -0.18475E-03         0.00000E+00
    0.43355E-03        -0.20072E-03         0.00000E+00
    0.45873E-03        -0.21742E-03         0.00000E+00
    0.48504E-03        -0.23494E-03         0.00000E+00
    0.51254E-03        -0.25334E-03         0.00000E+00
    0.54133E-03        -0.27270E-03         0.00000E+00
    0.57149E-03        -0.29309E-03         0.00000E+00
    0.60308E-03        -0.31460E-03         0.00000E+00
    0.63619E-03        -0.33731E-03         0.00000E+00
    0.67090E-03        -0.36132E-03         0.00000E+00
    0.70729E-03        -0.38670E-03         0.00000E+00
    0.74542E-03        -0.41356E-03         0.00000E+00
    0.78539E-03        -0.44200E-03         0.00000E+00
    0.82725E-03        -0.47211E-03         0.00000E+00
    0.87110E-03        -0.50400E-03         0.00000E+00
    0.91701E-03        -0.53780E-03         0.00000E+00
    0.96504E-03        -0.57361E-03         0.00000E+00
    0.10153E-02        -0.61155E-03         0.00000E+00
    0.10678E-02        -0.65177E-03         0.00000E+00
    0.11227E-02        -0.69438E-03         0.00000E+00
    0.11799E-02        -0.73953E-03         0.00000E+00
    0.12397E-02        -0.78738E-03         0.00000E+00
    0.13020E-02        -0.83806E-03         0.00000E+00
    0.13669E-02        -0.89175E-03         0.00000E+00
    0.14345E-02        -0.94860E-03         0.00000E+00
    0.15048E-02        -0.10088E-02         0.00000E+00
    0.15779E-02        -0.10725E-02         0.00000E+00
    0.16537E-02        -0.11400E-02         0.00000E+00
    0.17324E-02        -0.12114E-02         0.00000E+00
    0.18140E-02        -0.12869E-02         0.00000E+00
    0.18985E-02        -0.13667E-02         0.00000E+00
    0.19858E-02        -0.14511E-02         0.00000E+00
    0.20761E-02        -0.15403E-02         0.00000E+00
    0.21692E-02        -0.16345E-02         0.00000E+00
    0.22652E-02        -0.17341E-02         0.00000E+00
    0.23639E-02        -0.18392E-02         0.00000E+00
    0.24654E-02        -0.19501E-02         0.00000E+00
    0.25695E-02        -0.20672E-02         0.00000E+00
    0.26762E-02        -0.21906E-02         0.00000E+00
    0.27853E-02        -0.23208E-02         0.00000E+00
    0.28966E-02        -0.24579E-02         0.00000E+00
    0.30099E-02        -0.26024E-02         0.00000E+00
    0.31252E-02        -0.27546E-02         0.00000E+00
    0.32420E-02        -0.29147E-02         0.00000E+00
    0.33601E-02        -0.30832E-02         0.00000E+00
    0.34791E-02        -0.32604E-02         0.00000E+00
    0.35987E-02        -0.34467E-02         0.00000E+00
    0.37184E-02        -0.36425E-02         0.00000E+00
    0.38378E-02        -0.38481E-02         0.00000E+00
    0.39562E-02        -0.40640E-02         0.00000E+00
    0.40732E-02        -0.42905E-02         0.00000E+00
    0.41879E-02        -0.45281E-02         0.00000E+00
    0.42996E-02        -0.47773E-02         0.00000E+00
    0.44075E-02        -0.50383E-02         0.00000E+00
    0.45107E-02        -0.53117E-02         0.00000E+00
    0.46081E-02        -0.55979E-02         0.00000E+00
    0.46987E-02        -0.58974E-02         0.00000E+00
    0.47812E-02        -0.62106E-02         0.00000E+00
    0.48544E-02        -0.65378E-02         0.00000E+00
    0.49170E-02        -0.68795E-02         0.00000E+00
    0.49673E-02        -0.72360E-02         0.00000E+00
    0.50039E-02        -0.76077E-02         0.00000E+00
    0.50251E-02        -0.79946E-02         0.00000E+00
    0.50293E-02        -0.83969E-02         0.00000E+00
    0.50147E-02        -0.88145E-02         0.00000E+00
    0.49794E-02        -0.92470E-02         0.00000E+00
    0.49216E-02        -0.96939E-02         0.00000E+00
    0.48395E-02        -0.10154E-01         0.00000E+00
    0.47312E-02        -0.10626E-01         0.00000E+00
    0.45949E-02        -0.11107E-01         0.00000E+00
    0.44284E-02        -0.11595E-01         0.00000E+00
    0.42298E-02        -0.12085E-01         0.00000E+00
    0.39964E-02        -0.12572E-01         0.00000E+00
    0.37252E-02        -0.13049E-01         0.00000E+00
    0.34117E-02        -0.13507E-01         0.00000E+00
    0.30499E-02        -0.13935E-01         0.00000E+00
    0.26306E-02        -0.14321E-01         0.00000E+00
    0.21398E-02        -0.14650E-01         0.00000E+00
    0.15576E-02        -0.14906E-01         0.00000E+00
    0.85584E-03        -0.15071E-01         0.00000E+00
    0.00000E+00        -0.15128E-01         0.00000E+00
    0.00000E+00         0.22882E-04         0.00000E+00
    0.29368E-04         0.21659E-04         0.00000E+00
    0.55687E-04         0.18115E-04         0.00000E+00
    0.79742E-04         0.12552E-04         0.00000E+00
    0.10218E-03         0.53205E-05         0.00000E+00
    0.12350E-03        -0.32561E-05         0.00000E+00
    0.14407E-03        -0.12900E-04         0.00000E+00
    0.16414E-03        -0.23383E-04         0.00000E+00
    0.18392E-03        -0.34525E-04         0.00000E+00
    0.20356E-03        -0.46194E-04         0.00000E+00
    0.22319E-03        -0.58297E-04         0.00000E+00
    0.24292E-03        -0.70776E-04         0.00000E+00
    0.26286E-03        -0.83605E-04         0.00000E+00
    0.28310E-03        -0.96779E-04         0.00000E+00
    0.30374E-03        -0.11031E-03         0.00000E+00
    0.32487E-03        -0.12423E-03         0.00000E+00
    0.34659E-03        -0.13858E-03         0.00000E+00
    0.36898E-03        -0.15340E-03         0.00000E+00
    0.39214E-03        -0.16876E-03         0.00000E+00
    0.41616E-03        -0.18472E-03         0.00000E+00
    0.44112E-03        -0.20133E-03         0.00000E+00
    0.46712E-03        -0.21868E-03         0.00000E+00
    0.49424E-03        -0.23683E-03         0.00000E+00
    0.52258E-03        -0.25586E-03         0.00000E+00
    0.55221E-03        -0.27585E-03         0.00000E+00
    0.58322E-03        -0.29688E-03         0.00000E+00
    0.61571E-03        -0.31904E-03         0.00000E+00
    0.64974E-03        -0.34242E-03         0.00000E+00
    0.68541E-03        -0.36710E-03         0.00000E+00
    0.72281E-03        -0.39318E-03         0.00000E+00
    0.76201E-03        -0.42076E-03         0.00000E+00
    0.80310E-03        -0.44995E-03         0.00000E+00
    0.84616E-03        -0.48084E-03         0.00000E+00
    0.89127E-03        -0.51355E-03         0.00000E+00
    0.93851E-03        -0.54820E-03         0.00000E+00
    0.98797E-03        -0.58491E-03         0.00000E+00
    0.10397E-02        -0.62381E-03         0.00000E+00
    0.10939E-02        -0.66503E-03         0.00000E+00
    0.11505E-02        -0.70870E-03         0.00000E+00
    0.12096E-02        -0.75498E-03         0.00000E+00
    0.12713E-02        -0.80401E-03         0.00000E+00
    0.13357E-02        -0.85596E-03         0.00000E+00
    0.14028E-02        -0.91099E-03         0.00000E+00
    0.14728E-02        -0.96927E-03         0.00000E+00
    0.15456E-02        -0.10310E-02         0.00000E+00
    0.16214E-02        -0.10963E-02         0.00000E+00
    0.17001E-02        -0.11655E-02         0.00000E+00
    0.17819E-02        -0.12387E-02         0.00000E+00
    0.18667E-02        -0.13162E-02         0.00000E+00
    0.19546E-02        -0.13981E-02         0.00000E+00
    0.20456E-02        -0.14847E-02         0.00000E+00
    0.21398E-02        -0.15763E-02         0.00000E+00
    0.22370E-02        -0.16730E-02         0.00000E+00
    0.23374E-02        -0.17753E-02         0.00000E+00
    0.24408E-02        -0.18832E-02         0.00000E+00
    0.25473E-02        -0.19972E-02         0.00000E+00
    0.26567E-02        -0.21175E-02         0.00000E+00
    0.27689E-02        -0.22444E-02         0.00000E+00
    0.28839E-02        -0.23783E-02         0.00000E+00
    0.30014E-02        -0.25194E-02         0.00000E+00
    0.31214E-02        -0.26680E-02         0.00000E+00
    0.32437E-02        -0.28246E-02         0.00000E+00
    0.33679E-02        -0.29895E-02         0.00000E+00
    0.34938E-02        -0.31631E-02         0.00000E+00
    0.36211E-02        -0.33456E-02         0.00000E+00
    0.37495E-02        -0.35376E-02         0.00000E+00
    0.38785E-02        -0.37395E-02         0.00000E+00
    0.40076E-02        -0.39515E-02         0.00000E+00
    0.41363E-02        -0.41742E-02         0.00000E+00
    0.42641E-02        -0.44079E-02         0.00000E+00
    0.43902E-02        -0.46532E-02         0.00000E+00
    0.45139E-02        -0.49105E-02         0.00000E+00
    0.46345E-02        -0.51801E-02         0.00000E+00
    0.47509E-02        -0.54626E-02         0.00000E+00
    0.48623E-02        -0.57585E-02         0.00000E+00
    0.49675E-02        -0.60682E-02         0.00000E+00
    0.50653E-02        -0.63922E-02         0.00000E+00
    0.51545E-02        -0.67310E-02         0.00000E+00
    0.52336E-02        -0.70849E-02         0.00000E+00
    0.53011E-02        -0.74545E-02         0.00000E+00
    0.53556E-02        -0.78400E-02         0.00000E+00
    0.53952E-02        -0.82418E-02         0.00000E+00
    0.54182E-02        -0.86601E-02         0.00000E+00
    0.54228E-02        -0.90950E-02         0.00000E+00
    0.54069E-02        -0.95463E-02         0.00000E+00
    0.53688E-02        -0.10014E-01         0.00000E+00
    0.53062E-02        -0.10497E-01         0.00000E+00
    0.52172E-02        -0.10994E-01         0.00000E+00
    0.50997E-02        -0.11504E-01         0.00000E+00
    0.49516E-02        -0.12024E-01         0.00000E+00
    0.47707E-02        -0.12551E-01         0.00000E+00
    0.45547E-02        -0.13081E-01         0.00000E+00
    0.43007E-02        -0.13607E-01         0.00000E+00
    0.40054E-02        -0.14122E-01         0.00000E+00
    0.36643E-02        -0.14616E-01         0.00000E+00
    0.32708E-02        -0.15079E-01         0.00000E+00
    0.28154E-02        -0.15495E-01         0.00000E+00
    0.22842E-02        -0.15849E-01         0.00000E+00
    0.16570E-02        -0.16123E-01         0.00000E+00
    0.90665E-03        -0.16298E-01         0.00000E+00
    0.00000E+00        -0.16359E-01         0.00000E+00
    0.00000E+00         0.23466E-04         0.00000E+00
    0.31153E-04         0.22167E-04         0.00000E+00
    0.59227E-04         0.18393E-04         0.00000E+00
    0.84985E-04         0.12446E-04         0.00000E+00
    0.10907E-03         0.46910E-05         0.00000E+00
    0.13197E-03        -0.45240E-05         0.00000E+00
    0.15407E-03        -0.14897E-04         0.00000E+00
    0.17563E-03        -0.26180E-04         0.00000E+00
    0.19687E-03        -0.38178E-04         0.00000E+00
    0.21795E-03        -0.50746E-04         0.00000E+00
    0.23901E-03        -0.63785E-04         0.00000E+00
    0.26017E-03        -0.77233E-04         0.00000E+00
    0.28154E-03        -0.91060E-04         0.00000E+00
    0.30323E-03        -0.10526E-03         0.00000E+00
    0.32533E-03        -0.11985E-03         0.00000E+00
    0.34797E-03        -0.13487E-03         0.00000E+00
    0.37122E-03        -0.15035E-03         0.00000E+00
    0.39520E-03        -0.16635E-03         0.00000E+00
    0.41999E-03        -0.18292E-03         0.00000E+00
    0.44571E-03        -0.20014E-03         0.00000E+00
    0.47243E-03        -0.21808E-03         0.00000E+00
    0.50027E-03        -0.23681E-03         0.00000E+00
    0.52931E-03        -0.25641E-03         0.00000E+00
    0.55965E-03        -0.27696E-03         0.00000E+00
    0.59137E-03        -0.29856E-03         0.00000E+00
    0.62458E-03        -0.32127E-03         0.00000E+00
    0.65937E-03        -0.34521E-03         0.00000E+00
    0.69581E-03        -0.37046E-03         0.00000E+00
    0.73402E-03        -0.39711E-03         0.00000E+00
    0.77406E-03        -0.42529E-03         0.00000E+00
    0.81604E-03        -0.45508E-03         0.00000E+00
    0.86005E-03        -0.48660E-03         0.00000E+00
    0.90616E-03        -0.51996E-03         0.00000E+00
    0.95447E-03        -0.55529E-03         0.00000E+00
    0.10051E-02        -0.59271E-03         0.00000E+00
    0.10580E-02        -0.63235E-03         0.00000E+00
    0.11135E-02        -0.67435E-03         0.00000E+00
    0.11715E-02        -0.71884E-03         0.00000E+00
    0.12321E-02        -0.76599E-03         0.00000E+00
    0.12954E-02        -0.81595E-03         0.00000E+00
    0.13615E-02        -0.86888E-03         0.00000E+00
    0.14305E-02        -0.92495E-03         0.00000E+00
    0.15024E-02        -0.98434E-03         0.00000E+00
    0.15773E-02        -0.10472E-02         0.00000E+00
    0.16554E-02        -0.11138E-02         0.00000E+00
    0.17365E-02        -0.11844E-02         0.00000E+00
    0.18208E-02        -0.12590E-02         0.00000E+00
    0.19084E-02        -0.13380E-02         0.00000E+00
    0.19993E-02        -0.14215E-02         0.00000E+00
    0.20935E-02        -0.15099E-02         0.00000E+00
    0.21910E-02        -0.16033E-02         0.00000E+00
    0.22919E-02        -0.17020E-02         0.00000E+00
    0.23961E-02        -0.18064E-02         0.00000E+00
    0.25036E-02        -0.19166E-02         0.00000E+00
    0.26144E-02        -0.20330E-02         0.00000E+00
    0.27285E-02        -0.21559E-02         0.00000E+00
    0.28457E-02        -0.22856E-02         0.00000E+00
    0.29659E-02        -0.24224E-02         0.00000E+00
    0.30891E-02        -0.25666E-02         0.00000E+00
    0.32151E-02        -0.27186E-02         0.00000E+00
    0.33437E-02        -0.28788E-02         0.00000E+00
    0.34747E-02        -0.30476E-02         0.00000E+00
    0.36078E-02        -0.32252E-02         0.00000E+00
    0.37428E-02        -0.34122E-02         0.00000E+00
    0.38793E-02        -0.36088E-02         0.00000E+00
    0.40169E-02        -0.38156E-02         0.00000E+00
    0.41551E-02        -0.40329E-02         0.00000E+00
    0.42935E-02        -0.42612E-02         0.00000E+00
    0.44316E-02        -0.45009E-02         0.00000E+00
    0.45686E-02        -0.47526E-02         0.00000E+00
    0.47038E-02        -0.50166E-02         0.00000E+00
    0.48366E-02        -0.52934E-02         0.00000E+00
    0.49659E-02        -0.55836E-02         0.00000E+00
    0.50908E-02        -0.58876E-02         0.00000E+00
    0.52103E-02        -0.62059E-02         0.00000E+00
    0.53232E-02        -0.65390E-02         0.00000E+00
    0.54283E-02        -0.68875E-02         0.00000E+00
    0.55240E-02        -0.72517E-02         0.00000E+00
    0.56090E-02        -0.76323E-02         0.00000E+00
    0.56817E-02        -0.80296E-02         0.00000E+00
    0.57402E-02        -0.84440E-02         0.00000E+00
    0.57829E-02        -0.88758E-02         0.00000E+00
    0.58077E-02        -0.93254E-02         0.00000E+00
    0.58127E-02        -0.97927E-02         0.00000E+00
    0.57958E-02        -0.10278E-01         0.00000E+00
    0.57548E-02        -0.10780E-01         0.00000E+00
    0.56874E-02        -0.11299E-01         0.00000E+00
    0.55916E-02        -0.11833E-01         0.00000E+00
    0.54649E-02        -0.12380E-01         0.00000E+00
    0.53051E-02        -0.12939E-01         0.00000E+00
    0.51098E-02        -0.13505E-01         0.00000E+00
    0.48763E-02        -0.14074E-01         0.00000E+00
    0.46016E-02        -0.14639E-01         0.00000E+00
    0.42822E-02        -0.15192E-01         0.00000E+00
    0.39132E-02        -0.15723E-01         0.00000E+00
    0.34879E-02        -0.16219E-01         0.00000E+00
    0.29967E-02        -0.16666E-01         0.00000E+00
    0.24253E-02        -0.17045E-01         0.00000E+00
    0.17539E-02        -0.17337E-01         0.00000E+00
    0.95601E-03        -0.17524E-01         0.00000E+00
    0.00000E+00        -0.17588E-01         0.00000E+00
    0.00000E+00         0.23925E-04         0.00000E+00
    0.32901E-04         0.22549E-04         0.00000E+00
    0.62698E-04         0.18542E-04         0.00000E+00
    0.90134E-04         0.12209E-04         0.00000E+00
    0.11584E-03         0.39302E-05         0.00000E+00
    0.14031E-03        -0.59238E-05         0.00000E+00
    0.16393E-03        -0.17027E-04         0.00000E+00
    0.18697E-03        -0.29111E-04         0.00000E+00
    0.20966E-03        -0.41964E-04         0.00000E+00
    0.23217E-03        -0.55432E-04         0.00000E+00
    0.25464E-03        -0.69407E-04         0.00000E+00
    0.27721E-03        -0.83824E-04         0.00000E+00
    0.29999E-03        -0.98651E-04         0.00000E+00
    0.32311E-03        -0.11388E-03         0.00000E+00
    0.34666E-03        -0.12954E-03         0.00000E+00
    0.37078E-03        -0.14565E-03         0.00000E+00
    0.39555E-03        -0.16226E-03         0.00000E+00
    0.42108E-03        -0.17944E-03         0.00000E+00
    0.44749E-03        -0.19723E-03         0.00000E+00
    0.47488E-03        -0.21573E-03         0.00000E+00
    0.50335E-03        -0.23499E-03         0.00000E+00
    0.53300E-03        -0.25511E-03         0.00000E+00
    0.56393E-03        -0.27617E-03         0.00000E+00
    0.59624E-03        -0.29825E-03         0.00000E+00
    0.63004E-03        -0.32145E-03         0.00000E+00
    0.66541E-03        -0.34586E-03         0.00000E+00
    0.70246E-03        -0.37158E-03         0.00000E+00
    0.74129E-03        -0.39871E-03         0.00000E+00
    0.78199E-03        -0.42736E-03         0.00000E+00
    0.82465E-03        -0.45763E-03         0.00000E+00
    0.86938E-03        -0.48964E-03         0.00000E+00
    0.91626E-03        -0.52350E-03         0.00000E+00
    0.96539E-03        -0.55935E-03         0.00000E+00
    0.10169E-02        -0.59731E-03         0.00000E+00
    0.10708E-02        -0.63751E-03         0.00000E+00
    0.11272E-02        -0.68009E-03         0.00000E+00
    0.11863E-02        -0.72520E-03         0.00000E+00
    0.12481E-02        -0.77300E-03         0.00000E+00
    0.13127E-02        -0.82364E-03         0.00000E+00
    0.13801E-02        -0.87730E-03         0.00000E+00
    0.14506E-02        -0.93413E-03         0.00000E+00
    0.15241E-02        -0.99434E-03         0.00000E+00
    0.16007E-02        -0.10581E-02         0.00000E+00
    0.16806E-02        -0.11256E-02         0.00000E+00
    0.17637E-02        -0.11971E-02         0.00000E+00
    0.18502E-02        -0.12728E-02         0.00000E+00
    0.19401E-02        -0.13529E-02         0.00000E+00
    0.20334E-02        -0.14377E-02         0.00000E+00
    0.21303E-02        -0.15274E-02         0.00000E+00
    0.22307E-02        -0.16222E-02         0.00000E+00
    0.23346E-02        -0.17224E-02         0.00000E+00
    0.24421E-02        -0.18284E-02         0.00000E+00
    0.25532E-02        -0.19403E-02         0.00000E+00
    0.26678E-02        -0.20586E-02         0.00000E+00
    0.27859E-02        -0.21834E-02         0.00000E+00
    0.29075E-02        -0.23152E-02         0.00000E+00
    0.30324E-02        -0.24543E-02         0.00000E+00
    0.31606E-02        -0.26010E-02         0.00000E+00
    0.32920E-02        -0.27556E-02         0.00000E+00
    0.34263E-02        -0.29186E-02         0.00000E+00
    0.35634E-02        -0.30904E-02         0.00000E+00
    0.37030E-02        -0.32712E-02         0.00000E+00
    0.38450E-02        -0.34616E-02         0.00000E+00
    0.39889E-02        -0.36620E-02         0.00000E+00
    0.41345E-02        -0.38727E-02         0.00000E+00
    0.42812E-02        -0.40942E-02         0.00000E+00
    0.44287E-02        -0.43270E-02         0.00000E+00
    0.45763E-02        -0.45716E-02         0.00000E+00
    0.47236E-02        -0.48284E-02         0.00000E+00
    0.48697E-02        -0.50979E-02         0.00000E+00
    0.50141E-02        -0.53806E-02         0.00000E+00
    0.51557E-02        -0.56770E-02         0.00000E+00
    0.52937E-02        -0.59876E-02         0.00000E+00
    0.54271E-02        -0.63130E-02         0.00000E+00
    0.55548E-02        -0.66537E-02         0.00000E+00
    0.56754E-02        -0.70102E-02         0.00000E+00
    0.57876E-02        -0.73830E-02         0.00000E+00
    0.58899E-02        -0.77728E-02         0.00000E+00
    0.59808E-02        -0.81798E-02         0.00000E+00
    0.60586E-02        -0.86048E-02         0.00000E+00
    0.61213E-02        -0.90480E-02         0.00000E+00
    0.61670E-02        -0.95098E-02         0.00000E+00
    0.61938E-02        -0.99904E-02         0.00000E+00
    0.61992E-02        -0.10490E-01         0.00000E+00
    0.61813E-02        -0.11008E-01         0.00000E+00
    0.61375E-02        -0.11545E-01         0.00000E+00
    0.60655E-02        -0.12100E-01         0.00000E+00
    0.59629E-02        -0.12671E-01         0.00000E+00
    0.58271E-02        -0.13256E-01         0.00000E+00
    0.56556E-02        -0.13853E-01         0.00000E+00
    0.54458E-02        -0.14458E-01         0.00000E+00
    0.51948E-02        -0.15066E-01         0.00000E+00
    0.48994E-02        -0.15670E-01         0.00000E+00
    0.45557E-02        -0.16261E-01         0.00000E+00
    0.41588E-02        -0.16828E-01         0.00000E+00
    0.37017E-02        -0.17358E-01         0.00000E+00
    0.31747E-02        -0.17834E-01         0.00000E+00
    0.25635E-02        -0.18238E-01         0.00000E+00
    0.18485E-02        -0.18549E-01         0.00000E+00
    0.10041E-02        -0.18747E-01         0.00000E+00
    0.00000E+00        -0.18815E-01         0.00000E+00
    0.00000E+00         0.24267E-04         0.00000E+00
    0.34615E-04         0.22813E-04         0.00000E+00
    0.66104E-04         0.18569E-04         0.00000E+00
    0.95193E-04         0.11847E-04         0.00000E+00
    0.12250E-03         0.30420E-05         0.00000E+00
    0.14853E-03        -0.74525E-05         0.00000E+00
    0.17365E-03        -0.19287E-04         0.00000E+00
    0.19817E-03        -0.32171E-04         0.00000E+00
    0.22229E-03        -0.45881E-04         0.00000E+00
    0.24621E-03        -0.60248E-04         0.00000E+00
    0.27008E-03        -0.75160E-04         0.00000E+00
    0.29404E-03        -0.90546E-04         0.00000E+00
    0.31822E-03        -0.10637E-03         0.00000E+00
    0.34274E-03        -0.12264E-03         0.00000E+00
    0.36773E-03        -0.13936E-03         0.00000E+00
    0.39330E-03        -0.15657E-03         0.00000E+00
    0.41956E-03        -0.17432E-03         0.00000E+00
    0.44664E-03        -0.19267E-03         0.00000E+00
    0.47464E-03        -0.21169E-03         0.00000E+00
    0.50368E-03        -0.23147E-03         0.00000E+00
    0.53386E-03        -0.25207E-03         0.00000E+00
    0.56529E-03        -0.27358E-03         0.00000E+00
    0.59809E-03        -0.29610E-03         0.00000E+00
    0.63235E-03        -0.31972E-03         0.00000E+00
    0.66819E-03        -0.34454E-03         0.00000E+00
    0.70570E-03        -0.37065E-03         0.00000E+00
    0.74499E-03        -0.39816E-03         0.00000E+00
    0.78617E-03        -0.42718E-03         0.00000E+00
    0.82933E-03        -0.45782E-03         0.00000E+00
    0.87457E-03        -0.49020E-03         0.00000E+00
    0.92201E-03        -0.52444E-03         0.00000E+00
    0.97173E-03        -0.56067E-03         0.00000E+00
    0.10238E-02        -0.59901E-03         0.00000E+00
    0.10784E-02        -0.63960E-03         0.00000E+00
    0.11356E-02        -0.68260E-03         0.00000E+00
    0.11955E-02        -0.72814E-03         0.00000E+00
    0.12581E-02        -0.77638E-03         0.00000E+00
    0.13237E-02        -0.82749E-03         0.00000E+00
    0.13922E-02        -0.88163E-03         0.00000E+00
    0.14638E-02        -0.93900E-03         0.00000E+00
    0.15385E-02        -0.99976E-03         0.00000E+00
    0.16165E-02        -0.10641E-02         0.00000E+00
    0.16978E-02        -0.11323E-02         0.00000E+00
    0.17825E-02        -0.12045E-02         0.00000E+00
    0.18707E-02        -0.12809E-02         0.00000E+00
    0.19624E-02        -0.13618E-02         0.00000E+00
    0.20578E-02        -0.14474E-02         0.00000E+00
    0.21569E-02        -0.15379E-02         0.00000E+00
    0.22596E-02        -0.16337E-02         0.00000E+00
    0.23661E-02        -0.17350E-02         0.00000E+00
    0.24764E-02        -0.18421E-02         0.00000E+00
    0.25905E-02        -0.19553E-02         0.00000E+00
    0.27083E-02        -0.20748E-02         0.00000E+00
    0.28299E-02        -0.22011E-02         0.00000E+00
    0.29553E-02        -0.23344E-02         0.00000E+00
    0.30843E-02        -0.24752E-02         0.00000E+00
    0.32169E-02        -0.26236E-02         0.00000E+00
    0.33529E-02        -0.27802E-02         0.00000E+00
    0.34923E-02        -0.29453E-02         0.00000E+00
    0.36349E-02        -0.31193E-02         0.00000E+00
    0.37804E-02        -0.33025E-02         0.00000E+00
    0.39287E-02        -0.34955E-02         0.00000E+00
    0.40794E-02        -0.36987E-02         0.00000E+00
    0.42322E-02        -0.39124E-02         0.00000E+00
    0.43867E-02        -0.41372E-02         0.00000E+00
    0.45425E-02        -0.43736E-02         0.00000E+00
    0.46991E-02        -0.46219E-02         0.00000E+00
    0.48559E-02        -0.48827E-02         0.00000E+00
    0.50123E-02        -0.51565E-02         0.00000E+00
    0.51676E-02        -0.54438E-02         0.00000E+00
    0.53209E-02        -0.57452E-02         0.00000E+00
    0.54714E-02        -0.60611E-02         0.00000E+00
    0.56181E-02        -0.63922E-02         0.00000E+00
    0.57599E-02        -0.67390E-02         0.00000E+00
    0.58956E-02        -0.71020E-02         0.00000E+00
    0.60239E-02        -0.74818E-02         0.00000E+00
    0.61433E-02        -0.78790E-02         0.00000E+00
    0.62523E-02        -0.82941E-02         0.00000E+00
    0.63491E-02        -0.87276E-02         0.00000E+00
    0.64319E-02        -0.91801E-02         0.00000E+00
    0.64988E-02        -0.96520E-02         0.00000E+00
    0.65477E-02        -0.10144E-01         0.00000E+00
    0.65764E-02        -0.10655E-01         0.00000E+00
    0.65825E-02        -0.11187E-01         0.00000E+00
    0.65635E-02        -0.11739E-01         0.00000E+00
    0.65171E-02        -0.12310E-01         0.00000E+00
    0.64405E-02        -0.12900E-01         0.00000E+00
    0.63312E-02        -0.13507E-01         0.00000E+00
    0.61863E-02        -0.14130E-01         0.00000E+00
    0.60032E-02        -0.14765E-01         0.00000E+00
    0.57790E-02        -0.15409E-01         0.00000E+00
    0.55105E-02        -0.16056E-01         0.00000E+00
    0.51943E-02        -0.16698E-01         0.00000E+00
    0.48263E-02        -0.17327E-01         0.00000E+00
    0.44014E-02        -0.17931E-01         0.00000E+00
    0.39125E-02        -0.18494E-01         0.00000E+00
    0.33497E-02        -0.19001E-01         0.00000E+00
    0.26989E-02        -0.19429E-01         0.00000E+00
    0.19410E-02        -0.19759E-01         0.00000E+00
    0.10510E-02        -0.19968E-01         0.00000E+00
    0.00000E+00        -0.20039E-01         0.00000E+00
    0.00000E+00         0.24499E-04         0.00000E+00
    0.36296E-04         0.22964E-04         0.00000E+00
    0.69448E-04         0.18480E-04         0.00000E+00
    0.10017E-03         0.11365E-04         0.00000E+00
    0.12906E-03         0.20303E-05         0.00000E+00
    0.15663E-03        -0.91069E-05         0.00000E+00
    0.18325E-03        -0.21673E-04         0.00000E+00
    0.20921E-03        -0.35360E-04         0.00000E+00
    0.23476E-03        -0.49926E-04         0.00000E+00
    0.26007E-03        -0.65194E-04         0.00000E+00
    0.28532E-03        -0.81043E-04         0.00000E+00
    0.31066E-03        -0.97399E-04         0.00000E+00
    0.33622E-03        -0.11423E-03         0.00000E+00
    0.36213E-03        -0.13152E-03         0.00000E+00
    0.38853E-03        -0.14931E-03         0.00000E+00
    0.41553E-03        -0.16762E-03         0.00000E+00
    0.44327E-03        -0.18651E-03         0.00000E+00
    0.47186E-03        -0.20605E-03         0.00000E+00
    0.50143E-03        -0.22630E-03         0.00000E+00
    0.53209E-03        -0.24735E-03         0.00000E+00
    0.56396E-03        -0.26929E-03         0.00000E+00
    0.59716E-03        -0.29221E-03         0.00000E+00
    0.63179E-03        -0.31620E-03         0.00000E+00
    0.66797E-03        -0.34136E-03         0.00000E+00
    0.70582E-03        -0.36780E-03         0.00000E+00
    0.74544E-03        -0.39562E-03         0.00000E+00
    0.78694E-03        -0.42493E-03         0.00000E+00
    0.83043E-03        -0.45585E-03         0.00000E+00
    0.87602E-03        -0.48850E-03         0.00000E+00
    0.92381E-03        -0.52300E-03         0.00000E+00
    0.97392E-03        -0.55948E-03         0.00000E+00
    0.10264E-02        -0.59808E-03         0.00000E+00
    0.10815E-02        -0.63892E-03         0.00000E+00
    0.11392E-02        -0.68217E-03         0.00000E+00
    0.11996E-02        -0.72797E-03         0.00000E+00
    0.12628E-02        -0.77648E-03         0.00000E+00
    0.13290E-02        -0.82786E-03         0.00000E+00
    0.13983E-02        -0.88230E-03         0.00000E+00
    0.14707E-02        -0.93996E-03         0.00000E+00
    0.15463E-02        -0.10010E-02         0.00000E+00
    0.16252E-02        -0.10657E-02         0.00000E+00
    0.17076E-02        -0.11343E-02         0.00000E+00
    0.17936E-02        -0.12069E-02         0.00000E+00
    0.18831E-02        -0.12837E-02         0.00000E+00
    0.19763E-02        -0.13650E-02         0.00000E+00
    0.20732E-02        -0.14511E-02         0.00000E+00
    0.21740E-02        -0.15422E-02         0.00000E+00
    0.22787E-02        -0.16386E-02         0.00000E+00
    0.23873E-02        -0.17406E-02         0.00000E+00
    0.24998E-02        -0.18484E-02         0.00000E+00
    0.26164E-02        -0.19623E-02         0.00000E+00
    0.27369E-02        -0.20827E-02         0.00000E+00
    0.28615E-02        -0.22099E-02         0.00000E+00
    0.29901E-02        -0.23442E-02         0.00000E+00
    0.31225E-02        -0.24860E-02         0.00000E+00
    0.32589E-02        -0.26357E-02         0.00000E+00
    0.33991E-02        -0.27936E-02         0.00000E+00
    0.35429E-02        -0.29601E-02         0.00000E+00
    0.36903E-02        -0.31356E-02         0.00000E+00
    0.38410E-02        -0.33206E-02         0.00000E+00
    0.39949E-02        -0.35154E-02         0.00000E+00
    0.41516E-02        -0.37205E-02         0.00000E+00
    0.43110E-02        -0.39364E-02         0.00000E+00
    0.44726E-02        -0.41636E-02         0.00000E+00
    0.46360E-02        -0.44025E-02         0.00000E+00
    0.48008E-02        -0.46536E-02         0.00000E+00
    0.49664E-02        -0.49174E-02         0.00000E+00
    0.51323E-02        -0.51944E-02         0.00000E+00
    0.52978E-02        -0.54852E-02         0.00000E+00
    0.54621E-02        -0.57904E-02         0.00000E+00
    0.56244E-02        -0.61104E-02         0.00000E+00
    0.57837E-02        -0.64459E-02         0.00000E+00
    0.59390E-02        -0.67974E-02         0.00000E+00
    0.60892E-02        -0.71655E-02         0.00000E+00
    0.62329E-02        -0.75508E-02         0.00000E+00
    0.63689E-02        -0.79538E-02         0.00000E+00
    0.64955E-02        -0.83753E-02         0.00000E+00
    0.66110E-02        -0.88157E-02         0.00000E+00
    0.67138E-02        -0.92756E-02         0.00000E+00
    0.68018E-02        -0.97555E-02         0.00000E+00
    0.68730E-02        -0.10256E-01         0.00000E+00
    0.69250E-02        -0.10777E-01         0.00000E+00
    0.69557E-02        -0.11320E-01         0.00000E+00
    0.69624E-02        -0.11883E-01         0.00000E+00
    0.69427E-02        -0.12468E-01         0.00000E+00
    0.68936E-02        -0.13074E-01         0.00000E+00
    0.68126E-02        -0.13699E-01         0.00000E+00
    0.66966E-02        -0.14343E-01         0.00000E+00
    0.65428E-02        -0.15003E-01         0.00000E+00
    0.63482E-02        -0.15676E-01         0.00000E+00
    0.61095E-02        -0.16358E-01         0.00000E+00
    0.58235E-02        -0.17044E-01         0.00000E+00
    0.54865E-02        -0.17725E-01         0.00000E+00
    0.50943E-02        -0.18391E-01         0.00000E+00
    0.46413E-02        -0.19031E-01         0.00000E+00
    0.41206E-02        -0.19628E-01         0.00000E+00
    0.35221E-02        -0.20165E-01         0.00000E+00
    0.28321E-02        -0.20618E-01         0.00000E+00
    0.20317E-02        -0.20966E-01         0.00000E+00
    0.10970E-02        -0.21187E-01         0.00000E+00
    0.00000E+00        -0.21262E-01         0.00000E+00
    0.00000E+00         0.24625E-04         0.00000E+00
    0.37947E-04         0.23008E-04         0.00000E+00
    0.72735E-04         0.18280E-04         0.00000E+00
    0.10506E-03         0.10767E-04         0.00000E+00
    0.13552E-03         0.89913E-06         0.00000E+00
    0.16461E-03        -0.10884E-04         0.00000E+00
    0.19271E-03        -0.24185E-04         0.00000E+00
    0.22011E-03        -0.38674E-04         0.00000E+00
    0.24707E-03        -0.54097E-04         0.00000E+00
    0.27376E-03        -0.70265E-04         0.00000E+00
    0.30038E-03        -0.87052E-04         0.00000E+00
    0.32707E-03        -0.10438E-03         0.00000E+00
    0.35399E-03        -0.12221E-03         0.00000E+00
    0.38127E-03        -0.14054E-03         0.00000E+00
    0.40905E-03        -0.15939E-03         0.00000E+00
    0.43747E-03        -0.17881E-03         0.00000E+00
    0.46666E-03        -0.19884E-03         0.00000E+00
    0.49675E-03        -0.21956E-03         0.00000E+00
    0.52786E-03        -0.24105E-03         0.00000E+00
    0.56012E-03        -0.26339E-03         0.00000E+00
    0.59365E-03        -0.28667E-03         0.00000E+00
    0.62858E-03        -0.31100E-03         0.00000E+00
    0.66502E-03        -0.33646E-03         0.00000E+00
    0.70310E-03        -0.36317E-03         0.00000E+00
    0.74293E-03        -0.39124E-03         0.00000E+00
    0.78462E-03        -0.42078E-03         0.00000E+00
    0.82830E-03        -0.45190E-03         0.00000E+00
    0.87407E-03        -0.48473E-03         0.00000E+00
    0.92206E-03        -0.51939E-03         0.00000E+00
    0.97237E-03        -0.55602E-03         0.00000E+00
    0.10251E-02        -0.59475E-03         0.00000E+00
    0.10804E-02        -0.63573E-03         0.00000E+00
    0.11383E-02        -0.67909E-03         0.00000E+00
    0.11991E-02        -0.72500E-03         0.00000E+00
    0.12627E-02        -0.77362E-03         0.00000E+00
    0.13293E-02        -0.82510E-03         0.00000E+00
    0.13990E-02        -0.87964E-03         0.00000E+00
    0.14718E-02        -0.93741E-03         0.00000E+00
    0.15481E-02        -0.99861E-03         0.00000E+00
    0.16277E-02        -0.10634E-02         0.00000E+00
    0.17108E-02        -0.11321E-02         0.00000E+00
    0.17976E-02        -0.12048E-02         0.00000E+00
    0.18880E-02        -0.12818E-02         0.00000E+00
    0.19823E-02        -0.13633E-02         0.00000E+00
    0.20804E-02        -0.14496E-02         0.00000E+00
    0.21825E-02        -0.15409E-02         0.00000E+00
    0.22887E-02        -0.16376E-02         0.00000E+00
    0.23989E-02        -0.17398E-02         0.00000E+00
    0.25132E-02        -0.18479E-02         0.00000E+00
    0.26318E-02        -0.19622E-02         0.00000E+00
    0.27545E-02        -0.20830E-02         0.00000E+00
    0.28815E-02        -0.22106E-02         0.00000E+00
    0.30127E-02        -0.23455E-02         0.00000E+00
    0.31481E-02        -0.24879E-02         0.00000E+00
    0.32877E-02        -0.26382E-02         0.00000E+00
    0.34313E-02        -0.27968E-02         0.00000E+00
    0.35789E-02        -0.29641E-02         0.00000E+00
    0.37305E-02        -0.31405E-02         0.00000E+00
    0.38857E-02        -0.33265E-02         0.00000E+00
    0.40445E-02        -0.35225E-02         0.00000E+00
    0.42067E-02        -0.37289E-02         0.00000E+00
    0.43718E-02        -0.39462E-02         0.00000E+00
    0.45398E-02        -0.41748E-02         0.00000E+00
    0.47100E-02        -0.44154E-02         0.00000E+00
    0.48823E-02        -0.46683E-02         0.00000E+00
    0.50560E-02        -0.49342E-02         0.00000E+00
    0.52306E-02        -0.52135E-02         0.00000E+00
    0.54055E-02        -0.55068E-02         0.00000E+00
    0.55800E-02        -0.58146E-02         0.00000E+00
    0.57533E-02        -0.61376E-02         0.00000E+00
    0.59244E-02        -0.64762E-02         0.00000E+00
    0.60925E-02        -0.68312E-02         0.00000E+00
    0.62564E-02        -0.72030E-02         0.00000E+00
    0.64150E-02        -0.75924E-02         0.00000E+00
    0.65667E-02        -0.79999E-02         0.00000E+00
    0.67103E-02        -0.84262E-02         0.00000E+00
    0.68441E-02        -0.88719E-02         0.00000E+00
    0.69663E-02        -0.93375E-02         0.00000E+00
    0.70750E-02        -0.98237E-02         0.00000E+00
    0.71682E-02        -0.10331E-01         0.00000E+00
    0.72437E-02        -0.10860E-01         0.00000E+00
    0.72990E-02        -0.11411E-01         0.00000E+00
    0.73318E-02        -0.11984E-01         0.00000E+00
    0.73393E-02        -0.12579E-01         0.00000E+00
    0.73187E-02        -0.13197E-01         0.00000E+00
    0.72673E-02        -0.13837E-01         0.00000E+00
    0.71818E-02        -0.14497E-01         0.00000E+00
    0.70594E-02        -0.15177E-01         0.00000E+00
    0.68967E-02        -0.15874E-01         0.00000E+00
    0.66906E-02        -0.16585E-01         0.00000E+00
    0.64376E-02        -0.17306E-01         0.00000E+00
    0.61342E-02        -0.18030E-01         0.00000E+00
    0.57764E-02        -0.18749E-01         0.00000E+00
    0.53598E-02        -0.19453E-01         0.00000E+00
    0.48788E-02        -0.20129E-01         0.00000E+00
    0.43262E-02        -0.20760E-01         0.00000E+00
    0.36922E-02        -0.21326E-01         0.00000E+00
    0.29631E-02        -0.21805E-01         0.00000E+00
    0.21208E-02        -0.22172E-01         0.00000E+00
    0.11421E-02        -0.22404E-01         0.00000E+00
    0.00000E+00        -0.22484E-01         0.00000E+00
    0.00000E+00         0.24654E-04         0.00000E+00
    0.39569E-04         0.22953E-04         0.00000E+00
    0.75968E-04         0.17975E-04         0.00000E+00
    0.10988E-03         0.10059E-04         0.00000E+00
    0.14189E-03        -0.34771E-06         0.00000E+00
    0.17249E-03        -0.12780E-04         0.00000E+00
    0.20205E-03        -0.26817E-04         0.00000E+00
    0.23088E-03        -0.42112E-04         0.00000E+00
    0.25922E-03        -0.58392E-04         0.00000E+00
    0.28728E-03        -0.75461E-04         0.00000E+00
    0.31524E-03        -0.93185E-04         0.00000E+00
    0.34327E-03        -0.11148E-03         0.00000E+00
    0.37153E-03        -0.13032E-03         0.00000E+00
    0.40016E-03        -0.14968E-03         0.00000E+00
    0.42931E-03        -0.16960E-03         0.00000E+00
    0.45912E-03        -0.19012E-03         0.00000E+00
    0.48974E-03        -0.21130E-03         0.00000E+00
    0.52129E-03        -0.23321E-03         0.00000E+00
    0.55392E-03        -0.25594E-03         0.00000E+00
    0.58776E-03        -0.27957E-03         0.00000E+00
    0.62293E-03        -0.30420E-03         0.00000E+00
    0.65956E-03        -0.32993E-03         0.00000E+00
    0.69779E-03        -0.35688E-03         0.00000E+00
    0.73773E-03        -0.38515E-03         0.00000E+00
    0.77951E-03        -0.41485E-03         0.00000E+00
    0.82325E-03        -0.44611E-03         0.00000E+00
    0.86907E-03        -0.47905E-03         0.00000E+00
    0.91710E-03        -0.51380E-03         0.00000E+00
    0.96744E-03        -0.55049E-03         0.00000E+00
    0.10202E-02        -0.58926E-03         0.00000E+00
    0.10756E-02        -0.63025E-03         0.00000E+00
    0.11336E-02        -0.67361E-03         0.00000E+00
    0.11944E-02        -0.71950E-03         0.00000E+00
    0.12581E-02        -0.76808E-03         0.00000E+00
    0.13249E-02        -0.81953E-03         0.00000E+00
    0.13947E-02        -0.87401E-03         0.00000E+00
    0.14679E-02        -0.93171E-03         0.00000E+00
    0.15444E-02        -0.99284E-03         0.00000E+00
    0.16244E-02        -0.10576E-02         0.00000E+00
    0.17079E-02        -0.11262E-02         0.00000E+00
    0.17952E-02        -0.11988E-02         0.00000E+00
    0.18863E-02        -0.12757E-02         0.00000E+00
    0.19812E-02        -0.13571E-02         0.00000E+00
    0.20801E-02        -0.14433E-02         0.00000E+00
    0.21832E-02        -0.15346E-02         0.00000E+00
    0.22903E-02        -0.16311E-02         0.00000E+00
    0.24017E-02        -0.17333E-02         0.00000E+00
    0.25175E-02        -0.18414E-02         0.00000E+00
    0.26375E-02        -0.19557E-02         0.00000E+00
    0.27620E-02        -0.20765E-02         0.00000E+00
    0.28908E-02        -0.22042E-02         0.00000E+00
    0.30242E-02        -0.23391E-02         0.00000E+00
    0.31619E-02        -0.24816E-02         0.00000E+00
    0.33041E-02        -0.26320E-02         0.00000E+00
    0.34506E-02        -0.27909E-02         0.00000E+00
    0.36015E-02        -0.29584E-02         0.00000E+00
    0.37565E-02        -0.31352E-02         0.00000E+00
    0.39157E-02        -0.33216E-02         0.00000E+00
    0.40787E-02        -0.35180E-02         0.00000E+00
    0.42455E-02        -0.37250E-02         0.00000E+00
    0.44158E-02        -0.39429E-02         0.00000E+00
    0.45893E-02        -0.41724E-02         0.00000E+00
    0.47657E-02        -0.44139E-02         0.00000E+00
    0.49446E-02        -0.46678E-02         0.00000E+00
    0.51256E-02        -0.49349E-02         0.00000E+00
    0.53081E-02        -0.52155E-02         0.00000E+00
    0.54917E-02        -0.55102E-02         0.00000E+00
    0.56755E-02        -0.58197E-02         0.00000E+00
    0.58589E-02        -0.61446E-02         0.00000E+00
    0.60411E-02        -0.64853E-02         0.00000E+00
    0.62211E-02        -0.68426E-02         0.00000E+00
    0.63980E-02        -0.72170E-02         0.00000E+00
    0.65704E-02        -0.76092E-02         0.00000E+00
    0.67372E-02        -0.80198E-02         0.00000E+00
    0.68970E-02        -0.84495E-02         0.00000E+00
    0.70483E-02        -0.88990E-02         0.00000E+00
    0.71892E-02        -0.93688E-02         0.00000E+00
    0.73181E-02        -0.98595E-02         0.00000E+00
    0.74328E-02        -0.10372E-01         0.00000E+00
    0.75312E-02        -0.10906E-01         0.00000E+00
    0.76111E-02        -0.11464E-01         0.00000E+00
    0.76698E-02        -0.12044E-01         0.00000E+00
    0.77047E-02        -0.12648E-01         0.00000E+00
    0.77131E-02        -0.13275E-01         0.00000E+00
    0.76919E-02        -0.13926E-01         0.00000E+00
    0.76381E-02        -0.14599E-01         0.00000E+00
    0.75485E-02        -0.15295E-01         0.00000E+00
    0.74196E-02        -0.16011E-01         0.00000E+00
    0.72482E-02        -0.16745E-01         0.00000E+00
    0.70307E-02        -0.17493E-01         0.00000E+00
    0.67635E-02        -0.18252E-01         0.00000E+00
    0.64427E-02        -0.19014E-01         0.00000E+00
    0.60642E-02        -0.19772E-01         0.00000E+00
    0.56232E-02        -0.20513E-01         0.00000E+00
    0.51141E-02        -0.21225E-01         0.00000E+00
    0.45297E-02        -0.21890E-01         0.00000E+00
    0.38602E-02        -0.22486E-01         0.00000E+00
    0.30924E-02        -0.22990E-01         0.00000E+00
    0.22086E-02        -0.23377E-01         0.00000E+00
    0.11865E-02        -0.23620E-01         0.00000E+00
    0.00000E+00        -0.23704E-01         0.00000E+00
    0.00000E+00         0.24590E-04         0.00000E+00
    0.41166E-04         0.22803E-04         0.00000E+00
    0.79150E-04         0.17571E-04         0.00000E+00
    0.11462E-03         0.92446E-05         0.00000E+00
    0.14816E-03        -0.17063E-05         0.00000E+00
    0.18025E-03        -0.14792E-04         0.00000E+00
    0.21126E-03        -0.29569E-04         0.00000E+00
    0.24150E-03        -0.45669E-04         0.00000E+00
    0.27122E-03        -0.62808E-04         0.00000E+00
    0.30063E-03        -0.80779E-04         0.00000E+00
    0.32992E-03        -0.99441E-04         0.00000E+00
    0.35927E-03        -0.11871E-03         0.00000E+00
    0.38884E-03        -0.13855E-03         0.00000E+00
    0.41880E-03        -0.15895E-03         0.00000E+00
    0.44929E-03        -0.17994E-03         0.00000E+00
    0.48047E-03        -0.20156E-03         0.00000E+00
    0.51249E-03        -0.22389E-03         0.00000E+00
    0.54549E-03        -0.24699E-03         0.00000E+00
    0.57961E-03        -0.27096E-03         0.00000E+00
    0.61500E-03        -0.29588E-03         0.00000E+00
    0.65178E-03        -0.32187E-03         0.00000E+00
    0.69009E-03        -0.34902E-03         0.00000E+00
    0.73007E-03        -0.37745E-03         0.00000E+00
    0.77185E-03        -0.40728E-03         0.00000E+00
    0.81555E-03        -0.43863E-03         0.00000E+00
    0.86131E-03        -0.47162E-03         0.00000E+00
    0.90924E-03        -0.50639E-03         0.00000E+00
    0.95948E-03        -0.54306E-03         0.00000E+00
    0.10122E-02        -0.58178E-03         0.00000E+00
    0.10674E-02        -0.62270E-03         0.00000E+00
    0.11253E-02        -0.66596E-03         0.00000E+00
    0.11860E-02        -0.71172E-03         0.00000E+00
    0.12496E-02        -0.76015E-03         0.00000E+00
    0.13163E-02        -0.81141E-03         0.00000E+00
    0.13861E-02        -0.86570E-03         0.00000E+00
    0.14593E-02        -0.92318E-03         0.00000E+00
    0.15358E-02        -0.98407E-03         0.00000E+00
    0.16159E-02        -0.10486E-02         0.00000E+00
    0.16996E-02        -0.11169E-02         0.00000E+00
    0.17870E-02        -0.11892E-02         0.00000E+00
    0.18784E-02        -0.12658E-02         0.00000E+00
    0.19737E-02        -0.13469E-02         0.00000E+00
    0.20731E-02        -0.14328E-02         0.00000E+00
    0.21766E-02        -0.15237E-02         0.00000E+00
    0.22845E-02        -0.16199E-02         0.00000E+00
    0.23966E-02        -0.17218E-02         0.00000E+00
    0.25133E-02        -0.18295E-02         0.00000E+00
    0.26344E-02        -0.19434E-02         0.00000E+00
    0.27601E-02        -0.20639E-02         0.00000E+00
    0.28904E-02        -0.21912E-02         0.00000E+00
    0.30253E-02        -0.23258E-02         0.00000E+00
    0.31649E-02        -0.24680E-02         0.00000E+00
    0.33091E-02        -0.26182E-02         0.00000E+00
    0.34580E-02        -0.27767E-02         0.00000E+00
    0.36114E-02        -0.29441E-02         0.00000E+00
    0.37694E-02        -0.31206E-02         0.00000E+00
    0.39317E-02        -0.33069E-02         0.00000E+00
    0.40984E-02        -0.35032E-02         0.00000E+00
    0.42692E-02        -0.37101E-02         0.00000E+00
    0.44439E-02        -0.39281E-02         0.00000E+00
    0.46223E-02        -0.41576E-02         0.00000E+00
    0.48041E-02        -0.43992E-02         0.00000E+00
    0.49889E-02        -0.46535E-02         0.00000E+00
    0.51763E-02        -0.49209E-02         0.00000E+00
    0.53660E-02        -0.52020E-02         0.00000E+00
    0.55572E-02        -0.54973E-02         0.00000E+00
    0.57496E-02        -0.58076E-02         0.00000E+00
    0.59423E-02        -0.61333E-02         0.00000E+00
    0.61346E-02        -0.64751E-02         0.00000E+00
    0.63257E-02        -0.68336E-02         0.00000E+00
    0.65145E-02        -0.72095E-02         0.00000E+00
    0.67000E-02        -0.76033E-02         0.00000E+00
    0.68809E-02        -0.80158E-02         0.00000E+00
    0.70561E-02        -0.84477E-02         0.00000E+00
    0.72239E-02        -0.88995E-02         0.00000E+00
    0.73827E-02        -0.93720E-02         0.00000E+00
    0.75309E-02        -0.98659E-02         0.00000E+00
    0.76664E-02        -0.10382E-01         0.00000E+00
    0.77871E-02        -0.10920E-01         0.00000E+00
    0.78909E-02        -0.11482E-01         0.00000E+00
    0.79752E-02        -0.12068E-01         0.00000E+00
    0.80373E-02        -0.12677E-01         0.00000E+00
    0.80746E-02        -0.13311E-01         0.00000E+00
    0.80839E-02        -0.13970E-01         0.00000E+00
    0.80623E-02        -0.14654E-01         0.00000E+00
    0.80063E-02        -0.15361E-01         0.00000E+00
    0.79125E-02        -0.16091E-01         0.00000E+00
    0.77775E-02        -0.16843E-01         0.00000E+00
    0.75975E-02        -0.17614E-01         0.00000E+00
    0.73688E-02        -0.18400E-01         0.00000E+00
    0.70874E-02        -0.19196E-01         0.00000E+00
    0.67493E-02        -0.19997E-01         0.00000E+00
    0.63501E-02        -0.20792E-01         0.00000E+00
    0.58848E-02        -0.21571E-01         0.00000E+00
    0.53477E-02        -0.22319E-01         0.00000E+00
    0.47314E-02        -0.23018E-01         0.00000E+00
    0.40265E-02        -0.23644E-01         0.00000E+00
    0.32201E-02        -0.24174E-01         0.00000E+00
    0.22952E-02        -0.24580E-01         0.00000E+00
    0.12302E-02        -0.24835E-01         0.00000E+00
    0.00000E+00        -0.24923E-01         0.00000E+00
    0.00000E+00         0.24441E-04         0.00000E+00
    0.42737E-04         0.22565E-04         0.00000E+00
    0.82284E-04         0.17072E-04         0.00000E+00
    0.11930E-03         0.83288E-05         0.00000E+00
    0.15435E-03        -0.31726E-05         0.00000E+00
    0.18792E-03        -0.16917E-04         0.00000E+00
    0.22036E-03        -0.32436E-04         0.00000E+00
    0.25199E-03        -0.49345E-04         0.00000E+00
    0.28307E-03        -0.67343E-04         0.00000E+00
    0.31381E-03        -0.86216E-04         0.00000E+00
    0.34441E-03        -0.10582E-03         0.00000E+00
    0.37505E-03        -0.12606E-03         0.00000E+00
    0.40592E-03        -0.14690E-03         0.00000E+00
    0.43719E-03        -0.16833E-03         0.00000E+00
    0.46900E-03        -0.19039E-03         0.00000E+00
    0.50153E-03        -0.21313E-03         0.00000E+00
    0.53493E-03        -0.23661E-03         0.00000E+00
    0.56935E-03        -0.26090E-03         0.00000E+00
    0.60493E-03        -0.28611E-03         0.00000E+00
    0.64184E-03        -0.31234E-03         0.00000E+00
    0.68021E-03        -0.33968E-03         0.00000E+00
    0.72017E-03        -0.36825E-03         0.00000E+00
    0.76188E-03        -0.39818E-03         0.00000E+00
    0.80546E-03        -0.42958E-03         0.00000E+00
    0.85105E-03        -0.46257E-03         0.00000E+00
    0.89879E-03        -0.49730E-03         0.00000E+00
    0.94881E-03        -0.53390E-03         0.00000E+00
    0.10012E-02        -0.57250E-03         0.00000E+00
    0.10562E-02        -0.61327E-03         0.00000E+00
    0.11138E-02        -0.65634E-03         0.00000E+00
    0.11743E-02        -0.70188E-03         0.00000E+00
    0.12376E-02        -0.75005E-03         0.00000E+00
    0.13040E-02        -0.80103E-03         0.00000E+00
    0.13736E-02        -0.85499E-03         0.00000E+00
    0.14465E-02        -0.91212E-03         0.00000E+00
    0.15228E-02        -0.97262E-03         0.00000E+00
    0.16027E-02        -0.10367E-02         0.00000E+00
    0.16863E-02        -0.11046E-02         0.00000E+00
    0.17737E-02        -0.11764E-02         0.00000E+00
    0.18650E-02        -0.12525E-02         0.00000E+00
    0.19603E-02        -0.13331E-02         0.00000E+00
    0.20598E-02        -0.14185E-02         0.00000E+00
    0.21636E-02        -0.15088E-02         0.00000E+00
    0.22717E-02        -0.16045E-02         0.00000E+00
    0.23843E-02        -0.17057E-02         0.00000E+00
    0.25014E-02        -0.18128E-02         0.00000E+00
    0.26232E-02        -0.19261E-02         0.00000E+00
    0.27497E-02        -0.20459E-02         0.00000E+00
    0.28809E-02        -0.21725E-02         0.00000E+00
    0.30170E-02        -0.23065E-02         0.00000E+00
    0.31579E-02        -0.24480E-02         0.00000E+00
    0.33036E-02        -0.25974E-02         0.00000E+00
    0.34543E-02        -0.27553E-02         0.00000E+00
    0.36098E-02        -0.29219E-02         0.00000E+00
    0.37700E-02        -0.30978E-02         0.00000E+00
    0.39350E-02        -0.32834E-02         0.00000E+00
    0.41046E-02        -0.34791E-02         0.00000E+00
    0.42787E-02        -0.36854E-02         0.00000E+00
    0.44572E-02        -0.39027E-02         0.00000E+00
    0.46397E-02        -0.41317E-02         0.00000E+00
    0.48261E-02        -0.43729E-02         0.00000E+00
    0.50160E-02        -0.46267E-02         0.00000E+00
    0.52092E-02        -0.48937E-02         0.00000E+00
    0.54051E-02        -0.51745E-02         0.00000E+00
    0.56033E-02        -0.54696E-02         0.00000E+00
    0.58033E-02        -0.57798E-02         0.00000E+00
    0.60044E-02        -0.61055E-02         0.00000E+00
    0.62059E-02        -0.64474E-02         0.00000E+00
    0.64070E-02        -0.68062E-02         0.00000E+00
    0.66069E-02        -0.71825E-02         0.00000E+00
    0.68045E-02        -0.75769E-02         0.00000E+00
    0.69986E-02        -0.79901E-02         0.00000E+00
    0.71880E-02        -0.84229E-02         0.00000E+00
    0.73714E-02        -0.88760E-02         0.00000E+00
    0.75472E-02        -0.93499E-02         0.00000E+00
    0.77137E-02        -0.98454E-02         0.00000E+00
    0.78691E-02        -0.10363E-01         0.00000E+00
    0.80113E-02        -0.10904E-01         0.00000E+00
    0.81382E-02        -0.11469E-01         0.00000E+00
    0.82473E-02        -0.12058E-01         0.00000E+00
    0.83361E-02        -0.12671E-01         0.00000E+00
    0.84018E-02        -0.13310E-01         0.00000E+00
    0.84414E-02        -0.13975E-01         0.00000E+00
    0.84519E-02        -0.14665E-01         0.00000E+00
    0.84299E-02        -0.15381E-01         0.00000E+00
    0.83719E-02        -0.16122E-01         0.00000E+00
    0.82742E-02        -0.16887E-01         0.00000E+00
    0.81331E-02        -0.17674E-01         0.00000E+00
    0.79447E-02        -0.18481E-01         0.00000E+00
    0.77049E-02        -0.19305E-01         0.00000E+00
    0.74096E-02        -0.20139E-01         0.00000E+00
    0.70543E-02        -0.20978E-01         0.00000E+00
    0.66344E-02        -0.21811E-01         0.00000E+00
    0.61449E-02        -0.22627E-01         0.00000E+00
    0.55797E-02        -0.23411E-01         0.00000E+00
    0.49317E-02        -0.24143E-01         0.00000E+00
    0.41915E-02        -0.24801E-01         0.00000E+00
    0.33466E-02        -0.25356E-01         0.00000E+00
    0.23808E-02        -0.25781E-01         0.00000E+00
    0.12734E-02        -0.26050E-01         0.00000E+00
    0.00000E+00        -0.26141E-01         0.00000E+00
    0.00000E+00         0.24211E-04         0.00000E+00
    0.44286E-04         0.22244E-04         0.00000E+00
    0.85373E-04         0.16484E-04         0.00000E+00
    0.12391E-03         0.73161E-05         0.00000E+00
    0.16046E-03        -0.47430E-05         0.00000E+00
    0.19548E-03        -0.19151E-04         0.00000E+00
    0.22934E-03        -0.35417E-04         0.00000E+00
    0.26235E-03        -0.53135E-04         0.00000E+00
    0.29477E-03        -0.71995E-04         0.00000E+00
    0.32682E-03        -0.91769E-04         0.00000E+00
    0.35871E-03        -0.11231E-03         0.00000E+00
    0.39063E-03        -0.13352E-03         0.00000E+00
    0.42278E-03        -0.15536E-03         0.00000E+00
    0.45532E-03        -0.17784E-03         0.00000E+00
    0.48843E-03        -0.20097E-03         0.00000E+00
    0.52228E-03        -0.22482E-03         0.00000E+00
    0.55703E-03        -0.24944E-03         0.00000E+00
    0.59285E-03        -0.27494E-03         0.00000E+00
    0.62988E-03        -0.30139E-03         0.00000E+00
    0.66828E-03        -0.32892E-03         0.00000E+00
    0.70820E-03        -0.35762E-03         0.00000E+00
    0.74979E-03        -0.38763E-03         0.00000E+00
    0.79320E-03        -0.41905E-03         0.00000E+00
    0.83855E-03        -0.45202E-03         0.00000E+00
    0.88601E-03        -0.48667E-03         0.00000E+00
    0.93570E-03        -0.52315E-03         0.00000E+00
    0.98776E-03        -0.56158E-03         0.00000E+00
    0.10423E-02        -0.60213E-03         0.00000E+00
    0.10996E-02        -0.64494E-03         0.00000E+00
    0.11596E-02        -0.69017E-03         0.00000E+00
    0.12225E-02        -0.73800E-03         0.00000E+00
    0.12884E-02        -0.78859E-03         0.00000E+00
    0.13576E-02        -0.84213E-03         0.00000E+00
    0.14300E-02        -0.89879E-03         0.00000E+00
    0.15059E-02        -0.95878E-03         0.00000E+00
    0.15854E-02        -0.10223E-02         0.00000E+00
    0.16686E-02        -0.10896E-02         0.00000E+00
    0.17557E-02        -0.11608E-02         0.00000E+00
    0.18467E-02        -0.12363E-02         0.00000E+00
    0.19418E-02        -0.13162E-02         0.00000E+00
    0.20411E-02        -0.14008E-02         0.00000E+00
    0.21447E-02        -0.14904E-02         0.00000E+00
    0.22528E-02        -0.15852E-02         0.00000E+00
    0.23654E-02        -0.16856E-02         0.00000E+00
    0.24827E-02        -0.17918E-02         0.00000E+00
    0.26047E-02        -0.19042E-02         0.00000E+00
    0.27315E-02        -0.20230E-02         0.00000E+00
    0.28633E-02        -0.21487E-02         0.00000E+00
    0.30000E-02        -0.22816E-02         0.00000E+00
    0.31418E-02        -0.24221E-02         0.00000E+00
    0.32886E-02        -0.25705E-02         0.00000E+00
    0.34405E-02        -0.27273E-02         0.00000E+00
    0.35974E-02        -0.28929E-02         0.00000E+00
    0.37594E-02        -0.30676E-02         0.00000E+00
    0.39264E-02        -0.32521E-02         0.00000E+00
    0.40984E-02        -0.34466E-02         0.00000E+00
    0.42752E-02        -0.36518E-02         0.00000E+00
    0.44566E-02        -0.38680E-02         0.00000E+00
    0.46426E-02        -0.40959E-02         0.00000E+00
    0.48329E-02        -0.43359E-02         0.00000E+00
    0.50272E-02        -0.45887E-02         0.00000E+00
    0.52252E-02        -0.48546E-02         0.00000E+00
    0.54266E-02        -0.51344E-02         0.00000E+00
    0.56309E-02        -0.54287E-02         0.00000E+00
    0.58377E-02        -0.57379E-02         0.00000E+00
    0.60463E-02        -0.60628E-02         0.00000E+00
    0.62560E-02        -0.64040E-02         0.00000E+00
    0.64663E-02        -0.67621E-02         0.00000E+00
    0.66762E-02        -0.71378E-02         0.00000E+00
    0.68848E-02        -0.75318E-02         0.00000E+00
    0.70911E-02        -0.79448E-02         0.00000E+00
    0.72938E-02        -0.83774E-02         0.00000E+00
    0.74917E-02        -0.88305E-02         0.00000E+00
    0.76833E-02        -0.93046E-02         0.00000E+00
    0.78671E-02        -0.98006E-02         0.00000E+00
    0.80413E-02        -0.10319E-01         0.00000E+00
    0.82039E-02        -0.10861E-01         0.00000E+00
    0.83528E-02        -0.11427E-01         0.00000E+00
    0.84858E-02        -0.12017E-01         0.00000E+00
    0.86004E-02        -0.12633E-01         0.00000E+00
    0.86938E-02        -0.13275E-01         0.00000E+00
    0.87632E-02        -0.13943E-01         0.00000E+00
    0.88054E-02        -0.14638E-01         0.00000E+00
    0.88171E-02        -0.15359E-01         0.00000E+00
    0.87949E-02        -0.16108E-01         0.00000E+00
    0.87350E-02        -0.16882E-01         0.00000E+00
    0.86337E-02        -0.17681E-01         0.00000E+00
    0.84867E-02        -0.18504E-01         0.00000E+00
    0.82900E-02        -0.19348E-01         0.00000E+00
    0.80393E-02        -0.20208E-01         0.00000E+00
    0.77301E-02        -0.21080E-01         0.00000E+00
    0.73578E-02        -0.21957E-01         0.00000E+00
    0.69174E-02        -0.22828E-01         0.00000E+00
    0.64037E-02        -0.23682E-01         0.00000E+00
    0.58105E-02        -0.24501E-01         0.00000E+00
    0.51307E-02        -0.25267E-01         0.00000E+00
    0.43552E-02        -0.25955E-01         0.00000E+00
    0.34721E-02        -0.26537E-01         0.00000E+00
    0.24657E-02        -0.26982E-01         0.00000E+00
    0.13162E-02        -0.27263E-01         0.00000E+00
    0.00000E+00        -0.27359E-01         0.00000E+00
    0.00000E+00         0.23908E-04         0.00000E+00
    0.45813E-04         0.21847E-04         0.00000E+00
    0.88421E-04         0.15813E-04         0.00000E+00
    0.12846E-03         0.62112E-05         0.00000E+00
    0.16649E-03        -0.64137E-05         0.00000E+00
    0.20295E-03        -0.21492E-04         0.00000E+00
    0.23822E-03        -0.38508E-04         0.00000E+00
    0.27258E-03        -0.57038E-04         0.00000E+00
    0.30632E-03        -0.76759E-04         0.00000E+00
    0.33966E-03        -0.97436E-04         0.00000E+00
    0.37282E-03        -0.11891E-03         0.00000E+00
    0.40600E-03        -0.14109E-03         0.00000E+00
    0.43940E-03        -0.16394E-03         0.00000E+00
    0.47320E-03        -0.18745E-03         0.00000E+00
    0.50759E-03        -0.21166E-03         0.00000E+00
    0.54273E-03        -0.23662E-03         0.00000E+00
    0.57881E-03        -0.26240E-03         0.00000E+00
    0.61600E-03        -0.28909E-03         0.00000E+00
    0.65444E-03        -0.31680E-03         0.00000E+00
    0.69431E-03        -0.34563E-03         0.00000E+00
    0.73576E-03        -0.37570E-03         0.00000E+00
    0.77895E-03        -0.40713E-03         0.00000E+00
    0.82402E-03        -0.44006E-03         0.00000E+00
    0.87112E-03        -0.47461E-03         0.00000E+00
    0.92041E-03        -0.51092E-03         0.00000E+00
    0.97202E-03        -0.54915E-03         0.00000E+00
    0.10261E-02        -0.58943E-03         0.00000E+00
    0.10828E-02        -0.63192E-03         0.00000E+00
    0.11422E-02        -0.67679E-03         0.00000E+00
    0.12046E-02        -0.72420E-03         0.00000E+00
    0.12699E-02        -0.77432E-03         0.00000E+00
    0.13384E-02        -0.82734E-03         0.00000E+00
    0.14103E-02        -0.88344E-03         0.00000E+00
    0.14856E-02        -0.94282E-03         0.00000E+00
    0.15645E-02        -0.10057E-02         0.00000E+00
    0.16471E-02        -0.10722E-02         0.00000E+00
    0.17335E-02        -0.11427E-02         0.00000E+00
    0.18240E-02        -0.12174E-02         0.00000E+00
    0.19185E-02        -0.12964E-02         0.00000E+00
    0.20174E-02        -0.13801E-02         0.00000E+00
    0.21206E-02        -0.14687E-02         0.00000E+00
    0.22283E-02        -0.15626E-02         0.00000E+00
    0.23406E-02        -0.16619E-02         0.00000E+00
    0.24576E-02        -0.17670E-02         0.00000E+00
    0.25795E-02        -0.18782E-02         0.00000E+00
    0.27064E-02        -0.19959E-02         0.00000E+00
    0.28382E-02        -0.21204E-02         0.00000E+00
    0.29752E-02        -0.22520E-02         0.00000E+00
    0.31174E-02        -0.23911E-02         0.00000E+00
    0.32647E-02        -0.25382E-02         0.00000E+00
    0.34174E-02        -0.26935E-02         0.00000E+00
    0.35753E-02        -0.28576E-02         0.00000E+00
    0.37385E-02        -0.30309E-02         0.00000E+00
    0.39070E-02        -0.32138E-02         0.00000E+00
    0.40806E-02        -0.34068E-02         0.00000E+00
    0.42595E-02        -0.36103E-02         0.00000E+00
    0.44433E-02        -0.38250E-02         0.00000E+00
    0.46321E-02        -0.40512E-02         0.00000E+00
    0.48255E-02        -0.42896E-02         0.00000E+00
    0.50235E-02        -0.45407E-02         0.00000E+00
    0.52256E-02        -0.48050E-02         0.00000E+00
    0.54317E-02        -0.50831E-02         0.00000E+00
    0.56412E-02        -0.53757E-02         0.00000E+00
    0.58538E-02        -0.56834E-02         0.00000E+00
    0.60690E-02        -0.60067E-02         0.00000E+00
    0.62861E-02        -0.63463E-02         0.00000E+00
    0.65046E-02        -0.67030E-02         0.00000E+00
    0.67235E-02        -0.70773E-02         0.00000E+00
    0.69421E-02        -0.74699E-02         0.00000E+00
    0.71594E-02        -0.78816E-02         0.00000E+00
    0.73743E-02        -0.83131E-02         0.00000E+00
    0.75856E-02        -0.87651E-02         0.00000E+00
    0.77920E-02        -0.92384E-02         0.00000E+00
    0.79918E-02        -0.97336E-02         0.00000E+00
    0.81836E-02        -0.10252E-01         0.00000E+00
    0.83654E-02        -0.10793E-01         0.00000E+00
    0.85353E-02        -0.11359E-01         0.00000E+00
    0.86910E-02        -0.11950E-01         0.00000E+00
    0.88303E-02        -0.12566E-01         0.00000E+00
    0.89503E-02        -0.13209E-01         0.00000E+00
    0.90485E-02        -0.13878E-01         0.00000E+00
    0.91216E-02        -0.14576E-01         0.00000E+00
    0.91665E-02        -0.15300E-01         0.00000E+00
    0.91797E-02        -0.16053E-01         0.00000E+00
    0.91574E-02        -0.16834E-01         0.00000E+00
    0.90959E-02        -0.17641E-01         0.00000E+00
    0.89910E-02        -0.18475E-01         0.00000E+00
    0.88384E-02        -0.19333E-01         0.00000E+00
    0.86337E-02        -0.20213E-01         0.00000E+00
    0.83722E-02        -0.21110E-01         0.00000E+00
    0.80494E-02        -0.22020E-01         0.00000E+00
    0.76602E-02        -0.22934E-01         0.00000E+00
    0.71994E-02        -0.23843E-01         0.00000E+00
    0.66615E-02        -0.24734E-01         0.00000E+00
    0.60404E-02        -0.25589E-01         0.00000E+00
    0.53289E-02        -0.26389E-01         0.00000E+00
    0.45182E-02        -0.27108E-01         0.00000E+00
    0.35969E-02        -0.27716E-01         0.00000E+00
    0.25500E-02        -0.28182E-01         0.00000E+00
    0.13587E-02        -0.28476E-01         0.00000E+00
    0.00000E+00        -0.28577E-01         0.00000E+00
    0.00000E+00         0.23536E-04         0.00000E+00
    0.47320E-04         0.21378E-04         0.00000E+00
    0.91430E-04         0.15063E-04         0.00000E+00
    0.13296E-03         0.50182E-05         0.00000E+00
    0.17245E-03        -0.81808E-05         0.00000E+00
    0.21034E-03        -0.23935E-04         0.00000E+00
    0.24698E-03        -0.41705E-04         0.00000E+00
    0.28269E-03        -0.61051E-04         0.00000E+00
    0.31773E-03        -0.81634E-04         0.00000E+00
    0.35234E-03        -0.10321E-03         0.00000E+00
    0.38675E-03        -0.12563E-03         0.00000E+00
    0.42116E-03        -0.14878E-03         0.00000E+00
    0.45579E-03        -0.17263E-03         0.00000E+00
    0.49082E-03        -0.19718E-03         0.00000E+00
    0.52646E-03        -0.22246E-03         0.00000E+00
    0.56288E-03        -0.24853E-03         0.00000E+00
    0.60026E-03        -0.27547E-03         0.00000E+00
    0.63879E-03        -0.30337E-03         0.00000E+00
    0.67862E-03        -0.33233E-03         0.00000E+00
    0.71993E-03        -0.36247E-03         0.00000E+00
    0.76288E-03        -0.39391E-03         0.00000E+00
    0.80764E-03        -0.42677E-03         0.00000E+00
    0.85435E-03        -0.46121E-03         0.00000E+00
    0.90317E-03        -0.49734E-03         0.00000E+00
    0.95425E-03        -0.53532E-03         0.00000E+00
    0.10077E-02        -0.57530E-03         0.00000E+00
    0.10638E-02        -0.61744E-03         0.00000E+00
    0.11226E-02        -0.66189E-03         0.00000E+00
    0.11842E-02        -0.70882E-03         0.00000E+00
    0.12488E-02        -0.75841E-03         0.00000E+00
    0.13166E-02        -0.81084E-03         0.00000E+00
    0.13877E-02        -0.86629E-03         0.00000E+00
    0.14622E-02        -0.92496E-03         0.00000E+00
    0.15402E-02        -0.98707E-03         0.00000E+00
    0.16220E-02        -0.10528E-02         0.00000E+00
    0.17077E-02        -0.11224E-02         0.00000E+00
    0.17974E-02        -0.11961E-02         0.00000E+00
    0.18912E-02        -0.12742E-02         0.00000E+00
    0.19892E-02        -0.13568E-02         0.00000E+00
    0.20917E-02        -0.14443E-02         0.00000E+00
    0.21988E-02        -0.15370E-02         0.00000E+00
    0.23105E-02        -0.16351E-02         0.00000E+00
    0.24270E-02        -0.17389E-02         0.00000E+00
    0.25485E-02        -0.18488E-02         0.00000E+00
    0.26749E-02        -0.19650E-02         0.00000E+00
    0.28065E-02        -0.20880E-02         0.00000E+00
    0.29433E-02        -0.22181E-02         0.00000E+00
    0.30855E-02        -0.23556E-02         0.00000E+00
    0.32329E-02        -0.25010E-02         0.00000E+00
    0.33859E-02        -0.26546E-02         0.00000E+00
    0.35442E-02        -0.28169E-02         0.00000E+00
    0.37081E-02        -0.29884E-02         0.00000E+00
    0.38775E-02        -0.31693E-02         0.00000E+00
    0.40524E-02        -0.33604E-02         0.00000E+00
    0.42326E-02        -0.35619E-02         0.00000E+00
    0.44182E-02        -0.37745E-02         0.00000E+00
    0.46091E-02        -0.39987E-02         0.00000E+00
    0.48050E-02        -0.42349E-02         0.00000E+00
    0.50059E-02        -0.44838E-02         0.00000E+00
    0.52114E-02        -0.47459E-02         0.00000E+00
    0.54213E-02        -0.50218E-02         0.00000E+00
    0.56353E-02        -0.53122E-02         0.00000E+00
    0.58530E-02        -0.56176E-02         0.00000E+00
    0.60738E-02        -0.59386E-02         0.00000E+00
    0.62973E-02        -0.62760E-02         0.00000E+00
    0.65229E-02        -0.66304E-02         0.00000E+00
    0.67499E-02        -0.70025E-02         0.00000E+00
    0.69775E-02        -0.73929E-02         0.00000E+00
    0.72047E-02        -0.78025E-02         0.00000E+00
    0.74307E-02        -0.82320E-02         0.00000E+00
    0.76542E-02        -0.86820E-02         0.00000E+00
    0.78741E-02        -0.91533E-02         0.00000E+00
    0.80888E-02        -0.96467E-02         0.00000E+00
    0.82969E-02        -0.10163E-01         0.00000E+00
    0.84967E-02        -0.10703E-01         0.00000E+00
    0.86862E-02        -0.11267E-01         0.00000E+00
    0.88634E-02        -0.11857E-01         0.00000E+00
    0.90259E-02        -0.12472E-01         0.00000E+00
    0.91714E-02        -0.13115E-01         0.00000E+00
    0.92971E-02        -0.13784E-01         0.00000E+00
    0.94001E-02        -0.14482E-01         0.00000E+00
    0.94771E-02        -0.15208E-01         0.00000E+00
    0.95248E-02        -0.15963E-01         0.00000E+00
    0.95396E-02        -0.16747E-01         0.00000E+00
    0.95175E-02        -0.17559E-01         0.00000E+00
    0.94545E-02        -0.18400E-01         0.00000E+00
    0.93463E-02        -0.19268E-01         0.00000E+00
    0.91883E-02        -0.20161E-01         0.00000E+00
    0.89757E-02        -0.21077E-01         0.00000E+00
    0.87039E-02        -0.22011E-01         0.00000E+00
    0.83676E-02        -0.22958E-01         0.00000E+00
    0.79616E-02        -0.23909E-01         0.00000E+00
    0.74806E-02        -0.24856E-01         0.00000E+00
    0.69188E-02        -0.25784E-01         0.00000E+00
    0.62698E-02        -0.26676E-01         0.00000E+00
    0.55266E-02        -0.27510E-01         0.00000E+00
    0.46807E-02        -0.28260E-01         0.00000E+00
    0.37212E-02        -0.28895E-01         0.00000E+00
    0.26340E-02        -0.29381E-01         0.00000E+00
    0.14009E-02        -0.29689E-01         0.00000E+00
    0.00000E+00        -0.29794E-01         0.00000E+00
    0.00000E+00         0.23103E-04         0.00000E+00
    0.48809E-04         0.20844E-04         0.00000E+00
    0.94403E-04         0.14239E-04         0.00000E+00
    0.13740E-03         0.37416E-05         0.00000E+00
    0.17834E-03        -0.10041E-04         0.00000E+00
    0.21763E-03        -0.26478E-04         0.00000E+00
    0.25565E-03        -0.45007E-04         0.00000E+00
    0.29268E-03        -0.65170E-04         0.00000E+00
    0.32900E-03        -0.86617E-04         0.00000E+00
    0.36486E-03        -0.10910E-03         0.00000E+00
    0.40049E-03        -0.13245E-03         0.00000E+00
    0.43611E-03        -0.15658E-03         0.00000E+00
    0.47195E-03        -0.18143E-03         0.00000E+00
    0.50819E-03        -0.20702E-03         0.00000E+00
    0.54505E-03        -0.23338E-03         0.00000E+00
    0.58272E-03        -0.26056E-03         0.00000E+00
    0.62138E-03        -0.28865E-03         0.00000E+00
    0.66122E-03        -0.31775E-03         0.00000E+00
    0.70241E-03        -0.34797E-03         0.00000E+00
    0.74514E-03        -0.37942E-03         0.00000E+00
    0.78956E-03        -0.41223E-03         0.00000E+00
    0.83585E-03        -0.44654E-03         0.00000E+00
    0.88417E-03        -0.48249E-03         0.00000E+00
    0.93467E-03        -0.52021E-03         0.00000E+00
    0.98752E-03        -0.55987E-03         0.00000E+00
    0.10429E-02        -0.60161E-03         0.00000E+00
    0.11009E-02        -0.64560E-03         0.00000E+00
    0.11617E-02        -0.69201E-03         0.00000E+00
    0.12255E-02        -0.74102E-03         0.00000E+00
    0.12923E-02        -0.79279E-03         0.00000E+00
    0.13625E-02        -0.84753E-03         0.00000E+00
    0.14360E-02        -0.90543E-03         0.00000E+00
    0.15132E-02        -0.96669E-03         0.00000E+00
    0.15940E-02        -0.10315E-02         0.00000E+00
    0.16786E-02        -0.11002E-02         0.00000E+00
    0.17673E-02        -0.11728E-02         0.00000E+00
    0.18601E-02        -0.12498E-02         0.00000E+00
    0.19573E-02        -0.13312E-02         0.00000E+00
    0.20588E-02        -0.14175E-02         0.00000E+00
    0.21649E-02        -0.15088E-02         0.00000E+00
    0.22758E-02        -0.16055E-02         0.00000E+00
    0.23915E-02        -0.17079E-02         0.00000E+00
    0.25121E-02        -0.18162E-02         0.00000E+00
    0.26379E-02        -0.19308E-02         0.00000E+00
    0.27688E-02        -0.20521E-02         0.00000E+00
    0.29051E-02        -0.21804E-02         0.00000E+00
    0.30468E-02        -0.23161E-02         0.00000E+00
    0.31940E-02        -0.24596E-02         0.00000E+00
    0.33467E-02        -0.26112E-02         0.00000E+00
    0.35051E-02        -0.27715E-02         0.00000E+00
    0.36692E-02        -0.29407E-02         0.00000E+00
    0.38390E-02        -0.31195E-02         0.00000E+00
    0.40144E-02        -0.33082E-02         0.00000E+00
    0.41956E-02        -0.35074E-02         0.00000E+00
    0.43824E-02        -0.37176E-02         0.00000E+00
    0.45747E-02        -0.39392E-02         0.00000E+00
    0.47725E-02        -0.41728E-02         0.00000E+00
    0.49755E-02        -0.44191E-02         0.00000E+00
    0.51837E-02        -0.46785E-02         0.00000E+00
    0.53967E-02        -0.49517E-02         0.00000E+00
    0.56143E-02        -0.52392E-02         0.00000E+00
    0.58361E-02        -0.55417E-02         0.00000E+00
    0.60618E-02        -0.58599E-02         0.00000E+00
    0.62908E-02        -0.61943E-02         0.00000E+00
    0.65226E-02        -0.65458E-02         0.00000E+00
    0.67566E-02        -0.69149E-02         0.00000E+00
    0.69921E-02        -0.73025E-02         0.00000E+00
    0.72283E-02        -0.77091E-02         0.00000E+00
    0.74641E-02        -0.81356E-02         0.00000E+00
    0.76987E-02        -0.85827E-02         0.00000E+00
    0.79308E-02        -0.90512E-02         0.00000E+00
    0.81591E-02        -0.95418E-02         0.00000E+00
    0.83822E-02        -0.10055E-01         0.00000E+00
    0.85986E-02        -0.10593E-01         0.00000E+00
    0.88063E-02        -0.11155E-01         0.00000E+00
    0.90036E-02        -0.11742E-01         0.00000E+00
    0.91881E-02        -0.12355E-01         0.00000E+00
    0.93575E-02        -0.12996E-01         0.00000E+00
    0.95094E-02        -0.13663E-01         0.00000E+00
    0.96408E-02        -0.14360E-01         0.00000E+00
    0.97487E-02        -0.15085E-01         0.00000E+00
    0.98297E-02        -0.15840E-01         0.00000E+00
    0.98805E-02        -0.16625E-01         0.00000E+00
    0.98970E-02        -0.17439E-01         0.00000E+00
    0.98753E-02        -0.18284E-01         0.00000E+00
    0.98111E-02        -0.19158E-01         0.00000E+00
    0.96998E-02        -0.20060E-01         0.00000E+00
    0.95365E-02        -0.20988E-01         0.00000E+00
    0.93165E-02        -0.21939E-01         0.00000E+00
    0.90344E-02        -0.22910E-01         0.00000E+00
    0.86849E-02        -0.23894E-01         0.00000E+00
    0.82624E-02        -0.24883E-01         0.00000E+00
    0.77614E-02        -0.25867E-01         0.00000E+00
    0.71756E-02        -0.26832E-01         0.00000E+00
    0.64989E-02        -0.27760E-01         0.00000E+00
    0.57241E-02        -0.28629E-01         0.00000E+00
    0.48430E-02        -0.29410E-01         0.00000E+00
    0.38453E-02        -0.30072E-01         0.00000E+00
    0.27177E-02        -0.30580E-01         0.00000E+00
    0.14431E-02        -0.30901E-01         0.00000E+00
    0.00000E+00        -0.31011E-01         0.00000E+00
    0.00000E+00         0.22612E-04         0.00000E+00
    0.50282E-04         0.20251E-04         0.00000E+00
    0.97343E-04         0.13347E-04         0.00000E+00
    0.14180E-03         0.23854E-05         0.00000E+00
    0.18416E-03        -0.11990E-04         0.00000E+00
    0.22485E-03        -0.29118E-04         0.00000E+00
    0.26421E-03        -0.48411E-04         0.00000E+00
    0.30255E-03        -0.69393E-04         0.00000E+00
    0.34013E-03        -0.91705E-04         0.00000E+00
    0.37722E-03        -0.11509E-03         0.00000E+00
    0.41405E-03        -0.13938E-03         0.00000E+00
    0.45086E-03        -0.16448E-03         0.00000E+00
    0.48787E-03        -0.19034E-03         0.00000E+00
    0.52530E-03        -0.21696E-03         0.00000E+00
    0.56336E-03        -0.24439E-03         0.00000E+00
    0.60225E-03        -0.27269E-03         0.00000E+00
    0.64216E-03        -0.30194E-03         0.00000E+00
    0.68328E-03        -0.33225E-03         0.00000E+00
    0.72581E-03        -0.36372E-03         0.00000E+00
    0.76992E-03        -0.39649E-03         0.00000E+00
    0.81579E-03        -0.43068E-03         0.00000E+00
    0.86359E-03        -0.46643E-03         0.00000E+00
    0.91348E-03        -0.50389E-03         0.00000E+00
    0.96564E-03        -0.54321E-03         0.00000E+00
    0.10202E-02        -0.58455E-03         0.00000E+00
    0.10774E-02        -0.62806E-03         0.00000E+00
    0.11373E-02        -0.67392E-03         0.00000E+00
    0.12001E-02        -0.72230E-03         0.00000E+00
    0.12660E-02        -0.77338E-03         0.00000E+00
    0.13351E-02        -0.82735E-03         0.00000E+00
    0.14076E-02        -0.88441E-03         0.00000E+00
    0.14836E-02        -0.94476E-03         0.00000E+00
    0.15633E-02        -0.10086E-02         0.00000E+00
    0.16468E-02        -0.10762E-02         0.00000E+00
    0.17343E-02        -0.11477E-02         0.00000E+00
    0.18259E-02        -0.12235E-02         0.00000E+00
    0.19219E-02        -0.13036E-02         0.00000E+00
    0.20223E-02        -0.13885E-02         0.00000E+00
    0.21272E-02        -0.14784E-02         0.00000E+00
    0.22369E-02        -0.15736E-02         0.00000E+00
    0.23515E-02        -0.16743E-02         0.00000E+00
    0.24711E-02        -0.17810E-02         0.00000E+00
    0.25958E-02        -0.18938E-02         0.00000E+00
    0.27258E-02        -0.20132E-02         0.00000E+00
    0.28612E-02        -0.21396E-02         0.00000E+00
    0.30021E-02        -0.22732E-02         0.00000E+00
    0.31486E-02        -0.24145E-02         0.00000E+00
    0.33008E-02        -0.25639E-02         0.00000E+00
    0.34587E-02        -0.27218E-02         0.00000E+00
    0.36225E-02        -0.28887E-02         0.00000E+00
    0.37922E-02        -0.30649E-02         0.00000E+00
    0.39678E-02        -0.32510E-02         0.00000E+00
    0.41493E-02        -0.34475E-02         0.00000E+00
    0.43366E-02        -0.36549E-02         0.00000E+00
    0.45299E-02        -0.38736E-02         0.00000E+00
    0.47288E-02        -0.41043E-02         0.00000E+00
    0.49334E-02        -0.43475E-02         0.00000E+00
    0.51435E-02        -0.46037E-02         0.00000E+00
    0.53589E-02        -0.48736E-02         0.00000E+00
    0.55794E-02        -0.51578E-02         0.00000E+00
    0.58046E-02        -0.54570E-02         0.00000E+00
    0.60342E-02        -0.57717E-02         0.00000E+00
    0.62678E-02        -0.61027E-02         0.00000E+00
    0.65049E-02        -0.64506E-02         0.00000E+00
    0.67449E-02        -0.68161E-02         0.00000E+00
    0.69873E-02        -0.72000E-02         0.00000E+00
    0.72312E-02        -0.76029E-02         0.00000E+00
    0.74758E-02        -0.80257E-02         0.00000E+00
    0.77202E-02        -0.84691E-02         0.00000E+00
    0.79633E-02        -0.89339E-02         0.00000E+00
    0.82040E-02        -0.94209E-02         0.00000E+00
    0.84408E-02        -0.99308E-02         0.00000E+00
    0.86723E-02        -0.10464E-01         0.00000E+00
    0.88969E-02        -0.11023E-01         0.00000E+00
    0.91126E-02        -0.11607E-01         0.00000E+00
    0.93176E-02        -0.12217E-01         0.00000E+00
    0.95095E-02        -0.12854E-01         0.00000E+00
    0.96859E-02        -0.13519E-01         0.00000E+00
    0.98442E-02        -0.14212E-01         0.00000E+00
    0.99814E-02        -0.14935E-01         0.00000E+00
    0.10094E-01        -0.15688E-01         0.00000E+00
    0.10180E-01        -0.16472E-01         0.00000E+00
    0.10233E-01        -0.17286E-01         0.00000E+00
    0.10252E-01        -0.18132E-01         0.00000E+00
    0.10231E-01        -0.19008E-01         0.00000E+00
    0.10166E-01        -0.19915E-01         0.00000E+00
    0.10052E-01        -0.20851E-01         0.00000E+00
    0.98834E-02        -0.21813E-01         0.00000E+00
    0.96560E-02        -0.22801E-01         0.00000E+00
    0.93640E-02        -0.23808E-01         0.00000E+00
    0.90015E-02        -0.24828E-01         0.00000E+00
    0.85628E-02        -0.25855E-01         0.00000E+00
    0.80419E-02        -0.26877E-01         0.00000E+00
    0.74325E-02        -0.27879E-01         0.00000E+00
    0.67281E-02        -0.28843E-01         0.00000E+00
    0.59217E-02        -0.29746E-01         0.00000E+00
    0.50053E-02        -0.30559E-01         0.00000E+00
    0.39694E-02        -0.31248E-01         0.00000E+00
    0.28015E-02        -0.31778E-01         0.00000E+00
    0.14852E-02        -0.32114E-01         0.00000E+00
    0.00000E+00        -0.32229E-01         0.00000E+00
    0.00000E+00         0.22072E-04         0.00000E+00
    0.51739E-04         0.19603E-04         0.00000E+00
    0.10025E-03         0.12391E-04         0.00000E+00
    0.14615E-03         0.95374E-06         0.00000E+00
    0.18993E-03        -0.14025E-04         0.00000E+00
    0.23199E-03        -0.31851E-04         0.00000E+00
    0.27268E-03        -0.51912E-04         0.00000E+00
    0.31230E-03        -0.73717E-04         0.00000E+00
    0.35112E-03        -0.96895E-04         0.00000E+00
    0.38942E-03        -0.12118E-03         0.00000E+00
    0.42743E-03        -0.14641E-03         0.00000E+00
    0.46540E-03        -0.17248E-03         0.00000E+00
    0.50357E-03        -0.19934E-03         0.00000E+00
    0.54216E-03        -0.22701E-03         0.00000E+00
    0.58138E-03        -0.25551E-03         0.00000E+00
    0.62146E-03        -0.28493E-03         0.00000E+00
    0.66260E-03        -0.31534E-03         0.00000E+00
    0.70499E-03        -0.34685E-03         0.00000E+00
    0.74882E-03        -0.37959E-03         0.00000E+00
    0.79429E-03        -0.41367E-03         0.00000E+00
    0.84157E-03        -0.44924E-03         0.00000E+00
    0.89084E-03        -0.48644E-03         0.00000E+00
    0.94229E-03        -0.52542E-03         0.00000E+00
    0.99607E-03        -0.56634E-03         0.00000E+00
    0.10524E-02        -0.60936E-03         0.00000E+00
    0.11113E-02        -0.65464E-03         0.00000E+00
    0.11731E-02        -0.70237E-03         0.00000E+00
    0.12379E-02        -0.75273E-03         0.00000E+00
    0.13059E-02        -0.80589E-03         0.00000E+00
    0.13771E-02        -0.86207E-03         0.00000E+00
    0.14519E-02        -0.92145E-03         0.00000E+00
    0.15303E-02        -0.98426E-03         0.00000E+00
    0.16125E-02        -0.10507E-02         0.00000E+00
    0.16987E-02        -0.11210E-02         0.00000E+00
    0.17890E-02        -0.11955E-02         0.00000E+00
    0.18835E-02        -0.12743E-02         0.00000E+00
    0.19825E-02        -0.13577E-02         0.00000E+00
    0.20861E-02        -0.14461E-02         0.00000E+00
    0.21944E-02        -0.15396E-02         0.00000E+00
    0.23077E-02        -0.16386E-02         0.00000E+00
    0.24259E-02        -0.17434E-02         0.00000E+00
    0.25493E-02        -0.18543E-02         0.00000E+00
    0.26781E-02        -0.19717E-02         0.00000E+00
    0.28123E-02        -0.20959E-02         0.00000E+00
    0.29520E-02        -0.22273E-02         0.00000E+00
    0.30975E-02        -0.23663E-02         0.00000E+00
    0.32487E-02        -0.25132E-02         0.00000E+00
    0.34059E-02        -0.26686E-02         0.00000E+00
    0.35689E-02        -0.28328E-02         0.00000E+00
    0.37381E-02        -0.30063E-02         0.00000E+00
    0.39133E-02        -0.31895E-02         0.00000E+00
    0.40946E-02        -0.33830E-02         0.00000E+00
    0.42820E-02        -0.35872E-02         0.00000E+00
    0.44755E-02        -0.38027E-02         0.00000E+00
    0.46751E-02        -0.40301E-02         0.00000E+00
    0.48806E-02        -0.42698E-02         0.00000E+00
    0.50920E-02        -0.45225E-02         0.00000E+00
    0.53090E-02        -0.47888E-02         0.00000E+00
    0.55315E-02        -0.50692E-02         0.00000E+00
    0.57593E-02        -0.53645E-02         0.00000E+00
    0.59921E-02        -0.56753E-02         0.00000E+00
    0.62294E-02        -0.60022E-02         0.00000E+00
    0.64708E-02        -0.63459E-02         0.00000E+00
    0.67159E-02        -0.67072E-02         0.00000E+00
    0.69641E-02        -0.70868E-02         0.00000E+00
    0.72147E-02        -0.74854E-02         0.00000E+00
    0.74670E-02        -0.79038E-02         0.00000E+00
    0.77201E-02        -0.83428E-02         0.00000E+00
    0.79730E-02        -0.88031E-02         0.00000E+00
    0.82247E-02        -0.92855E-02         0.00000E+00
    0.84738E-02        -0.97909E-02         0.00000E+00
    0.87191E-02        -0.10320E-01         0.00000E+00
    0.89590E-02        -0.10874E-01         0.00000E+00
    0.91918E-02        -0.11453E-01         0.00000E+00
    0.94155E-02        -0.12059E-01         0.00000E+00
    0.96283E-02        -0.12692E-01         0.00000E+00
    0.98276E-02        -0.13352E-01         0.00000E+00
    0.10011E-01        -0.14042E-01         0.00000E+00
    0.10176E-01        -0.14761E-01         0.00000E+00
    0.10319E-01        -0.15511E-01         0.00000E+00
    0.10437E-01        -0.16291E-01         0.00000E+00
    0.10527E-01        -0.17103E-01         0.00000E+00
    0.10584E-01        -0.17948E-01         0.00000E+00
    0.10605E-01        -0.18824E-01         0.00000E+00
    0.10584E-01        -0.19732E-01         0.00000E+00
    0.10518E-01        -0.20671E-01         0.00000E+00
    0.10402E-01        -0.21641E-01         0.00000E+00
    0.10229E-01        -0.22638E-01         0.00000E+00
    0.99946E-02        -0.23661E-01         0.00000E+00
    0.96929E-02        -0.24704E-01         0.00000E+00
    0.93178E-02        -0.25762E-01         0.00000E+00
    0.88631E-02        -0.26825E-01         0.00000E+00
    0.83226E-02        -0.27884E-01         0.00000E+00
    0.76897E-02        -0.28923E-01         0.00000E+00
    0.69578E-02        -0.29923E-01         0.00000E+00
    0.61198E-02        -0.30861E-01         0.00000E+00
    0.51682E-02        -0.31706E-01         0.00000E+00
    0.40939E-02        -0.32424E-01         0.00000E+00
    0.28855E-02        -0.32977E-01         0.00000E+00
    0.15275E-02        -0.33327E-01         0.00000E+00
    0.00000E+00        -0.33447E-01         0.00000E+00
    0.00000E+00         0.21487E-04         0.00000E+00
    0.53183E-04         0.18906E-04         0.00000E+00
    0.10314E-03         0.11375E-04         0.00000E+00
    0.15046E-03        -0.54942E-06         0.00000E+00
    0.19564E-03        -0.16143E-04         0.00000E+00
    0.23906E-03        -0.34674E-04         0.00000E+00
    0.28107E-03        -0.55509E-04         0.00000E+00
    0.32195E-03        -0.78139E-04         0.00000E+00
    0.36199E-03        -0.10218E-03         0.00000E+00
    0.40146E-03        -0.12738E-03         0.00000E+00
    0.44062E-03        -0.15354E-03         0.00000E+00
    0.47973E-03        -0.18058E-03         0.00000E+00
    0.51903E-03        -0.20845E-03         0.00000E+00
    0.55875E-03        -0.23715E-03         0.00000E+00
    0.59912E-03        -0.26673E-03         0.00000E+00
    0.64037E-03        -0.29726E-03         0.00000E+00
    0.68270E-03        -0.32884E-03         0.00000E+00
    0.72632E-03        -0.36156E-03         0.00000E+00
    0.77143E-03        -0.39556E-03         0.00000E+00
    0.81822E-03        -0.43096E-03         0.00000E+00
    0.86689E-03        -0.46791E-03         0.00000E+00
    0.91761E-03        -0.50656E-03         0.00000E+00
    0.97057E-03        -0.54707E-03         0.00000E+00
    0.10259E-02        -0.58959E-03         0.00000E+00
    0.10839E-02        -0.63430E-03         0.00000E+00
    0.11446E-02        -0.68136E-03         0.00000E+00
    0.12082E-02        -0.73097E-03         0.00000E+00
    0.12750E-02        -0.78330E-03         0.00000E+00
    0.13450E-02        -0.83856E-03         0.00000E+00
    0.14184E-02        -0.89694E-03         0.00000E+00
    0.14954E-02        -0.95866E-03         0.00000E+00
    0.15762E-02        -0.10239E-02         0.00000E+00
    0.16609E-02        -0.10930E-02         0.00000E+00
    0.17497E-02        -0.11661E-02         0.00000E+00
    0.18427E-02        -0.12434E-02         0.00000E+00
    0.19401E-02        -0.13253E-02         0.00000E+00
    0.20421E-02        -0.14120E-02         0.00000E+00
    0.21489E-02        -0.15038E-02         0.00000E+00
    0.22605E-02        -0.16010E-02         0.00000E+00
    0.23772E-02        -0.17038E-02         0.00000E+00
    0.24990E-02        -0.18127E-02         0.00000E+00
    0.26262E-02        -0.19279E-02         0.00000E+00
    0.27589E-02        -0.20499E-02         0.00000E+00
    0.28973E-02        -0.21789E-02         0.00000E+00
    0.30413E-02        -0.23153E-02         0.00000E+00
    0.31913E-02        -0.24597E-02         0.00000E+00
    0.33472E-02        -0.26123E-02         0.00000E+00
    0.35092E-02        -0.27736E-02         0.00000E+00
    0.36773E-02        -0.29441E-02         0.00000E+00
    0.38517E-02        -0.31242E-02         0.00000E+00
    0.40324E-02        -0.33144E-02         0.00000E+00
    0.42193E-02        -0.35153E-02         0.00000E+00
    0.44126E-02        -0.37273E-02         0.00000E+00
    0.46122E-02        -0.39510E-02         0.00000E+00
    0.48180E-02        -0.41869E-02         0.00000E+00
    0.50300E-02        -0.44357E-02         0.00000E+00
    0.52480E-02        -0.46979E-02         0.00000E+00
    0.54720E-02        -0.49742E-02         0.00000E+00
    0.57016E-02        -0.52652E-02         0.00000E+00
    0.59366E-02        -0.55716E-02         0.00000E+00
    0.61768E-02        -0.58939E-02         0.00000E+00
    0.64217E-02        -0.62331E-02         0.00000E+00
    0.66710E-02        -0.65896E-02         0.00000E+00
    0.69240E-02        -0.69644E-02         0.00000E+00
    0.71803E-02        -0.73580E-02         0.00000E+00
    0.74391E-02        -0.77714E-02         0.00000E+00
    0.76997E-02        -0.82052E-02         0.00000E+00
    0.79612E-02        -0.86603E-02         0.00000E+00
    0.82225E-02        -0.91374E-02         0.00000E+00
    0.84827E-02        -0.96375E-02         0.00000E+00
    0.87403E-02        -0.10161E-01         0.00000E+00
    0.89940E-02        -0.10710E-01         0.00000E+00
    0.92423E-02        -0.11284E-01         0.00000E+00
    0.94833E-02        -0.11884E-01         0.00000E+00
    0.97151E-02        -0.12511E-01         0.00000E+00
    0.99356E-02        -0.13167E-01         0.00000E+00
    0.10142E-01        -0.13851E-01         0.00000E+00
    0.10333E-01        -0.14565E-01         0.00000E+00
    0.10504E-01        -0.15310E-01         0.00000E+00
    0.10654E-01        -0.16086E-01         0.00000E+00
    0.10777E-01        -0.16894E-01         0.00000E+00
    0.10871E-01        -0.17735E-01         0.00000E+00
    0.10932E-01        -0.18608E-01         0.00000E+00
    0.10955E-01        -0.19515E-01         0.00000E+00
    0.10936E-01        -0.20455E-01         0.00000E+00
    0.10869E-01        -0.21427E-01         0.00000E+00
    0.10750E-01        -0.22430E-01         0.00000E+00
    0.10573E-01        -0.23462E-01         0.00000E+00
    0.10332E-01        -0.24519E-01         0.00000E+00
    0.10021E-01        -0.25599E-01         0.00000E+00
    0.96339E-02        -0.26693E-01         0.00000E+00
    0.91636E-02        -0.27794E-01         0.00000E+00
    0.86037E-02        -0.28890E-01         0.00000E+00
    0.79475E-02        -0.29966E-01         0.00000E+00
    0.71882E-02        -0.31003E-01         0.00000E+00
    0.63187E-02        -0.31975E-01         0.00000E+00
    0.53318E-02        -0.32853E-01         0.00000E+00
    0.42190E-02        -0.33599E-01         0.00000E+00
    0.29699E-02        -0.34175E-01         0.00000E+00
    0.15699E-02        -0.34540E-01         0.00000E+00
    0.00000E+00        -0.34665E-01         0.00000E+00
    0.00000E+00         0.20862E-04         0.00000E+00
    0.54615E-04         0.18166E-04         0.00000E+00
    0.10600E-03         0.10306E-04         0.00000E+00
    0.15474E-03        -0.21203E-05         0.00000E+00
    0.20130E-03        -0.18339E-04         0.00000E+00
    0.24607E-03        -0.37585E-04         0.00000E+00
    0.28936E-03        -0.59198E-04         0.00000E+00
    0.33148E-03        -0.82655E-04         0.00000E+00
    0.37272E-03        -0.10757E-03         0.00000E+00
    0.41335E-03        -0.13367E-03         0.00000E+00
    0.45364E-03        -0.16077E-03         0.00000E+00
    0.49386E-03        -0.18878E-03         0.00000E+00
    0.53426E-03        -0.21765E-03         0.00000E+00
    0.57508E-03        -0.24739E-03         0.00000E+00
    0.61657E-03        -0.27805E-03         0.00000E+00
    0.65895E-03        -0.30969E-03         0.00000E+00
    0.70245E-03        -0.34243E-03         0.00000E+00
    0.74727E-03        -0.37636E-03         0.00000E+00
    0.79363E-03        -0.41163E-03         0.00000E+00
    0.84172E-03        -0.44835E-03         0.00000E+00
    0.89174E-03        -0.48669E-03         0.00000E+00
    0.94388E-03        -0.52680E-03         0.00000E+00
    0.99833E-03        -0.56883E-03         0.00000E+00
    0.10553E-02        -0.61296E-03         0.00000E+00
    0.11148E-02        -0.65936E-03         0.00000E+00
    0.11773E-02        -0.70821E-03         0.00000E+00
    0.12427E-02        -0.75970E-03         0.00000E+00
    0.13114E-02        -0.81402E-03         0.00000E+00
    0.13834E-02        -0.87137E-03         0.00000E+00
    0.14589E-02        -0.93197E-03         0.00000E+00
    0.15381E-02        -0.99603E-03         0.00000E+00
    0.16212E-02        -0.10638E-02         0.00000E+00
    0.17083E-02        -0.11355E-02         0.00000E+00
    0.17997E-02        -0.12113E-02         0.00000E+00
    0.18954E-02        -0.12916E-02         0.00000E+00
    0.19957E-02        -0.13766E-02         0.00000E+00
    0.21006E-02        -0.14665E-02         0.00000E+00
    0.22105E-02        -0.15618E-02         0.00000E+00
    0.23254E-02        -0.16626E-02         0.00000E+00
    0.24454E-02        -0.17693E-02         0.00000E+00
    0.25709E-02        -0.18822E-02         0.00000E+00
    0.27018E-02        -0.20018E-02         0.00000E+00
    0.28384E-02        -0.21283E-02         0.00000E+00
    0.29808E-02        -0.22621E-02         0.00000E+00
    0.31291E-02        -0.24037E-02         0.00000E+00
    0.32834E-02        -0.25533E-02         0.00000E+00
    0.34439E-02        -0.27116E-02         0.00000E+00
    0.36107E-02        -0.28789E-02         0.00000E+00
    0.37839E-02        -0.30557E-02         0.00000E+00
    0.39634E-02        -0.32424E-02         0.00000E+00
    0.41495E-02        -0.34397E-02         0.00000E+00
    0.43420E-02        -0.36479E-02         0.00000E+00
    0.45411E-02        -0.38677E-02         0.00000E+00
    0.47466E-02        -0.40996E-02         0.00000E+00
    0.49586E-02        -0.43441E-02         0.00000E+00
    0.51770E-02        -0.46020E-02         0.00000E+00
    0.54017E-02        -0.48738E-02         0.00000E+00
    0.56324E-02        -0.51601E-02         0.00000E+00
    0.58690E-02        -0.54616E-02         0.00000E+00
    0.61112E-02        -0.57791E-02         0.00000E+00
    0.63587E-02        -0.61131E-02         0.00000E+00
    0.66112E-02        -0.64644E-02         0.00000E+00
    0.68682E-02        -0.68337E-02         0.00000E+00
    0.71291E-02        -0.72219E-02         0.00000E+00
    0.73934E-02        -0.76296E-02         0.00000E+00
    0.76604E-02        -0.80577E-02         0.00000E+00
    0.79292E-02        -0.85069E-02         0.00000E+00
    0.81990E-02        -0.89781E-02         0.00000E+00
    0.84688E-02        -0.94722E-02         0.00000E+00
    0.87374E-02        -0.99899E-02         0.00000E+00
    0.90034E-02        -0.10532E-01         0.00000E+00
    0.92656E-02        -0.11100E-01         0.00000E+00
    0.95222E-02        -0.11694E-01         0.00000E+00
    0.97714E-02        -0.12315E-01         0.00000E+00
    0.10011E-01        -0.12964E-01         0.00000E+00
    0.10240E-01        -0.13642E-01         0.00000E+00
    0.10454E-01        -0.14350E-01         0.00000E+00
    0.10652E-01        -0.15089E-01         0.00000E+00
    0.10830E-01        -0.15859E-01         0.00000E+00
    0.10985E-01        -0.16661E-01         0.00000E+00
    0.11114E-01        -0.17497E-01         0.00000E+00
    0.11213E-01        -0.18366E-01         0.00000E+00
    0.11278E-01        -0.19269E-01         0.00000E+00
    0.11303E-01        -0.20206E-01         0.00000E+00
    0.11285E-01        -0.21177E-01         0.00000E+00
    0.11219E-01        -0.22181E-01         0.00000E+00
    0.11098E-01        -0.23218E-01         0.00000E+00
    0.10917E-01        -0.24284E-01         0.00000E+00
    0.10669E-01        -0.25377E-01         0.00000E+00
    0.10349E-01        -0.26492E-01         0.00000E+00
    0.99501E-02        -0.27623E-01         0.00000E+00
    0.94644E-02        -0.28761E-01         0.00000E+00
    0.88855E-02        -0.29894E-01         0.00000E+00
    0.82063E-02        -0.31007E-01         0.00000E+00
    0.74197E-02        -0.32080E-01         0.00000E+00
    0.65188E-02        -0.33087E-01         0.00000E+00
    0.54965E-02        -0.33998E-01         0.00000E+00
    0.43451E-02        -0.34774E-01         0.00000E+00
    0.30549E-02        -0.35373E-01         0.00000E+00
    0.16127E-02        -0.35754E-01         0.00000E+00
    0.00000E+00        -0.35885E-01         0.00000E+00
    0.00000E+00         0.20205E-04         0.00000E+00
    0.56038E-04         0.17388E-04         0.00000E+00
    0.10884E-03         0.91857E-05         0.00000E+00
    0.15899E-03        -0.37552E-05         0.00000E+00
    0.20692E-03        -0.20612E-04         0.00000E+00
    0.25302E-03        -0.40580E-04         0.00000E+00
    0.29758E-03        -0.62976E-04         0.00000E+00
    0.34092E-03        -0.87264E-04         0.00000E+00
    0.38333E-03        -0.11305E-03         0.00000E+00
    0.42508E-03        -0.14005E-03         0.00000E+00
    0.46648E-03        -0.16809E-03         0.00000E+00
    0.50778E-03        -0.19706E-03         0.00000E+00
    0.54925E-03        -0.22694E-03         0.00000E+00
    0.59115E-03        -0.25772E-03         0.00000E+00
    0.63373E-03        -0.28945E-03         0.00000E+00
    0.67722E-03        -0.32222E-03         0.00000E+00
    0.72186E-03        -0.35612E-03         0.00000E+00
    0.76785E-03        -0.39126E-03         0.00000E+00
    0.81543E-03        -0.42779E-03         0.00000E+00
    0.86479E-03        -0.46584E-03         0.00000E+00
    0.91614E-03        -0.50557E-03         0.00000E+00
    0.96966E-03        -0.54713E-03         0.00000E+00
    0.10256E-02        -0.59070E-03         0.00000E+00
    0.10840E-02        -0.63644E-03         0.00000E+00
    0.11452E-02        -0.68454E-03         0.00000E+00
    0.12093E-02        -0.73518E-03         0.00000E+00
    0.12765E-02        -0.78855E-03         0.00000E+00
    0.13470E-02        -0.84487E-03         0.00000E+00
    0.14210E-02        -0.90432E-03         0.00000E+00
    0.14986E-02        -0.96714E-03         0.00000E+00
    0.15800E-02        -0.10336E-02         0.00000E+00
    0.16654E-02        -0.11038E-02         0.00000E+00
    0.17549E-02        -0.11781E-02         0.00000E+00
    0.18488E-02        -0.12567E-02         0.00000E+00
    0.19471E-02        -0.13399E-02         0.00000E+00
    0.20502E-02        -0.14280E-02         0.00000E+00
    0.21580E-02        -0.15212E-02         0.00000E+00
    0.22709E-02        -0.16199E-02         0.00000E+00
    0.23890E-02        -0.17244E-02         0.00000E+00
    0.25124E-02        -0.18350E-02         0.00000E+00
    0.26414E-02        -0.19520E-02         0.00000E+00
    0.27760E-02        -0.20759E-02         0.00000E+00
    0.29164E-02        -0.22069E-02         0.00000E+00
    0.30628E-02        -0.23456E-02         0.00000E+00
    0.32152E-02        -0.24922E-02         0.00000E+00
    0.33739E-02        -0.26473E-02         0.00000E+00
    0.35390E-02        -0.28112E-02         0.00000E+00
    0.37105E-02        -0.29845E-02         0.00000E+00
    0.38886E-02        -0.31676E-02         0.00000E+00
    0.40732E-02        -0.33610E-02         0.00000E+00
    0.42646E-02        -0.35653E-02         0.00000E+00
    0.44626E-02        -0.37809E-02         0.00000E+00
    0.46674E-02        -0.40084E-02         0.00000E+00
    0.48789E-02        -0.42485E-02         0.00000E+00
    0.50970E-02        -0.45017E-02         0.00000E+00
    0.53217E-02        -0.47687E-02         0.00000E+00
    0.55528E-02        -0.50500E-02         0.00000E+00
    0.57902E-02        -0.53463E-02         0.00000E+00
    0.60338E-02        -0.56584E-02         0.00000E+00
    0.62831E-02        -0.59869E-02         0.00000E+00
    0.65379E-02        -0.63326E-02         0.00000E+00
    0.67978E-02        -0.66961E-02         0.00000E+00
    0.70624E-02        -0.70783E-02         0.00000E+00
    0.73312E-02        -0.74798E-02         0.00000E+00
    0.76034E-02        -0.79016E-02         0.00000E+00
    0.78785E-02        -0.83444E-02         0.00000E+00
    0.81555E-02        -0.88091E-02         0.00000E+00
    0.84336E-02        -0.92964E-02         0.00000E+00
    0.87117E-02        -0.98073E-02         0.00000E+00
    0.89887E-02        -0.10343E-01         0.00000E+00
    0.92632E-02        -0.10903E-01         0.00000E+00
    0.95338E-02        -0.11490E-01         0.00000E+00
    0.97987E-02        -0.12104E-01         0.00000E+00
    0.10056E-01        -0.12746E-01         0.00000E+00
    0.10304E-01        -0.13417E-01         0.00000E+00
    0.10540E-01        -0.14118E-01         0.00000E+00
    0.10762E-01        -0.14849E-01         0.00000E+00
    0.10967E-01        -0.15612E-01         0.00000E+00
    0.11152E-01        -0.16408E-01         0.00000E+00
    0.11314E-01        -0.17237E-01         0.00000E+00
    0.11449E-01        -0.18099E-01         0.00000E+00
    0.11552E-01        -0.18997E-01         0.00000E+00
    0.11621E-01        -0.19929E-01         0.00000E+00
    0.11649E-01        -0.20897E-01         0.00000E+00
    0.11633E-01        -0.21899E-01         0.00000E+00
    0.11567E-01        -0.22936E-01         0.00000E+00
    0.11444E-01        -0.24005E-01         0.00000E+00
    0.11259E-01        -0.25106E-01         0.00000E+00
    0.11006E-01        -0.26233E-01         0.00000E+00
    0.10678E-01        -0.27384E-01         0.00000E+00
    0.10267E-01        -0.28552E-01         0.00000E+00
    0.97660E-02        -0.29726E-01         0.00000E+00
    0.91684E-02        -0.30896E-01         0.00000E+00
    0.84664E-02        -0.32046E-01         0.00000E+00
    0.76528E-02        -0.33156E-01         0.00000E+00
    0.67205E-02        -0.34198E-01         0.00000E+00
    0.56627E-02        -0.35142E-01         0.00000E+00
    0.44724E-02        -0.35948E-01         0.00000E+00
    0.31408E-02        -0.36571E-01         0.00000E+00
    0.16559E-02        -0.36969E-01         0.00000E+00
    0.00000E+00        -0.37105E-01         0.00000E+00
    0.00000E+00         0.19521E-04         0.00000E+00
    0.57454E-04         0.16578E-04         0.00000E+00
    0.11167E-03         0.80202E-05         0.00000E+00
    0.16321E-03        -0.54506E-05         0.00000E+00
    0.21251E-03        -0.22957E-04         0.00000E+00
    0.25991E-03        -0.43656E-04         0.00000E+00
    0.30573E-03        -0.66840E-04         0.00000E+00
    0.35026E-03        -0.91961E-04         0.00000E+00
    0.39381E-03        -0.11861E-03         0.00000E+00
    0.43667E-03        -0.14652E-03         0.00000E+00
    0.47914E-03        -0.17550E-03         0.00000E+00
    0.52149E-03        -0.20544E-03         0.00000E+00
    0.56401E-03        -0.23631E-03         0.00000E+00
    0.60696E-03        -0.26813E-03         0.00000E+00
    0.65060E-03        -0.30094E-03         0.00000E+00
    0.69517E-03        -0.33483E-03         0.00000E+00
    0.74091E-03        -0.36989E-03         0.00000E+00
    0.78806E-03        -0.40625E-03         0.00000E+00
    0.83682E-03        -0.44405E-03         0.00000E+00
    0.88742E-03        -0.48343E-03         0.00000E+00
    0.94006E-03        -0.52455E-03         0.00000E+00
    0.99494E-03        -0.56757E-03         0.00000E+00
    0.10523E-02        -0.61267E-03         0.00000E+00
    0.11122E-02        -0.66003E-03         0.00000E+00
    0.11750E-02        -0.70983E-03         0.00000E+00
    0.12407E-02        -0.76226E-03         0.00000E+00
    0.13097E-02        -0.81753E-03         0.00000E+00
    0.13820E-02        -0.87584E-03         0.00000E+00
    0.14579E-02        -0.93741E-03         0.00000E+00
    0.15375E-02        -0.10025E-02         0.00000E+00
    0.16210E-02        -0.10712E-02         0.00000E+00
    0.17087E-02        -0.11439E-02         0.00000E+00
    0.18005E-02        -0.12209E-02         0.00000E+00
    0.18969E-02        -0.13023E-02         0.00000E+00
    0.19978E-02        -0.13884E-02         0.00000E+00
    0.21036E-02        -0.14796E-02         0.00000E+00
    0.22143E-02        -0.15761E-02         0.00000E+00
    0.23302E-02        -0.16783E-02         0.00000E+00
    0.24514E-02        -0.17864E-02         0.00000E+00
    0.25782E-02        -0.19009E-02         0.00000E+00
    0.27105E-02        -0.20220E-02         0.00000E+00
    0.28487E-02        -0.21502E-02         0.00000E+00
    0.29929E-02        -0.22858E-02         0.00000E+00
    0.31432E-02        -0.24293E-02         0.00000E+00
    0.32998E-02        -0.25811E-02         0.00000E+00
    0.34628E-02        -0.27415E-02         0.00000E+00
    0.36323E-02        -0.29111E-02         0.00000E+00
    0.38085E-02        -0.30904E-02         0.00000E+00
    0.39914E-02        -0.32798E-02         0.00000E+00
    0.41811E-02        -0.34799E-02         0.00000E+00
    0.43777E-02        -0.36911E-02         0.00000E+00
    0.45811E-02        -0.39142E-02         0.00000E+00
    0.47915E-02        -0.41495E-02         0.00000E+00
    0.50088E-02        -0.43978E-02         0.00000E+00
    0.52330E-02        -0.46597E-02         0.00000E+00
    0.54639E-02        -0.49357E-02         0.00000E+00
    0.57015E-02        -0.52266E-02         0.00000E+00
    0.59455E-02        -0.55330E-02         0.00000E+00
    0.61959E-02        -0.58556E-02         0.00000E+00
    0.64522E-02        -0.61952E-02         0.00000E+00
    0.67143E-02        -0.65525E-02         0.00000E+00
    0.69816E-02        -0.69282E-02         0.00000E+00
    0.72538E-02        -0.73231E-02         0.00000E+00
    0.75302E-02        -0.77381E-02         0.00000E+00
    0.78103E-02        -0.81740E-02         0.00000E+00
    0.80934E-02        -0.86315E-02         0.00000E+00
    0.83786E-02        -0.91116E-02         0.00000E+00
    0.86649E-02        -0.96150E-02         0.00000E+00
    0.89514E-02        -0.10143E-01         0.00000E+00
    0.92367E-02        -0.10696E-01         0.00000E+00
    0.95196E-02        -0.11275E-01         0.00000E+00
    0.97986E-02        -0.11881E-01         0.00000E+00
    0.10072E-01        -0.12515E-01         0.00000E+00
    0.10338E-01        -0.13177E-01         0.00000E+00
    0.10594E-01        -0.13870E-01         0.00000E+00
    0.10838E-01        -0.14593E-01         0.00000E+00
    0.11068E-01        -0.15348E-01         0.00000E+00
    0.11280E-01        -0.16136E-01         0.00000E+00
    0.11472E-01        -0.16957E-01         0.00000E+00
    0.11640E-01        -0.17812E-01         0.00000E+00
    0.11780E-01        -0.18702E-01         0.00000E+00
    0.11889E-01        -0.19627E-01         0.00000E+00
    0.11962E-01        -0.20589E-01         0.00000E+00
    0.11993E-01        -0.21587E-01         0.00000E+00
    0.11979E-01        -0.22620E-01         0.00000E+00
    0.11913E-01        -0.23689E-01         0.00000E+00
    0.11789E-01        -0.24792E-01         0.00000E+00
    0.11601E-01        -0.25926E-01         0.00000E+00
    0.11343E-01        -0.27089E-01         0.00000E+00
    0.11006E-01        -0.28275E-01         0.00000E+00
    0.10584E-01        -0.29479E-01         0.00000E+00
    0.10068E-01        -0.30690E-01         0.00000E+00
    0.94526E-02        -0.31897E-01         0.00000E+00
    0.87281E-02        -0.33084E-01         0.00000E+00
    0.78877E-02        -0.34230E-01         0.00000E+00
    0.69241E-02        -0.35308E-01         0.00000E+00
    0.58308E-02        -0.36285E-01         0.00000E+00
    0.46012E-02        -0.37122E-01         0.00000E+00
    0.32278E-02        -0.37770E-01         0.00000E+00
    0.16996E-02        -0.38184E-01         0.00000E+00
    0.00000E+00        -0.38327E-01         0.00000E+00
    0.00000E+00         0.18816E-04         0.00000E+00
    0.58864E-04         0.15740E-04         0.00000E+00
    0.11449E-03         0.68132E-05         0.00000E+00
    0.16741E-03        -0.72032E-05         0.00000E+00
    0.21806E-03        -0.25372E-04         0.00000E+00
    0.26675E-03        -0.46810E-04         0.00000E+00
    0.31380E-03        -0.70787E-04         0.00000E+00
    0.35951E-03        -0.96743E-04         0.00000E+00
    0.40417E-03        -0.12427E-03         0.00000E+00
    0.44811E-03        -0.15308E-03         0.00000E+00
    0.49162E-03        -0.18299E-03         0.00000E+00
    0.53500E-03        -0.21390E-03         0.00000E+00
    0.57854E-03        -0.24578E-03         0.00000E+00
    0.62251E-03        -0.27863E-03         0.00000E+00
    0.66717E-03        -0.31252E-03         0.00000E+00
    0.71280E-03        -0.34752E-03         0.00000E+00
    0.75962E-03        -0.38375E-03         0.00000E+00
    0.80788E-03        -0.42133E-03         0.00000E+00
    0.85780E-03        -0.46039E-03         0.00000E+00
    0.90960E-03        -0.50110E-03         0.00000E+00
    0.96350E-03        -0.54362E-03         0.00000E+00
    0.10197E-02        -0.58810E-03         0.00000E+00
    0.10784E-02        -0.63474E-03         0.00000E+00
    0.11398E-02        -0.68372E-03         0.00000E+00
    0.12041E-02        -0.73523E-03         0.00000E+00
    0.12715E-02        -0.78946E-03         0.00000E+00
    0.13422E-02        -0.84662E-03         0.00000E+00
    0.14163E-02        -0.90693E-03         0.00000E+00
    0.14940E-02        -0.97061E-03         0.00000E+00
    0.15756E-02        -0.10379E-02         0.00000E+00
    0.16613E-02        -0.11090E-02         0.00000E+00
    0.17511E-02        -0.11842E-02         0.00000E+00
    0.18453E-02        -0.12638E-02         0.00000E+00
    0.19440E-02        -0.13480E-02         0.00000E+00
    0.20475E-02        -0.14371E-02         0.00000E+00
    0.21560E-02        -0.15314E-02         0.00000E+00
    0.22695E-02        -0.16312E-02         0.00000E+00
    0.23883E-02        -0.17368E-02         0.00000E+00
    0.25127E-02        -0.18486E-02         0.00000E+00
    0.26426E-02        -0.19670E-02         0.00000E+00
    0.27784E-02        -0.20922E-02         0.00000E+00
    0.29201E-02        -0.22248E-02         0.00000E+00
    0.30680E-02        -0.23650E-02         0.00000E+00
    0.32222E-02        -0.25133E-02         0.00000E+00
    0.33828E-02        -0.26701E-02         0.00000E+00
    0.35500E-02        -0.28360E-02         0.00000E+00
    0.37239E-02        -0.30113E-02         0.00000E+00
    0.39047E-02        -0.31965E-02         0.00000E+00
    0.40923E-02        -0.33923E-02         0.00000E+00
    0.42870E-02        -0.35990E-02         0.00000E+00
    0.44887E-02        -0.38173E-02         0.00000E+00
    0.46975E-02        -0.40478E-02         0.00000E+00
    0.49135E-02        -0.42909E-02         0.00000E+00
    0.51365E-02        -0.45474E-02         0.00000E+00
    0.53666E-02        -0.48179E-02         0.00000E+00
    0.56037E-02        -0.51030E-02         0.00000E+00
    0.58476E-02        -0.54035E-02         0.00000E+00
    0.60983E-02        -0.57199E-02         0.00000E+00
    0.63553E-02        -0.60531E-02         0.00000E+00
    0.66186E-02        -0.64038E-02         0.00000E+00
    0.68878E-02        -0.67727E-02         0.00000E+00
    0.71625E-02        -0.71606E-02         0.00000E+00
    0.74421E-02        -0.75684E-02         0.00000E+00
    0.77262E-02        -0.79968E-02         0.00000E+00
    0.80142E-02        -0.84467E-02         0.00000E+00
    0.83052E-02        -0.89190E-02         0.00000E+00
    0.85985E-02        -0.94144E-02         0.00000E+00
    0.88930E-02        -0.99340E-02         0.00000E+00
    0.91877E-02        -0.10479E-01         0.00000E+00
    0.94814E-02        -0.11049E-01         0.00000E+00
    0.97727E-02        -0.11646E-01         0.00000E+00
    0.10060E-01        -0.12272E-01         0.00000E+00
    0.10342E-01        -0.12925E-01         0.00000E+00
    0.10616E-01        -0.13609E-01         0.00000E+00
    0.10880E-01        -0.14323E-01         0.00000E+00
    0.11132E-01        -0.15069E-01         0.00000E+00
    0.11370E-01        -0.15847E-01         0.00000E+00
    0.11589E-01        -0.16659E-01         0.00000E+00
    0.11788E-01        -0.17505E-01         0.00000E+00
    0.11963E-01        -0.18387E-01         0.00000E+00
    0.12109E-01        -0.19304E-01         0.00000E+00
    0.12223E-01        -0.20258E-01         0.00000E+00
    0.12300E-01        -0.21248E-01         0.00000E+00
    0.12336E-01        -0.22276E-01         0.00000E+00
    0.12323E-01        -0.23341E-01         0.00000E+00
    0.12258E-01        -0.24442E-01         0.00000E+00
    0.12133E-01        -0.25577E-01         0.00000E+00
    0.11943E-01        -0.26745E-01         0.00000E+00
    0.11679E-01        -0.27943E-01         0.00000E+00
    0.11334E-01        -0.29165E-01         0.00000E+00
    0.10902E-01        -0.30404E-01         0.00000E+00
    0.10372E-01        -0.31652E-01         0.00000E+00
    0.97384E-02        -0.32896E-01         0.00000E+00
    0.89919E-02        -0.34120E-01         0.00000E+00
    0.81249E-02        -0.35302E-01         0.00000E+00
    0.71302E-02        -0.36416E-01         0.00000E+00
    0.60012E-02        -0.37428E-01         0.00000E+00
    0.47320E-02        -0.38295E-01         0.00000E+00
    0.33162E-02        -0.38969E-01         0.00000E+00
    0.17441E-02        -0.39401E-01         0.00000E+00
    0.00000E+00        -0.39550E-01         0.00000E+00
    0.00000E+00         0.18095E-04         0.00000E+00
    0.60272E-04         0.14881E-04         0.00000E+00
    0.11730E-03         0.55688E-05         0.00000E+00
    0.17160E-03        -0.90098E-05         0.00000E+00
    0.22358E-03        -0.27854E-04         0.00000E+00
    0.27355E-03        -0.50039E-04         0.00000E+00
    0.32181E-03        -0.74814E-04         0.00000E+00
    0.36866E-03        -0.10161E-03         0.00000E+00
    0.41442E-03        -0.13000E-03         0.00000E+00
    0.45941E-03        -0.15972E-03         0.00000E+00
    0.50393E-03        -0.19056E-03         0.00000E+00
    0.54831E-03        -0.22244E-03         0.00000E+00
    0.59283E-03        -0.25532E-03         0.00000E+00
    0.63779E-03        -0.28921E-03         0.00000E+00
    0.68345E-03        -0.32418E-03         0.00000E+00
    0.73010E-03        -0.36030E-03         0.00000E+00
    0.77797E-03        -0.39769E-03         0.00000E+00
    0.82731E-03        -0.43648E-03         0.00000E+00
    0.87836E-03        -0.47682E-03         0.00000E+00
    0.93134E-03        -0.51886E-03         0.00000E+00
    0.98647E-03        -0.56277E-03         0.00000E+00
    0.10440E-02        -0.60873E-03         0.00000E+00
    0.11040E-02        -0.65691E-03         0.00000E+00
    0.11669E-02        -0.70751E-03         0.00000E+00
    0.12327E-02        -0.76072E-03         0.00000E+00
    0.13016E-02        -0.81676E-03         0.00000E+00
    0.13739E-02        -0.87582E-03         0.00000E+00
    0.14498E-02        -0.93814E-03         0.00000E+00
    0.15294E-02        -0.10039E-02         0.00000E+00
    0.16130E-02        -0.10735E-02         0.00000E+00
    0.17006E-02        -0.11469E-02         0.00000E+00
    0.17926E-02        -0.12247E-02         0.00000E+00
    0.18890E-02        -0.13069E-02         0.00000E+00
    0.19902E-02        -0.13938E-02         0.00000E+00
    0.20962E-02        -0.14859E-02         0.00000E+00
    0.22073E-02        -0.15833E-02         0.00000E+00
    0.23236E-02        -0.16864E-02         0.00000E+00
    0.24453E-02        -0.17955E-02         0.00000E+00
    0.25726E-02        -0.19110E-02         0.00000E+00
    0.27058E-02        -0.20333E-02         0.00000E+00
    0.28449E-02        -0.21626E-02         0.00000E+00
    0.29901E-02        -0.22995E-02         0.00000E+00
    0.31416E-02        -0.24443E-02         0.00000E+00
    0.32996E-02        -0.25975E-02         0.00000E+00
    0.34642E-02        -0.27594E-02         0.00000E+00
    0.36356E-02        -0.29307E-02         0.00000E+00
    0.38138E-02        -0.31117E-02         0.00000E+00
    0.39990E-02        -0.33030E-02         0.00000E+00
    0.41914E-02        -0.35050E-02         0.00000E+00
    0.43909E-02        -0.37185E-02         0.00000E+00
    0.45977E-02        -0.39438E-02         0.00000E+00
    0.48118E-02        -0.41816E-02         0.00000E+00
    0.50332E-02        -0.44326E-02         0.00000E+00
    0.52620E-02        -0.46973E-02         0.00000E+00
    0.54979E-02        -0.49765E-02         0.00000E+00
    0.57411E-02        -0.52707E-02         0.00000E+00
    0.59913E-02        -0.55807E-02         0.00000E+00
    0.62484E-02        -0.59072E-02         0.00000E+00
    0.65121E-02        -0.62510E-02         0.00000E+00
    0.67823E-02        -0.66127E-02         0.00000E+00
    0.70585E-02        -0.69933E-02         0.00000E+00
    0.73404E-02        -0.73934E-02         0.00000E+00
    0.76275E-02        -0.78140E-02         0.00000E+00
    0.79192E-02        -0.82558E-02         0.00000E+00
    0.82149E-02        -0.87198E-02         0.00000E+00
    0.85138E-02        -0.92067E-02         0.00000E+00
    0.88151E-02        -0.97176E-02         0.00000E+00
    0.91178E-02        -0.10253E-01         0.00000E+00
    0.94208E-02        -0.10815E-01         0.00000E+00
    0.97228E-02        -0.11403E-01         0.00000E+00
    0.10022E-01        -0.12018E-01         0.00000E+00
    0.10318E-01        -0.12663E-01         0.00000E+00
    0.10608E-01        -0.13336E-01         0.00000E+00
    0.10890E-01        -0.14041E-01         0.00000E+00
    0.11163E-01        -0.14777E-01         0.00000E+00
    0.11423E-01        -0.15545E-01         0.00000E+00
    0.11668E-01        -0.16347E-01         0.00000E+00
    0.11896E-01        -0.17183E-01         0.00000E+00
    0.12102E-01        -0.18054E-01         0.00000E+00
    0.12283E-01        -0.18962E-01         0.00000E+00
    0.12436E-01        -0.19906E-01         0.00000E+00
    0.12555E-01        -0.20888E-01         0.00000E+00
    0.12637E-01        -0.21908E-01         0.00000E+00
    0.12676E-01        -0.22965E-01         0.00000E+00
    0.12666E-01        -0.24061E-01         0.00000E+00
    0.12602E-01        -0.25194E-01         0.00000E+00
    0.12477E-01        -0.26362E-01         0.00000E+00
    0.12284E-01        -0.27564E-01         0.00000E+00
    0.12015E-01        -0.28796E-01         0.00000E+00
    0.11664E-01        -0.30053E-01         0.00000E+00
    0.11220E-01        -0.31329E-01         0.00000E+00
    0.10678E-01        -0.32613E-01         0.00000E+00
    0.10026E-01        -0.33894E-01         0.00000E+00
    0.92581E-02        -0.35155E-01         0.00000E+00
    0.83648E-02        -0.36374E-01         0.00000E+00
    0.73390E-02        -0.37523E-01         0.00000E+00
    0.61742E-02        -0.38569E-01         0.00000E+00
    0.48651E-02        -0.39468E-01         0.00000E+00
    0.34063E-02        -0.40169E-01         0.00000E+00
    0.17894E-02        -0.40619E-01         0.00000E+00
    0.00000E+00        -0.40775E-01         0.00000E+00
    0.00000E+00         0.17365E-04         0.00000E+00
    0.61680E-04         0.14004E-04         0.00000E+00
    0.12011E-03         0.42908E-05         0.00000E+00
    0.17579E-03        -0.10867E-04         0.00000E+00
    0.22909E-03        -0.30400E-04         0.00000E+00
    0.28032E-03        -0.53340E-04         0.00000E+00
    0.32977E-03        -0.78918E-04         0.00000E+00
    0.37774E-03        -0.10655E-03         0.00000E+00
    0.42456E-03        -0.13582E-03         0.00000E+00
    0.47056E-03        -0.16644E-03         0.00000E+00
    0.51607E-03        -0.19822E-03         0.00000E+00
    0.56141E-03        -0.23106E-03         0.00000E+00
    0.60689E-03        -0.26494E-03         0.00000E+00
    0.65280E-03        -0.29987E-03         0.00000E+00
    0.69944E-03        -0.33591E-03         0.00000E+00
    0.74707E-03        -0.37315E-03         0.00000E+00
    0.79596E-03        -0.41171E-03         0.00000E+00
    0.84636E-03        -0.45172E-03         0.00000E+00
    0.89850E-03        -0.49333E-03         0.00000E+00
    0.95263E-03        -0.53671E-03         0.00000E+00
    0.10090E-02        -0.58202E-03         0.00000E+00
    0.10677E-02        -0.62944E-03         0.00000E+00
    0.11291E-02        -0.67917E-03         0.00000E+00
    0.11933E-02        -0.73139E-03         0.00000E+00
    0.12606E-02        -0.78632E-03         0.00000E+00
    0.13311E-02        -0.84416E-03         0.00000E+00
    0.14050E-02        -0.90513E-03         0.00000E+00
    0.14826E-02        -0.96946E-03         0.00000E+00
    0.15640E-02        -0.10374E-02         0.00000E+00
    0.16495E-02        -0.11091E-02         0.00000E+00
    0.17391E-02        -0.11850E-02         0.00000E+00
    0.18332E-02        -0.12652E-02         0.00000E+00
    0.19319E-02        -0.13501E-02         0.00000E+00
    0.20354E-02        -0.14398E-02         0.00000E+00
    0.21438E-02        -0.15348E-02         0.00000E+00
    0.22575E-02        -0.16354E-02         0.00000E+00
    0.23765E-02        -0.17418E-02         0.00000E+00
    0.25010E-02        -0.18544E-02         0.00000E+00
    0.26314E-02        -0.19736E-02         0.00000E+00
    0.27676E-02        -0.20998E-02         0.00000E+00
    0.29100E-02        -0.22332E-02         0.00000E+00
    0.30586E-02        -0.23745E-02         0.00000E+00
    0.32137E-02        -0.25239E-02         0.00000E+00
    0.33755E-02        -0.26819E-02         0.00000E+00
    0.35440E-02        -0.28490E-02         0.00000E+00
    0.37194E-02        -0.30256E-02         0.00000E+00
    0.39019E-02        -0.32123E-02         0.00000E+00
    0.40916E-02        -0.34096E-02         0.00000E+00
    0.42886E-02        -0.36180E-02         0.00000E+00
    0.44929E-02        -0.38381E-02         0.00000E+00
    0.47047E-02        -0.40705E-02         0.00000E+00
    0.49240E-02        -0.43158E-02         0.00000E+00
    0.51508E-02        -0.45746E-02         0.00000E+00
    0.53851E-02        -0.48475E-02         0.00000E+00
    0.56269E-02        -0.51353E-02         0.00000E+00
    0.58760E-02        -0.54386E-02         0.00000E+00
    0.61324E-02        -0.57582E-02         0.00000E+00
    0.63959E-02        -0.60948E-02         0.00000E+00
    0.66662E-02        -0.64491E-02         0.00000E+00
    0.69432E-02        -0.68220E-02         0.00000E+00
    0.72264E-02        -0.72142E-02         0.00000E+00
    0.75155E-02        -0.76265E-02         0.00000E+00
    0.78099E-02        -0.80599E-02         0.00000E+00
    0.81091E-02        -0.85152E-02         0.00000E+00
    0.84125E-02        -0.89932E-02         0.00000E+00
    0.87192E-02        -0.94948E-02         0.00000E+00
    0.90285E-02        -0.10021E-01         0.00000E+00
    0.93393E-02        -0.10573E-01         0.00000E+00
    0.96505E-02        -0.11151E-01         0.00000E+00
    0.99608E-02        -0.11757E-01         0.00000E+00
    0.10269E-01        -0.12391E-01         0.00000E+00
    0.10573E-01        -0.13054E-01         0.00000E+00
    0.10871E-01        -0.13748E-01         0.00000E+00
    0.11162E-01        -0.14473E-01         0.00000E+00
    0.11443E-01        -0.15230E-01         0.00000E+00
    0.11711E-01        -0.16021E-01         0.00000E+00
    0.11964E-01        -0.16846E-01         0.00000E+00
    0.12199E-01        -0.17707E-01         0.00000E+00
    0.12412E-01        -0.18603E-01         0.00000E+00
    0.12601E-01        -0.19537E-01         0.00000E+00
    0.12760E-01        -0.20508E-01         0.00000E+00
    0.12885E-01        -0.21518E-01         0.00000E+00
    0.12972E-01        -0.22567E-01         0.00000E+00
    0.13014E-01        -0.23654E-01         0.00000E+00
    0.13008E-01        -0.24780E-01         0.00000E+00
    0.12945E-01        -0.25945E-01         0.00000E+00
    0.12820E-01        -0.27146E-01         0.00000E+00
    0.12625E-01        -0.28381E-01         0.00000E+00
    0.12352E-01        -0.29648E-01         0.00000E+00
    0.11993E-01        -0.30940E-01         0.00000E+00
    0.11541E-01        -0.32252E-01         0.00000E+00
    0.10985E-01        -0.33572E-01         0.00000E+00
    0.10316E-01        -0.34890E-01         0.00000E+00
    0.95270E-02        -0.36187E-01         0.00000E+00
    0.86078E-02        -0.37443E-01         0.00000E+00
    0.75510E-02        -0.38629E-01         0.00000E+00
    0.63504E-02        -0.39710E-01         0.00000E+00
    0.50009E-02        -0.40641E-01         0.00000E+00
    0.34983E-02        -0.41369E-01         0.00000E+00
    0.18357E-02        -0.41839E-01         0.00000E+00
    0.00000E+00        -0.42002E-01         0.00000E+00
    0.00000E+00         0.16632E-04         0.00000E+00
    0.63092E-04         0.13117E-04         0.00000E+00
    0.12292E-03         0.29829E-05         0.00000E+00
    0.17997E-03        -0.12773E-04         0.00000E+00
    0.23459E-03        -0.33007E-04         0.00000E+00
    0.28706E-03        -0.56711E-04         0.00000E+00
    0.33767E-03        -0.83095E-04         0.00000E+00
    0.38673E-03        -0.11157E-03         0.00000E+00
    0.43459E-03        -0.14171E-03         0.00000E+00
    0.48158E-03        -0.17323E-03         0.00000E+00
    0.52804E-03        -0.20595E-03         0.00000E+00
    0.57431E-03        -0.23976E-03         0.00000E+00
    0.62071E-03        -0.27463E-03         0.00000E+00
    0.66755E-03        -0.31060E-03         0.00000E+00
    0.71513E-03        -0.34771E-03         0.00000E+00
    0.76371E-03        -0.38608E-03         0.00000E+00
    0.81359E-03        -0.42580E-03         0.00000E+00
    0.86501E-03        -0.46703E-03         0.00000E+00
    0.91822E-03        -0.50992E-03         0.00000E+00
    0.97346E-03        -0.55463E-03         0.00000E+00
    0.10310E-02        -0.60134E-03         0.00000E+00
    0.10909E-02        -0.65023E-03         0.00000E+00
    0.11536E-02        -0.70150E-03         0.00000E+00
    0.12192E-02        -0.75536E-03         0.00000E+00
    0.12879E-02        -0.81200E-03         0.00000E+00
    0.13599E-02        -0.87165E-03         0.00000E+00
    0.14354E-02        -0.93453E-03         0.00000E+00
    0.15147E-02        -0.10009E-02         0.00000E+00
    0.15979E-02        -0.10709E-02         0.00000E+00
    0.16852E-02        -0.11449E-02         0.00000E+00
    0.17768E-02        -0.12232E-02         0.00000E+00
    0.18730E-02        -0.13059E-02         0.00000E+00
    0.19738E-02        -0.13934E-02         0.00000E+00
    0.20796E-02        -0.14860E-02         0.00000E+00
    0.21904E-02        -0.15839E-02         0.00000E+00
    0.23066E-02        -0.16876E-02         0.00000E+00
    0.24282E-02        -0.17973E-02         0.00000E+00
    0.25556E-02        -0.19135E-02         0.00000E+00
    0.26888E-02        -0.20364E-02         0.00000E+00
    0.28281E-02        -0.21664E-02         0.00000E+00
    0.29737E-02        -0.23040E-02         0.00000E+00
    0.31257E-02        -0.24496E-02         0.00000E+00
    0.32843E-02        -0.26036E-02         0.00000E+00
    0.34498E-02        -0.27665E-02         0.00000E+00
    0.36221E-02        -0.29387E-02         0.00000E+00
    0.38016E-02        -0.31207E-02         0.00000E+00
    0.39882E-02        -0.33132E-02         0.00000E+00
    0.41823E-02        -0.35165E-02         0.00000E+00
    0.43838E-02        -0.37312E-02         0.00000E+00
    0.45929E-02        -0.39581E-02         0.00000E+00
    0.48096E-02        -0.41975E-02         0.00000E+00
    0.50340E-02        -0.44502E-02         0.00000E+00
    0.52661E-02        -0.47168E-02         0.00000E+00
    0.55059E-02        -0.49980E-02         0.00000E+00
    0.57534E-02        -0.52944E-02         0.00000E+00
    0.60085E-02        -0.56069E-02         0.00000E+00
    0.62710E-02        -0.59360E-02         0.00000E+00
    0.65408E-02        -0.62827E-02         0.00000E+00
    0.68176E-02        -0.66476E-02         0.00000E+00
    0.71013E-02        -0.70315E-02         0.00000E+00
    0.73914E-02        -0.74354E-02         0.00000E+00
    0.76876E-02        -0.78600E-02         0.00000E+00
    0.79893E-02        -0.83061E-02         0.00000E+00
    0.82959E-02        -0.87748E-02         0.00000E+00
    0.86069E-02        -0.92669E-02         0.00000E+00
    0.89215E-02        -0.97832E-02         0.00000E+00
    0.92387E-02        -0.10325E-01         0.00000E+00
    0.95575E-02        -0.10893E-01         0.00000E+00
    0.98768E-02        -0.11488E-01         0.00000E+00
    0.10195E-01        -0.12111E-01         0.00000E+00
    0.10512E-01        -0.12763E-01         0.00000E+00
    0.10824E-01        -0.13446E-01         0.00000E+00
    0.11131E-01        -0.14159E-01         0.00000E+00
    0.11430E-01        -0.14905E-01         0.00000E+00
    0.11719E-01        -0.15684E-01         0.00000E+00
    0.11995E-01        -0.16497E-01         0.00000E+00
    0.12256E-01        -0.17346E-01         0.00000E+00
    0.12499E-01        -0.18230E-01         0.00000E+00
    0.12720E-01        -0.19152E-01         0.00000E+00
    0.12915E-01        -0.20112E-01         0.00000E+00
    0.13081E-01        -0.21110E-01         0.00000E+00
    0.13212E-01        -0.22148E-01         0.00000E+00
    0.13304E-01        -0.23225E-01         0.00000E+00
    0.13351E-01        -0.24342E-01         0.00000E+00
    0.13348E-01        -0.25499E-01         0.00000E+00
    0.13287E-01        -0.26696E-01         0.00000E+00
    0.13162E-01        -0.27929E-01         0.00000E+00
    0.12965E-01        -0.29198E-01         0.00000E+00
    0.12689E-01        -0.30499E-01         0.00000E+00
    0.12324E-01        -0.31826E-01         0.00000E+00
    0.11862E-01        -0.33173E-01         0.00000E+00
    0.11294E-01        -0.34530E-01         0.00000E+00
    0.10609E-01        -0.35884E-01         0.00000E+00
    0.97990E-02        -0.37219E-01         0.00000E+00
    0.88542E-02        -0.38511E-01         0.00000E+00
    0.77668E-02        -0.39733E-01         0.00000E+00
    0.65302E-02        -0.40849E-01         0.00000E+00
    0.51399E-02        -0.41813E-01         0.00000E+00
    0.35926E-02        -0.42570E-01         0.00000E+00
    0.18832E-02        -0.43060E-01         0.00000E+00
    0.00000E+00        -0.43230E-01         0.00000E+00
    0.00000E+00         0.15901E-04         0.00000E+00
    0.64510E-04         0.12223E-04         0.00000E+00
    0.12575E-03         0.16484E-05         0.00000E+00
    0.18417E-03        -0.14725E-04         0.00000E+00
    0.24009E-03        -0.35672E-04         0.00000E+00
    0.29378E-03        -0.60147E-04         0.00000E+00
    0.34552E-03        -0.87342E-04         0.00000E+00
    0.39565E-03        -0.11666E-03         0.00000E+00
    0.44451E-03        -0.14768E-03         0.00000E+00
    0.49245E-03        -0.18010E-03         0.00000E+00
    0.53984E-03        -0.21374E-03         0.00000E+00
    0.58701E-03        -0.24852E-03         0.00000E+00
    0.63430E-03        -0.28440E-03         0.00000E+00
    0.68203E-03        -0.32140E-03         0.00000E+00
    0.73051E-03        -0.35959E-03         0.00000E+00
    0.78003E-03        -0.39907E-03         0.00000E+00
    0.83086E-03        -0.43996E-03         0.00000E+00
    0.88327E-03        -0.48241E-03         0.00000E+00
    0.93751E-03        -0.52657E-03         0.00000E+00
    0.99383E-03        -0.57262E-03         0.00000E+00
    0.10525E-02        -0.62073E-03         0.00000E+00
    0.11136E-02        -0.67110E-03         0.00000E+00
    0.11776E-02        -0.72392E-03         0.00000E+00
    0.12445E-02        -0.77941E-03         0.00000E+00
    0.13146E-02        -0.83777E-03         0.00000E+00
    0.13880E-02        -0.89923E-03         0.00000E+00
    0.14651E-02        -0.96403E-03         0.00000E+00
    0.15460E-02        -0.10324E-02         0.00000E+00
    0.16310E-02        -0.11046E-02         0.00000E+00
    0.17201E-02        -0.11808E-02         0.00000E+00
    0.18136E-02        -0.12614E-02         0.00000E+00
    0.19118E-02        -0.13467E-02         0.00000E+00
    0.20148E-02        -0.14368E-02         0.00000E+00
    0.21227E-02        -0.15322E-02         0.00000E+00
    0.22360E-02        -0.16332E-02         0.00000E+00
    0.23546E-02        -0.17400E-02         0.00000E+00
    0.24789E-02        -0.18530E-02         0.00000E+00
    0.26090E-02        -0.19726E-02         0.00000E+00
    0.27451E-02        -0.20992E-02         0.00000E+00
    0.28874E-02        -0.22332E-02         0.00000E+00
    0.30361E-02        -0.23749E-02         0.00000E+00
    0.31914E-02        -0.25249E-02         0.00000E+00
    0.33535E-02        -0.26835E-02         0.00000E+00
    0.35225E-02        -0.28512E-02         0.00000E+00
    0.36986E-02        -0.30286E-02         0.00000E+00
    0.38820E-02        -0.32161E-02         0.00000E+00
    0.40728E-02        -0.34142E-02         0.00000E+00
    0.42711E-02        -0.36236E-02         0.00000E+00
    0.44771E-02        -0.38447E-02         0.00000E+00
    0.46909E-02        -0.40782E-02         0.00000E+00
    0.49124E-02        -0.43247E-02         0.00000E+00
    0.51419E-02        -0.45848E-02         0.00000E+00
    0.53792E-02        -0.48593E-02         0.00000E+00
    0.56244E-02        -0.51487E-02         0.00000E+00
    0.58775E-02        -0.54538E-02         0.00000E+00
    0.61384E-02        -0.57754E-02         0.00000E+00
    0.64070E-02        -0.61141E-02         0.00000E+00
    0.66830E-02        -0.64708E-02         0.00000E+00
    0.69663E-02        -0.68463E-02         0.00000E+00
    0.72566E-02        -0.72414E-02         0.00000E+00
    0.75535E-02        -0.76569E-02         0.00000E+00
    0.78567E-02        -0.80937E-02         0.00000E+00
    0.81656E-02        -0.85527E-02         0.00000E+00
    0.84797E-02        -0.90347E-02         0.00000E+00
    0.87982E-02        -0.95408E-02         0.00000E+00
    0.91205E-02        -0.10072E-01         0.00000E+00
    0.94456E-02        -0.10629E-01         0.00000E+00
    0.97724E-02        -0.11213E-01         0.00000E+00
    0.10100E-01        -0.11825E-01         0.00000E+00
    0.10427E-01        -0.12465E-01         0.00000E+00
    0.10751E-01        -0.13136E-01         0.00000E+00
    0.11072E-01        -0.13837E-01         0.00000E+00
    0.11387E-01        -0.14571E-01         0.00000E+00
    0.11695E-01        -0.15337E-01         0.00000E+00
    0.11992E-01        -0.16138E-01         0.00000E+00
    0.12277E-01        -0.16974E-01         0.00000E+00
    0.12546E-01        -0.17845E-01         0.00000E+00
    0.12796E-01        -0.18754E-01         0.00000E+00
    0.13025E-01        -0.19701E-01         0.00000E+00
    0.13227E-01        -0.20686E-01         0.00000E+00
    0.13400E-01        -0.21712E-01         0.00000E+00
    0.13537E-01        -0.22777E-01         0.00000E+00
    0.13634E-01        -0.23883E-01         0.00000E+00
    0.13686E-01        -0.25030E-01         0.00000E+00
    0.13686E-01        -0.26218E-01         0.00000E+00
    0.13628E-01        -0.27446E-01         0.00000E+00
    0.13504E-01        -0.28712E-01         0.00000E+00
    0.13306E-01        -0.30014E-01         0.00000E+00
    0.13027E-01        -0.31349E-01         0.00000E+00
    0.12656E-01        -0.32711E-01         0.00000E+00
    0.12186E-01        -0.34094E-01         0.00000E+00
    0.11606E-01        -0.35487E-01         0.00000E+00
    0.10905E-01        -0.36877E-01         0.00000E+00
    0.10075E-01        -0.38249E-01         0.00000E+00
    0.91046E-02        -0.39578E-01         0.00000E+00
    0.79867E-02        -0.40836E-01         0.00000E+00
    0.67141E-02        -0.41988E-01         0.00000E+00
    0.52825E-02        -0.42985E-01         0.00000E+00
    0.36896E-02        -0.43772E-01         0.00000E+00
    0.19322E-02        -0.44283E-01         0.00000E+00
    0.00000E+00        -0.44461E-01         0.00000E+00
    0.00000E+00         0.15179E-04         0.00000E+00
    0.65940E-04         0.11327E-04         0.00000E+00
    0.12859E-03         0.29027E-06         0.00000E+00
    0.18839E-03        -0.16719E-04         0.00000E+00
    0.24560E-03        -0.38394E-04         0.00000E+00
    0.30049E-03        -0.63646E-04         0.00000E+00
    0.35334E-03        -0.91655E-04         0.00000E+00
    0.40450E-03        -0.12182E-03         0.00000E+00
    0.45433E-03        -0.15371E-03         0.00000E+00
    0.50319E-03        -0.18703E-03         0.00000E+00
    0.55147E-03        -0.22161E-03         0.00000E+00
    0.59951E-03        -0.25735E-03         0.00000E+00
    0.64766E-03        -0.29422E-03         0.00000E+00
    0.69625E-03        -0.33226E-03         0.00000E+00
    0.74560E-03        -0.37152E-03         0.00000E+00
    0.79601E-03        -0.41212E-03         0.00000E+00
    0.84776E-03        -0.45419E-03         0.00000E+00
    0.90113E-03        -0.49785E-03         0.00000E+00
    0.95637E-03        -0.54329E-03         0.00000E+00
    0.10137E-02        -0.59068E-03         0.00000E+00
    0.10735E-02        -0.64019E-03         0.00000E+00
    0.11358E-02        -0.69204E-03         0.00000E+00
    0.12009E-02        -0.74641E-03         0.00000E+00
    0.12691E-02        -0.80353E-03         0.00000E+00
    0.13406E-02        -0.86362E-03         0.00000E+00
    0.14155E-02        -0.92690E-03         0.00000E+00
    0.14941E-02        -0.99361E-03         0.00000E+00
    0.15766E-02        -0.10640E-02         0.00000E+00
    0.16632E-02        -0.11383E-02         0.00000E+00
    0.17541E-02        -0.12168E-02         0.00000E+00
    0.18495E-02        -0.12998E-02         0.00000E+00
    0.19497E-02        -0.13876E-02         0.00000E+00
    0.20547E-02        -0.14804E-02         0.00000E+00
    0.21649E-02        -0.15786E-02         0.00000E+00
    0.22804E-02        -0.16825E-02         0.00000E+00
    0.24015E-02        -0.17925E-02         0.00000E+00
    0.25283E-02        -0.19088E-02         0.00000E+00
    0.26611E-02        -0.20320E-02         0.00000E+00
    0.28000E-02        -0.21623E-02         0.00000E+00
    0.29452E-02        -0.23002E-02         0.00000E+00
    0.30971E-02        -0.24460E-02         0.00000E+00
    0.32556E-02        -0.26004E-02         0.00000E+00
    0.34210E-02        -0.27636E-02         0.00000E+00
    0.35936E-02        -0.29362E-02         0.00000E+00
    0.37734E-02        -0.31187E-02         0.00000E+00
    0.39607E-02        -0.33116E-02         0.00000E+00
    0.41555E-02        -0.35155E-02         0.00000E+00
    0.43581E-02        -0.37308E-02         0.00000E+00
    0.45685E-02        -0.39583E-02         0.00000E+00
    0.47868E-02        -0.41986E-02         0.00000E+00
    0.50131E-02        -0.44521E-02         0.00000E+00
    0.52475E-02        -0.47197E-02         0.00000E+00
    0.54900E-02        -0.50020E-02         0.00000E+00
    0.57406E-02        -0.52997E-02         0.00000E+00
    0.59993E-02        -0.56135E-02         0.00000E+00
    0.62659E-02        -0.59441E-02         0.00000E+00
    0.65404E-02        -0.62925E-02         0.00000E+00
    0.68226E-02        -0.66592E-02         0.00000E+00
    0.71122E-02        -0.70453E-02         0.00000E+00
    0.74091E-02        -0.74515E-02         0.00000E+00
    0.77128E-02        -0.78786E-02         0.00000E+00
    0.80229E-02        -0.83276E-02         0.00000E+00
    0.83389E-02        -0.87994E-02         0.00000E+00
    0.86603E-02        -0.92949E-02         0.00000E+00
    0.89864E-02        -0.98151E-02         0.00000E+00
    0.93163E-02        -0.10361E-01         0.00000E+00
    0.96492E-02        -0.10933E-01         0.00000E+00
    0.99840E-02        -0.11533E-01         0.00000E+00
    0.10320E-01        -0.12162E-01         0.00000E+00
    0.10655E-01        -0.12820E-01         0.00000E+00
    0.10987E-01        -0.13509E-01         0.00000E+00
    0.11317E-01        -0.14229E-01         0.00000E+00
    0.11640E-01        -0.14983E-01         0.00000E+00
    0.11956E-01        -0.15770E-01         0.00000E+00
    0.12262E-01        -0.16592E-01         0.00000E+00
    0.12555E-01        -0.17450E-01         0.00000E+00
    0.12832E-01        -0.18345E-01         0.00000E+00
    0.13090E-01        -0.19278E-01         0.00000E+00
    0.13327E-01        -0.20250E-01         0.00000E+00
    0.13537E-01        -0.21261E-01         0.00000E+00
    0.13716E-01        -0.22313E-01         0.00000E+00
    0.13860E-01        -0.23406E-01         0.00000E+00
    0.13963E-01        -0.24541E-01         0.00000E+00
    0.14020E-01        -0.25718E-01         0.00000E+00
    0.14024E-01        -0.26936E-01         0.00000E+00
    0.13968E-01        -0.28195E-01         0.00000E+00
    0.13845E-01        -0.29493E-01         0.00000E+00
    0.13647E-01        -0.30829E-01         0.00000E+00
    0.13365E-01        -0.32198E-01         0.00000E+00
    0.12990E-01        -0.33595E-01         0.00000E+00
    0.12512E-01        -0.35013E-01         0.00000E+00
    0.11920E-01        -0.36442E-01         0.00000E+00
    0.11204E-01        -0.37869E-01         0.00000E+00
    0.10354E-01        -0.39277E-01         0.00000E+00
    0.93594E-02        -0.40643E-01         0.00000E+00
    0.82113E-02        -0.41938E-01         0.00000E+00
    0.69027E-02        -0.43126E-01         0.00000E+00
    0.54292E-02        -0.44157E-01         0.00000E+00
    0.37897E-02        -0.44974E-01         0.00000E+00
    0.19827E-02        -0.45507E-01         0.00000E+00
    0.00000E+00        -0.45694E-01         0.00000E+00
    0.00000E+00         0.14472E-04         0.00000E+00
    0.67385E-04         0.10435E-04         0.00000E+00
    0.13146E-03        -0.10887E-05         0.00000E+00
    0.19263E-03        -0.18755E-04         0.00000E+00
    0.25112E-03        -0.41168E-04         0.00000E+00
    0.30719E-03        -0.67205E-04         0.00000E+00
    0.36112E-03        -0.96032E-04         0.00000E+00
    0.41329E-03        -0.12704E-03         0.00000E+00
    0.46405E-03        -0.15980E-03         0.00000E+00
    0.51380E-03        -0.19403E-03         0.00000E+00
    0.56293E-03        -0.22954E-03         0.00000E+00
    0.61180E-03        -0.26624E-03         0.00000E+00
    0.66077E-03        -0.30411E-03         0.00000E+00
    0.71019E-03        -0.34318E-03         0.00000E+00
    0.76038E-03        -0.38352E-03         0.00000E+00
    0.81165E-03        -0.42524E-03         0.00000E+00
    0.86429E-03        -0.46847E-03         0.00000E+00
    0.91858E-03        -0.51336E-03         0.00000E+00
    0.97479E-03        -0.56007E-03         0.00000E+00
    0.10332E-02        -0.60880E-03         0.00000E+00
    0.10940E-02        -0.65972E-03         0.00000E+00
    0.11574E-02        -0.71304E-03         0.00000E+00
    0.12238E-02        -0.76897E-03         0.00000E+00
    0.12932E-02        -0.82773E-03         0.00000E+00
    0.13660E-02        -0.88954E-03         0.00000E+00
    0.14423E-02        -0.95464E-03         0.00000E+00
    0.15224E-02        -0.10233E-02         0.00000E+00
    0.16065E-02        -0.10957E-02         0.00000E+00
    0.16947E-02        -0.11721E-02         0.00000E+00
    0.17874E-02        -0.12529E-02         0.00000E+00
    0.18846E-02        -0.13383E-02         0.00000E+00
    0.19867E-02        -0.14286E-02         0.00000E+00
    0.20938E-02        -0.15241E-02         0.00000E+00
    0.22061E-02        -0.16251E-02         0.00000E+00
    0.23239E-02        -0.17320E-02         0.00000E+00
    0.24473E-02        -0.18451E-02         0.00000E+00
    0.25766E-02        -0.19648E-02         0.00000E+00
    0.27120E-02        -0.20914E-02         0.00000E+00
    0.28536E-02        -0.22254E-02         0.00000E+00
    0.30018E-02        -0.23672E-02         0.00000E+00
    0.31566E-02        -0.25173E-02         0.00000E+00
    0.33183E-02        -0.26760E-02         0.00000E+00
    0.34871E-02        -0.28438E-02         0.00000E+00
    0.36631E-02        -0.30213E-02         0.00000E+00
    0.38466E-02        -0.32090E-02         0.00000E+00
    0.40377E-02        -0.34073E-02         0.00000E+00
    0.42365E-02        -0.36169E-02         0.00000E+00
    0.44432E-02        -0.38383E-02         0.00000E+00
    0.46579E-02        -0.40722E-02         0.00000E+00
    0.48807E-02        -0.43191E-02         0.00000E+00
    0.51117E-02        -0.45798E-02         0.00000E+00
    0.53510E-02        -0.48548E-02         0.00000E+00
    0.55986E-02        -0.51449E-02         0.00000E+00
    0.58544E-02        -0.54508E-02         0.00000E+00
    0.61186E-02        -0.57733E-02         0.00000E+00
    0.63909E-02        -0.61131E-02         0.00000E+00
    0.66712E-02        -0.64710E-02         0.00000E+00
    0.69595E-02        -0.68479E-02         0.00000E+00
    0.72554E-02        -0.72445E-02         0.00000E+00
    0.75587E-02        -0.76618E-02         0.00000E+00
    0.78691E-02        -0.81006E-02         0.00000E+00
    0.81861E-02        -0.85618E-02         0.00000E+00
    0.85092E-02        -0.90464E-02         0.00000E+00
    0.88379E-02        -0.95554E-02         0.00000E+00
    0.91714E-02        -0.10090E-01         0.00000E+00
    0.95089E-02        -0.10650E-01         0.00000E+00
    0.98495E-02        -0.11238E-01         0.00000E+00
    0.10192E-01        -0.11854E-01         0.00000E+00
    0.10536E-01        -0.12499E-01         0.00000E+00
    0.10879E-01        -0.13175E-01         0.00000E+00
    0.11220E-01        -0.13882E-01         0.00000E+00
    0.11558E-01        -0.14622E-01         0.00000E+00
    0.11890E-01        -0.15395E-01         0.00000E+00
    0.12214E-01        -0.16203E-01         0.00000E+00
    0.12528E-01        -0.17046E-01         0.00000E+00
    0.12829E-01        -0.17927E-01         0.00000E+00
    0.13115E-01        -0.18845E-01         0.00000E+00
    0.13382E-01        -0.19802E-01         0.00000E+00
    0.13626E-01        -0.20798E-01         0.00000E+00
    0.13843E-01        -0.21836E-01         0.00000E+00
    0.14030E-01        -0.22914E-01         0.00000E+00
    0.14180E-01        -0.24035E-01         0.00000E+00
    0.14290E-01        -0.25199E-01         0.00000E+00
    0.14352E-01        -0.26405E-01         0.00000E+00
    0.14360E-01        -0.27654E-01         0.00000E+00
    0.14307E-01        -0.28944E-01         0.00000E+00
    0.14186E-01        -0.30275E-01         0.00000E+00
    0.13989E-01        -0.31643E-01         0.00000E+00
    0.13705E-01        -0.33046E-01         0.00000E+00
    0.13325E-01        -0.34477E-01         0.00000E+00
    0.12839E-01        -0.35931E-01         0.00000E+00
    0.12237E-01        -0.37396E-01         0.00000E+00
    0.11507E-01        -0.38860E-01         0.00000E+00
    0.10638E-01        -0.40304E-01         0.00000E+00
    0.96191E-02        -0.41707E-01         0.00000E+00
    0.84411E-02        -0.43039E-01         0.00000E+00
    0.70964E-02        -0.44262E-01         0.00000E+00
    0.55806E-02        -0.45329E-01         0.00000E+00
    0.38934E-02        -0.46177E-01         0.00000E+00
    0.20352E-02        -0.46734E-01         0.00000E+00
    0.00000E+00        -0.46930E-01         0.00000E+00
    0.00000E+00         0.13787E-04         0.00000E+00
    0.68852E-04         0.95497E-05         0.00000E+00
    0.13437E-03        -0.24863E-05         0.00000E+00
    0.19691E-03        -0.20830E-04         0.00000E+00
    0.25667E-03        -0.43993E-04         0.00000E+00
    0.31389E-03        -0.70821E-04         0.00000E+00
    0.36888E-03        -0.10047E-03         0.00000E+00
    0.42201E-03        -0.13232E-03         0.00000E+00
    0.47368E-03        -0.16596E-03         0.00000E+00
    0.52428E-03        -0.20109E-03         0.00000E+00
    0.57423E-03        -0.23753E-03         0.00000E+00
    0.62389E-03        -0.27519E-03         0.00000E+00
    0.67366E-03        -0.31406E-03         0.00000E+00
    0.72387E-03        -0.35416E-03         0.00000E+00
    0.77486E-03        -0.39557E-03         0.00000E+00
    0.82696E-03        -0.43841E-03         0.00000E+00
    0.88045E-03        -0.48281E-03         0.00000E+00
    0.93564E-03        -0.52892E-03         0.00000E+00
    0.99278E-03        -0.57691E-03         0.00000E+00
    0.10521E-02        -0.62698E-03         0.00000E+00
    0.11140E-02        -0.67931E-03         0.00000E+00
    0.11785E-02        -0.73411E-03         0.00000E+00
    0.12460E-02        -0.79160E-03         0.00000E+00
    0.13167E-02        -0.85200E-03         0.00000E+00
    0.13907E-02        -0.91554E-03         0.00000E+00
    0.14684E-02        -0.98246E-03         0.00000E+00
    0.15500E-02        -0.10530E-02         0.00000E+00
    0.16355E-02        -0.11274E-02         0.00000E+00
    0.17254E-02        -0.12061E-02         0.00000E+00
    0.18197E-02        -0.12891E-02         0.00000E+00
    0.19188E-02        -0.13769E-02         0.00000E+00
    0.20227E-02        -0.14697E-02         0.00000E+00
    0.21318E-02        -0.15678E-02         0.00000E+00
    0.22462E-02        -0.16717E-02         0.00000E+00
    0.23662E-02        -0.17815E-02         0.00000E+00
    0.24920E-02        -0.18978E-02         0.00000E+00
    0.26237E-02        -0.20208E-02         0.00000E+00
    0.27616E-02        -0.21510E-02         0.00000E+00
    0.29060E-02        -0.22887E-02         0.00000E+00
    0.30570E-02        -0.24345E-02         0.00000E+00
    0.32148E-02        -0.25886E-02         0.00000E+00
    0.33796E-02        -0.27517E-02         0.00000E+00
    0.35516E-02        -0.29242E-02         0.00000E+00
    0.37311E-02        -0.31066E-02         0.00000E+00
    0.39181E-02        -0.32994E-02         0.00000E+00
    0.41129E-02        -0.35032E-02         0.00000E+00
    0.43156E-02        -0.37185E-02         0.00000E+00
    0.45264E-02        -0.39460E-02         0.00000E+00
    0.47453E-02        -0.41862E-02         0.00000E+00
    0.49726E-02        -0.44399E-02         0.00000E+00
    0.52082E-02        -0.47076E-02         0.00000E+00
    0.54523E-02        -0.49901E-02         0.00000E+00
    0.57049E-02        -0.52880E-02         0.00000E+00
    0.59659E-02        -0.56022E-02         0.00000E+00
    0.62354E-02        -0.59334E-02         0.00000E+00
    0.65133E-02        -0.62823E-02         0.00000E+00
    0.67994E-02        -0.66498E-02         0.00000E+00
    0.70937E-02        -0.70368E-02         0.00000E+00
    0.73958E-02        -0.74440E-02         0.00000E+00
    0.77055E-02        -0.78724E-02         0.00000E+00
    0.80225E-02        -0.83228E-02         0.00000E+00
    0.83463E-02        -0.87963E-02         0.00000E+00
    0.86764E-02        -0.92937E-02         0.00000E+00
    0.90123E-02        -0.98160E-02         0.00000E+00
    0.93531E-02        -0.10364E-01         0.00000E+00
    0.96982E-02        -0.10939E-01         0.00000E+00
    0.10047E-01        -0.11543E-01         0.00000E+00
    0.10397E-01        -0.12175E-01         0.00000E+00
    0.10749E-01        -0.12837E-01         0.00000E+00
    0.11100E-01        -0.13530E-01         0.00000E+00
    0.11450E-01        -0.14255E-01         0.00000E+00
    0.11795E-01        -0.15014E-01         0.00000E+00
    0.12136E-01        -0.15807E-01         0.00000E+00
    0.12469E-01        -0.16636E-01         0.00000E+00
    0.12791E-01        -0.17501E-01         0.00000E+00
    0.13101E-01        -0.18403E-01         0.00000E+00
    0.13395E-01        -0.19344E-01         0.00000E+00
    0.13670E-01        -0.20325E-01         0.00000E+00
    0.13922E-01        -0.21347E-01         0.00000E+00
    0.14147E-01        -0.22410E-01         0.00000E+00
    0.14341E-01        -0.23516E-01         0.00000E+00
    0.14499E-01        -0.24664E-01         0.00000E+00
    0.14614E-01        -0.25856E-01         0.00000E+00
    0.14682E-01        -0.27092E-01         0.00000E+00
    0.14695E-01        -0.28371E-01         0.00000E+00
    0.14646E-01        -0.29692E-01         0.00000E+00
    0.14528E-01        -0.31055E-01         0.00000E+00
    0.14330E-01        -0.32456E-01         0.00000E+00
    0.14045E-01        -0.33893E-01         0.00000E+00
    0.13662E-01        -0.35359E-01         0.00000E+00
    0.13170E-01        -0.36848E-01         0.00000E+00
    0.12558E-01        -0.38349E-01         0.00000E+00
    0.11814E-01        -0.39849E-01         0.00000E+00
    0.10926E-01        -0.41330E-01         0.00000E+00
    0.98841E-02        -0.42770E-01         0.00000E+00
    0.86767E-02        -0.44139E-01         0.00000E+00
    0.72960E-02        -0.45399E-01         0.00000E+00
    0.57374E-02        -0.46501E-01         0.00000E+00
    0.40011E-02        -0.47381E-01         0.00000E+00
    0.20898E-02        -0.47963E-01         0.00000E+00
    0.00000E+00        -0.48168E-01         0.00000E+00
    0.00000E+00         0.13129E-04         0.00000E+00
    0.70346E-04         0.86767E-05         0.00000E+00
    0.13733E-03        -0.39008E-05         0.00000E+00
    0.20125E-03        -0.22942E-04         0.00000E+00
    0.26226E-03        -0.46867E-04         0.00000E+00
    0.32061E-03        -0.74490E-04         0.00000E+00
    0.37662E-03        -0.10496E-03         0.00000E+00
    0.43069E-03        -0.13766E-03         0.00000E+00
    0.48322E-03        -0.17217E-03         0.00000E+00
    0.53464E-03        -0.20820E-03         0.00000E+00
    0.58536E-03        -0.24557E-03         0.00000E+00
    0.63579E-03        -0.28419E-03         0.00000E+00
    0.68630E-03        -0.32405E-03         0.00000E+00
    0.73727E-03        -0.36519E-03         0.00000E+00
    0.78903E-03        -0.40768E-03         0.00000E+00
    0.84192E-03        -0.45164E-03         0.00000E+00
    0.89624E-03        -0.49720E-03         0.00000E+00
    0.95228E-03        -0.54453E-03         0.00000E+00
    0.10103E-02        -0.59381E-03         0.00000E+00
    0.10706E-02        -0.64521E-03         0.00000E+00
    0.11335E-02        -0.69895E-03         0.00000E+00
    0.11991E-02        -0.75524E-03         0.00000E+00
    0.12677E-02        -0.81428E-03         0.00000E+00
    0.13395E-02        -0.87632E-03         0.00000E+00
    0.14149E-02        -0.94159E-03         0.00000E+00
    0.14939E-02        -0.10103E-02         0.00000E+00
    0.15768E-02        -0.10828E-02         0.00000E+00
    0.16639E-02        -0.11593E-02         0.00000E+00
    0.17553E-02        -0.12400E-02         0.00000E+00
    0.18513E-02        -0.13253E-02         0.00000E+00
    0.19520E-02        -0.14155E-02         0.00000E+00
    0.20578E-02        -0.15108E-02         0.00000E+00
    0.21689E-02        -0.16117E-02         0.00000E+00
    0.22853E-02        -0.17183E-02         0.00000E+00
    0.24075E-02        -0.18312E-02         0.00000E+00
    0.25355E-02        -0.19506E-02         0.00000E+00
    0.26696E-02        -0.20770E-02         0.00000E+00
    0.28101E-02        -0.22107E-02         0.00000E+00
    0.29571E-02        -0.23521E-02         0.00000E+00
    0.31108E-02        -0.25018E-02         0.00000E+00
    0.32715E-02        -0.26601E-02         0.00000E+00
    0.34394E-02        -0.28276E-02         0.00000E+00
    0.36146E-02        -0.30047E-02         0.00000E+00
    0.37974E-02        -0.31920E-02         0.00000E+00
    0.39879E-02        -0.33899E-02         0.00000E+00
    0.41864E-02        -0.35992E-02         0.00000E+00
    0.43929E-02        -0.38202E-02         0.00000E+00
    0.46077E-02        -0.40538E-02         0.00000E+00
    0.48308E-02        -0.43004E-02         0.00000E+00
    0.50624E-02        -0.45608E-02         0.00000E+00
    0.53026E-02        -0.48356E-02         0.00000E+00
    0.55514E-02        -0.51255E-02         0.00000E+00
    0.58088E-02        -0.54313E-02         0.00000E+00
    0.60750E-02        -0.57538E-02         0.00000E+00
    0.63498E-02        -0.60936E-02         0.00000E+00
    0.66332E-02        -0.64517E-02         0.00000E+00
    0.69250E-02        -0.68288E-02         0.00000E+00
    0.72252E-02        -0.72258E-02         0.00000E+00
    0.75335E-02        -0.76436E-02         0.00000E+00
    0.78495E-02        -0.80831E-02         0.00000E+00
    0.81730E-02        -0.85452E-02         0.00000E+00
    0.85035E-02        -0.90309E-02         0.00000E+00
    0.88406E-02        -0.95411E-02         0.00000E+00
    0.91835E-02        -0.10077E-01         0.00000E+00
    0.95317E-02        -0.10639E-01         0.00000E+00
    0.98843E-02        -0.11229E-01         0.00000E+00
    0.10240E-01        -0.11847E-01         0.00000E+00
    0.10599E-01        -0.12496E-01         0.00000E+00
    0.10958E-01        -0.13175E-01         0.00000E+00
    0.11318E-01        -0.13885E-01         0.00000E+00
    0.11676E-01        -0.14629E-01         0.00000E+00
    0.12030E-01        -0.15407E-01         0.00000E+00
    0.12379E-01        -0.16219E-01         0.00000E+00
    0.12720E-01        -0.17069E-01         0.00000E+00
    0.13051E-01        -0.17955E-01         0.00000E+00
    0.13369E-01        -0.18880E-01         0.00000E+00
    0.13672E-01        -0.19844E-01         0.00000E+00
    0.13955E-01        -0.20849E-01         0.00000E+00
    0.14215E-01        -0.21896E-01         0.00000E+00
    0.14449E-01        -0.22985E-01         0.00000E+00
    0.14650E-01        -0.24117E-01         0.00000E+00
    0.14815E-01        -0.25293E-01         0.00000E+00
    0.14937E-01        -0.26513E-01         0.00000E+00
    0.15011E-01        -0.27778E-01         0.00000E+00
    0.15029E-01        -0.29088E-01         0.00000E+00
    0.14985E-01        -0.30440E-01         0.00000E+00
    0.14869E-01        -0.31835E-01         0.00000E+00
    0.14673E-01        -0.33269E-01         0.00000E+00
    0.14387E-01        -0.34739E-01         0.00000E+00
    0.14001E-01        -0.36240E-01         0.00000E+00
    0.13503E-01        -0.37764E-01         0.00000E+00
    0.12882E-01        -0.39300E-01         0.00000E+00
    0.12125E-01        -0.40836E-01         0.00000E+00
    0.11220E-01        -0.42354E-01         0.00000E+00
    0.10155E-01        -0.43831E-01         0.00000E+00
    0.89185E-02        -0.45237E-01         0.00000E+00
    0.75020E-02        -0.46534E-01         0.00000E+00
    0.59001E-02        -0.47672E-01         0.00000E+00
    0.41136E-02        -0.48586E-01         0.00000E+00
    0.21470E-02        -0.49194E-01         0.00000E+00
    0.00000E+00        -0.49409E-01         0.00000E+00
    0.00000E+00         0.12506E-04         0.00000E+00
    0.71876E-04         0.78194E-05         0.00000E+00
    0.14035E-03        -0.53309E-05         0.00000E+00
    0.20564E-03        -0.25090E-04         0.00000E+00
    0.26790E-03        -0.49785E-04         0.00000E+00
    0.32735E-03        -0.78209E-04         0.00000E+00
    0.38435E-03        -0.10950E-03         0.00000E+00
    0.43931E-03        -0.14305E-03         0.00000E+00
    0.49267E-03        -0.17844E-03         0.00000E+00
    0.54487E-03        -0.21536E-03         0.00000E+00
    0.59633E-03        -0.25366E-03         0.00000E+00
    0.64748E-03        -0.29324E-03         0.00000E+00
    0.69871E-03        -0.33410E-03         0.00000E+00
    0.75040E-03        -0.37627E-03         0.00000E+00
    0.80290E-03        -0.41983E-03         0.00000E+00
    0.85654E-03        -0.46491E-03         0.00000E+00
    0.91165E-03        -0.51164E-03         0.00000E+00
    0.96852E-03        -0.56019E-03         0.00000E+00
    0.10274E-02        -0.61075E-03         0.00000E+00
    0.10887E-02        -0.66350E-03         0.00000E+00
    0.11525E-02        -0.71865E-03         0.00000E+00
    0.12191E-02        -0.77641E-03         0.00000E+00
    0.12888E-02        -0.83702E-03         0.00000E+00
    0.13618E-02        -0.90070E-03         0.00000E+00
    0.14383E-02        -0.96770E-03         0.00000E+00
    0.15186E-02        -0.10383E-02         0.00000E+00
    0.16029E-02        -0.11127E-02         0.00000E+00
    0.16914E-02        -0.11912E-02         0.00000E+00
    0.17843E-02        -0.12741E-02         0.00000E+00
    0.18819E-02        -0.13617E-02         0.00000E+00
    0.19844E-02        -0.14542E-02         0.00000E+00
    0.20920E-02        -0.15521E-02         0.00000E+00
    0.22049E-02        -0.16556E-02         0.00000E+00
    0.23234E-02        -0.17651E-02         0.00000E+00
    0.24476E-02        -0.18810E-02         0.00000E+00
    0.25779E-02        -0.20035E-02         0.00000E+00
    0.27143E-02        -0.21332E-02         0.00000E+00
    0.28572E-02        -0.22704E-02         0.00000E+00
    0.30068E-02        -0.24156E-02         0.00000E+00
    0.31632E-02        -0.25692E-02         0.00000E+00
    0.33268E-02        -0.27317E-02         0.00000E+00
    0.34976E-02        -0.29036E-02         0.00000E+00
    0.36760E-02        -0.30853E-02         0.00000E+00
    0.38620E-02        -0.32775E-02         0.00000E+00
    0.40560E-02        -0.34806E-02         0.00000E+00
    0.42580E-02        -0.36953E-02         0.00000E+00
    0.44683E-02        -0.39221E-02         0.00000E+00
    0.46870E-02        -0.41617E-02         0.00000E+00
    0.49142E-02        -0.44147E-02         0.00000E+00
    0.51501E-02        -0.46818E-02         0.00000E+00
    0.53947E-02        -0.49637E-02         0.00000E+00
    0.56482E-02        -0.52611E-02         0.00000E+00
    0.59105E-02        -0.55748E-02         0.00000E+00
    0.61817E-02        -0.59055E-02         0.00000E+00
    0.64617E-02        -0.62540E-02         0.00000E+00
    0.67505E-02        -0.66212E-02         0.00000E+00
    0.70480E-02        -0.70080E-02         0.00000E+00
    0.73540E-02        -0.74151E-02         0.00000E+00
    0.76683E-02        -0.78435E-02         0.00000E+00
    0.79906E-02        -0.82941E-02         0.00000E+00
    0.83205E-02        -0.87678E-02         0.00000E+00
    0.86577E-02        -0.92658E-02         0.00000E+00
    0.90016E-02        -0.97888E-02         0.00000E+00
    0.93516E-02        -0.10338E-01         0.00000E+00
    0.97070E-02        -0.10914E-01         0.00000E+00
    0.10067E-01        -0.11519E-01         0.00000E+00
    0.10431E-01        -0.12153E-01         0.00000E+00
    0.10797E-01        -0.12817E-01         0.00000E+00
    0.11165E-01        -0.13512E-01         0.00000E+00
    0.11532E-01        -0.14241E-01         0.00000E+00
    0.11898E-01        -0.15003E-01         0.00000E+00
    0.12261E-01        -0.15799E-01         0.00000E+00
    0.12618E-01        -0.16632E-01         0.00000E+00
    0.12968E-01        -0.17502E-01         0.00000E+00
    0.13307E-01        -0.18409E-01         0.00000E+00
    0.13634E-01        -0.19357E-01         0.00000E+00
    0.13945E-01        -0.20344E-01         0.00000E+00
    0.14237E-01        -0.21373E-01         0.00000E+00
    0.14506E-01        -0.22444E-01         0.00000E+00
    0.14747E-01        -0.23559E-01         0.00000E+00
    0.14957E-01        -0.24718E-01         0.00000E+00
    0.15129E-01        -0.25921E-01         0.00000E+00
    0.15259E-01        -0.27170E-01         0.00000E+00
    0.15339E-01        -0.28465E-01         0.00000E+00
    0.15363E-01        -0.29804E-01         0.00000E+00
    0.15323E-01        -0.31188E-01         0.00000E+00
    0.15210E-01        -0.32614E-01         0.00000E+00
    0.15016E-01        -0.34081E-01         0.00000E+00
    0.14730E-01        -0.35585E-01         0.00000E+00
    0.14342E-01        -0.37120E-01         0.00000E+00
    0.13839E-01        -0.38678E-01         0.00000E+00
    0.13210E-01        -0.40251E-01         0.00000E+00
    0.12441E-01        -0.41823E-01         0.00000E+00
    0.11519E-01        -0.43378E-01         0.00000E+00
    0.10432E-01        -0.44892E-01         0.00000E+00
    0.91672E-02        -0.46335E-01         0.00000E+00
    0.77151E-02        -0.47668E-01         0.00000E+00
    0.60696E-02        -0.48843E-01         0.00000E+00
    0.42314E-02        -0.49791E-01         0.00000E+00
    0.22071E-02        -0.50427E-01         0.00000E+00
    0.00000E+00        -0.50654E-01         0.00000E+00
    0.00000E+00         0.11923E-04         0.00000E+00
    0.73452E-04         0.69810E-05         0.00000E+00
    0.14344E-03        -0.67761E-05         0.00000E+00
    0.21012E-03        -0.27272E-04         0.00000E+00
    0.27360E-03        -0.52746E-04         0.00000E+00
    0.33412E-03        -0.81973E-04         0.00000E+00
    0.39208E-03        -0.11409E-03         0.00000E+00
    0.44790E-03        -0.14849E-03         0.00000E+00
    0.50204E-03        -0.18475E-03         0.00000E+00
    0.55497E-03        -0.22257E-03         0.00000E+00
    0.60714E-03        -0.26180E-03         0.00000E+00
    0.65897E-03        -0.30234E-03         0.00000E+00
    0.71088E-03        -0.34419E-03         0.00000E+00
    0.76325E-03        -0.38739E-03         0.00000E+00
    0.81645E-03        -0.43202E-03         0.00000E+00
    0.87082E-03        -0.47822E-03         0.00000E+00
    0.92668E-03        -0.52612E-03         0.00000E+00
    0.98433E-03        -0.57590E-03         0.00000E+00
    0.10441E-02        -0.62773E-03         0.00000E+00
    0.11062E-02        -0.68182E-03         0.00000E+00
    0.11709E-02        -0.73838E-03         0.00000E+00
    0.12385E-02        -0.79763E-03         0.00000E+00
    0.13093E-02        -0.85980E-03         0.00000E+00
    0.13834E-02        -0.92513E-03         0.00000E+00
    0.14611E-02        -0.99387E-03         0.00000E+00
    0.15426E-02        -0.10663E-02         0.00000E+00
    0.16282E-02        -0.11426E-02         0.00000E+00
    0.17182E-02        -0.12231E-02         0.00000E+00
    0.18126E-02        -0.13082E-02         0.00000E+00
    0.19117E-02        -0.13980E-02         0.00000E+00
    0.20159E-02        -0.14930E-02         0.00000E+00
    0.21252E-02        -0.15934E-02         0.00000E+00
    0.22400E-02        -0.16996E-02         0.00000E+00
    0.23604E-02        -0.18119E-02         0.00000E+00
    0.24867E-02        -0.19308E-02         0.00000E+00
    0.26191E-02        -0.20565E-02         0.00000E+00
    0.27578E-02        -0.21896E-02         0.00000E+00
    0.29031E-02        -0.23303E-02         0.00000E+00
    0.30552E-02        -0.24792E-02         0.00000E+00
    0.32143E-02        -0.26368E-02         0.00000E+00
    0.33806E-02        -0.28034E-02         0.00000E+00
    0.35544E-02        -0.29797E-02         0.00000E+00
    0.37358E-02        -0.31661E-02         0.00000E+00
    0.39251E-02        -0.33631E-02         0.00000E+00
    0.41224E-02        -0.35714E-02         0.00000E+00
    0.43279E-02        -0.37915E-02         0.00000E+00
    0.45419E-02        -0.40241E-02         0.00000E+00
    0.47644E-02        -0.42698E-02         0.00000E+00
    0.49957E-02        -0.45292E-02         0.00000E+00
    0.52358E-02        -0.48030E-02         0.00000E+00
    0.54848E-02        -0.50920E-02         0.00000E+00
    0.57428E-02        -0.53969E-02         0.00000E+00
    0.60098E-02        -0.57184E-02         0.00000E+00
    0.62860E-02        -0.60574E-02         0.00000E+00
    0.65711E-02        -0.64146E-02         0.00000E+00
    0.68653E-02        -0.67909E-02         0.00000E+00
    0.71683E-02        -0.71873E-02         0.00000E+00
    0.74801E-02        -0.76045E-02         0.00000E+00
    0.78003E-02        -0.80435E-02         0.00000E+00
    0.81288E-02        -0.85052E-02         0.00000E+00
    0.84651E-02        -0.89906E-02         0.00000E+00
    0.88088E-02        -0.95008E-02         0.00000E+00
    0.91595E-02        -0.10037E-01         0.00000E+00
    0.95165E-02        -0.10599E-01         0.00000E+00
    0.98791E-02        -0.11190E-01         0.00000E+00
    0.10247E-01        -0.11809E-01         0.00000E+00
    0.10618E-01        -0.12458E-01         0.00000E+00
    0.10992E-01        -0.13138E-01         0.00000E+00
    0.11367E-01        -0.13851E-01         0.00000E+00
    0.11743E-01        -0.14596E-01         0.00000E+00
    0.12117E-01        -0.15376E-01         0.00000E+00
    0.12488E-01        -0.16192E-01         0.00000E+00
    0.12854E-01        -0.17044E-01         0.00000E+00
    0.13212E-01        -0.17935E-01         0.00000E+00
    0.13561E-01        -0.18864E-01         0.00000E+00
    0.13896E-01        -0.19833E-01         0.00000E+00
    0.14216E-01        -0.20844E-01         0.00000E+00
    0.14516E-01        -0.21897E-01         0.00000E+00
    0.14794E-01        -0.22993E-01         0.00000E+00
    0.15043E-01        -0.24133E-01         0.00000E+00
    0.15261E-01        -0.25319E-01         0.00000E+00
    0.15441E-01        -0.26550E-01         0.00000E+00
    0.15578E-01        -0.27827E-01         0.00000E+00
    0.15665E-01        -0.29150E-01         0.00000E+00
    0.15695E-01        -0.30520E-01         0.00000E+00
    0.15660E-01        -0.31935E-01         0.00000E+00
    0.15552E-01        -0.33393E-01         0.00000E+00
    0.15360E-01        -0.34893E-01         0.00000E+00
    0.15075E-01        -0.36430E-01         0.00000E+00
    0.14686E-01        -0.37999E-01         0.00000E+00
    0.14179E-01        -0.39593E-01         0.00000E+00
    0.13542E-01        -0.41200E-01         0.00000E+00
    0.12762E-01        -0.42809E-01         0.00000E+00
    0.11824E-01        -0.44400E-01         0.00000E+00
    0.10716E-01        -0.45951E-01         0.00000E+00
    0.94234E-02        -0.47431E-01         0.00000E+00
    0.79360E-02        -0.48802E-01         0.00000E+00
    0.62467E-02        -0.50013E-01         0.00000E+00
    0.43554E-02        -0.50997E-01         0.00000E+00
    0.22707E-02        -0.51662E-01         0.00000E+00
    0.00000E+00        -0.51902E-01         0.00000E+00
    0.00000E+00         0.11388E-04         0.00000E+00
    0.75084E-04         0.61638E-05         0.00000E+00
    0.14663E-03        -0.82364E-05         0.00000E+00
    0.21469E-03        -0.29486E-04         0.00000E+00
    0.27937E-03        -0.55745E-04         0.00000E+00
    0.34093E-03        -0.85780E-04         0.00000E+00
    0.39980E-03        -0.11873E-03         0.00000E+00
    0.45644E-03        -0.15398E-03         0.00000E+00
    0.51134E-03        -0.19110E-03         0.00000E+00
    0.56496E-03        -0.22982E-03         0.00000E+00
    0.61779E-03        -0.26997E-03         0.00000E+00
    0.67026E-03        -0.31147E-03         0.00000E+00
    0.72281E-03        -0.35432E-03         0.00000E+00
    0.77583E-03        -0.39855E-03         0.00000E+00
    0.82969E-03        -0.44426E-03         0.00000E+00
    0.88474E-03        -0.49157E-03         0.00000E+00
    0.94132E-03        -0.54064E-03         0.00000E+00
    0.99974E-03        -0.59164E-03         0.00000E+00
    0.10603E-02        -0.64475E-03         0.00000E+00
    0.11232E-02        -0.70019E-03         0.00000E+00
    0.11889E-02        -0.75816E-03         0.00000E+00
    0.12574E-02        -0.81890E-03         0.00000E+00
    0.13292E-02        -0.88263E-03         0.00000E+00
    0.14044E-02        -0.94961E-03         0.00000E+00
    0.14832E-02        -0.10201E-02         0.00000E+00
    0.15660E-02        -0.10943E-02         0.00000E+00
    0.16529E-02        -0.11726E-02         0.00000E+00
    0.17441E-02        -0.12552E-02         0.00000E+00
    0.18400E-02        -0.13424E-02         0.00000E+00
    0.19407E-02        -0.14345E-02         0.00000E+00
    0.20464E-02        -0.15319E-02         0.00000E+00
    0.21575E-02        -0.16348E-02         0.00000E+00
    0.22740E-02        -0.17437E-02         0.00000E+00
    0.23963E-02        -0.18588E-02         0.00000E+00
    0.25246E-02        -0.19807E-02         0.00000E+00
    0.26592E-02        -0.21096E-02         0.00000E+00
    0.28001E-02        -0.22460E-02         0.00000E+00
    0.29477E-02        -0.23903E-02         0.00000E+00
    0.31023E-02        -0.25429E-02         0.00000E+00
    0.32640E-02        -0.27044E-02         0.00000E+00
    0.34330E-02        -0.28752E-02         0.00000E+00
    0.36096E-02        -0.30559E-02         0.00000E+00
    0.37940E-02        -0.32469E-02         0.00000E+00
    0.39864E-02        -0.34489E-02         0.00000E+00
    0.41870E-02        -0.36623E-02         0.00000E+00
    0.43960E-02        -0.38879E-02         0.00000E+00
    0.46136E-02        -0.41262E-02         0.00000E+00
    0.48399E-02        -0.43780E-02         0.00000E+00
    0.50751E-02        -0.46437E-02         0.00000E+00
    0.53193E-02        -0.49243E-02         0.00000E+00
    0.55726E-02        -0.52204E-02         0.00000E+00
    0.58351E-02        -0.55327E-02         0.00000E+00
    0.61068E-02        -0.58621E-02         0.00000E+00
    0.63878E-02        -0.62094E-02         0.00000E+00
    0.66780E-02        -0.65753E-02         0.00000E+00
    0.69775E-02        -0.69608E-02         0.00000E+00
    0.72860E-02        -0.73667E-02         0.00000E+00
    0.76034E-02        -0.77940E-02         0.00000E+00
    0.79295E-02        -0.82436E-02         0.00000E+00
    0.82640E-02        -0.87165E-02         0.00000E+00
    0.86066E-02        -0.92136E-02         0.00000E+00
    0.89569E-02        -0.97359E-02         0.00000E+00
    0.93143E-02        -0.10285E-01         0.00000E+00
    0.96782E-02        -0.10861E-01         0.00000E+00
    0.10048E-01        -0.11465E-01         0.00000E+00
    0.10423E-01        -0.12099E-01         0.00000E+00
    0.10801E-01        -0.12763E-01         0.00000E+00
    0.11183E-01        -0.13460E-01         0.00000E+00
    0.11567E-01        -0.14189E-01         0.00000E+00
    0.11950E-01        -0.14952E-01         0.00000E+00
    0.12333E-01        -0.15750E-01         0.00000E+00
    0.12712E-01        -0.16585E-01         0.00000E+00
    0.13086E-01        -0.17457E-01         0.00000E+00
    0.13453E-01        -0.18368E-01         0.00000E+00
    0.13810E-01        -0.19319E-01         0.00000E+00
    0.14155E-01        -0.20310E-01         0.00000E+00
    0.14483E-01        -0.21344E-01         0.00000E+00
    0.14793E-01        -0.22421E-01         0.00000E+00
    0.15079E-01        -0.23542E-01         0.00000E+00
    0.15337E-01        -0.24708E-01         0.00000E+00
    0.15563E-01        -0.25919E-01         0.00000E+00
    0.15751E-01        -0.27178E-01         0.00000E+00
    0.15896E-01        -0.28483E-01         0.00000E+00
    0.15990E-01        -0.29836E-01         0.00000E+00
    0.16027E-01        -0.31236E-01         0.00000E+00
    0.15998E-01        -0.32681E-01         0.00000E+00
    0.15894E-01        -0.34172E-01         0.00000E+00
    0.15706E-01        -0.35704E-01         0.00000E+00
    0.15422E-01        -0.37274E-01         0.00000E+00
    0.15032E-01        -0.38877E-01         0.00000E+00
    0.14522E-01        -0.40506E-01         0.00000E+00
    0.13879E-01        -0.42149E-01         0.00000E+00
    0.13088E-01        -0.43794E-01         0.00000E+00
    0.12136E-01        -0.45421E-01         0.00000E+00
    0.11007E-01        -0.47009E-01         0.00000E+00
    0.96877E-02        -0.48527E-01         0.00000E+00
    0.81655E-02        -0.49935E-01         0.00000E+00
    0.64321E-02        -0.51183E-01         0.00000E+00
    0.44864E-02        -0.52203E-01         0.00000E+00
    0.23384E-02        -0.52899E-01         0.00000E+00
    0.00000E+00        -0.53153E-01         0.00000E+00
    0.00000E+00         0.10908E-04         0.00000E+00
    0.76787E-04         0.53693E-05         0.00000E+00
    0.14992E-03        -0.97124E-05         0.00000E+00
    0.21938E-03        -0.31731E-04         0.00000E+00
    0.28523E-03        -0.58781E-04         0.00000E+00
    0.34780E-03        -0.89625E-04         0.00000E+00
    0.40755E-03        -0.12340E-03         0.00000E+00
    0.46496E-03        -0.15950E-03         0.00000E+00
    0.52055E-03        -0.19749E-03         0.00000E+00
    0.57483E-03        -0.23711E-03         0.00000E+00
    0.62828E-03        -0.27819E-03         0.00000E+00
    0.68136E-03        -0.32065E-03         0.00000E+00
    0.73451E-03        -0.36448E-03         0.00000E+00
    0.78813E-03        -0.40974E-03         0.00000E+00
    0.84262E-03        -0.45652E-03         0.00000E+00
    0.89832E-03        -0.50495E-03         0.00000E+00
    0.95558E-03        -0.55519E-03         0.00000E+00
    0.10147E-02        -0.60741E-03         0.00000E+00
    0.10760E-02        -0.66181E-03         0.00000E+00
    0.11398E-02        -0.71859E-03         0.00000E+00
    0.12063E-02        -0.77798E-03         0.00000E+00
    0.12758E-02        -0.84020E-03         0.00000E+00
    0.13485E-02        -0.90550E-03         0.00000E+00
    0.14247E-02        -0.97412E-03         0.00000E+00
    0.15047E-02        -0.10463E-02         0.00000E+00
    0.15886E-02        -0.11224E-02         0.00000E+00
    0.16767E-02        -0.12026E-02         0.00000E+00
    0.17693E-02        -0.12872E-02         0.00000E+00
    0.18666E-02        -0.13766E-02         0.00000E+00
    0.19687E-02        -0.14710E-02         0.00000E+00
    0.20761E-02        -0.15708E-02         0.00000E+00
    0.21888E-02        -0.16762E-02         0.00000E+00
    0.23071E-02        -0.17878E-02         0.00000E+00
    0.24312E-02        -0.19058E-02         0.00000E+00
    0.25615E-02        -0.20306E-02         0.00000E+00
    0.26980E-02        -0.21627E-02         0.00000E+00
    0.28412E-02        -0.23024E-02         0.00000E+00
    0.29911E-02        -0.24503E-02         0.00000E+00
    0.31480E-02        -0.26067E-02         0.00000E+00
    0.33122E-02        -0.27721E-02         0.00000E+00
    0.34839E-02        -0.29471E-02         0.00000E+00
    0.36633E-02        -0.31322E-02         0.00000E+00
    0.38506E-02        -0.33278E-02         0.00000E+00
    0.40461E-02        -0.35347E-02         0.00000E+00
    0.42500E-02        -0.37533E-02         0.00000E+00
    0.44623E-02        -0.39844E-02         0.00000E+00
    0.46834E-02        -0.42285E-02         0.00000E+00
    0.49134E-02        -0.44862E-02         0.00000E+00
    0.51525E-02        -0.47584E-02         0.00000E+00
    0.54007E-02        -0.50457E-02         0.00000E+00
    0.56582E-02        -0.53489E-02         0.00000E+00
    0.59251E-02        -0.56687E-02         0.00000E+00
    0.62014E-02        -0.60060E-02         0.00000E+00
    0.64872E-02        -0.63615E-02         0.00000E+00
    0.67824E-02        -0.67361E-02         0.00000E+00
    0.70870E-02        -0.71308E-02         0.00000E+00
    0.74009E-02        -0.75463E-02         0.00000E+00
    0.77239E-02        -0.79837E-02         0.00000E+00
    0.80558E-02        -0.84439E-02         0.00000E+00
    0.83964E-02        -0.89279E-02         0.00000E+00
    0.87452E-02        -0.94366E-02         0.00000E+00
    0.91019E-02        -0.99712E-02         0.00000E+00
    0.94660E-02        -0.10533E-01         0.00000E+00
    0.98367E-02        -0.11122E-01         0.00000E+00
    0.10214E-01        -0.11740E-01         0.00000E+00
    0.10596E-01        -0.12389E-01         0.00000E+00
    0.10982E-01        -0.13069E-01         0.00000E+00
    0.11371E-01        -0.13781E-01         0.00000E+00
    0.11763E-01        -0.14527E-01         0.00000E+00
    0.12154E-01        -0.15308E-01         0.00000E+00
    0.12545E-01        -0.16124E-01         0.00000E+00
    0.12933E-01        -0.16978E-01         0.00000E+00
    0.13316E-01        -0.17870E-01         0.00000E+00
    0.13691E-01        -0.18801E-01         0.00000E+00
    0.14057E-01        -0.19773E-01         0.00000E+00
    0.14410E-01        -0.20787E-01         0.00000E+00
    0.14748E-01        -0.21844E-01         0.00000E+00
    0.15066E-01        -0.22944E-01         0.00000E+00
    0.15361E-01        -0.24090E-01         0.00000E+00
    0.15628E-01        -0.25282E-01         0.00000E+00
    0.15863E-01        -0.26520E-01         0.00000E+00
    0.16059E-01        -0.27806E-01         0.00000E+00
    0.16212E-01        -0.29140E-01         0.00000E+00
    0.16314E-01        -0.30522E-01         0.00000E+00
    0.16358E-01        -0.31951E-01         0.00000E+00
    0.16335E-01        -0.33428E-01         0.00000E+00
    0.16236E-01        -0.34949E-01         0.00000E+00
    0.16052E-01        -0.36514E-01         0.00000E+00
    0.15771E-01        -0.38118E-01         0.00000E+00
    0.15381E-01        -0.39755E-01         0.00000E+00
    0.14868E-01        -0.41418E-01         0.00000E+00
    0.14220E-01        -0.43097E-01         0.00000E+00
    0.13421E-01        -0.44778E-01         0.00000E+00
    0.12455E-01        -0.46442E-01         0.00000E+00
    0.11306E-01        -0.48066E-01         0.00000E+00
    0.99608E-02        -0.49621E-01         0.00000E+00
    0.84044E-02        -0.51067E-01         0.00000E+00
    0.66269E-02        -0.52352E-01         0.00000E+00
    0.46256E-02        -0.53410E-01         0.00000E+00
    0.24109E-02        -0.54139E-01         0.00000E+00
    0.00000E+00        -0.54408E-01         0.00000E+00
    0.00000E+00         0.10491E-04         0.00000E+00
    0.78580E-04         0.45972E-05         0.00000E+00
    0.15336E-03        -0.11205E-04         0.00000E+00
    0.22420E-03        -0.34003E-04         0.00000E+00
    0.29119E-03        -0.61848E-04         0.00000E+00
    0.35473E-03        -0.93503E-04         0.00000E+00
    0.41530E-03        -0.12811E-03         0.00000E+00
    0.47345E-03        -0.16505E-03         0.00000E+00
    0.52970E-03        -0.20392E-03         0.00000E+00
    0.58459E-03        -0.24443E-03         0.00000E+00
    0.63861E-03        -0.28643E-03         0.00000E+00
    0.69225E-03        -0.32985E-03         0.00000E+00
    0.74596E-03        -0.37467E-03         0.00000E+00
    0.80015E-03        -0.42096E-03         0.00000E+00
    0.85523E-03        -0.46881E-03         0.00000E+00
    0.91155E-03        -0.51837E-03         0.00000E+00
    0.96945E-03        -0.56977E-03         0.00000E+00
    0.10293E-02        -0.62322E-03         0.00000E+00
    0.10913E-02        -0.67890E-03         0.00000E+00
    0.11558E-02        -0.73702E-03         0.00000E+00
    0.12232E-02        -0.79782E-03         0.00000E+00
    0.12935E-02        -0.86153E-03         0.00000E+00
    0.13672E-02        -0.92839E-03         0.00000E+00
    0.14444E-02        -0.99866E-03         0.00000E+00
    0.15254E-02        -0.10726E-02         0.00000E+00
    0.16105E-02        -0.11505E-02         0.00000E+00
    0.16998E-02        -0.12326E-02         0.00000E+00
    0.17937E-02        -0.13193E-02         0.00000E+00
    0.18923E-02        -0.14108E-02         0.00000E+00
    0.19959E-02        -0.15075E-02         0.00000E+00
    0.21048E-02        -0.16097E-02         0.00000E+00
    0.22191E-02        -0.17177E-02         0.00000E+00
    0.23391E-02        -0.18320E-02         0.00000E+00
    0.24650E-02        -0.19528E-02         0.00000E+00
    0.25972E-02        -0.20807E-02         0.00000E+00
    0.27358E-02        -0.22159E-02         0.00000E+00
    0.28810E-02        -0.23590E-02         0.00000E+00
    0.30331E-02        -0.25104E-02         0.00000E+00
    0.31924E-02        -0.26705E-02         0.00000E+00
    0.33591E-02        -0.28399E-02         0.00000E+00
    0.35333E-02        -0.30190E-02         0.00000E+00
    0.37155E-02        -0.32085E-02         0.00000E+00
    0.39057E-02        -0.34088E-02         0.00000E+00
    0.41041E-02        -0.36206E-02         0.00000E+00
    0.43111E-02        -0.38444E-02         0.00000E+00
    0.45268E-02        -0.40809E-02         0.00000E+00
    0.47514E-02        -0.43308E-02         0.00000E+00
    0.49850E-02        -0.45946E-02         0.00000E+00
    0.52278E-02        -0.48732E-02         0.00000E+00
    0.54800E-02        -0.51672E-02         0.00000E+00
    0.57417E-02        -0.54775E-02         0.00000E+00
    0.60129E-02        -0.58048E-02         0.00000E+00
    0.62937E-02        -0.61499E-02         0.00000E+00
    0.65842E-02        -0.65137E-02         0.00000E+00
    0.68843E-02        -0.68971E-02         0.00000E+00
    0.71940E-02        -0.73009E-02         0.00000E+00
    0.75132E-02        -0.77260E-02         0.00000E+00
    0.78417E-02        -0.81735E-02         0.00000E+00
    0.81793E-02        -0.86443E-02         0.00000E+00
    0.85258E-02        -0.91394E-02         0.00000E+00
    0.88807E-02        -0.96598E-02         0.00000E+00
    0.92438E-02        -0.10207E-01         0.00000E+00
    0.96144E-02        -0.10781E-01         0.00000E+00
    0.99920E-02        -0.11384E-01         0.00000E+00
    0.10376E-01        -0.12016E-01         0.00000E+00
    0.10765E-01        -0.12679E-01         0.00000E+00
    0.11159E-01        -0.13375E-01         0.00000E+00
    0.11556E-01        -0.14103E-01         0.00000E+00
    0.11955E-01        -0.14866E-01         0.00000E+00
    0.12355E-01        -0.15664E-01         0.00000E+00
    0.12754E-01        -0.16498E-01         0.00000E+00
    0.13150E-01        -0.17371E-01         0.00000E+00
    0.13541E-01        -0.18283E-01         0.00000E+00
    0.13926E-01        -0.19235E-01         0.00000E+00
    0.14300E-01        -0.20228E-01         0.00000E+00
    0.14662E-01        -0.21264E-01         0.00000E+00
    0.15009E-01        -0.22344E-01         0.00000E+00
    0.15336E-01        -0.23468E-01         0.00000E+00
    0.15640E-01        -0.24639E-01         0.00000E+00
    0.15916E-01        -0.25856E-01         0.00000E+00
    0.16160E-01        -0.27121E-01         0.00000E+00
    0.16365E-01        -0.28434E-01         0.00000E+00
    0.16526E-01        -0.29796E-01         0.00000E+00
    0.16636E-01        -0.31207E-01         0.00000E+00
    0.16688E-01        -0.32666E-01         0.00000E+00
    0.16672E-01        -0.34174E-01         0.00000E+00
    0.16579E-01        -0.35727E-01         0.00000E+00
    0.16400E-01        -0.37324E-01         0.00000E+00
    0.16122E-01        -0.38961E-01         0.00000E+00
    0.15733E-01        -0.40632E-01         0.00000E+00
    0.15219E-01        -0.42330E-01         0.00000E+00
    0.14567E-01        -0.44044E-01         0.00000E+00
    0.13759E-01        -0.45761E-01         0.00000E+00
    0.12780E-01        -0.47461E-01         0.00000E+00
    0.11614E-01        -0.49123E-01         0.00000E+00
    0.10243E-01        -0.50715E-01         0.00000E+00
    0.86534E-02        -0.52198E-01         0.00000E+00
    0.68322E-02        -0.53521E-01         0.00000E+00
    0.47741E-02        -0.54616E-01         0.00000E+00
    0.24891E-02        -0.55381E-01         0.00000E+00
    0.00000E+00        -0.55667E-01         0.00000E+00
    0.00000E+00         0.10144E-04         0.00000E+00
    0.80489E-04         0.38449E-05         0.00000E+00
    0.15696E-03        -0.12717E-04         0.00000E+00
    0.22916E-03        -0.36301E-04         0.00000E+00
    0.29727E-03        -0.64942E-04         0.00000E+00
    0.36173E-03        -0.97410E-04         0.00000E+00
    0.42309E-03        -0.13284E-03         0.00000E+00
    0.48192E-03        -0.17064E-03         0.00000E+00
    0.53878E-03        -0.21037E-03         0.00000E+00
    0.59423E-03        -0.25178E-03         0.00000E+00
    0.64879E-03        -0.29471E-03         0.00000E+00
    0.70295E-03        -0.33907E-03         0.00000E+00
    0.75717E-03        -0.38489E-03         0.00000E+00
    0.81190E-03        -0.43221E-03         0.00000E+00
    0.86752E-03        -0.48113E-03         0.00000E+00
    0.92441E-03        -0.53180E-03         0.00000E+00
    0.98293E-03        -0.58438E-03         0.00000E+00
    0.10434E-02        -0.63904E-03         0.00000E+00
    0.11061E-02        -0.69601E-03         0.00000E+00
    0.11714E-02        -0.75548E-03         0.00000E+00
    0.12395E-02        -0.81769E-03         0.00000E+00
    0.13107E-02        -0.88289E-03         0.00000E+00
    0.13853E-02        -0.95132E-03         0.00000E+00
    0.14635E-02        -0.10232E-02         0.00000E+00
    0.15455E-02        -0.10989E-02         0.00000E+00
    0.16317E-02        -0.11787E-02         0.00000E+00
    0.17222E-02        -0.12627E-02         0.00000E+00
    0.18173E-02        -0.13514E-02         0.00000E+00
    0.19172E-02        -0.14451E-02         0.00000E+00
    0.20222E-02        -0.15441E-02         0.00000E+00
    0.21325E-02        -0.16487E-02         0.00000E+00
    0.22484E-02        -0.17592E-02         0.00000E+00
    0.23701E-02        -0.18762E-02         0.00000E+00
    0.24978E-02        -0.19999E-02         0.00000E+00
    0.26318E-02        -0.21307E-02         0.00000E+00
    0.27723E-02        -0.22691E-02         0.00000E+00
    0.29196E-02        -0.24156E-02         0.00000E+00
    0.30739E-02        -0.25705E-02         0.00000E+00
    0.32354E-02        -0.27344E-02         0.00000E+00
    0.34045E-02        -0.29077E-02         0.00000E+00
    0.35813E-02        -0.30910E-02         0.00000E+00
    0.37661E-02        -0.32849E-02         0.00000E+00
    0.39591E-02        -0.34899E-02         0.00000E+00
    0.41605E-02        -0.37066E-02         0.00000E+00
    0.43705E-02        -0.39356E-02         0.00000E+00
    0.45894E-02        -0.41775E-02         0.00000E+00
    0.48174E-02        -0.44331E-02         0.00000E+00
    0.50545E-02        -0.47031E-02         0.00000E+00
    0.53011E-02        -0.49880E-02         0.00000E+00
    0.55571E-02        -0.52888E-02         0.00000E+00
    0.58229E-02        -0.56062E-02         0.00000E+00
    0.60983E-02        -0.59410E-02         0.00000E+00
    0.63836E-02        -0.62940E-02         0.00000E+00
    0.66787E-02        -0.66660E-02         0.00000E+00
    0.69836E-02        -0.70581E-02         0.00000E+00
    0.72983E-02        -0.74710E-02         0.00000E+00
    0.76227E-02        -0.79058E-02         0.00000E+00
    0.79566E-02        -0.83634E-02         0.00000E+00
    0.82999E-02        -0.88448E-02         0.00000E+00
    0.86522E-02        -0.93510E-02         0.00000E+00
    0.90133E-02        -0.98830E-02         0.00000E+00
    0.93826E-02        -0.10442E-01         0.00000E+00
    0.97597E-02        -0.11029E-01         0.00000E+00
    0.10144E-01        -0.11645E-01         0.00000E+00
    0.10535E-01        -0.12292E-01         0.00000E+00
    0.10931E-01        -0.12970E-01         0.00000E+00
    0.11332E-01        -0.13680E-01         0.00000E+00
    0.11737E-01        -0.14425E-01         0.00000E+00
    0.12144E-01        -0.15204E-01         0.00000E+00
    0.12552E-01        -0.16020E-01         0.00000E+00
    0.12959E-01        -0.16873E-01         0.00000E+00
    0.13364E-01        -0.17764E-01         0.00000E+00
    0.13763E-01        -0.18696E-01         0.00000E+00
    0.14157E-01        -0.19668E-01         0.00000E+00
    0.14540E-01        -0.20683E-01         0.00000E+00
    0.14911E-01        -0.21741E-01         0.00000E+00
    0.15267E-01        -0.22844E-01         0.00000E+00
    0.15603E-01        -0.23992E-01         0.00000E+00
    0.15917E-01        -0.25187E-01         0.00000E+00
    0.16202E-01        -0.26430E-01         0.00000E+00
    0.16455E-01        -0.27721E-01         0.00000E+00
    0.16669E-01        -0.29062E-01         0.00000E+00
    0.16839E-01        -0.30452E-01         0.00000E+00
    0.16958E-01        -0.31892E-01         0.00000E+00
    0.17017E-01        -0.33381E-01         0.00000E+00
    0.17009E-01        -0.34919E-01         0.00000E+00
    0.16923E-01        -0.36504E-01         0.00000E+00
    0.16748E-01        -0.38134E-01         0.00000E+00
    0.16474E-01        -0.39804E-01         0.00000E+00
    0.16088E-01        -0.41509E-01         0.00000E+00
    0.15574E-01        -0.43241E-01         0.00000E+00
    0.14918E-01        -0.44991E-01         0.00000E+00
    0.14104E-01        -0.46743E-01         0.00000E+00
    0.13114E-01        -0.48480E-01         0.00000E+00
    0.11930E-01        -0.50179E-01         0.00000E+00
    0.10536E-01        -0.51808E-01         0.00000E+00
    0.89134E-02        -0.53329E-01         0.00000E+00
    0.70488E-02        -0.54690E-01         0.00000E+00
    0.49335E-02        -0.55823E-01         0.00000E+00
    0.25744E-02        -0.56624E-01         0.00000E+00
    0.00000E+00        -0.56930E-01         0.00000E+00
    0.00000E+00         0.98774E-05         0.00000E+00
    0.82545E-04         0.31068E-05         0.00000E+00
    0.16075E-03        -0.14248E-04         0.00000E+00
    0.23430E-03        -0.38620E-04         0.00000E+00
    0.30348E-03        -0.68061E-04         0.00000E+00
    0.36882E-03        -0.10134E-03         0.00000E+00
    0.43092E-03        -0.13760E-03         0.00000E+00
    0.49038E-03        -0.17624E-03         0.00000E+00
    0.54780E-03        -0.21685E-03         0.00000E+00
    0.60376E-03        -0.25915E-03         0.00000E+00
    0.65881E-03        -0.30300E-03         0.00000E+00
    0.71344E-03        -0.34832E-03         0.00000E+00
    0.76815E-03        -0.39513E-03         0.00000E+00
    0.82336E-03        -0.44347E-03         0.00000E+00
    0.87949E-03        -0.49347E-03         0.00000E+00
    0.93692E-03        -0.54526E-03         0.00000E+00
    0.99601E-03        -0.59900E-03         0.00000E+00
    0.10571E-02        -0.65489E-03         0.00000E+00
    0.11205E-02        -0.71314E-03         0.00000E+00
    0.11865E-02        -0.77396E-03         0.00000E+00
    0.12553E-02        -0.83758E-03         0.00000E+00
    0.13273E-02        -0.90427E-03         0.00000E+00
    0.14028E-02        -0.97426E-03         0.00000E+00
    0.14819E-02        -0.10478E-02         0.00000E+00
    0.15649E-02        -0.11253E-02         0.00000E+00
    0.16521E-02        -0.12068E-02         0.00000E+00
    0.17438E-02        -0.12928E-02         0.00000E+00
    0.18401E-02        -0.13836E-02         0.00000E+00
    0.19413E-02        -0.14794E-02         0.00000E+00
    0.20476E-02        -0.15807E-02         0.00000E+00
    0.21594E-02        -0.16877E-02         0.00000E+00
    0.22768E-02        -0.18008E-02         0.00000E+00
    0.24000E-02        -0.19204E-02         0.00000E+00
    0.25294E-02        -0.20470E-02         0.00000E+00
    0.26652E-02        -0.21808E-02         0.00000E+00
    0.28076E-02        -0.23224E-02         0.00000E+00
    0.29569E-02        -0.24722E-02         0.00000E+00
    0.31133E-02        -0.26306E-02         0.00000E+00
    0.32771E-02        -0.27983E-02         0.00000E+00
    0.34485E-02        -0.29756E-02         0.00000E+00
    0.36278E-02        -0.31631E-02         0.00000E+00
    0.38151E-02        -0.33613E-02         0.00000E+00
    0.40108E-02        -0.35710E-02         0.00000E+00
    0.42151E-02        -0.37926E-02         0.00000E+00
    0.44282E-02        -0.40268E-02         0.00000E+00
    0.46502E-02        -0.42742E-02         0.00000E+00
    0.48815E-02        -0.45355E-02         0.00000E+00
    0.51221E-02        -0.48116E-02         0.00000E+00
    0.53723E-02        -0.51029E-02         0.00000E+00
    0.56321E-02        -0.54105E-02         0.00000E+00
    0.59018E-02        -0.57350E-02         0.00000E+00
    0.61814E-02        -0.60772E-02         0.00000E+00
    0.64710E-02        -0.64381E-02         0.00000E+00
    0.67707E-02        -0.68184E-02         0.00000E+00
    0.70803E-02        -0.72192E-02         0.00000E+00
    0.73999E-02        -0.76413E-02         0.00000E+00
    0.77295E-02        -0.80857E-02         0.00000E+00
    0.80687E-02        -0.85533E-02         0.00000E+00
    0.84176E-02        -0.90453E-02         0.00000E+00
    0.87757E-02        -0.95626E-02         0.00000E+00
    0.91427E-02        -0.10106E-01         0.00000E+00
    0.95183E-02        -0.10678E-01         0.00000E+00
    0.99019E-02        -0.11278E-01         0.00000E+00
    0.10293E-01        -0.11907E-01         0.00000E+00
    0.10691E-01        -0.12568E-01         0.00000E+00
    0.11094E-01        -0.13260E-01         0.00000E+00
    0.11502E-01        -0.13986E-01         0.00000E+00
    0.11915E-01        -0.14747E-01         0.00000E+00
    0.12329E-01        -0.15543E-01         0.00000E+00
    0.12745E-01        -0.16376E-01         0.00000E+00
    0.13161E-01        -0.17247E-01         0.00000E+00
    0.13574E-01        -0.18157E-01         0.00000E+00
    0.13982E-01        -0.19109E-01         0.00000E+00
    0.14384E-01        -0.20102E-01         0.00000E+00
    0.14777E-01        -0.21138E-01         0.00000E+00
    0.15157E-01        -0.22218E-01         0.00000E+00
    0.15522E-01        -0.23344E-01         0.00000E+00
    0.15868E-01        -0.24516E-01         0.00000E+00
    0.16190E-01        -0.25736E-01         0.00000E+00
    0.16485E-01        -0.27004E-01         0.00000E+00
    0.16748E-01        -0.28322E-01         0.00000E+00
    0.16972E-01        -0.29690E-01         0.00000E+00
    0.17151E-01        -0.31108E-01         0.00000E+00
    0.17278E-01        -0.32577E-01         0.00000E+00
    0.17346E-01        -0.34096E-01         0.00000E+00
    0.17346E-01        -0.35665E-01         0.00000E+00
    0.17267E-01        -0.37281E-01         0.00000E+00
    0.17099E-01        -0.38943E-01         0.00000E+00
    0.16830E-01        -0.40646E-01         0.00000E+00
    0.16446E-01        -0.42385E-01         0.00000E+00
    0.15933E-01        -0.44152E-01         0.00000E+00
    0.15276E-01        -0.45937E-01         0.00000E+00
    0.14456E-01        -0.47725E-01         0.00000E+00
    0.13456E-01        -0.49499E-01         0.00000E+00
    0.12256E-01        -0.51234E-01         0.00000E+00
    0.10839E-01        -0.52900E-01         0.00000E+00
    0.91852E-02        -0.54459E-01         0.00000E+00
    0.72781E-02        -0.55858E-01         0.00000E+00
    0.51052E-02        -0.57029E-01         0.00000E+00
    0.26685E-02        -0.57869E-01         0.00000E+00
    0.00000E+00        -0.58198E-01         0.00000E+00
    0.00000E+00         0.96998E-05         0.00000E+00
    0.84796E-04         0.23725E-05         0.00000E+00
    0.16477E-03        -0.15797E-04         0.00000E+00
    0.23963E-03        -0.40955E-04         0.00000E+00
    0.30983E-03        -0.71197E-04         0.00000E+00
    0.37600E-03        -0.10529E-03         0.00000E+00
    0.43878E-03        -0.14238E-03         0.00000E+00
    0.49883E-03        -0.18187E-03         0.00000E+00
    0.55676E-03        -0.22334E-03         0.00000E+00
    0.61319E-03        -0.26654E-03         0.00000E+00
    0.66867E-03        -0.31131E-03         0.00000E+00
    0.72374E-03        -0.35759E-03         0.00000E+00
    0.77888E-03        -0.40538E-03         0.00000E+00
    0.83454E-03        -0.45476E-03         0.00000E+00
    0.89114E-03        -0.50582E-03         0.00000E+00
    0.94907E-03        -0.55873E-03         0.00000E+00
    0.10087E-02        -0.61364E-03         0.00000E+00
    0.10704E-02        -0.67075E-03         0.00000E+00
    0.11344E-02        -0.73028E-03         0.00000E+00
    0.12010E-02        -0.79245E-03         0.00000E+00
    0.12706E-02        -0.85749E-03         0.00000E+00
    0.13434E-02        -0.92566E-03         0.00000E+00
    0.14197E-02        -0.99723E-03         0.00000E+00
    0.14997E-02        -0.10725E-02         0.00000E+00
    0.15837E-02        -0.11516E-02         0.00000E+00
    0.16719E-02        -0.12350E-02         0.00000E+00
    0.17646E-02        -0.13230E-02         0.00000E+00
    0.18620E-02        -0.14158E-02         0.00000E+00
    0.19645E-02        -0.15138E-02         0.00000E+00
    0.20721E-02        -0.16173E-02         0.00000E+00
    0.21853E-02        -0.17267E-02         0.00000E+00
    0.23041E-02        -0.18424E-02         0.00000E+00
    0.24289E-02        -0.19647E-02         0.00000E+00
    0.25600E-02        -0.20941E-02         0.00000E+00
    0.26975E-02        -0.22309E-02         0.00000E+00
    0.28417E-02        -0.23757E-02         0.00000E+00
    0.29930E-02        -0.25288E-02         0.00000E+00
    0.31514E-02        -0.26908E-02         0.00000E+00
    0.33174E-02        -0.28622E-02         0.00000E+00
    0.34910E-02        -0.30435E-02         0.00000E+00
    0.36727E-02        -0.32351E-02         0.00000E+00
    0.38626E-02        -0.34378E-02         0.00000E+00
    0.40610E-02        -0.36521E-02         0.00000E+00
    0.42680E-02        -0.38786E-02         0.00000E+00
    0.44840E-02        -0.41180E-02         0.00000E+00
    0.47091E-02        -0.43709E-02         0.00000E+00
    0.49436E-02        -0.46380E-02         0.00000E+00
    0.51876E-02        -0.49201E-02         0.00000E+00
    0.54414E-02        -0.52179E-02         0.00000E+00
    0.57050E-02        -0.55322E-02         0.00000E+00
    0.59785E-02        -0.58638E-02         0.00000E+00
    0.62622E-02        -0.62135E-02         0.00000E+00
    0.65561E-02        -0.65822E-02         0.00000E+00
    0.68602E-02        -0.69709E-02         0.00000E+00
    0.71745E-02        -0.73803E-02         0.00000E+00
    0.74989E-02        -0.78116E-02         0.00000E+00
    0.78335E-02        -0.82656E-02         0.00000E+00
    0.81780E-02        -0.87433E-02         0.00000E+00
    0.85323E-02        -0.92459E-02         0.00000E+00
    0.88961E-02        -0.97744E-02         0.00000E+00
    0.92691E-02        -0.10330E-01         0.00000E+00
    0.96508E-02        -0.10913E-01         0.00000E+00
    0.10041E-01        -0.11526E-01         0.00000E+00
    0.10438E-01        -0.12169E-01         0.00000E+00
    0.10843E-01        -0.12844E-01         0.00000E+00
    0.11253E-01        -0.13551E-01         0.00000E+00
    0.11669E-01        -0.14292E-01         0.00000E+00
    0.12089E-01        -0.15069E-01         0.00000E+00
    0.12511E-01        -0.15881E-01         0.00000E+00
    0.12935E-01        -0.16732E-01         0.00000E+00
    0.13359E-01        -0.17621E-01         0.00000E+00
    0.13780E-01        -0.18551E-01         0.00000E+00
    0.14197E-01        -0.19522E-01         0.00000E+00
    0.14608E-01        -0.20535E-01         0.00000E+00
    0.15010E-01        -0.21592E-01         0.00000E+00
    0.15399E-01        -0.22695E-01         0.00000E+00
    0.15774E-01        -0.23844E-01         0.00000E+00
    0.16129E-01        -0.25040E-01         0.00000E+00
    0.16461E-01        -0.26284E-01         0.00000E+00
    0.16766E-01        -0.27578E-01         0.00000E+00
    0.17038E-01        -0.28922E-01         0.00000E+00
    0.17272E-01        -0.30317E-01         0.00000E+00
    0.17460E-01        -0.31764E-01         0.00000E+00
    0.17597E-01        -0.33262E-01         0.00000E+00
    0.17674E-01        -0.34811E-01         0.00000E+00
    0.17682E-01        -0.36410E-01         0.00000E+00
    0.17612E-01        -0.38058E-01         0.00000E+00
    0.17451E-01        -0.39752E-01         0.00000E+00
    0.17188E-01        -0.41489E-01         0.00000E+00
    0.16808E-01        -0.43261E-01         0.00000E+00
    0.16297E-01        -0.45063E-01         0.00000E+00
    0.15639E-01        -0.46883E-01         0.00000E+00
    0.14815E-01        -0.48706E-01         0.00000E+00
    0.13806E-01        -0.50516E-01         0.00000E+00
    0.12592E-01        -0.52289E-01         0.00000E+00
    0.11154E-01        -0.53992E-01         0.00000E+00
    0.94698E-02        -0.55589E-01         0.00000E+00
    0.75210E-02        -0.57026E-01         0.00000E+00
    0.52912E-02        -0.58234E-01         0.00000E+00
    0.27735E-02        -0.59114E-01         0.00000E+00
    0.00000E+00        -0.59471E-01         0.00000E+00
    0.00000E+00         0.96213E-05         0.00000E+00
    0.87310E-04         0.16254E-05         0.00000E+00
    0.16906E-03        -0.17359E-04         0.00000E+00
    0.24518E-03        -0.43303E-04         0.00000E+00
    0.31635E-03        -0.74347E-04         0.00000E+00
    0.38329E-03        -0.10925E-03         0.00000E+00
    0.44670E-03        -0.14717E-03         0.00000E+00
    0.50727E-03        -0.18751E-03         0.00000E+00
    0.56567E-03        -0.22985E-03         0.00000E+00
    0.62251E-03        -0.27394E-03         0.00000E+00
    0.67838E-03        -0.31963E-03         0.00000E+00
    0.73383E-03        -0.36686E-03         0.00000E+00
    0.78936E-03        -0.41564E-03         0.00000E+00
    0.84543E-03        -0.46605E-03         0.00000E+00
    0.90246E-03        -0.51819E-03         0.00000E+00
    0.96086E-03        -0.57221E-03         0.00000E+00
    0.10210E-02        -0.62829E-03         0.00000E+00
    0.10832E-02        -0.68663E-03         0.00000E+00
    0.11478E-02        -0.74744E-03         0.00000E+00
    0.12150E-02        -0.81095E-03         0.00000E+00
    0.12853E-02        -0.87741E-03         0.00000E+00
    0.13588E-02        -0.94707E-03         0.00000E+00
    0.14359E-02        -0.10202E-02         0.00000E+00
    0.15168E-02        -0.10971E-02         0.00000E+00
    0.16017E-02        -0.11780E-02         0.00000E+00
    0.16909E-02        -0.12632E-02         0.00000E+00
    0.17846E-02        -0.13531E-02         0.00000E+00
    0.18832E-02        -0.14480E-02         0.00000E+00
    0.19868E-02        -0.15481E-02         0.00000E+00
    0.20957E-02        -0.16539E-02         0.00000E+00
    0.22102E-02        -0.17657E-02         0.00000E+00
    0.23305E-02        -0.18840E-02         0.00000E+00
    0.24568E-02        -0.20090E-02         0.00000E+00
    0.25894E-02        -0.21412E-02         0.00000E+00
    0.27286E-02        -0.22811E-02         0.00000E+00
    0.28746E-02        -0.24290E-02         0.00000E+00
    0.30278E-02        -0.25855E-02         0.00000E+00
    0.31882E-02        -0.27511E-02         0.00000E+00
    0.33562E-02        -0.29262E-02         0.00000E+00
    0.35321E-02        -0.31114E-02         0.00000E+00
    0.37161E-02        -0.33072E-02         0.00000E+00
    0.39085E-02        -0.35143E-02         0.00000E+00
    0.41094E-02        -0.37333E-02         0.00000E+00
    0.43192E-02        -0.39647E-02         0.00000E+00
    0.45381E-02        -0.42092E-02         0.00000E+00
    0.47662E-02        -0.44676E-02         0.00000E+00
    0.50038E-02        -0.47405E-02         0.00000E+00
    0.52512E-02        -0.50287E-02         0.00000E+00
    0.55084E-02        -0.53329E-02         0.00000E+00
    0.57756E-02        -0.56539E-02         0.00000E+00
    0.60530E-02        -0.59926E-02         0.00000E+00
    0.63407E-02        -0.63498E-02         0.00000E+00
    0.66387E-02        -0.67264E-02         0.00000E+00
    0.69471E-02        -0.71233E-02         0.00000E+00
    0.72660E-02        -0.75415E-02         0.00000E+00
    0.75952E-02        -0.79819E-02         0.00000E+00
    0.79348E-02        -0.84455E-02         0.00000E+00
    0.82845E-02        -0.89334E-02         0.00000E+00
    0.86442E-02        -0.94466E-02         0.00000E+00
    0.90136E-02        -0.99862E-02         0.00000E+00
    0.93924E-02        -0.10553E-01         0.00000E+00
    0.97802E-02        -0.11149E-01         0.00000E+00
    0.10176E-01        -0.11774E-01         0.00000E+00
    0.10581E-01        -0.12431E-01         0.00000E+00
    0.10992E-01        -0.13119E-01         0.00000E+00
    0.11409E-01        -0.13841E-01         0.00000E+00
    0.11832E-01        -0.14598E-01         0.00000E+00
    0.12260E-01        -0.15391E-01         0.00000E+00
    0.12690E-01        -0.16220E-01         0.00000E+00
    0.13122E-01        -0.17088E-01         0.00000E+00
    0.13553E-01        -0.17996E-01         0.00000E+00
    0.13983E-01        -0.18944E-01         0.00000E+00
    0.14409E-01        -0.19935E-01         0.00000E+00
    0.14829E-01        -0.20969E-01         0.00000E+00
    0.15240E-01        -0.22047E-01         0.00000E+00
    0.15638E-01        -0.23172E-01         0.00000E+00
    0.16022E-01        -0.24344E-01         0.00000E+00
    0.16387E-01        -0.25563E-01         0.00000E+00
    0.16729E-01        -0.26833E-01         0.00000E+00
    0.17044E-01        -0.28152E-01         0.00000E+00
    0.17326E-01        -0.29523E-01         0.00000E+00
    0.17570E-01        -0.30945E-01         0.00000E+00
    0.17769E-01        -0.32420E-01         0.00000E+00
    0.17915E-01        -0.33946E-01         0.00000E+00
    0.18002E-01        -0.35525E-01         0.00000E+00
    0.18020E-01        -0.37155E-01         0.00000E+00
    0.17957E-01        -0.38835E-01         0.00000E+00
    0.17804E-01        -0.40561E-01         0.00000E+00
    0.17548E-01        -0.42331E-01         0.00000E+00
    0.17174E-01        -0.44137E-01         0.00000E+00
    0.16666E-01        -0.45973E-01         0.00000E+00
    0.16008E-01        -0.47828E-01         0.00000E+00
    0.15181E-01        -0.49688E-01         0.00000E+00
    0.14165E-01        -0.51534E-01         0.00000E+00
    0.12939E-01        -0.53343E-01         0.00000E+00
    0.11481E-01        -0.55084E-01         0.00000E+00
    0.97681E-02        -0.56718E-01         0.00000E+00
    0.77789E-02        -0.58193E-01         0.00000E+00
    0.54930E-02        -0.59440E-01         0.00000E+00
    0.28931E-02        -0.60360E-01         0.00000E+00
    0.00000E+00        -0.60749E-01         0.00000E+00
    0.00000E+00         0.96508E-05         0.00000E+00
    0.90191E-04         0.83991E-06         0.00000E+00
    0.17363E-03        -0.18921E-04         0.00000E+00
    0.25096E-03        -0.45661E-04         0.00000E+00
    0.32305E-03        -0.77504E-04         0.00000E+00
    0.39070E-03        -0.11322E-03         0.00000E+00
    0.45468E-03        -0.15197E-03         0.00000E+00
    0.51572E-03        -0.19315E-03         0.00000E+00
    0.57452E-03        -0.23636E-03         0.00000E+00
    0.63172E-03        -0.28134E-03         0.00000E+00
    0.68794E-03        -0.32796E-03         0.00000E+00
    0.74373E-03        -0.37614E-03         0.00000E+00
    0.79960E-03        -0.42591E-03         0.00000E+00
    0.85603E-03        -0.47734E-03         0.00000E+00
    0.91345E-03        -0.53055E-03         0.00000E+00
    0.97227E-03        -0.58569E-03         0.00000E+00
    0.10329E-02        -0.64294E-03         0.00000E+00
    0.10956E-02        -0.70250E-03         0.00000E+00
    0.11607E-02        -0.76460E-03         0.00000E+00
    0.12286E-02        -0.82945E-03         0.00000E+00
    0.12995E-02        -0.89733E-03         0.00000E+00
    0.13737E-02        -0.96848E-03         0.00000E+00
    0.14515E-02        -0.10432E-02         0.00000E+00
    0.15332E-02        -0.11217E-02         0.00000E+00
    0.16190E-02        -0.12044E-02         0.00000E+00
    0.17091E-02        -0.12914E-02         0.00000E+00
    0.18039E-02        -0.13833E-02         0.00000E+00
    0.19035E-02        -0.14802E-02         0.00000E+00
    0.20083E-02        -0.15825E-02         0.00000E+00
    0.21184E-02        -0.16906E-02         0.00000E+00
    0.22342E-02        -0.18048E-02         0.00000E+00
    0.23558E-02        -0.19256E-02         0.00000E+00
    0.24836E-02        -0.20533E-02         0.00000E+00
    0.26178E-02        -0.21883E-02         0.00000E+00
    0.27586E-02        -0.23312E-02         0.00000E+00
    0.29063E-02        -0.24823E-02         0.00000E+00
    0.30613E-02        -0.26422E-02         0.00000E+00
    0.32236E-02        -0.28113E-02         0.00000E+00
    0.33937E-02        -0.29901E-02         0.00000E+00
    0.35718E-02        -0.31793E-02         0.00000E+00
    0.37580E-02        -0.33793E-02         0.00000E+00
    0.39528E-02        -0.35909E-02         0.00000E+00
    0.41562E-02        -0.38145E-02         0.00000E+00
    0.43687E-02        -0.40508E-02         0.00000E+00
    0.45903E-02        -0.43005E-02         0.00000E+00
    0.48214E-02        -0.45644E-02         0.00000E+00
    0.50621E-02        -0.48430E-02         0.00000E+00
    0.53126E-02        -0.51373E-02         0.00000E+00
    0.55732E-02        -0.54479E-02         0.00000E+00
    0.58440E-02        -0.57756E-02         0.00000E+00
    0.61251E-02        -0.61214E-02         0.00000E+00
    0.64167E-02        -0.64861E-02         0.00000E+00
    0.67189E-02        -0.68706E-02         0.00000E+00
    0.70316E-02        -0.72758E-02         0.00000E+00
    0.73549E-02        -0.77027E-02         0.00000E+00
    0.76888E-02        -0.81522E-02         0.00000E+00
    0.80333E-02        -0.86255E-02         0.00000E+00
    0.83881E-02        -0.91235E-02         0.00000E+00
    0.87531E-02        -0.96472E-02         0.00000E+00
    0.91280E-02        -0.10198E-01         0.00000E+00
    0.95126E-02        -0.10777E-01         0.00000E+00
    0.99063E-02        -0.11385E-01         0.00000E+00
    0.10309E-01        -0.12023E-01         0.00000E+00
    0.10719E-01        -0.12693E-01         0.00000E+00
    0.11137E-01        -0.13395E-01         0.00000E+00
    0.11562E-01        -0.14132E-01         0.00000E+00
    0.11992E-01        -0.14904E-01         0.00000E+00
    0.12427E-01        -0.15712E-01         0.00000E+00
    0.12865E-01        -0.16559E-01         0.00000E+00
    0.13305E-01        -0.17444E-01         0.00000E+00
    0.13744E-01        -0.18370E-01         0.00000E+00
    0.14183E-01        -0.19337E-01         0.00000E+00
    0.14617E-01        -0.20348E-01         0.00000E+00
    0.15046E-01        -0.21402E-01         0.00000E+00
    0.15466E-01        -0.22502E-01         0.00000E+00
    0.15874E-01        -0.23649E-01         0.00000E+00
    0.16268E-01        -0.24844E-01         0.00000E+00
    0.16642E-01        -0.26087E-01         0.00000E+00
    0.16995E-01        -0.27381E-01         0.00000E+00
    0.17319E-01        -0.28726E-01         0.00000E+00
    0.17612E-01        -0.30123E-01         0.00000E+00
    0.17866E-01        -0.31573E-01         0.00000E+00
    0.18075E-01        -0.33075E-01         0.00000E+00
    0.18233E-01        -0.34631E-01         0.00000E+00
    0.18329E-01        -0.36240E-01         0.00000E+00
    0.18357E-01        -0.37901E-01         0.00000E+00
    0.18304E-01        -0.39612E-01         0.00000E+00
    0.18160E-01        -0.41370E-01         0.00000E+00
    0.17911E-01        -0.43173E-01         0.00000E+00
    0.17543E-01        -0.45013E-01         0.00000E+00
    0.17040E-01        -0.46883E-01         0.00000E+00
    0.16384E-01        -0.48773E-01         0.00000E+00
    0.15556E-01        -0.50669E-01         0.00000E+00
    0.14534E-01        -0.52551E-01         0.00000E+00
    0.13297E-01        -0.54397E-01         0.00000E+00
    0.11821E-01        -0.56175E-01         0.00000E+00
    0.10081E-01        -0.57847E-01         0.00000E+00
    0.80529E-02        -0.59360E-01         0.00000E+00
    0.57122E-02        -0.60645E-01         0.00000E+00
    0.30323E-02        -0.61603E-01         0.00000E+00
    0.00000E+00        -0.62032E-01         0.00000E+00
CELL_DATA       5000
VECTORS vDarcy double 
    0.91510E-09        -0.46566E-20         0.00000E+00
    0.91864E-09        -0.46566E-20         0.00000E+00
    0.92574E-09        -0.55879E-20         0.00000E+00
    0.93641E-09        -0.67521E-20         0.00000E+00
    0.95070E-09         0.20955E-20         0.00000E+00
    0.96864E-09         0.27940E-20         0.00000E+00
    0.99029E-09         0.25611E-20         0.00000E+00
    0.10157E-08        -0.23283E-20         0.00000E+00
    0.10450E-08        -0.48894E-20         0.00000E+00
    0.10782E-08        -0.23283E-21         0.00000E+00
    0.11155E-08        -0.23283E-21         0.00000E+00
    0.11570E-08        -0.37253E-20         0.00000E+00
    0.12027E-08         0.67521E-20         0.00000E+00
    0.12529E-08         0.86147E-20         0.00000E+00
    0.13076E-08         0.13970E-20         0.00000E+00
    0.13671E-08         0.30268E-20         0.00000E+00
    0.14316E-08         0.44238E-20         0.00000E+00
    0.15011E-08        -0.20955E-20         0.00000E+00
    0.15759E-08        -0.48894E-20         0.00000E+00
    0.16563E-08         0.23283E-21         0.00000E+00
    0.17425E-08         0.44238E-20         0.00000E+00
    0.18346E-08        -0.23283E-21         0.00000E+00
    0.19330E-08         0.93132E-21         0.00000E+00
    0.20380E-08        -0.55879E-20         0.00000E+00
    0.21498E-08        -0.58208E-20         0.00000E+00
    0.22687E-08         0.74506E-20         0.00000E+00
    0.23951E-08         0.46566E-20         0.00000E+00
    0.25293E-08        -0.62864E-20         0.00000E+00
    0.26716E-08         0.41910E-20         0.00000E+00
    0.28224E-08         0.90804E-20         0.00000E+00
    0.29820E-08         0.34925E-20         0.00000E+00
    0.31510E-08         0.88476E-20         0.00000E+00
    0.33296E-08        -0.47020E-37         0.00000E+00
    0.35184E-08        -0.55879E-20         0.00000E+00
    0.37177E-08        -0.13970E-20         0.00000E+00
    0.39280E-08         0.16298E-20         0.00000E+00
    0.41498E-08        -0.11642E-20         0.00000E+00
    0.43836E-08         0.51223E-20         0.00000E+00
    0.46298E-08         0.53551E-20         0.00000E+00
    0.48890E-08         0.25611E-20         0.00000E+00
    0.51618E-08         0.30268E-20         0.00000E+00
    0.54486E-08        -0.39581E-20         0.00000E+00
    0.57499E-08        -0.23283E-20         0.00000E+00
    0.60665E-08         0.18626E-20         0.00000E+00
    0.63987E-08         0.34925E-20         0.00000E+00
    0.67472E-08        -0.48894E-20         0.00000E+00
    0.71126E-08        -0.79162E-20         0.00000E+00
    0.74954E-08         0.83819E-20         0.00000E+00
    0.78962E-08         0.37253E-20         0.00000E+00
    0.83156E-08        -0.72177E-20         0.00000E+00
    0.87541E-08         0.23283E-21         0.00000E+00
    0.92123E-08        -0.30268E-20         0.00000E+00
    0.96908E-08        -0.32596E-20         0.00000E+00
    0.10190E-07         0.30268E-20         0.00000E+00
    0.10711E-07        -0.46566E-20         0.00000E+00
    0.11253E-07         0.27940E-20         0.00000E+00
    0.11817E-07        -0.93132E-21         0.00000E+00
    0.12405E-07        -0.18626E-20         0.00000E+00
    0.13015E-07         0.34925E-20         0.00000E+00
    0.13648E-07        -0.27940E-20         0.00000E+00
    0.14305E-07         0.53551E-20         0.00000E+00
    0.14986E-07         0.10245E-19         0.00000E+00
    0.15691E-07        -0.18626E-20         0.00000E+00
    0.16419E-07        -0.69849E-21         0.00000E+00
    0.17172E-07         0.67521E-20         0.00000E+00
    0.17948E-07         0.20955E-20         0.00000E+00
    0.18748E-07        -0.74506E-20         0.00000E+00
    0.19571E-07         0.37253E-20         0.00000E+00
    0.20416E-07         0.25611E-20         0.00000E+00
    0.21283E-07        -0.30268E-20         0.00000E+00
    0.22171E-07        -0.27940E-20         0.00000E+00
    0.23079E-07         0.41910E-20         0.00000E+00
    0.24007E-07         0.10012E-19         0.00000E+00
    0.24951E-07         0.83819E-20         0.00000E+00
    0.25911E-07        -0.23283E-21         0.00000E+00
    0.26886E-07        -0.11642E-20         0.00000E+00
    0.27872E-07         0.23283E-21         0.00000E+00
    0.28868E-07        -0.25611E-20         0.00000E+00
    0.29870E-07         0.30268E-20         0.00000E+00
    0.30877E-07         0.18626E-20         0.00000E+00
    0.31885E-07         0.25611E-20         0.00000E+00
    0.32890E-07        -0.27940E-20         0.00000E+00
    0.33889E-07         0.11642E-20         0.00000E+00
    0.34877E-07         0.60536E-20         0.00000E+00
    0.35850E-07         0.74506E-20         0.00000E+00
    0.36804E-07         0.39581E-20         0.00000E+00
    0.37733E-07         0.23283E-20         0.00000E+00
    0.38632E-07         0.00000E+00         0.00000E+00
    0.39496E-07        -0.16298E-20         0.00000E+00
    0.40319E-07         0.23283E-21         0.00000E+00
    0.41094E-07         0.40745E-20         0.00000E+00
    0.41817E-07         0.18626E-20         0.00000E+00
    0.42480E-07        -0.23283E-20         0.00000E+00
    0.43078E-07         0.81491E-21         0.00000E+00
    0.43605E-07        -0.53551E-20         0.00000E+00
    0.44054E-07        -0.25611E-20         0.00000E+00
    0.44422E-07        -0.18626E-20         0.00000E+00
    0.44702E-07        -0.11642E-21         0.00000E+00
    0.44891E-07         0.43074E-20         0.00000E+00
    0.44987E-07         0.13970E-20         0.00000E+00
    0.91510E-09         0.27940E-20         0.00000E+00
    0.91864E-09        -0.18626E-20         0.00000E+00
    0.92574E-09        -0.67521E-20         0.00000E+00
    0.93641E-09        -0.12340E-19         0.00000E+00
    0.95070E-09        -0.44238E-20         0.00000E+00
    0.96864E-09         0.58208E-20         0.00000E+00
    0.99029E-09         0.11176E-19         0.00000E+00
    0.10157E-08         0.11874E-19         0.00000E+00
    0.10450E-08         0.65193E-20         0.00000E+00
    0.10782E-08         0.76834E-20         0.00000E+00
    0.11155E-08         0.16065E-19         0.00000E+00
    0.11570E-08         0.13271E-19         0.00000E+00
    0.12027E-08         0.81491E-20         0.00000E+00
    0.12529E-08         0.44238E-20         0.00000E+00
    0.13076E-08         0.69849E-20         0.00000E+00
    0.13671E-08         0.17928E-19         0.00000E+00
    0.14316E-08         0.12806E-19         0.00000E+00
    0.15011E-08         0.60536E-20         0.00000E+00
    0.15759E-08         0.95461E-20         0.00000E+00
    0.16563E-08         0.34925E-20         0.00000E+00
    0.17425E-08         0.72177E-20         0.00000E+00
    0.18346E-08         0.93132E-21         0.00000E+00
    0.19330E-08        -0.23283E-20         0.00000E+00
    0.20380E-08         0.83819E-20         0.00000E+00
    0.21498E-08         0.79162E-20         0.00000E+00
    0.22687E-08         0.46566E-21         0.00000E+00
    0.23951E-08         0.69849E-21         0.00000E+00
    0.25293E-08         0.23283E-20         0.00000E+00
    0.26716E-08        -0.25611E-20         0.00000E+00
    0.28224E-08         0.11642E-19         0.00000E+00
    0.29820E-08         0.11642E-19         0.00000E+00
    0.31510E-08         0.51223E-20         0.00000E+00
    0.33296E-08         0.86147E-20         0.00000E+00
    0.35184E-08         0.51223E-20         0.00000E+00
    0.37177E-08        -0.11642E-20         0.00000E+00
    0.39280E-08         0.67521E-20         0.00000E+00
    0.41498E-08         0.51223E-20         0.00000E+00
    0.43836E-08         0.30268E-20         0.00000E+00
    0.46298E-08         0.20955E-20         0.00000E+00
    0.48890E-08        -0.30268E-20         0.00000E+00
    0.51618E-08         0.62864E-20         0.00000E+00
    0.54486E-08        -0.55879E-20         0.00000E+00
    0.57499E-08        -0.53551E-20         0.00000E+00
    0.60665E-08         0.32596E-20         0.00000E+00
    0.63987E-08        -0.76834E-20         0.00000E+00
    0.67472E-08         0.32596E-20         0.00000E+00
    0.71126E-08         0.53551E-20         0.00000E+00
    0.74954E-08         0.53551E-20         0.00000E+00
    0.78962E-08         0.83819E-20         0.00000E+00
    0.83156E-08        -0.46566E-21         0.00000E+00
    0.87541E-08        -0.39581E-20         0.00000E+00
    0.92123E-08        -0.67521E-20         0.00000E+00
    0.96908E-08        -0.18626E-20         0.00000E+00
    0.10190E-07        -0.18626E-20         0.00000E+00
    0.10711E-07         0.88476E-20         0.00000E+00
    0.11253E-07         0.60536E-20         0.00000E+00
    0.11817E-07         0.55879E-20         0.00000E+00
    0.12405E-07         0.13039E-19         0.00000E+00
    0.13015E-07         0.20256E-19         0.00000E+00
    0.13648E-07         0.16764E-19         0.00000E+00
    0.14305E-07         0.34925E-20         0.00000E+00
    0.14986E-07         0.55879E-20         0.00000E+00
    0.15691E-07        -0.93132E-21         0.00000E+00
    0.16419E-07         0.39581E-20         0.00000E+00
    0.17172E-07         0.10245E-19         0.00000E+00
    0.17948E-07         0.76834E-20         0.00000E+00
    0.18748E-07         0.23283E-21         0.00000E+00
    0.19571E-07        -0.86147E-20         0.00000E+00
    0.20416E-07         0.20955E-20         0.00000E+00
    0.21283E-07         0.13970E-20         0.00000E+00
    0.22171E-07        -0.13970E-20         0.00000E+00
    0.23079E-07         0.60536E-20         0.00000E+00
    0.24007E-07         0.12806E-19         0.00000E+00
    0.24951E-07         0.51223E-20         0.00000E+00
    0.25911E-07         0.93132E-21         0.00000E+00
    0.26886E-07         0.86147E-20         0.00000E+00
    0.27872E-07         0.95461E-20         0.00000E+00
    0.28868E-07        -0.39581E-20         0.00000E+00
    0.29870E-07         0.55879E-20         0.00000E+00
    0.30877E-07         0.13504E-19         0.00000E+00
    0.31885E-07         0.34925E-20         0.00000E+00
    0.32890E-07         0.13271E-19         0.00000E+00
    0.33889E-07         0.44238E-20         0.00000E+00
    0.34877E-07        -0.30268E-20         0.00000E+00
    0.35850E-07         0.74506E-20         0.00000E+00
    0.36804E-07         0.34925E-20         0.00000E+00
    0.37733E-07         0.32596E-20         0.00000E+00
    0.38632E-07         0.65193E-20         0.00000E+00
    0.39496E-07        -0.11409E-19         0.00000E+00
    0.40319E-07        -0.13271E-19         0.00000E+00
    0.41094E-07        -0.33760E-20         0.00000E+00
    0.41817E-07        -0.32596E-20         0.00000E+00
    0.42480E-07         0.12456E-19         0.00000E+00
    0.43078E-07         0.10012E-19         0.00000E+00
    0.43605E-07         0.74506E-20         0.00000E+00
    0.44054E-07         0.41910E-20         0.00000E+00
    0.44422E-07         0.34925E-20         0.00000E+00
    0.44702E-07        -0.45402E-20         0.00000E+00
    0.44891E-07        -0.39581E-20         0.00000E+00
    0.44987E-07        -0.40745E-20         0.00000E+00
    0.91510E-09        -0.23283E-20         0.00000E+00
    0.91864E-09        -0.11642E-20         0.00000E+00
    0.92574E-09         0.18626E-20         0.00000E+00
    0.93641E-09        -0.79162E-20         0.00000E+00
    0.95070E-09        -0.12573E-19         0.00000E+00
    0.96864E-09        -0.69849E-21         0.00000E+00
    0.99029E-09         0.18626E-20         0.00000E+00
    0.10157E-08         0.86147E-20         0.00000E+00
    0.10450E-08         0.11409E-19         0.00000E+00
    0.10782E-08         0.11642E-20         0.00000E+00
    0.11155E-08         0.46566E-20         0.00000E+00
    0.11570E-08        -0.46566E-21         0.00000E+00
    0.12027E-08         0.81491E-20         0.00000E+00
    0.12529E-08         0.15134E-19         0.00000E+00
    0.13076E-08         0.15832E-19         0.00000E+00
    0.13671E-08         0.19558E-19         0.00000E+00
    0.14316E-08         0.25611E-20         0.00000E+00
    0.15011E-08        -0.46566E-21         0.00000E+00
    0.15759E-08         0.10012E-19         0.00000E+00
    0.16563E-08         0.12340E-19         0.00000E+00
    0.17425E-08         0.21653E-19         0.00000E+00
    0.18346E-08         0.21886E-19         0.00000E+00
    0.19330E-08         0.32596E-20         0.00000E+00
    0.20380E-08         0.90804E-20         0.00000E+00
    0.21498E-08         0.19325E-19         0.00000E+00
    0.22687E-08        -0.46566E-21         0.00000E+00
    0.23951E-08        -0.60536E-20         0.00000E+00
    0.25293E-08         0.39581E-20         0.00000E+00
    0.26716E-08         0.90804E-20         0.00000E+00
    0.28224E-08         0.16065E-19         0.00000E+00
    0.29820E-08         0.19791E-19         0.00000E+00
    0.31510E-08         0.20489E-19         0.00000E+00
    0.33296E-08         0.20955E-19         0.00000E+00
    0.35184E-08         0.11874E-19         0.00000E+00
    0.37177E-08         0.18626E-20         0.00000E+00
    0.39280E-08         0.48894E-20         0.00000E+00
    0.41498E-08         0.69849E-20         0.00000E+00
    0.43836E-08         0.88476E-20         0.00000E+00
    0.46298E-08         0.51223E-20         0.00000E+00
    0.48890E-08         0.13737E-19         0.00000E+00
    0.51618E-08         0.12573E-19         0.00000E+00
    0.54486E-08         0.93132E-20         0.00000E+00
    0.57499E-08         0.16764E-19         0.00000E+00
    0.60665E-08         0.21420E-19         0.00000E+00
    0.63987E-08         0.16531E-19         0.00000E+00
    0.67472E-08         0.11409E-19         0.00000E+00
    0.71126E-08         0.14435E-19         0.00000E+00
    0.74954E-08         0.20955E-20         0.00000E+00
    0.78962E-08         0.11409E-19         0.00000E+00
    0.83156E-08         0.19325E-19         0.00000E+00
    0.87541E-08         0.10710E-19         0.00000E+00
    0.92123E-08        -0.23283E-21         0.00000E+00
    0.96908E-08        -0.27940E-20         0.00000E+00
    0.10190E-07         0.10943E-19         0.00000E+00
    0.10711E-07         0.12806E-19         0.00000E+00
    0.11253E-07         0.97789E-20         0.00000E+00
    0.11817E-07         0.25611E-20         0.00000E+00
    0.12405E-07         0.10245E-19         0.00000E+00
    0.13015E-07         0.18859E-19         0.00000E+00
    0.13648E-07         0.88476E-20         0.00000E+00
    0.14305E-07         0.15600E-19         0.00000E+00
    0.14986E-07         0.93132E-20         0.00000E+00
    0.15691E-07        -0.37253E-20         0.00000E+00
    0.16419E-07         0.76834E-20         0.00000E+00
    0.17172E-07         0.17928E-19         0.00000E+00
    0.17948E-07         0.17928E-19         0.00000E+00
    0.18748E-07         0.90804E-20         0.00000E+00
    0.19571E-07         0.12107E-19         0.00000E+00
    0.20416E-07         0.16997E-19         0.00000E+00
    0.21283E-07         0.90804E-20         0.00000E+00
    0.22171E-07         0.27940E-20         0.00000E+00
    0.23079E-07         0.13970E-20         0.00000E+00
    0.24007E-07         0.74506E-20         0.00000E+00
    0.24951E-07         0.13504E-19         0.00000E+00
    0.25911E-07         0.14203E-19         0.00000E+00
    0.26886E-07         0.11176E-19         0.00000E+00
    0.27872E-07         0.12573E-19         0.00000E+00
    0.28868E-07         0.27940E-20         0.00000E+00
    0.29870E-07         0.18626E-20         0.00000E+00
    0.30877E-07         0.19092E-19         0.00000E+00
    0.31885E-07         0.11642E-19         0.00000E+00
    0.32890E-07         0.12573E-19         0.00000E+00
    0.33889E-07         0.18859E-19         0.00000E+00
    0.34877E-07         0.15832E-19         0.00000E+00
    0.35850E-07         0.11176E-19         0.00000E+00
    0.36804E-07         0.12107E-19         0.00000E+00
    0.37733E-07         0.23749E-19         0.00000E+00
    0.38632E-07         0.15832E-19         0.00000E+00
    0.39496E-07         0.12806E-19         0.00000E+00
    0.40319E-07         0.95461E-20         0.00000E+00
    0.41094E-07         0.46566E-21         0.00000E+00
    0.41817E-07         0.59372E-20         0.00000E+00
    0.42480E-07         0.10361E-19         0.00000E+00
    0.43078E-07         0.11292E-19         0.00000E+00
    0.43605E-07         0.67521E-20         0.00000E+00
    0.44054E-07         0.69849E-20         0.00000E+00
    0.44422E-07         0.10245E-19         0.00000E+00
    0.44702E-07         0.48894E-20         0.00000E+00
    0.44891E-07        -0.81491E-21         0.00000E+00
    0.44987E-07        -0.12806E-20         0.00000E+00
    0.91510E-09         0.48894E-20         0.00000E+00
    0.91864E-09         0.39581E-20         0.00000E+00
    0.92574E-09        -0.16298E-20         0.00000E+00
    0.93641E-09         0.00000E+00         0.00000E+00
    0.95070E-09         0.10477E-19         0.00000E+00
    0.96864E-09         0.10477E-19         0.00000E+00
    0.99029E-09         0.00000E+00         0.00000E+00
    0.10157E-08         0.55879E-20         0.00000E+00
    0.10450E-08         0.13504E-19         0.00000E+00
    0.10782E-08         0.11176E-19         0.00000E+00
    0.11155E-08         0.46566E-20         0.00000E+00
    0.11570E-08         0.60536E-20         0.00000E+00
    0.12027E-08         0.86147E-20         0.00000E+00
    0.12529E-08         0.24913E-19         0.00000E+00
    0.13076E-08         0.25844E-19         0.00000E+00
    0.13671E-08         0.18394E-19         0.00000E+00
    0.14316E-08         0.16997E-19         0.00000E+00
    0.15011E-08         0.11176E-19         0.00000E+00
    0.15759E-08         0.95461E-20         0.00000E+00
    0.16563E-08         0.14435E-19         0.00000E+00
    0.17425E-08         0.15600E-19         0.00000E+00
    0.18346E-08         0.21188E-19         0.00000E+00
    0.19330E-08         0.17928E-19         0.00000E+00
    0.20380E-08         0.20023E-19         0.00000E+00
    0.21498E-08         0.16065E-19         0.00000E+00
    0.22687E-08         0.67521E-20         0.00000E+00
    0.23951E-08         0.74506E-20         0.00000E+00
    0.25293E-08         0.17928E-19         0.00000E+00
    0.26716E-08         0.23516E-19         0.00000E+00
    0.28224E-08         0.95461E-20         0.00000E+00
    0.29820E-08         0.76834E-20         0.00000E+00
    0.31510E-08         0.18394E-19         0.00000E+00
    0.33296E-08         0.21188E-19         0.00000E+00
    0.35184E-08         0.12573E-19         0.00000E+00
    0.37177E-08         0.27940E-20         0.00000E+00
    0.39280E-08         0.41910E-20         0.00000E+00
    0.41498E-08         0.10245E-19         0.00000E+00
    0.43836E-08         0.93132E-20         0.00000E+00
    0.46298E-08         0.14901E-19         0.00000E+00
    0.48890E-08         0.19325E-19         0.00000E+00
    0.51618E-08         0.15600E-19         0.00000E+00
    0.54486E-08         0.20489E-19         0.00000E+00
    0.57499E-08         0.76834E-20         0.00000E+00
    0.60665E-08         0.60536E-20         0.00000E+00
    0.63987E-08         0.13271E-19         0.00000E+00
    0.67472E-08         0.10943E-19         0.00000E+00
    0.71126E-08         0.81491E-20         0.00000E+00
    0.74954E-08         0.69849E-21         0.00000E+00
    0.78962E-08         0.72177E-20         0.00000E+00
    0.83156E-08         0.14901E-19         0.00000E+00
    0.87541E-08         0.12107E-19         0.00000E+00
    0.92123E-08         0.67521E-20         0.00000E+00
    0.96908E-08        -0.93132E-21         0.00000E+00
    0.10190E-07         0.16298E-20         0.00000E+00
    0.10711E-07         0.16764E-19         0.00000E+00
    0.11253E-07         0.19092E-19         0.00000E+00
    0.11817E-07         0.14435E-19         0.00000E+00
    0.12405E-07         0.13737E-19         0.00000E+00
    0.13015E-07         0.21420E-19         0.00000E+00
    0.13648E-07         0.26543E-19         0.00000E+00
    0.14305E-07         0.20023E-19         0.00000E+00
    0.14986E-07         0.19558E-19         0.00000E+00
    0.15691E-07         0.12806E-19         0.00000E+00
    0.16419E-07         0.13737E-19         0.00000E+00
    0.17172E-07         0.24913E-19         0.00000E+00
    0.17948E-07         0.19791E-19         0.00000E+00
    0.18748E-07         0.67521E-20         0.00000E+00
    0.19571E-07         0.95461E-20         0.00000E+00
    0.20416E-07         0.21653E-19         0.00000E+00
    0.21283E-07         0.20489E-19         0.00000E+00
    0.22171E-07         0.10943E-19         0.00000E+00
    0.23079E-07         0.79162E-20         0.00000E+00
    0.24007E-07         0.20489E-19         0.00000E+00
    0.24951E-07         0.16764E-19         0.00000E+00
    0.25911E-07         0.16065E-19         0.00000E+00
    0.26886E-07         0.18859E-19         0.00000E+00
    0.27872E-07         0.22119E-19         0.00000E+00
    0.28868E-07         0.83819E-20         0.00000E+00
    0.29870E-07         0.83819E-20         0.00000E+00
    0.30877E-07         0.15832E-19         0.00000E+00
    0.31885E-07         0.25379E-19         0.00000E+00
    0.32890E-07         0.16764E-19         0.00000E+00
    0.33889E-07         0.44238E-20         0.00000E+00
    0.34877E-07         0.18161E-19         0.00000E+00
    0.35850E-07         0.16764E-19         0.00000E+00
    0.36804E-07         0.12340E-19         0.00000E+00
    0.37733E-07         0.12573E-19         0.00000E+00
    0.38632E-07         0.51223E-20         0.00000E+00
    0.39496E-07         0.72177E-20         0.00000E+00
    0.40319E-07         0.10477E-19         0.00000E+00
    0.41094E-07         0.13621E-19         0.00000E+00
    0.41817E-07         0.53551E-20         0.00000E+00
    0.42480E-07         0.82655E-20         0.00000E+00
    0.43078E-07         0.15483E-19         0.00000E+00
    0.43605E-07         0.12573E-19         0.00000E+00
    0.44054E-07         0.19092E-19         0.00000E+00
    0.44422E-07         0.15250E-19         0.00000E+00
    0.44702E-07         0.94296E-20         0.00000E+00
    0.44891E-07         0.51223E-20         0.00000E+00
    0.44987E-07        -0.34925E-21         0.00000E+00
    0.91510E-09        -0.44238E-20         0.00000E+00
    0.91864E-09        -0.23283E-21         0.00000E+00
    0.92574E-09         0.76834E-20         0.00000E+00
    0.93641E-09        -0.23283E-20         0.00000E+00
    0.95070E-09         0.11874E-19         0.00000E+00
    0.96864E-09         0.21886E-19         0.00000E+00
    0.99029E-09         0.12340E-19         0.00000E+00
    0.10157E-08         0.17229E-19         0.00000E+00
    0.10450E-08         0.10012E-19         0.00000E+00
    0.10782E-08        -0.39581E-20         0.00000E+00
    0.11155E-08         0.44238E-20         0.00000E+00
    0.11570E-08         0.20722E-19         0.00000E+00
    0.12027E-08         0.23749E-19         0.00000E+00
    0.12529E-08         0.21653E-19         0.00000E+00
    0.13076E-08         0.13039E-19         0.00000E+00
    0.13671E-08         0.10477E-19         0.00000E+00
    0.14316E-08         0.20256E-19         0.00000E+00
    0.15011E-08         0.27008E-19         0.00000E+00
    0.15759E-08         0.22352E-19         0.00000E+00
    0.16563E-08         0.30268E-19         0.00000E+00
    0.17425E-08         0.31432E-19         0.00000E+00
    0.18346E-08         0.27940E-19         0.00000E+00
    0.19330E-08         0.26310E-19         0.00000E+00
    0.20380E-08         0.15134E-19         0.00000E+00
    0.21498E-08         0.15134E-19         0.00000E+00
    0.22687E-08         0.27940E-20         0.00000E+00
    0.23951E-08        -0.23283E-20         0.00000E+00
    0.25293E-08         0.15367E-19         0.00000E+00
    0.26716E-08         0.18626E-19         0.00000E+00
    0.28224E-08         0.18161E-19         0.00000E+00
    0.29820E-08         0.10943E-19         0.00000E+00
    0.31510E-08         0.12107E-19         0.00000E+00
    0.33296E-08         0.14901E-19         0.00000E+00
    0.35184E-08         0.69849E-20         0.00000E+00
    0.37177E-08         0.83819E-20         0.00000E+00
    0.39280E-08         0.97789E-20         0.00000E+00
    0.41498E-08         0.10245E-19         0.00000E+00
    0.43836E-08         0.11409E-19         0.00000E+00
    0.46298E-08         0.18626E-20         0.00000E+00
    0.48890E-08         0.11874E-19         0.00000E+00
    0.51618E-08         0.12806E-19         0.00000E+00
    0.54486E-08         0.18161E-19         0.00000E+00
    0.57499E-08         0.20955E-19         0.00000E+00
    0.60665E-08         0.14203E-19         0.00000E+00
    0.63987E-08         0.13271E-19         0.00000E+00
    0.67472E-08         0.11874E-19         0.00000E+00
    0.71126E-08         0.48894E-20         0.00000E+00
    0.74954E-08         0.34925E-20         0.00000E+00
    0.78962E-08         0.69849E-20         0.00000E+00
    0.83156E-08         0.17928E-19         0.00000E+00
    0.87541E-08         0.16531E-19         0.00000E+00
    0.92123E-08         0.74506E-20         0.00000E+00
    0.96908E-08         0.79162E-20         0.00000E+00
    0.10190E-07         0.17928E-19         0.00000E+00
    0.10711E-07         0.20722E-19         0.00000E+00
    0.11253E-07         0.20489E-19         0.00000E+00
    0.11817E-07         0.13504E-19         0.00000E+00
    0.12405E-07         0.10710E-19         0.00000E+00
    0.13015E-07         0.15367E-19         0.00000E+00
    0.13648E-07         0.13271E-19         0.00000E+00
    0.14305E-07         0.23516E-19         0.00000E+00
    0.14986E-07         0.16764E-19         0.00000E+00
    0.15691E-07         0.46566E-20         0.00000E+00
    0.16419E-07         0.41910E-20         0.00000E+00
    0.17172E-07         0.34925E-20         0.00000E+00
    0.17948E-07         0.17928E-19         0.00000E+00
    0.18748E-07         0.21653E-19         0.00000E+00
    0.19571E-07         0.13504E-19         0.00000E+00
    0.20416E-07         0.55879E-20         0.00000E+00
    0.21283E-07         0.79162E-20         0.00000E+00
    0.22171E-07         0.10245E-19         0.00000E+00
    0.23079E-07         0.11642E-19         0.00000E+00
    0.24007E-07         0.23749E-19         0.00000E+00
    0.24951E-07         0.20256E-19         0.00000E+00
    0.25911E-07         0.17695E-19         0.00000E+00
    0.26886E-07         0.22352E-19         0.00000E+00
    0.27872E-07         0.16531E-19         0.00000E+00
    0.28868E-07         0.13970E-19         0.00000E+00
    0.29870E-07         0.23283E-19         0.00000E+00
    0.30877E-07         0.18626E-19         0.00000E+00
    0.31885E-07         0.20955E-19         0.00000E+00
    0.32890E-07         0.22119E-19         0.00000E+00
    0.33889E-07         0.15134E-19         0.00000E+00
    0.34877E-07         0.16298E-19         0.00000E+00
    0.35850E-07         0.22817E-19         0.00000E+00
    0.36804E-07         0.20023E-19         0.00000E+00
    0.37733E-07         0.23283E-19         0.00000E+00
    0.38632E-07         0.20256E-19         0.00000E+00
    0.39496E-07         0.69849E-20         0.00000E+00
    0.40319E-07         0.97789E-20         0.00000E+00
    0.41094E-07         0.12107E-19         0.00000E+00
    0.41817E-07         0.81491E-20         0.00000E+00
    0.42480E-07         0.19558E-19         0.00000E+00
    0.43078E-07         0.26426E-19         0.00000E+00
    0.43605E-07         0.17229E-19         0.00000E+00
    0.44054E-07         0.93132E-20         0.00000E+00
    0.44422E-07         0.64028E-20         0.00000E+00
    0.44702E-07         0.95461E-20         0.00000E+00
    0.44891E-07         0.81491E-21         0.00000E+00
    0.44987E-07        -0.53551E-20         0.00000E+00
    0.91510E-09        -0.20955E-20         0.00000E+00
    0.91864E-09        -0.23283E-21         0.00000E+00
    0.92574E-09        -0.93132E-21         0.00000E+00
    0.93641E-09         0.67521E-20         0.00000E+00
    0.95070E-09         0.69849E-20         0.00000E+00
    0.96864E-09         0.12573E-19         0.00000E+00
    0.99029E-09         0.11874E-19         0.00000E+00
    0.10157E-08         0.81491E-20         0.00000E+00
    0.10450E-08         0.13039E-19         0.00000E+00
    0.10782E-08         0.14435E-19         0.00000E+00
    0.11155E-08         0.95461E-20         0.00000E+00
    0.11570E-08         0.18626E-19         0.00000E+00
    0.12027E-08         0.58208E-20         0.00000E+00
    0.12529E-08         0.23283E-21         0.00000E+00
    0.13076E-08         0.10943E-19         0.00000E+00
    0.13671E-08         0.19558E-19         0.00000E+00
    0.14316E-08         0.18161E-19         0.00000E+00
    0.15011E-08         0.14435E-19         0.00000E+00
    0.15759E-08         0.17462E-19         0.00000E+00
    0.16563E-08         0.23050E-19         0.00000E+00
    0.17425E-08         0.17462E-19         0.00000E+00
    0.18346E-08         0.18394E-19         0.00000E+00
    0.19330E-08         0.19558E-19         0.00000E+00
    0.20380E-08         0.90804E-20         0.00000E+00
    0.21498E-08         0.13970E-20         0.00000E+00
    0.22687E-08         0.27940E-20         0.00000E+00
    0.23951E-08         0.93132E-21         0.00000E+00
    0.25293E-08         0.11409E-19         0.00000E+00
    0.26716E-08         0.17928E-19         0.00000E+00
    0.28224E-08         0.23283E-19         0.00000E+00
    0.29820E-08         0.26776E-19         0.00000E+00
    0.31510E-08         0.24447E-19         0.00000E+00
    0.33296E-08         0.16764E-19         0.00000E+00
    0.35184E-08         0.13504E-19         0.00000E+00
    0.37177E-08         0.17695E-19         0.00000E+00
    0.39280E-08         0.19325E-19         0.00000E+00
    0.41498E-08         0.20722E-19         0.00000E+00
    0.43836E-08         0.13271E-19         0.00000E+00
    0.46298E-08         0.18394E-19         0.00000E+00
    0.48890E-08         0.19325E-19         0.00000E+00
    0.51618E-08         0.18161E-19         0.00000E+00
    0.54486E-08         0.25844E-19         0.00000E+00
    0.57499E-08         0.25611E-19         0.00000E+00
    0.60665E-08         0.22119E-19         0.00000E+00
    0.63987E-08         0.18394E-19         0.00000E+00
    0.67472E-08         0.44238E-20         0.00000E+00
    0.71126E-08         0.74506E-20         0.00000E+00
    0.74954E-08         0.46566E-20         0.00000E+00
    0.78962E-08         0.39581E-20         0.00000E+00
    0.83156E-08         0.23050E-19         0.00000E+00
    0.87541E-08         0.20955E-19         0.00000E+00
    0.92123E-08         0.11409E-19         0.00000E+00
    0.96908E-08         0.15832E-19         0.00000E+00
    0.10190E-07         0.32131E-19         0.00000E+00
    0.10711E-07         0.29104E-19         0.00000E+00
    0.11253E-07         0.20489E-19         0.00000E+00
    0.11817E-07         0.72177E-20         0.00000E+00
    0.12405E-07         0.12806E-19         0.00000E+00
    0.13015E-07         0.23982E-19         0.00000E+00
    0.13648E-07         0.20489E-19         0.00000E+00
    0.14305E-07         0.22352E-19         0.00000E+00
    0.14986E-07         0.20023E-19         0.00000E+00
    0.15691E-07         0.17229E-19         0.00000E+00
    0.16419E-07         0.16997E-19         0.00000E+00
    0.17172E-07         0.10012E-19         0.00000E+00
    0.17948E-07         0.12806E-19         0.00000E+00
    0.18748E-07         0.24447E-19         0.00000E+00
    0.19571E-07         0.24214E-19         0.00000E+00
    0.20416E-07         0.17229E-19         0.00000E+00
    0.21283E-07         0.19092E-19         0.00000E+00
    0.22171E-07         0.18161E-19         0.00000E+00
    0.23079E-07         0.14435E-19         0.00000E+00
    0.24007E-07         0.20489E-19         0.00000E+00
    0.24951E-07         0.28405E-19         0.00000E+00
    0.25911E-07         0.36787E-19         0.00000E+00
    0.26886E-07         0.24447E-19         0.00000E+00
    0.27872E-07         0.22585E-19         0.00000E+00
    0.28868E-07         0.15134E-19         0.00000E+00
    0.29870E-07         0.17695E-19         0.00000E+00
    0.30877E-07         0.27474E-19         0.00000E+00
    0.31885E-07         0.35157E-19         0.00000E+00
    0.32890E-07         0.30035E-19         0.00000E+00
    0.33889E-07         0.21188E-19         0.00000E+00
    0.34877E-07         0.21653E-19         0.00000E+00
    0.35850E-07         0.25844E-19         0.00000E+00
    0.36804E-07         0.22352E-19         0.00000E+00
    0.37733E-07         0.18626E-19         0.00000E+00
    0.38632E-07         0.21653E-19         0.00000E+00
    0.39496E-07         0.16997E-19         0.00000E+00
    0.40319E-07         0.10710E-19         0.00000E+00
    0.41094E-07         0.59372E-20         0.00000E+00
    0.41817E-07         0.74506E-20         0.00000E+00
    0.42480E-07         0.26659E-19         0.00000E+00
    0.43078E-07         0.21304E-19         0.00000E+00
    0.43605E-07         0.19674E-19         0.00000E+00
    0.44054E-07         0.22352E-19         0.00000E+00
    0.44422E-07         0.89640E-20         0.00000E+00
    0.44702E-07         0.11409E-19         0.00000E+00
    0.44891E-07         0.33760E-20         0.00000E+00
    0.44987E-07        -0.79162E-20         0.00000E+00
    0.91510E-09        -0.46566E-21         0.00000E+00
    0.91864E-09        -0.81491E-20         0.00000E+00
    0.92574E-09        -0.12340E-19         0.00000E+00
    0.93641E-09        -0.11642E-20         0.00000E+00
    0.95070E-09         0.76834E-20         0.00000E+00
    0.96864E-09         0.90804E-20         0.00000E+00
    0.99029E-09         0.48894E-20         0.00000E+00
    0.10157E-08         0.67521E-20         0.00000E+00
    0.10450E-08         0.20256E-19         0.00000E+00
    0.10782E-08         0.12107E-19         0.00000E+00
    0.11155E-08         0.81491E-20         0.00000E+00
    0.11570E-08         0.18394E-19         0.00000E+00
    0.12027E-08         0.21653E-19         0.00000E+00
    0.12529E-08         0.15134E-19         0.00000E+00
    0.13076E-08         0.16298E-19         0.00000E+00
    0.13671E-08         0.30966E-19         0.00000E+00
    0.14316E-08         0.24447E-19         0.00000E+00
    0.15011E-08         0.17229E-19         0.00000E+00
    0.15759E-08         0.12340E-19         0.00000E+00
    0.16563E-08         0.12806E-19         0.00000E+00
    0.17425E-08         0.20955E-19         0.00000E+00
    0.18346E-08         0.14901E-19         0.00000E+00
    0.19330E-08         0.24447E-19         0.00000E+00
    0.20380E-08         0.24214E-19         0.00000E+00
    0.21498E-08         0.10477E-19         0.00000E+00
    0.22687E-08         0.93132E-20         0.00000E+00
    0.23951E-08         0.16298E-20         0.00000E+00
    0.25293E-08         0.86147E-20         0.00000E+00
    0.26716E-08         0.51223E-20         0.00000E+00
    0.28224E-08         0.10477E-19         0.00000E+00
    0.29820E-08         0.21188E-19         0.00000E+00
    0.31510E-08         0.19092E-19         0.00000E+00
    0.33296E-08         0.10245E-19         0.00000E+00
    0.35184E-08         0.10710E-19         0.00000E+00
    0.37177E-08         0.55879E-20         0.00000E+00
    0.39280E-08        -0.32596E-20         0.00000E+00
    0.41498E-08         0.58208E-20         0.00000E+00
    0.43836E-08         0.15832E-19         0.00000E+00
    0.46298E-08         0.19791E-19         0.00000E+00
    0.48890E-08         0.22119E-19         0.00000E+00
    0.51618E-08         0.11874E-19         0.00000E+00
    0.54486E-08         0.58208E-20         0.00000E+00
    0.57499E-08         0.18161E-19         0.00000E+00
    0.60665E-08         0.18626E-19         0.00000E+00
    0.63987E-08         0.17229E-19         0.00000E+00
    0.67472E-08         0.23516E-19         0.00000E+00
    0.71126E-08         0.69849E-21         0.00000E+00
    0.74954E-08        -0.14435E-19         0.00000E+00
    0.78962E-08         0.20955E-20         0.00000E+00
    0.83156E-08         0.90804E-20         0.00000E+00
    0.87541E-08         0.00000E+00         0.00000E+00
    0.92123E-08         0.12340E-19         0.00000E+00
    0.96908E-08         0.15832E-19         0.00000E+00
    0.10190E-07         0.25611E-20         0.00000E+00
    0.10711E-07         0.18626E-20         0.00000E+00
    0.11253E-07         0.51223E-20         0.00000E+00
    0.11817E-07         0.10245E-19         0.00000E+00
    0.12405E-07         0.13504E-19         0.00000E+00
    0.13015E-07         0.16764E-19         0.00000E+00
    0.13648E-07         0.10245E-19         0.00000E+00
    0.14305E-07        -0.20955E-20         0.00000E+00
    0.14986E-07         0.13039E-19         0.00000E+00
    0.15691E-07         0.13504E-19         0.00000E+00
    0.16419E-07         0.86147E-20         0.00000E+00
    0.17172E-07         0.44238E-20         0.00000E+00
    0.17948E-07        -0.30268E-20         0.00000E+00
    0.18748E-07         0.16997E-19         0.00000E+00
    0.19571E-07         0.17229E-19         0.00000E+00
    0.20416E-07         0.48894E-20         0.00000E+00
    0.21283E-07         0.13504E-19         0.00000E+00
    0.22171E-07         0.18626E-19         0.00000E+00
    0.23079E-07         0.20489E-19         0.00000E+00
    0.24007E-07         0.28405E-19         0.00000E+00
    0.24951E-07         0.31665E-19         0.00000E+00
    0.25911E-07         0.20256E-19         0.00000E+00
    0.26886E-07         0.12806E-19         0.00000E+00
    0.27872E-07         0.17462E-19         0.00000E+00
    0.28868E-07         0.74506E-20         0.00000E+00
    0.29870E-07         0.32596E-20         0.00000E+00
    0.30877E-07         0.19791E-19         0.00000E+00
    0.31885E-07         0.29569E-19         0.00000E+00
    0.32890E-07         0.19325E-19         0.00000E+00
    0.33889E-07         0.17928E-19         0.00000E+00
    0.34877E-07         0.88476E-20         0.00000E+00
    0.35850E-07         0.60536E-20         0.00000E+00
    0.36804E-07         0.11409E-19         0.00000E+00
    0.37733E-07         0.15367E-19         0.00000E+00
    0.38632E-07         0.13970E-19         0.00000E+00
    0.39496E-07         0.30268E-20         0.00000E+00
    0.40319E-07        -0.37253E-20         0.00000E+00
    0.41094E-07        -0.16182E-19         0.00000E+00
    0.41817E-07         0.23283E-20         0.00000E+00
    0.42480E-07         0.10128E-19         0.00000E+00
    0.43078E-07         0.58208E-20         0.00000E+00
    0.43605E-07         0.18277E-19         0.00000E+00
    0.44054E-07         0.83819E-20         0.00000E+00
    0.44422E-07        -0.15134E-20         0.00000E+00
    0.44702E-07         0.46566E-20         0.00000E+00
    0.44891E-07         0.52387E-20         0.00000E+00
    0.44987E-07         0.34925E-21         0.00000E+00
    0.91510E-09        -0.93132E-21         0.00000E+00
    0.91864E-09        -0.34925E-20         0.00000E+00
    0.92574E-09        -0.11409E-19         0.00000E+00
    0.93641E-09        -0.86147E-20         0.00000E+00
    0.95070E-09        -0.93132E-21         0.00000E+00
    0.96864E-09         0.48894E-20         0.00000E+00
    0.99029E-09        -0.62864E-20         0.00000E+00
    0.10157E-08        -0.58208E-20         0.00000E+00
    0.10450E-08         0.15134E-19         0.00000E+00
    0.10782E-08         0.12340E-19         0.00000E+00
    0.11155E-08         0.19325E-19         0.00000E+00
    0.11570E-08         0.16531E-19         0.00000E+00
    0.12027E-08         0.15134E-19         0.00000E+00
    0.12529E-08         0.19791E-19         0.00000E+00
    0.13076E-08         0.18394E-19         0.00000E+00
    0.13671E-08         0.32363E-19         0.00000E+00
    0.14316E-08         0.32363E-19         0.00000E+00
    0.15011E-08         0.11642E-19         0.00000E+00
    0.15759E-08         0.10012E-19         0.00000E+00
    0.16563E-08         0.20722E-19         0.00000E+00
    0.17425E-08         0.30734E-19         0.00000E+00
    0.18346E-08         0.22119E-19         0.00000E+00
    0.19330E-08         0.22119E-19         0.00000E+00
    0.20380E-08         0.21188E-19         0.00000E+00
    0.21498E-08         0.58208E-20         0.00000E+00
    0.22687E-08         0.41910E-20         0.00000E+00
    0.23951E-08         0.15367E-19         0.00000E+00
    0.25293E-08         0.22585E-19         0.00000E+00
    0.26716E-08         0.11642E-19         0.00000E+00
    0.28224E-08        -0.48894E-20         0.00000E+00
    0.29820E-08         0.19558E-19         0.00000E+00
    0.31510E-08         0.25611E-19         0.00000E+00
    0.33296E-08         0.39581E-20         0.00000E+00
    0.35184E-08         0.41910E-20         0.00000E+00
    0.37177E-08         0.13039E-19         0.00000E+00
    0.39280E-08         0.18161E-19         0.00000E+00
    0.41498E-08         0.16531E-19         0.00000E+00
    0.43836E-08         0.79162E-20         0.00000E+00
    0.46298E-08         0.13504E-19         0.00000E+00
    0.48890E-08         0.20256E-19         0.00000E+00
    0.51618E-08         0.22352E-19         0.00000E+00
    0.54486E-08         0.19092E-19         0.00000E+00
    0.57499E-08         0.14435E-19         0.00000E+00
    0.60665E-08         0.12806E-19         0.00000E+00
    0.63987E-08         0.15832E-19         0.00000E+00
    0.67472E-08         0.24214E-19         0.00000E+00
    0.71126E-08         0.23283E-20         0.00000E+00
    0.74954E-08        -0.16298E-20         0.00000E+00
    0.78962E-08         0.19558E-19         0.00000E+00
    0.83156E-08         0.20722E-19         0.00000E+00
    0.87541E-08         0.34925E-20         0.00000E+00
    0.92123E-08         0.23283E-21         0.00000E+00
    0.96908E-08         0.60536E-20         0.00000E+00
    0.10190E-07         0.23283E-21         0.00000E+00
    0.10711E-07         0.20489E-19         0.00000E+00
    0.11253E-07         0.17229E-19         0.00000E+00
    0.11817E-07        -0.32596E-20         0.00000E+00
    0.12405E-07        -0.93132E-21         0.00000E+00
    0.13015E-07         0.34925E-20         0.00000E+00
    0.13648E-07         0.10012E-19         0.00000E+00
    0.14305E-07         0.10710E-19         0.00000E+00
    0.14986E-07         0.11642E-19         0.00000E+00
    0.15691E-07         0.19791E-19         0.00000E+00
    0.16419E-07         0.23283E-19         0.00000E+00
    0.17172E-07         0.90804E-20         0.00000E+00
    0.17948E-07         0.62864E-20         0.00000E+00
    0.18748E-07         0.90804E-20         0.00000E+00
    0.19571E-07         0.16298E-19         0.00000E+00
    0.20416E-07         0.18161E-19         0.00000E+00
    0.21283E-07         0.95461E-20         0.00000E+00
    0.22171E-07         0.25146E-19         0.00000E+00
    0.23079E-07         0.42375E-19         0.00000E+00
    0.24007E-07         0.43306E-19         0.00000E+00
    0.24951E-07         0.28638E-19         0.00000E+00
    0.25911E-07         0.24447E-19         0.00000E+00
    0.26886E-07         0.22119E-19         0.00000E+00
    0.27872E-07         0.19092E-19         0.00000E+00
    0.28868E-07         0.31665E-19         0.00000E+00
    0.29870E-07         0.26077E-19         0.00000E+00
    0.30877E-07         0.27008E-19         0.00000E+00
    0.31885E-07         0.15134E-19         0.00000E+00
    0.32890E-07         0.18394E-19         0.00000E+00
    0.33889E-07         0.22119E-19         0.00000E+00
    0.34877E-07         0.14901E-19         0.00000E+00
    0.35850E-07         0.11874E-19         0.00000E+00
    0.36804E-07         0.16298E-19         0.00000E+00
    0.37733E-07         0.22817E-19         0.00000E+00
    0.38632E-07         0.13271E-19         0.00000E+00
    0.39496E-07         0.86147E-20         0.00000E+00
    0.40319E-07         0.10477E-19         0.00000E+00
    0.41094E-07         0.23865E-19         0.00000E+00
    0.41817E-07         0.24447E-19         0.00000E+00
    0.42480E-07         0.94296E-20         0.00000E+00
    0.43078E-07         0.19791E-19         0.00000E+00
    0.43605E-07         0.33062E-19         0.00000E+00
    0.44054E-07         0.15600E-19         0.00000E+00
    0.44422E-07         0.10361E-19         0.00000E+00
    0.44702E-07         0.64028E-20         0.00000E+00
    0.44891E-07         0.10477E-20         0.00000E+00
    0.44987E-07         0.93132E-21         0.00000E+00
    0.91510E-09        -0.83819E-20         0.00000E+00
    0.91864E-09        -0.65193E-20         0.00000E+00
    0.92574E-09        -0.46566E-21         0.00000E+00
    0.93641E-09         0.18626E-20         0.00000E+00
    0.95070E-09         0.48894E-20         0.00000E+00
    0.96864E-09         0.12806E-19         0.00000E+00
    0.99029E-09         0.83819E-20         0.00000E+00
    0.10157E-08         0.16298E-20         0.00000E+00
    0.10450E-08         0.11176E-19         0.00000E+00
    0.10782E-08         0.19791E-19         0.00000E+00
    0.11155E-08         0.16997E-19         0.00000E+00
    0.11570E-08         0.18394E-19         0.00000E+00
    0.12027E-08         0.25844E-19         0.00000E+00
    0.12529E-08         0.12573E-19         0.00000E+00
    0.13076E-08         0.16531E-19         0.00000E+00
    0.13671E-08         0.21188E-19         0.00000E+00
    0.14316E-08         0.13039E-19         0.00000E+00
    0.15011E-08         0.20722E-19         0.00000E+00
    0.15759E-08         0.19558E-19         0.00000E+00
    0.16563E-08         0.21653E-19         0.00000E+00
    0.17425E-08         0.30734E-19         0.00000E+00
    0.18346E-08         0.14668E-19         0.00000E+00
    0.19330E-08         0.90804E-20         0.00000E+00
    0.20380E-08        -0.69849E-21         0.00000E+00
    0.21498E-08        -0.11409E-19         0.00000E+00
    0.22687E-08        -0.23283E-20         0.00000E+00
    0.23951E-08         0.88476E-20         0.00000E+00
    0.25293E-08         0.10012E-19         0.00000E+00
    0.26716E-08         0.11409E-19         0.00000E+00
    0.28224E-08         0.55879E-20         0.00000E+00
    0.29820E-08        -0.41910E-20         0.00000E+00
    0.31510E-08        -0.18626E-20         0.00000E+00
    0.33296E-08        -0.83819E-20         0.00000E+00
    0.35184E-08        -0.16298E-19         0.00000E+00
    0.37177E-08        -0.76834E-20         0.00000E+00
    0.39280E-08        -0.15600E-19         0.00000E+00
    0.41498E-08        -0.37253E-20         0.00000E+00
    0.43836E-08        -0.23283E-20         0.00000E+00
    0.46298E-08         0.18626E-20         0.00000E+00
    0.48890E-08         0.16065E-19         0.00000E+00
    0.51618E-08         0.22119E-19         0.00000E+00
    0.54486E-08         0.15600E-19         0.00000E+00
    0.57499E-08         0.76834E-20         0.00000E+00
    0.60665E-08         0.90804E-20         0.00000E+00
    0.63987E-08         0.83819E-20         0.00000E+00
    0.67472E-08         0.65193E-20         0.00000E+00
    0.71126E-08         0.48894E-20         0.00000E+00
    0.74954E-08        -0.18626E-20         0.00000E+00
    0.78962E-08         0.76834E-20         0.00000E+00
    0.83156E-08         0.18859E-19         0.00000E+00
    0.87541E-08         0.14435E-19         0.00000E+00
    0.92123E-08         0.14203E-19         0.00000E+00
    0.96908E-08         0.18161E-19         0.00000E+00
    0.10190E-07         0.19791E-19         0.00000E+00
    0.10711E-07         0.83819E-20         0.00000E+00
    0.11253E-07         0.13504E-19         0.00000E+00
    0.11817E-07         0.20023E-19         0.00000E+00
    0.12405E-07         0.86147E-20         0.00000E+00
    0.13015E-07         0.13039E-19         0.00000E+00
    0.13648E-07         0.13271E-19         0.00000E+00
    0.14305E-07         0.15832E-19         0.00000E+00
    0.14986E-07         0.11176E-19         0.00000E+00
    0.15691E-07        -0.27940E-20         0.00000E+00
    0.16419E-07         0.10710E-19         0.00000E+00
    0.17172E-07         0.10477E-19         0.00000E+00
    0.17948E-07        -0.86147E-20         0.00000E+00
    0.18748E-07        -0.32596E-20         0.00000E+00
    0.19571E-07         0.15832E-19         0.00000E+00
    0.20416E-07         0.69849E-20         0.00000E+00
    0.21283E-07         0.60536E-20         0.00000E+00
    0.22171E-07         0.17695E-19         0.00000E+00
    0.23079E-07         0.13970E-19         0.00000E+00
    0.24007E-07         0.21420E-19         0.00000E+00
    0.24951E-07         0.24680E-19         0.00000E+00
    0.25911E-07         0.27008E-19         0.00000E+00
    0.26886E-07         0.30966E-19         0.00000E+00
    0.27872E-07         0.19092E-19         0.00000E+00
    0.28868E-07         0.15134E-19         0.00000E+00
    0.29870E-07         0.20955E-19         0.00000E+00
    0.30877E-07         0.12573E-19         0.00000E+00
    0.31885E-07         0.15134E-19         0.00000E+00
    0.32890E-07         0.17462E-19         0.00000E+00
    0.33889E-07         0.15600E-19         0.00000E+00
    0.34877E-07         0.16531E-19         0.00000E+00
    0.35850E-07         0.26543E-19         0.00000E+00
    0.36804E-07         0.23749E-19         0.00000E+00
    0.37733E-07         0.10710E-19         0.00000E+00
    0.38632E-07         0.17229E-19         0.00000E+00
    0.39496E-07         0.81491E-20         0.00000E+00
    0.40319E-07         0.76834E-20         0.00000E+00
    0.41094E-07         0.11874E-19         0.00000E+00
    0.41817E-07         0.11991E-19         0.00000E+00
    0.42480E-07         0.18510E-19         0.00000E+00
    0.43078E-07         0.19325E-19         0.00000E+00
    0.43605E-07         0.13737E-19         0.00000E+00
    0.44054E-07         0.15600E-19         0.00000E+00
    0.44422E-07         0.13039E-19         0.00000E+00
    0.44702E-07         0.60536E-20         0.00000E+00
    0.44891E-07         0.16880E-19         0.00000E+00
    0.44987E-07         0.13504E-19         0.00000E+00
    0.91510E-09        -0.46566E-21         0.00000E+00
    0.91864E-09        -0.27940E-20         0.00000E+00
    0.92574E-09         0.51223E-20         0.00000E+00
    0.93641E-09         0.11409E-19         0.00000E+00
    0.95070E-09         0.10012E-19         0.00000E+00
    0.96864E-09        -0.11642E-20         0.00000E+00
    0.99029E-09         0.22817E-19         0.00000E+00
    0.10157E-08         0.21188E-19         0.00000E+00
    0.10450E-08         0.93132E-20         0.00000E+00
    0.10782E-08         0.19791E-19         0.00000E+00
    0.11155E-08         0.30501E-19         0.00000E+00
    0.11570E-08         0.28638E-19         0.00000E+00
    0.12027E-08         0.12806E-19         0.00000E+00
    0.12529E-08         0.23283E-19         0.00000E+00
    0.13076E-08         0.23516E-19         0.00000E+00
    0.13671E-08         0.15134E-19         0.00000E+00
    0.14316E-08         0.25146E-19         0.00000E+00
    0.15011E-08         0.22119E-19         0.00000E+00
    0.15759E-08         0.30268E-19         0.00000E+00
    0.16563E-08         0.31432E-19         0.00000E+00
    0.17425E-08         0.19092E-19         0.00000E+00
    0.18346E-08         0.15832E-19         0.00000E+00
    0.19330E-08         0.16065E-19         0.00000E+00
    0.20380E-08         0.34925E-20         0.00000E+00
    0.21498E-08        -0.60536E-20         0.00000E+00
    0.22687E-08        -0.39581E-20         0.00000E+00
    0.23951E-08         0.58208E-20         0.00000E+00
    0.25293E-08        -0.20955E-20         0.00000E+00
    0.26716E-08         0.37253E-20         0.00000E+00
    0.28224E-08         0.25611E-20         0.00000E+00
    0.29820E-08        -0.13970E-20         0.00000E+00
    0.31510E-08        -0.23283E-20         0.00000E+00
    0.33296E-08        -0.79162E-20         0.00000E+00
    0.35184E-08        -0.14901E-19         0.00000E+00
    0.37177E-08        -0.32596E-20         0.00000E+00
    0.39280E-08         0.13737E-19         0.00000E+00
    0.41498E-08         0.11874E-19         0.00000E+00
    0.43836E-08         0.81491E-20         0.00000E+00
    0.46298E-08         0.10012E-19         0.00000E+00
    0.48890E-08         0.11874E-19         0.00000E+00
    0.51618E-08         0.10245E-19         0.00000E+00
    0.54486E-08         0.11409E-19         0.00000E+00
    0.57499E-08         0.27940E-20         0.00000E+00
    0.60665E-08        -0.34925E-20         0.00000E+00
    0.63987E-08        -0.25611E-20         0.00000E+00
    0.67472E-08         0.55879E-20         0.00000E+00
    0.71126E-08         0.67521E-20         0.00000E+00
    0.74954E-08        -0.18626E-20         0.00000E+00
    0.78962E-08         0.44238E-20         0.00000E+00
    0.83156E-08         0.58208E-20         0.00000E+00
    0.87541E-08         0.93132E-20         0.00000E+00
    0.92123E-08         0.16298E-20         0.00000E+00
    0.96908E-08         0.74506E-20         0.00000E+00
    0.10190E-07         0.17229E-19         0.00000E+00
    0.10711E-07         0.13970E-20         0.00000E+00
    0.11253E-07        -0.16298E-20         0.00000E+00
    0.11817E-07         0.13970E-20         0.00000E+00
    0.12405E-07        -0.69849E-21         0.00000E+00
    0.13015E-07        -0.53551E-20         0.00000E+00
    0.13648E-07        -0.60536E-20         0.00000E+00
    0.14305E-07         0.81491E-20         0.00000E+00
    0.14986E-07         0.32596E-20         0.00000E+00
    0.15691E-07         0.32596E-20         0.00000E+00
    0.16419E-07         0.81491E-20         0.00000E+00
    0.17172E-07         0.39581E-20         0.00000E+00
    0.17948E-07        -0.16298E-20         0.00000E+00
    0.18748E-07         0.69849E-21         0.00000E+00
    0.19571E-07         0.55879E-20         0.00000E+00
    0.20416E-07         0.11642E-19         0.00000E+00
    0.21283E-07         0.12107E-19         0.00000E+00
    0.22171E-07         0.18161E-19         0.00000E+00
    0.23079E-07         0.25611E-19         0.00000E+00
    0.24007E-07         0.32829E-19         0.00000E+00
    0.24951E-07         0.26310E-19         0.00000E+00
    0.25911E-07         0.21653E-19         0.00000E+00
    0.26886E-07         0.24913E-19         0.00000E+00
    0.27872E-07         0.31432E-19         0.00000E+00
    0.28868E-07         0.21420E-19         0.00000E+00
    0.29870E-07         0.19558E-19         0.00000E+00
    0.30877E-07         0.20489E-19         0.00000E+00
    0.31885E-07         0.13970E-19         0.00000E+00
    0.32890E-07         0.11874E-19         0.00000E+00
    0.33889E-07         0.48894E-20         0.00000E+00
    0.34877E-07         0.65193E-20         0.00000E+00
    0.35850E-07         0.15134E-19         0.00000E+00
    0.36804E-07         0.16764E-19         0.00000E+00
    0.37733E-07         0.60536E-20         0.00000E+00
    0.38632E-07         0.20256E-19         0.00000E+00
    0.39496E-07         0.17928E-19         0.00000E+00
    0.40319E-07         0.67521E-20         0.00000E+00
    0.41094E-07         0.12806E-19         0.00000E+00
    0.41817E-07         0.91968E-20         0.00000E+00
    0.42480E-07         0.17113E-19         0.00000E+00
    0.43078E-07         0.18626E-19         0.00000E+00
    0.43605E-07         0.11525E-19         0.00000E+00
    0.44054E-07         0.19558E-19         0.00000E+00
    0.44422E-07         0.21420E-19         0.00000E+00
    0.44702E-07         0.11642E-19         0.00000E+00
    0.44891E-07         0.22119E-20         0.00000E+00
    0.44987E-07         0.23283E-20         0.00000E+00
    0.91510E-09        -0.74506E-20         0.00000E+00
    0.91864E-09        -0.15367E-19         0.00000E+00
    0.92574E-09        -0.62864E-20         0.00000E+00
    0.93641E-09         0.76834E-20         0.00000E+00
    0.95070E-09         0.34925E-20         0.00000E+00
    0.96864E-09        -0.67521E-20         0.00000E+00
    0.99029E-09         0.20955E-20         0.00000E+00
    0.10157E-08         0.16298E-20         0.00000E+00
    0.10450E-08         0.11642E-20         0.00000E+00
    0.10782E-08         0.93132E-20         0.00000E+00
    0.11155E-08         0.21188E-19         0.00000E+00
    0.11570E-08         0.95461E-20         0.00000E+00
    0.12027E-08        -0.11642E-20         0.00000E+00
    0.12529E-08        -0.69849E-21         0.00000E+00
    0.13076E-08         0.10245E-19         0.00000E+00
    0.13671E-08         0.22119E-19         0.00000E+00
    0.14316E-08         0.24913E-19         0.00000E+00
    0.15011E-08         0.16764E-19         0.00000E+00
    0.15759E-08         0.18394E-19         0.00000E+00
    0.16563E-08         0.22817E-19         0.00000E+00
    0.17425E-08         0.11642E-19         0.00000E+00
    0.18346E-08         0.60536E-20         0.00000E+00
    0.19330E-08         0.13970E-20         0.00000E+00
    0.20380E-08        -0.13970E-20         0.00000E+00
    0.21498E-08        -0.79162E-20         0.00000E+00
    0.22687E-08        -0.93132E-20         0.00000E+00
    0.23951E-08        -0.69849E-20         0.00000E+00
    0.25293E-08        -0.67521E-20         0.00000E+00
    0.26716E-08         0.20955E-20         0.00000E+00
    0.28224E-08        -0.46566E-20         0.00000E+00
    0.29820E-08        -0.20023E-19         0.00000E+00
    0.31510E-08        -0.14435E-19         0.00000E+00
    0.33296E-08        -0.20955E-20         0.00000E+00
    0.35184E-08        -0.14901E-19         0.00000E+00
    0.37177E-08        -0.21420E-19         0.00000E+00
    0.39280E-08        -0.17462E-19         0.00000E+00
    0.41498E-08        -0.15600E-19         0.00000E+00
    0.43836E-08         0.27940E-20         0.00000E+00
    0.46298E-08         0.46566E-21         0.00000E+00
    0.48890E-08        -0.12340E-19         0.00000E+00
    0.51618E-08        -0.10943E-19         0.00000E+00
    0.54486E-08        -0.16764E-19         0.00000E+00
    0.57499E-08        -0.81491E-20         0.00000E+00
    0.60665E-08        -0.44238E-20         0.00000E+00
    0.63987E-08         0.37253E-20         0.00000E+00
    0.67472E-08         0.27940E-20         0.00000E+00
    0.71126E-08        -0.39581E-20         0.00000E+00
    0.74954E-08        -0.20955E-20         0.00000E+00
    0.78962E-08        -0.14668E-19         0.00000E+00
    0.83156E-08        -0.16997E-19         0.00000E+00
    0.87541E-08        -0.16298E-19         0.00000E+00
    0.92123E-08        -0.55879E-20         0.00000E+00
    0.96908E-08         0.46566E-21         0.00000E+00
    0.10190E-07         0.58208E-20         0.00000E+00
    0.10711E-07        -0.13970E-20         0.00000E+00
    0.11253E-07        -0.11176E-19         0.00000E+00
    0.11817E-07        -0.90804E-20         0.00000E+00
    0.12405E-07        -0.23283E-21         0.00000E+00
    0.13015E-07        -0.16298E-20         0.00000E+00
    0.13648E-07         0.46566E-20         0.00000E+00
    0.14305E-07        -0.93132E-21         0.00000E+00
    0.14986E-07        -0.41910E-20         0.00000E+00
    0.15691E-07         0.97789E-20         0.00000E+00
    0.16419E-07        -0.23283E-21         0.00000E+00
    0.17172E-07        -0.76834E-20         0.00000E+00
    0.17948E-07         0.20955E-20         0.00000E+00
    0.18748E-07        -0.16298E-20         0.00000E+00
    0.19571E-07        -0.55879E-20         0.00000E+00
    0.20416E-07         0.41910E-20         0.00000E+00
    0.21283E-07         0.41910E-20         0.00000E+00
    0.22171E-07         0.23283E-20         0.00000E+00
    0.23079E-07         0.60536E-20         0.00000E+00
    0.24007E-07         0.69849E-20         0.00000E+00
    0.24951E-07         0.93132E-20         0.00000E+00
    0.25911E-07         0.44238E-20         0.00000E+00
    0.26886E-07         0.41910E-20         0.00000E+00
    0.27872E-07         0.12340E-19         0.00000E+00
    0.28868E-07         0.16531E-19         0.00000E+00
    0.29870E-07         0.17695E-19         0.00000E+00
    0.30877E-07         0.88476E-20         0.00000E+00
    0.31885E-07         0.16065E-19         0.00000E+00
    0.32890E-07         0.17229E-19         0.00000E+00
    0.33889E-07         0.76834E-20         0.00000E+00
    0.34877E-07         0.16298E-20         0.00000E+00
    0.35850E-07         0.67521E-20         0.00000E+00
    0.36804E-07         0.21420E-19         0.00000E+00
    0.37733E-07         0.14435E-19         0.00000E+00
    0.38632E-07         0.67521E-20         0.00000E+00
    0.39496E-07         0.20955E-19         0.00000E+00
    0.40319E-07         0.90804E-20         0.00000E+00
    0.41094E-07         0.80327E-20         0.00000E+00
    0.41817E-07         0.23982E-19         0.00000E+00
    0.42480E-07         0.17579E-19         0.00000E+00
    0.43078E-07         0.83819E-20         0.00000E+00
    0.43605E-07         0.11874E-19         0.00000E+00
    0.44054E-07         0.13271E-19         0.00000E+00
    0.44422E-07         0.22701E-19         0.00000E+00
    0.44702E-07         0.18394E-19         0.00000E+00
    0.44891E-07         0.81491E-20         0.00000E+00
    0.44987E-07         0.54715E-20         0.00000E+00
    0.91510E-09         0.11642E-20         0.00000E+00
    0.91864E-09        -0.76834E-20         0.00000E+00
    0.92574E-09        -0.69849E-21         0.00000E+00
    0.93641E-09         0.15600E-19         0.00000E+00
    0.95070E-09         0.51223E-20         0.00000E+00
    0.96864E-09        -0.25611E-20         0.00000E+00
    0.99029E-09        -0.37253E-20         0.00000E+00
    0.10157E-08         0.15367E-19         0.00000E+00
    0.10450E-08         0.16065E-19         0.00000E+00
    0.10782E-08         0.21420E-19         0.00000E+00
    0.11155E-08         0.16531E-19         0.00000E+00
    0.11570E-08         0.13737E-19         0.00000E+00
    0.12027E-08         0.22585E-19         0.00000E+00
    0.12529E-08         0.17928E-19         0.00000E+00
    0.13076E-08         0.23283E-19         0.00000E+00
    0.13671E-08         0.10012E-19         0.00000E+00
    0.14316E-08         0.12573E-19         0.00000E+00
    0.15011E-08         0.19558E-19         0.00000E+00
    0.15759E-08         0.62864E-20         0.00000E+00
    0.16563E-08         0.12340E-19         0.00000E+00
    0.17425E-08         0.58208E-20         0.00000E+00
    0.18346E-08        -0.20955E-20         0.00000E+00
    0.19330E-08        -0.34925E-20         0.00000E+00
    0.20380E-08        -0.11176E-19         0.00000E+00
    0.21498E-08        -0.18859E-19         0.00000E+00
    0.22687E-08        -0.10245E-19         0.00000E+00
    0.23951E-08        -0.65193E-20         0.00000E+00
    0.25293E-08        -0.11409E-19         0.00000E+00
    0.26716E-08        -0.88476E-20         0.00000E+00
    0.28224E-08        -0.15367E-19         0.00000E+00
    0.29820E-08        -0.30501E-19         0.00000E+00
    0.31510E-08        -0.33993E-19         0.00000E+00
    0.33296E-08        -0.20722E-19         0.00000E+00
    0.35184E-08        -0.11176E-19         0.00000E+00
    0.37177E-08        -0.18161E-19         0.00000E+00
    0.39280E-08        -0.25611E-19         0.00000E+00
    0.41498E-08        -0.23982E-19         0.00000E+00
    0.43836E-08        -0.24680E-19         0.00000E+00
    0.46298E-08        -0.21653E-19         0.00000E+00
    0.48890E-08        -0.30035E-19         0.00000E+00
    0.51618E-08        -0.29569E-19         0.00000E+00
    0.54486E-08        -0.13970E-19         0.00000E+00
    0.57499E-08        -0.53551E-20         0.00000E+00
    0.60665E-08        -0.20023E-19         0.00000E+00
    0.63987E-08        -0.33760E-19         0.00000E+00
    0.67472E-08        -0.20256E-19         0.00000E+00
    0.71126E-08        -0.11409E-19         0.00000E+00
    0.74954E-08         0.93132E-21         0.00000E+00
    0.78962E-08        -0.15367E-19         0.00000E+00
    0.83156E-08        -0.32363E-19         0.00000E+00
    0.87541E-08        -0.13970E-19         0.00000E+00
    0.92123E-08         0.88476E-20         0.00000E+00
    0.96908E-08        -0.16764E-19         0.00000E+00
    0.10190E-07        -0.12340E-19         0.00000E+00
    0.10711E-07         0.46566E-21         0.00000E+00
    0.11253E-07         0.41910E-20         0.00000E+00
    0.11817E-07         0.27940E-20         0.00000E+00
    0.12405E-07        -0.12107E-19         0.00000E+00
    0.13015E-07        -0.67521E-20         0.00000E+00
    0.13648E-07         0.18626E-20         0.00000E+00
    0.14305E-07        -0.97789E-20         0.00000E+00
    0.14986E-07        -0.12573E-19         0.00000E+00
    0.15691E-07        -0.15134E-19         0.00000E+00
    0.16419E-07        -0.15134E-19         0.00000E+00
    0.17172E-07        -0.12340E-19         0.00000E+00
    0.17948E-07        -0.10477E-19         0.00000E+00
    0.18748E-07        -0.13970E-19         0.00000E+00
    0.19571E-07        -0.29337E-19         0.00000E+00
    0.20416E-07        -0.13039E-19         0.00000E+00
    0.21283E-07         0.69849E-20         0.00000E+00
    0.22171E-07         0.10245E-19         0.00000E+00
    0.23079E-07         0.83819E-20         0.00000E+00
    0.24007E-07         0.95461E-20         0.00000E+00
    0.24951E-07         0.18161E-19         0.00000E+00
    0.25911E-07         0.15134E-19         0.00000E+00
    0.26886E-07         0.14668E-19         0.00000E+00
    0.27872E-07         0.26543E-19         0.00000E+00
    0.28868E-07         0.38184E-19         0.00000E+00
    0.29870E-07         0.32596E-19         0.00000E+00
    0.30877E-07         0.37253E-19         0.00000E+00
    0.31885E-07         0.25611E-19         0.00000E+00
    0.32890E-07         0.20722E-19         0.00000E+00
    0.33889E-07         0.10710E-19         0.00000E+00
    0.34877E-07         0.81491E-20         0.00000E+00
    0.35850E-07         0.20722E-19         0.00000E+00
    0.36804E-07         0.34925E-19         0.00000E+00
    0.37733E-07         0.28871E-19         0.00000E+00
    0.38632E-07         0.20955E-19         0.00000E+00
    0.39496E-07         0.21188E-19         0.00000E+00
    0.40319E-07         0.17695E-19         0.00000E+00
    0.41094E-07         0.14319E-19         0.00000E+00
    0.41817E-07         0.30268E-19         0.00000E+00
    0.42480E-07         0.30384E-19         0.00000E+00
    0.43078E-07         0.18161E-19         0.00000E+00
    0.43605E-07         0.29802E-19         0.00000E+00
    0.44054E-07         0.25611E-19         0.00000E+00
    0.44422E-07         0.15716E-19         0.00000E+00
    0.44702E-07         0.13271E-19         0.00000E+00
    0.44891E-07         0.91968E-20         0.00000E+00
    0.44987E-07         0.00000E+00         0.00000E+00
    0.91510E-09         0.44238E-20         0.00000E+00
    0.91864E-09         0.14668E-19         0.00000E+00
    0.92574E-09         0.14668E-19         0.00000E+00
    0.93641E-09         0.37253E-20         0.00000E+00
    0.95070E-09         0.67521E-20         0.00000E+00
    0.96864E-09         0.18626E-20         0.00000E+00
    0.99029E-09        -0.69849E-21         0.00000E+00
    0.10157E-08         0.11642E-20         0.00000E+00
    0.10450E-08         0.32596E-20         0.00000E+00
    0.10782E-08         0.69849E-20         0.00000E+00
    0.11155E-08         0.24447E-19         0.00000E+00
    0.11570E-08         0.13737E-19         0.00000E+00
    0.12027E-08         0.51223E-20         0.00000E+00
    0.12529E-08         0.23283E-21         0.00000E+00
    0.13076E-08         0.16298E-20         0.00000E+00
    0.13671E-08         0.97789E-20         0.00000E+00
    0.14316E-08         0.27474E-19         0.00000E+00
    0.15011E-08         0.33528E-19         0.00000E+00
    0.15759E-08         0.26310E-19         0.00000E+00
    0.16563E-08         0.21653E-19         0.00000E+00
    0.17425E-08         0.83819E-20         0.00000E+00
    0.18346E-08         0.95461E-20         0.00000E+00
    0.19330E-08         0.37253E-20         0.00000E+00
    0.20380E-08        -0.14203E-19         0.00000E+00
    0.21498E-08        -0.17462E-19         0.00000E+00
    0.22687E-08        -0.60536E-20         0.00000E+00
    0.23951E-08         0.23283E-21         0.00000E+00
    0.25293E-08        -0.21188E-19         0.00000E+00
    0.26716E-08        -0.19092E-19         0.00000E+00
    0.28224E-08        -0.14668E-19         0.00000E+00
    0.29820E-08        -0.29569E-19         0.00000E+00
    0.31510E-08        -0.29802E-19         0.00000E+00
    0.33296E-08        -0.24447E-19         0.00000E+00
    0.35184E-08        -0.33062E-19         0.00000E+00
    0.37177E-08        -0.35390E-19         0.00000E+00
    0.39280E-08        -0.10477E-19         0.00000E+00
    0.41498E-08        -0.14668E-19         0.00000E+00
    0.43836E-08        -0.33062E-19         0.00000E+00
    0.46298E-08        -0.15367E-19         0.00000E+00
    0.48890E-08        -0.13039E-19         0.00000E+00
    0.51618E-08        -0.33993E-19         0.00000E+00
    0.54486E-08        -0.29337E-19         0.00000E+00
    0.57499E-08        -0.38417E-19         0.00000E+00
    0.60665E-08        -0.29569E-19         0.00000E+00
    0.63987E-08        -0.25844E-19         0.00000E+00
    0.67472E-08        -0.29104E-19         0.00000E+00
    0.71126E-08        -0.17928E-19         0.00000E+00
    0.74954E-08        -0.14435E-19         0.00000E+00
    0.78962E-08        -0.12573E-19         0.00000E+00
    0.83156E-08        -0.13504E-19         0.00000E+00
    0.87541E-08        -0.97789E-20         0.00000E+00
    0.92123E-08        -0.67521E-20         0.00000E+00
    0.96908E-08         0.46566E-21         0.00000E+00
    0.10190E-07        -0.83819E-20         0.00000E+00
    0.10711E-07        -0.19558E-19         0.00000E+00
    0.11253E-07        -0.55879E-20         0.00000E+00
    0.11817E-07        -0.34925E-20         0.00000E+00
    0.12405E-07        -0.20955E-20         0.00000E+00
    0.13015E-07        -0.25611E-20         0.00000E+00
    0.13648E-07        -0.24913E-19         0.00000E+00
    0.14305E-07        -0.29802E-19         0.00000E+00
    0.14986E-07        -0.19558E-19         0.00000E+00
    0.15691E-07        -0.23283E-19         0.00000E+00
    0.16419E-07        -0.21188E-19         0.00000E+00
    0.17172E-07        -0.22119E-19         0.00000E+00
    0.17948E-07        -0.21188E-19         0.00000E+00
    0.18748E-07        -0.19092E-19         0.00000E+00
    0.19571E-07        -0.23516E-19         0.00000E+00
    0.20416E-07        -0.26077E-19         0.00000E+00
    0.21283E-07        -0.16065E-19         0.00000E+00
    0.22171E-07        -0.55879E-20         0.00000E+00
    0.23079E-07        -0.55879E-20         0.00000E+00
    0.24007E-07        -0.39581E-20         0.00000E+00
    0.24951E-07        -0.16298E-20         0.00000E+00
    0.25911E-07         0.55879E-20         0.00000E+00
    0.26886E-07         0.11642E-19         0.00000E+00
    0.27872E-07         0.12806E-19         0.00000E+00
    0.28868E-07         0.79162E-20         0.00000E+00
    0.29870E-07         0.13504E-19         0.00000E+00
    0.30877E-07         0.20955E-19         0.00000E+00
    0.31885E-07         0.17928E-19         0.00000E+00
    0.32890E-07         0.76834E-20         0.00000E+00
    0.33889E-07         0.60536E-20         0.00000E+00
    0.34877E-07        -0.18626E-20         0.00000E+00
    0.35850E-07         0.41910E-20         0.00000E+00
    0.36804E-07         0.15134E-19         0.00000E+00
    0.37733E-07         0.15832E-19         0.00000E+00
    0.38632E-07         0.19325E-19         0.00000E+00
    0.39496E-07         0.20722E-19         0.00000E+00
    0.40319E-07         0.24214E-19         0.00000E+00
    0.41094E-07         0.17579E-19         0.00000E+00
    0.41817E-07         0.12107E-19         0.00000E+00
    0.42480E-07         0.50059E-20         0.00000E+00
    0.43078E-07         0.15018E-19         0.00000E+00
    0.43605E-07         0.23982E-19         0.00000E+00
    0.44054E-07         0.19558E-19         0.00000E+00
    0.44422E-07         0.11059E-19         0.00000E+00
    0.44702E-07         0.11642E-19         0.00000E+00
    0.44891E-07         0.20955E-20         0.00000E+00
    0.44987E-07        -0.72177E-20         0.00000E+00
    0.91510E-09         0.76834E-20         0.00000E+00
    0.91864E-09         0.11642E-19         0.00000E+00
    0.92574E-09         0.53551E-20         0.00000E+00
    0.93641E-09        -0.53551E-20         0.00000E+00
    0.95070E-09         0.30268E-20         0.00000E+00
    0.96864E-09         0.18626E-19         0.00000E+00
    0.99029E-09         0.13271E-19         0.00000E+00
    0.10157E-08        -0.30268E-20         0.00000E+00
    0.10450E-08         0.76834E-20         0.00000E+00
    0.10782E-08         0.22352E-19         0.00000E+00
    0.11155E-08         0.19791E-19         0.00000E+00
    0.11570E-08         0.22817E-19         0.00000E+00
    0.12027E-08         0.22119E-19         0.00000E+00
    0.12529E-08         0.11409E-19         0.00000E+00
    0.13076E-08         0.11874E-19         0.00000E+00
    0.13671E-08         0.26310E-19         0.00000E+00
    0.14316E-08         0.11874E-19         0.00000E+00
    0.15011E-08         0.97789E-20         0.00000E+00
    0.15759E-08         0.15600E-19         0.00000E+00
    0.16563E-08         0.14901E-19         0.00000E+00
    0.17425E-08         0.11642E-19         0.00000E+00
    0.18346E-08         0.15367E-19         0.00000E+00
    0.19330E-08        -0.32596E-20         0.00000E+00
    0.20380E-08        -0.23516E-19         0.00000E+00
    0.21498E-08        -0.16298E-20         0.00000E+00
    0.22687E-08         0.46566E-20         0.00000E+00
    0.23951E-08        -0.19325E-19         0.00000E+00
    0.25293E-08        -0.19791E-19         0.00000E+00
    0.26716E-08        -0.10943E-19         0.00000E+00
    0.28224E-08        -0.14668E-19         0.00000E+00
    0.29820E-08        -0.10245E-19         0.00000E+00
    0.31510E-08        -0.14435E-19         0.00000E+00
    0.33296E-08        -0.29337E-19         0.00000E+00
    0.35184E-08        -0.29104E-19         0.00000E+00
    0.37177E-08        -0.20023E-19         0.00000E+00
    0.39280E-08        -0.14901E-19         0.00000E+00
    0.41498E-08        -0.18394E-19         0.00000E+00
    0.43836E-08        -0.18626E-19         0.00000E+00
    0.46298E-08        -0.23283E-19         0.00000E+00
    0.48890E-08        -0.22585E-19         0.00000E+00
    0.51618E-08        -0.93132E-20         0.00000E+00
    0.54486E-08        -0.13737E-19         0.00000E+00
    0.57499E-08        -0.15832E-19         0.00000E+00
    0.60665E-08        -0.86147E-20         0.00000E+00
    0.63987E-08        -0.15367E-19         0.00000E+00
    0.67472E-08        -0.58208E-20         0.00000E+00
    0.71126E-08         0.93132E-21         0.00000E+00
    0.74954E-08        -0.46566E-20         0.00000E+00
    0.78962E-08        -0.67521E-20         0.00000E+00
    0.83156E-08        -0.86147E-20         0.00000E+00
    0.87541E-08        -0.60536E-20         0.00000E+00
    0.92123E-08        -0.44238E-20         0.00000E+00
    0.96908E-08        -0.76834E-20         0.00000E+00
    0.10190E-07        -0.15600E-19         0.00000E+00
    0.10711E-07        -0.65193E-20         0.00000E+00
    0.11253E-07         0.25611E-20         0.00000E+00
    0.11817E-07        -0.18626E-20         0.00000E+00
    0.12405E-07         0.51223E-20         0.00000E+00
    0.13015E-07         0.17695E-19         0.00000E+00
    0.13648E-07         0.13039E-19         0.00000E+00
    0.14305E-07         0.90804E-20         0.00000E+00
    0.14986E-07        -0.32596E-20         0.00000E+00
    0.15691E-07        -0.27940E-20         0.00000E+00
    0.16419E-07        -0.11874E-19         0.00000E+00
    0.17172E-07        -0.21188E-19         0.00000E+00
    0.17948E-07        -0.14668E-19         0.00000E+00
    0.18748E-07        -0.12573E-19         0.00000E+00
    0.19571E-07        -0.17695E-19         0.00000E+00
    0.20416E-07        -0.76834E-20         0.00000E+00
    0.21283E-07         0.41910E-20         0.00000E+00
    0.22171E-07         0.22817E-19         0.00000E+00
    0.23079E-07         0.27474E-19         0.00000E+00
    0.24007E-07         0.23283E-20         0.00000E+00
    0.24951E-07         0.12573E-19         0.00000E+00
    0.25911E-07         0.20489E-19         0.00000E+00
    0.26886E-07         0.12573E-19         0.00000E+00
    0.27872E-07         0.30734E-19         0.00000E+00
    0.28868E-07         0.40978E-19         0.00000E+00
    0.29870E-07         0.22352E-19         0.00000E+00
    0.30877E-07         0.11409E-19         0.00000E+00
    0.31885E-07         0.19092E-19         0.00000E+00
    0.32890E-07         0.13970E-19         0.00000E+00
    0.33889E-07         0.10012E-19         0.00000E+00
    0.34877E-07         0.34925E-19         0.00000E+00
    0.35850E-07         0.32363E-19         0.00000E+00
    0.36804E-07         0.21886E-19         0.00000E+00
    0.37733E-07         0.21886E-19         0.00000E+00
    0.38632E-07         0.25844E-19         0.00000E+00
    0.39496E-07         0.24214E-19         0.00000E+00
    0.40319E-07         0.20955E-19         0.00000E+00
    0.41094E-07         0.24331E-19         0.00000E+00
    0.41817E-07         0.14552E-19         0.00000E+00
    0.42480E-07         0.94296E-20         0.00000E+00
    0.43078E-07         0.21886E-19         0.00000E+00
    0.43605E-07         0.25379E-19         0.00000E+00
    0.44054E-07         0.24214E-19         0.00000E+00
    0.44422E-07         0.13853E-19         0.00000E+00
    0.44702E-07         0.16065E-19         0.00000E+00
    0.44891E-07         0.14086E-19         0.00000E+00
    0.44987E-07         0.16298E-20         0.00000E+00
    0.91510E-09         0.53551E-20         0.00000E+00
    0.91864E-09         0.14203E-19         0.00000E+00
    0.92574E-09         0.76834E-20         0.00000E+00
    0.93641E-09         0.23283E-19         0.00000E+00
    0.95070E-09         0.20256E-19         0.00000E+00
    0.96864E-09         0.95461E-20         0.00000E+00
    0.99029E-09         0.86147E-20         0.00000E+00
    0.10157E-08         0.18626E-20         0.00000E+00
    0.10450E-08         0.27008E-19         0.00000E+00
    0.10782E-08         0.37020E-19         0.00000E+00
    0.11155E-08         0.34226E-19         0.00000E+00
    0.11570E-08         0.23516E-19         0.00000E+00
    0.12027E-08         0.13039E-19         0.00000E+00
    0.12529E-08         0.18859E-19         0.00000E+00
    0.13076E-08         0.48894E-20         0.00000E+00
    0.13671E-08         0.76834E-20         0.00000E+00
    0.14316E-08         0.25844E-19         0.00000E+00
    0.15011E-08         0.24214E-19         0.00000E+00
    0.15759E-08         0.20722E-19         0.00000E+00
    0.16563E-08         0.17928E-19         0.00000E+00
    0.17425E-08         0.13271E-19         0.00000E+00
    0.18346E-08         0.44238E-20         0.00000E+00
    0.19330E-08         0.18626E-20         0.00000E+00
    0.20380E-08         0.39581E-20         0.00000E+00
    0.21498E-08        -0.23283E-21         0.00000E+00
    0.22687E-08        -0.46566E-20         0.00000E+00
    0.23951E-08        -0.76834E-20         0.00000E+00
    0.25293E-08        -0.22119E-19         0.00000E+00
    0.26716E-08        -0.19791E-19         0.00000E+00
    0.28224E-08        -0.22585E-19         0.00000E+00
    0.29820E-08        -0.23050E-19         0.00000E+00
    0.31510E-08        -0.97789E-20         0.00000E+00
    0.33296E-08        -0.13504E-19         0.00000E+00
    0.35184E-08        -0.30268E-19         0.00000E+00
    0.37177E-08        -0.27474E-19         0.00000E+00
    0.39280E-08        -0.22119E-19         0.00000E+00
    0.41498E-08        -0.18859E-19         0.00000E+00
    0.43836E-08        -0.48894E-20         0.00000E+00
    0.46298E-08        -0.30268E-20         0.00000E+00
    0.48890E-08        -0.21188E-19         0.00000E+00
    0.51618E-08        -0.19791E-19         0.00000E+00
    0.54486E-08        -0.15367E-19         0.00000E+00
    0.57499E-08        -0.18161E-19         0.00000E+00
    0.60665E-08        -0.58208E-20         0.00000E+00
    0.63987E-08        -0.90804E-20         0.00000E+00
    0.67472E-08        -0.72177E-20         0.00000E+00
    0.71126E-08        -0.44238E-20         0.00000E+00
    0.74954E-08        -0.34925E-20         0.00000E+00
    0.78962E-08        -0.62864E-20         0.00000E+00
    0.83156E-08        -0.81491E-20         0.00000E+00
    0.87541E-08         0.93132E-21         0.00000E+00
    0.92123E-08         0.81491E-20         0.00000E+00
    0.96908E-08         0.55879E-20         0.00000E+00
    0.10190E-07         0.72177E-20         0.00000E+00
    0.10711E-07         0.12573E-19         0.00000E+00
    0.11253E-07         0.44238E-20         0.00000E+00
    0.11817E-07         0.18161E-19         0.00000E+00
    0.12405E-07         0.14435E-19         0.00000E+00
    0.13015E-07         0.16298E-20         0.00000E+00
    0.13648E-07         0.10012E-19         0.00000E+00
    0.14305E-07         0.11642E-20         0.00000E+00
    0.14986E-07        -0.12107E-19         0.00000E+00
    0.15691E-07        -0.15367E-19         0.00000E+00
    0.16419E-07        -0.11176E-19         0.00000E+00
    0.17172E-07        -0.76834E-20         0.00000E+00
    0.17948E-07        -0.25379E-19         0.00000E+00
    0.18748E-07        -0.26077E-19         0.00000E+00
    0.19571E-07        -0.18161E-19         0.00000E+00
    0.20416E-07        -0.72177E-20         0.00000E+00
    0.21283E-07        -0.13737E-19         0.00000E+00
    0.22171E-07        -0.11874E-19         0.00000E+00
    0.23079E-07         0.14901E-19         0.00000E+00
    0.24007E-07         0.23516E-19         0.00000E+00
    0.24951E-07         0.16531E-19         0.00000E+00
    0.25911E-07         0.24680E-19         0.00000E+00
    0.26886E-07         0.22585E-19         0.00000E+00
    0.27872E-07         0.11874E-19         0.00000E+00
    0.28868E-07         0.19325E-19         0.00000E+00
    0.29870E-07         0.25379E-19         0.00000E+00
    0.30877E-07         0.25844E-19         0.00000E+00
    0.31885E-07         0.24680E-19         0.00000E+00
    0.32890E-07         0.25379E-19         0.00000E+00
    0.33889E-07         0.27241E-19         0.00000E+00
    0.34877E-07         0.30734E-19         0.00000E+00
    0.35850E-07         0.21420E-19         0.00000E+00
    0.36804E-07         0.24447E-19         0.00000E+00
    0.37733E-07         0.33760E-19         0.00000E+00
    0.38632E-07         0.39116E-19         0.00000E+00
    0.39496E-07         0.30268E-19         0.00000E+00
    0.40319E-07         0.21188E-19         0.00000E+00
    0.41094E-07         0.32480E-19         0.00000E+00
    0.41817E-07         0.39698E-19         0.00000E+00
    0.42480E-07         0.22934E-19         0.00000E+00
    0.43078E-07         0.14086E-19         0.00000E+00
    0.43605E-07         0.26892E-19         0.00000E+00
    0.44054E-07         0.23167E-19         0.00000E+00
    0.44422E-07         0.14319E-19         0.00000E+00
    0.44702E-07         0.11642E-19         0.00000E+00
    0.44891E-07         0.71013E-20         0.00000E+00
    0.44987E-07         0.93132E-21         0.00000E+00
    0.91510E-09         0.14901E-19         0.00000E+00
    0.91864E-09         0.10710E-19         0.00000E+00
    0.92574E-09         0.11176E-19         0.00000E+00
    0.93641E-09         0.27474E-19         0.00000E+00
    0.95070E-09         0.33295E-19         0.00000E+00
    0.96864E-09         0.29569E-19         0.00000E+00
    0.99029E-09         0.23050E-19         0.00000E+00
    0.10157E-08         0.48894E-20         0.00000E+00
    0.10450E-08         0.16997E-19         0.00000E+00
    0.10782E-08         0.33295E-19         0.00000E+00
    0.11155E-08         0.25844E-19         0.00000E+00
    0.11570E-08         0.23516E-19         0.00000E+00
    0.12027E-08         0.15600E-19         0.00000E+00
    0.12529E-08         0.23050E-19         0.00000E+00
    0.13076E-08         0.22817E-19         0.00000E+00
    0.13671E-08         0.15367E-19         0.00000E+00
    0.14316E-08         0.14668E-19         0.00000E+00
    0.15011E-08         0.17229E-19         0.00000E+00
    0.15759E-08         0.26543E-19         0.00000E+00
    0.16563E-08         0.23749E-19         0.00000E+00
    0.17425E-08         0.21886E-19         0.00000E+00
    0.18346E-08         0.16065E-19         0.00000E+00
    0.19330E-08         0.10477E-19         0.00000E+00
    0.20380E-08         0.93132E-21         0.00000E+00
    0.21498E-08         0.10012E-19         0.00000E+00
    0.22687E-08        -0.16298E-20         0.00000E+00
    0.23951E-08        -0.13737E-19         0.00000E+00
    0.25293E-08        -0.93132E-21         0.00000E+00
    0.26716E-08         0.16298E-20         0.00000E+00
    0.28224E-08        -0.88476E-20         0.00000E+00
    0.29820E-08        -0.22352E-19         0.00000E+00
    0.31510E-08        -0.15600E-19         0.00000E+00
    0.33296E-08        -0.28173E-19         0.00000E+00
    0.35184E-08        -0.44238E-19         0.00000E+00
    0.37177E-08        -0.36554E-19         0.00000E+00
    0.39280E-08        -0.25611E-19         0.00000E+00
    0.41498E-08        -0.12340E-19         0.00000E+00
    0.43836E-08        -0.10710E-19         0.00000E+00
    0.46298E-08        -0.16764E-19         0.00000E+00
    0.48890E-08        -0.27474E-19         0.00000E+00
    0.51618E-08        -0.30035E-19         0.00000E+00
    0.54486E-08        -0.26310E-19         0.00000E+00
    0.57499E-08        -0.20023E-19         0.00000E+00
    0.60665E-08        -0.53551E-20         0.00000E+00
    0.63987E-08        -0.11409E-19         0.00000E+00
    0.67472E-08        -0.24913E-19         0.00000E+00
    0.71126E-08        -0.17462E-19         0.00000E+00
    0.74954E-08         0.11642E-20         0.00000E+00
    0.78962E-08        -0.34925E-20         0.00000E+00
    0.83156E-08        -0.10710E-19         0.00000E+00
    0.87541E-08        -0.10710E-19         0.00000E+00
    0.92123E-08        -0.79162E-20         0.00000E+00
    0.96908E-08        -0.93132E-20         0.00000E+00
    0.10190E-07        -0.13271E-19         0.00000E+00
    0.10711E-07         0.55879E-20         0.00000E+00
    0.11253E-07         0.34925E-20         0.00000E+00
    0.11817E-07        -0.60536E-20         0.00000E+00
    0.12405E-07         0.27940E-20         0.00000E+00
    0.13015E-07         0.86147E-20         0.00000E+00
    0.13648E-07         0.14901E-19         0.00000E+00
    0.14305E-07         0.10943E-19         0.00000E+00
    0.14986E-07        -0.46566E-20         0.00000E+00
    0.15691E-07        -0.27940E-19         0.00000E+00
    0.16419E-07        -0.45169E-19         0.00000E+00
    0.17172E-07        -0.38883E-19         0.00000E+00
    0.17948E-07        -0.34226E-19         0.00000E+00
    0.18748E-07        -0.25379E-19         0.00000E+00
    0.19571E-07        -0.16764E-19         0.00000E+00
    0.20416E-07        -0.15832E-19         0.00000E+00
    0.21283E-07        -0.93132E-20         0.00000E+00
    0.22171E-07        -0.62864E-20         0.00000E+00
    0.23079E-07         0.93132E-20         0.00000E+00
    0.24007E-07         0.13271E-19         0.00000E+00
    0.24951E-07         0.11176E-19         0.00000E+00
    0.25911E-07         0.17462E-19         0.00000E+00
    0.26886E-07         0.19092E-19         0.00000E+00
    0.27872E-07         0.12806E-19         0.00000E+00
    0.28868E-07         0.17462E-19         0.00000E+00
    0.29870E-07         0.35856E-19         0.00000E+00
    0.30877E-07         0.25146E-19         0.00000E+00
    0.31885E-07         0.12573E-19         0.00000E+00
    0.32890E-07        -0.13970E-20         0.00000E+00
    0.33889E-07         0.18859E-19         0.00000E+00
    0.34877E-07         0.24913E-19         0.00000E+00
    0.35850E-07         0.76834E-20         0.00000E+00
    0.36804E-07         0.14435E-19         0.00000E+00
    0.37733E-07         0.28405E-19         0.00000E+00
    0.38632E-07         0.29337E-19         0.00000E+00
    0.39496E-07         0.23050E-19         0.00000E+00
    0.40319E-07         0.30734E-19         0.00000E+00
    0.41094E-07         0.33644E-19         0.00000E+00
    0.41817E-07         0.19325E-19         0.00000E+00
    0.42480E-07         0.13039E-19         0.00000E+00
    0.43078E-07         0.11642E-19         0.00000E+00
    0.43605E-07         0.46566E-20         0.00000E+00
    0.44054E-07         0.17229E-19         0.00000E+00
    0.44422E-07         0.20955E-19         0.00000E+00
    0.44702E-07         0.58208E-20         0.00000E+00
    0.44891E-07        -0.41910E-20         0.00000E+00
    0.44987E-07        -0.25611E-20         0.00000E+00
    0.91510E-09         0.13970E-20         0.00000E+00
    0.91864E-09         0.79162E-20         0.00000E+00
    0.92574E-09         0.17462E-19         0.00000E+00
    0.93641E-09         0.16997E-19         0.00000E+00
    0.95070E-09         0.72177E-20         0.00000E+00
    0.96864E-09         0.53551E-20         0.00000E+00
    0.99029E-09         0.13970E-20         0.00000E+00
    0.10157E-08         0.90804E-20         0.00000E+00
    0.10450E-08         0.12806E-19         0.00000E+00
    0.10782E-08         0.22585E-19         0.00000E+00
    0.11155E-08         0.16531E-19         0.00000E+00
    0.11570E-08         0.65193E-20         0.00000E+00
    0.12027E-08         0.17229E-19         0.00000E+00
    0.12529E-08         0.21653E-19         0.00000E+00
    0.13076E-08         0.23982E-19         0.00000E+00
    0.13671E-08         0.10943E-19         0.00000E+00
    0.14316E-08         0.10477E-19         0.00000E+00
    0.15011E-08         0.30035E-19         0.00000E+00
    0.15759E-08         0.33760E-19         0.00000E+00
    0.16563E-08         0.15600E-19         0.00000E+00
    0.17425E-08         0.60536E-20         0.00000E+00
    0.18346E-08         0.18626E-20         0.00000E+00
    0.19330E-08        -0.86147E-20         0.00000E+00
    0.20380E-08        -0.37253E-20         0.00000E+00
    0.21498E-08        -0.67521E-20         0.00000E+00
    0.22687E-08        -0.48894E-20         0.00000E+00
    0.23951E-08        -0.10477E-19         0.00000E+00
    0.25293E-08        -0.11874E-19         0.00000E+00
    0.26716E-08        -0.14203E-19         0.00000E+00
    0.28224E-08        -0.28405E-19         0.00000E+00
    0.29820E-08        -0.18626E-19         0.00000E+00
    0.31510E-08        -0.22119E-19         0.00000E+00
    0.33296E-08        -0.33760E-19         0.00000E+00
    0.35184E-08        -0.30035E-19         0.00000E+00
    0.37177E-08        -0.41910E-19         0.00000E+00
    0.39280E-08        -0.37253E-19         0.00000E+00
    0.41498E-08        -0.13970E-19         0.00000E+00
    0.43836E-08        -0.12573E-19         0.00000E+00
    0.46298E-08        -0.19325E-19         0.00000E+00
    0.48890E-08        -0.30501E-19         0.00000E+00
    0.51618E-08        -0.35623E-19         0.00000E+00
    0.54486E-08        -0.26077E-19         0.00000E+00
    0.57499E-08        -0.22119E-19         0.00000E+00
    0.60665E-08        -0.25379E-19         0.00000E+00
    0.63987E-08        -0.18394E-19         0.00000E+00
    0.67472E-08        -0.18859E-19         0.00000E+00
    0.71126E-08        -0.12340E-19         0.00000E+00
    0.74954E-08        -0.48894E-20         0.00000E+00
    0.78962E-08        -0.19092E-19         0.00000E+00
    0.83156E-08        -0.21653E-19         0.00000E+00
    0.87541E-08        -0.12107E-19         0.00000E+00
    0.92123E-08        -0.16065E-19         0.00000E+00
    0.96908E-08        -0.12573E-19         0.00000E+00
    0.10190E-07        -0.16298E-20         0.00000E+00
    0.10711E-07        -0.11176E-19         0.00000E+00
    0.11253E-07        -0.13271E-19         0.00000E+00
    0.11817E-07        -0.12806E-19         0.00000E+00
    0.12405E-07        -0.13970E-19         0.00000E+00
    0.13015E-07        -0.18394E-19         0.00000E+00
    0.13648E-07        -0.51223E-20         0.00000E+00
    0.14305E-07        -0.30268E-20         0.00000E+00
    0.14986E-07        -0.23749E-19         0.00000E+00
    0.15691E-07        -0.23982E-19         0.00000E+00
    0.16419E-07        -0.31199E-19         0.00000E+00
    0.17172E-07        -0.41910E-19         0.00000E+00
    0.17948E-07        -0.40513E-19         0.00000E+00
    0.18748E-07        -0.29802E-19         0.00000E+00
    0.19571E-07        -0.13970E-19         0.00000E+00
    0.20416E-07        -0.21420E-19         0.00000E+00
    0.21283E-07        -0.21188E-19         0.00000E+00
    0.22171E-07        -0.10245E-19         0.00000E+00
    0.23079E-07         0.30268E-20         0.00000E+00
    0.24007E-07         0.14901E-19         0.00000E+00
    0.24951E-07         0.20955E-20         0.00000E+00
    0.25911E-07         0.30268E-20         0.00000E+00
    0.26886E-07         0.13039E-19         0.00000E+00
    0.27872E-07         0.13039E-19         0.00000E+00
    0.28868E-07         0.46566E-21         0.00000E+00
    0.29870E-07         0.37253E-20         0.00000E+00
    0.30877E-07         0.21420E-19         0.00000E+00
    0.31885E-07         0.13504E-19         0.00000E+00
    0.32890E-07         0.97789E-20         0.00000E+00
    0.33889E-07         0.14901E-19         0.00000E+00
    0.34877E-07         0.22352E-19         0.00000E+00
    0.35850E-07         0.11409E-19         0.00000E+00
    0.36804E-07         0.90804E-20         0.00000E+00
    0.37733E-07         0.23050E-19         0.00000E+00
    0.38632E-07         0.23050E-19         0.00000E+00
    0.39496E-07         0.25379E-19         0.00000E+00
    0.40319E-07         0.35390E-19         0.00000E+00
    0.41094E-07         0.31665E-19         0.00000E+00
    0.41817E-07         0.18394E-19         0.00000E+00
    0.42480E-07         0.14901E-19         0.00000E+00
    0.43078E-07         0.11525E-19         0.00000E+00
    0.43605E-07         0.12107E-19         0.00000E+00
    0.44054E-07         0.25495E-19         0.00000E+00
    0.44422E-07         0.18161E-19         0.00000E+00
    0.44702E-07         0.34925E-20         0.00000E+00
    0.44891E-07         0.59372E-20         0.00000E+00
    0.44987E-07         0.11642E-21         0.00000E+00
    0.91510E-09        -0.74506E-20         0.00000E+00
    0.91864E-09        -0.41910E-20         0.00000E+00
    0.92574E-09         0.17462E-19         0.00000E+00
    0.93641E-09         0.51223E-20         0.00000E+00
    0.95070E-09         0.69849E-21         0.00000E+00
    0.96864E-09         0.34925E-20         0.00000E+00
    0.99029E-09        -0.76834E-20         0.00000E+00
    0.10157E-08         0.95461E-20         0.00000E+00
    0.10450E-08         0.26077E-19         0.00000E+00
    0.10782E-08         0.10012E-19         0.00000E+00
    0.11155E-08         0.10245E-19         0.00000E+00
    0.11570E-08         0.25146E-19         0.00000E+00
    0.12027E-08         0.12340E-19         0.00000E+00
    0.12529E-08         0.11409E-19         0.00000E+00
    0.13076E-08         0.11874E-19         0.00000E+00
    0.13671E-08         0.72177E-20         0.00000E+00
    0.14316E-08         0.16997E-19         0.00000E+00
    0.15011E-08         0.16997E-19         0.00000E+00
    0.15759E-08         0.18859E-19         0.00000E+00
    0.16563E-08         0.10477E-19         0.00000E+00
    0.17425E-08         0.48894E-20         0.00000E+00
    0.18346E-08         0.10710E-19         0.00000E+00
    0.19330E-08         0.15367E-19         0.00000E+00
    0.20380E-08         0.55879E-20         0.00000E+00
    0.21498E-08        -0.20955E-20         0.00000E+00
    0.22687E-08         0.41910E-20         0.00000E+00
    0.23951E-08        -0.60536E-20         0.00000E+00
    0.25293E-08        -0.25844E-19         0.00000E+00
    0.26716E-08        -0.24447E-19         0.00000E+00
    0.28224E-08        -0.17462E-19         0.00000E+00
    0.29820E-08         0.27940E-20         0.00000E+00
    0.31510E-08         0.93132E-21         0.00000E+00
    0.33296E-08        -0.62864E-20         0.00000E+00
    0.35184E-08        -0.16764E-19         0.00000E+00
    0.37177E-08        -0.33760E-19         0.00000E+00
    0.39280E-08        -0.40745E-19         0.00000E+00
    0.41498E-08        -0.35623E-19         0.00000E+00
    0.43836E-08        -0.14901E-19         0.00000E+00
    0.46298E-08        -0.18394E-19         0.00000E+00
    0.48890E-08        -0.33528E-19         0.00000E+00
    0.51618E-08        -0.40280E-19         0.00000E+00
    0.54486E-08        -0.38417E-19         0.00000E+00
    0.57499E-08        -0.38184E-19         0.00000E+00
    0.60665E-08        -0.19325E-19         0.00000E+00
    0.63987E-08        -0.14668E-19         0.00000E+00
    0.67472E-08        -0.26310E-19         0.00000E+00
    0.71126E-08        -0.24447E-19         0.00000E+00
    0.74954E-08        -0.25146E-19         0.00000E+00
    0.78962E-08        -0.29569E-19         0.00000E+00
    0.83156E-08        -0.22119E-19         0.00000E+00
    0.87541E-08        -0.15600E-19         0.00000E+00
    0.92123E-08        -0.25611E-19         0.00000E+00
    0.96908E-08        -0.14901E-19         0.00000E+00
    0.10190E-07         0.58208E-20         0.00000E+00
    0.10711E-07        -0.14668E-19         0.00000E+00
    0.11253E-07        -0.15600E-19         0.00000E+00
    0.11817E-07         0.60536E-20         0.00000E+00
    0.12405E-07         0.51223E-20         0.00000E+00
    0.13015E-07        -0.48894E-20         0.00000E+00
    0.13648E-07        -0.15134E-19         0.00000E+00
    0.14305E-07        -0.14203E-19         0.00000E+00
    0.14986E-07        -0.12107E-19         0.00000E+00
    0.15691E-07        -0.24214E-19         0.00000E+00
    0.16419E-07        -0.25611E-19         0.00000E+00
    0.17172E-07        -0.24913E-19         0.00000E+00
    0.17948E-07        -0.19791E-19         0.00000E+00
    0.18748E-07        -0.13271E-19         0.00000E+00
    0.19571E-07        -0.13271E-19         0.00000E+00
    0.20416E-07        -0.32596E-20         0.00000E+00
    0.21283E-07        -0.69849E-21         0.00000E+00
    0.22171E-07        -0.37253E-20         0.00000E+00
    0.23079E-07        -0.25611E-20         0.00000E+00
    0.24007E-07         0.65193E-20         0.00000E+00
    0.24951E-07         0.90804E-20         0.00000E+00
    0.25911E-07         0.10477E-19         0.00000E+00
    0.26886E-07         0.10943E-19         0.00000E+00
    0.27872E-07         0.53551E-20         0.00000E+00
    0.28868E-07         0.12340E-19         0.00000E+00
    0.29870E-07         0.10710E-19         0.00000E+00
    0.30877E-07         0.58208E-20         0.00000E+00
    0.31885E-07         0.15832E-19         0.00000E+00
    0.32890E-07         0.23283E-19         0.00000E+00
    0.33889E-07         0.23982E-19         0.00000E+00
    0.34877E-07         0.24214E-19         0.00000E+00
    0.35850E-07         0.24680E-19         0.00000E+00
    0.36804E-07         0.21886E-19         0.00000E+00
    0.37733E-07         0.29569E-19         0.00000E+00
    0.38632E-07         0.50059E-19         0.00000E+00
    0.39496E-07         0.54715E-19         0.00000E+00
    0.40319E-07         0.42142E-19         0.00000E+00
    0.41094E-07         0.30617E-19         0.00000E+00
    0.41817E-07         0.17695E-19         0.00000E+00
    0.42480E-07        -0.34925E-21         0.00000E+00
    0.43078E-07         0.19558E-19         0.00000E+00
    0.43605E-07         0.31665E-19         0.00000E+00
    0.44054E-07         0.21886E-19         0.00000E+00
    0.44422E-07         0.19558E-19         0.00000E+00
    0.44702E-07         0.93132E-21         0.00000E+00
    0.44891E-07         0.10710E-19         0.00000E+00
    0.44987E-07         0.98953E-20         0.00000E+00
    0.91510E-09         0.37253E-20         0.00000E+00
    0.91864E-09         0.51223E-20         0.00000E+00
    0.92574E-09         0.11642E-20         0.00000E+00
    0.93641E-09         0.69849E-21         0.00000E+00
    0.95070E-09         0.62864E-20         0.00000E+00
    0.96864E-09         0.39581E-20         0.00000E+00
    0.99029E-09         0.12573E-19         0.00000E+00
    0.10157E-08         0.30966E-19         0.00000E+00
    0.10450E-08         0.31898E-19         0.00000E+00
    0.10782E-08         0.53551E-20         0.00000E+00
    0.11155E-08         0.13970E-19         0.00000E+00
    0.11570E-08         0.19791E-19         0.00000E+00
    0.12027E-08         0.14435E-19         0.00000E+00
    0.12529E-08         0.16764E-19         0.00000E+00
    0.13076E-08         0.26310E-19         0.00000E+00
    0.13671E-08         0.17462E-19         0.00000E+00
    0.14316E-08         0.53551E-20         0.00000E+00
    0.15011E-08         0.12806E-19         0.00000E+00
    0.15759E-08         0.14668E-19         0.00000E+00
    0.16563E-08         0.21188E-19         0.00000E+00
    0.17425E-08         0.11176E-19         0.00000E+00
    0.18346E-08         0.23283E-19         0.00000E+00
    0.19330E-08         0.18394E-19         0.00000E+00
    0.20380E-08         0.27940E-20         0.00000E+00
    0.21498E-08         0.81491E-20         0.00000E+00
    0.22687E-08         0.23283E-21         0.00000E+00
    0.23951E-08         0.37253E-20         0.00000E+00
    0.25293E-08         0.10710E-19         0.00000E+00
    0.26716E-08        -0.27940E-20         0.00000E+00
    0.28224E-08        -0.25611E-20         0.00000E+00
    0.29820E-08        -0.74506E-20         0.00000E+00
    0.31510E-08        -0.62864E-20         0.00000E+00
    0.33296E-08        -0.14901E-19         0.00000E+00
    0.35184E-08        -0.11176E-19         0.00000E+00
    0.37177E-08        -0.69849E-21         0.00000E+00
    0.39280E-08        -0.13271E-19         0.00000E+00
    0.41498E-08        -0.79162E-20         0.00000E+00
    0.43836E-08        -0.22817E-19         0.00000E+00
    0.46298E-08        -0.40280E-19         0.00000E+00
    0.48890E-08        -0.36089E-19         0.00000E+00
    0.51618E-08        -0.33062E-19         0.00000E+00
    0.54486E-08        -0.35157E-19         0.00000E+00
    0.57499E-08        -0.20489E-19         0.00000E+00
    0.60665E-08        -0.58208E-20         0.00000E+00
    0.63987E-08        -0.22585E-19         0.00000E+00
    0.67472E-08        -0.20489E-19         0.00000E+00
    0.71126E-08        -0.11409E-19         0.00000E+00
    0.74954E-08        -0.23749E-19         0.00000E+00
    0.78962E-08        -0.25611E-20         0.00000E+00
    0.83156E-08        -0.10943E-19         0.00000E+00
    0.87541E-08        -0.33295E-19         0.00000E+00
    0.92123E-08        -0.19791E-19         0.00000E+00
    0.96908E-08        -0.10943E-19         0.00000E+00
    0.10190E-07        -0.12107E-19         0.00000E+00
    0.10711E-07        -0.18626E-20         0.00000E+00
    0.11253E-07         0.60536E-20         0.00000E+00
    0.11817E-07         0.48894E-20         0.00000E+00
    0.12405E-07         0.51223E-20         0.00000E+00
    0.13015E-07         0.72177E-20         0.00000E+00
    0.13648E-07        -0.46566E-21         0.00000E+00
    0.14305E-07        -0.90804E-20         0.00000E+00
    0.14986E-07        -0.11642E-20         0.00000E+00
    0.15691E-07         0.13970E-20         0.00000E+00
    0.16419E-07        -0.90804E-20         0.00000E+00
    0.17172E-07        -0.37253E-20         0.00000E+00
    0.17948E-07        -0.22585E-19         0.00000E+00
    0.18748E-07        -0.30035E-19         0.00000E+00
    0.19571E-07        -0.37253E-20         0.00000E+00
    0.20416E-07        -0.13970E-20         0.00000E+00
    0.21283E-07        -0.10245E-19         0.00000E+00
    0.22171E-07         0.00000E+00         0.00000E+00
    0.23079E-07        -0.32596E-20         0.00000E+00
    0.24007E-07        -0.65193E-20         0.00000E+00
    0.24951E-07         0.16298E-19         0.00000E+00
    0.25911E-07         0.72177E-20         0.00000E+00
    0.26886E-07         0.27940E-20         0.00000E+00
    0.27872E-07         0.15600E-19         0.00000E+00
    0.28868E-07         0.93132E-20         0.00000E+00
    0.29870E-07         0.25611E-20         0.00000E+00
    0.30877E-07         0.55879E-20         0.00000E+00
    0.31885E-07         0.10245E-19         0.00000E+00
    0.32890E-07         0.21886E-19         0.00000E+00
    0.33889E-07         0.14203E-19         0.00000E+00
    0.34877E-07         0.20955E-19         0.00000E+00
    0.35850E-07         0.11642E-19         0.00000E+00
    0.36804E-07         0.86147E-20         0.00000E+00
    0.37733E-07         0.18626E-19         0.00000E+00
    0.38632E-07         0.18161E-19         0.00000E+00
    0.39496E-07         0.25379E-19         0.00000E+00
    0.40319E-07         0.35623E-19         0.00000E+00
    0.41094E-07         0.15832E-19         0.00000E+00
    0.41817E-07         0.64028E-20         0.00000E+00
    0.42480E-07         0.26426E-19         0.00000E+00
    0.43078E-07         0.21420E-19         0.00000E+00
    0.43605E-07         0.14668E-19         0.00000E+00
    0.44054E-07         0.11874E-19         0.00000E+00
    0.44422E-07         0.43074E-20         0.00000E+00
    0.44702E-07        -0.47730E-20         0.00000E+00
    0.44891E-07        -0.75670E-20         0.00000E+00
    0.44987E-07         0.36089E-20         0.00000E+00
    0.91510E-09         0.37253E-20         0.00000E+00
    0.91864E-09         0.69849E-20         0.00000E+00
    0.92574E-09         0.23283E-21         0.00000E+00
    0.93641E-09         0.39581E-20         0.00000E+00
    0.95070E-09         0.13271E-19         0.00000E+00
    0.96864E-09         0.16997E-19         0.00000E+00
    0.99029E-09         0.13504E-19         0.00000E+00
    0.10157E-08         0.22119E-19         0.00000E+00
    0.10450E-08         0.30035E-19         0.00000E+00
    0.10782E-08         0.15367E-19         0.00000E+00
    0.11155E-08         0.18859E-19         0.00000E+00
    0.11570E-08         0.20722E-19         0.00000E+00
    0.12027E-08         0.30035E-19         0.00000E+00
    0.12529E-08         0.20256E-19         0.00000E+00
    0.13076E-08         0.11409E-19         0.00000E+00
    0.13671E-08         0.28638E-19         0.00000E+00
    0.14316E-08         0.19791E-19         0.00000E+00
    0.15011E-08         0.13504E-19         0.00000E+00
    0.15759E-08         0.15367E-19         0.00000E+00
    0.16563E-08         0.13737E-19         0.00000E+00
    0.17425E-08         0.17695E-19         0.00000E+00
    0.18346E-08         0.12107E-19         0.00000E+00
    0.19330E-08        -0.62864E-20         0.00000E+00
    0.20380E-08        -0.12107E-19         0.00000E+00
    0.21498E-08         0.72177E-20         0.00000E+00
    0.22687E-08         0.93132E-21         0.00000E+00
    0.23951E-08        -0.93132E-20         0.00000E+00
    0.25293E-08        -0.11874E-19         0.00000E+00
    0.26716E-08        -0.26077E-19         0.00000E+00
    0.28224E-08        -0.16531E-19         0.00000E+00
    0.29820E-08        -0.10245E-19         0.00000E+00
    0.31510E-08        -0.21420E-19         0.00000E+00
    0.33296E-08        -0.12806E-19         0.00000E+00
    0.35184E-08        -0.60536E-20         0.00000E+00
    0.37177E-08        -0.19092E-19         0.00000E+00
    0.39280E-08        -0.21420E-19         0.00000E+00
    0.41498E-08        -0.24214E-19         0.00000E+00
    0.43836E-08        -0.31199E-19         0.00000E+00
    0.46298E-08        -0.25611E-19         0.00000E+00
    0.48890E-08        -0.23050E-19         0.00000E+00
    0.51618E-08        -0.41211E-19         0.00000E+00
    0.54486E-08        -0.35856E-19         0.00000E+00
    0.57499E-08        -0.23749E-19         0.00000E+00
    0.60665E-08        -0.22817E-19         0.00000E+00
    0.63987E-08        -0.19092E-19         0.00000E+00
    0.67472E-08        -0.17928E-19         0.00000E+00
    0.71126E-08        -0.16531E-19         0.00000E+00
    0.74954E-08        -0.22817E-19         0.00000E+00
    0.78962E-08        -0.26310E-19         0.00000E+00
    0.83156E-08        -0.23982E-19         0.00000E+00
    0.87541E-08        -0.31432E-19         0.00000E+00
    0.92123E-08        -0.27241E-19         0.00000E+00
    0.96908E-08        -0.17928E-19         0.00000E+00
    0.10190E-07        -0.36322E-19         0.00000E+00
    0.10711E-07        -0.14435E-19         0.00000E+00
    0.11253E-07         0.90804E-20         0.00000E+00
    0.11817E-07        -0.88476E-20         0.00000E+00
    0.12405E-07        -0.74506E-20         0.00000E+00
    0.13015E-07         0.23283E-19         0.00000E+00
    0.13648E-07         0.27474E-19         0.00000E+00
    0.14305E-07        -0.13970E-20         0.00000E+00
    0.14986E-07        -0.17695E-19         0.00000E+00
    0.15691E-07        -0.46566E-20         0.00000E+00
    0.16419E-07        -0.32596E-20         0.00000E+00
    0.17172E-07        -0.32829E-19         0.00000E+00
    0.17948E-07        -0.24447E-19         0.00000E+00
    0.18748E-07        -0.18626E-19         0.00000E+00
    0.19571E-07        -0.25146E-19         0.00000E+00
    0.20416E-07        -0.13271E-19         0.00000E+00
    0.21283E-07        -0.46566E-20         0.00000E+00
    0.22171E-07        -0.13970E-19         0.00000E+00
    0.23079E-07        -0.15832E-19         0.00000E+00
    0.24007E-07         0.00000E+00         0.00000E+00
    0.24951E-07        -0.13970E-20         0.00000E+00
    0.25911E-07        -0.67521E-20         0.00000E+00
    0.26886E-07        -0.48894E-20         0.00000E+00
    0.27872E-07        -0.23283E-20         0.00000E+00
    0.28868E-07        -0.65193E-20         0.00000E+00
    0.29870E-07         0.13970E-20         0.00000E+00
    0.30877E-07         0.10245E-19         0.00000E+00
    0.31885E-07         0.97789E-20         0.00000E+00
    0.32890E-07        -0.23283E-21         0.00000E+00
    0.33889E-07         0.39581E-20         0.00000E+00
    0.34877E-07         0.27940E-20         0.00000E+00
    0.35850E-07         0.55879E-20         0.00000E+00
    0.36804E-07         0.14901E-19         0.00000E+00
    0.37733E-07         0.18626E-20         0.00000E+00
    0.38632E-07         0.48894E-20         0.00000E+00
    0.39496E-07         0.23283E-19         0.00000E+00
    0.40319E-07         0.30268E-19         0.00000E+00
    0.41094E-07         0.96625E-20         0.00000E+00
    0.41817E-07         0.27940E-20         0.00000E+00
    0.42480E-07         0.27940E-20         0.00000E+00
    0.43078E-07         0.93132E-20         0.00000E+00
    0.43605E-07         0.18394E-19         0.00000E+00
    0.44054E-07         0.18626E-19         0.00000E+00
    0.44422E-07         0.27358E-19         0.00000E+00
    0.44702E-07         0.14668E-19         0.00000E+00
    0.44891E-07         0.29104E-20         0.00000E+00
    0.44987E-07         0.93132E-21         0.00000E+00
    0.91510E-09         0.93132E-21         0.00000E+00
    0.91864E-09         0.16298E-20         0.00000E+00
    0.92574E-09        -0.60536E-20         0.00000E+00
    0.93641E-09         0.16298E-20         0.00000E+00
    0.95070E-09         0.18859E-19         0.00000E+00
    0.96864E-09         0.86147E-20         0.00000E+00
    0.99029E-09         0.51223E-20         0.00000E+00
    0.10157E-08         0.15600E-19         0.00000E+00
    0.10450E-08         0.20256E-19         0.00000E+00
    0.10782E-08         0.27707E-19         0.00000E+00
    0.11155E-08         0.19791E-19         0.00000E+00
    0.11570E-08         0.72177E-20         0.00000E+00
    0.12027E-08         0.81491E-20         0.00000E+00
    0.12529E-08         0.20955E-20         0.00000E+00
    0.13076E-08        -0.13039E-19         0.00000E+00
    0.13671E-08         0.93132E-21         0.00000E+00
    0.14316E-08         0.16764E-19         0.00000E+00
    0.15011E-08         0.22119E-19         0.00000E+00
    0.15759E-08         0.86147E-20         0.00000E+00
    0.16563E-08         0.10477E-19         0.00000E+00
    0.17425E-08         0.14203E-19         0.00000E+00
    0.18346E-08         0.32596E-20         0.00000E+00
    0.19330E-08         0.34925E-20         0.00000E+00
    0.20380E-08         0.81491E-20         0.00000E+00
    0.21498E-08         0.30268E-20         0.00000E+00
    0.22687E-08         0.32596E-20         0.00000E+00
    0.23951E-08        -0.46566E-20         0.00000E+00
    0.25293E-08        -0.76834E-20         0.00000E+00
    0.26716E-08        -0.30268E-20         0.00000E+00
    0.28224E-08        -0.12806E-19         0.00000E+00
    0.29820E-08        -0.13039E-19         0.00000E+00
    0.31510E-08        -0.12107E-19         0.00000E+00
    0.33296E-08        -0.86147E-20         0.00000E+00
    0.35184E-08        -0.12340E-19         0.00000E+00
    0.37177E-08        -0.34925E-20         0.00000E+00
    0.39280E-08        -0.55879E-20         0.00000E+00
    0.41498E-08        -0.30268E-19         0.00000E+00
    0.43836E-08        -0.27940E-19         0.00000E+00
    0.46298E-08        -0.34226E-19         0.00000E+00
    0.48890E-08        -0.57742E-19         0.00000E+00
    0.51618E-08        -0.48196E-19         0.00000E+00
    0.54486E-08        -0.40745E-19         0.00000E+00
    0.57499E-08        -0.47032E-19         0.00000E+00
    0.60665E-08        -0.45402E-19         0.00000E+00
    0.63987E-08        -0.35623E-19         0.00000E+00
    0.67472E-08        -0.29104E-19         0.00000E+00
    0.71126E-08        -0.37020E-19         0.00000E+00
    0.74954E-08        -0.33295E-19         0.00000E+00
    0.78962E-08        -0.36322E-19         0.00000E+00
    0.83156E-08        -0.31898E-19         0.00000E+00
    0.87541E-08        -0.24447E-19         0.00000E+00
    0.92123E-08        -0.31898E-19         0.00000E+00
    0.96908E-08        -0.31199E-19         0.00000E+00
    0.10190E-07        -0.13271E-19         0.00000E+00
    0.10711E-07        -0.14901E-19         0.00000E+00
    0.11253E-07        -0.19791E-19         0.00000E+00
    0.11817E-07        -0.93132E-20         0.00000E+00
    0.12405E-07        -0.58208E-20         0.00000E+00
    0.13015E-07        -0.20722E-19         0.00000E+00
    0.13648E-07        -0.21188E-19         0.00000E+00
    0.14305E-07        -0.95461E-20         0.00000E+00
    0.14986E-07        -0.93132E-20         0.00000E+00
    0.15691E-07        -0.11176E-19         0.00000E+00
    0.16419E-07        -0.11176E-19         0.00000E+00
    0.17172E-07        -0.17928E-19         0.00000E+00
    0.17948E-07        -0.32829E-19         0.00000E+00
    0.18748E-07        -0.31199E-19         0.00000E+00
    0.19571E-07        -0.16065E-19         0.00000E+00
    0.20416E-07        -0.28871E-19         0.00000E+00
    0.21283E-07        -0.26543E-19         0.00000E+00
    0.22171E-07         0.46566E-21         0.00000E+00
    0.23079E-07         0.25611E-20         0.00000E+00
    0.24007E-07        -0.83819E-20         0.00000E+00
    0.24951E-07        -0.62864E-20         0.00000E+00
    0.25911E-07        -0.48894E-20         0.00000E+00
    0.26886E-07         0.27940E-20         0.00000E+00
    0.27872E-07         0.48894E-20         0.00000E+00
    0.28868E-07         0.23283E-21         0.00000E+00
    0.29870E-07         0.97789E-20         0.00000E+00
    0.30877E-07         0.12107E-19         0.00000E+00
    0.31885E-07        -0.93132E-21         0.00000E+00
    0.32890E-07        -0.74506E-20         0.00000E+00
    0.33889E-07        -0.25611E-20         0.00000E+00
    0.34877E-07         0.58208E-20         0.00000E+00
    0.35850E-07         0.11642E-19         0.00000E+00
    0.36804E-07         0.10710E-19         0.00000E+00
    0.37733E-07         0.13504E-19         0.00000E+00
    0.38632E-07         0.17695E-19         0.00000E+00
    0.39496E-07         0.26310E-19         0.00000E+00
    0.40319E-07         0.22352E-19         0.00000E+00
    0.41094E-07         0.96625E-20         0.00000E+00
    0.41817E-07         0.16531E-19         0.00000E+00
    0.42480E-07         0.32014E-19         0.00000E+00
    0.43078E-07         0.26426E-19         0.00000E+00
    0.43605E-07         0.17695E-19         0.00000E+00
    0.44054E-07         0.17928E-19         0.00000E+00
    0.44422E-07         0.21420E-19         0.00000E+00
    0.44702E-07         0.10943E-19         0.00000E+00
    0.44891E-07         0.10361E-19         0.00000E+00
    0.44987E-07         0.89640E-20         0.00000E+00
    0.91510E-09         0.18626E-20         0.00000E+00
    0.91864E-09         0.13039E-19         0.00000E+00
    0.92574E-09         0.39581E-20         0.00000E+00
    0.93641E-09         0.10943E-19         0.00000E+00
    0.95070E-09         0.18394E-19         0.00000E+00
    0.96864E-09         0.11874E-19         0.00000E+00
    0.99029E-09         0.45635E-19         0.00000E+00
    0.10157E-08         0.44005E-19         0.00000E+00
    0.10450E-08         0.16997E-19         0.00000E+00
    0.10782E-08         0.23283E-19         0.00000E+00
    0.11155E-08         0.86147E-20         0.00000E+00
    0.11570E-08        -0.81491E-20         0.00000E+00
    0.12027E-08         0.32596E-20         0.00000E+00
    0.12529E-08        -0.67521E-20         0.00000E+00
    0.13076E-08        -0.34925E-20         0.00000E+00
    0.13671E-08         0.74506E-20         0.00000E+00
    0.14316E-08         0.16298E-20         0.00000E+00
    0.15011E-08         0.46566E-20         0.00000E+00
    0.15759E-08         0.48894E-20         0.00000E+00
    0.16563E-08        -0.30268E-20         0.00000E+00
    0.17425E-08         0.23982E-19         0.00000E+00
    0.18346E-08         0.32596E-19         0.00000E+00
    0.19330E-08         0.13271E-19         0.00000E+00
    0.20380E-08         0.14203E-19         0.00000E+00
    0.21498E-08         0.12340E-19         0.00000E+00
    0.22687E-08         0.16531E-19         0.00000E+00
    0.23951E-08         0.18859E-19         0.00000E+00
    0.25293E-08        -0.69849E-21         0.00000E+00
    0.26716E-08        -0.48894E-20         0.00000E+00
    0.28224E-08         0.12806E-19         0.00000E+00
    0.29820E-08         0.10012E-19         0.00000E+00
    0.31510E-08        -0.44238E-20         0.00000E+00
    0.33296E-08        -0.53551E-20         0.00000E+00
    0.35184E-08         0.13970E-20         0.00000E+00
    0.37177E-08        -0.18626E-20         0.00000E+00
    0.39280E-08        -0.10710E-19         0.00000E+00
    0.41498E-08        -0.19325E-19         0.00000E+00
    0.43836E-08        -0.29337E-19         0.00000E+00
    0.46298E-08        -0.32363E-19         0.00000E+00
    0.48890E-08        -0.35157E-19         0.00000E+00
    0.51618E-08        -0.43539E-19         0.00000E+00
    0.54486E-08        -0.42841E-19         0.00000E+00
    0.57499E-08        -0.42841E-19         0.00000E+00
    0.60665E-08        -0.40513E-19         0.00000E+00
    0.63987E-08        -0.27707E-19         0.00000E+00
    0.67472E-08        -0.40745E-19         0.00000E+00
    0.71126E-08        -0.29569E-19         0.00000E+00
    0.74954E-08        -0.14901E-19         0.00000E+00
    0.78962E-08        -0.26543E-19         0.00000E+00
    0.83156E-08        -0.32131E-19         0.00000E+00
    0.87541E-08        -0.39116E-19         0.00000E+00
    0.92123E-08        -0.25379E-19         0.00000E+00
    0.96908E-08        -0.27940E-19         0.00000E+00
    0.10190E-07        -0.32596E-19         0.00000E+00
    0.10711E-07        -0.26077E-19         0.00000E+00
    0.11253E-07        -0.62864E-20         0.00000E+00
    0.11817E-07         0.60536E-20         0.00000E+00
    0.12405E-07        -0.74506E-20         0.00000E+00
    0.13015E-07        -0.72177E-20         0.00000E+00
    0.13648E-07        -0.97789E-20         0.00000E+00
    0.14305E-07        -0.25611E-20         0.00000E+00
    0.14986E-07        -0.11409E-19         0.00000E+00
    0.15691E-07        -0.20023E-19         0.00000E+00
    0.16419E-07        -0.67521E-20         0.00000E+00
    0.17172E-07        -0.95461E-20         0.00000E+00
    0.17948E-07        -0.15134E-19         0.00000E+00
    0.18748E-07        -0.43772E-19         0.00000E+00
    0.19571E-07        -0.34459E-19         0.00000E+00
    0.20416E-07        -0.21420E-19         0.00000E+00
    0.21283E-07        -0.23283E-19         0.00000E+00
    0.22171E-07        -0.20023E-19         0.00000E+00
    0.23079E-07        -0.33062E-19         0.00000E+00
    0.24007E-07        -0.19558E-19         0.00000E+00
    0.24951E-07        -0.10012E-19         0.00000E+00
    0.25911E-07         0.48894E-20         0.00000E+00
    0.26886E-07         0.48894E-20         0.00000E+00
    0.27872E-07        -0.53551E-20         0.00000E+00
    0.28868E-07         0.18626E-20         0.00000E+00
    0.29870E-07         0.65193E-20         0.00000E+00
    0.30877E-07         0.00000E+00         0.00000E+00
    0.31885E-07        -0.23283E-20         0.00000E+00
    0.32890E-07        -0.11409E-19         0.00000E+00
    0.33889E-07        -0.15134E-19         0.00000E+00
    0.34877E-07        -0.37253E-20         0.00000E+00
    0.35850E-07         0.37253E-20         0.00000E+00
    0.36804E-07         0.12806E-19         0.00000E+00
    0.37733E-07         0.19092E-19         0.00000E+00
    0.38632E-07         0.20489E-19         0.00000E+00
    0.39496E-07         0.26310E-19         0.00000E+00
    0.40319E-07         0.19791E-19         0.00000E+00
    0.41094E-07         0.76834E-20         0.00000E+00
    0.41817E-07         0.65193E-20         0.00000E+00
    0.42480E-07         0.43074E-20         0.00000E+00
    0.43078E-07         0.73342E-20         0.00000E+00
    0.43605E-07         0.18044E-19         0.00000E+00
    0.44054E-07         0.20722E-19         0.00000E+00
    0.44422E-07         0.20256E-19         0.00000E+00
    0.44702E-07         0.22352E-19         0.00000E+00
    0.44891E-07        -0.46566E-21         0.00000E+00
    0.44987E-07        -0.10477E-19         0.00000E+00
    0.91510E-09         0.13970E-20         0.00000E+00
    0.91864E-09         0.10245E-19         0.00000E+00
    0.92574E-09         0.60536E-20         0.00000E+00
    0.93641E-09         0.46566E-21         0.00000E+00
    0.95070E-09         0.48894E-20         0.00000E+00
    0.96864E-09         0.17928E-19         0.00000E+00
    0.99029E-09         0.29569E-19         0.00000E+00
    0.10157E-08         0.27707E-19         0.00000E+00
    0.10450E-08         0.25844E-19         0.00000E+00
    0.10782E-08         0.21188E-19         0.00000E+00
    0.11155E-08         0.58208E-20         0.00000E+00
    0.11570E-08         0.17928E-19         0.00000E+00
    0.12027E-08         0.30734E-19         0.00000E+00
    0.12529E-08         0.16531E-19         0.00000E+00
    0.13076E-08         0.12340E-19         0.00000E+00
    0.13671E-08         0.16997E-19         0.00000E+00
    0.14316E-08         0.20955E-19         0.00000E+00
    0.15011E-08         0.18394E-19         0.00000E+00
    0.15759E-08         0.12340E-19         0.00000E+00
    0.16563E-08         0.16065E-19         0.00000E+00
    0.17425E-08         0.72177E-20         0.00000E+00
    0.18346E-08         0.69849E-20         0.00000E+00
    0.19330E-08         0.29104E-19         0.00000E+00
    0.20380E-08         0.12107E-19         0.00000E+00
    0.21498E-08         0.72177E-20         0.00000E+00
    0.22687E-08         0.12806E-19         0.00000E+00
    0.23951E-08         0.58208E-20         0.00000E+00
    0.25293E-08         0.44238E-20         0.00000E+00
    0.26716E-08         0.37253E-20         0.00000E+00
    0.28224E-08        -0.81491E-20         0.00000E+00
    0.29820E-08        -0.17229E-19         0.00000E+00
    0.31510E-08         0.39581E-20         0.00000E+00
    0.33296E-08         0.13970E-19         0.00000E+00
    0.35184E-08         0.55879E-20         0.00000E+00
    0.37177E-08        -0.72177E-20         0.00000E+00
    0.39280E-08         0.30268E-20         0.00000E+00
    0.41498E-08        -0.25611E-20         0.00000E+00
    0.43836E-08        -0.21886E-19         0.00000E+00
    0.46298E-08        -0.34692E-19         0.00000E+00
    0.48890E-08        -0.45402E-19         0.00000E+00
    0.51618E-08        -0.57975E-19         0.00000E+00
    0.54486E-08        -0.60303E-19         0.00000E+00
    0.57499E-08        -0.36089E-19         0.00000E+00
    0.60665E-08        -0.44238E-19         0.00000E+00
    0.63987E-08        -0.52620E-19         0.00000E+00
    0.67472E-08        -0.37020E-19         0.00000E+00
    0.71126E-08        -0.34459E-19         0.00000E+00
    0.74954E-08        -0.35856E-19         0.00000E+00
    0.78962E-08        -0.26310E-19         0.00000E+00
    0.83156E-08        -0.22585E-19         0.00000E+00
    0.87541E-08        -0.23982E-19         0.00000E+00
    0.92123E-08        -0.39348E-19         0.00000E+00
    0.96908E-08        -0.27940E-19         0.00000E+00
    0.10190E-07        -0.25844E-19         0.00000E+00
    0.10711E-07        -0.23283E-19         0.00000E+00
    0.11253E-07        -0.10943E-19         0.00000E+00
    0.11817E-07        -0.27940E-20         0.00000E+00
    0.12405E-07         0.72177E-20         0.00000E+00
    0.13015E-07         0.41910E-20         0.00000E+00
    0.13648E-07        -0.97789E-20         0.00000E+00
    0.14305E-07        -0.18859E-19         0.00000E+00
    0.14986E-07        -0.86147E-20         0.00000E+00
    0.15691E-07        -0.11642E-19         0.00000E+00
    0.16419E-07        -0.95461E-20         0.00000E+00
    0.17172E-07        -0.76834E-20         0.00000E+00
    0.17948E-07        -0.10710E-19         0.00000E+00
    0.18748E-07        -0.14435E-19         0.00000E+00
    0.19571E-07        -0.24680E-19         0.00000E+00
    0.20416E-07        -0.22817E-19         0.00000E+00
    0.21283E-07        -0.31199E-19         0.00000E+00
    0.22171E-07        -0.32131E-19         0.00000E+00
    0.23079E-07        -0.10245E-19         0.00000E+00
    0.24007E-07        -0.15600E-19         0.00000E+00
    0.24951E-07        -0.11642E-19         0.00000E+00
    0.25911E-07        -0.25611E-20         0.00000E+00
    0.26886E-07         0.53551E-20         0.00000E+00
    0.27872E-07         0.21653E-19         0.00000E+00
    0.28868E-07         0.69849E-20         0.00000E+00
    0.29870E-07         0.46566E-20         0.00000E+00
    0.30877E-07         0.12573E-19         0.00000E+00
    0.31885E-07         0.74506E-20         0.00000E+00
    0.32890E-07         0.81491E-20         0.00000E+00
    0.33889E-07         0.25611E-20         0.00000E+00
    0.34877E-07         0.83819E-20         0.00000E+00
    0.35850E-07         0.15134E-19         0.00000E+00
    0.36804E-07         0.16531E-19         0.00000E+00
    0.37733E-07         0.17229E-19         0.00000E+00
    0.38632E-07         0.29802E-19         0.00000E+00
    0.39496E-07         0.21886E-19         0.00000E+00
    0.40319E-07         0.81491E-20         0.00000E+00
    0.41094E-07         0.18394E-19         0.00000E+00
    0.41817E-07         0.18394E-19         0.00000E+00
    0.42480E-07         0.22352E-19         0.00000E+00
    0.43078E-07         0.28638E-19         0.00000E+00
    0.43605E-07         0.27707E-19         0.00000E+00
    0.44054E-07         0.16065E-19         0.00000E+00
    0.44422E-07         0.28289E-19         0.00000E+00
    0.44702E-07         0.10943E-19         0.00000E+00
    0.44891E-07        -0.33760E-20         0.00000E+00
    0.44987E-07         0.46566E-20         0.00000E+00
    0.91510E-09        -0.69849E-20         0.00000E+00
    0.91864E-09        -0.30501E-19         0.00000E+00
    0.92574E-09        -0.14203E-19         0.00000E+00
    0.93641E-09         0.11642E-20         0.00000E+00
    0.95070E-09         0.19325E-19         0.00000E+00
    0.96864E-09         0.29337E-19         0.00000E+00
    0.99029E-09         0.18859E-19         0.00000E+00
    0.10157E-08         0.11176E-19         0.00000E+00
    0.10450E-08         0.23050E-19         0.00000E+00
    0.10782E-08         0.22817E-19         0.00000E+00
    0.11155E-08         0.22352E-19         0.00000E+00
    0.11570E-08         0.19325E-19         0.00000E+00
    0.12027E-08        -0.20955E-20         0.00000E+00
    0.12529E-08         0.67521E-20         0.00000E+00
    0.13076E-08         0.14901E-19         0.00000E+00
    0.13671E-08         0.95461E-20         0.00000E+00
    0.14316E-08         0.16298E-19         0.00000E+00
    0.15011E-08         0.19558E-19         0.00000E+00
    0.15759E-08         0.24447E-19         0.00000E+00
    0.16563E-08         0.20955E-19         0.00000E+00
    0.17425E-08         0.72177E-20         0.00000E+00
    0.18346E-08         0.11176E-19         0.00000E+00
    0.19330E-08         0.26077E-19         0.00000E+00
    0.20380E-08         0.31898E-19         0.00000E+00
    0.21498E-08         0.10245E-19         0.00000E+00
    0.22687E-08         0.79162E-20         0.00000E+00
    0.23951E-08         0.17695E-19         0.00000E+00
    0.25293E-08         0.11409E-19         0.00000E+00
    0.26716E-08         0.51223E-20         0.00000E+00
    0.28224E-08        -0.67521E-20         0.00000E+00
    0.29820E-08         0.10710E-19         0.00000E+00
    0.31510E-08         0.97789E-20         0.00000E+00
    0.33296E-08        -0.13970E-20         0.00000E+00
    0.35184E-08        -0.93132E-21         0.00000E+00
    0.37177E-08         0.65193E-20         0.00000E+00
    0.39280E-08         0.39581E-20         0.00000E+00
    0.41498E-08        -0.20256E-19         0.00000E+00
    0.43836E-08        -0.35157E-19         0.00000E+00
    0.46298E-08        -0.33295E-19         0.00000E+00
    0.48890E-08        -0.34692E-19         0.00000E+00
    0.51618E-08        -0.34692E-19         0.00000E+00
    0.54486E-08        -0.38650E-19         0.00000E+00
    0.57499E-08        -0.42841E-19         0.00000E+00
    0.60665E-08        -0.38417E-19         0.00000E+00
    0.63987E-08        -0.43306E-19         0.00000E+00
    0.67472E-08        -0.47265E-19         0.00000E+00
    0.71126E-08        -0.44005E-19         0.00000E+00
    0.74954E-08        -0.41211E-19         0.00000E+00
    0.78962E-08        -0.30734E-19         0.00000E+00
    0.83156E-08        -0.26776E-19         0.00000E+00
    0.87541E-08        -0.42375E-19         0.00000E+00
    0.92123E-08        -0.37719E-19         0.00000E+00
    0.96908E-08        -0.33528E-19         0.00000E+00
    0.10190E-07        -0.10943E-19         0.00000E+00
    0.10711E-07        -0.46566E-20         0.00000E+00
    0.11253E-07        -0.62864E-20         0.00000E+00
    0.11817E-07        -0.32596E-20         0.00000E+00
    0.12405E-07        -0.72177E-20         0.00000E+00
    0.13015E-07         0.51223E-20         0.00000E+00
    0.13648E-07         0.46566E-20         0.00000E+00
    0.14305E-07        -0.93132E-21         0.00000E+00
    0.14986E-07        -0.14901E-19         0.00000E+00
    0.15691E-07        -0.15600E-19         0.00000E+00
    0.16419E-07         0.69849E-21         0.00000E+00
    0.17172E-07        -0.58208E-20         0.00000E+00
    0.17948E-07        -0.88476E-20         0.00000E+00
    0.18748E-07        -0.20489E-19         0.00000E+00
    0.19571E-07        -0.25611E-19         0.00000E+00
    0.20416E-07        -0.88476E-20         0.00000E+00
    0.21283E-07        -0.79162E-20         0.00000E+00
    0.22171E-07        -0.27940E-19         0.00000E+00
    0.23079E-07        -0.29337E-19         0.00000E+00
    0.24007E-07        -0.29104E-19         0.00000E+00
    0.24951E-07        -0.16531E-19         0.00000E+00
    0.25911E-07         0.69849E-21         0.00000E+00
    0.26886E-07         0.86147E-20         0.00000E+00
    0.27872E-07         0.23283E-19         0.00000E+00
    0.28868E-07         0.16065E-19         0.00000E+00
    0.29870E-07         0.11642E-19         0.00000E+00
    0.30877E-07         0.10710E-19         0.00000E+00
    0.31885E-07         0.46566E-21         0.00000E+00
    0.32890E-07         0.19325E-19         0.00000E+00
    0.33889E-07         0.18859E-19         0.00000E+00
    0.34877E-07         0.18626E-19         0.00000E+00
    0.35850E-07         0.55879E-20         0.00000E+00
    0.36804E-07         0.14901E-19         0.00000E+00
    0.37733E-07         0.33528E-19         0.00000E+00
    0.38632E-07         0.17229E-19         0.00000E+00
    0.39496E-07         0.16065E-19         0.00000E+00
    0.40319E-07         0.20955E-19         0.00000E+00
    0.41094E-07         0.17928E-19         0.00000E+00
    0.41817E-07         0.98953E-20         0.00000E+00
    0.42480E-07         0.25728E-19         0.00000E+00
    0.43078E-07         0.22002E-19         0.00000E+00
    0.43605E-07         0.25029E-19         0.00000E+00
    0.44054E-07         0.39116E-19         0.00000E+00
    0.44422E-07         0.17462E-19         0.00000E+00
    0.44702E-07         0.10943E-19         0.00000E+00
    0.44891E-07         0.11991E-19         0.00000E+00
    0.44987E-07        -0.34925E-20         0.00000E+00
    0.91510E-09         0.27940E-20         0.00000E+00
    0.91864E-09         0.15600E-19         0.00000E+00
    0.92574E-09         0.20023E-19         0.00000E+00
    0.93641E-09         0.30268E-20         0.00000E+00
    0.95070E-09         0.60536E-20         0.00000E+00
    0.96864E-09         0.17695E-19         0.00000E+00
    0.99029E-09         0.25146E-19         0.00000E+00
    0.10157E-08         0.23749E-19         0.00000E+00
    0.10450E-08         0.12806E-19         0.00000E+00
    0.10782E-08         0.13039E-19         0.00000E+00
    0.11155E-08         0.27241E-19         0.00000E+00
    0.11570E-08         0.37020E-19         0.00000E+00
    0.12027E-08         0.22119E-19         0.00000E+00
    0.12529E-08         0.10710E-19         0.00000E+00
    0.13076E-08         0.12107E-19         0.00000E+00
    0.13671E-08         0.13271E-19         0.00000E+00
    0.14316E-08         0.15832E-19         0.00000E+00
    0.15011E-08         0.16065E-19         0.00000E+00
    0.15759E-08         0.20256E-19         0.00000E+00
    0.16563E-08         0.14668E-19         0.00000E+00
    0.17425E-08         0.23982E-19         0.00000E+00
    0.18346E-08         0.39581E-19         0.00000E+00
    0.19330E-08         0.38184E-19         0.00000E+00
    0.20380E-08         0.41211E-19         0.00000E+00
    0.21498E-08         0.34459E-19         0.00000E+00
    0.22687E-08         0.13039E-19         0.00000E+00
    0.23951E-08         0.27707E-19         0.00000E+00
    0.25293E-08         0.31898E-19         0.00000E+00
    0.26716E-08         0.11409E-19         0.00000E+00
    0.28224E-08         0.13271E-19         0.00000E+00
    0.29820E-08         0.11642E-19         0.00000E+00
    0.31510E-08        -0.39581E-20         0.00000E+00
    0.33296E-08         0.18626E-20         0.00000E+00
    0.35184E-08         0.12107E-19         0.00000E+00
    0.37177E-08         0.13271E-19         0.00000E+00
    0.39280E-08         0.53551E-20         0.00000E+00
    0.41498E-08         0.10710E-19         0.00000E+00
    0.43836E-08         0.60536E-20         0.00000E+00
    0.46298E-08        -0.76834E-20         0.00000E+00
    0.48890E-08        -0.13271E-19         0.00000E+00
    0.51618E-08        -0.19325E-19         0.00000E+00
    0.54486E-08        -0.26543E-19         0.00000E+00
    0.57499E-08        -0.45868E-19         0.00000E+00
    0.60665E-08        -0.43074E-19         0.00000E+00
    0.63987E-08        -0.26776E-19         0.00000E+00
    0.67472E-08        -0.72177E-20         0.00000E+00
    0.71126E-08        -0.15600E-19         0.00000E+00
    0.74954E-08        -0.33295E-19         0.00000E+00
    0.78962E-08        -0.28638E-19         0.00000E+00
    0.83156E-08        -0.13737E-19         0.00000E+00
    0.87541E-08        -0.11642E-19         0.00000E+00
    0.92123E-08        -0.16764E-19         0.00000E+00
    0.96908E-08        -0.79162E-20         0.00000E+00
    0.10190E-07        -0.69849E-21         0.00000E+00
    0.10711E-07         0.97789E-20         0.00000E+00
    0.11253E-07         0.60536E-20         0.00000E+00
    0.11817E-07        -0.55879E-20         0.00000E+00
    0.12405E-07        -0.44238E-20         0.00000E+00
    0.13015E-07         0.69849E-21         0.00000E+00
    0.13648E-07        -0.46566E-20         0.00000E+00
    0.14305E-07        -0.97789E-20         0.00000E+00
    0.14986E-07         0.23283E-20         0.00000E+00
    0.15691E-07         0.90804E-20         0.00000E+00
    0.16419E-07         0.55879E-20         0.00000E+00
    0.17172E-07        -0.39581E-20         0.00000E+00
    0.17948E-07        -0.16997E-19         0.00000E+00
    0.18748E-07        -0.16298E-19         0.00000E+00
    0.19571E-07        -0.19791E-19         0.00000E+00
    0.20416E-07        -0.21886E-19         0.00000E+00
    0.21283E-07        -0.23283E-19         0.00000E+00
    0.22171E-07        -0.25611E-19         0.00000E+00
    0.23079E-07        -0.22817E-19         0.00000E+00
    0.24007E-07        -0.12806E-19         0.00000E+00
    0.24951E-07         0.46566E-21         0.00000E+00
    0.25911E-07         0.21653E-19         0.00000E+00
    0.26886E-07         0.10943E-19         0.00000E+00
    0.27872E-07         0.48894E-20         0.00000E+00
    0.28868E-07         0.25379E-19         0.00000E+00
    0.29870E-07         0.33062E-19         0.00000E+00
    0.30877E-07         0.17695E-19         0.00000E+00
    0.31885E-07         0.22119E-19         0.00000E+00
    0.32890E-07         0.10012E-19         0.00000E+00
    0.33889E-07         0.39581E-20         0.00000E+00
    0.34877E-07         0.29104E-19         0.00000E+00
    0.35850E-07         0.22352E-19         0.00000E+00
    0.36804E-07         0.22585E-19         0.00000E+00
    0.37733E-07         0.19558E-19         0.00000E+00
    0.38632E-07         0.39581E-20         0.00000E+00
    0.39496E-07         0.69849E-20         0.00000E+00
    0.40319E-07         0.17229E-19         0.00000E+00
    0.41094E-07         0.32363E-19         0.00000E+00
    0.41817E-07         0.31781E-19         0.00000E+00
    0.42480E-07         0.16182E-19         0.00000E+00
    0.43078E-07         0.26543E-19         0.00000E+00
    0.43605E-07         0.19441E-19         0.00000E+00
    0.44054E-07         0.13970E-20         0.00000E+00
    0.44422E-07         0.17462E-20         0.00000E+00
    0.44702E-07         0.16065E-19         0.00000E+00
    0.44891E-07         0.26892E-19         0.00000E+00
    0.44987E-07         0.11642E-19         0.00000E+00
    0.91510E-09         0.95461E-20         0.00000E+00
    0.91864E-09         0.60536E-20         0.00000E+00
    0.92574E-09         0.10477E-19         0.00000E+00
    0.93641E-09         0.10245E-19         0.00000E+00
    0.95070E-09         0.19791E-19         0.00000E+00
    0.96864E-09         0.16531E-19         0.00000E+00
    0.99029E-09        -0.20955E-20         0.00000E+00
    0.10157E-08         0.12340E-19         0.00000E+00
    0.10450E-08         0.97789E-20         0.00000E+00
    0.10782E-08         0.23050E-19         0.00000E+00
    0.11155E-08         0.36554E-19         0.00000E+00
    0.11570E-08         0.20722E-19         0.00000E+00
    0.12027E-08         0.14203E-19         0.00000E+00
    0.12529E-08         0.16531E-19         0.00000E+00
    0.13076E-08         0.55879E-20         0.00000E+00
    0.13671E-08         0.97789E-20         0.00000E+00
    0.14316E-08         0.17695E-19         0.00000E+00
    0.15011E-08         0.88476E-20         0.00000E+00
    0.15759E-08         0.23283E-20         0.00000E+00
    0.16563E-08         0.19325E-19         0.00000E+00
    0.17425E-08         0.32829E-19         0.00000E+00
    0.18346E-08         0.24680E-19         0.00000E+00
    0.19330E-08         0.18394E-19         0.00000E+00
    0.20380E-08         0.36089E-19         0.00000E+00
    0.21498E-08         0.38184E-19         0.00000E+00
    0.22687E-08         0.15832E-19         0.00000E+00
    0.23951E-08         0.32363E-19         0.00000E+00
    0.25293E-08         0.36089E-19         0.00000E+00
    0.26716E-08         0.86147E-20         0.00000E+00
    0.28224E-08         0.58208E-20         0.00000E+00
    0.29820E-08         0.10012E-19         0.00000E+00
    0.31510E-08         0.69849E-20         0.00000E+00
    0.33296E-08         0.15134E-19         0.00000E+00
    0.35184E-08         0.15600E-19         0.00000E+00
    0.37177E-08         0.30268E-20         0.00000E+00
    0.39280E-08        -0.51223E-20         0.00000E+00
    0.41498E-08        -0.13970E-19         0.00000E+00
    0.43836E-08        -0.11874E-19         0.00000E+00
    0.46298E-08        -0.81491E-20         0.00000E+00
    0.48890E-08         0.76834E-20         0.00000E+00
    0.51618E-08        -0.10477E-19         0.00000E+00
    0.54486E-08        -0.37951E-19         0.00000E+00
    0.57499E-08        -0.28638E-19         0.00000E+00
    0.60665E-08        -0.15367E-19         0.00000E+00
    0.63987E-08        -0.41910E-20         0.00000E+00
    0.67472E-08        -0.74506E-20         0.00000E+00
    0.71126E-08        -0.22352E-19         0.00000E+00
    0.74954E-08        -0.18859E-19         0.00000E+00
    0.78962E-08        -0.20256E-19         0.00000E+00
    0.83156E-08        -0.21886E-19         0.00000E+00
    0.87541E-08        -0.97789E-20         0.00000E+00
    0.92123E-08        -0.17928E-19         0.00000E+00
    0.96908E-08        -0.27940E-19         0.00000E+00
    0.10190E-07        -0.25844E-19         0.00000E+00
    0.10711E-07        -0.27940E-20         0.00000E+00
    0.11253E-07         0.95461E-20         0.00000E+00
    0.11817E-07         0.46566E-21         0.00000E+00
    0.12405E-07         0.12340E-19         0.00000E+00
    0.13015E-07         0.21653E-19         0.00000E+00
    0.13648E-07        -0.16298E-20         0.00000E+00
    0.14305E-07        -0.13737E-19         0.00000E+00
    0.14986E-07        -0.13970E-20         0.00000E+00
    0.15691E-07         0.14435E-19         0.00000E+00
    0.16419E-07         0.13970E-20         0.00000E+00
    0.17172E-07        -0.20489E-19         0.00000E+00
    0.17948E-07        -0.95461E-20         0.00000E+00
    0.18748E-07        -0.93132E-21         0.00000E+00
    0.19571E-07        -0.20489E-19         0.00000E+00
    0.20416E-07        -0.21653E-19         0.00000E+00
    0.21283E-07         0.41910E-20         0.00000E+00
    0.22171E-07        -0.32596E-20         0.00000E+00
    0.23079E-07        -0.18161E-19         0.00000E+00
    0.24007E-07        -0.17462E-19         0.00000E+00
    0.24951E-07         0.16298E-20         0.00000E+00
    0.25911E-07         0.23283E-19         0.00000E+00
    0.26886E-07         0.26077E-19         0.00000E+00
    0.27872E-07         0.26776E-19         0.00000E+00
    0.28868E-07         0.25844E-19         0.00000E+00
    0.29870E-07         0.83819E-20         0.00000E+00
    0.30877E-07         0.46566E-20         0.00000E+00
    0.31885E-07         0.16764E-19         0.00000E+00
    0.32890E-07         0.21188E-19         0.00000E+00
    0.33889E-07         0.17928E-19         0.00000E+00
    0.34877E-07         0.15367E-19         0.00000E+00
    0.35850E-07         0.23283E-19         0.00000E+00
    0.36804E-07         0.14901E-19         0.00000E+00
    0.37733E-07         0.13504E-19         0.00000E+00
    0.38632E-07         0.17229E-19         0.00000E+00
    0.39496E-07         0.24447E-19         0.00000E+00
    0.40319E-07         0.17462E-19         0.00000E+00
    0.41094E-07         0.17113E-19         0.00000E+00
    0.41817E-07         0.44820E-19         0.00000E+00
    0.42480E-07         0.37486E-19         0.00000E+00
    0.43078E-07         0.39116E-19         0.00000E+00
    0.43605E-07         0.36322E-19         0.00000E+00
    0.44054E-07         0.31199E-19         0.00000E+00
    0.44422E-07         0.30035E-19         0.00000E+00
    0.44702E-07         0.29569E-19         0.00000E+00
    0.44891E-07         0.20256E-19         0.00000E+00
    0.44987E-07         0.58208E-21         0.00000E+00
    0.91510E-09        -0.16298E-20         0.00000E+00
    0.91864E-09        -0.11642E-19         0.00000E+00
    0.92574E-09        -0.14435E-19         0.00000E+00
    0.93641E-09         0.18626E-20         0.00000E+00
    0.95070E-09         0.95461E-20         0.00000E+00
    0.96864E-09         0.58208E-20         0.00000E+00
    0.99029E-09        -0.46566E-21         0.00000E+00
    0.10157E-08        -0.16298E-20         0.00000E+00
    0.10450E-08         0.13504E-19         0.00000E+00
    0.10782E-08         0.69849E-20         0.00000E+00
    0.11155E-08        -0.11642E-20         0.00000E+00
    0.11570E-08         0.14668E-19         0.00000E+00
    0.12027E-08         0.27707E-19         0.00000E+00
    0.12529E-08         0.67521E-20         0.00000E+00
    0.13076E-08        -0.15832E-19         0.00000E+00
    0.13671E-08         0.37253E-20         0.00000E+00
    0.14316E-08         0.21653E-19         0.00000E+00
    0.15011E-08         0.21420E-19         0.00000E+00
    0.15759E-08         0.15600E-19         0.00000E+00
    0.16563E-08         0.22119E-19         0.00000E+00
    0.17425E-08         0.44936E-19         0.00000E+00
    0.18346E-08         0.48894E-19         0.00000E+00
    0.19330E-08         0.40047E-19         0.00000E+00
    0.20380E-08         0.30734E-19         0.00000E+00
    0.21498E-08         0.17462E-19         0.00000E+00
    0.22687E-08         0.16298E-19         0.00000E+00
    0.23951E-08         0.16531E-19         0.00000E+00
    0.25293E-08         0.18859E-19         0.00000E+00
    0.26716E-08         0.23516E-19         0.00000E+00
    0.28224E-08         0.74506E-20         0.00000E+00
    0.29820E-08         0.18626E-20         0.00000E+00
    0.31510E-08         0.60536E-20         0.00000E+00
    0.33296E-08         0.16298E-19         0.00000E+00
    0.35184E-08         0.22352E-19         0.00000E+00
    0.37177E-08         0.65193E-20         0.00000E+00
    0.39280E-08         0.10710E-19         0.00000E+00
    0.41498E-08         0.10710E-19         0.00000E+00
    0.43836E-08        -0.41910E-20         0.00000E+00
    0.46298E-08        -0.67521E-20         0.00000E+00
    0.48890E-08        -0.21886E-19         0.00000E+00
    0.51618E-08        -0.26543E-19         0.00000E+00
    0.54486E-08        -0.14668E-19         0.00000E+00
    0.57499E-08        -0.23982E-19         0.00000E+00
    0.60665E-08        -0.16298E-19         0.00000E+00
    0.63987E-08        -0.51223E-20         0.00000E+00
    0.67472E-08        -0.39581E-20         0.00000E+00
    0.71126E-08        -0.97789E-20         0.00000E+00
    0.74954E-08        -0.16531E-19         0.00000E+00
    0.78962E-08        -0.15134E-19         0.00000E+00
    0.83156E-08        -0.20256E-19         0.00000E+00
    0.87541E-08        -0.15832E-19         0.00000E+00
    0.92123E-08        -0.62864E-20         0.00000E+00
    0.96908E-08        -0.21886E-19         0.00000E+00
    0.10190E-07        -0.26776E-19         0.00000E+00
    0.10711E-07        -0.51223E-20         0.00000E+00
    0.11253E-07        -0.10943E-19         0.00000E+00
    0.11817E-07        -0.21420E-19         0.00000E+00
    0.12405E-07        -0.74506E-20         0.00000E+00
    0.13015E-07        -0.10012E-19         0.00000E+00
    0.13648E-07        -0.12107E-19         0.00000E+00
    0.14305E-07         0.16298E-20         0.00000E+00
    0.14986E-07        -0.37253E-20         0.00000E+00
    0.15691E-07         0.18626E-20         0.00000E+00
    0.16419E-07        -0.12573E-19         0.00000E+00
    0.17172E-07        -0.30501E-19         0.00000E+00
    0.17948E-07        -0.27707E-19         0.00000E+00
    0.18748E-07        -0.15832E-19         0.00000E+00
    0.19571E-07        -0.16531E-19         0.00000E+00
    0.20416E-07        -0.26077E-19         0.00000E+00
    0.21283E-07        -0.26077E-19         0.00000E+00
    0.22171E-07        -0.11176E-19         0.00000E+00
    0.23079E-07        -0.14901E-19         0.00000E+00
    0.24007E-07        -0.13737E-19         0.00000E+00
    0.24951E-07         0.11409E-19         0.00000E+00
    0.25911E-07         0.21188E-19         0.00000E+00
    0.26886E-07         0.16065E-19         0.00000E+00
    0.27872E-07         0.16298E-19         0.00000E+00
    0.28868E-07         0.12340E-19         0.00000E+00
    0.29870E-07         0.13039E-19         0.00000E+00
    0.30877E-07         0.14901E-19         0.00000E+00
    0.31885E-07         0.51223E-20         0.00000E+00
    0.32890E-07         0.11642E-19         0.00000E+00
    0.33889E-07         0.18394E-19         0.00000E+00
    0.34877E-07         0.18859E-19         0.00000E+00
    0.35850E-07         0.18394E-19         0.00000E+00
    0.36804E-07         0.13271E-19         0.00000E+00
    0.37733E-07         0.12107E-19         0.00000E+00
    0.38632E-07         0.27707E-19         0.00000E+00
    0.39496E-07         0.28871E-19         0.00000E+00
    0.40319E-07         0.21188E-19         0.00000E+00
    0.41094E-07         0.28755E-19         0.00000E+00
    0.41817E-07         0.29337E-19         0.00000E+00
    0.42480E-07         0.34343E-19         0.00000E+00
    0.43078E-07         0.38533E-19         0.00000E+00
    0.43605E-07         0.34459E-19         0.00000E+00
    0.44054E-07         0.18626E-19         0.00000E+00
    0.44422E-07         0.14901E-19         0.00000E+00
    0.44702E-07         0.35274E-19         0.00000E+00
    0.44891E-07         0.33062E-19         0.00000E+00
    0.44987E-07         0.89640E-20         0.00000E+00
    0.91510E-09        -0.18161E-19         0.00000E+00
    0.91864E-09        -0.17229E-19         0.00000E+00
    0.92574E-09         0.55879E-20         0.00000E+00
    0.93641E-09        -0.30268E-20         0.00000E+00
    0.95070E-09        -0.17462E-19         0.00000E+00
    0.96864E-09        -0.60536E-20         0.00000E+00
    0.99029E-09         0.48894E-20         0.00000E+00
    0.10157E-08         0.48894E-20         0.00000E+00
    0.10450E-08         0.14203E-19         0.00000E+00
    0.10782E-08        -0.34925E-20         0.00000E+00
    0.11155E-08         0.95461E-20         0.00000E+00
    0.11570E-08         0.30035E-19         0.00000E+00
    0.12027E-08         0.22585E-19         0.00000E+00
    0.12529E-08         0.16065E-19         0.00000E+00
    0.13076E-08         0.46566E-21         0.00000E+00
    0.13671E-08         0.51223E-20         0.00000E+00
    0.14316E-08         0.14668E-19         0.00000E+00
    0.15011E-08         0.53551E-20         0.00000E+00
    0.15759E-08         0.12806E-19         0.00000E+00
    0.16563E-08         0.36554E-19         0.00000E+00
    0.17425E-08         0.40513E-19         0.00000E+00
    0.18346E-08         0.30268E-19         0.00000E+00
    0.19330E-08         0.38184E-19         0.00000E+00
    0.20380E-08         0.40745E-19         0.00000E+00
    0.21498E-08         0.42142E-19         0.00000E+00
    0.22687E-08         0.44471E-19         0.00000E+00
    0.23951E-08         0.31665E-19         0.00000E+00
    0.25293E-08         0.67521E-20         0.00000E+00
    0.26716E-08         0.13504E-19         0.00000E+00
    0.28224E-08         0.90804E-20         0.00000E+00
    0.29820E-08         0.25611E-20         0.00000E+00
    0.31510E-08         0.11176E-19         0.00000E+00
    0.33296E-08         0.14901E-19         0.00000E+00
    0.35184E-08         0.21653E-19         0.00000E+00
    0.37177E-08         0.19558E-19         0.00000E+00
    0.39280E-08         0.95461E-20         0.00000E+00
    0.41498E-08         0.93132E-21         0.00000E+00
    0.43836E-08        -0.51223E-20         0.00000E+00
    0.46298E-08        -0.13737E-19         0.00000E+00
    0.48890E-08        -0.13504E-19         0.00000E+00
    0.51618E-08        -0.23050E-19         0.00000E+00
    0.54486E-08        -0.21420E-19         0.00000E+00
    0.57499E-08        -0.93132E-21         0.00000E+00
    0.60665E-08        -0.79162E-20         0.00000E+00
    0.63987E-08        -0.12107E-19         0.00000E+00
    0.67472E-08        -0.13737E-19         0.00000E+00
    0.71126E-08        -0.14668E-19         0.00000E+00
    0.74954E-08        -0.13737E-19         0.00000E+00
    0.78962E-08        -0.15832E-19         0.00000E+00
    0.83156E-08        -0.13970E-19         0.00000E+00
    0.87541E-08        -0.20023E-19         0.00000E+00
    0.92123E-08        -0.12340E-19         0.00000E+00
    0.96908E-08        -0.16298E-19         0.00000E+00
    0.10190E-07        -0.21188E-19         0.00000E+00
    0.10711E-07        -0.24680E-19         0.00000E+00
    0.11253E-07        -0.28638E-19         0.00000E+00
    0.11817E-07        -0.26077E-19         0.00000E+00
    0.12405E-07        -0.21420E-19         0.00000E+00
    0.13015E-07        -0.14668E-19         0.00000E+00
    0.13648E-07        -0.22352E-19         0.00000E+00
    0.14305E-07        -0.33993E-19         0.00000E+00
    0.14986E-07        -0.13039E-19         0.00000E+00
    0.15691E-07        -0.69849E-20         0.00000E+00
    0.16419E-07        -0.25611E-19         0.00000E+00
    0.17172E-07        -0.30035E-19         0.00000E+00
    0.17948E-07        -0.44005E-19         0.00000E+00
    0.18748E-07        -0.45169E-19         0.00000E+00
    0.19571E-07        -0.44238E-19         0.00000E+00
    0.20416E-07        -0.31665E-19         0.00000E+00
    0.21283E-07        -0.97789E-20         0.00000E+00
    0.22171E-07        -0.23749E-19         0.00000E+00
    0.23079E-07        -0.19092E-19         0.00000E+00
    0.24007E-07        -0.16298E-19         0.00000E+00
    0.24951E-07         0.93132E-21         0.00000E+00
    0.25911E-07         0.26776E-19         0.00000E+00
    0.26886E-07         0.13504E-19         0.00000E+00
    0.27872E-07        -0.25611E-20         0.00000E+00
    0.28868E-07         0.32596E-20         0.00000E+00
    0.29870E-07         0.12107E-19         0.00000E+00
    0.30877E-07         0.21420E-19         0.00000E+00
    0.31885E-07         0.14435E-19         0.00000E+00
    0.32890E-07         0.15600E-19         0.00000E+00
    0.33889E-07         0.29104E-19         0.00000E+00
    0.34877E-07         0.20023E-19         0.00000E+00
    0.35850E-07         0.28405E-19         0.00000E+00
    0.36804E-07         0.30501E-19         0.00000E+00
    0.37733E-07         0.13039E-19         0.00000E+00
    0.38632E-07         0.23283E-19         0.00000E+00
    0.39496E-07         0.21886E-19         0.00000E+00
    0.40319E-07         0.13737E-19         0.00000E+00
    0.41094E-07         0.22352E-19         0.00000E+00
    0.41817E-07         0.47730E-19         0.00000E+00
    0.42480E-07         0.44703E-19         0.00000E+00
    0.43078E-07         0.15600E-19         0.00000E+00
    0.43605E-07         0.13388E-19         0.00000E+00
    0.44054E-07         0.16065E-19         0.00000E+00
    0.44422E-07         0.30035E-19         0.00000E+00
    0.44702E-07         0.26543E-19         0.00000E+00
    0.44891E-07         0.45402E-20         0.00000E+00
    0.44987E-07         0.30268E-20         0.00000E+00
    0.91510E-09        -0.55879E-20         0.00000E+00
    0.91864E-09        -0.55879E-20         0.00000E+00
    0.92574E-09        -0.69849E-21         0.00000E+00
    0.93641E-09        -0.15134E-19         0.00000E+00
    0.95070E-09        -0.22119E-19         0.00000E+00
    0.96864E-09        -0.30268E-20         0.00000E+00
    0.99029E-09         0.83819E-20         0.00000E+00
    0.10157E-08         0.58208E-20         0.00000E+00
    0.10450E-08         0.11409E-19         0.00000E+00
    0.10782E-08         0.41910E-20         0.00000E+00
    0.11155E-08        -0.18626E-20         0.00000E+00
    0.11570E-08         0.58208E-20         0.00000E+00
    0.12027E-08         0.23050E-19         0.00000E+00
    0.12529E-08         0.21188E-19         0.00000E+00
    0.13076E-08         0.13271E-19         0.00000E+00
    0.13671E-08         0.51223E-20         0.00000E+00
    0.14316E-08         0.11874E-19         0.00000E+00
    0.15011E-08         0.21188E-19         0.00000E+00
    0.15759E-08         0.81491E-20         0.00000E+00
    0.16563E-08         0.23050E-19         0.00000E+00
    0.17425E-08         0.51688E-19         0.00000E+00
    0.18346E-08         0.38184E-19         0.00000E+00
    0.19330E-08         0.20023E-19         0.00000E+00
    0.20380E-08         0.39116E-19         0.00000E+00
    0.21498E-08         0.43074E-19         0.00000E+00
    0.22687E-08         0.34925E-19         0.00000E+00
    0.23951E-08         0.18626E-19         0.00000E+00
    0.25293E-08         0.14668E-19         0.00000E+00
    0.26716E-08         0.16065E-19         0.00000E+00
    0.28224E-08         0.23283E-20         0.00000E+00
    0.29820E-08        -0.65193E-20         0.00000E+00
    0.31510E-08         0.13970E-19         0.00000E+00
    0.33296E-08         0.23516E-19         0.00000E+00
    0.35184E-08         0.46566E-20         0.00000E+00
    0.37177E-08         0.16065E-19         0.00000E+00
    0.39280E-08         0.20023E-19         0.00000E+00
    0.41498E-08         0.12340E-19         0.00000E+00
    0.43836E-08         0.93132E-20         0.00000E+00
    0.46298E-08        -0.10943E-19         0.00000E+00
    0.48890E-08        -0.48894E-20         0.00000E+00
    0.51618E-08        -0.86147E-20         0.00000E+00
    0.54486E-08        -0.13271E-19         0.00000E+00
    0.57499E-08        -0.27940E-20         0.00000E+00
    0.60665E-08        -0.69849E-20         0.00000E+00
    0.63987E-08         0.34925E-20         0.00000E+00
    0.67472E-08         0.53551E-20         0.00000E+00
    0.71126E-08         0.16298E-20         0.00000E+00
    0.74954E-08         0.90804E-20         0.00000E+00
    0.78962E-08         0.13271E-19         0.00000E+00
    0.83156E-08        -0.67521E-20         0.00000E+00
    0.87541E-08        -0.20023E-19         0.00000E+00
    0.92123E-08        -0.62864E-20         0.00000E+00
    0.96908E-08         0.23283E-20         0.00000E+00
    0.10190E-07        -0.15134E-19         0.00000E+00
    0.10711E-07        -0.28871E-19         0.00000E+00
    0.11253E-07        -0.11642E-20         0.00000E+00
    0.11817E-07         0.88476E-20         0.00000E+00
    0.12405E-07        -0.12107E-19         0.00000E+00
    0.13015E-07        -0.26776E-19         0.00000E+00
    0.13648E-07        -0.17229E-19         0.00000E+00
    0.14305E-07        -0.90804E-20         0.00000E+00
    0.14986E-07        -0.10245E-19         0.00000E+00
    0.15691E-07        -0.29802E-19         0.00000E+00
    0.16419E-07        -0.43772E-19         0.00000E+00
    0.17172E-07        -0.41444E-19         0.00000E+00
    0.17948E-07        -0.28173E-19         0.00000E+00
    0.18748E-07        -0.37719E-19         0.00000E+00
    0.19571E-07        -0.35856E-19         0.00000E+00
    0.20416E-07        -0.33528E-19         0.00000E+00
    0.21283E-07        -0.18626E-19         0.00000E+00
    0.22171E-07         0.93132E-21         0.00000E+00
    0.23079E-07        -0.32596E-20         0.00000E+00
    0.24007E-07        -0.13970E-20         0.00000E+00
    0.24951E-07         0.88476E-20         0.00000E+00
    0.25911E-07         0.67521E-20         0.00000E+00
    0.26886E-07         0.11409E-19         0.00000E+00
    0.27872E-07         0.23982E-19         0.00000E+00
    0.28868E-07         0.13504E-19         0.00000E+00
    0.29870E-07         0.27940E-20         0.00000E+00
    0.30877E-07        -0.46566E-21         0.00000E+00
    0.31885E-07         0.10477E-19         0.00000E+00
    0.32890E-07         0.27008E-19         0.00000E+00
    0.33889E-07         0.16065E-19         0.00000E+00
    0.34877E-07         0.20023E-19         0.00000E+00
    0.35850E-07         0.25146E-19         0.00000E+00
    0.36804E-07         0.30501E-19         0.00000E+00
    0.37733E-07         0.29337E-19         0.00000E+00
    0.38632E-07         0.25844E-19         0.00000E+00
    0.39496E-07         0.14668E-19         0.00000E+00
    0.40319E-07         0.14901E-19         0.00000E+00
    0.41094E-07         0.26193E-19         0.00000E+00
    0.41817E-07         0.40862E-19         0.00000E+00
    0.42480E-07         0.39814E-19         0.00000E+00
    0.43078E-07         0.32131E-19         0.00000E+00
    0.43605E-07         0.28056E-19         0.00000E+00
    0.44054E-07         0.14203E-19         0.00000E+00
    0.44422E-07         0.22817E-19         0.00000E+00
    0.44702E-07         0.16531E-19         0.00000E+00
    0.44891E-07         0.46566E-20         0.00000E+00
    0.44987E-07         0.25611E-20         0.00000E+00
    0.91510E-09         0.10245E-19         0.00000E+00
    0.91864E-09         0.18626E-19         0.00000E+00
    0.92574E-09        -0.93132E-21         0.00000E+00
    0.93641E-09        -0.14435E-19         0.00000E+00
    0.95070E-09         0.69849E-21         0.00000E+00
    0.96864E-09         0.16997E-19         0.00000E+00
    0.99029E-09         0.60536E-20         0.00000E+00
    0.10157E-08         0.20955E-20         0.00000E+00
    0.10450E-08         0.11409E-19         0.00000E+00
    0.10782E-08         0.24447E-19         0.00000E+00
    0.11155E-08         0.31898E-19         0.00000E+00
    0.11570E-08         0.19092E-19         0.00000E+00
    0.12027E-08         0.26776E-19         0.00000E+00
    0.12529E-08         0.37486E-19         0.00000E+00
    0.13076E-08         0.17462E-19         0.00000E+00
    0.13671E-08         0.22585E-19         0.00000E+00
    0.14316E-08         0.15134E-19         0.00000E+00
    0.15011E-08         0.15367E-19         0.00000E+00
    0.15759E-08         0.25844E-19         0.00000E+00
    0.16563E-08         0.13271E-19         0.00000E+00
    0.17425E-08         0.15600E-19         0.00000E+00
    0.18346E-08         0.33760E-19         0.00000E+00
    0.19330E-08         0.28871E-19         0.00000E+00
    0.20380E-08         0.38883E-19         0.00000E+00
    0.21498E-08         0.40745E-19         0.00000E+00
    0.22687E-08         0.29337E-19         0.00000E+00
    0.23951E-08         0.28405E-19         0.00000E+00
    0.25293E-08         0.16531E-19         0.00000E+00
    0.26716E-08         0.20489E-19         0.00000E+00
    0.28224E-08         0.21653E-19         0.00000E+00
    0.29820E-08         0.14435E-19         0.00000E+00
    0.31510E-08         0.41910E-20         0.00000E+00
    0.33296E-08        -0.74506E-20         0.00000E+00
    0.35184E-08         0.83819E-20         0.00000E+00
    0.37177E-08         0.17229E-19         0.00000E+00
    0.39280E-08         0.23982E-19         0.00000E+00
    0.41498E-08         0.10477E-19         0.00000E+00
    0.43836E-08        -0.18626E-20         0.00000E+00
    0.46298E-08         0.46566E-20         0.00000E+00
    0.48890E-08        -0.20955E-20         0.00000E+00
    0.51618E-08        -0.20256E-19         0.00000E+00
    0.54486E-08        -0.16997E-19         0.00000E+00
    0.57499E-08        -0.23982E-19         0.00000E+00
    0.60665E-08        -0.17229E-19         0.00000E+00
    0.63987E-08         0.46566E-21         0.00000E+00
    0.67472E-08        -0.23283E-21         0.00000E+00
    0.71126E-08        -0.95461E-20         0.00000E+00
    0.74954E-08        -0.90804E-20         0.00000E+00
    0.78962E-08         0.34925E-20         0.00000E+00
    0.83156E-08         0.65193E-20         0.00000E+00
    0.87541E-08         0.76834E-20         0.00000E+00
    0.92123E-08        -0.19092E-19         0.00000E+00
    0.96908E-08        -0.20489E-19         0.00000E+00
    0.10190E-07        -0.13970E-19         0.00000E+00
    0.10711E-07        -0.20023E-19         0.00000E+00
    0.11253E-07        -0.13737E-19         0.00000E+00
    0.11817E-07        -0.17928E-19         0.00000E+00
    0.12405E-07        -0.20722E-19         0.00000E+00
    0.13015E-07        -0.33760E-19         0.00000E+00
    0.13648E-07        -0.26776E-19         0.00000E+00
    0.14305E-07        -0.40745E-19         0.00000E+00
    0.14986E-07        -0.40047E-19         0.00000E+00
    0.15691E-07        -0.26543E-19         0.00000E+00
    0.16419E-07        -0.29337E-19         0.00000E+00
    0.17172E-07        -0.41211E-19         0.00000E+00
    0.17948E-07        -0.57509E-19         0.00000E+00
    0.18748E-07        -0.47963E-19         0.00000E+00
    0.19571E-07        -0.35157E-19         0.00000E+00
    0.20416E-07        -0.26776E-19         0.00000E+00
    0.21283E-07        -0.13039E-19         0.00000E+00
    0.22171E-07        -0.88476E-20         0.00000E+00
    0.23079E-07         0.12573E-19         0.00000E+00
    0.24007E-07         0.13039E-19         0.00000E+00
    0.24951E-07         0.69849E-20         0.00000E+00
    0.25911E-07         0.16531E-19         0.00000E+00
    0.26886E-07         0.14203E-19         0.00000E+00
    0.27872E-07         0.81491E-20         0.00000E+00
    0.28868E-07         0.44238E-20         0.00000E+00
    0.29870E-07         0.93132E-21         0.00000E+00
    0.30877E-07         0.12107E-19         0.00000E+00
    0.31885E-07         0.10477E-19         0.00000E+00
    0.32890E-07         0.53551E-20         0.00000E+00
    0.33889E-07         0.12573E-19         0.00000E+00
    0.34877E-07         0.25379E-19         0.00000E+00
    0.35850E-07         0.30268E-19         0.00000E+00
    0.36804E-07         0.28405E-19         0.00000E+00
    0.37733E-07         0.16764E-19         0.00000E+00
    0.38632E-07         0.10012E-19         0.00000E+00
    0.39496E-07         0.16764E-19         0.00000E+00
    0.40319E-07         0.16298E-19         0.00000E+00
    0.41094E-07         0.19441E-19         0.00000E+00
    0.41817E-07         0.33760E-19         0.00000E+00
    0.42480E-07         0.28987E-19         0.00000E+00
    0.43078E-07         0.22817E-19         0.00000E+00
    0.43605E-07         0.24913E-19         0.00000E+00
    0.44054E-07         0.37486E-19         0.00000E+00
    0.44422E-07         0.24796E-19         0.00000E+00
    0.44702E-07         0.13970E-20         0.00000E+00
    0.44891E-07         0.11758E-19         0.00000E+00
    0.44987E-07         0.90804E-20         0.00000E+00
    0.91510E-09         0.00000E+00         0.00000E+00
    0.91864E-09        -0.32596E-20         0.00000E+00
    0.92574E-09         0.55879E-20         0.00000E+00
    0.93641E-09         0.17695E-19         0.00000E+00
    0.95070E-09         0.20722E-19         0.00000E+00
    0.96864E-09         0.13271E-19         0.00000E+00
    0.99029E-09         0.25611E-19         0.00000E+00
    0.10157E-08         0.39348E-19         0.00000E+00
    0.10450E-08         0.20722E-19         0.00000E+00
    0.10782E-08         0.21653E-19         0.00000E+00
    0.11155E-08         0.26310E-19         0.00000E+00
    0.11570E-08         0.21886E-19         0.00000E+00
    0.12027E-08         0.15367E-19         0.00000E+00
    0.12529E-08         0.21653E-19         0.00000E+00
    0.13076E-08         0.33295E-19         0.00000E+00
    0.13671E-08         0.17229E-19         0.00000E+00
    0.14316E-08         0.13504E-19         0.00000E+00
    0.15011E-08         0.79162E-20         0.00000E+00
    0.15759E-08         0.18859E-19         0.00000E+00
    0.16563E-08         0.38883E-19         0.00000E+00
    0.17425E-08         0.23516E-19         0.00000E+00
    0.18346E-08         0.27008E-19         0.00000E+00
    0.19330E-08         0.26543E-19         0.00000E+00
    0.20380E-08         0.27940E-19         0.00000E+00
    0.21498E-08         0.37951E-19         0.00000E+00
    0.22687E-08         0.33528E-19         0.00000E+00
    0.23951E-08         0.29104E-19         0.00000E+00
    0.25293E-08         0.15134E-19         0.00000E+00
    0.26716E-08         0.28405E-19         0.00000E+00
    0.28224E-08         0.23982E-19         0.00000E+00
    0.29820E-08        -0.46566E-20         0.00000E+00
    0.31510E-08        -0.16764E-19         0.00000E+00
    0.33296E-08        -0.15600E-19         0.00000E+00
    0.35184E-08        -0.41910E-20         0.00000E+00
    0.37177E-08         0.13970E-19         0.00000E+00
    0.39280E-08         0.69849E-21         0.00000E+00
    0.41498E-08        -0.20955E-20         0.00000E+00
    0.43836E-08        -0.46566E-21         0.00000E+00
    0.46298E-08        -0.19791E-19         0.00000E+00
    0.48890E-08        -0.13737E-19         0.00000E+00
    0.51618E-08        -0.12573E-19         0.00000E+00
    0.54486E-08        -0.12806E-19         0.00000E+00
    0.57499E-08        -0.19558E-19         0.00000E+00
    0.60665E-08        -0.24447E-19         0.00000E+00
    0.63987E-08        -0.18859E-19         0.00000E+00
    0.67472E-08        -0.76834E-20         0.00000E+00
    0.71126E-08        -0.11642E-20         0.00000E+00
    0.74954E-08        -0.22119E-19         0.00000E+00
    0.78962E-08        -0.16298E-20         0.00000E+00
    0.83156E-08         0.13504E-19         0.00000E+00
    0.87541E-08        -0.62864E-20         0.00000E+00
    0.92123E-08        -0.72177E-20         0.00000E+00
    0.96908E-08        -0.10477E-19         0.00000E+00
    0.10190E-07        -0.11874E-19         0.00000E+00
    0.10711E-07        -0.22352E-19         0.00000E+00
    0.11253E-07        -0.31898E-19         0.00000E+00
    0.11817E-07        -0.13737E-19         0.00000E+00
    0.12405E-07        -0.26077E-19         0.00000E+00
    0.13015E-07        -0.52853E-19         0.00000E+00
    0.13648E-07        -0.66357E-19         0.00000E+00
    0.14305E-07        -0.55879E-19         0.00000E+00
    0.14986E-07        -0.39581E-19         0.00000E+00
    0.15691E-07        -0.34925E-19         0.00000E+00
    0.16419E-07        -0.48196E-19         0.00000E+00
    0.17172E-07        -0.52853E-19         0.00000E+00
    0.17948E-07        -0.55181E-19         0.00000E+00
    0.18748E-07        -0.40978E-19         0.00000E+00
    0.19571E-07        -0.17229E-19         0.00000E+00
    0.20416E-07        -0.23283E-19         0.00000E+00
    0.21283E-07        -0.23749E-19         0.00000E+00
    0.22171E-07        -0.11176E-19         0.00000E+00
    0.23079E-07        -0.16298E-20         0.00000E+00
    0.24007E-07         0.44238E-20         0.00000E+00
    0.24951E-07        -0.53551E-20         0.00000E+00
    0.25911E-07         0.67521E-20         0.00000E+00
    0.26886E-07        -0.39581E-20         0.00000E+00
    0.27872E-07        -0.69849E-21         0.00000E+00
    0.28868E-07         0.41910E-20         0.00000E+00
    0.29870E-07        -0.11642E-19         0.00000E+00
    0.30877E-07         0.93132E-21         0.00000E+00
    0.31885E-07         0.69849E-20         0.00000E+00
    0.32890E-07         0.14901E-19         0.00000E+00
    0.33889E-07         0.12573E-19         0.00000E+00
    0.34877E-07         0.15600E-19         0.00000E+00
    0.35850E-07         0.28638E-19         0.00000E+00
    0.36804E-07         0.19325E-19         0.00000E+00
    0.37733E-07         0.69849E-20         0.00000E+00
    0.38632E-07         0.23283E-20         0.00000E+00
    0.39496E-07        -0.60536E-20         0.00000E+00
    0.40319E-07         0.65193E-20         0.00000E+00
    0.41094E-07         0.18976E-19         0.00000E+00
    0.41817E-07         0.19791E-19         0.00000E+00
    0.42480E-07         0.24913E-19         0.00000E+00
    0.43078E-07         0.27940E-19         0.00000E+00
    0.43605E-07         0.33178E-19         0.00000E+00
    0.44054E-07         0.30966E-19         0.00000E+00
    0.44422E-07         0.38417E-20         0.00000E+00
    0.44702E-07         0.23283E-20         0.00000E+00
    0.44891E-07         0.13853E-19         0.00000E+00
    0.44987E-07         0.69849E-20         0.00000E+00
    0.91510E-09        -0.13970E-20         0.00000E+00
    0.91864E-09         0.46566E-21         0.00000E+00
    0.92574E-09        -0.65193E-20         0.00000E+00
    0.93641E-09         0.48894E-20         0.00000E+00
    0.95070E-09         0.12806E-19         0.00000E+00
    0.96864E-09         0.90804E-20         0.00000E+00
    0.99029E-09         0.20955E-19         0.00000E+00
    0.10157E-08         0.20256E-19         0.00000E+00
    0.10450E-08         0.15600E-19         0.00000E+00
    0.10782E-08         0.20955E-19         0.00000E+00
    0.11155E-08         0.19325E-19         0.00000E+00
    0.11570E-08         0.19791E-19         0.00000E+00
    0.12027E-08         0.15600E-19         0.00000E+00
    0.12529E-08         0.18394E-19         0.00000E+00
    0.13076E-08         0.28173E-19         0.00000E+00
    0.13671E-08         0.23982E-19         0.00000E+00
    0.14316E-08         0.33295E-19         0.00000E+00
    0.15011E-08         0.34459E-19         0.00000E+00
    0.15759E-08         0.24447E-19         0.00000E+00
    0.16563E-08         0.33993E-19         0.00000E+00
    0.17425E-08         0.35390E-19         0.00000E+00
    0.18346E-08         0.39116E-19         0.00000E+00
    0.19330E-08         0.43074E-19         0.00000E+00
    0.20380E-08         0.31432E-19         0.00000E+00
    0.21498E-08         0.33062E-19         0.00000E+00
    0.22687E-08         0.28405E-19         0.00000E+00
    0.23951E-08         0.34925E-19         0.00000E+00
    0.25293E-08         0.28173E-19         0.00000E+00
    0.26716E-08         0.16065E-19         0.00000E+00
    0.28224E-08         0.16531E-19         0.00000E+00
    0.29820E-08         0.11642E-19         0.00000E+00
    0.31510E-08         0.88476E-20         0.00000E+00
    0.33296E-08         0.11642E-20         0.00000E+00
    0.35184E-08         0.69849E-21         0.00000E+00
    0.37177E-08        -0.46566E-21         0.00000E+00
    0.39280E-08        -0.39581E-20         0.00000E+00
    0.41498E-08         0.46566E-21         0.00000E+00
    0.43836E-08        -0.22352E-19         0.00000E+00
    0.46298E-08        -0.13504E-19         0.00000E+00
    0.48890E-08        -0.88476E-20         0.00000E+00
    0.51618E-08        -0.17928E-19         0.00000E+00
    0.54486E-08        -0.31432E-19         0.00000E+00
    0.57499E-08        -0.26077E-19         0.00000E+00
    0.60665E-08        -0.25844E-19         0.00000E+00
    0.63987E-08        -0.21653E-19         0.00000E+00
    0.67472E-08        -0.24447E-19         0.00000E+00
    0.71126E-08        -0.10477E-19         0.00000E+00
    0.74954E-08         0.69849E-21         0.00000E+00
    0.78962E-08        -0.51223E-20         0.00000E+00
    0.83156E-08         0.79162E-20         0.00000E+00
    0.87541E-08         0.12573E-19         0.00000E+00
    0.92123E-08         0.22585E-19         0.00000E+00
    0.96908E-08         0.58208E-20         0.00000E+00
    0.10190E-07        -0.11642E-20         0.00000E+00
    0.10711E-07        -0.11642E-19         0.00000E+00
    0.11253E-07        -0.22119E-19         0.00000E+00
    0.11817E-07        -0.30734E-19         0.00000E+00
    0.12405E-07        -0.47032E-19         0.00000E+00
    0.13015E-07        -0.50524E-19         0.00000E+00
    0.13648E-07        -0.54017E-19         0.00000E+00
    0.14305E-07        -0.44936E-19         0.00000E+00
    0.14986E-07        -0.32131E-19         0.00000E+00
    0.15691E-07        -0.46566E-19         0.00000E+00
    0.16419E-07        -0.59372E-19         0.00000E+00
    0.17172E-07        -0.64028E-19         0.00000E+00
    0.17948E-07        -0.56578E-19         0.00000E+00
    0.18748E-07        -0.49127E-19         0.00000E+00
    0.19571E-07        -0.25844E-19         0.00000E+00
    0.20416E-07        -0.21653E-19         0.00000E+00
    0.21283E-07        -0.35856E-19         0.00000E+00
    0.22171E-07        -0.28405E-19         0.00000E+00
    0.23079E-07        -0.55879E-20         0.00000E+00
    0.24007E-07         0.29569E-19         0.00000E+00
    0.24951E-07         0.16531E-19         0.00000E+00
    0.25911E-07        -0.23283E-21         0.00000E+00
    0.26886E-07         0.18859E-19         0.00000E+00
    0.27872E-07         0.15600E-19         0.00000E+00
    0.28868E-07         0.13737E-19         0.00000E+00
    0.29870E-07         0.16298E-19         0.00000E+00
    0.30877E-07        -0.41910E-20         0.00000E+00
    0.31885E-07         0.23283E-21         0.00000E+00
    0.32890E-07         0.20722E-19         0.00000E+00
    0.33889E-07         0.10477E-19         0.00000E+00
    0.34877E-07         0.15367E-19         0.00000E+00
    0.35850E-07         0.22352E-19         0.00000E+00
    0.36804E-07         0.79162E-20         0.00000E+00
    0.37733E-07         0.97789E-20         0.00000E+00
    0.38632E-07         0.14668E-19         0.00000E+00
    0.39496E-07         0.29802E-19         0.00000E+00
    0.40319E-07         0.35856E-19         0.00000E+00
    0.41094E-07         0.32247E-19         0.00000E+00
    0.41817E-07         0.35856E-19         0.00000E+00
    0.42480E-07         0.28871E-19         0.00000E+00
    0.43078E-07         0.23982E-19         0.00000E+00
    0.43605E-07         0.16764E-19         0.00000E+00
    0.44054E-07         0.20256E-19         0.00000E+00
    0.44422E-07         0.66357E-20         0.00000E+00
    0.44702E-07         0.11176E-19         0.00000E+00
    0.44891E-07         0.23632E-19         0.00000E+00
    0.44987E-07         0.95461E-20         0.00000E+00
    0.91510E-09        -0.23283E-20         0.00000E+00
    0.91864E-09        -0.12573E-19         0.00000E+00
    0.92574E-09        -0.32596E-20         0.00000E+00
    0.93641E-09         0.83819E-20         0.00000E+00
    0.95070E-09         0.81491E-20         0.00000E+00
    0.96864E-09        -0.39581E-20         0.00000E+00
    0.99029E-09         0.20023E-19         0.00000E+00
    0.10157E-08         0.22119E-19         0.00000E+00
    0.10450E-08         0.18394E-19         0.00000E+00
    0.10782E-08         0.32596E-19         0.00000E+00
    0.11155E-08         0.32131E-19         0.00000E+00
    0.11570E-08         0.14668E-19         0.00000E+00
    0.12027E-08         0.62864E-20         0.00000E+00
    0.12529E-08         0.17229E-19         0.00000E+00
    0.13076E-08         0.34459E-19         0.00000E+00
    0.13671E-08         0.45868E-19         0.00000E+00
    0.14316E-08         0.40745E-19         0.00000E+00
    0.15011E-08         0.37253E-19         0.00000E+00
    0.15759E-08         0.39348E-19         0.00000E+00
    0.16563E-08         0.36089E-19         0.00000E+00
    0.17425E-08         0.28871E-19         0.00000E+00
    0.18346E-08         0.29337E-19         0.00000E+00
    0.19330E-08         0.38650E-19         0.00000E+00
    0.20380E-08         0.45868E-19         0.00000E+00
    0.21498E-08         0.49826E-19         0.00000E+00
    0.22687E-08         0.33760E-19         0.00000E+00
    0.23951E-08         0.27474E-19         0.00000E+00
    0.25293E-08         0.37486E-19         0.00000E+00
    0.26716E-08         0.34925E-19         0.00000E+00
    0.28224E-08         0.41444E-19         0.00000E+00
    0.29820E-08         0.33528E-19         0.00000E+00
    0.31510E-08         0.12107E-19         0.00000E+00
    0.33296E-08         0.97789E-20         0.00000E+00
    0.35184E-08         0.55879E-20         0.00000E+00
    0.37177E-08        -0.74506E-20         0.00000E+00
    0.39280E-08         0.65193E-20         0.00000E+00
    0.41498E-08         0.11409E-19         0.00000E+00
    0.43836E-08        -0.55879E-20         0.00000E+00
    0.46298E-08        -0.90804E-20         0.00000E+00
    0.48890E-08        -0.12806E-19         0.00000E+00
    0.51618E-08        -0.93132E-20         0.00000E+00
    0.54486E-08        -0.76834E-20         0.00000E+00
    0.57499E-08        -0.14435E-19         0.00000E+00
    0.60665E-08        -0.12806E-19         0.00000E+00
    0.63987E-08        -0.58208E-20         0.00000E+00
    0.67472E-08        -0.15134E-19         0.00000E+00
    0.71126E-08        -0.13737E-19         0.00000E+00
    0.74954E-08        -0.81491E-20         0.00000E+00
    0.78962E-08        -0.93132E-21         0.00000E+00
    0.83156E-08        -0.16065E-19         0.00000E+00
    0.87541E-08        -0.15600E-19         0.00000E+00
    0.92123E-08         0.58208E-20         0.00000E+00
    0.96908E-08         0.13039E-19         0.00000E+00
    0.10190E-07        -0.13970E-20         0.00000E+00
    0.10711E-07        -0.22817E-19         0.00000E+00
    0.11253E-07        -0.15134E-19         0.00000E+00
    0.11817E-07        -0.34226E-19         0.00000E+00
    0.12405E-07        -0.40978E-19         0.00000E+00
    0.13015E-07        -0.40280E-19         0.00000E+00
    0.13648E-07        -0.49593E-19         0.00000E+00
    0.14305E-07        -0.37020E-19         0.00000E+00
    0.14986E-07        -0.58208E-19         0.00000E+00
    0.15691E-07        -0.63330E-19         0.00000E+00
    0.16419E-07        -0.50291E-19         0.00000E+00
    0.17172E-07        -0.50059E-19         0.00000E+00
    0.17948E-07        -0.43074E-19         0.00000E+00
    0.18748E-07        -0.45169E-19         0.00000E+00
    0.19571E-07        -0.27241E-19         0.00000E+00
    0.20416E-07        -0.16764E-19         0.00000E+00
    0.21283E-07        -0.37020E-19         0.00000E+00
    0.22171E-07        -0.21420E-19         0.00000E+00
    0.23079E-07        -0.11874E-19         0.00000E+00
    0.24007E-07         0.23283E-20         0.00000E+00
    0.24951E-07         0.74506E-20         0.00000E+00
    0.25911E-07         0.67521E-20         0.00000E+00
    0.26886E-07         0.30268E-20         0.00000E+00
    0.27872E-07        -0.90804E-20         0.00000E+00
    0.28868E-07         0.30268E-20         0.00000E+00
    0.29870E-07        -0.13970E-20         0.00000E+00
    0.30877E-07        -0.14901E-19         0.00000E+00
    0.31885E-07        -0.10710E-19         0.00000E+00
    0.32890E-07         0.86147E-20         0.00000E+00
    0.33889E-07         0.24913E-19         0.00000E+00
    0.34877E-07         0.30268E-19         0.00000E+00
    0.35850E-07         0.21886E-19         0.00000E+00
    0.36804E-07         0.13271E-19         0.00000E+00
    0.37733E-07         0.15832E-19         0.00000E+00
    0.38632E-07         0.20023E-19         0.00000E+00
    0.39496E-07         0.15134E-19         0.00000E+00
    0.40319E-07         0.24913E-19         0.00000E+00
    0.41094E-07         0.31781E-19         0.00000E+00
    0.41817E-07         0.13271E-19         0.00000E+00
    0.42480E-07         0.32480E-19         0.00000E+00
    0.43078E-07         0.40513E-19         0.00000E+00
    0.43605E-07         0.23399E-19         0.00000E+00
    0.44054E-07         0.88476E-20         0.00000E+00
    0.44422E-07         0.73342E-20         0.00000E+00
    0.44702E-07         0.14668E-19         0.00000E+00
    0.44891E-07         0.30268E-20         0.00000E+00
    0.44987E-07         0.16298E-20         0.00000E+00
    0.91510E-09        -0.12107E-19         0.00000E+00
    0.91864E-09        -0.74506E-20         0.00000E+00
    0.92574E-09         0.41910E-20         0.00000E+00
    0.93641E-09         0.74506E-20         0.00000E+00
    0.95070E-09         0.21653E-19         0.00000E+00
    0.96864E-09         0.23283E-19         0.00000E+00
    0.99029E-09         0.29337E-19         0.00000E+00
    0.10157E-08         0.25379E-19         0.00000E+00
    0.10450E-08         0.21188E-19         0.00000E+00
    0.10782E-08         0.15600E-19         0.00000E+00
    0.11155E-08         0.21188E-19         0.00000E+00
    0.11570E-08         0.14668E-19         0.00000E+00
    0.12027E-08         0.23283E-20         0.00000E+00
    0.12529E-08         0.20256E-19         0.00000E+00
    0.13076E-08         0.38650E-19         0.00000E+00
    0.13671E-08         0.29104E-19         0.00000E+00
    0.14316E-08         0.16298E-19         0.00000E+00
    0.15011E-08         0.38883E-19         0.00000E+00
    0.15759E-08         0.51921E-19         0.00000E+00
    0.16563E-08         0.33760E-19         0.00000E+00
    0.17425E-08         0.23749E-19         0.00000E+00
    0.18346E-08         0.31665E-19         0.00000E+00
    0.19330E-08         0.37951E-19         0.00000E+00
    0.20380E-08         0.36322E-19         0.00000E+00
    0.21498E-08         0.30501E-19         0.00000E+00
    0.22687E-08         0.29802E-19         0.00000E+00
    0.23951E-08         0.30734E-19         0.00000E+00
    0.25293E-08         0.26310E-19         0.00000E+00
    0.26716E-08         0.95461E-20         0.00000E+00
    0.28224E-08         0.58208E-20         0.00000E+00
    0.29820E-08         0.10245E-19         0.00000E+00
    0.31510E-08         0.79162E-20         0.00000E+00
    0.33296E-08        -0.88476E-20         0.00000E+00
    0.35184E-08        -0.11642E-19         0.00000E+00
    0.37177E-08        -0.44238E-20         0.00000E+00
    0.39280E-08         0.44238E-20         0.00000E+00
    0.41498E-08         0.69849E-21         0.00000E+00
    0.43836E-08         0.18626E-20         0.00000E+00
    0.46298E-08        -0.14203E-19         0.00000E+00
    0.48890E-08        -0.27707E-19         0.00000E+00
    0.51618E-08        -0.95461E-20         0.00000E+00
    0.54486E-08        -0.23982E-19         0.00000E+00
    0.57499E-08        -0.22585E-19         0.00000E+00
    0.60665E-08        -0.11176E-19         0.00000E+00
    0.63987E-08        -0.53551E-20         0.00000E+00
    0.67472E-08        -0.86147E-20         0.00000E+00
    0.71126E-08        -0.20256E-19         0.00000E+00
    0.74954E-08        -0.15600E-19         0.00000E+00
    0.78962E-08        -0.97789E-20         0.00000E+00
    0.83156E-08         0.46566E-21         0.00000E+00
    0.87541E-08         0.18394E-19         0.00000E+00
    0.92123E-08         0.27940E-20         0.00000E+00
    0.96908E-08        -0.12107E-19         0.00000E+00
    0.10190E-07        -0.53551E-20         0.00000E+00
    0.10711E-07        -0.16764E-19         0.00000E+00
    0.11253E-07        -0.65193E-20         0.00000E+00
    0.11817E-07        -0.30966E-19         0.00000E+00
    0.12405E-07        -0.37951E-19         0.00000E+00
    0.13015E-07        -0.21653E-19         0.00000E+00
    0.13648E-07        -0.32363E-19         0.00000E+00
    0.14305E-07        -0.41677E-19         0.00000E+00
    0.14986E-07        -0.46566E-19         0.00000E+00
    0.15691E-07        -0.35390E-19         0.00000E+00
    0.16419E-07        -0.25146E-19         0.00000E+00
    0.17172E-07        -0.22119E-19         0.00000E+00
    0.17948E-07        -0.37486E-19         0.00000E+00
    0.18748E-07        -0.21653E-19         0.00000E+00
    0.19571E-07        -0.74506E-20         0.00000E+00
    0.20416E-07        -0.97789E-20         0.00000E+00
    0.21283E-07        -0.10710E-19         0.00000E+00
    0.22171E-07        -0.55879E-20         0.00000E+00
    0.23079E-07         0.46566E-20         0.00000E+00
    0.24007E-07        -0.46566E-21         0.00000E+00
    0.24951E-07         0.11642E-19         0.00000E+00
    0.25911E-07         0.21420E-19         0.00000E+00
    0.26886E-07         0.16531E-19         0.00000E+00
    0.27872E-07         0.15832E-19         0.00000E+00
    0.28868E-07         0.16298E-19         0.00000E+00
    0.29870E-07        -0.60536E-20         0.00000E+00
    0.30877E-07        -0.10245E-19         0.00000E+00
    0.31885E-07         0.74506E-20         0.00000E+00
    0.32890E-07         0.16531E-19         0.00000E+00
    0.33889E-07         0.13039E-19         0.00000E+00
    0.34877E-07         0.69849E-20         0.00000E+00
    0.35850E-07         0.27008E-19         0.00000E+00
    0.36804E-07         0.26776E-19         0.00000E+00
    0.37733E-07         0.32596E-20         0.00000E+00
    0.38632E-07         0.97789E-20         0.00000E+00
    0.39496E-07         0.16531E-19         0.00000E+00
    0.40319E-07         0.16997E-19         0.00000E+00
    0.41094E-07         0.18161E-19         0.00000E+00
    0.41817E-07         0.27008E-19         0.00000E+00
    0.42480E-07         0.33528E-19         0.00000E+00
    0.43078E-07         0.42724E-19         0.00000E+00
    0.43605E-07         0.43772E-19         0.00000E+00
    0.44054E-07         0.15832E-19         0.00000E+00
    0.44422E-07         0.12806E-19         0.00000E+00
    0.44702E-07         0.28173E-19         0.00000E+00
    0.44891E-07         0.27823E-19         0.00000E+00
    0.44987E-07         0.14668E-19         0.00000E+00
    0.91510E-09        -0.37253E-20         0.00000E+00
    0.91864E-09        -0.97789E-20         0.00000E+00
    0.92574E-09        -0.10477E-19         0.00000E+00
    0.93641E-09        -0.69849E-21         0.00000E+00
    0.95070E-09         0.81491E-20         0.00000E+00
    0.96864E-09         0.19791E-19         0.00000E+00
    0.99029E-09         0.14435E-19         0.00000E+00
    0.10157E-08         0.13737E-19         0.00000E+00
    0.10450E-08         0.15600E-19         0.00000E+00
    0.10782E-08         0.27241E-19         0.00000E+00
    0.11155E-08         0.28173E-19         0.00000E+00
    0.11570E-08         0.16997E-19         0.00000E+00
    0.12027E-08         0.34925E-20         0.00000E+00
    0.12529E-08         0.16997E-19         0.00000E+00
    0.13076E-08         0.30501E-19         0.00000E+00
    0.13671E-08         0.58208E-20         0.00000E+00
    0.14316E-08         0.14668E-19         0.00000E+00
    0.15011E-08         0.22817E-19         0.00000E+00
    0.15759E-08         0.24447E-19         0.00000E+00
    0.16563E-08         0.33760E-19         0.00000E+00
    0.17425E-08         0.37020E-19         0.00000E+00
    0.18346E-08         0.20023E-19         0.00000E+00
    0.19330E-08         0.19791E-19         0.00000E+00
    0.20380E-08         0.28871E-19         0.00000E+00
    0.21498E-08         0.24214E-19         0.00000E+00
    0.22687E-08         0.40978E-19         0.00000E+00
    0.23951E-08         0.24447E-19         0.00000E+00
    0.25293E-08         0.19325E-19         0.00000E+00
    0.26716E-08         0.21653E-19         0.00000E+00
    0.28224E-08         0.11642E-20         0.00000E+00
    0.29820E-08        -0.55879E-20         0.00000E+00
    0.31510E-08         0.55879E-20         0.00000E+00
    0.33296E-08         0.11874E-19         0.00000E+00
    0.35184E-08         0.44238E-20         0.00000E+00
    0.37177E-08        -0.11176E-19         0.00000E+00
    0.39280E-08        -0.29802E-19         0.00000E+00
    0.41498E-08        -0.20023E-19         0.00000E+00
    0.43836E-08         0.46566E-21         0.00000E+00
    0.46298E-08        -0.17695E-19         0.00000E+00
    0.48890E-08        -0.37486E-19         0.00000E+00
    0.51618E-08        -0.38417E-19         0.00000E+00
    0.54486E-08        -0.46566E-19         0.00000E+00
    0.57499E-08        -0.52154E-19         0.00000E+00
    0.60665E-08        -0.18394E-19         0.00000E+00
    0.63987E-08        -0.19092E-19         0.00000E+00
    0.67472E-08        -0.21420E-19         0.00000E+00
    0.71126E-08        -0.39581E-20         0.00000E+00
    0.74954E-08        -0.12340E-19         0.00000E+00
    0.78962E-08         0.39581E-20         0.00000E+00
    0.83156E-08         0.13271E-19         0.00000E+00
    0.87541E-08        -0.13970E-20         0.00000E+00
    0.92123E-08        -0.30268E-20         0.00000E+00
    0.96908E-08        -0.69849E-20         0.00000E+00
    0.10190E-07        -0.15367E-19         0.00000E+00
    0.10711E-07        -0.12107E-19         0.00000E+00
    0.11253E-07        -0.12340E-19         0.00000E+00
    0.11817E-07        -0.28638E-19         0.00000E+00
    0.12405E-07        -0.49360E-19         0.00000E+00
    0.13015E-07        -0.68452E-19         0.00000E+00
    0.13648E-07        -0.61467E-19         0.00000E+00
    0.14305E-07        -0.27940E-19         0.00000E+00
    0.14986E-07        -0.40978E-19         0.00000E+00
    0.15691E-07        -0.54948E-19         0.00000E+00
    0.16419E-07        -0.49593E-19         0.00000E+00
    0.17172E-07        -0.40047E-19         0.00000E+00
    0.17948E-07        -0.34692E-19         0.00000E+00
    0.18748E-07        -0.29802E-19         0.00000E+00
    0.19571E-07        -0.16997E-19         0.00000E+00
    0.20416E-07        -0.24447E-19         0.00000E+00
    0.21283E-07        -0.17928E-19         0.00000E+00
    0.22171E-07        -0.13504E-19         0.00000E+00
    0.23079E-07         0.39581E-20         0.00000E+00
    0.24007E-07         0.13970E-19         0.00000E+00
    0.24951E-07        -0.32596E-20         0.00000E+00
    0.25911E-07        -0.41910E-20         0.00000E+00
    0.26886E-07         0.22817E-19         0.00000E+00
    0.27872E-07         0.23516E-19         0.00000E+00
    0.28868E-07         0.10245E-19         0.00000E+00
    0.29870E-07         0.13039E-19         0.00000E+00
    0.30877E-07         0.46566E-20         0.00000E+00
    0.31885E-07        -0.93132E-20         0.00000E+00
    0.32890E-07        -0.23283E-20         0.00000E+00
    0.33889E-07         0.90804E-20         0.00000E+00
    0.34877E-07         0.21886E-19         0.00000E+00
    0.35850E-07         0.30734E-19         0.00000E+00
    0.36804E-07         0.19092E-19         0.00000E+00
    0.37733E-07         0.27940E-20         0.00000E+00
    0.38632E-07         0.46566E-20         0.00000E+00
    0.39496E-07         0.16065E-19         0.00000E+00
    0.40319E-07         0.34226E-19         0.00000E+00
    0.41094E-07         0.40862E-19         0.00000E+00
    0.41817E-07         0.46100E-19         0.00000E+00
    0.42480E-07         0.43190E-19         0.00000E+00
    0.43078E-07         0.29686E-19         0.00000E+00
    0.43605E-07         0.27474E-19         0.00000E+00
    0.44054E-07         0.18859E-19         0.00000E+00
    0.44422E-07         0.14203E-19         0.00000E+00
    0.44702E-07         0.12689E-19         0.00000E+00
    0.44891E-07         0.64028E-20         0.00000E+00
    0.44987E-07         0.46566E-21         0.00000E+00
    0.91510E-09        -0.13970E-20         0.00000E+00
    0.91864E-09        -0.79162E-20         0.00000E+00
    0.92574E-09        -0.14901E-19         0.00000E+00
    0.93641E-09        -0.16298E-20         0.00000E+00
    0.95070E-09         0.10477E-19         0.00000E+00
    0.96864E-09        -0.23283E-21         0.00000E+00
    0.99029E-09         0.16065E-19         0.00000E+00
    0.10157E-08         0.33295E-19         0.00000E+00
    0.10450E-08         0.17229E-19         0.00000E+00
    0.10782E-08         0.17928E-19         0.00000E+00
    0.11155E-08         0.44471E-19         0.00000E+00
    0.11570E-08         0.23749E-19         0.00000E+00
    0.12027E-08        -0.60536E-20         0.00000E+00
    0.12529E-08        -0.86147E-20         0.00000E+00
    0.13076E-08         0.60536E-20         0.00000E+00
    0.13671E-08         0.16997E-19         0.00000E+00
    0.14316E-08         0.11874E-19         0.00000E+00
    0.15011E-08         0.29569E-19         0.00000E+00
    0.15759E-08         0.31665E-19         0.00000E+00
    0.16563E-08         0.29104E-19         0.00000E+00
    0.17425E-08         0.25844E-19         0.00000E+00
    0.18346E-08         0.22817E-19         0.00000E+00
    0.19330E-08         0.24680E-19         0.00000E+00
    0.20380E-08         0.16065E-19         0.00000E+00
    0.21498E-08         0.16997E-19         0.00000E+00
    0.22687E-08         0.11176E-19         0.00000E+00
    0.23951E-08         0.34925E-20         0.00000E+00
    0.25293E-08         0.11874E-19         0.00000E+00
    0.26716E-08         0.21886E-19         0.00000E+00
    0.28224E-08         0.26077E-19         0.00000E+00
    0.29820E-08         0.55879E-20         0.00000E+00
    0.31510E-08        -0.14435E-19         0.00000E+00
    0.33296E-08         0.93132E-21         0.00000E+00
    0.35184E-08         0.00000E+00         0.00000E+00
    0.37177E-08        -0.67521E-20         0.00000E+00
    0.39280E-08        -0.15600E-19         0.00000E+00
    0.41498E-08        -0.17462E-19         0.00000E+00
    0.43836E-08        -0.93132E-20         0.00000E+00
    0.46298E-08        -0.13504E-19         0.00000E+00
    0.48890E-08        -0.31665E-19         0.00000E+00
    0.51618E-08        -0.36322E-19         0.00000E+00
    0.54486E-08        -0.33760E-19         0.00000E+00
    0.57499E-08        -0.25146E-19         0.00000E+00
    0.60665E-08        -0.17229E-19         0.00000E+00
    0.63987E-08        -0.22119E-19         0.00000E+00
    0.67472E-08         0.69849E-20         0.00000E+00
    0.71126E-08         0.23516E-19         0.00000E+00
    0.74954E-08        -0.32596E-20         0.00000E+00
    0.78962E-08        -0.27241E-19         0.00000E+00
    0.83156E-08        -0.15600E-19         0.00000E+00
    0.87541E-08        -0.93132E-20         0.00000E+00
    0.92123E-08        -0.48894E-20         0.00000E+00
    0.96908E-08         0.60536E-20         0.00000E+00
    0.10190E-07        -0.51223E-20         0.00000E+00
    0.10711E-07        -0.60536E-20         0.00000E+00
    0.11253E-07        -0.27241E-19         0.00000E+00
    0.11817E-07        -0.83819E-20         0.00000E+00
    0.12405E-07        -0.15367E-19         0.00000E+00
    0.13015E-07        -0.56112E-19         0.00000E+00
    0.13648E-07        -0.51921E-19         0.00000E+00
    0.14305E-07        -0.47032E-19         0.00000E+00
    0.14986E-07        -0.47497E-19         0.00000E+00
    0.15691E-07        -0.47497E-19         0.00000E+00
    0.16419E-07        -0.20256E-19         0.00000E+00
    0.17172E-07        -0.22817E-19         0.00000E+00
    0.17948E-07        -0.44471E-19         0.00000E+00
    0.18748E-07        -0.25379E-19         0.00000E+00
    0.19571E-07        -0.25844E-19         0.00000E+00
    0.20416E-07        -0.34459E-19         0.00000E+00
    0.21283E-07        -0.16298E-19         0.00000E+00
    0.22171E-07        -0.55879E-20         0.00000E+00
    0.23079E-07        -0.13039E-19         0.00000E+00
    0.24007E-07        -0.10477E-19         0.00000E+00
    0.24951E-07        -0.20256E-19         0.00000E+00
    0.25911E-07        -0.81491E-20         0.00000E+00
    0.26886E-07         0.19325E-19         0.00000E+00
    0.27872E-07         0.67521E-20         0.00000E+00
    0.28868E-07        -0.65193E-20         0.00000E+00
    0.29870E-07         0.65193E-20         0.00000E+00
    0.30877E-07         0.17928E-19         0.00000E+00
    0.31885E-07         0.32363E-19         0.00000E+00
    0.32890E-07         0.16065E-19         0.00000E+00
    0.33889E-07         0.62864E-20         0.00000E+00
    0.34877E-07         0.48894E-20         0.00000E+00
    0.35850E-07        -0.16298E-20         0.00000E+00
    0.36804E-07         0.10012E-19         0.00000E+00
    0.37733E-07         0.10245E-19         0.00000E+00
    0.38632E-07         0.11642E-19         0.00000E+00
    0.39496E-07         0.12340E-19         0.00000E+00
    0.40319E-07         0.15134E-19         0.00000E+00
    0.41094E-07         0.26077E-19         0.00000E+00
    0.41817E-07         0.30035E-19         0.00000E+00
    0.42480E-07         0.35972E-19         0.00000E+00
    0.43078E-07         0.12456E-19         0.00000E+00
    0.43605E-07         0.33760E-20         0.00000E+00
    0.44054E-07         0.31898E-19         0.00000E+00
    0.44422E-07         0.14086E-19         0.00000E+00
    0.44702E-07         0.72177E-20         0.00000E+00
    0.44891E-07         0.23632E-19         0.00000E+00
    0.44987E-07         0.94296E-20         0.00000E+00
    0.91510E-09        -0.37253E-20         0.00000E+00
    0.91864E-09        -0.18626E-20         0.00000E+00
    0.92574E-09        -0.55879E-20         0.00000E+00
    0.93641E-09        -0.13271E-19         0.00000E+00
    0.95070E-09        -0.27940E-20         0.00000E+00
    0.96864E-09         0.10012E-19         0.00000E+00
    0.99029E-09         0.29337E-19         0.00000E+00
    0.10157E-08         0.41211E-19         0.00000E+00
    0.10450E-08         0.33760E-19         0.00000E+00
    0.10782E-08         0.20489E-19         0.00000E+00
    0.11155E-08         0.22352E-19         0.00000E+00
    0.11570E-08         0.13737E-19         0.00000E+00
    0.12027E-08         0.29569E-19         0.00000E+00
    0.12529E-08         0.33062E-19         0.00000E+00
    0.13076E-08         0.19791E-19         0.00000E+00
    0.13671E-08         0.53551E-20         0.00000E+00
    0.14316E-08         0.10943E-19         0.00000E+00
    0.15011E-08         0.47265E-19         0.00000E+00
    0.15759E-08         0.47730E-19         0.00000E+00
    0.16563E-08         0.33760E-19         0.00000E+00
    0.17425E-08         0.17928E-19         0.00000E+00
    0.18346E-08         0.25146E-19         0.00000E+00
    0.19330E-08         0.39116E-19         0.00000E+00
    0.20380E-08         0.28173E-19         0.00000E+00
    0.21498E-08         0.34925E-20         0.00000E+00
    0.22687E-08         0.51223E-20         0.00000E+00
    0.23951E-08         0.15832E-19         0.00000E+00
    0.25293E-08         0.16065E-19         0.00000E+00
    0.26716E-08         0.28405E-19         0.00000E+00
    0.28224E-08         0.27707E-19         0.00000E+00
    0.29820E-08         0.23283E-20         0.00000E+00
    0.31510E-08        -0.13504E-19         0.00000E+00
    0.33296E-08        -0.15134E-19         0.00000E+00
    0.35184E-08        -0.15367E-19         0.00000E+00
    0.37177E-08        -0.13970E-20         0.00000E+00
    0.39280E-08         0.39581E-20         0.00000E+00
    0.41498E-08        -0.67521E-20         0.00000E+00
    0.43836E-08        -0.14435E-19         0.00000E+00
    0.46298E-08        -0.22585E-19         0.00000E+00
    0.48890E-08        -0.40745E-19         0.00000E+00
    0.51618E-08        -0.47730E-19         0.00000E+00
    0.54486E-08        -0.22352E-19         0.00000E+00
    0.57499E-08        -0.23749E-19         0.00000E+00
    0.60665E-08        -0.28173E-19         0.00000E+00
    0.63987E-08        -0.20722E-19         0.00000E+00
    0.67472E-08        -0.18394E-19         0.00000E+00
    0.71126E-08        -0.12340E-19         0.00000E+00
    0.74954E-08        -0.32596E-20         0.00000E+00
    0.78962E-08        -0.44238E-20         0.00000E+00
    0.83156E-08        -0.13737E-19         0.00000E+00
    0.87541E-08         0.46566E-21         0.00000E+00
    0.92123E-08         0.12340E-19         0.00000E+00
    0.96908E-08        -0.27940E-20         0.00000E+00
    0.10190E-07        -0.12107E-19         0.00000E+00
    0.10711E-07         0.27940E-20         0.00000E+00
    0.11253E-07        -0.69849E-21         0.00000E+00
    0.11817E-07        -0.24680E-19         0.00000E+00
    0.12405E-07        -0.42375E-19         0.00000E+00
    0.13015E-07        -0.29569E-19         0.00000E+00
    0.13648E-07        -0.29337E-19         0.00000E+00
    0.14305E-07        -0.53085E-19         0.00000E+00
    0.14986E-07        -0.51223E-19         0.00000E+00
    0.15691E-07        -0.38184E-19         0.00000E+00
    0.16419E-07        -0.32829E-19         0.00000E+00
    0.17172E-07        -0.26776E-19         0.00000E+00
    0.17948E-07        -0.24913E-19         0.00000E+00
    0.18748E-07        -0.26776E-19         0.00000E+00
    0.19571E-07        -0.28405E-19         0.00000E+00
    0.20416E-07        -0.19325E-19         0.00000E+00
    0.21283E-07        -0.12806E-19         0.00000E+00
    0.22171E-07        -0.23749E-19         0.00000E+00
    0.23079E-07        -0.37253E-19         0.00000E+00
    0.24007E-07        -0.18161E-19         0.00000E+00
    0.24951E-07         0.46566E-20         0.00000E+00
    0.25911E-07         0.58208E-20         0.00000E+00
    0.26886E-07         0.11874E-19         0.00000E+00
    0.27872E-07         0.10012E-19         0.00000E+00
    0.28868E-07         0.11642E-19         0.00000E+00
    0.29870E-07         0.14901E-19         0.00000E+00
    0.30877E-07         0.65193E-20         0.00000E+00
    0.31885E-07        -0.67521E-20         0.00000E+00
    0.32890E-07         0.46566E-20         0.00000E+00
    0.33889E-07         0.67521E-20         0.00000E+00
    0.34877E-07        -0.46566E-21         0.00000E+00
    0.35850E-07         0.11176E-19         0.00000E+00
    0.36804E-07         0.11176E-19         0.00000E+00
    0.37733E-07         0.46566E-20         0.00000E+00
    0.38632E-07         0.12806E-19         0.00000E+00
    0.39496E-07         0.93132E-20         0.00000E+00
    0.40319E-07         0.10477E-19         0.00000E+00
    0.41094E-07         0.23283E-19         0.00000E+00
    0.41817E-07         0.11642E-19         0.00000E+00
    0.42480E-07         0.20256E-19         0.00000E+00
    0.43078E-07         0.31898E-19         0.00000E+00
    0.43605E-07         0.22585E-19         0.00000E+00
    0.44054E-07         0.21188E-19         0.00000E+00
    0.44422E-07        -0.38417E-20         0.00000E+00
    0.44702E-07        -0.79162E-20         0.00000E+00
    0.44891E-07        -0.30268E-20         0.00000E+00
    0.44987E-07        -0.64028E-20         0.00000E+00
    0.91510E-09         0.97789E-20         0.00000E+00
    0.91864E-09        -0.18626E-20         0.00000E+00
    0.92574E-09        -0.10943E-19         0.00000E+00
    0.93641E-09        -0.11642E-20         0.00000E+00
    0.95070E-09        -0.62864E-20         0.00000E+00
    0.96864E-09         0.62864E-20         0.00000E+00
    0.99029E-09         0.29337E-19         0.00000E+00
    0.10157E-08         0.27241E-19         0.00000E+00
    0.10450E-08         0.32131E-19         0.00000E+00
    0.10782E-08         0.38417E-19         0.00000E+00
    0.11155E-08         0.28173E-19         0.00000E+00
    0.11570E-08         0.18859E-19         0.00000E+00
    0.12027E-08         0.51223E-20         0.00000E+00
    0.12529E-08         0.18394E-19         0.00000E+00
    0.13076E-08         0.37719E-19         0.00000E+00
    0.13671E-08         0.32363E-19         0.00000E+00
    0.14316E-08         0.23283E-21         0.00000E+00
    0.15011E-08         0.44238E-20         0.00000E+00
    0.15759E-08         0.44471E-19         0.00000E+00
    0.16563E-08         0.50990E-19         0.00000E+00
    0.17425E-08         0.33295E-19         0.00000E+00
    0.18346E-08         0.16764E-19         0.00000E+00
    0.19330E-08         0.21886E-19         0.00000E+00
    0.20380E-08         0.19092E-19         0.00000E+00
    0.21498E-08         0.18859E-19         0.00000E+00
    0.22687E-08         0.20023E-19         0.00000E+00
    0.23951E-08         0.20955E-19         0.00000E+00
    0.25293E-08         0.28173E-19         0.00000E+00
    0.26716E-08         0.21188E-19         0.00000E+00
    0.28224E-08         0.16298E-20         0.00000E+00
    0.29820E-08        -0.97789E-20         0.00000E+00
    0.31510E-08        -0.69849E-20         0.00000E+00
    0.33296E-08        -0.67521E-20         0.00000E+00
    0.35184E-08        -0.97789E-20         0.00000E+00
    0.37177E-08        -0.53551E-20         0.00000E+00
    0.39280E-08        -0.17928E-19         0.00000E+00
    0.41498E-08        -0.53551E-19         0.00000E+00
    0.43836E-08        -0.37020E-19         0.00000E+00
    0.46298E-08        -0.27008E-19         0.00000E+00
    0.48890E-08        -0.32829E-19         0.00000E+00
    0.51618E-08        -0.13271E-19         0.00000E+00
    0.54486E-08        -0.14203E-19         0.00000E+00
    0.57499E-08        -0.90804E-20         0.00000E+00
    0.60665E-08        -0.14203E-19         0.00000E+00
    0.63987E-08        -0.16531E-19         0.00000E+00
    0.67472E-08        -0.20023E-19         0.00000E+00
    0.71126E-08        -0.27474E-19         0.00000E+00
    0.74954E-08        -0.67521E-20         0.00000E+00
    0.78962E-08        -0.39581E-20         0.00000E+00
    0.83156E-08         0.88476E-20         0.00000E+00
    0.87541E-08         0.12806E-19         0.00000E+00
    0.92123E-08         0.39581E-20         0.00000E+00
    0.96908E-08         0.41910E-20         0.00000E+00
    0.10190E-07        -0.13737E-19         0.00000E+00
    0.10711E-07        -0.11176E-19         0.00000E+00
    0.11253E-07        -0.14203E-19         0.00000E+00
    0.11817E-07        -0.33528E-19         0.00000E+00
    0.12405E-07        -0.55414E-19         0.00000E+00
    0.13015E-07        -0.54715E-19         0.00000E+00
    0.13648E-07        -0.48894E-19         0.00000E+00
    0.14305E-07        -0.46333E-19         0.00000E+00
    0.14986E-07        -0.28871E-19         0.00000E+00
    0.15691E-07        -0.36322E-19         0.00000E+00
    0.16419E-07        -0.43772E-19         0.00000E+00
    0.17172E-07        -0.33295E-19         0.00000E+00
    0.17948E-07        -0.19325E-19         0.00000E+00
    0.18748E-07        -0.86147E-20         0.00000E+00
    0.19571E-07        -0.25379E-19         0.00000E+00
    0.20416E-07        -0.30734E-19         0.00000E+00
    0.21283E-07        -0.15367E-19         0.00000E+00
    0.22171E-07        -0.30268E-19         0.00000E+00
    0.23079E-07        -0.35856E-19         0.00000E+00
    0.24007E-07        -0.21886E-19         0.00000E+00
    0.24951E-07        -0.12573E-19         0.00000E+00
    0.25911E-07        -0.10477E-19         0.00000E+00
    0.26886E-07        -0.60536E-20         0.00000E+00
    0.27872E-07        -0.69849E-21         0.00000E+00
    0.28868E-07        -0.20955E-20         0.00000E+00
    0.29870E-07         0.46566E-20         0.00000E+00
    0.30877E-07         0.27940E-20         0.00000E+00
    0.31885E-07         0.11642E-20         0.00000E+00
    0.32890E-07         0.86147E-20         0.00000E+00
    0.33889E-07         0.14203E-19         0.00000E+00
    0.34877E-07        -0.25611E-20         0.00000E+00
    0.35850E-07         0.00000E+00         0.00000E+00
    0.36804E-07         0.12573E-19         0.00000E+00
    0.37733E-07         0.60536E-20         0.00000E+00
    0.38632E-07         0.46566E-21         0.00000E+00
    0.39496E-07         0.48894E-20         0.00000E+00
    0.40319E-07         0.21188E-19         0.00000E+00
    0.41094E-07         0.14319E-19         0.00000E+00
    0.41817E-07         0.21653E-19         0.00000E+00
    0.42480E-07         0.24214E-19         0.00000E+00
    0.43078E-07         0.14901E-19         0.00000E+00
    0.43605E-07         0.10245E-19         0.00000E+00
    0.44054E-07         0.18161E-19         0.00000E+00
    0.44422E-07         0.17812E-19         0.00000E+00
    0.44702E-07        -0.73342E-20         0.00000E+00
    0.44891E-07        -0.10477E-20         0.00000E+00
    0.44987E-07         0.45402E-20         0.00000E+00
    0.91510E-09         0.74506E-20         0.00000E+00
    0.91864E-09         0.13039E-19         0.00000E+00
    0.92574E-09         0.34925E-20         0.00000E+00
    0.93641E-09        -0.34925E-20         0.00000E+00
    0.95070E-09         0.93132E-21         0.00000E+00
    0.96864E-09         0.44238E-20         0.00000E+00
    0.99029E-09         0.67521E-20         0.00000E+00
    0.10157E-08         0.10012E-19         0.00000E+00
    0.10450E-08         0.21188E-19         0.00000E+00
    0.10782E-08         0.33760E-19         0.00000E+00
    0.11155E-08         0.58208E-20         0.00000E+00
    0.11570E-08         0.12107E-19         0.00000E+00
    0.12027E-08         0.14203E-19         0.00000E+00
    0.12529E-08         0.14668E-19         0.00000E+00
    0.13076E-08         0.23982E-19         0.00000E+00
    0.13671E-08         0.29337E-19         0.00000E+00
    0.14316E-08         0.24447E-19         0.00000E+00
    0.15011E-08         0.55879E-20         0.00000E+00
    0.15759E-08         0.24214E-19         0.00000E+00
    0.16563E-08         0.33993E-19         0.00000E+00
    0.17425E-08         0.24214E-19         0.00000E+00
    0.18346E-08         0.11874E-19         0.00000E+00
    0.19330E-08         0.32596E-20         0.00000E+00
    0.20380E-08         0.20955E-20         0.00000E+00
    0.21498E-08         0.67521E-20         0.00000E+00
    0.22687E-08         0.23283E-20         0.00000E+00
    0.23951E-08         0.41910E-20         0.00000E+00
    0.25293E-08         0.90804E-20         0.00000E+00
    0.26716E-08         0.51223E-20         0.00000E+00
    0.28224E-08         0.00000E+00         0.00000E+00
    0.29820E-08        -0.20722E-19         0.00000E+00
    0.31510E-08        -0.24680E-19         0.00000E+00
    0.33296E-08        -0.93132E-20         0.00000E+00
    0.35184E-08        -0.16065E-19         0.00000E+00
    0.37177E-08        -0.22817E-19         0.00000E+00
    0.39280E-08        -0.69849E-20         0.00000E+00
    0.41498E-08        -0.22585E-19         0.00000E+00
    0.43836E-08        -0.27940E-19         0.00000E+00
    0.46298E-08        -0.13271E-19         0.00000E+00
    0.48890E-08        -0.20489E-19         0.00000E+00
    0.51618E-08        -0.29104E-19         0.00000E+00
    0.54486E-08        -0.55879E-20         0.00000E+00
    0.57499E-08        -0.39581E-20         0.00000E+00
    0.60665E-08        -0.31665E-19         0.00000E+00
    0.63987E-08        -0.28405E-19         0.00000E+00
    0.67472E-08        -0.23050E-19         0.00000E+00
    0.71126E-08        -0.19325E-19         0.00000E+00
    0.74954E-08         0.46566E-21         0.00000E+00
    0.78962E-08        -0.12107E-19         0.00000E+00
    0.83156E-08        -0.19325E-19         0.00000E+00
    0.87541E-08        -0.46566E-21         0.00000E+00
    0.92123E-08         0.46566E-20         0.00000E+00
    0.96908E-08        -0.20955E-19         0.00000E+00
    0.10190E-07        -0.19325E-19         0.00000E+00
    0.10711E-07        -0.21420E-19         0.00000E+00
    0.11253E-07        -0.33295E-19         0.00000E+00
    0.11817E-07        -0.21420E-19         0.00000E+00
    0.12405E-07        -0.23283E-19         0.00000E+00
    0.13015E-07        -0.47032E-19         0.00000E+00
    0.13648E-07        -0.40978E-19         0.00000E+00
    0.14305E-07        -0.33295E-19         0.00000E+00
    0.14986E-07        -0.47497E-19         0.00000E+00
    0.15691E-07        -0.47032E-19         0.00000E+00
    0.16419E-07        -0.43539E-19         0.00000E+00
    0.17172E-07        -0.43074E-19         0.00000E+00
    0.17948E-07        -0.21653E-19         0.00000E+00
    0.18748E-07        -0.14668E-19         0.00000E+00
    0.19571E-07        -0.28871E-19         0.00000E+00
    0.20416E-07        -0.10245E-19         0.00000E+00
    0.21283E-07        -0.93132E-20         0.00000E+00
    0.22171E-07        -0.93132E-20         0.00000E+00
    0.23079E-07        -0.19092E-19         0.00000E+00
    0.24007E-07        -0.28638E-19         0.00000E+00
    0.24951E-07         0.14901E-19         0.00000E+00
    0.25911E-07        -0.11642E-20         0.00000E+00
    0.26886E-07        -0.15600E-19         0.00000E+00
    0.27872E-07         0.58208E-20         0.00000E+00
    0.28868E-07        -0.60536E-20         0.00000E+00
    0.29870E-07        -0.53551E-20         0.00000E+00
    0.30877E-07         0.13970E-20         0.00000E+00
    0.31885E-07         0.19092E-19         0.00000E+00
    0.32890E-07         0.15832E-19         0.00000E+00
    0.33889E-07         0.23283E-21         0.00000E+00
    0.34877E-07        -0.11642E-20         0.00000E+00
    0.35850E-07         0.25611E-20         0.00000E+00
    0.36804E-07         0.11642E-19         0.00000E+00
    0.37733E-07         0.12573E-19         0.00000E+00
    0.38632E-07        -0.23283E-20         0.00000E+00
    0.39496E-07         0.14668E-19         0.00000E+00
    0.40319E-07         0.32131E-19         0.00000E+00
    0.41094E-07         0.23982E-19         0.00000E+00
    0.41817E-07         0.24913E-19         0.00000E+00
    0.42480E-07         0.21420E-19         0.00000E+00
    0.43078E-07         0.24564E-19         0.00000E+00
    0.43605E-07         0.55879E-20         0.00000E+00
    0.44054E-07        -0.87311E-20         0.00000E+00
    0.44422E-07         0.66357E-20         0.00000E+00
    0.44702E-07         0.84983E-20         0.00000E+00
    0.44891E-07        -0.37253E-20         0.00000E+00
    0.44987E-07        -0.46566E-20         0.00000E+00
    0.91510E-09         0.41910E-20         0.00000E+00
    0.91864E-09         0.25146E-19         0.00000E+00
    0.92574E-09         0.27241E-19         0.00000E+00
    0.93641E-09         0.39581E-20         0.00000E+00
    0.95070E-09         0.72177E-20         0.00000E+00
    0.96864E-09         0.13970E-20         0.00000E+00
    0.99029E-09         0.58208E-20         0.00000E+00
    0.10157E-08         0.93132E-20         0.00000E+00
    0.10450E-08         0.14203E-19         0.00000E+00
    0.10782E-08         0.10477E-19         0.00000E+00
    0.11155E-08         0.16065E-19         0.00000E+00
    0.11570E-08         0.16065E-19         0.00000E+00
    0.12027E-08         0.19325E-19         0.00000E+00
    0.12529E-08         0.23516E-19         0.00000E+00
    0.13076E-08         0.17229E-19         0.00000E+00
    0.13671E-08         0.16531E-19         0.00000E+00
    0.14316E-08         0.19325E-19         0.00000E+00
    0.15011E-08         0.20489E-19         0.00000E+00
    0.15759E-08         0.34459E-19         0.00000E+00
    0.16563E-08         0.37951E-19         0.00000E+00
    0.17425E-08         0.21886E-19         0.00000E+00
    0.18346E-08         0.37253E-20         0.00000E+00
    0.19330E-08         0.23283E-20         0.00000E+00
    0.20380E-08         0.16764E-19         0.00000E+00
    0.21498E-08         0.55879E-20         0.00000E+00
    0.22687E-08         0.72177E-20         0.00000E+00
    0.23951E-08         0.13970E-19         0.00000E+00
    0.25293E-08         0.13970E-19         0.00000E+00
    0.26716E-08         0.13271E-19         0.00000E+00
    0.28224E-08        -0.46566E-20         0.00000E+00
    0.29820E-08         0.41910E-20         0.00000E+00
    0.31510E-08        -0.13970E-20         0.00000E+00
    0.33296E-08        -0.16065E-19         0.00000E+00
    0.35184E-08        -0.93132E-21         0.00000E+00
    0.37177E-08         0.13970E-20         0.00000E+00
    0.39280E-08        -0.29802E-19         0.00000E+00
    0.41498E-08        -0.32131E-19         0.00000E+00
    0.43836E-08        -0.37253E-19         0.00000E+00
    0.46298E-08        -0.37951E-19         0.00000E+00
    0.48890E-08        -0.32363E-19         0.00000E+00
    0.51618E-08        -0.25844E-19         0.00000E+00
    0.54486E-08         0.60536E-20         0.00000E+00
    0.57499E-08        -0.20955E-20         0.00000E+00
    0.60665E-08        -0.15134E-19         0.00000E+00
    0.63987E-08        -0.12340E-19         0.00000E+00
    0.67472E-08        -0.22119E-19         0.00000E+00
    0.71126E-08        -0.21188E-19         0.00000E+00
    0.74954E-08        -0.14435E-19         0.00000E+00
    0.78962E-08        -0.16531E-19         0.00000E+00
    0.83156E-08        -0.34925E-20         0.00000E+00
    0.87541E-08        -0.51223E-20         0.00000E+00
    0.92123E-08        -0.16531E-19         0.00000E+00
    0.96908E-08        -0.23283E-19         0.00000E+00
    0.10190E-07        -0.15134E-19         0.00000E+00
    0.10711E-07        -0.10245E-19         0.00000E+00
    0.11253E-07        -0.22119E-19         0.00000E+00
    0.11817E-07        -0.17229E-19         0.00000E+00
    0.12405E-07        -0.31898E-19         0.00000E+00
    0.13015E-07        -0.45402E-19         0.00000E+00
    0.13648E-07        -0.31199E-19         0.00000E+00
    0.14305E-07        -0.45169E-19         0.00000E+00
    0.14986E-07        -0.49826E-19         0.00000E+00
    0.15691E-07        -0.40047E-19         0.00000E+00
    0.16419E-07        -0.46333E-19         0.00000E+00
    0.17172E-07        -0.39814E-19         0.00000E+00
    0.17948E-07        -0.10943E-19         0.00000E+00
    0.18748E-07        -0.15832E-19         0.00000E+00
    0.19571E-07        -0.30501E-19         0.00000E+00
    0.20416E-07        -0.15600E-19         0.00000E+00
    0.21283E-07        -0.16298E-19         0.00000E+00
    0.22171E-07        -0.20489E-19         0.00000E+00
    0.23079E-07        -0.14435E-19         0.00000E+00
    0.24007E-07        -0.20023E-19         0.00000E+00
    0.24951E-07         0.41910E-20         0.00000E+00
    0.25911E-07         0.81491E-20         0.00000E+00
    0.26886E-07        -0.90804E-20         0.00000E+00
    0.27872E-07        -0.11642E-20         0.00000E+00
    0.28868E-07         0.62864E-20         0.00000E+00
    0.29870E-07         0.12806E-19         0.00000E+00
    0.30877E-07         0.72177E-20         0.00000E+00
    0.31885E-07         0.34925E-20         0.00000E+00
    0.32890E-07         0.60536E-20         0.00000E+00
    0.33889E-07         0.39581E-20         0.00000E+00
    0.34877E-07        -0.23283E-21         0.00000E+00
    0.35850E-07         0.93132E-20         0.00000E+00
    0.36804E-07         0.10245E-19         0.00000E+00
    0.37733E-07         0.13504E-19         0.00000E+00
    0.38632E-07         0.11874E-19         0.00000E+00
    0.39496E-07         0.53551E-20         0.00000E+00
    0.40319E-07         0.15134E-19         0.00000E+00
    0.41094E-07         0.27823E-19         0.00000E+00
    0.41817E-07         0.26659E-19         0.00000E+00
    0.42480E-07         0.16997E-19         0.00000E+00
    0.43078E-07         0.26776E-19         0.00000E+00
    0.43605E-07         0.20722E-19         0.00000E+00
    0.44054E-07         0.57044E-20         0.00000E+00
    0.44422E-07         0.48894E-20         0.00000E+00
    0.44702E-07        -0.13970E-20         0.00000E+00
    0.44891E-07        -0.34925E-21         0.00000E+00
    0.44987E-07         0.00000E+00         0.00000E+00
    0.91510E-09         0.30268E-20         0.00000E+00
    0.91864E-09         0.12806E-19         0.00000E+00
    0.92574E-09         0.16764E-19         0.00000E+00
    0.93641E-09         0.69849E-20         0.00000E+00
    0.95070E-09        -0.46566E-21         0.00000E+00
    0.96864E-09         0.30268E-20         0.00000E+00
    0.99029E-09         0.21886E-19         0.00000E+00
    0.10157E-08         0.24447E-19         0.00000E+00
    0.10450E-08         0.26077E-19         0.00000E+00
    0.10782E-08         0.31898E-19         0.00000E+00
    0.11155E-08         0.26776E-19         0.00000E+00
    0.11570E-08         0.34925E-20         0.00000E+00
    0.12027E-08         0.18626E-20         0.00000E+00
    0.12529E-08         0.22119E-19         0.00000E+00
    0.13076E-08         0.23283E-19         0.00000E+00
    0.13671E-08         0.28638E-19         0.00000E+00
    0.14316E-08         0.31665E-19         0.00000E+00
    0.15011E-08         0.25844E-19         0.00000E+00
    0.15759E-08         0.42608E-19         0.00000E+00
    0.16563E-08         0.33062E-19         0.00000E+00
    0.17425E-08         0.21886E-19         0.00000E+00
    0.18346E-08         0.34459E-19         0.00000E+00
    0.19330E-08         0.16764E-19         0.00000E+00
    0.20380E-08         0.62864E-20         0.00000E+00
    0.21498E-08        -0.27940E-20         0.00000E+00
    0.22687E-08         0.41910E-20         0.00000E+00
    0.23951E-08        -0.69849E-21         0.00000E+00
    0.25293E-08        -0.93132E-20         0.00000E+00
    0.26716E-08         0.20955E-20         0.00000E+00
    0.28224E-08        -0.93132E-21         0.00000E+00
    0.29820E-08        -0.34925E-20         0.00000E+00
    0.31510E-08        -0.46566E-20         0.00000E+00
    0.33296E-08        -0.17229E-19         0.00000E+00
    0.35184E-08        -0.12340E-19         0.00000E+00
    0.37177E-08        -0.10943E-19         0.00000E+00
    0.39280E-08        -0.14435E-19         0.00000E+00
    0.41498E-08        -0.26310E-19         0.00000E+00
    0.43836E-08        -0.39116E-19         0.00000E+00
    0.46298E-08        -0.18626E-20         0.00000E+00
    0.48890E-08         0.37253E-20         0.00000E+00
    0.51618E-08        -0.27940E-19         0.00000E+00
    0.54486E-08        -0.16065E-19         0.00000E+00
    0.57499E-08         0.37616E-36         0.00000E+00
    0.60665E-08        -0.33760E-19         0.00000E+00
    0.63987E-08        -0.36554E-19         0.00000E+00
    0.67472E-08        -0.32829E-19         0.00000E+00
    0.71126E-08        -0.21188E-19         0.00000E+00
    0.74954E-08        -0.32596E-20         0.00000E+00
    0.78962E-08         0.81491E-20         0.00000E+00
    0.83156E-08         0.12806E-19         0.00000E+00
    0.87541E-08         0.34925E-20         0.00000E+00
    0.92123E-08        -0.12806E-19         0.00000E+00
    0.96908E-08        -0.16298E-19         0.00000E+00
    0.10190E-07         0.44238E-20         0.00000E+00
    0.10711E-07        -0.13970E-20         0.00000E+00
    0.11253E-07        -0.20955E-19         0.00000E+00
    0.11817E-07        -0.20489E-19         0.00000E+00
    0.12405E-07        -0.33062E-19         0.00000E+00
    0.13015E-07        -0.41211E-19         0.00000E+00
    0.13648E-07        -0.43074E-19         0.00000E+00
    0.14305E-07        -0.24214E-19         0.00000E+00
    0.14986E-07        -0.32363E-19         0.00000E+00
    0.15691E-07        -0.48894E-19         0.00000E+00
    0.16419E-07        -0.30501E-19         0.00000E+00
    0.17172E-07        -0.37020E-19         0.00000E+00
    0.17948E-07        -0.30035E-19         0.00000E+00
    0.18748E-07        -0.13504E-19         0.00000E+00
    0.19571E-07        -0.22585E-19         0.00000E+00
    0.20416E-07        -0.27008E-19         0.00000E+00
    0.21283E-07        -0.30501E-19         0.00000E+00
    0.22171E-07        -0.13504E-19         0.00000E+00
    0.23079E-07        -0.13970E-20         0.00000E+00
    0.24007E-07        -0.21420E-19         0.00000E+00
    0.24951E-07        -0.16065E-19         0.00000E+00
    0.25911E-07         0.51223E-20         0.00000E+00
    0.26886E-07         0.58208E-20         0.00000E+00
    0.27872E-07         0.72177E-20         0.00000E+00
    0.28868E-07         0.76834E-20         0.00000E+00
    0.29870E-07         0.67521E-20         0.00000E+00
    0.30877E-07         0.20955E-19         0.00000E+00
    0.31885E-07         0.17695E-19         0.00000E+00
    0.32890E-07         0.00000E+00         0.00000E+00
    0.33889E-07        -0.76834E-20         0.00000E+00
    0.34877E-07         0.55879E-20         0.00000E+00
    0.35850E-07        -0.13970E-20         0.00000E+00
    0.36804E-07         0.34925E-20         0.00000E+00
    0.37733E-07         0.19558E-19         0.00000E+00
    0.38632E-07         0.27707E-19         0.00000E+00
    0.39496E-07         0.20955E-19         0.00000E+00
    0.40319E-07         0.22119E-19         0.00000E+00
    0.41094E-07         0.39116E-19         0.00000E+00
    0.41817E-07         0.29104E-19         0.00000E+00
    0.42480E-07         0.30384E-19         0.00000E+00
    0.43078E-07         0.28056E-19         0.00000E+00
    0.43605E-07         0.58208E-20         0.00000E+00
    0.44054E-07         0.60536E-20         0.00000E+00
    0.44422E-07         0.13271E-19         0.00000E+00
    0.44702E-07         0.98953E-20         0.00000E+00
    0.44891E-07         0.73342E-20         0.00000E+00
    0.44987E-07         0.12806E-19         0.00000E+00
    0.91510E-09         0.16065E-19         0.00000E+00
    0.91864E-09         0.14668E-19         0.00000E+00
    0.92574E-09         0.10943E-19         0.00000E+00
    0.93641E-09         0.19092E-19         0.00000E+00
    0.95070E-09         0.23283E-21         0.00000E+00
    0.96864E-09        -0.95461E-20         0.00000E+00
    0.99029E-09         0.55879E-20         0.00000E+00
    0.10157E-08         0.11409E-19         0.00000E+00
    0.10450E-08         0.13271E-19         0.00000E+00
    0.10782E-08         0.44238E-20         0.00000E+00
    0.11155E-08         0.41910E-20         0.00000E+00
    0.11570E-08         0.10943E-19         0.00000E+00
    0.12027E-08         0.20256E-19         0.00000E+00
    0.12529E-08         0.19791E-19         0.00000E+00
    0.13076E-08         0.83819E-20         0.00000E+00
    0.13671E-08         0.16298E-20         0.00000E+00
    0.14316E-08         0.15134E-19         0.00000E+00
    0.15011E-08         0.40978E-19         0.00000E+00
    0.15759E-08         0.25146E-19         0.00000E+00
    0.16563E-08         0.20256E-19         0.00000E+00
    0.17425E-08         0.30268E-19         0.00000E+00
    0.18346E-08         0.37951E-19         0.00000E+00
    0.19330E-08         0.20023E-19         0.00000E+00
    0.20380E-08         0.13970E-19         0.00000E+00
    0.21498E-08         0.13737E-19         0.00000E+00
    0.22687E-08         0.16298E-19         0.00000E+00
    0.23951E-08         0.95461E-20         0.00000E+00
    0.25293E-08        -0.10012E-19         0.00000E+00
    0.26716E-08        -0.39581E-20         0.00000E+00
    0.28224E-08        -0.48894E-20         0.00000E+00
    0.29820E-08         0.31432E-19         0.00000E+00
    0.31510E-08         0.14435E-19         0.00000E+00
    0.33296E-08        -0.35390E-19         0.00000E+00
    0.35184E-08        -0.28871E-19         0.00000E+00
    0.37177E-08        -0.18626E-19         0.00000E+00
    0.39280E-08        -0.16065E-19         0.00000E+00
    0.41498E-08        -0.24214E-19         0.00000E+00
    0.43836E-08        -0.26543E-19         0.00000E+00
    0.46298E-08        -0.24447E-19         0.00000E+00
    0.48890E-08        -0.27474E-19         0.00000E+00
    0.51618E-08        -0.25611E-20         0.00000E+00
    0.54486E-08        -0.48894E-20         0.00000E+00
    0.57499E-08        -0.86147E-20         0.00000E+00
    0.60665E-08         0.25611E-20         0.00000E+00
    0.63987E-08        -0.13737E-19         0.00000E+00
    0.67472E-08        -0.19791E-19         0.00000E+00
    0.71126E-08        -0.10012E-19         0.00000E+00
    0.74954E-08        -0.62864E-20         0.00000E+00
    0.78962E-08        -0.27940E-20         0.00000E+00
    0.83156E-08         0.12806E-19         0.00000E+00
    0.87541E-08         0.10710E-19         0.00000E+00
    0.92123E-08         0.32596E-20         0.00000E+00
    0.96908E-08         0.13271E-19         0.00000E+00
    0.10190E-07         0.12573E-19         0.00000E+00
    0.10711E-07         0.58208E-20         0.00000E+00
    0.11253E-07        -0.76834E-20         0.00000E+00
    0.11817E-07        -0.14901E-19         0.00000E+00
    0.12405E-07        -0.13970E-19         0.00000E+00
    0.13015E-07        -0.27707E-19         0.00000E+00
    0.13648E-07        -0.47963E-19         0.00000E+00
    0.14305E-07        -0.42142E-19         0.00000E+00
    0.14986E-07        -0.20023E-19         0.00000E+00
    0.15691E-07        -0.30734E-19         0.00000E+00
    0.16419E-07        -0.42841E-19         0.00000E+00
    0.17172E-07        -0.34459E-19         0.00000E+00
    0.17948E-07        -0.30501E-19         0.00000E+00
    0.18748E-07        -0.32131E-19         0.00000E+00
    0.19571E-07        -0.12573E-19         0.00000E+00
    0.20416E-07        -0.10012E-19         0.00000E+00
    0.21283E-07        -0.30734E-19         0.00000E+00
    0.22171E-07        -0.27940E-19         0.00000E+00
    0.23079E-07        -0.16764E-19         0.00000E+00
    0.24007E-07        -0.13504E-19         0.00000E+00
    0.24951E-07        -0.21420E-19         0.00000E+00
    0.25911E-07        -0.10012E-19         0.00000E+00
    0.26886E-07        -0.23516E-19         0.00000E+00
    0.27872E-07        -0.30501E-19         0.00000E+00
    0.28868E-07         0.27940E-20         0.00000E+00
    0.29870E-07         0.23283E-19         0.00000E+00
    0.30877E-07         0.27474E-19         0.00000E+00
    0.31885E-07         0.30268E-20         0.00000E+00
    0.32890E-07         0.23283E-21         0.00000E+00
    0.33889E-07         0.86147E-20         0.00000E+00
    0.34877E-07         0.76834E-20         0.00000E+00
    0.35850E-07         0.18626E-20         0.00000E+00
    0.36804E-07         0.32596E-20         0.00000E+00
    0.37733E-07         0.12107E-19         0.00000E+00
    0.38632E-07         0.23283E-19         0.00000E+00
    0.39496E-07         0.19092E-19         0.00000E+00
    0.40319E-07         0.21886E-19         0.00000E+00
    0.41094E-07         0.30501E-19         0.00000E+00
    0.41817E-07         0.25844E-19         0.00000E+00
    0.42480E-07         0.21071E-19         0.00000E+00
    0.43078E-07         0.17462E-19         0.00000E+00
    0.43605E-07         0.82655E-20         0.00000E+00
    0.44054E-07         0.18161E-19         0.00000E+00
    0.44422E-07         0.21304E-19         0.00000E+00
    0.44702E-07        -0.46566E-20         0.00000E+00
    0.44891E-07        -0.10477E-20         0.00000E+00
    0.44987E-07         0.81491E-20         0.00000E+00
    0.91510E-09        -0.27940E-20         0.00000E+00
    0.91864E-09        -0.41910E-20         0.00000E+00
    0.92574E-09         0.13737E-19         0.00000E+00
    0.93641E-09         0.18626E-20         0.00000E+00
    0.95070E-09        -0.12806E-19         0.00000E+00
    0.96864E-09         0.39581E-20         0.00000E+00
    0.99029E-09         0.69849E-21         0.00000E+00
    0.10157E-08        -0.86147E-20         0.00000E+00
    0.10450E-08         0.79162E-20         0.00000E+00
    0.10782E-08         0.16997E-19         0.00000E+00
    0.11155E-08         0.20955E-20         0.00000E+00
    0.11570E-08         0.34925E-20         0.00000E+00
    0.12027E-08         0.17928E-19         0.00000E+00
    0.12529E-08         0.23516E-19         0.00000E+00
    0.13076E-08         0.48894E-20         0.00000E+00
    0.13671E-08        -0.16298E-20         0.00000E+00
    0.14316E-08         0.10012E-19         0.00000E+00
    0.15011E-08         0.10710E-19         0.00000E+00
    0.15759E-08         0.34226E-19         0.00000E+00
    0.16563E-08         0.29337E-19         0.00000E+00
    0.17425E-08         0.12107E-19         0.00000E+00
    0.18346E-08         0.13504E-19         0.00000E+00
    0.19330E-08         0.51223E-20         0.00000E+00
    0.20380E-08         0.24447E-19         0.00000E+00
    0.21498E-08         0.21886E-19         0.00000E+00
    0.22687E-08        -0.13970E-19         0.00000E+00
    0.23951E-08        -0.34925E-20         0.00000E+00
    0.25293E-08         0.11642E-20         0.00000E+00
    0.26716E-08        -0.16065E-19         0.00000E+00
    0.28224E-08        -0.13039E-19         0.00000E+00
    0.29820E-08         0.10943E-19         0.00000E+00
    0.31510E-08         0.18626E-20         0.00000E+00
    0.33296E-08        -0.20256E-19         0.00000E+00
    0.35184E-08        -0.83819E-20         0.00000E+00
    0.37177E-08        -0.18161E-19         0.00000E+00
    0.39280E-08        -0.19325E-19         0.00000E+00
    0.41498E-08        -0.19791E-19         0.00000E+00
    0.43836E-08        -0.74506E-20         0.00000E+00
    0.46298E-08        -0.10943E-19         0.00000E+00
    0.48890E-08        -0.17928E-19         0.00000E+00
    0.51618E-08        -0.90804E-20         0.00000E+00
    0.54486E-08        -0.37253E-20         0.00000E+00
    0.57499E-08        -0.44238E-20         0.00000E+00
    0.60665E-08        -0.20955E-20         0.00000E+00
    0.63987E-08        -0.12806E-19         0.00000E+00
    0.67472E-08        -0.25844E-19         0.00000E+00
    0.71126E-08        -0.37253E-20         0.00000E+00
    0.74954E-08        -0.11409E-19         0.00000E+00
    0.78962E-08        -0.35623E-19         0.00000E+00
    0.83156E-08        -0.24913E-19         0.00000E+00
    0.87541E-08        -0.16764E-19         0.00000E+00
    0.92123E-08        -0.13970E-19         0.00000E+00
    0.96908E-08         0.46566E-21         0.00000E+00
    0.10190E-07         0.58208E-20         0.00000E+00
    0.10711E-07         0.13970E-19         0.00000E+00
    0.11253E-07         0.46566E-21         0.00000E+00
    0.11817E-07        -0.30268E-19         0.00000E+00
    0.12405E-07        -0.25844E-19         0.00000E+00
    0.13015E-07        -0.37020E-19         0.00000E+00
    0.13648E-07        -0.32829E-19         0.00000E+00
    0.14305E-07        -0.26543E-19         0.00000E+00
    0.14986E-07        -0.27241E-19         0.00000E+00
    0.15691E-07        -0.27474E-19         0.00000E+00
    0.16419E-07        -0.39348E-19         0.00000E+00
    0.17172E-07        -0.30734E-19         0.00000E+00
    0.17948E-07        -0.22585E-19         0.00000E+00
    0.18748E-07        -0.22817E-19         0.00000E+00
    0.19571E-07        -0.31665E-19         0.00000E+00
    0.20416E-07        -0.36089E-19         0.00000E+00
    0.21283E-07        -0.19092E-19         0.00000E+00
    0.22171E-07        -0.13504E-19         0.00000E+00
    0.23079E-07        -0.46566E-20         0.00000E+00
    0.24007E-07        -0.27940E-20         0.00000E+00
    0.24951E-07        -0.51223E-20         0.00000E+00
    0.25911E-07         0.12573E-19         0.00000E+00
    0.26886E-07         0.90804E-20         0.00000E+00
    0.27872E-07        -0.60536E-20         0.00000E+00
    0.28868E-07        -0.15832E-19         0.00000E+00
    0.29870E-07         0.69849E-21         0.00000E+00
    0.30877E-07         0.32131E-19         0.00000E+00
    0.31885E-07         0.28173E-19         0.00000E+00
    0.32890E-07         0.27940E-20         0.00000E+00
    0.33889E-07        -0.48894E-20         0.00000E+00
    0.34877E-07         0.16531E-19         0.00000E+00
    0.35850E-07        -0.41910E-20         0.00000E+00
    0.36804E-07        -0.37253E-20         0.00000E+00
    0.37733E-07         0.20023E-19         0.00000E+00
    0.38632E-07         0.32829E-19         0.00000E+00
    0.39496E-07         0.37020E-19         0.00000E+00
    0.40319E-07         0.28638E-19         0.00000E+00
    0.41094E-07         0.26310E-19         0.00000E+00
    0.41817E-07         0.25844E-19         0.00000E+00
    0.42480E-07         0.30501E-19         0.00000E+00
    0.43078E-07         0.30734E-19         0.00000E+00
    0.43605E-07         0.17812E-19         0.00000E+00
    0.44054E-07        -0.20955E-20         0.00000E+00
    0.44422E-07         0.87311E-20         0.00000E+00
    0.44702E-07         0.15832E-19         0.00000E+00
    0.44891E-07         0.11642E-21         0.00000E+00
    0.44987E-07        -0.47730E-20         0.00000E+00
    0.91510E-09         0.46566E-20         0.00000E+00
    0.91864E-09         0.76834E-20         0.00000E+00
    0.92574E-09         0.10245E-19         0.00000E+00
    0.93641E-09         0.11642E-19         0.00000E+00
    0.95070E-09        -0.18626E-20         0.00000E+00
    0.96864E-09         0.13504E-19         0.00000E+00
    0.99029E-09         0.15134E-19         0.00000E+00
    0.10157E-08         0.13271E-19         0.00000E+00
    0.10450E-08         0.27474E-19         0.00000E+00
    0.10782E-08         0.16065E-19         0.00000E+00
    0.11155E-08         0.17928E-19         0.00000E+00
    0.11570E-08         0.21188E-19         0.00000E+00
    0.12027E-08         0.14668E-19         0.00000E+00
    0.12529E-08         0.30268E-20         0.00000E+00
    0.13076E-08        -0.16298E-20         0.00000E+00
    0.13671E-08         0.93132E-21         0.00000E+00
    0.14316E-08         0.21886E-19         0.00000E+00
    0.15011E-08         0.23982E-19         0.00000E+00
    0.15759E-08         0.53551E-20         0.00000E+00
    0.16563E-08         0.13737E-19         0.00000E+00
    0.17425E-08         0.23516E-19         0.00000E+00
    0.18346E-08         0.16298E-19         0.00000E+00
    0.19330E-08         0.53551E-20         0.00000E+00
    0.20380E-08        -0.46566E-21         0.00000E+00
    0.21498E-08        -0.39581E-20         0.00000E+00
    0.22687E-08        -0.22352E-19         0.00000E+00
    0.23951E-08        -0.20955E-19         0.00000E+00
    0.25293E-08        -0.39581E-20         0.00000E+00
    0.26716E-08         0.27940E-20         0.00000E+00
    0.28224E-08        -0.79162E-20         0.00000E+00
    0.29820E-08         0.13970E-20         0.00000E+00
    0.31510E-08        -0.53551E-20         0.00000E+00
    0.33296E-08        -0.24214E-19         0.00000E+00
    0.35184E-08        -0.10245E-19         0.00000E+00
    0.37177E-08        -0.22352E-19         0.00000E+00
    0.39280E-08        -0.34925E-19         0.00000E+00
    0.41498E-08        -0.14435E-19         0.00000E+00
    0.43836E-08        -0.13970E-20         0.00000E+00
    0.46298E-08        -0.10477E-19         0.00000E+00
    0.48890E-08        -0.19558E-19         0.00000E+00
    0.51618E-08        -0.13737E-19         0.00000E+00
    0.54486E-08         0.16298E-20         0.00000E+00
    0.57499E-08         0.76834E-20         0.00000E+00
    0.60665E-08        -0.62864E-20         0.00000E+00
    0.63987E-08        -0.12806E-19         0.00000E+00
    0.67472E-08        -0.30268E-20         0.00000E+00
    0.71126E-08         0.81491E-20         0.00000E+00
    0.74954E-08        -0.34925E-20         0.00000E+00
    0.78962E-08        -0.27940E-19         0.00000E+00
    0.83156E-08        -0.15134E-19         0.00000E+00
    0.87541E-08        -0.23283E-20         0.00000E+00
    0.92123E-08        -0.58208E-20         0.00000E+00
    0.96908E-08         0.15134E-19         0.00000E+00
    0.10190E-07         0.16298E-20         0.00000E+00
    0.10711E-07        -0.15600E-19         0.00000E+00
    0.11253E-07        -0.51223E-20         0.00000E+00
    0.11817E-07        -0.11176E-19         0.00000E+00
    0.12405E-07        -0.28871E-19         0.00000E+00
    0.13015E-07        -0.27707E-19         0.00000E+00
    0.13648E-07        -0.20489E-19         0.00000E+00
    0.14305E-07        -0.18859E-19         0.00000E+00
    0.14986E-07        -0.19558E-19         0.00000E+00
    0.15691E-07        -0.25146E-19         0.00000E+00
    0.16419E-07        -0.26543E-19         0.00000E+00
    0.17172E-07        -0.21188E-19         0.00000E+00
    0.17948E-07        -0.20722E-19         0.00000E+00
    0.18748E-07        -0.29569E-19         0.00000E+00
    0.19571E-07        -0.21420E-19         0.00000E+00
    0.20416E-07        -0.13504E-19         0.00000E+00
    0.21283E-07        -0.16764E-19         0.00000E+00
    0.22171E-07        -0.12107E-19         0.00000E+00
    0.23079E-07        -0.11409E-19         0.00000E+00
    0.24007E-07        -0.74506E-20         0.00000E+00
    0.24951E-07        -0.15832E-19         0.00000E+00
    0.25911E-07        -0.21886E-19         0.00000E+00
    0.26886E-07        -0.14203E-19         0.00000E+00
    0.27872E-07        -0.11409E-19         0.00000E+00
    0.28868E-07        -0.53551E-20         0.00000E+00
    0.29870E-07         0.27940E-20         0.00000E+00
    0.30877E-07         0.13970E-19         0.00000E+00
    0.31885E-07         0.16764E-19         0.00000E+00
    0.32890E-07         0.37253E-20         0.00000E+00
    0.33889E-07        -0.39581E-20         0.00000E+00
    0.34877E-07         0.20256E-19         0.00000E+00
    0.35850E-07         0.20955E-19         0.00000E+00
    0.36804E-07        -0.93132E-21         0.00000E+00
    0.37733E-07         0.11409E-19         0.00000E+00
    0.38632E-07         0.13271E-19         0.00000E+00
    0.39496E-07         0.17229E-19         0.00000E+00
    0.40319E-07         0.14668E-19         0.00000E+00
    0.41094E-07         0.29104E-20         0.00000E+00
    0.41817E-07         0.17462E-19         0.00000E+00
    0.42480E-07         0.26310E-19         0.00000E+00
    0.43078E-07         0.20256E-19         0.00000E+00
    0.43605E-07         0.23865E-19         0.00000E+00
    0.44054E-07         0.15367E-19         0.00000E+00
    0.44422E-07         0.28173E-19         0.00000E+00
    0.44702E-07         0.28871E-19         0.00000E+00
    0.44891E-07         0.16065E-19         0.00000E+00
    0.44987E-07         0.88476E-20         0.00000E+00
    0.91510E-09        -0.86147E-20         0.00000E+00
    0.91864E-09         0.20955E-20         0.00000E+00
    0.92574E-09         0.95461E-20         0.00000E+00
    0.93641E-09        -0.65193E-20         0.00000E+00
    0.95070E-09        -0.58208E-20         0.00000E+00
    0.96864E-09         0.62864E-20         0.00000E+00
    0.99029E-09         0.15832E-19         0.00000E+00
    0.10157E-08         0.21420E-19         0.00000E+00
    0.10450E-08         0.62864E-20         0.00000E+00
    0.10782E-08         0.11409E-19         0.00000E+00
    0.11155E-08         0.23516E-19         0.00000E+00
    0.11570E-08         0.15134E-19         0.00000E+00
    0.12027E-08         0.95461E-20         0.00000E+00
    0.12529E-08         0.58208E-20         0.00000E+00
    0.13076E-08        -0.48894E-20         0.00000E+00
    0.13671E-08        -0.32596E-20         0.00000E+00
    0.14316E-08         0.13737E-19         0.00000E+00
    0.15011E-08         0.93132E-20         0.00000E+00
    0.15759E-08        -0.69849E-21         0.00000E+00
    0.16563E-08         0.28173E-19         0.00000E+00
    0.17425E-08         0.19325E-19         0.00000E+00
    0.18346E-08        -0.53551E-20         0.00000E+00
    0.19330E-08         0.25611E-20         0.00000E+00
    0.20380E-08        -0.74506E-20         0.00000E+00
    0.21498E-08        -0.25611E-20         0.00000E+00
    0.22687E-08        -0.27940E-20         0.00000E+00
    0.23951E-08        -0.11874E-19         0.00000E+00
    0.25293E-08        -0.17462E-19         0.00000E+00
    0.26716E-08        -0.23749E-19         0.00000E+00
    0.28224E-08        -0.14668E-19         0.00000E+00
    0.29820E-08        -0.55879E-20         0.00000E+00
    0.31510E-08        -0.20955E-20         0.00000E+00
    0.33296E-08         0.32596E-20         0.00000E+00
    0.35184E-08        -0.27940E-20         0.00000E+00
    0.37177E-08        -0.22352E-19         0.00000E+00
    0.39280E-08        -0.22352E-19         0.00000E+00
    0.41498E-08        -0.76834E-20         0.00000E+00
    0.43836E-08        -0.27474E-19         0.00000E+00
    0.46298E-08        -0.27474E-19         0.00000E+00
    0.48890E-08        -0.12806E-19         0.00000E+00
    0.51618E-08        -0.11176E-19         0.00000E+00
    0.54486E-08        -0.12573E-19         0.00000E+00
    0.57499E-08        -0.10012E-19         0.00000E+00
    0.60665E-08        -0.19558E-19         0.00000E+00
    0.63987E-08        -0.16997E-19         0.00000E+00
    0.67472E-08         0.25611E-20         0.00000E+00
    0.71126E-08         0.67521E-20         0.00000E+00
    0.74954E-08         0.93132E-21         0.00000E+00
    0.78962E-08        -0.30268E-20         0.00000E+00
    0.83156E-08        -0.14203E-19         0.00000E+00
    0.87541E-08         0.13970E-20         0.00000E+00
    0.92123E-08         0.11409E-19         0.00000E+00
    0.96908E-08         0.23283E-20         0.00000E+00
    0.10190E-07         0.72177E-20         0.00000E+00
    0.10711E-07        -0.41910E-20         0.00000E+00
    0.11253E-07        -0.62864E-20         0.00000E+00
    0.11817E-07         0.74506E-20         0.00000E+00
    0.12405E-07         0.93132E-21         0.00000E+00
    0.13015E-07         0.60536E-20         0.00000E+00
    0.13648E-07         0.97789E-20         0.00000E+00
    0.14305E-07        -0.20489E-19         0.00000E+00
    0.14986E-07        -0.24214E-19         0.00000E+00
    0.15691E-07        -0.22352E-19         0.00000E+00
    0.16419E-07        -0.25379E-19         0.00000E+00
    0.17172E-07        -0.27474E-19         0.00000E+00
    0.17948E-07        -0.32363E-19         0.00000E+00
    0.18748E-07        -0.18859E-19         0.00000E+00
    0.19571E-07        -0.93132E-20         0.00000E+00
    0.20416E-07        -0.93132E-21         0.00000E+00
    0.21283E-07         0.93132E-21         0.00000E+00
    0.22171E-07        -0.76834E-20         0.00000E+00
    0.23079E-07        -0.13504E-19         0.00000E+00
    0.24007E-07        -0.12107E-19         0.00000E+00
    0.24951E-07        -0.13970E-19         0.00000E+00
    0.25911E-07        -0.16065E-19         0.00000E+00
    0.26886E-07        -0.72177E-20         0.00000E+00
    0.27872E-07         0.53551E-20         0.00000E+00
    0.28868E-07         0.25611E-20         0.00000E+00
    0.29870E-07        -0.72177E-20         0.00000E+00
    0.30877E-07        -0.46566E-20         0.00000E+00
    0.31885E-07         0.60536E-20         0.00000E+00
    0.32890E-07        -0.51223E-20         0.00000E+00
    0.33889E-07         0.20955E-20         0.00000E+00
    0.34877E-07        -0.30268E-20         0.00000E+00
    0.35850E-07        -0.51223E-20         0.00000E+00
    0.36804E-07         0.65193E-20         0.00000E+00
    0.37733E-07         0.24214E-19         0.00000E+00
    0.38632E-07         0.40047E-19         0.00000E+00
    0.39496E-07         0.26077E-19         0.00000E+00
    0.40319E-07         0.18394E-19         0.00000E+00
    0.41094E-07         0.17812E-19         0.00000E+00
    0.41817E-07        -0.36089E-20         0.00000E+00
    0.42480E-07        -0.15018E-19         0.00000E+00
    0.43078E-07         0.55879E-20         0.00000E+00
    0.43605E-07         0.26776E-19         0.00000E+00
    0.44054E-07         0.22352E-19         0.00000E+00
    0.44422E-07         0.22002E-19         0.00000E+00
    0.44702E-07         0.20256E-19         0.00000E+00
    0.44891E-07         0.71013E-20         0.00000E+00
    0.44987E-07         0.00000E+00         0.00000E+00
    0.91510E-09        -0.10710E-19         0.00000E+00
    0.91864E-09        -0.10245E-19         0.00000E+00
    0.92574E-09         0.72177E-20         0.00000E+00
    0.93641E-09         0.16065E-19         0.00000E+00
    0.95070E-09         0.12806E-19         0.00000E+00
    0.96864E-09         0.95461E-20         0.00000E+00
    0.99029E-09         0.20722E-19         0.00000E+00
    0.10157E-08         0.23982E-19         0.00000E+00
    0.10450E-08         0.12340E-19         0.00000E+00
    0.10782E-08         0.23050E-19         0.00000E+00
    0.11155E-08         0.12806E-19         0.00000E+00
    0.11570E-08        -0.16298E-20         0.00000E+00
    0.12027E-08         0.72177E-20         0.00000E+00
    0.12529E-08        -0.95461E-20         0.00000E+00
    0.13076E-08        -0.25611E-19         0.00000E+00
    0.13671E-08        -0.72177E-20         0.00000E+00
    0.14316E-08         0.95461E-20         0.00000E+00
    0.15011E-08         0.18626E-19         0.00000E+00
    0.15759E-08         0.43539E-19         0.00000E+00
    0.16563E-08         0.36554E-19         0.00000E+00
    0.17425E-08         0.72177E-20         0.00000E+00
    0.18346E-08         0.23283E-21         0.00000E+00
    0.19330E-08         0.15600E-19         0.00000E+00
    0.20380E-08         0.46566E-21         0.00000E+00
    0.21498E-08        -0.46566E-20         0.00000E+00
    0.22687E-08        -0.34925E-20         0.00000E+00
    0.23951E-08        -0.11642E-20         0.00000E+00
    0.25293E-08        -0.12806E-19         0.00000E+00
    0.26716E-08        -0.17229E-19         0.00000E+00
    0.28224E-08        -0.67521E-20         0.00000E+00
    0.29820E-08        -0.69849E-20         0.00000E+00
    0.31510E-08        -0.83819E-20         0.00000E+00
    0.33296E-08         0.69849E-21         0.00000E+00
    0.35184E-08         0.18626E-20         0.00000E+00
    0.37177E-08        -0.23749E-19         0.00000E+00
    0.39280E-08        -0.36554E-19         0.00000E+00
    0.41498E-08        -0.27008E-19         0.00000E+00
    0.43836E-08        -0.13504E-19         0.00000E+00
    0.46298E-08        -0.12573E-19         0.00000E+00
    0.48890E-08        -0.13970E-19         0.00000E+00
    0.51618E-08        -0.48894E-20         0.00000E+00
    0.54486E-08        -0.25611E-20         0.00000E+00
    0.57499E-08        -0.79162E-20         0.00000E+00
    0.60665E-08        -0.44238E-20         0.00000E+00
    0.63987E-08         0.25611E-20         0.00000E+00
    0.67472E-08         0.20955E-19         0.00000E+00
    0.71126E-08         0.36322E-19         0.00000E+00
    0.74954E-08         0.10012E-19         0.00000E+00
    0.78962E-08        -0.69849E-21         0.00000E+00
    0.83156E-08         0.14668E-19         0.00000E+00
    0.87541E-08         0.16764E-19         0.00000E+00
    0.92123E-08         0.12340E-19         0.00000E+00
    0.96908E-08         0.37253E-20         0.00000E+00
    0.10190E-07         0.39581E-20         0.00000E+00
    0.10711E-07        -0.55879E-20         0.00000E+00
    0.11253E-07        -0.31432E-19         0.00000E+00
    0.11817E-07        -0.67521E-20         0.00000E+00
    0.12405E-07        -0.83819E-20         0.00000E+00
    0.13015E-07        -0.14668E-19         0.00000E+00
    0.13648E-07        -0.10245E-19         0.00000E+00
    0.14305E-07        -0.79162E-20         0.00000E+00
    0.14986E-07        -0.69849E-20         0.00000E+00
    0.15691E-07        -0.15367E-19         0.00000E+00
    0.16419E-07        -0.31432E-19         0.00000E+00
    0.17172E-07        -0.43772E-19         0.00000E+00
    0.17948E-07        -0.43539E-19         0.00000E+00
    0.18748E-07        -0.25379E-19         0.00000E+00
    0.19571E-07        -0.18626E-20         0.00000E+00
    0.20416E-07        -0.14668E-19         0.00000E+00
    0.21283E-07        -0.13970E-19         0.00000E+00
    0.22171E-07        -0.13970E-20         0.00000E+00
    0.23079E-07        -0.21420E-19         0.00000E+00
    0.24007E-07        -0.21886E-19         0.00000E+00
    0.24951E-07        -0.27940E-20         0.00000E+00
    0.25911E-07        -0.11874E-19         0.00000E+00
    0.26886E-07        -0.25844E-19         0.00000E+00
    0.27872E-07        -0.15600E-19         0.00000E+00
    0.28868E-07        -0.11176E-19         0.00000E+00
    0.29870E-07        -0.15600E-19         0.00000E+00
    0.30877E-07         0.41910E-20         0.00000E+00
    0.31885E-07         0.93132E-20         0.00000E+00
    0.32890E-07         0.88476E-20         0.00000E+00
    0.33889E-07        -0.93132E-21         0.00000E+00
    0.34877E-07        -0.81491E-20         0.00000E+00
    0.35850E-07         0.18161E-19         0.00000E+00
    0.36804E-07         0.39116E-19         0.00000E+00
    0.37733E-07         0.33062E-19         0.00000E+00
    0.38632E-07         0.18394E-19         0.00000E+00
    0.39496E-07         0.76834E-20         0.00000E+00
    0.40319E-07         0.22119E-19         0.00000E+00
    0.41094E-07         0.40745E-20         0.00000E+00
    0.41817E-07        -0.13853E-19         0.00000E+00
    0.42480E-07         0.20955E-20         0.00000E+00
    0.43078E-07        -0.20955E-20         0.00000E+00
    0.43605E-07         0.90804E-20         0.00000E+00
    0.44054E-07         0.18161E-19         0.00000E+00
    0.44422E-07         0.15018E-19         0.00000E+00
    0.44702E-07         0.27241E-19         0.00000E+00
    0.44891E-07         0.24564E-19         0.00000E+00
    0.44987E-07         0.23283E-20         0.00000E+00
    0.91510E-09         0.53551E-20         0.00000E+00
    0.91864E-09         0.23283E-20         0.00000E+00
    0.92574E-09         0.27940E-20         0.00000E+00
    0.93641E-09         0.69849E-20         0.00000E+00
    0.95070E-09        -0.25611E-20         0.00000E+00
    0.96864E-09         0.20955E-20         0.00000E+00
    0.99029E-09         0.12573E-19         0.00000E+00
    0.10157E-08         0.41910E-20         0.00000E+00
    0.10450E-08         0.83819E-20         0.00000E+00
    0.10782E-08         0.23982E-19         0.00000E+00
    0.11155E-08         0.95461E-20         0.00000E+00
    0.11570E-08         0.20955E-20         0.00000E+00
    0.12027E-08         0.86147E-20         0.00000E+00
    0.12529E-08        -0.58208E-20         0.00000E+00
    0.13076E-08        -0.93132E-20         0.00000E+00
    0.13671E-08         0.13970E-19         0.00000E+00
    0.14316E-08         0.67521E-20         0.00000E+00
    0.15011E-08         0.00000E+00         0.00000E+00
    0.15759E-08         0.19791E-19         0.00000E+00
    0.16563E-08         0.93132E-20         0.00000E+00
    0.17425E-08        -0.10710E-19         0.00000E+00
    0.18346E-08        -0.10943E-19         0.00000E+00
    0.19330E-08        -0.11409E-19         0.00000E+00
    0.20380E-08        -0.69849E-20         0.00000E+00
    0.21498E-08        -0.32131E-19         0.00000E+00
    0.22687E-08        -0.28871E-19         0.00000E+00
    0.23951E-08        -0.10012E-19         0.00000E+00
    0.25293E-08        -0.18859E-19         0.00000E+00
    0.26716E-08        -0.27008E-19         0.00000E+00
    0.28224E-08        -0.11642E-19         0.00000E+00
    0.29820E-08        -0.20955E-20         0.00000E+00
    0.31510E-08         0.93132E-21         0.00000E+00
    0.33296E-08        -0.46566E-20         0.00000E+00
    0.35184E-08        -0.12573E-19         0.00000E+00
    0.37177E-08        -0.19558E-19         0.00000E+00
    0.39280E-08        -0.23516E-19         0.00000E+00
    0.41498E-08         0.37253E-20         0.00000E+00
    0.43836E-08         0.16298E-20         0.00000E+00
    0.46298E-08        -0.20489E-19         0.00000E+00
    0.48890E-08        -0.11409E-19         0.00000E+00
    0.51618E-08        -0.90804E-20         0.00000E+00
    0.54486E-08        -0.76834E-20         0.00000E+00
    0.57499E-08         0.65193E-20         0.00000E+00
    0.60665E-08         0.10710E-19         0.00000E+00
    0.63987E-08        -0.10012E-19         0.00000E+00
    0.67472E-08        -0.60536E-20         0.00000E+00
    0.71126E-08        -0.16298E-20         0.00000E+00
    0.74954E-08         0.25611E-20         0.00000E+00
    0.78962E-08         0.32596E-20         0.00000E+00
    0.83156E-08        -0.81491E-20         0.00000E+00
    0.87541E-08         0.10477E-19         0.00000E+00
    0.92123E-08         0.13271E-19         0.00000E+00
    0.96908E-08         0.20489E-19         0.00000E+00
    0.10190E-07         0.13737E-19         0.00000E+00
    0.10711E-07        -0.69849E-21         0.00000E+00
    0.11253E-07        -0.13039E-19         0.00000E+00
    0.11817E-07        -0.86147E-20         0.00000E+00
    0.12405E-07         0.86147E-20         0.00000E+00
    0.13015E-07        -0.81491E-20         0.00000E+00
    0.13648E-07        -0.10012E-19         0.00000E+00
    0.14305E-07        -0.19791E-19         0.00000E+00
    0.14986E-07        -0.17695E-19         0.00000E+00
    0.15691E-07        -0.15600E-19         0.00000E+00
    0.16419E-07        -0.22352E-19         0.00000E+00
    0.17172E-07        -0.32829E-19         0.00000E+00
    0.17948E-07        -0.33295E-19         0.00000E+00
    0.18748E-07        -0.11176E-19         0.00000E+00
    0.19571E-07        -0.17462E-19         0.00000E+00
    0.20416E-07        -0.14668E-19         0.00000E+00
    0.21283E-07         0.97789E-20         0.00000E+00
    0.22171E-07        -0.23283E-20         0.00000E+00
    0.23079E-07        -0.14901E-19         0.00000E+00
    0.24007E-07        -0.12340E-19         0.00000E+00
    0.24951E-07        -0.90804E-20         0.00000E+00
    0.25911E-07        -0.20256E-19         0.00000E+00
    0.26886E-07        -0.25844E-19         0.00000E+00
    0.27872E-07        -0.27474E-19         0.00000E+00
    0.28868E-07        -0.16764E-19         0.00000E+00
    0.29870E-07        -0.25611E-20         0.00000E+00
    0.30877E-07        -0.65193E-20         0.00000E+00
    0.31885E-07         0.53551E-20         0.00000E+00
    0.32890E-07         0.10245E-19         0.00000E+00
    0.33889E-07         0.76834E-20         0.00000E+00
    0.34877E-07        -0.27940E-20         0.00000E+00
    0.35850E-07         0.51223E-20         0.00000E+00
    0.36804E-07         0.25844E-19         0.00000E+00
    0.37733E-07         0.18161E-19         0.00000E+00
    0.38632E-07         0.32596E-20         0.00000E+00
    0.39496E-07         0.55879E-20         0.00000E+00
    0.40319E-07         0.72177E-20         0.00000E+00
    0.41094E-07         0.68685E-20         0.00000E+00
    0.41817E-07         0.95461E-20         0.00000E+00
    0.42480E-07        -0.93132E-21         0.00000E+00
    0.43078E-07         0.82655E-20         0.00000E+00
    0.43605E-07         0.14435E-19         0.00000E+00
    0.44054E-07         0.18859E-19         0.00000E+00
    0.44422E-07         0.21071E-19         0.00000E+00
    0.44702E-07        -0.23283E-21         0.00000E+00
    0.44891E-07         0.38417E-20         0.00000E+00
    0.44987E-07         0.81491E-20         0.00000E+00
    0.91510E-09        -0.46566E-20         0.00000E+00
    0.91864E-09        -0.81491E-20         0.00000E+00
    0.92574E-09        -0.67521E-20         0.00000E+00
    0.93641E-09         0.72177E-20         0.00000E+00
    0.95070E-09         0.15600E-19         0.00000E+00
    0.96864E-09         0.58208E-20         0.00000E+00
    0.99029E-09        -0.10245E-19         0.00000E+00
    0.10157E-08         0.30268E-20         0.00000E+00
    0.10450E-08         0.79162E-20         0.00000E+00
    0.10782E-08         0.23283E-21         0.00000E+00
    0.11155E-08         0.11642E-20         0.00000E+00
    0.11570E-08        -0.46566E-21         0.00000E+00
    0.12027E-08         0.62864E-20         0.00000E+00
    0.12529E-08        -0.74506E-20         0.00000E+00
    0.13076E-08        -0.16531E-19         0.00000E+00
    0.13671E-08        -0.90804E-20         0.00000E+00
    0.14316E-08         0.18859E-19         0.00000E+00
    0.15011E-08         0.15832E-19         0.00000E+00
    0.15759E-08         0.69849E-20         0.00000E+00
    0.16563E-08         0.30035E-19         0.00000E+00
    0.17425E-08         0.11176E-19         0.00000E+00
    0.18346E-08        -0.11409E-19         0.00000E+00
    0.19330E-08         0.97789E-20         0.00000E+00
    0.20380E-08         0.11176E-19         0.00000E+00
    0.21498E-08         0.72177E-20         0.00000E+00
    0.22687E-08        -0.23283E-20         0.00000E+00
    0.23951E-08        -0.12573E-19         0.00000E+00
    0.25293E-08        -0.16997E-19         0.00000E+00
    0.26716E-08        -0.23749E-19         0.00000E+00
    0.28224E-08        -0.37253E-20         0.00000E+00
    0.29820E-08         0.14901E-19         0.00000E+00
    0.31510E-08         0.65193E-20         0.00000E+00
    0.33296E-08         0.46566E-20         0.00000E+00
    0.35184E-08        -0.79162E-20         0.00000E+00
    0.37177E-08        -0.65193E-20         0.00000E+00
    0.39280E-08         0.18626E-20         0.00000E+00
    0.41498E-08        -0.23283E-20         0.00000E+00
    0.43836E-08        -0.11874E-19         0.00000E+00
    0.46298E-08        -0.17462E-19         0.00000E+00
    0.48890E-08        -0.18859E-19         0.00000E+00
    0.51618E-08        -0.16065E-19         0.00000E+00
    0.54486E-08        -0.10710E-19         0.00000E+00
    0.57499E-08        -0.55879E-20         0.00000E+00
    0.60665E-08         0.65193E-20         0.00000E+00
    0.63987E-08         0.11874E-19         0.00000E+00
    0.67472E-08         0.69849E-21         0.00000E+00
    0.71126E-08         0.79162E-20         0.00000E+00
    0.74954E-08         0.48894E-20         0.00000E+00
    0.78962E-08         0.51223E-20         0.00000E+00
    0.83156E-08         0.27241E-19         0.00000E+00
    0.87541E-08         0.97789E-20         0.00000E+00
    0.92123E-08        -0.10245E-19         0.00000E+00
    0.96908E-08         0.69849E-20         0.00000E+00
    0.10190E-07         0.90804E-20         0.00000E+00
    0.10711E-07         0.23283E-20         0.00000E+00
    0.11253E-07         0.11642E-19         0.00000E+00
    0.11817E-07        -0.65193E-20         0.00000E+00
    0.12405E-07        -0.11642E-19         0.00000E+00
    0.13015E-07         0.25611E-20         0.00000E+00
    0.13648E-07        -0.90804E-20         0.00000E+00
    0.14305E-07        -0.88476E-20         0.00000E+00
    0.14986E-07        -0.34925E-20         0.00000E+00
    0.15691E-07         0.32596E-20         0.00000E+00
    0.16419E-07        -0.22585E-19         0.00000E+00
    0.17172E-07        -0.40513E-19         0.00000E+00
    0.17948E-07        -0.90804E-20         0.00000E+00
    0.18748E-07        -0.88476E-20         0.00000E+00
    0.19571E-07        -0.60536E-20         0.00000E+00
    0.20416E-07        -0.93132E-20         0.00000E+00
    0.21283E-07        -0.18626E-19         0.00000E+00
    0.22171E-07        -0.23283E-20         0.00000E+00
    0.23079E-07        -0.13970E-20         0.00000E+00
    0.24007E-07        -0.93132E-20         0.00000E+00
    0.24951E-07        -0.67521E-20         0.00000E+00
    0.25911E-07        -0.14901E-19         0.00000E+00
    0.26886E-07        -0.38883E-19         0.00000E+00
    0.27872E-07        -0.27241E-19         0.00000E+00
    0.28868E-07        -0.21653E-19         0.00000E+00
    0.29870E-07        -0.10245E-19         0.00000E+00
    0.30877E-07         0.27940E-20         0.00000E+00
    0.31885E-07         0.23283E-20         0.00000E+00
    0.32890E-07         0.16764E-19         0.00000E+00
    0.33889E-07         0.53551E-20         0.00000E+00
    0.34877E-07         0.93132E-21         0.00000E+00
    0.35850E-07         0.24447E-19         0.00000E+00
    0.36804E-07         0.18626E-19         0.00000E+00
    0.37733E-07        -0.51223E-20         0.00000E+00
    0.38632E-07        -0.46566E-21         0.00000E+00
    0.39496E-07         0.51223E-20         0.00000E+00
    0.40319E-07        -0.58208E-20         0.00000E+00
    0.41094E-07        -0.11642E-21         0.00000E+00
    0.41817E-07        -0.41910E-20         0.00000E+00
    0.42480E-07        -0.11059E-19         0.00000E+00
    0.43078E-07         0.31432E-20         0.00000E+00
    0.43605E-07         0.24680E-19         0.00000E+00
    0.44054E-07         0.41211E-19         0.00000E+00
    0.44422E-07         0.69849E-20         0.00000E+00
    0.44702E-07        -0.60536E-20         0.00000E+00
    0.44891E-07        -0.10827E-19         0.00000E+00
    0.44987E-07        -0.26077E-19         0.00000E+00
    0.91510E-09         0.37253E-20         0.00000E+00
    0.91864E-09        -0.46566E-20         0.00000E+00
    0.92574E-09        -0.88476E-20         0.00000E+00
    0.93641E-09         0.16764E-19         0.00000E+00
    0.95070E-09         0.90804E-20         0.00000E+00
    0.96864E-09        -0.62864E-20         0.00000E+00
    0.99029E-09        -0.93132E-21         0.00000E+00
    0.10157E-08        -0.95461E-20         0.00000E+00
    0.10450E-08         0.16298E-20         0.00000E+00
    0.10782E-08        -0.16298E-20         0.00000E+00
    0.11155E-08         0.20955E-20         0.00000E+00
    0.11570E-08         0.83819E-20         0.00000E+00
    0.12027E-08        -0.23283E-21         0.00000E+00
    0.12529E-08        -0.30268E-20         0.00000E+00
    0.13076E-08        -0.21420E-19         0.00000E+00
    0.13671E-08        -0.23050E-19         0.00000E+00
    0.14316E-08         0.39581E-20         0.00000E+00
    0.15011E-08         0.14901E-19         0.00000E+00
    0.15759E-08        -0.23283E-21         0.00000E+00
    0.16563E-08        -0.37253E-20         0.00000E+00
    0.17425E-08        -0.37253E-20         0.00000E+00
    0.18346E-08        -0.53551E-20         0.00000E+00
    0.19330E-08         0.14435E-19         0.00000E+00
    0.20380E-08         0.12573E-19         0.00000E+00
    0.21498E-08         0.16531E-19         0.00000E+00
    0.22687E-08         0.18626E-19         0.00000E+00
    0.23951E-08         0.11176E-19         0.00000E+00
    0.25293E-08        -0.11642E-20         0.00000E+00
    0.26716E-08        -0.90804E-20         0.00000E+00
    0.28224E-08         0.46566E-21         0.00000E+00
    0.29820E-08         0.58208E-20         0.00000E+00
    0.31510E-08         0.93132E-20         0.00000E+00
    0.33296E-08         0.13970E-20         0.00000E+00
    0.35184E-08         0.10477E-19         0.00000E+00
    0.37177E-08         0.69849E-20         0.00000E+00
    0.39280E-08         0.69849E-21         0.00000E+00
    0.41498E-08         0.58208E-20         0.00000E+00
    0.43836E-08        -0.39581E-20         0.00000E+00
    0.46298E-08        -0.18859E-19         0.00000E+00
    0.48890E-08        -0.12340E-19         0.00000E+00
    0.51618E-08         0.10943E-19         0.00000E+00
    0.54486E-08        -0.37253E-20         0.00000E+00
    0.57499E-08        -0.11409E-19         0.00000E+00
    0.60665E-08         0.20955E-20         0.00000E+00
    0.63987E-08         0.48894E-20         0.00000E+00
    0.67472E-08         0.10943E-19         0.00000E+00
    0.71126E-08        -0.69849E-21         0.00000E+00
    0.74954E-08         0.88476E-20         0.00000E+00
    0.78962E-08         0.13271E-19         0.00000E+00
    0.83156E-08        -0.48894E-20         0.00000E+00
    0.87541E-08        -0.34925E-20         0.00000E+00
    0.92123E-08        -0.86147E-20         0.00000E+00
    0.96908E-08         0.69849E-20         0.00000E+00
    0.10190E-07         0.13737E-19         0.00000E+00
    0.10711E-07        -0.74506E-20         0.00000E+00
    0.11253E-07         0.25611E-20         0.00000E+00
    0.11817E-07        -0.74506E-20         0.00000E+00
    0.12405E-07        -0.32131E-19         0.00000E+00
    0.13015E-07         0.58208E-20         0.00000E+00
    0.13648E-07         0.25611E-19         0.00000E+00
    0.14305E-07        -0.17928E-19         0.00000E+00
    0.14986E-07        -0.20955E-19         0.00000E+00
    0.15691E-07         0.65193E-20         0.00000E+00
    0.16419E-07         0.20955E-20         0.00000E+00
    0.17172E-07        -0.11409E-19         0.00000E+00
    0.17948E-07         0.20955E-20         0.00000E+00
    0.18748E-07         0.11642E-20         0.00000E+00
    0.19571E-07         0.65193E-20         0.00000E+00
    0.20416E-07         0.76834E-20         0.00000E+00
    0.21283E-07         0.37253E-20         0.00000E+00
    0.22171E-07        -0.69849E-20         0.00000E+00
    0.23079E-07        -0.13039E-19         0.00000E+00
    0.24007E-07        -0.13970E-20         0.00000E+00
    0.24951E-07        -0.58208E-20         0.00000E+00
    0.25911E-07         0.44238E-20         0.00000E+00
    0.26886E-07         0.39581E-20         0.00000E+00
    0.27872E-07        -0.13737E-19         0.00000E+00
    0.28868E-07        -0.32596E-20         0.00000E+00
    0.29870E-07        -0.10943E-19         0.00000E+00
    0.30877E-07        -0.16764E-19         0.00000E+00
    0.31885E-07        -0.69849E-20         0.00000E+00
    0.32890E-07        -0.16298E-19         0.00000E+00
    0.33889E-07        -0.13271E-19         0.00000E+00
    0.34877E-07        -0.23283E-21         0.00000E+00
    0.35850E-07         0.13970E-20         0.00000E+00
    0.36804E-07         0.93132E-20         0.00000E+00
    0.37733E-07         0.20023E-19         0.00000E+00
    0.38632E-07         0.17695E-19         0.00000E+00
    0.39496E-07         0.48894E-20         0.00000E+00
    0.40319E-07        -0.23283E-21         0.00000E+00
    0.41094E-07        -0.14435E-19         0.00000E+00
    0.41817E-07        -0.20955E-20         0.00000E+00
    0.42480E-07         0.17113E-19         0.00000E+00
    0.43078E-07         0.19441E-19         0.00000E+00
    0.43605E-07         0.87311E-20         0.00000E+00
    0.44054E-07         0.32596E-20         0.00000E+00
    0.44422E-07        -0.36089E-20         0.00000E+00
    0.44702E-07         0.10710E-19         0.00000E+00
    0.44891E-07         0.94296E-20         0.00000E+00
    0.44987E-07        -0.41910E-20         0.00000E+00
    0.91510E-09         0.72177E-20         0.00000E+00
    0.91864E-09         0.86147E-20         0.00000E+00
    0.92574E-09        -0.37253E-20         0.00000E+00
    0.93641E-09        -0.10710E-19         0.00000E+00
    0.95070E-09         0.51223E-20         0.00000E+00
    0.96864E-09         0.10477E-19         0.00000E+00
    0.99029E-09        -0.27940E-20         0.00000E+00
    0.10157E-08         0.93132E-20         0.00000E+00
    0.10450E-08         0.10012E-19         0.00000E+00
    0.10782E-08         0.10710E-19         0.00000E+00
    0.11155E-08         0.79162E-20         0.00000E+00
    0.11570E-08         0.34925E-20         0.00000E+00
    0.12027E-08        -0.46566E-20         0.00000E+00
    0.12529E-08         0.20955E-20         0.00000E+00
    0.13076E-08         0.11874E-19         0.00000E+00
    0.13671E-08         0.93132E-21         0.00000E+00
    0.14316E-08        -0.23283E-20         0.00000E+00
    0.15011E-08         0.11642E-20         0.00000E+00
    0.15759E-08         0.51223E-20         0.00000E+00
    0.16563E-08        -0.10012E-19         0.00000E+00
    0.17425E-08         0.11642E-20         0.00000E+00
    0.18346E-08         0.48894E-20         0.00000E+00
    0.19330E-08        -0.37253E-20         0.00000E+00
    0.20380E-08        -0.23283E-21         0.00000E+00
    0.21498E-08        -0.17928E-19         0.00000E+00
    0.22687E-08        -0.13970E-20         0.00000E+00
    0.23951E-08         0.93132E-21         0.00000E+00
    0.25293E-08        -0.16298E-20         0.00000E+00
    0.26716E-08         0.48894E-20         0.00000E+00
    0.28224E-08        -0.81491E-20         0.00000E+00
    0.29820E-08        -0.13504E-19         0.00000E+00
    0.31510E-08         0.46566E-20         0.00000E+00
    0.33296E-08         0.69849E-20         0.00000E+00
    0.35184E-08        -0.60536E-20         0.00000E+00
    0.37177E-08         0.93132E-21         0.00000E+00
    0.39280E-08         0.58208E-20         0.00000E+00
    0.41498E-08        -0.12107E-19         0.00000E+00
    0.43836E-08        -0.21653E-19         0.00000E+00
    0.46298E-08        -0.10477E-19         0.00000E+00
    0.48890E-08         0.11642E-20         0.00000E+00
    0.51618E-08        -0.93132E-20         0.00000E+00
    0.54486E-08        -0.10012E-19         0.00000E+00
    0.57499E-08        -0.97789E-20         0.00000E+00
    0.60665E-08        -0.10012E-19         0.00000E+00
    0.63987E-08        -0.39581E-20         0.00000E+00
    0.67472E-08         0.67521E-20         0.00000E+00
    0.71126E-08        -0.53551E-20         0.00000E+00
    0.74954E-08        -0.65193E-20         0.00000E+00
    0.78962E-08         0.00000E+00         0.00000E+00
    0.83156E-08        -0.13970E-20         0.00000E+00
    0.87541E-08        -0.90804E-20         0.00000E+00
    0.92123E-08        -0.11176E-19         0.00000E+00
    0.96908E-08        -0.13039E-19         0.00000E+00
    0.10190E-07        -0.39581E-20         0.00000E+00
    0.10711E-07         0.53551E-20         0.00000E+00
    0.11253E-07        -0.67521E-20         0.00000E+00
    0.11817E-07        -0.13737E-19         0.00000E+00
    0.12405E-07        -0.11642E-20         0.00000E+00
    0.13015E-07         0.11874E-19         0.00000E+00
    0.13648E-07         0.79162E-20         0.00000E+00
    0.14305E-07         0.27940E-20         0.00000E+00
    0.14986E-07        -0.93132E-20         0.00000E+00
    0.15691E-07        -0.25611E-20         0.00000E+00
    0.16419E-07         0.32596E-20         0.00000E+00
    0.17172E-07        -0.12107E-19         0.00000E+00
    0.17948E-07        -0.86147E-20         0.00000E+00
    0.18748E-07        -0.93132E-21         0.00000E+00
    0.19571E-07        -0.10943E-19         0.00000E+00
    0.20416E-07        -0.74506E-20         0.00000E+00
    0.21283E-07         0.44238E-20         0.00000E+00
    0.22171E-07        -0.95461E-20         0.00000E+00
    0.23079E-07        -0.86147E-20         0.00000E+00
    0.24007E-07        -0.18626E-20         0.00000E+00
    0.24951E-07         0.55879E-20         0.00000E+00
    0.25911E-07        -0.48894E-20         0.00000E+00
    0.26886E-07        -0.62864E-20         0.00000E+00
    0.27872E-07        -0.25611E-20         0.00000E+00
    0.28868E-07        -0.74506E-20         0.00000E+00
    0.29870E-07         0.60536E-20         0.00000E+00
    0.30877E-07         0.62864E-20         0.00000E+00
    0.31885E-07        -0.30268E-20         0.00000E+00
    0.32890E-07        -0.27940E-20         0.00000E+00
    0.33889E-07         0.30268E-20         0.00000E+00
    0.34877E-07         0.34925E-20         0.00000E+00
    0.35850E-07        -0.18626E-20         0.00000E+00
    0.36804E-07        -0.30268E-20         0.00000E+00
    0.37733E-07        -0.18626E-20         0.00000E+00
    0.38632E-07        -0.44238E-20         0.00000E+00
    0.39496E-07         0.37253E-20         0.00000E+00
    0.40319E-07         0.34925E-20         0.00000E+00
    0.41094E-07        -0.54715E-20         0.00000E+00
    0.41817E-07         0.23283E-21         0.00000E+00
    0.42480E-07         0.32596E-20         0.00000E+00
    0.43078E-07         0.69849E-21         0.00000E+00
    0.43605E-07         0.97789E-20         0.00000E+00
    0.44054E-07         0.32596E-20         0.00000E+00
    0.44422E-07        -0.33760E-20         0.00000E+00
    0.44702E-07         0.58208E-21         0.00000E+00
    0.44891E-07         0.23283E-20         0.00000E+00
    0.44987E-07         0.31432E-20         0.00000E+00
POINT_DATA       5151
VECTORS vDarcyNodal double 
    0.91510E-09         0.00000E+00         0.00000E+00
    0.91687E-09        -0.37253E-20         0.00000E+00
    0.92219E-09        -0.37253E-20         0.00000E+00
    0.93107E-09        -0.74506E-20         0.00000E+00
    0.94355E-09        -0.37253E-20         0.00000E+00
    0.95967E-09         0.37253E-20         0.00000E+00
    0.97946E-09         0.37253E-20         0.00000E+00
    0.10030E-08         0.18626E-20         0.00000E+00
    0.10304E-08        -0.74506E-20         0.00000E+00
    0.10616E-08        -0.18626E-20         0.00000E+00
    0.10969E-08         0.00000E+00         0.00000E+00
    0.11362E-08        -0.37253E-20         0.00000E+00
    0.11798E-08         0.00000E+00         0.00000E+00
    0.12278E-08         0.14901E-19         0.00000E+00
    0.12803E-08         0.37253E-20         0.00000E+00
    0.13374E-08         0.00000E+00         0.00000E+00
    0.13993E-08         0.37253E-20         0.00000E+00
    0.14663E-08         0.37253E-20         0.00000E+00
    0.15385E-08        -0.74506E-20         0.00000E+00
    0.16161E-08         0.00000E+00         0.00000E+00
    0.16994E-08         0.37253E-20         0.00000E+00
    0.17885E-08         0.37253E-20         0.00000E+00
    0.18838E-08         0.00000E+00         0.00000E+00
    0.19855E-08         0.37253E-20         0.00000E+00
    0.20939E-08        -0.11176E-19         0.00000E+00
    0.22093E-08        -0.37253E-20         0.00000E+00
    0.23319E-08         0.11176E-19         0.00000E+00
    0.24622E-08        -0.18626E-20         0.00000E+00
    0.26004E-08        -0.55879E-20         0.00000E+00
    0.27470E-08         0.13039E-19         0.00000E+00
    0.29022E-08         0.37253E-20         0.00000E+00
    0.30665E-08         0.37253E-20         0.00000E+00
    0.32403E-08         0.74506E-20         0.00000E+00
    0.34240E-08        -0.55879E-20         0.00000E+00
    0.36180E-08        -0.74506E-20         0.00000E+00
    0.38228E-08         0.00000E+00         0.00000E+00
    0.40389E-08         0.93132E-20         0.00000E+00
    0.42667E-08        -0.11176E-19         0.00000E+00
    0.45067E-08         0.14901E-19         0.00000E+00
    0.47594E-08        -0.11176E-19         0.00000E+00
    0.50254E-08         0.11176E-19         0.00000E+00
    0.53052E-08        -0.74506E-20         0.00000E+00
    0.55992E-08        -0.37253E-20         0.00000E+00
    0.59082E-08         0.00000E+00         0.00000E+00
    0.62326E-08         0.37253E-20         0.00000E+00
    0.65729E-08         0.37253E-20         0.00000E+00
    0.69299E-08        -0.93132E-20         0.00000E+00
    0.73040E-08         0.18626E-20         0.00000E+00
    0.76958E-08         0.18626E-19         0.00000E+00
    0.81059E-08        -0.55879E-20         0.00000E+00
    0.85348E-08        -0.74506E-20         0.00000E+00
    0.89832E-08         0.37253E-20         0.00000E+00
    0.94516E-08        -0.74506E-20         0.00000E+00
    0.99405E-08         0.37253E-20         0.00000E+00
    0.10450E-07        -0.18626E-20         0.00000E+00
    0.10982E-07        -0.37253E-20         0.00000E+00
    0.11535E-07         0.74506E-20         0.00000E+00
    0.12111E-07        -0.55879E-20         0.00000E+00
    0.12710E-07         0.93132E-20         0.00000E+00
    0.13331E-07         0.00000E+00         0.00000E+00
    0.13977E-07        -0.74506E-20         0.00000E+00
    0.14646E-07         0.14901E-19         0.00000E+00
    0.15338E-07         0.37253E-20         0.00000E+00
    0.16055E-07        -0.37253E-20         0.00000E+00
    0.16796E-07         0.00000E+00         0.00000E+00
    0.17560E-07         0.14901E-19         0.00000E+00
    0.18348E-07        -0.93132E-20         0.00000E+00
    0.19159E-07         0.00000E+00         0.00000E+00
    0.19993E-07         0.37253E-20         0.00000E+00
    0.20849E-07        -0.18626E-20         0.00000E+00
    0.21727E-07        -0.37253E-20         0.00000E+00
    0.22625E-07         0.00000E+00         0.00000E+00
    0.23543E-07         0.11176E-19         0.00000E+00
    0.24479E-07         0.74506E-20         0.00000E+00
    0.25431E-07         0.37253E-20         0.00000E+00
    0.26399E-07        -0.74506E-20         0.00000E+00
    0.27379E-07         0.37253E-20         0.00000E+00
    0.28370E-07        -0.74506E-20         0.00000E+00
    0.29369E-07         0.00000E+00         0.00000E+00
    0.30374E-07         0.18626E-20         0.00000E+00
    0.31381E-07         0.74506E-20         0.00000E+00
    0.32387E-07         0.18626E-20         0.00000E+00
    0.33389E-07        -0.55879E-20         0.00000E+00
    0.34383E-07         0.55879E-20         0.00000E+00
    0.35363E-07         0.74506E-20         0.00000E+00
    0.36327E-07         0.37253E-20         0.00000E+00
    0.37268E-07         0.37253E-20         0.00000E+00
    0.38183E-07         0.00000E+00         0.00000E+00
    0.39064E-07         0.00000E+00         0.00000E+00
    0.39907E-07        -0.37253E-20         0.00000E+00
    0.40707E-07         0.37253E-20         0.00000E+00
    0.41456E-07         0.55879E-20         0.00000E+00
    0.42149E-07         0.00000E+00         0.00000E+00
    0.42779E-07         0.00000E+00         0.00000E+00
    0.43341E-07         0.00000E+00         0.00000E+00
    0.43830E-07        -0.11176E-19         0.00000E+00
    0.44238E-07         0.74506E-20         0.00000E+00
    0.44562E-07        -0.11176E-19         0.00000E+00
    0.44797E-07         0.37253E-20         0.00000E+00
    0.44939E-07         0.37253E-20         0.00000E+00
    0.44987E-07         0.00000E+00         0.00000E+00
    0.91510E-09         0.00000E+00         0.00000E+00
    0.91687E-09        -0.18626E-20         0.00000E+00
    0.92219E-09        -0.37253E-20         0.00000E+00
    0.93107E-09        -0.74506E-20         0.00000E+00
    0.94355E-09        -0.74506E-20         0.00000E+00
    0.95967E-09         0.37253E-20         0.00000E+00
    0.97946E-09         0.65193E-20         0.00000E+00
    0.10030E-08         0.97546E-20         0.00000E+00
    0.10304E-08         0.18626E-20         0.00000E+00
    0.10616E-08        -0.23076E-20         0.00000E+00
    0.10969E-08         0.93132E-20         0.00000E+00
    0.11362E-08         0.37253E-20         0.00000E+00
    0.11798E-08         0.46566E-20         0.00000E+00
    0.12278E-08         0.74506E-20         0.00000E+00
    0.12803E-08         0.55665E-20         0.00000E+00
    0.13374E-08         0.55879E-20         0.00000E+00
    0.13993E-08         0.14901E-19         0.00000E+00
    0.14663E-08         0.00000E+00         0.00000E+00
    0.15385E-08         0.18651E-20         0.00000E+00
    0.16161E-08         0.37253E-20         0.00000E+00
    0.16994E-08         0.18626E-20         0.00000E+00
    0.17885E-08         0.93132E-20         0.00000E+00
    0.18838E-08        -0.74506E-20         0.00000E+00
    0.19855E-08         0.36982E-20         0.00000E+00
    0.20939E-08         0.18626E-20         0.00000E+00
    0.22093E-08        -0.18626E-20         0.00000E+00
    0.23319E-08         0.55879E-20         0.00000E+00
    0.24622E-08         0.19764E-20         0.00000E+00
    0.26004E-08        -0.73198E-20         0.00000E+00
    0.27470E-08         0.73018E-20         0.00000E+00
    0.29022E-08         0.11176E-19         0.00000E+00
    0.30665E-08         0.18626E-20         0.00000E+00
    0.32403E-08         0.74506E-20         0.00000E+00
    0.34240E-08         0.20940E-20         0.00000E+00
    0.36180E-08        -0.27940E-20         0.00000E+00
    0.38228E-08         0.00000E+00         0.00000E+00
    0.40389E-08         0.10869E-19         0.00000E+00
    0.42667E-08        -0.65193E-20         0.00000E+00
    0.45067E-08         0.13039E-19         0.00000E+00
    0.47594E-08        -0.93132E-20         0.00000E+00
    0.50254E-08         0.55879E-20         0.00000E+00
    0.53052E-08         0.18626E-20         0.00000E+00
    0.55992E-08        -0.12107E-19         0.00000E+00
    0.59082E-08         0.74506E-20         0.00000E+00
    0.62326E-08        -0.18626E-20         0.00000E+00
    0.65729E-08         0.00000E+00         0.00000E+00
    0.69299E-08         0.26386E-21         0.00000E+00
    0.73040E-08        -0.21591E-21         0.00000E+00
    0.76958E-08         0.17695E-19         0.00000E+00
    0.81059E-08        -0.54758E-20         0.00000E+00
    0.85348E-08        -0.27940E-20         0.00000E+00
    0.89832E-08        -0.37253E-20         0.00000E+00
    0.94516E-08        -0.55879E-20         0.00000E+00
    0.99405E-08         0.00000E+00         0.00000E+00
    0.10450E-07         0.39918E-21         0.00000E+00
    0.10982E-07         0.55879E-20         0.00000E+00
    0.11535E-07         0.34902E-20         0.00000E+00
    0.12111E-07        -0.10065E-20         0.00000E+00
    0.12710E-07         0.12946E-19         0.00000E+00
    0.13331E-07         0.14901E-19         0.00000E+00
    0.13977E-07         0.00000E+00         0.00000E+00
    0.14646E-07         0.83819E-20         0.00000E+00
    0.15338E-07         0.74506E-20         0.00000E+00
    0.16055E-07        -0.74506E-20         0.00000E+00
    0.16796E-07         0.74506E-20         0.00000E+00
    0.17560E-07         0.13039E-19         0.00000E+00
    0.18348E-07        -0.19608E-20         0.00000E+00
    0.19159E-07        -0.74506E-20         0.00000E+00
    0.19993E-07         0.18626E-20         0.00000E+00
    0.20849E-07        -0.22987E-21         0.00000E+00
    0.21727E-07        -0.19229E-20         0.00000E+00
    0.22625E-07         0.00000E+00         0.00000E+00
    0.23543E-07         0.13039E-19         0.00000E+00
    0.24479E-07         0.92388E-20         0.00000E+00
    0.25431E-07         0.46566E-20         0.00000E+00
    0.26399E-07        -0.55879E-20         0.00000E+00
    0.27379E-07         0.11176E-19         0.00000E+00
    0.28370E-07        -0.55879E-20         0.00000E+00
    0.29369E-07        -0.55879E-20         0.00000E+00
    0.30374E-07         0.11640E-19         0.00000E+00
    0.31381E-07         0.74506E-20         0.00000E+00
    0.32387E-07         0.39608E-21         0.00000E+00
    0.33389E-07         0.12025E-19         0.00000E+00
    0.34383E-07        -0.59732E-20         0.00000E+00
    0.35363E-07         0.65193E-20         0.00000E+00
    0.36327E-07         0.37253E-20         0.00000E+00
    0.37268E-07         0.18626E-20         0.00000E+00
    0.38183E-07         0.37253E-20         0.00000E+00
    0.39064E-07         0.18626E-20         0.00000E+00
    0.39907E-07        -0.14901E-19         0.00000E+00
    0.40707E-07         0.37253E-20         0.00000E+00
    0.41456E-07        -0.37675E-20         0.00000E+00
    0.42149E-07         0.41148E-20         0.00000E+00
    0.42779E-07         0.65193E-20         0.00000E+00
    0.43341E-07         0.54650E-20         0.00000E+00
    0.43830E-07        -0.37253E-20         0.00000E+00
    0.44238E-07         0.74506E-20         0.00000E+00
    0.44562E-07        -0.54602E-20         0.00000E+00
    0.44797E-07         0.42774E-21         0.00000E+00
    0.44939E-07         0.18626E-20         0.00000E+00
    0.44987E-07         0.00000E+00         0.00000E+00
    0.91510E-09         0.00000E+00         0.00000E+00
    0.91687E-09        -0.18626E-20         0.00000E+00
    0.92219E-09         0.00000E+00         0.00000E+00
    0.93107E-09        -0.52309E-20         0.00000E+00
    0.94355E-09        -0.13039E-19         0.00000E+00
    0.95967E-09        -0.93132E-21         0.00000E+00
    0.97946E-09         0.72307E-20         0.00000E+00
    0.10030E-08         0.60778E-20         0.00000E+00
    0.10304E-08         0.16764E-19         0.00000E+00
    0.10616E-08        -0.14177E-20         0.00000E+00
    0.10969E-08         0.12107E-19         0.00000E+00
    0.11362E-08         0.11176E-19         0.00000E+00
    0.11798E-08         0.14119E-20         0.00000E+00
    0.12278E-08         0.11176E-19         0.00000E+00
    0.12803E-08         0.74721E-20         0.00000E+00
    0.13374E-08         0.16781E-19         0.00000E+00
    0.13993E-08         0.22352E-19         0.00000E+00
    0.14663E-08        -0.93207E-20         0.00000E+00
    0.15385E-08         0.13036E-19         0.00000E+00
    0.16161E-08         0.74506E-20         0.00000E+00
    0.16994E-08         0.37253E-20         0.00000E+00
    0.17885E-08         0.22337E-19         0.00000E+00
    0.18838E-08        -0.18626E-20         0.00000E+00
    0.19855E-08        -0.18356E-20         0.00000E+00
    0.20939E-08         0.20455E-19         0.00000E+00
    0.22093E-08         0.56291E-20         0.00000E+00
    0.23319E-08        -0.55879E-20         0.00000E+00
    0.24622E-08         0.26802E-20         0.00000E+00
    0.26004E-08        -0.10621E-20         0.00000E+00
    0.27470E-08         0.48054E-20         0.00000E+00
    0.29022E-08         0.22184E-19         0.00000E+00
    0.30665E-08         0.74506E-20         0.00000E+00
    0.32403E-08         0.13039E-19         0.00000E+00
    0.34240E-08         0.17464E-19         0.00000E+00
    0.36180E-08        -0.16076E-20         0.00000E+00
    0.38228E-08         0.46566E-20         0.00000E+00
    0.40389E-08         0.77571E-20         0.00000E+00
    0.42667E-08         0.52536E-20         0.00000E+00
    0.45067E-08         0.74506E-20         0.00000E+00
    0.47594E-08         0.00000E+00         0.00000E+00
    0.50254E-08         0.93132E-20         0.00000E+00
    0.53052E-08         0.97759E-20         0.00000E+00
    0.55992E-08        -0.60873E-20         0.00000E+00
    0.59082E-08         0.17695E-19         0.00000E+00
    0.62326E-08         0.93132E-20         0.00000E+00
    0.65729E-08         0.93132E-21         0.00000E+00
    0.69299E-08         0.16500E-19         0.00000E+00
    0.73040E-08         0.30099E-20         0.00000E+00
    0.76958E-08         0.57533E-20         0.00000E+00
    0.81059E-08         0.10132E-19         0.00000E+00
    0.85348E-08         0.55319E-20         0.00000E+00
    0.89832E-08        -0.93132E-21         0.00000E+00
    0.94516E-08        -0.55879E-20         0.00000E+00
    0.99405E-08         0.00000E+00         0.00000E+00
    0.10450E-07         0.79827E-20         0.00000E+00
    0.10982E-07         0.11176E-19         0.00000E+00
    0.11535E-07         0.58231E-20         0.00000E+00
    0.12111E-07         0.00000E+00         0.00000E+00
    0.12710E-07         0.21513E-19         0.00000E+00
    0.13331E-07         0.18357E-19         0.00000E+00
    0.13977E-07         0.10245E-19         0.00000E+00
    0.14646E-07         0.86653E-20         0.00000E+00
    0.15338E-07         0.37253E-20         0.00000E+00
    0.16055E-07        -0.55879E-20         0.00000E+00
    0.16796E-07         0.13039E-19         0.00000E+00
    0.17560E-07         0.17695E-19         0.00000E+00
    0.18348E-07         0.84800E-20         0.00000E+00
    0.19159E-07        -0.18626E-20         0.00000E+00
    0.19993E-07         0.97366E-20         0.00000E+00
    0.20849E-07         0.67491E-20         0.00000E+00
    0.21727E-07         0.00000E+00         0.00000E+00
    0.22625E-07        -0.93132E-21         0.00000E+00
    0.23543E-07         0.93132E-20         0.00000E+00
    0.24479E-07         0.11250E-19         0.00000E+00
    0.25431E-07         0.70350E-20         0.00000E+00
    0.26399E-07         0.83819E-20         0.00000E+00
    0.27379E-07         0.12107E-19         0.00000E+00
    0.28370E-07         0.74506E-20         0.00000E+00
    0.29369E-07        -0.13039E-19         0.00000E+00
    0.30374E-07         0.19094E-19         0.00000E+00
    0.31381E-07         0.13970E-19         0.00000E+00
    0.32387E-07         0.23979E-20         0.00000E+00
    0.33389E-07         0.26077E-19         0.00000E+00
    0.34383E-07         0.13166E-20         0.00000E+00
    0.35363E-07         0.10309E-19         0.00000E+00
    0.36327E-07         0.51568E-20         0.00000E+00
    0.37268E-07         0.93132E-20         0.00000E+00
    0.38183E-07         0.16764E-19         0.00000E+00
    0.39064E-07         0.37253E-20         0.00000E+00
    0.39907E-07        -0.18626E-20         0.00000E+00
    0.40707E-07         0.18626E-20         0.00000E+00
    0.41456E-07        -0.83397E-20         0.00000E+00
    0.42149E-07         0.12649E-19         0.00000E+00
    0.42779E-07         0.85866E-20         0.00000E+00
    0.43341E-07         0.13161E-19         0.00000E+00
    0.43830E-07         0.14206E-20         0.00000E+00
    0.44238E-07         0.91356E-20         0.00000E+00
    0.44562E-07         0.54602E-20         0.00000E+00
    0.44797E-07        -0.22904E-20         0.00000E+00
    0.44939E-07        -0.20702E-20         0.00000E+00
    0.44987E-07         0.00000E+00         0.00000E+00
    0.91510E-09         0.00000E+00         0.00000E+00
    0.91687E-09         0.27940E-20         0.00000E+00
    0.92219E-09         0.18626E-20         0.00000E+00
    0.93107E-09        -0.40823E-20         0.00000E+00
    0.94355E-09        -0.65193E-20         0.00000E+00
    0.95967E-09         0.76696E-20         0.00000E+00
    0.97946E-09         0.30138E-20         0.00000E+00
    0.10030E-08         0.00000E+00         0.00000E+00
    0.10304E-08         0.17695E-19         0.00000E+00
    0.10616E-08         0.51430E-20         0.00000E+00
    0.10969E-08         0.60348E-20         0.00000E+00
    0.11362E-08         0.55879E-20         0.00000E+00
    0.11798E-08         0.32447E-20         0.00000E+00
    0.12278E-08         0.16764E-19         0.00000E+00
    0.12803E-08         0.20489E-19         0.00000E+00
    0.13374E-08         0.18609E-19         0.00000E+00
    0.13993E-08         0.20489E-19         0.00000E+00
    0.14663E-08         0.75200E-23         0.00000E+00
    0.15385E-08         0.93157E-20         0.00000E+00
    0.16161E-08         0.11176E-19         0.00000E+00
    0.16994E-08         0.13047E-19         0.00000E+00
    0.17885E-08         0.24214E-19         0.00000E+00
    0.18838E-08         0.16764E-19         0.00000E+00
    0.19855E-08         0.36982E-20         0.00000E+00
    0.20939E-08         0.24248E-19         0.00000E+00
    0.22093E-08         0.11135E-19         0.00000E+00
    0.23319E-08        -0.37253E-20         0.00000E+00
    0.24622E-08         0.37253E-20         0.00000E+00
    0.26004E-08         0.16764E-19         0.00000E+00
    0.27470E-08         0.13970E-19         0.00000E+00
    0.29022E-08         0.15069E-19         0.00000E+00
    0.30665E-08         0.14901E-19         0.00000E+00
    0.32403E-08         0.20489E-19         0.00000E+00
    0.34240E-08         0.20489E-19         0.00000E+00
    0.36180E-08         0.25389E-20         0.00000E+00
    0.38228E-08         0.12114E-20         0.00000E+00
    0.40389E-08         0.52815E-20         0.00000E+00
    0.42667E-08         0.12442E-19         0.00000E+00
    0.45067E-08         0.37253E-20         0.00000E+00
    0.47594E-08         0.16764E-19         0.00000E+00
    0.50254E-08         0.13466E-19         0.00000E+00
    0.53052E-08         0.14439E-19         0.00000E+00
    0.55992E-08         0.17695E-19         0.00000E+00
    0.59082E-08         0.78439E-20         0.00000E+00
    0.62326E-08         0.20489E-19         0.00000E+00
    0.65729E-08         0.62099E-20         0.00000E+00
    0.69299E-08         0.18890E-19         0.00000E+00
    0.73040E-08         0.55879E-20         0.00000E+00
    0.76958E-08        -0.10967E-20         0.00000E+00
    0.81059E-08         0.19558E-19         0.00000E+00
    0.85348E-08         0.15888E-19         0.00000E+00
    0.89832E-08         0.37222E-20         0.00000E+00
    0.94516E-08         0.37253E-20         0.00000E+00
    0.99405E-08        -0.74506E-20         0.00000E+00
    0.10450E-07         0.18626E-19         0.00000E+00
    0.10982E-07         0.11176E-19         0.00000E+00
    0.11535E-07         0.14901E-19         0.00000E+00
    0.12111E-07         0.93132E-21         0.00000E+00
    0.12710E-07         0.23283E-19         0.00000E+00
    0.13331E-07         0.17033E-19         0.00000E+00
    0.13977E-07         0.18172E-19         0.00000E+00
    0.14646E-07         0.17695E-19         0.00000E+00
    0.15338E-07         0.12107E-19         0.00000E+00
    0.16055E-07        -0.18626E-20         0.00000E+00
    0.16796E-07         0.20489E-19         0.00000E+00
    0.17560E-07         0.22941E-19         0.00000E+00
    0.18348E-07         0.13039E-19         0.00000E+00
    0.19159E-07         0.20196E-20         0.00000E+00
    0.19993E-07         0.18203E-19         0.00000E+00
    0.20849E-07         0.17695E-19         0.00000E+00
    0.21727E-07         0.13099E-19         0.00000E+00
    0.22625E-07        -0.36270E-21         0.00000E+00
    0.23543E-07         0.11176E-19         0.00000E+00
    0.24479E-07         0.16764E-19         0.00000E+00
    0.25431E-07         0.11591E-19         0.00000E+00
    0.26399E-07         0.15671E-19         0.00000E+00
    0.27379E-07         0.14694E-19         0.00000E+00
    0.28370E-07         0.18626E-19         0.00000E+00
    0.29369E-07        -0.74506E-20         0.00000E+00
    0.30374E-07         0.17695E-19         0.00000E+00
    0.31381E-07         0.17652E-19         0.00000E+00
    0.32387E-07         0.20489E-19         0.00000E+00
    0.33389E-07         0.13039E-19         0.00000E+00
    0.34383E-07         0.12107E-19         0.00000E+00
    0.35363E-07         0.24214E-19         0.00000E+00
    0.36327E-07         0.60191E-20         0.00000E+00
    0.37268E-07         0.17686E-19         0.00000E+00
    0.38183E-07         0.16764E-19         0.00000E+00
    0.39064E-07         0.37253E-20         0.00000E+00
    0.39907E-07         0.16764E-19         0.00000E+00
    0.40707E-07         0.40414E-20         0.00000E+00
    0.41456E-07         0.46144E-20         0.00000E+00
    0.42149E-07         0.78401E-20         0.00000E+00
    0.42779E-07         0.12834E-19         0.00000E+00
    0.43341E-07         0.11176E-19         0.00000E+00
    0.43830E-07         0.55879E-20         0.00000E+00
    0.44238E-07         0.18804E-19         0.00000E+00
    0.44562E-07         0.75783E-20         0.00000E+00
    0.44797E-07         0.37253E-20         0.00000E+00
    0.44939E-07        -0.16551E-20         0.00000E+00
    0.44987E-07         0.00000E+00         0.00000E+00
    0.91510E-09         0.00000E+00         0.00000E+00
    0.91687E-09        -0.75242E-21         0.00000E+00
    0.92219E-09         0.40827E-20         0.00000E+00
    0.93107E-09         0.18626E-20         0.00000E+00
    0.94355E-09        -0.58061E-20         0.00000E+00
    0.95967E-09         0.26789E-19         0.00000E+00
    0.97946E-09         0.55879E-20         0.00000E+00
    0.10030E-08         0.83819E-20         0.00000E+00
    0.10304E-08         0.16321E-19         0.00000E+00
    0.10616E-08         0.78956E-20         0.00000E+00
    0.10969E-08         0.23471E-20         0.00000E+00
    0.11362E-08         0.65193E-20         0.00000E+00
    0.11798E-08         0.18626E-19         0.00000E+00
    0.12278E-08         0.18626E-19         0.00000E+00
    0.12803E-08         0.24214E-19         0.00000E+00
    0.13374E-08         0.14901E-19         0.00000E+00
    0.13993E-08         0.14914E-19         0.00000E+00
    0.14663E-08         0.24214E-19         0.00000E+00
    0.15385E-08         0.13036E-19         0.00000E+00
    0.16161E-08         0.20489E-19         0.00000E+00
    0.16994E-08         0.24206E-19         0.00000E+00
    0.17885E-08         0.24229E-19         0.00000E+00
    0.18838E-08         0.26077E-19         0.00000E+00
    0.19855E-08         0.18654E-19         0.00000E+00
    0.20939E-08         0.14901E-19         0.00000E+00
    0.22093E-08         0.14860E-19         0.00000E+00
    0.23319E-08        -0.55879E-20         0.00000E+00
    0.24622E-08         0.93132E-20         0.00000E+00
    0.26004E-08         0.23283E-19         0.00000E+00
    0.27470E-08         0.17546E-19         0.00000E+00
    0.29022E-08         0.11176E-19         0.00000E+00
    0.30665E-08         0.93132E-20         0.00000E+00
    0.32403E-08         0.20280E-19         0.00000E+00
    0.34240E-08         0.13039E-19         0.00000E+00
    0.36180E-08         0.74506E-20         0.00000E+00
    0.38228E-08         0.65193E-20         0.00000E+00
    0.40389E-08         0.77571E-20         0.00000E+00
    0.42667E-08         0.15832E-19         0.00000E+00
    0.45067E-08         0.46566E-20         0.00000E+00
    0.47594E-08         0.13039E-19         0.00000E+00
    0.50254E-08         0.16764E-19         0.00000E+00
    0.53052E-08         0.15364E-19         0.00000E+00
    0.55992E-08         0.25645E-19         0.00000E+00
    0.59082E-08         0.24007E-20         0.00000E+00
    0.62326E-08         0.15832E-19         0.00000E+00
    0.65729E-08         0.12107E-19         0.00000E+00
    0.69299E-08         0.11843E-19         0.00000E+00
    0.73040E-08         0.00000E+00         0.00000E+00
    0.76958E-08         0.83819E-20         0.00000E+00
    0.81059E-08         0.84940E-20         0.00000E+00
    0.85348E-08         0.23283E-19         0.00000E+00
    0.89832E-08         0.55910E-20         0.00000E+00
    0.94516E-08         0.74506E-20         0.00000E+00
    0.99405E-08        -0.18626E-20         0.00000E+00
    0.10450E-07         0.21420E-19         0.00000E+00
    0.10982E-07         0.16764E-19         0.00000E+00
    0.11535E-07         0.22352E-19         0.00000E+00
    0.12111E-07         0.56631E-20         0.00000E+00
    0.12710E-07         0.18534E-19         0.00000E+00
    0.13331E-07         0.16764E-19         0.00000E+00
    0.13977E-07         0.21874E-19         0.00000E+00
    0.14646E-07         0.19274E-19         0.00000E+00
    0.15338E-07         0.14981E-19         0.00000E+00
    0.16055E-07        -0.18626E-20         0.00000E+00
    0.16796E-07         0.20489E-19         0.00000E+00
    0.17560E-07         0.14901E-19         0.00000E+00
    0.18348E-07         0.21420E-19         0.00000E+00
    0.19159E-07         0.37253E-20         0.00000E+00
    0.19993E-07         0.15832E-19         0.00000E+00
    0.20849E-07         0.13740E-19         0.00000E+00
    0.21727E-07         0.18626E-19         0.00000E+00
    0.22625E-07         0.31567E-20         0.00000E+00
    0.23543E-07         0.18626E-19         0.00000E+00
    0.24479E-07         0.26077E-19         0.00000E+00
    0.25431E-07         0.10760E-19         0.00000E+00
    0.26399E-07         0.18788E-19         0.00000E+00
    0.27379E-07         0.23490E-19         0.00000E+00
    0.28370E-07         0.13039E-19         0.00000E+00
    0.29369E-07         0.10245E-19         0.00000E+00
    0.30374E-07         0.20025E-19         0.00000E+00
    0.31381E-07         0.14901E-19         0.00000E+00
    0.32387E-07         0.30734E-19         0.00000E+00
    0.33389E-07         0.13039E-19         0.00000E+00
    0.34383E-07         0.70653E-20         0.00000E+00
    0.35363E-07         0.28871E-19         0.00000E+00
    0.36327E-07         0.13039E-19         0.00000E+00
    0.37268E-07         0.19567E-19         0.00000E+00
    0.38183E-07         0.18626E-19         0.00000E+00
    0.39064E-07         0.65193E-20         0.00000E+00
    0.39907E-07         0.93132E-20         0.00000E+00
    0.40707E-07         0.74506E-20         0.00000E+00
    0.41456E-07         0.13081E-19         0.00000E+00
    0.42149E-07         0.14731E-20         0.00000E+00
    0.42779E-07         0.26077E-19         0.00000E+00
    0.43341E-07         0.11176E-19         0.00000E+00
    0.43830E-07         0.14901E-19         0.00000E+00
    0.44238E-07         0.14901E-19         0.00000E+00
    0.44562E-07         0.54602E-20         0.00000E+00
    0.44797E-07         0.97410E-20         0.00000E+00
    0.44939E-07        -0.27940E-20         0.00000E+00
    0.44987E-07         0.00000E+00         0.00000E+00
    0.91510E-09         0.00000E+00         0.00000E+00
    0.91687E-09        -0.48355E-20         0.00000E+00
    0.92219E-09         0.15053E-20         0.00000E+00
    0.93107E-09         0.37253E-20         0.00000E+00
    0.94355E-09         0.21817E-21         0.00000E+00
    0.95967E-09         0.22352E-19         0.00000E+00
    0.97946E-09         0.14901E-19         0.00000E+00
    0.10030E-08         0.12549E-19         0.00000E+00
    0.10304E-08         0.16276E-19         0.00000E+00
    0.10616E-08         0.12594E-19         0.00000E+00
    0.10969E-08        -0.18626E-20         0.00000E+00
    0.11362E-08         0.17246E-19         0.00000E+00
    0.11798E-08         0.21420E-19         0.00000E+00
    0.12278E-08         0.11176E-19         0.00000E+00
    0.12803E-08         0.92918E-20         0.00000E+00
    0.13374E-08         0.18626E-19         0.00000E+00
    0.13993E-08         0.13026E-19         0.00000E+00
    0.14663E-08         0.26077E-19         0.00000E+00
    0.15385E-08         0.16766E-19         0.00000E+00
    0.16161E-08         0.26074E-19         0.00000E+00
    0.16994E-08         0.26077E-19         0.00000E+00
    0.17885E-08         0.24200E-19         0.00000E+00
    0.18838E-08         0.23262E-19         0.00000E+00
    0.19855E-08         0.25119E-19         0.00000E+00
    0.20939E-08         0.00000E+00         0.00000E+00
    0.22093E-08         0.18668E-19         0.00000E+00
    0.23319E-08        -0.11176E-19         0.00000E+00
    0.24622E-08         0.93132E-20         0.00000E+00
    0.26004E-08         0.15963E-19         0.00000E+00
    0.27470E-08         0.20638E-19         0.00000E+00
    0.29022E-08         0.22352E-19         0.00000E+00
    0.30665E-08         0.16764E-19         0.00000E+00
    0.32403E-08         0.18835E-19         0.00000E+00
    0.34240E-08         0.13039E-19         0.00000E+00
    0.36180E-08         0.93132E-20         0.00000E+00
    0.38228E-08         0.19278E-19         0.00000E+00
    0.40389E-08         0.90068E-20         0.00000E+00
    0.42667E-08         0.22017E-19         0.00000E+00
    0.45067E-08         0.33614E-20         0.00000E+00
    0.47594E-08         0.14901E-19         0.00000E+00
    0.50254E-08         0.14473E-19         0.00000E+00
    0.53052E-08         0.14439E-19         0.00000E+00
    0.55992E-08         0.28372E-19         0.00000E+00
    0.59082E-08         0.16764E-19         0.00000E+00
    0.62326E-08         0.18979E-19         0.00000E+00
    0.65729E-08         0.13657E-19         0.00000E+00
    0.69299E-08         0.46566E-20         0.00000E+00
    0.73040E-08         0.83819E-20         0.00000E+00
    0.76958E-08         0.10967E-20         0.00000E+00
    0.81059E-08         0.13970E-19         0.00000E+00
    0.85348E-08         0.24270E-19         0.00000E+00
    0.89832E-08         0.14898E-19         0.00000E+00
    0.94516E-08         0.18626E-20         0.00000E+00
    0.99405E-08         0.20489E-19         0.00000E+00
    0.10450E-07         0.29270E-19         0.00000E+00
    0.10982E-07         0.18239E-19         0.00000E+00
    0.11535E-07         0.21185E-19         0.00000E+00
    0.12111E-07        -0.75212E-22         0.00000E+00
    0.12710E-07         0.25238E-19         0.00000E+00
    0.13331E-07         0.93132E-20         0.00000E+00
    0.13977E-07         0.22352E-19         0.00000E+00
    0.14646E-07         0.23283E-19         0.00000E+00
    0.15338E-07         0.13890E-19         0.00000E+00
    0.16055E-07         0.74506E-20         0.00000E+00
    0.16796E-07         0.13394E-19         0.00000E+00
    0.17560E-07         0.37253E-20         0.00000E+00
    0.18348E-07         0.25048E-19         0.00000E+00
    0.19159E-07         0.22352E-19         0.00000E+00
    0.19993E-07         0.14393E-19         0.00000E+00
    0.20849E-07         0.93132E-20         0.00000E+00
    0.21727E-07         0.18626E-19         0.00000E+00
    0.22625E-07         0.93132E-20         0.00000E+00
    0.23543E-07         0.18626E-19         0.00000E+00
    0.24479E-07         0.24214E-19         0.00000E+00
    0.25431E-07         0.23699E-19         0.00000E+00
    0.26399E-07         0.26077E-19         0.00000E+00
    0.27379E-07         0.20489E-19         0.00000E+00
    0.28370E-07         0.14901E-19         0.00000E+00
    0.29369E-07         0.13092E-19         0.00000E+00
    0.30374E-07         0.27005E-19         0.00000E+00
    0.31381E-07         0.23283E-19         0.00000E+00
    0.32387E-07         0.32061E-19         0.00000E+00
    0.33389E-07         0.23283E-19         0.00000E+00
    0.34383E-07         0.14355E-19         0.00000E+00
    0.35363E-07         0.23219E-19         0.00000E+00
    0.36327E-07         0.26077E-19         0.00000E+00
    0.37268E-07         0.14901E-19         0.00000E+00
    0.38183E-07         0.26077E-19         0.00000E+00
    0.39064E-07         0.14764E-19         0.00000E+00
    0.39907E-07         0.86270E-20         0.00000E+00
    0.40707E-07         0.13338E-19         0.00000E+00
    0.41456E-07         0.56301E-20         0.00000E+00
    0.42149E-07         0.14901E-19         0.00000E+00
    0.42779E-07         0.35390E-19         0.00000E+00
    0.43341E-07         0.93132E-20         0.00000E+00
    0.43830E-07         0.26519E-19         0.00000E+00
    0.44238E-07         0.72730E-20         0.00000E+00
    0.44562E-07         0.94409E-20         0.00000E+00
    0.44797E-07         0.13039E-19         0.00000E+00
    0.44939E-07        -0.67268E-20         0.00000E+00
    0.44987E-07         0.00000E+00         0.00000E+00
    0.91510E-09         0.00000E+00         0.00000E+00
    0.91687E-09        -0.20415E-20         0.00000E+00
    0.92219E-09        -0.96706E-20         0.00000E+00
    0.93107E-09        -0.42996E-20         0.00000E+00
    0.94355E-09         0.67374E-20         0.00000E+00
    0.95967E-09         0.11176E-19         0.00000E+00
    0.97946E-09         0.13750E-19         0.00000E+00
    0.10030E-08         0.46566E-20         0.00000E+00
    0.10304E-08         0.97564E-20         0.00000E+00
    0.10616E-08         0.26522E-19         0.00000E+00
    0.10969E-08         0.00000E+00         0.00000E+00
    0.11362E-08         0.22318E-19         0.00000E+00
    0.11798E-08         0.17244E-19         0.00000E+00
    0.12278E-08         0.13039E-19         0.00000E+00
    0.12803E-08         0.00000E+00         0.00000E+00
    0.13374E-08         0.29819E-19         0.00000E+00
    0.13993E-08         0.24202E-19         0.00000E+00
    0.14663E-08         0.16764E-19         0.00000E+00
    0.15385E-08         0.14899E-19         0.00000E+00
    0.16161E-08         0.16767E-19         0.00000E+00
    0.16994E-08         0.16764E-19         0.00000E+00
    0.17885E-08         0.22352E-19         0.00000E+00
    0.18838E-08         0.84230E-20         0.00000E+00
    0.19855E-08         0.32650E-19         0.00000E+00
    0.20939E-08        -0.33958E-22         0.00000E+00
    0.22093E-08         0.13039E-19         0.00000E+00
    0.23319E-08         0.00000E+00         0.00000E+00
    0.24622E-08         0.18626E-20         0.00000E+00
    0.26004E-08         0.17695E-19         0.00000E+00
    0.27470E-08         0.93132E-20         0.00000E+00
    0.29022E-08         0.25909E-19         0.00000E+00
    0.30665E-08         0.24027E-19         0.00000E+00
    0.32403E-08         0.20698E-19         0.00000E+00
    0.34240E-08         0.10245E-19         0.00000E+00
    0.36180E-08         0.14901E-19         0.00000E+00
    0.38228E-08         0.11176E-19         0.00000E+00
    0.40389E-08         0.58944E-20         0.00000E+00
    0.42667E-08         0.19892E-19         0.00000E+00
    0.45067E-08         0.10608E-19         0.00000E+00
    0.47594E-08         0.26077E-19         0.00000E+00
    0.50254E-08         0.14901E-19         0.00000E+00
    0.53052E-08         0.15364E-19         0.00000E+00
    0.55992E-08         0.11675E-19         0.00000E+00
    0.59082E-08         0.29802E-19         0.00000E+00
    0.62326E-08         0.98921E-20         0.00000E+00
    0.65729E-08         0.25146E-19         0.00000E+00
    0.69299E-08         0.34614E-20         0.00000E+00
    0.73040E-08         0.44407E-20         0.00000E+00
    0.76958E-08        -0.12107E-19         0.00000E+00
    0.81059E-08         0.19446E-19         0.00000E+00
    0.85348E-08         0.83259E-20         0.00000E+00
    0.89832E-08         0.12110E-19         0.00000E+00
    0.94516E-08         0.11176E-19         0.00000E+00
    0.99405E-08         0.18626E-19         0.00000E+00
    0.10450E-07         0.18227E-19         0.00000E+00
    0.10982E-07         0.13426E-19         0.00000E+00
    0.11535E-07         0.10480E-19         0.00000E+00
    0.12111E-07         0.75258E-20         0.00000E+00
    0.12710E-07         0.20489E-19         0.00000E+00
    0.13331E-07         0.16764E-19         0.00000E+00
    0.13977E-07         0.11176E-19         0.00000E+00
    0.14646E-07         0.86653E-20         0.00000E+00
    0.15338E-07         0.23283E-19         0.00000E+00
    0.16055E-07         0.74506E-20         0.00000E+00
    0.16796E-07         0.14545E-19         0.00000E+00
    0.17560E-07         0.00000E+00         0.00000E+00
    0.18348E-07         0.94114E-20         0.00000E+00
    0.19159E-07         0.30577E-19         0.00000E+00
    0.19993E-07         0.83819E-20         0.00000E+00
    0.20849E-07         0.13039E-19         0.00000E+00
    0.21727E-07         0.19558E-19         0.00000E+00
    0.22625E-07         0.16764E-19         0.00000E+00
    0.23543E-07         0.23537E-19         0.00000E+00
    0.24479E-07         0.24214E-19         0.00000E+00
    0.25431E-07         0.35390E-19         0.00000E+00
    0.26399E-07         0.18626E-19         0.00000E+00
    0.27379E-07         0.20489E-19         0.00000E+00
    0.28370E-07         0.15832E-19         0.00000E+00
    0.29369E-07         0.64654E-20         0.00000E+00
    0.30374E-07         0.12107E-19         0.00000E+00
    0.31381E-07         0.36364E-19         0.00000E+00
    0.32387E-07         0.27544E-19         0.00000E+00
    0.33389E-07         0.22434E-19         0.00000E+00
    0.34383E-07         0.15832E-19         0.00000E+00
    0.35363E-07         0.12107E-19         0.00000E+00
    0.36327E-07         0.18195E-19         0.00000E+00
    0.37268E-07         0.11176E-19         0.00000E+00
    0.38183E-07         0.22352E-19         0.00000E+00
    0.39064E-07         0.14107E-19         0.00000E+00
    0.39907E-07         0.50977E-20         0.00000E+00
    0.40707E-07         0.37253E-20         0.00000E+00
    0.41456E-07        -0.12149E-19         0.00000E+00
    0.42149E-07         0.21962E-19         0.00000E+00
    0.42779E-07         0.15832E-19         0.00000E+00
    0.43341E-07         0.14778E-19         0.00000E+00
    0.43830E-07         0.23772E-19         0.00000E+00
    0.44238E-07         0.55879E-20         0.00000E+00
    0.44562E-07         0.26663E-20         0.00000E+00
    0.44797E-07         0.14473E-19         0.00000E+00
    0.44939E-07        -0.65193E-20         0.00000E+00
    0.44987E-07         0.00000E+00         0.00000E+00
    0.91510E-09         0.00000E+00         0.00000E+00
    0.91687E-09        -0.75242E-21         0.00000E+00
    0.92219E-09        -0.10818E-19         0.00000E+00
    0.93107E-09        -0.14327E-19         0.00000E+00
    0.94355E-09         0.16445E-20         0.00000E+00
    0.95967E-09         0.37253E-20         0.00000E+00
    0.97946E-09         0.11396E-19         0.00000E+00
    0.10030E-08        -0.12549E-19         0.00000E+00
    0.10304E-08         0.14458E-19         0.00000E+00
    0.10616E-08         0.20975E-19         0.00000E+00
    0.10969E-08         0.55879E-20         0.00000E+00
    0.11362E-08         0.25146E-19         0.00000E+00
    0.11798E-08         0.12558E-19         0.00000E+00
    0.12278E-08         0.26077E-19         0.00000E+00
    0.12803E-08         0.74721E-20         0.00000E+00
    0.13374E-08         0.29802E-19         0.00000E+00
    0.13993E-08         0.35403E-19         0.00000E+00
    0.14663E-08         0.18626E-19         0.00000E+00
    0.15385E-08         0.13041E-19         0.00000E+00
    0.16161E-08         0.93132E-20         0.00000E+00
    0.16994E-08         0.22352E-19         0.00000E+00
    0.17885E-08         0.27940E-19         0.00000E+00
    0.18838E-08         0.93132E-20         0.00000E+00
    0.19855E-08         0.35363E-19         0.00000E+00
    0.20939E-08         0.93472E-20         0.00000E+00
    0.22093E-08         0.74506E-20         0.00000E+00
    0.23319E-08         0.74506E-20         0.00000E+00
    0.24622E-08         0.10245E-19         0.00000E+00
    0.26004E-08         0.19427E-19         0.00000E+00
    0.27470E-08        -0.57367E-20         0.00000E+00
    0.29022E-08         0.93132E-20         0.00000E+00
    0.30665E-08         0.32041E-19         0.00000E+00
    0.32403E-08         0.12830E-19         0.00000E+00
    0.34240E-08         0.11627E-20         0.00000E+00
    0.36180E-08         0.13039E-19         0.00000E+00
    0.38228E-08         0.77306E-20         0.00000E+00
    0.40389E-08         0.80754E-20         0.00000E+00
    0.42667E-08         0.11176E-19         0.00000E+00
    0.45067E-08         0.14901E-19         0.00000E+00
    0.47594E-08         0.20489E-19         0.00000E+00
    0.50254E-08         0.20489E-19         0.00000E+00
    0.53052E-08         0.16301E-19         0.00000E+00
    0.55992E-08         0.55879E-20         0.00000E+00
    0.59082E-08         0.27940E-19         0.00000E+00
    0.62326E-08         0.46566E-20         0.00000E+00
    0.65729E-08         0.28562E-19         0.00000E+00
    0.69299E-08         0.15165E-19         0.00000E+00
    0.73040E-08        -0.10245E-19         0.00000E+00
    0.76958E-08        -0.38907E-20         0.00000E+00
    0.81059E-08         0.26077E-19         0.00000E+00
    0.85348E-08         0.00000E+00         0.00000E+00
    0.89832E-08         0.18626E-20         0.00000E+00
    0.94516E-08         0.11176E-19         0.00000E+00
    0.99405E-08         0.93132E-20         0.00000E+00
    0.10450E-07        -0.37253E-20         0.00000E+00
    0.10982E-07         0.26077E-19         0.00000E+00
    0.11535E-07        -0.39604E-20         0.00000E+00
    0.12111E-07         0.83067E-20         0.00000E+00
    0.12710E-07         0.00000E+00         0.00000E+00
    0.13331E-07         0.18626E-19         0.00000E+00
    0.13977E-07         0.18626E-20         0.00000E+00
    0.14646E-07         0.74506E-20         0.00000E+00
    0.15338E-07         0.17615E-19         0.00000E+00
    0.16055E-07         0.17695E-19         0.00000E+00
    0.16796E-07         0.13039E-19         0.00000E+00
    0.17560E-07         0.22048E-20         0.00000E+00
    0.18348E-07         0.37253E-20         0.00000E+00
    0.19159E-07         0.20646E-19         0.00000E+00
    0.19993E-07         0.12615E-19         0.00000E+00
    0.20849E-07         0.95431E-20         0.00000E+00
    0.21727E-07         0.14841E-19         0.00000E+00
    0.22625E-07         0.27940E-19         0.00000E+00
    0.23543E-07         0.34205E-19         0.00000E+00
    0.24479E-07         0.35390E-19         0.00000E+00
    0.25431E-07         0.24214E-19         0.00000E+00
    0.26399E-07         0.18788E-19         0.00000E+00
    0.27379E-07         0.16764E-19         0.00000E+00
    0.28370E-07         0.18284E-19         0.00000E+00
    0.29369E-07         0.19558E-19         0.00000E+00
    0.30374E-07         0.97804E-20         0.00000E+00
    0.31381E-07         0.35390E-19         0.00000E+00
    0.32387E-07         0.11572E-19         0.00000E+00
    0.33389E-07         0.29720E-19         0.00000E+00
    0.34383E-07         0.11722E-19         0.00000E+00
    0.35363E-07         0.11240E-19         0.00000E+00
    0.36327E-07         0.37253E-20         0.00000E+00
    0.37268E-07         0.20489E-19         0.00000E+00
    0.38183E-07         0.19558E-19         0.00000E+00
    0.39064E-07         0.83819E-20         0.00000E+00
    0.39907E-07         0.93132E-21         0.00000E+00
    0.40707E-07         0.59041E-20         0.00000E+00
    0.41456E-07         0.55879E-20         0.00000E+00
    0.42149E-07         0.19016E-19         0.00000E+00
    0.42779E-07        -0.72661E-21         0.00000E+00
    0.43341E-07         0.26077E-19         0.00000E+00
    0.43830E-07         0.22794E-19         0.00000E+00
    0.44238E-07         0.20402E-20         0.00000E+00
    0.44562E-07         0.85096E-20         0.00000E+00
    0.44797E-07         0.37253E-20         0.00000E+00
    0.44939E-07         0.32090E-20         0.00000E+00
    0.44987E-07         0.00000E+00         0.00000E+00
    0.91510E-09         0.00000E+00         0.00000E+00
    0.91687E-09        -0.55879E-20         0.00000E+00
    0.92219E-09        -0.55879E-20         0.00000E+00
    0.93107E-09        -0.70936E-20         0.00000E+00
    0.94355E-09         0.18626E-20         0.00000E+00
    0.95967E-09         0.00000E+00         0.00000E+00
    0.97946E-09         0.17475E-19         0.00000E+00
    0.10030E-08        -0.16764E-19         0.00000E+00
    0.10304E-08         0.14901E-19         0.00000E+00
    0.10616E-08         0.13039E-19         0.00000E+00
    0.10969E-08         0.22352E-19         0.00000E+00
    0.11362E-08         0.17246E-19         0.00000E+00
    0.11798E-08         0.22832E-19         0.00000E+00
    0.12278E-08         0.22352E-19         0.00000E+00
    0.12803E-08         0.11176E-19         0.00000E+00
    0.13374E-08         0.26077E-19         0.00000E+00
    0.13993E-08         0.27940E-19         0.00000E+00
    0.14663E-08         0.16764E-19         0.00000E+00
    0.15385E-08         0.18626E-19         0.00000E+00
    0.16161E-08         0.11176E-19         0.00000E+00
    0.16994E-08         0.29802E-19         0.00000E+00
    0.17885E-08         0.27954E-19         0.00000E+00
    0.18838E-08         0.11155E-19         0.00000E+00
    0.19855E-08         0.18654E-19         0.00000E+00
    0.20939E-08        -0.33958E-22         0.00000E+00
    0.22093E-08        -0.18626E-20         0.00000E+00
    0.23319E-08         0.74506E-20         0.00000E+00
    0.24622E-08         0.17809E-19         0.00000E+00
    0.26004E-08         0.14901E-19         0.00000E+00
    0.27470E-08         0.93132E-20         0.00000E+00
    0.29022E-08        -0.37253E-20         0.00000E+00
    0.30665E-08         0.16576E-19         0.00000E+00
    0.32403E-08         0.93132E-20         0.00000E+00
    0.34240E-08        -0.11176E-19         0.00000E+00
    0.36180E-08         0.18626E-20         0.00000E+00
    0.38228E-08         0.55879E-20         0.00000E+00
    0.40389E-08         0.00000E+00         0.00000E+00
    0.42667E-08         0.93132E-20         0.00000E+00
    0.45067E-08         0.00000E+00         0.00000E+00
    0.47594E-08         0.17695E-19         0.00000E+00
    0.50254E-08         0.20489E-19         0.00000E+00
    0.53052E-08         0.28402E-19         0.00000E+00
    0.55992E-08         0.74506E-20         0.00000E+00
    0.59082E-08         0.15832E-19         0.00000E+00
    0.62326E-08         0.78030E-20         0.00000E+00
    0.65729E-08         0.18626E-19         0.00000E+00
    0.69299E-08         0.10912E-19         0.00000E+00
    0.73040E-08        -0.35094E-20         0.00000E+00
    0.76958E-08         0.20280E-20         0.00000E+00
    0.81059E-08         0.23283E-19         0.00000E+00
    0.85348E-08         0.14901E-19         0.00000E+00
    0.89832E-08         0.27940E-20         0.00000E+00
    0.94516E-08         0.93132E-20         0.00000E+00
    0.99405E-08         0.14901E-19         0.00000E+00
    0.10450E-07         0.55879E-20         0.00000E+00
    0.10982E-07         0.24214E-19         0.00000E+00
    0.11535E-07         0.86170E-20         0.00000E+00
    0.12111E-07         0.74506E-20         0.00000E+00
    0.12710E-07        -0.37253E-20         0.00000E+00
    0.13331E-07         0.17426E-19         0.00000E+00
    0.13977E-07         0.37253E-20         0.00000E+00
    0.14646E-07         0.20206E-19         0.00000E+00
    0.15338E-07         0.19428E-20         0.00000E+00
    0.16055E-07         0.15965E-19         0.00000E+00
    0.16796E-07         0.13614E-19         0.00000E+00
    0.17560E-07         0.40675E-20         0.00000E+00
    0.18348E-07        -0.27940E-20         0.00000E+00
    0.19159E-07         0.63623E-20         0.00000E+00
    0.19993E-07         0.23706E-19         0.00000E+00
    0.20849E-07         0.16328E-20         0.00000E+00
    0.21727E-07         0.10305E-19         0.00000E+00
    0.22625E-07         0.29802E-19         0.00000E+00
    0.23543E-07         0.29125E-19         0.00000E+00
    0.24479E-07         0.39116E-19         0.00000E+00
    0.25431E-07         0.14901E-19         0.00000E+00
    0.26399E-07         0.31504E-19         0.00000E+00
    0.27379E-07         0.17695E-19         0.00000E+00
    0.28370E-07         0.19900E-19         0.00000E+00
    0.29369E-07         0.27062E-19         0.00000E+00
    0.30374E-07         0.16764E-19         0.00000E+00
    0.31381E-07         0.20489E-19         0.00000E+00
    0.32387E-07         0.13574E-19         0.00000E+00
    0.33389E-07         0.26159E-19         0.00000E+00
    0.34383E-07         0.15832E-19         0.00000E+00
    0.35363E-07         0.14837E-19         0.00000E+00
    0.36327E-07         0.20920E-19         0.00000E+00
    0.37268E-07         0.17695E-19         0.00000E+00
    0.38183E-07         0.16232E-19         0.00000E+00
    0.39064E-07         0.14764E-19         0.00000E+00
    0.39907E-07         0.30391E-20         0.00000E+00
    0.40707E-07         0.16764E-19         0.00000E+00
    0.41456E-07         0.18584E-19         0.00000E+00
    0.42149E-07         0.13580E-19         0.00000E+00
    0.42779E-07         0.13039E-19         0.00000E+00
    0.43341E-07         0.27131E-19         0.00000E+00
    0.43830E-07         0.18626E-19         0.00000E+00
    0.44238E-07         0.12861E-19         0.00000E+00
    0.44562E-07         0.12911E-19         0.00000E+00
    0.44797E-07         0.37253E-20         0.00000E+00
    0.44939E-07         0.14694E-19         0.00000E+00
    0.44987E-07         0.00000E+00         0.00000E+00
    0.91510E-09         0.00000E+00         0.00000E+00
    0.91687E-09        -0.55879E-20         0.00000E+00
    0.92219E-09        -0.18626E-20         0.00000E+00
    0.93107E-09         0.42996E-20         0.00000E+00
    0.94355E-09         0.11176E-19         0.00000E+00
    0.95967E-09         0.18626E-20         0.00000E+00
    0.97946E-09         0.12327E-19         0.00000E+00
    0.10030E-08         0.20489E-19         0.00000E+00
    0.10304E-08         0.37253E-20         0.00000E+00
    0.10616E-08         0.13970E-19         0.00000E+00
    0.10969E-08         0.26077E-19         0.00000E+00
    0.11362E-08         0.23283E-19         0.00000E+00
    0.11798E-08         0.23734E-19         0.00000E+00
    0.12278E-08         0.16764E-19         0.00000E+00
    0.12803E-08         0.20489E-19         0.00000E+00
    0.13374E-08         0.18609E-19         0.00000E+00
    0.13993E-08         0.20489E-19         0.00000E+00
    0.14663E-08         0.18619E-19         0.00000E+00
    0.15385E-08         0.25146E-19         0.00000E+00
    0.16161E-08         0.26077E-19         0.00000E+00
    0.16994E-08         0.26077E-19         0.00000E+00
    0.17885E-08         0.22352E-19         0.00000E+00
    0.18838E-08         0.13039E-19         0.00000E+00
    0.19855E-08         0.93132E-20         0.00000E+00
    0.20939E-08        -0.55540E-20         0.00000E+00
    0.22093E-08        -0.13039E-19         0.00000E+00
    0.23319E-08         0.74506E-20         0.00000E+00
    0.24622E-08         0.91994E-20         0.00000E+00
    0.26004E-08         0.00000E+00         0.00000E+00
    0.27470E-08         0.13187E-19         0.00000E+00
    0.29022E-08        -0.35575E-20         0.00000E+00
    0.30665E-08        -0.16748E-20         0.00000E+00
    0.32403E-08         0.18626E-20         0.00000E+00
    0.34240E-08        -0.15133E-19         0.00000E+00
    0.36180E-08        -0.10921E-19         0.00000E+00
    0.38228E-08         0.27940E-20         0.00000E+00
    0.40389E-08         0.00000E+00         0.00000E+00
    0.42667E-08         0.74506E-20         0.00000E+00
    0.45067E-08         0.00000E+00         0.00000E+00
    0.47594E-08         0.10781E-19         0.00000E+00
    0.50254E-08         0.16764E-19         0.00000E+00
    0.53052E-08         0.18164E-19         0.00000E+00
    0.55992E-08         0.93132E-20         0.00000E+00
    0.59082E-08         0.13246E-20         0.00000E+00
    0.62326E-08         0.43042E-20         0.00000E+00
    0.65729E-08         0.27940E-20         0.00000E+00
    0.69299E-08         0.95771E-20         0.00000E+00
    0.73040E-08         0.25781E-20         0.00000E+00
    0.76958E-08        -0.66846E-20         0.00000E+00
    0.81059E-08         0.13858E-19         0.00000E+00
    0.85348E-08         0.11176E-19         0.00000E+00
    0.89832E-08         0.13967E-19         0.00000E+00
    0.94516E-08         0.00000E+00         0.00000E+00
    0.99405E-08         0.25146E-19         0.00000E+00
    0.10450E-07         0.11176E-19         0.00000E+00
    0.10982E-07        -0.37253E-20         0.00000E+00
    0.11535E-07         0.17460E-19         0.00000E+00
    0.12111E-07         0.38005E-20         0.00000E+00
    0.12710E-07         0.36326E-20         0.00000E+00
    0.13331E-07         0.30630E-20         0.00000E+00
    0.13977E-07         0.37253E-20         0.00000E+00
    0.14646E-07         0.20489E-19         0.00000E+00
    0.15338E-07        -0.37253E-20         0.00000E+00
    0.16055E-07         0.63864E-20         0.00000E+00
    0.16796E-07         0.15257E-19         0.00000E+00
    0.17560E-07        -0.18626E-20         0.00000E+00
    0.18348E-07        -0.38234E-20         0.00000E+00
    0.19159E-07         0.00000E+00         0.00000E+00
    0.19993E-07         0.17695E-19         0.00000E+00
    0.20849E-07         0.22987E-21         0.00000E+00
    0.21727E-07         0.12107E-19         0.00000E+00
    0.22625E-07         0.22352E-19         0.00000E+00
    0.23543E-07         0.19304E-19         0.00000E+00
    0.24479E-07         0.35390E-19         0.00000E+00
    0.25431E-07         0.16764E-19         0.00000E+00
    0.26399E-07         0.27940E-19         0.00000E+00
    0.27379E-07         0.28664E-19         0.00000E+00
    0.28370E-07         0.20489E-19         0.00000E+00
    0.29369E-07         0.18573E-19         0.00000E+00
    0.30374E-07         0.20489E-19         0.00000E+00
    0.31381E-07         0.74506E-20         0.00000E+00
    0.32387E-07         0.26077E-19         0.00000E+00
    0.33389E-07         0.92311E-20         0.00000E+00
    0.34383E-07         0.15286E-19         0.00000E+00
    0.35363E-07         0.65837E-20         0.00000E+00
    0.36327E-07         0.35390E-19         0.00000E+00
    0.37268E-07         0.27847E-20         0.00000E+00
    0.38183E-07         0.10777E-19         0.00000E+00
    0.39064E-07         0.25283E-19         0.00000E+00
    0.39907E-07         0.37253E-20         0.00000E+00
    0.40707E-07         0.12107E-19         0.00000E+00
    0.41456E-07         0.10329E-19         0.00000E+00
    0.42149E-07         0.10634E-19         0.00000E+00
    0.42779E-07         0.24214E-19         0.00000E+00
    0.43341E-07         0.13847E-19         0.00000E+00
    0.43830E-07         0.12107E-19         0.00000E+00
    0.44238E-07         0.24392E-19         0.00000E+00
    0.44562E-07         0.12235E-19         0.00000E+00
    0.44797E-07         0.60915E-20         0.00000E+00
    0.44939E-07         0.14901E-19         0.00000E+00
    0.44987E-07         0.18626E-20         0.00000E+00
    0.91510E-09         0.00000E+00         0.00000E+00
    0.91687E-09        -0.74506E-20         0.00000E+00
    0.92219E-09        -0.74506E-20         0.00000E+00
    0.93107E-09         0.31510E-20         0.00000E+00
    0.94355E-09         0.16764E-19         0.00000E+00
    0.95967E-09        -0.37253E-20         0.00000E+00
    0.97946E-09        -0.48765E-20         0.00000E+00
    0.10030E-08         0.24214E-19         0.00000E+00
    0.10304E-08         0.18626E-20         0.00000E+00
    0.10616E-08         0.88269E-20         0.00000E+00
    0.10969E-08         0.19558E-19         0.00000E+00
    0.11362E-08         0.33045E-19         0.00000E+00
    0.11798E-08         0.42059E-20         0.00000E+00
    0.12278E-08         0.55879E-20         0.00000E+00
    0.12803E-08         0.16764E-19         0.00000E+00
    0.13374E-08         0.14901E-19         0.00000E+00
    0.13993E-08         0.24214E-19         0.00000E+00
    0.14663E-08         0.26085E-19         0.00000E+00
    0.15385E-08         0.12105E-19         0.00000E+00
    0.16161E-08         0.35390E-19         0.00000E+00
    0.16994E-08         0.20489E-19         0.00000E+00
    0.17885E-08         0.11161E-19         0.00000E+00
    0.18838E-08         0.13059E-19         0.00000E+00
    0.19855E-08         0.55879E-20         0.00000E+00
    0.20939E-08        -0.37592E-20         0.00000E+00
    0.22093E-08        -0.10286E-19         0.00000E+00
    0.23319E-08        -0.18626E-20         0.00000E+00
    0.24622E-08         0.00000E+00         0.00000E+00
    0.26004E-08        -0.74506E-20         0.00000E+00
    0.27470E-08         0.11027E-19         0.00000E+00
    0.29022E-08        -0.13039E-19         0.00000E+00
    0.30665E-08        -0.95010E-20         0.00000E+00
    0.32403E-08        -0.74506E-20         0.00000E+00
    0.34240E-08         0.00000E+00         0.00000E+00
    0.36180E-08        -0.31920E-19         0.00000E+00
    0.38228E-08         0.15826E-20         0.00000E+00
    0.40389E-08        -0.52815E-20         0.00000E+00
    0.42667E-08         0.00000E+00         0.00000E+00
    0.45067E-08         0.12107E-19         0.00000E+00
    0.47594E-08        -0.23990E-20         0.00000E+00
    0.50254E-08         0.00000E+00         0.00000E+00
    0.53052E-08         0.00000E+00         0.00000E+00
    0.55992E-08        -0.55879E-20         0.00000E+00
    0.59082E-08         0.27940E-20         0.00000E+00
    0.62326E-08        -0.83819E-20         0.00000E+00
    0.65729E-08         0.80726E-20         0.00000E+00
    0.69299E-08        -0.39891E-20         0.00000E+00
    0.73040E-08         0.83819E-20         0.00000E+00
    0.76958E-08        -0.11176E-19         0.00000E+00
    0.81059E-08        -0.36132E-20         0.00000E+00
    0.85348E-08        -0.93132E-20         0.00000E+00
    0.89832E-08         0.30729E-23         0.00000E+00
    0.94516E-08        -0.55879E-20         0.00000E+00
    0.99405E-08         0.12369E-19         0.00000E+00
    0.10450E-07         0.93132E-20         0.00000E+00
    0.10982E-07        -0.93132E-20         0.00000E+00
    0.11535E-07        -0.44215E-20         0.00000E+00
    0.12111E-07        -0.18626E-20         0.00000E+00
    0.12710E-07        -0.93132E-21         0.00000E+00
    0.13331E-07        -0.39943E-20         0.00000E+00
    0.13977E-07         0.65193E-20         0.00000E+00
    0.14646E-07         0.18626E-20         0.00000E+00
    0.15338E-07        -0.55879E-20         0.00000E+00
    0.16055E-07         0.13837E-19         0.00000E+00
    0.16796E-07        -0.22185E-20         0.00000E+00
    0.17560E-07        -0.22048E-20         0.00000E+00
    0.18348E-07         0.47548E-20         0.00000E+00
    0.19159E-07        -0.37253E-20         0.00000E+00
    0.19993E-07         0.14393E-20         0.00000E+00
    0.20849E-07         0.13039E-19         0.00000E+00
    0.21727E-07         0.27337E-20         0.00000E+00
    0.22625E-07         0.14901E-19         0.00000E+00
    0.23543E-07         0.18626E-19         0.00000E+00
    0.24479E-07         0.22352E-19         0.00000E+00
    0.25431E-07         0.13039E-19         0.00000E+00
    0.26399E-07         0.93132E-20         0.00000E+00
    0.27379E-07         0.20696E-19         0.00000E+00
    0.28370E-07         0.20489E-19         0.00000E+00
    0.29369E-07         0.16764E-19         0.00000E+00
    0.30374E-07         0.20489E-19         0.00000E+00
    0.31381E-07         0.55879E-20         0.00000E+00
    0.32387E-07         0.25146E-19         0.00000E+00
    0.33389E-07         0.75327E-20         0.00000E+00
    0.34383E-07         0.79966E-20         0.00000E+00
    0.35363E-07         0.93132E-21         0.00000E+00
    0.36327E-07         0.21921E-19         0.00000E+00
    0.37268E-07         0.13970E-19         0.00000E+00
    0.38183E-07         0.74506E-20         0.00000E+00
    0.39064E-07         0.21420E-19         0.00000E+00
    0.39907E-07         0.16764E-19         0.00000E+00
    0.40707E-07         0.12475E-20         0.00000E+00
    0.41456E-07         0.22267E-19         0.00000E+00
    0.42149E-07         0.12649E-19         0.00000E+00
    0.42779E-07         0.20489E-19         0.00000E+00
    0.43341E-07         0.65193E-20         0.00000E+00
    0.43830E-07         0.13528E-19         0.00000E+00
    0.44238E-07         0.20489E-19         0.00000E+00
    0.44562E-07         0.23155E-19         0.00000E+00
    0.44797E-07         0.88096E-20         0.00000E+00
    0.44939E-07         0.55879E-20         0.00000E+00
    0.44987E-07         0.20344E-20         0.00000E+00
    0.91510E-09         0.00000E+00         0.00000E+00
    0.91687E-09        -0.65193E-20         0.00000E+00
    0.92219E-09        -0.14901E-19         0.00000E+00
    0.93107E-09         0.74506E-20         0.00000E+00
    0.94355E-09         0.13039E-19         0.00000E+00
    0.95967E-09        -0.16436E-20         0.00000E+00
    0.97946E-09        -0.93132E-20         0.00000E+00
    0.10030E-08         0.37253E-20         0.00000E+00
    0.10304E-08         0.13970E-19         0.00000E+00
    0.10616E-08         0.37253E-20         0.00000E+00
    0.10969E-08         0.27455E-19         0.00000E+00
    0.11362E-08         0.10727E-19         0.00000E+00
    0.11798E-08         0.83819E-20         0.00000E+00
    0.12278E-08         0.93132E-20         0.00000E+00
    0.12803E-08         0.74506E-20         0.00000E+00
    0.13374E-08         0.24231E-19         0.00000E+00
    0.13993E-08         0.93132E-20         0.00000E+00
    0.14663E-08         0.29802E-19         0.00000E+00
    0.15385E-08         0.55879E-20         0.00000E+00
    0.16161E-08         0.20486E-19         0.00000E+00
    0.16994E-08         0.14910E-19         0.00000E+00
    0.17885E-08         0.37397E-20         0.00000E+00
    0.18838E-08         0.18421E-20         0.00000E+00
    0.19855E-08        -0.37524E-20         0.00000E+00
    0.20939E-08        -0.11176E-19         0.00000E+00
    0.22093E-08        -0.13929E-19         0.00000E+00
    0.23319E-08        -0.55879E-20         0.00000E+00
    0.24622E-08        -0.93132E-20         0.00000E+00
    0.26004E-08        -0.93132E-20         0.00000E+00
    0.27470E-08        -0.54392E-20         0.00000E+00
    0.29022E-08        -0.16932E-19         0.00000E+00
    0.30665E-08        -0.29802E-19         0.00000E+00
    0.32403E-08        -0.18626E-19         0.00000E+00
    0.34240E-08        -0.34939E-20         0.00000E+00
    0.36180E-08        -0.22352E-19         0.00000E+00
    0.38228E-08        -0.21140E-19         0.00000E+00
    0.40389E-08        -0.22352E-19         0.00000E+00
    0.42667E-08        -0.14901E-19         0.00000E+00
    0.45067E-08        -0.40892E-20         0.00000E+00
    0.47594E-08        -0.18626E-19         0.00000E+00
    0.50254E-08        -0.27512E-19         0.00000E+00
    0.53052E-08        -0.14901E-19         0.00000E+00
    0.55992E-08        -0.18626E-19         0.00000E+00
    0.59082E-08         0.70573E-20         0.00000E+00
    0.62326E-08        -0.30381E-19         0.00000E+00
    0.65729E-08         0.27940E-20         0.00000E+00
    0.69299E-08        -0.21157E-19         0.00000E+00
    0.73040E-08         0.67352E-20         0.00000E+00
    0.76958E-08        -0.83819E-20         0.00000E+00
    0.81059E-08        -0.22352E-19         0.00000E+00
    0.85348E-08        -0.27940E-19         0.00000E+00
    0.89832E-08         0.93132E-21         0.00000E+00
    0.94516E-08         0.18626E-20         0.00000E+00
    0.99405E-08        -0.17025E-19         0.00000E+00
    0.10450E-07         0.93132E-20         0.00000E+00
    0.10982E-07        -0.55879E-20         0.00000E+00
    0.11535E-07        -0.20978E-20         0.00000E+00
    0.12111E-07        -0.27940E-20         0.00000E+00
    0.12710E-07        -0.10152E-19         0.00000E+00
    0.13331E-07         0.55879E-20         0.00000E+00
    0.13977E-07        -0.45396E-21         0.00000E+00
    0.14646E-07        -0.13039E-19         0.00000E+00
    0.15338E-07        -0.55879E-20         0.00000E+00
    0.16055E-07        -0.55879E-20         0.00000E+00
    0.16796E-07        -0.11751E-19         0.00000E+00
    0.17560E-07        -0.55879E-20         0.00000E+00
    0.18348E-07        -0.19608E-20         0.00000E+00
    0.19159E-07        -0.13039E-19         0.00000E+00
    0.19993E-07        -0.22860E-19         0.00000E+00
    0.20849E-07         0.16764E-19         0.00000E+00
    0.21727E-07         0.00000E+00         0.00000E+00
    0.22625E-07         0.10245E-19         0.00000E+00
    0.23543E-07         0.74506E-20         0.00000E+00
    0.24479E-07         0.14901E-19         0.00000E+00
    0.25431E-07         0.12107E-19         0.00000E+00
    0.26399E-07         0.37253E-20         0.00000E+00
    0.27379E-07         0.13970E-19         0.00000E+00
    0.28370E-07         0.26077E-19         0.00000E+00
    0.29369E-07         0.27940E-19         0.00000E+00
    0.30374E-07         0.20489E-19         0.00000E+00
    0.31381E-07         0.24214E-19         0.00000E+00
    0.32387E-07         0.19954E-19         0.00000E+00
    0.33389E-07         0.18544E-19         0.00000E+00
    0.34383E-07         0.27940E-20         0.00000E+00
    0.35363E-07         0.55235E-20         0.00000E+00
    0.36327E-07         0.20489E-19         0.00000E+00
    0.37268E-07         0.35400E-19         0.00000E+00
    0.38183E-07         0.61202E-20         0.00000E+00
    0.39064E-07         0.18489E-19         0.00000E+00
    0.39907E-07         0.21420E-19         0.00000E+00
    0.40707E-07         0.37253E-20         0.00000E+00
    0.41456E-07         0.17737E-19         0.00000E+00
    0.42149E-07         0.33917E-19         0.00000E+00
    0.42779E-07         0.13039E-19         0.00000E+00
    0.43341E-07         0.12230E-19         0.00000E+00
    0.43830E-07         0.24214E-19         0.00000E+00
    0.44238E-07         0.16764E-19         0.00000E+00
    0.44562E-07         0.21548E-19         0.00000E+00
    0.44797E-07         0.13039E-19         0.00000E+00
    0.44939E-07         0.55879E-20         0.00000E+00
    0.44987E-07        -0.20344E-20         0.00000E+00
    0.91510E-09         0.00000E+00         0.00000E+00
    0.91687E-09         0.39042E-20         0.00000E+00
    0.92219E-09         0.40827E-20         0.00000E+00
    0.93107E-09         0.89562E-20         0.00000E+00
    0.94355E-09         0.63011E-20         0.00000E+00
    0.95967E-09         0.53689E-20         0.00000E+00
    0.97946E-09        -0.62994E-20         0.00000E+00
    0.10030E-08         0.18626E-20         0.00000E+00
    0.10304E-08         0.16321E-19         0.00000E+00
    0.10616E-08         0.00000E+00         0.00000E+00
    0.10969E-08         0.27493E-19         0.00000E+00
    0.11362E-08         0.11176E-19         0.00000E+00
    0.11798E-08         0.16283E-19         0.00000E+00
    0.12278E-08         0.13039E-19         0.00000E+00
    0.12803E-08         0.55879E-20         0.00000E+00
    0.13374E-08         0.16747E-19         0.00000E+00
    0.13993E-08         0.56003E-20         0.00000E+00
    0.14663E-08         0.37253E-19         0.00000E+00
    0.15385E-08         0.13039E-19         0.00000E+00
    0.16161E-08         0.18629E-19         0.00000E+00
    0.16994E-08         0.13030E-19         0.00000E+00
    0.17885E-08         0.37253E-20         0.00000E+00
    0.18838E-08         0.93132E-20         0.00000E+00
    0.19855E-08        -0.11176E-19         0.00000E+00
    0.20939E-08        -0.12073E-19         0.00000E+00
    0.22093E-08        -0.20489E-19         0.00000E+00
    0.23319E-08         0.55879E-20         0.00000E+00
    0.24622E-08        -0.13039E-19         0.00000E+00
    0.26004E-08        -0.20489E-19         0.00000E+00
    0.27470E-08        -0.75994E-20         0.00000E+00
    0.29022E-08        -0.20321E-19         0.00000E+00
    0.30665E-08        -0.39116E-19         0.00000E+00
    0.32403E-08        -0.22561E-19         0.00000E+00
    0.34240E-08        -0.24446E-19         0.00000E+00
    0.36180E-08        -0.20489E-19         0.00000E+00
    0.38228E-08        -0.33528E-19         0.00000E+00
    0.40389E-08        -0.55879E-20         0.00000E+00
    0.42667E-08        -0.29802E-19         0.00000E+00
    0.45067E-08        -0.26644E-19         0.00000E+00
    0.47594E-08        -0.12107E-19         0.00000E+00
    0.50254E-08        -0.31665E-19         0.00000E+00
    0.53052E-08        -0.31665E-19         0.00000E+00
    0.55992E-08        -0.18626E-19         0.00000E+00
    0.59082E-08        -0.20096E-19         0.00000E+00
    0.62326E-08        -0.23057E-19         0.00000E+00
    0.65729E-08        -0.30424E-19         0.00000E+00
    0.69299E-08        -0.18626E-19         0.00000E+00
    0.73040E-08        -0.83819E-20         0.00000E+00
    0.76958E-08        -0.63539E-20         0.00000E+00
    0.81059E-08        -0.22352E-19         0.00000E+00
    0.85348E-08        -0.26077E-19         0.00000E+00
    0.89832E-08         0.46597E-20         0.00000E+00
    0.94516E-08        -0.37253E-20         0.00000E+00
    0.99405E-08        -0.14901E-19         0.00000E+00
    0.10450E-07        -0.74506E-20         0.00000E+00
    0.10982E-07        -0.74506E-20         0.00000E+00
    0.11535E-07         0.86170E-20         0.00000E+00
    0.12111E-07        -0.84571E-20         0.00000E+00
    0.12710E-07        -0.56807E-20         0.00000E+00
    0.13331E-07        -0.18626E-20         0.00000E+00
    0.13977E-07        -0.22829E-19         0.00000E+00
    0.14646E-07        -0.14901E-19         0.00000E+00
    0.15338E-07        -0.16764E-19         0.00000E+00
    0.16055E-07        -0.22219E-19         0.00000E+00
    0.16796E-07        -0.16764E-19         0.00000E+00
    0.17560E-07        -0.16764E-19         0.00000E+00
    0.18348E-07        -0.11078E-19         0.00000E+00
    0.19159E-07        -0.22352E-19         0.00000E+00
    0.19993E-07        -0.30734E-19         0.00000E+00
    0.20849E-07        -0.76805E-20         0.00000E+00
    0.21727E-07         0.37253E-20         0.00000E+00
    0.22625E-07         0.56862E-21         0.00000E+00
    0.23543E-07         0.37253E-20         0.00000E+00
    0.24479E-07         0.93132E-20         0.00000E+00
    0.25431E-07         0.79663E-20         0.00000E+00
    0.26399E-07         0.74506E-20         0.00000E+00
    0.27379E-07         0.19765E-19         0.00000E+00
    0.28370E-07         0.20489E-19         0.00000E+00
    0.29369E-07         0.22352E-19         0.00000E+00
    0.30374E-07         0.22352E-19         0.00000E+00
    0.31381E-07         0.31665E-19         0.00000E+00
    0.32387E-07         0.13970E-19         0.00000E+00
    0.33389E-07         0.15915E-19         0.00000E+00
    0.34383E-07         0.41106E-20         0.00000E+00
    0.35363E-07         0.99580E-21         0.00000E+00
    0.36327E-07         0.24646E-19         0.00000E+00
    0.37268E-07         0.26068E-19         0.00000E+00
    0.38183E-07         0.19025E-19         0.00000E+00
    0.39064E-07         0.18901E-19         0.00000E+00
    0.39907E-07         0.23528E-19         0.00000E+00
    0.40707E-07         0.16448E-19         0.00000E+00
    0.41456E-07         0.13039E-19         0.00000E+00
    0.42149E-07         0.26077E-19         0.00000E+00
    0.42779E-07         0.11698E-19         0.00000E+00
    0.43341E-07         0.21420E-19         0.00000E+00
    0.43830E-07         0.29802E-19         0.00000E+00
    0.44238E-07         0.18449E-19         0.00000E+00
    0.44562E-07         0.73229E-20         0.00000E+00
    0.44797E-07         0.20489E-19         0.00000E+00
    0.44939E-07        -0.74506E-20         0.00000E+00
    0.44987E-07         0.00000E+00         0.00000E+00
    0.91510E-09         0.18626E-20         0.00000E+00
    0.91687E-09         0.72717E-20         0.00000E+00
    0.92219E-09         0.16406E-19         0.00000E+00
    0.93107E-09        -0.21735E-21         0.00000E+00
    0.94355E-09        -0.53698E-20         0.00000E+00
    0.95967E-09         0.13039E-19         0.00000E+00
    0.97946E-09         0.88735E-20         0.00000E+00
    0.10030E-08         0.00000E+00         0.00000E+00
    0.10304E-08         0.13745E-20         0.00000E+00
    0.10616E-08         0.74506E-20         0.00000E+00
    0.10969E-08         0.24214E-19         0.00000E+00
    0.11362E-08         0.20489E-19         0.00000E+00
    0.11798E-08         0.14000E-19         0.00000E+00
    0.12278E-08         0.13039E-19         0.00000E+00
    0.12803E-08        -0.37253E-20         0.00000E+00
    0.13374E-08         0.16764E-19         0.00000E+00
    0.13993E-08         0.18614E-19         0.00000E+00
    0.14663E-08         0.21413E-19         0.00000E+00
    0.15385E-08         0.18626E-19         0.00000E+00
    0.16161E-08         0.21420E-19         0.00000E+00
    0.16994E-08         0.13039E-19         0.00000E+00
    0.17885E-08         0.93132E-20         0.00000E+00
    0.18838E-08         0.18626E-19         0.00000E+00
    0.19855E-08        -0.21420E-19         0.00000E+00
    0.20939E-08        -0.15900E-19         0.00000E+00
    0.22093E-08        -0.55879E-20         0.00000E+00
    0.23319E-08         0.55879E-20         0.00000E+00
    0.24622E-08        -0.24214E-19         0.00000E+00
    0.26004E-08        -0.14901E-19         0.00000E+00
    0.27470E-08        -0.16615E-19         0.00000E+00
    0.29022E-08        -0.14901E-19         0.00000E+00
    0.30665E-08        -0.24214E-19         0.00000E+00
    0.32403E-08        -0.20280E-19         0.00000E+00
    0.34240E-08        -0.33528E-19         0.00000E+00
    0.36180E-08        -0.25822E-19         0.00000E+00
    0.38228E-08        -0.29802E-19         0.00000E+00
    0.40389E-08         0.00000E+00         0.00000E+00
    0.42667E-08        -0.31665E-19         0.00000E+00
    0.45067E-08        -0.18626E-19         0.00000E+00
    0.47594E-08        -0.18231E-19         0.00000E+00
    0.50254E-08        -0.13970E-19         0.00000E+00
    0.53052E-08        -0.24214E-19         0.00000E+00
    0.55992E-08        -0.23283E-19         0.00000E+00
    0.59082E-08        -0.28333E-19         0.00000E+00
    0.62326E-08        -0.98921E-20         0.00000E+00
    0.65729E-08        -0.27940E-19         0.00000E+00
    0.69299E-08        -0.46566E-20         0.00000E+00
    0.73040E-08        -0.13254E-19         0.00000E+00
    0.76958E-08        -0.46566E-20         0.00000E+00
    0.81059E-08        -0.14901E-19         0.00000E+00
    0.85348E-08        -0.83819E-20         0.00000E+00
    0.89832E-08        -0.93163E-20         0.00000E+00
    0.94516E-08        -0.37253E-20         0.00000E+00
    0.99405E-08        -0.34638E-20         0.00000E+00
    0.10450E-07        -0.20489E-19         0.00000E+00
    0.10982E-07        -0.37253E-20         0.00000E+00
    0.11535E-07         0.00000E+00         0.00000E+00
    0.12111E-07        -0.73754E-20         0.00000E+00
    0.12710E-07         0.94060E-20         0.00000E+00
    0.13331E-07         0.55879E-20         0.00000E+00
    0.13977E-07        -0.13970E-19         0.00000E+00
    0.14646E-07        -0.55879E-20         0.00000E+00
    0.15338E-07        -0.14901E-19         0.00000E+00
    0.16055E-07        -0.14901E-19         0.00000E+00
    0.16796E-07        -0.22352E-19         0.00000E+00
    0.17560E-07        -0.22352E-19         0.00000E+00
    0.18348E-07        -0.11176E-19         0.00000E+00
    0.19159E-07        -0.18626E-19         0.00000E+00
    0.19993E-07        -0.21844E-19         0.00000E+00
    0.20849E-07        -0.16764E-19         0.00000E+00
    0.21727E-07         0.60252E-22         0.00000E+00
    0.22625E-07         0.14901E-19         0.00000E+00
    0.23543E-07         0.46566E-20         0.00000E+00
    0.24479E-07        -0.37253E-20         0.00000E+00
    0.25431E-07         0.15732E-19         0.00000E+00
    0.26399E-07         0.74506E-20         0.00000E+00
    0.27379E-07         0.16557E-19         0.00000E+00
    0.28370E-07         0.19558E-19         0.00000E+00
    0.29369E-07         0.22352E-19         0.00000E+00
    0.30374E-07         0.13039E-19         0.00000E+00
    0.31381E-07         0.16721E-19         0.00000E+00
    0.32387E-07         0.19162E-19         0.00000E+00
    0.33389E-07         0.37253E-20         0.00000E+00
    0.34383E-07         0.15447E-19         0.00000E+00
    0.35363E-07         0.17695E-19         0.00000E+00
    0.36327E-07         0.22352E-19         0.00000E+00
    0.37268E-07         0.14910E-19         0.00000E+00
    0.38183E-07         0.21953E-19         0.00000E+00
    0.39064E-07         0.20352E-19         0.00000E+00
    0.39907E-07         0.26077E-19         0.00000E+00
    0.40707E-07         0.20489E-19         0.00000E+00
    0.41456E-07         0.21420E-19         0.00000E+00
    0.42149E-07         0.37253E-20         0.00000E+00
    0.42779E-07         0.14379E-19         0.00000E+00
    0.43341E-07         0.22229E-19         0.00000E+00
    0.43830E-07         0.24214E-19         0.00000E+00
    0.44238E-07         0.18626E-19         0.00000E+00
    0.44562E-07         0.66469E-20         0.00000E+00
    0.44797E-07         0.20489E-19         0.00000E+00
    0.44939E-07        -0.93132E-21         0.00000E+00
    0.44987E-07         0.00000E+00         0.00000E+00
    0.91510E-09         0.00000E+00         0.00000E+00
    0.91687E-09         0.16011E-19         0.00000E+00
    0.92219E-09         0.96706E-20         0.00000E+00
    0.93107E-09         0.24370E-20         0.00000E+00
    0.94355E-09         0.15614E-19         0.00000E+00
    0.95967E-09         0.93132E-20         0.00000E+00
    0.97946E-09         0.21640E-19         0.00000E+00
    0.10030E-08        -0.18626E-20         0.00000E+00
    0.10304E-08        -0.44318E-21         0.00000E+00
    0.10616E-08         0.33528E-19         0.00000E+00
    0.10969E-08         0.29802E-19         0.00000E+00
    0.11362E-08         0.27940E-19         0.00000E+00
    0.11798E-08         0.21871E-19         0.00000E+00
    0.12278E-08         0.14901E-19         0.00000E+00
    0.12803E-08         0.13039E-19         0.00000E+00
    0.13374E-08         0.37423E-20         0.00000E+00
    0.13993E-08         0.27952E-19         0.00000E+00
    0.14663E-08         0.12115E-19         0.00000E+00
    0.15385E-08         0.20489E-19         0.00000E+00
    0.16161E-08         0.17692E-19         0.00000E+00
    0.16994E-08         0.14901E-19         0.00000E+00
    0.17885E-08         0.11161E-19         0.00000E+00
    0.18838E-08         0.74506E-20         0.00000E+00
    0.19855E-08        -0.84090E-20         0.00000E+00
    0.20939E-08        -0.74166E-20         0.00000E+00
    0.22093E-08         0.18626E-20         0.00000E+00
    0.23319E-08        -0.18626E-20         0.00000E+00
    0.24622E-08        -0.26077E-19         0.00000E+00
    0.26004E-08        -0.14901E-19         0.00000E+00
    0.27470E-08        -0.16913E-19         0.00000E+00
    0.29022E-08        -0.20657E-19         0.00000E+00
    0.30665E-08        -0.13039E-19         0.00000E+00
    0.32403E-08        -0.13248E-19         0.00000E+00
    0.34240E-08        -0.31896E-19         0.00000E+00
    0.36180E-08        -0.26332E-19         0.00000E+00
    0.38228E-08        -0.22632E-19         0.00000E+00
    0.40389E-08        -0.14901E-19         0.00000E+00
    0.42667E-08        -0.20489E-19         0.00000E+00
    0.45067E-08        -0.40892E-20         0.00000E+00
    0.47594E-08        -0.25541E-19         0.00000E+00
    0.50254E-08        -0.19986E-19         0.00000E+00
    0.53052E-08        -0.55879E-20         0.00000E+00
    0.55992E-08        -0.23782E-19         0.00000E+00
    0.59082E-08        -0.98513E-20         0.00000E+00
    0.62326E-08        -0.70982E-20         0.00000E+00
    0.65729E-08        -0.15832E-19         0.00000E+00
    0.69299E-08         0.30578E-20         0.00000E+00
    0.73040E-08        -0.90973E-20         0.00000E+00
    0.76958E-08         0.76595E-21         0.00000E+00
    0.81059E-08        -0.14901E-19         0.00000E+00
    0.85348E-08        -0.55319E-20         0.00000E+00
    0.89832E-08         0.00000E+00         0.00000E+00
    0.94516E-08         0.37253E-20         0.00000E+00
    0.99405E-08        -0.70422E-20         0.00000E+00
    0.10450E-07         0.00000E+00         0.00000E+00
    0.10982E-07         0.37253E-20         0.00000E+00
    0.11535E-07         0.00000E+00         0.00000E+00
    0.12111E-07         0.13039E-19         0.00000E+00
    0.12710E-07         0.92205E-20         0.00000E+00
    0.13331E-07         0.74506E-20         0.00000E+00
    0.13977E-07         0.16310E-19         0.00000E+00
    0.14646E-07        -0.55879E-20         0.00000E+00
    0.15338E-07        -0.45765E-20         0.00000E+00
    0.16055E-07        -0.16764E-19         0.00000E+00
    0.16796E-07        -0.93132E-20         0.00000E+00
    0.17560E-07        -0.20147E-19         0.00000E+00
    0.18348E-07        -0.16764E-19         0.00000E+00
    0.19159E-07        -0.20489E-19         0.00000E+00
    0.19993E-07        -0.13039E-19         0.00000E+00
    0.20849E-07        -0.72207E-20         0.00000E+00
    0.21727E-07        -0.65795E-20         0.00000E+00
    0.22625E-07         0.19558E-19         0.00000E+00
    0.23543E-07         0.23537E-19         0.00000E+00
    0.24479E-07         0.37253E-20         0.00000E+00
    0.25431E-07         0.22867E-19         0.00000E+00
    0.26399E-07         0.18788E-19         0.00000E+00
    0.27379E-07         0.14901E-19         0.00000E+00
    0.28370E-07         0.25488E-19         0.00000E+00
    0.29369E-07         0.33528E-19         0.00000E+00
    0.30374E-07         0.16764E-19         0.00000E+00
    0.31381E-07         0.17738E-19         0.00000E+00
    0.32387E-07         0.24214E-19         0.00000E+00
    0.33389E-07         0.14901E-19         0.00000E+00
    0.34383E-07         0.27940E-19         0.00000E+00
    0.35363E-07         0.37317E-19         0.00000E+00
    0.36327E-07         0.20489E-19         0.00000E+00
    0.37268E-07         0.25136E-19         0.00000E+00
    0.38183E-07         0.30600E-19         0.00000E+00
    0.39064E-07         0.32459E-19         0.00000E+00
    0.39907E-07         0.20489E-19         0.00000E+00
    0.40707E-07         0.24214E-19         0.00000E+00
    0.41456E-07         0.33485E-19         0.00000E+00
    0.42149E-07         0.17153E-19         0.00000E+00
    0.42779E-07         0.17695E-19         0.00000E+00
    0.43341E-07         0.16887E-19         0.00000E+00
    0.43830E-07         0.33480E-19         0.00000E+00
    0.44238E-07         0.14147E-19         0.00000E+00
    0.44562E-07         0.13039E-19         0.00000E+00
    0.44797E-07         0.14901E-19         0.00000E+00
    0.44939E-07         0.44491E-20         0.00000E+00
    0.44987E-07         0.00000E+00         0.00000E+00
    0.91510E-09        -0.18626E-20         0.00000E+00
    0.91687E-09         0.22173E-19         0.00000E+00
    0.92219E-09        -0.35739E-21         0.00000E+00
    0.93107E-09         0.17338E-19         0.00000E+00
    0.94355E-09         0.30020E-19         0.00000E+00
    0.95967E-09         0.18626E-19         0.00000E+00
    0.97946E-09         0.24434E-19         0.00000E+00
    0.10030E-08         0.55879E-20         0.00000E+00
    0.10304E-08         0.44318E-21         0.00000E+00
    0.10616E-08         0.44703E-19         0.00000E+00
    0.10969E-08         0.29802E-19         0.00000E+00
    0.11362E-08         0.31665E-19         0.00000E+00
    0.11798E-08         0.17215E-19         0.00000E+00
    0.12278E-08         0.13039E-19         0.00000E+00
    0.12803E-08         0.27940E-19         0.00000E+00
    0.13374E-08        -0.17023E-22         0.00000E+00
    0.13993E-08         0.26065E-19         0.00000E+00
    0.14663E-08         0.13039E-19         0.00000E+00
    0.15385E-08         0.26077E-19         0.00000E+00
    0.16161E-08         0.22355E-19         0.00000E+00
    0.16994E-08         0.18626E-19         0.00000E+00
    0.17885E-08         0.16778E-19         0.00000E+00
    0.18838E-08         0.55879E-20         0.00000E+00
    0.19855E-08         0.84361E-20         0.00000E+00
    0.20939E-08        -0.18287E-20         0.00000E+00
    0.22093E-08         0.74506E-20         0.00000E+00
    0.23319E-08        -0.14901E-19         0.00000E+00
    0.24622E-08        -0.74506E-20         0.00000E+00
    0.26004E-08        -0.14901E-19         0.00000E+00
    0.27470E-08        -0.55879E-20         0.00000E+00
    0.29022E-08        -0.24047E-19         0.00000E+00
    0.30665E-08        -0.18626E-19         0.00000E+00
    0.32403E-08        -0.53789E-20         0.00000E+00
    0.34240E-08        -0.33296E-19         0.00000E+00
    0.36180E-08        -0.37253E-19         0.00000E+00
    0.38228E-08        -0.27660E-19         0.00000E+00
    0.40389E-08        -0.18626E-19         0.00000E+00
    0.42667E-08        -0.11176E-19         0.00000E+00
    0.45067E-08         0.36387E-21         0.00000E+00
    0.47594E-08        -0.22352E-19         0.00000E+00
    0.50254E-08        -0.28368E-19         0.00000E+00
    0.53052E-08        -0.23752E-19         0.00000E+00
    0.55992E-08        -0.21852E-19         0.00000E+00
    0.59082E-08        -0.16764E-19         0.00000E+00
    0.62326E-08         0.18626E-20         0.00000E+00
    0.65729E-08        -0.23905E-19         0.00000E+00
    0.69299E-08        -0.83819E-20         0.00000E+00
    0.73040E-08        -0.11891E-19         0.00000E+00
    0.76958E-08         0.96440E-20         0.00000E+00
    0.81059E-08        -0.20489E-19         0.00000E+00
    0.85348E-08        -0.47126E-20         0.00000E+00
    0.89832E-08        -0.37253E-20         0.00000E+00
    0.94516E-08         0.37253E-20         0.00000E+00
    0.99405E-08        -0.10914E-19         0.00000E+00
    0.10450E-07         0.37253E-20         0.00000E+00
    0.10982E-07         0.11176E-19         0.00000E+00
    0.11535E-07        -0.18626E-20         0.00000E+00
    0.12111E-07         0.13039E-19         0.00000E+00
    0.12710E-07         0.74506E-20         0.00000E+00
    0.13331E-07         0.49256E-20         0.00000E+00
    0.13977E-07         0.20943E-19         0.00000E+00
    0.14646E-07        -0.55879E-20         0.00000E+00
    0.15338E-07        -0.12187E-19         0.00000E+00
    0.16055E-07        -0.35390E-19         0.00000E+00
    0.16796E-07        -0.21420E-19         0.00000E+00
    0.17560E-07        -0.24557E-19         0.00000E+00
    0.18348E-07        -0.29802E-19         0.00000E+00
    0.19159E-07        -0.18626E-19         0.00000E+00
    0.19993E-07        -0.13970E-19         0.00000E+00
    0.20849E-07        -0.11176E-19         0.00000E+00
    0.21727E-07        -0.12047E-19         0.00000E+00
    0.22625E-07        -0.61566E-20         0.00000E+00
    0.23543E-07         0.33274E-19         0.00000E+00
    0.24479E-07         0.37253E-20         0.00000E+00
    0.25431E-07         0.22352E-19         0.00000E+00
    0.26399E-07         0.14740E-19         0.00000E+00
    0.27379E-07         0.26077E-19         0.00000E+00
    0.28370E-07        -0.22048E-20         0.00000E+00
    0.29369E-07         0.37253E-19         0.00000E+00
    0.30374E-07         0.20025E-19         0.00000E+00
    0.31381E-07         0.23326E-19         0.00000E+00
    0.32387E-07         0.13039E-19         0.00000E+00
    0.33389E-07         0.93132E-20         0.00000E+00
    0.34383E-07         0.38184E-19         0.00000E+00
    0.35363E-07         0.16699E-19         0.00000E+00
    0.36327E-07         0.12607E-19         0.00000E+00
    0.37268E-07         0.24214E-19         0.00000E+00
    0.38183E-07         0.37253E-19         0.00000E+00
    0.39064E-07         0.30734E-19         0.00000E+00
    0.39907E-07         0.20489E-19         0.00000E+00
    0.40707E-07         0.31349E-19         0.00000E+00
    0.41456E-07         0.36406E-19         0.00000E+00
    0.42149E-07         0.23283E-19         0.00000E+00
    0.42779E-07         0.15423E-19         0.00000E+00
    0.43341E-07         0.85048E-20         0.00000E+00
    0.43830E-07         0.21420E-19         0.00000E+00
    0.44238E-07         0.21997E-19         0.00000E+00
    0.44562E-07         0.15832E-19         0.00000E+00
    0.44797E-07         0.37253E-20         0.00000E+00
    0.44939E-07        -0.16551E-20         0.00000E+00
    0.44987E-07         0.00000E+00         0.00000E+00
    0.91510E-09         0.00000E+00         0.00000E+00
    0.91687E-09         0.14901E-19         0.00000E+00
    0.92219E-09         0.18626E-20         0.00000E+00
    0.93107E-09         0.26077E-19         0.00000E+00
    0.94355E-09         0.14901E-19         0.00000E+00
    0.95967E-09         0.22352E-19         0.00000E+00
    0.97946E-09         0.13039E-19         0.00000E+00
    0.10030E-08         0.93132E-20         0.00000E+00
    0.10304E-08         0.37253E-20         0.00000E+00
    0.10616E-08         0.27940E-19         0.00000E+00
    0.10969E-08         0.31665E-19         0.00000E+00
    0.11362E-08         0.10693E-19         0.00000E+00
    0.11798E-08         0.18626E-19         0.00000E+00
    0.12278E-08         0.16764E-19         0.00000E+00
    0.12803E-08         0.26077E-19         0.00000E+00
    0.13374E-08         0.24231E-19         0.00000E+00
    0.13993E-08         0.55879E-20         0.00000E+00
    0.14663E-08         0.16756E-19         0.00000E+00
    0.15385E-08         0.31665E-19         0.00000E+00
    0.16161E-08         0.32599E-19         0.00000E+00
    0.16994E-08         0.93132E-20         0.00000E+00
    0.17885E-08         0.18612E-19         0.00000E+00
    0.18838E-08         0.95190E-21         0.00000E+00
    0.19855E-08         0.90423E-21         0.00000E+00
    0.20939E-08        -0.55879E-20         0.00000E+00
    0.22093E-08         0.55467E-20         0.00000E+00
    0.23319E-08        -0.13039E-19         0.00000E+00
    0.24622E-08        -0.12925E-19         0.00000E+00
    0.26004E-08         0.00000E+00         0.00000E+00
    0.27470E-08        -0.16615E-19         0.00000E+00
    0.29022E-08        -0.20657E-19         0.00000E+00
    0.30665E-08        -0.18814E-19         0.00000E+00
    0.32403E-08        -0.20489E-19         0.00000E+00
    0.34240E-08        -0.39116E-19         0.00000E+00
    0.36180E-08        -0.33273E-19         0.00000E+00
    0.38228E-08        -0.43121E-19         0.00000E+00
    0.40389E-08        -0.16764E-19         0.00000E+00
    0.42667E-08        -0.93132E-20         0.00000E+00
    0.45067E-08        -0.10812E-19         0.00000E+00
    0.47594E-08        -0.26077E-19         0.00000E+00
    0.50254E-08        -0.34962E-19         0.00000E+00
    0.53052E-08        -0.31665E-19         0.00000E+00
    0.55992E-08        -0.19558E-19         0.00000E+00
    0.59082E-08        -0.22352E-19         0.00000E+00
    0.62326E-08        -0.10018E-19         0.00000E+00
    0.65729E-08        -0.20798E-19         0.00000E+00
    0.69299E-08        -0.22616E-19         0.00000E+00
    0.73040E-08        -0.46566E-20         0.00000E+00
    0.76958E-08         0.33945E-20         0.00000E+00
    0.81059E-08        -0.27940E-19         0.00000E+00
    0.85348E-08        -0.74506E-20         0.00000E+00
    0.89832E-08        -0.15829E-19         0.00000E+00
    0.94516E-08        -0.13039E-19         0.00000E+00
    0.99405E-08        -0.74506E-20         0.00000E+00
    0.10450E-07        -0.93132E-20         0.00000E+00
    0.10982E-07         0.18626E-20         0.00000E+00
    0.11535E-07        -0.93132E-20         0.00000E+00
    0.12111E-07        -0.65945E-20         0.00000E+00
    0.12710E-07        -0.37253E-20         0.00000E+00
    0.13331E-07        -0.30630E-20         0.00000E+00
    0.13977E-07         0.15379E-19         0.00000E+00
    0.14646E-07        -0.74506E-20         0.00000E+00
    0.15338E-07        -0.20489E-19         0.00000E+00
    0.16055E-07        -0.33528E-19         0.00000E+00
    0.16796E-07        -0.44348E-19         0.00000E+00
    0.17560E-07        -0.33528E-19         0.00000E+00
    0.18348E-07        -0.39116E-19         0.00000E+00
    0.19159E-07        -0.13039E-19         0.00000E+00
    0.19993E-07        -0.17272E-19         0.00000E+00
    0.20849E-07        -0.18856E-19         0.00000E+00
    0.21727E-07        -0.83819E-20         0.00000E+00
    0.22625E-07        -0.93132E-20         0.00000E+00
    0.23543E-07         0.21420E-19         0.00000E+00
    0.24479E-07         0.37253E-20         0.00000E+00
    0.25431E-07         0.93132E-20         0.00000E+00
    0.26399E-07         0.48178E-20         0.00000E+00
    0.27379E-07         0.26077E-19         0.00000E+00
    0.28370E-07         0.00000E+00         0.00000E+00
    0.29369E-07         0.14901E-19         0.00000E+00
    0.30374E-07         0.24211E-19         0.00000E+00
    0.31381E-07         0.26034E-19         0.00000E+00
    0.32387E-07         0.37253E-20         0.00000E+00
    0.33389E-07         0.82998E-20         0.00000E+00
    0.34383E-07         0.28325E-19         0.00000E+00
    0.35363E-07         0.19493E-19         0.00000E+00
    0.36327E-07        -0.37253E-20         0.00000E+00
    0.37268E-07         0.23283E-19         0.00000E+00
    0.38183E-07         0.26609E-19         0.00000E+00
    0.39064E-07         0.23557E-19         0.00000E+00
    0.39907E-07         0.25146E-19         0.00000E+00
    0.40707E-07         0.39432E-19         0.00000E+00
    0.41456E-07         0.26077E-19         0.00000E+00
    0.42149E-07         0.11718E-19         0.00000E+00
    0.42779E-07         0.17173E-19         0.00000E+00
    0.43341E-07         0.83819E-20         0.00000E+00
    0.43830E-07         0.84291E-20         0.00000E+00
    0.44238E-07         0.32951E-19         0.00000E+00
    0.44562E-07         0.73229E-20         0.00000E+00
    0.44797E-07         0.37253E-20         0.00000E+00
    0.44939E-07         0.00000E+00         0.00000E+00
    0.44987E-07         0.00000E+00         0.00000E+00
    0.91510E-09         0.00000E+00         0.00000E+00
    0.91687E-09        -0.55879E-20         0.00000E+00
    0.92219E-09         0.93132E-20         0.00000E+00
    0.93107E-09         0.22352E-19         0.00000E+00
    0.94355E-09        -0.18626E-20         0.00000E+00
    0.95967E-09         0.11176E-19         0.00000E+00
    0.97946E-09        -0.46566E-20         0.00000E+00
    0.10030E-08        -0.18626E-20         0.00000E+00
    0.10304E-08         0.22352E-19         0.00000E+00
    0.10616E-08         0.16764E-19         0.00000E+00
    0.10969E-08         0.18626E-19         0.00000E+00
    0.11362E-08         0.46904E-20         0.00000E+00
    0.11798E-08         0.25146E-19         0.00000E+00
    0.12278E-08         0.55879E-20         0.00000E+00
    0.12803E-08         0.26077E-19         0.00000E+00
    0.13374E-08         0.12107E-19         0.00000E+00
    0.13993E-08         0.74506E-20         0.00000E+00
    0.14663E-08         0.17703E-19         0.00000E+00
    0.15385E-08         0.29802E-19         0.00000E+00
    0.16161E-08         0.23280E-19         0.00000E+00
    0.16994E-08         0.37253E-20         0.00000E+00
    0.17885E-08         0.55879E-20         0.00000E+00
    0.18838E-08         0.18215E-20         0.00000E+00
    0.19855E-08         0.37524E-20         0.00000E+00
    0.20939E-08        -0.18626E-20         0.00000E+00
    0.22093E-08        -0.10245E-19         0.00000E+00
    0.23319E-08         0.74506E-20         0.00000E+00
    0.24622E-08        -0.22466E-19         0.00000E+00
    0.26004E-08        -0.13039E-19         0.00000E+00
    0.27470E-08        -0.31665E-19         0.00000E+00
    0.29022E-08        -0.14901E-19         0.00000E+00
    0.30665E-08         0.00000E+00         0.00000E+00
    0.32403E-08        -0.20489E-19         0.00000E+00
    0.34240E-08        -0.16764E-19         0.00000E+00
    0.36180E-08        -0.31920E-19         0.00000E+00
    0.38228E-08        -0.46286E-19         0.00000E+00
    0.40389E-08        -0.31665E-19         0.00000E+00
    0.42667E-08        -0.14901E-19         0.00000E+00
    0.45067E-08        -0.17128E-19         0.00000E+00
    0.47594E-08        -0.19558E-19         0.00000E+00
    0.50254E-08        -0.42841E-19         0.00000E+00
    0.53052E-08        -0.31665E-19         0.00000E+00
    0.55992E-08        -0.32164E-19         0.00000E+00
    0.59082E-08        -0.27402E-19         0.00000E+00
    0.62326E-08        -0.15128E-19         0.00000E+00
    0.65729E-08        -0.16142E-19         0.00000E+00
    0.69299E-08        -0.29538E-19         0.00000E+00
    0.73040E-08        -0.11392E-19         0.00000E+00
    0.76958E-08        -0.18626E-19         0.00000E+00
    0.81059E-08        -0.31665E-19         0.00000E+00
    0.85348E-08        -0.13039E-19         0.00000E+00
    0.89832E-08        -0.16767E-19         0.00000E+00
    0.94516E-08        -0.26077E-19         0.00000E+00
    0.99405E-08         0.00000E+00         0.00000E+00
    0.10450E-07         0.27940E-20         0.00000E+00
    0.10982E-07        -0.26077E-19         0.00000E+00
    0.11535E-07        -0.18626E-20         0.00000E+00
    0.12111E-07        -0.36501E-20         0.00000E+00
    0.12710E-07        -0.55879E-20         0.00000E+00
    0.13331E-07        -0.20220E-19         0.00000E+00
    0.13977E-07         0.93132E-21         0.00000E+00
    0.14646E-07        -0.16764E-19         0.00000E+00
    0.15338E-07        -0.18626E-19         0.00000E+00
    0.16055E-07        -0.31665E-19         0.00000E+00
    0.16796E-07        -0.28295E-19         0.00000E+00
    0.17560E-07        -0.37253E-19         0.00000E+00
    0.18348E-07        -0.22352E-19         0.00000E+00
    0.19159E-07        -0.17695E-19         0.00000E+00
    0.19993E-07        -0.11176E-19         0.00000E+00
    0.20849E-07        -0.13039E-19         0.00000E+00
    0.21727E-07        -0.10305E-19         0.00000E+00
    0.22625E-07        -0.37253E-20         0.00000E+00
    0.23543E-07         0.49102E-20         0.00000E+00
    0.24479E-07         0.18626E-19         0.00000E+00
    0.25431E-07        -0.74506E-20         0.00000E+00
    0.26399E-07         0.15671E-19         0.00000E+00
    0.27379E-07         0.55879E-20         0.00000E+00
    0.28370E-07         0.13039E-19         0.00000E+00
    0.29369E-07        -0.18626E-20         0.00000E+00
    0.30374E-07         0.18626E-19         0.00000E+00
    0.31381E-07         0.13039E-19         0.00000E+00
    0.32387E-07         0.18626E-19         0.00000E+00
    0.33389E-07         0.19640E-19         0.00000E+00
    0.34383E-07         0.21966E-19         0.00000E+00
    0.35363E-07         0.26077E-19         0.00000E+00
    0.36327E-07         0.55879E-20         0.00000E+00
    0.37268E-07         0.21430E-19         0.00000E+00
    0.38183E-07         0.32064E-19         0.00000E+00
    0.39064E-07         0.40704E-19         0.00000E+00
    0.39907E-07         0.40733E-19         0.00000E+00
    0.40707E-07         0.35706E-19         0.00000E+00
    0.41456E-07         0.24130E-19         0.00000E+00
    0.42149E-07         0.14359E-19         0.00000E+00
    0.42779E-07        -0.20471E-21         0.00000E+00
    0.43341E-07         0.29679E-19         0.00000E+00
    0.43830E-07         0.13039E-19         0.00000E+00
    0.44238E-07         0.33528E-19         0.00000E+00
    0.44562E-07         0.47843E-20         0.00000E+00
    0.44797E-07         0.37253E-20         0.00000E+00
    0.44939E-07         0.14901E-19         0.00000E+00
    0.44987E-07        -0.18626E-20         0.00000E+00
    0.91510E-09         0.00000E+00         0.00000E+00
    0.91687E-09        -0.37253E-20         0.00000E+00
    0.92219E-09         0.55879E-20         0.00000E+00
    0.93107E-09         0.89562E-20         0.00000E+00
    0.94355E-09        -0.18626E-20         0.00000E+00
    0.95967E-09         0.93132E-20         0.00000E+00
    0.97946E-09        -0.16428E-20         0.00000E+00
    0.10030E-08         0.37253E-20         0.00000E+00
    0.10304E-08         0.39116E-19         0.00000E+00
    0.10616E-08         0.18626E-19         0.00000E+00
    0.10969E-08        -0.18626E-20         0.00000E+00
    0.11362E-08         0.25594E-19         0.00000E+00
    0.11798E-08         0.24665E-19         0.00000E+00
    0.12278E-08         0.55879E-20         0.00000E+00
    0.12803E-08         0.22352E-19         0.00000E+00
    0.13374E-08         0.13953E-19         0.00000E+00
    0.13993E-08         0.93132E-20         0.00000E+00
    0.14663E-08         0.12100E-19         0.00000E+00
    0.15385E-08         0.20489E-19         0.00000E+00
    0.16161E-08         0.14901E-19         0.00000E+00
    0.16994E-08         0.14901E-19         0.00000E+00
    0.17885E-08         0.27940E-20         0.00000E+00
    0.18838E-08         0.32617E-19         0.00000E+00
    0.19855E-08         0.18626E-20         0.00000E+00
    0.20939E-08         0.84159E-20         0.00000E+00
    0.22093E-08        -0.27528E-20         0.00000E+00
    0.23319E-08         0.74506E-20         0.00000E+00
    0.24622E-08        -0.11176E-19         0.00000E+00
    0.26004E-08        -0.37253E-20         0.00000E+00
    0.27470E-08        -0.27940E-19         0.00000E+00
    0.29022E-08         0.57557E-20         0.00000E+00
    0.30665E-08        -0.72628E-20         0.00000E+00
    0.32403E-08         0.37253E-20         0.00000E+00
    0.34240E-08        -0.20258E-19         0.00000E+00
    0.36180E-08        -0.71955E-20         0.00000E+00
    0.38228E-08        -0.29802E-19         0.00000E+00
    0.40389E-08        -0.27940E-19         0.00000E+00
    0.42667E-08        -0.13039E-19         0.00000E+00
    0.45067E-08        -0.27940E-19         0.00000E+00
    0.47594E-08        -0.31270E-19         0.00000E+00
    0.50254E-08        -0.38688E-19         0.00000E+00
    0.53052E-08        -0.39116E-19         0.00000E+00
    0.55992E-08        -0.35390E-19         0.00000E+00
    0.59082E-08        -0.24752E-19         0.00000E+00
    0.62326E-08        -0.25675E-20         0.00000E+00
    0.65729E-08        -0.32596E-19         0.00000E+00
    0.69299E-08        -0.13566E-19         0.00000E+00
    0.73040E-08        -0.25362E-19         0.00000E+00
    0.76958E-08        -0.26077E-19         0.00000E+00
    0.81059E-08        -0.93132E-20         0.00000E+00
    0.85348E-08        -0.23283E-19         0.00000E+00
    0.89832E-08        -0.27005E-19         0.00000E+00
    0.94516E-08        -0.18626E-19         0.00000E+00
    0.99405E-08        -0.83819E-20         0.00000E+00
    0.10450E-07         0.13305E-20         0.00000E+00
    0.10982E-07        -0.13039E-19         0.00000E+00
    0.11535E-07         0.55879E-20         0.00000E+00
    0.12111E-07         0.83067E-20         0.00000E+00
    0.12710E-07         0.56807E-20         0.00000E+00
    0.13331E-07        -0.74506E-20         0.00000E+00
    0.13977E-07        -0.11653E-19         0.00000E+00
    0.14646E-07        -0.11176E-19         0.00000E+00
    0.15338E-07         0.00000E+00         0.00000E+00
    0.16055E-07        -0.26077E-19         0.00000E+00
    0.16796E-07        -0.89574E-20         0.00000E+00
    0.17560E-07        -0.17106E-19         0.00000E+00
    0.18348E-07        -0.26077E-19         0.00000E+00
    0.19159E-07        -0.13813E-19         0.00000E+00
    0.19993E-07        -0.55879E-20         0.00000E+00
    0.20849E-07         0.00000E+00         0.00000E+00
    0.21727E-07        -0.11116E-19         0.00000E+00
    0.22625E-07         0.93132E-20         0.00000E+00
    0.23543E-07        -0.13292E-19         0.00000E+00
    0.24479E-07         0.16764E-19         0.00000E+00
    0.25431E-07         0.55879E-20         0.00000E+00
    0.26399E-07         0.74506E-20         0.00000E+00
    0.27379E-07         0.37253E-20         0.00000E+00
    0.28370E-07         0.16764E-19         0.00000E+00
    0.29369E-07         0.18626E-20         0.00000E+00
    0.30374E-07         0.15832E-19         0.00000E+00
    0.31381E-07        -0.27940E-20         0.00000E+00
    0.32387E-07         0.30734E-19         0.00000E+00
    0.33389E-07         0.16682E-19         0.00000E+00
    0.34383E-07         0.22737E-19         0.00000E+00
    0.35363E-07         0.23283E-19         0.00000E+00
    0.36327E-07         0.11607E-19         0.00000E+00
    0.37268E-07         0.19548E-19         0.00000E+00
    0.38183E-07         0.29936E-19         0.00000E+00
    0.39064E-07         0.35665E-19         0.00000E+00
    0.39907E-07         0.45390E-19         0.00000E+00
    0.40707E-07         0.33528E-19         0.00000E+00
    0.41456E-07         0.13081E-19         0.00000E+00
    0.42149E-07         0.12259E-19         0.00000E+00
    0.42779E-07         0.11381E-19         0.00000E+00
    0.43341E-07         0.28748E-19         0.00000E+00
    0.43830E-07         0.16764E-19         0.00000E+00
    0.44238E-07         0.18626E-19         0.00000E+00
    0.44562E-07         0.54602E-20         0.00000E+00
    0.44797E-07        -0.55879E-20         0.00000E+00
    0.44939E-07         0.11176E-19         0.00000E+00
    0.44987E-07         0.16909E-20         0.00000E+00
    0.91510E-09         0.00000E+00         0.00000E+00
    0.91687E-09         0.74506E-20         0.00000E+00
    0.92219E-09         0.37253E-20         0.00000E+00
    0.93107E-09        -0.33683E-20         0.00000E+00
    0.94355E-09         0.93132E-20         0.00000E+00
    0.95967E-09         0.93132E-20         0.00000E+00
    0.97946E-09         0.15613E-19         0.00000E+00
    0.10030E-08         0.13039E-19         0.00000E+00
    0.10304E-08         0.40978E-19         0.00000E+00
    0.10616E-08         0.20489E-19         0.00000E+00
    0.10969E-08         0.18626E-20         0.00000E+00
    0.11362E-08         0.30251E-19         0.00000E+00
    0.11798E-08         0.97938E-20         0.00000E+00
    0.12278E-08         0.33502E-19         0.00000E+00
    0.12803E-08         0.18626E-20         0.00000E+00
    0.13374E-08         0.33528E-19         0.00000E+00
    0.13993E-08         0.11176E-19         0.00000E+00
    0.14663E-08         0.13970E-19         0.00000E+00
    0.15385E-08         0.18626E-19         0.00000E+00
    0.16161E-08         0.11176E-19         0.00000E+00
    0.16994E-08         0.20489E-19         0.00000E+00
    0.17885E-08         0.93420E-20         0.00000E+00
    0.18838E-08         0.27029E-19         0.00000E+00
    0.19855E-08        -0.11203E-19         0.00000E+00
    0.20939E-08         0.46227E-20         0.00000E+00
    0.22093E-08         0.11176E-19         0.00000E+00
    0.23319E-08        -0.11078E-19         0.00000E+00
    0.24622E-08         0.55879E-20         0.00000E+00
    0.26004E-08        -0.37253E-20         0.00000E+00
    0.27470E-08        -0.26077E-19         0.00000E+00
    0.29022E-08         0.74506E-20         0.00000E+00
    0.30665E-08        -0.22164E-19         0.00000E+00
    0.32403E-08        -0.55879E-20         0.00000E+00
    0.34240E-08        -0.18626E-19         0.00000E+00
    0.36180E-08         0.18626E-20         0.00000E+00
    0.38228E-08        -0.22352E-19         0.00000E+00
    0.40389E-08        -0.16764E-19         0.00000E+00
    0.42667E-08        -0.14901E-19         0.00000E+00
    0.45067E-08        -0.39116E-19         0.00000E+00
    0.47594E-08        -0.29266E-19         0.00000E+00
    0.50254E-08        -0.33528E-19         0.00000E+00
    0.53052E-08        -0.42841E-19         0.00000E+00
    0.55992E-08        -0.29303E-19         0.00000E+00
    0.59082E-08        -0.16619E-19         0.00000E+00
    0.62326E-08        -0.10245E-19         0.00000E+00
    0.65729E-08        -0.29493E-19         0.00000E+00
    0.69299E-08        -0.93132E-20         0.00000E+00
    0.73040E-08        -0.18626E-19         0.00000E+00
    0.76958E-08        -0.27940E-19         0.00000E+00
    0.81059E-08        -0.37253E-20         0.00000E+00
    0.85348E-08        -0.31721E-19         0.00000E+00
    0.89832E-08        -0.33531E-19         0.00000E+00
    0.94516E-08        -0.13039E-19         0.00000E+00
    0.99405E-08        -0.17434E-19         0.00000E+00
    0.10450E-07        -0.30734E-19         0.00000E+00
    0.10982E-07         0.14901E-19         0.00000E+00
    0.11535E-07         0.16275E-20         0.00000E+00
    0.12111E-07        -0.37253E-20         0.00000E+00
    0.12710E-07         0.37253E-20         0.00000E+00
    0.13331E-07         0.22352E-19         0.00000E+00
    0.13977E-07         0.00000E+00         0.00000E+00
    0.14646E-07        -0.13322E-19         0.00000E+00
    0.15338E-07        -0.37253E-20         0.00000E+00
    0.16055E-07         0.18626E-20         0.00000E+00
    0.16796E-07        -0.14326E-19         0.00000E+00
    0.17560E-07        -0.18284E-19         0.00000E+00
    0.18348E-07        -0.28038E-19         0.00000E+00
    0.19159E-07        -0.21420E-19         0.00000E+00
    0.19993E-07        -0.10245E-19         0.00000E+00
    0.20849E-07        -0.55879E-20         0.00000E+00
    0.21727E-07        -0.93132E-20         0.00000E+00
    0.22625E-07        -0.37253E-20         0.00000E+00
    0.23543E-07        -0.13039E-19         0.00000E+00
    0.24479E-07         0.74506E-20         0.00000E+00
    0.25431E-07         0.55879E-20         0.00000E+00
    0.26399E-07        -0.74506E-20         0.00000E+00
    0.27379E-07         0.37253E-20         0.00000E+00
    0.28370E-07         0.74506E-20         0.00000E+00
    0.29369E-07        -0.55879E-20         0.00000E+00
    0.30374E-07         0.97804E-20         0.00000E+00
    0.31381E-07         0.46139E-20         0.00000E+00
    0.32387E-07         0.16229E-19         0.00000E+00
    0.33389E-07         0.93954E-20         0.00000E+00
    0.34383E-07         0.15447E-19         0.00000E+00
    0.35363E-07         0.45921E-20         0.00000E+00
    0.36327E-07         0.11176E-19         0.00000E+00
    0.37268E-07         0.93318E-20         0.00000E+00
    0.38183E-07         0.97122E-20         0.00000E+00
    0.39064E-07         0.10245E-19         0.00000E+00
    0.39907E-07         0.37253E-19         0.00000E+00
    0.40707E-07         0.27624E-19         0.00000E+00
    0.41456E-07        -0.37675E-20         0.00000E+00
    0.42149E-07         0.93132E-20         0.00000E+00
    0.42779E-07         0.14901E-19         0.00000E+00
    0.43341E-07         0.16764E-19         0.00000E+00
    0.43830E-07         0.16764E-19         0.00000E+00
    0.44238E-07         0.14901E-19         0.00000E+00
    0.44562E-07         0.18626E-19         0.00000E+00
    0.44797E-07        -0.18626E-20         0.00000E+00
    0.44939E-07         0.00000E+00         0.00000E+00
    0.44987E-07         0.17174E-21         0.00000E+00
    0.91510E-09         0.00000E+00         0.00000E+00
    0.91687E-09         0.37253E-20         0.00000E+00
    0.92219E-09         0.37253E-20         0.00000E+00
    0.93107E-09        -0.65193E-20         0.00000E+00
    0.94355E-09         0.14901E-19         0.00000E+00
    0.95967E-09         0.16764E-19         0.00000E+00
    0.97946E-09         0.93132E-20         0.00000E+00
    0.10030E-08         0.11176E-19         0.00000E+00
    0.10304E-08         0.26077E-19         0.00000E+00
    0.10616E-08         0.24214E-19         0.00000E+00
    0.10969E-08         0.20489E-19         0.00000E+00
    0.11362E-08         0.20523E-19         0.00000E+00
    0.11798E-08         0.46566E-20         0.00000E+00
    0.12278E-08         0.31691E-19         0.00000E+00
    0.12803E-08        -0.13039E-19         0.00000E+00
    0.13374E-08         0.12107E-19         0.00000E+00
    0.13993E-08         0.18626E-19         0.00000E+00
    0.14663E-08         0.16771E-19         0.00000E+00
    0.15385E-08         0.18626E-19         0.00000E+00
    0.16161E-08         0.18626E-20         0.00000E+00
    0.16994E-08         0.20489E-19         0.00000E+00
    0.17885E-08         0.10216E-19         0.00000E+00
    0.18838E-08         0.89018E-21         0.00000E+00
    0.19855E-08        -0.18626E-20         0.00000E+00
    0.20939E-08         0.18626E-20         0.00000E+00
    0.22093E-08         0.93132E-20         0.00000E+00
    0.23319E-08        -0.56856E-20         0.00000E+00
    0.24622E-08        -0.74506E-20         0.00000E+00
    0.26004E-08        -0.93132E-20         0.00000E+00
    0.27470E-08        -0.20638E-19         0.00000E+00
    0.29022E-08        -0.93132E-20         0.00000E+00
    0.30665E-08        -0.15089E-19         0.00000E+00
    0.32403E-08        -0.20489E-19         0.00000E+00
    0.34240E-08         0.16312E-20         0.00000E+00
    0.36180E-08        -0.18882E-19         0.00000E+00
    0.38228E-08        -0.18626E-20         0.00000E+00
    0.40389E-08        -0.26077E-19         0.00000E+00
    0.42667E-08        -0.27940E-19         0.00000E+00
    0.45067E-08        -0.31665E-19         0.00000E+00
    0.47594E-08        -0.29802E-19         0.00000E+00
    0.50254E-08        -0.48429E-19         0.00000E+00
    0.53052E-08        -0.39116E-19         0.00000E+00
    0.55992E-08        -0.38684E-19         0.00000E+00
    0.59082E-08        -0.31810E-19         0.00000E+00
    0.62326E-08        -0.35969E-19         0.00000E+00
    0.65729E-08        -0.19867E-19         0.00000E+00
    0.69299E-08        -0.28871E-19         0.00000E+00
    0.73040E-08        -0.24214E-19         0.00000E+00
    0.76958E-08        -0.32596E-19         0.00000E+00
    0.81059E-08        -0.29802E-19         0.00000E+00
    0.85348E-08        -0.28815E-19         0.00000E+00
    0.89832E-08        -0.29802E-19         0.00000E+00
    0.94516E-08        -0.29802E-19         0.00000E+00
    0.99405E-08        -0.19558E-19         0.00000E+00
    0.10450E-07        -0.31133E-19         0.00000E+00
    0.10982E-07        -0.18626E-20         0.00000E+00
    0.11535E-07        -0.10941E-19         0.00000E+00
    0.12111E-07        -0.73754E-20         0.00000E+00
    0.12710E-07        -0.37253E-20         0.00000E+00
    0.13331E-07         0.46566E-20         0.00000E+00
    0.13977E-07         0.00000E+00         0.00000E+00
    0.14646E-07        -0.10892E-19         0.00000E+00
    0.15338E-07        -0.16764E-19         0.00000E+00
    0.16055E-07         0.37253E-20         0.00000E+00
    0.16796E-07        -0.20489E-19         0.00000E+00
    0.17560E-07        -0.29802E-19         0.00000E+00
    0.18348E-07        -0.25979E-19         0.00000E+00
    0.19159E-07        -0.24371E-19         0.00000E+00
    0.19993E-07        -0.19050E-19         0.00000E+00
    0.20849E-07        -0.24214E-19         0.00000E+00
    0.21727E-07        -0.74506E-20         0.00000E+00
    0.22625E-07        -0.74506E-20         0.00000E+00
    0.23543E-07        -0.55879E-20         0.00000E+00
    0.24479E-07        -0.18626E-20         0.00000E+00
    0.25431E-07        -0.55879E-20         0.00000E+00
    0.26399E-07        -0.93132E-20         0.00000E+00
    0.27379E-07         0.37253E-20         0.00000E+00
    0.28370E-07        -0.18626E-20         0.00000E+00
    0.29369E-07        -0.37253E-20         0.00000E+00
    0.30374E-07         0.11176E-19         0.00000E+00
    0.31381E-07         0.93559E-20         0.00000E+00
    0.32387E-07        -0.41214E-20         0.00000E+00
    0.33389E-07        -0.74506E-20         0.00000E+00
    0.34383E-07         0.14901E-19         0.00000E+00
    0.35363E-07        -0.63903E-20         0.00000E+00
    0.36327E-07         0.20989E-19         0.00000E+00
    0.37268E-07         0.46380E-20         0.00000E+00
    0.38183E-07         0.10644E-19         0.00000E+00
    0.39064E-07         0.11970E-19         0.00000E+00
    0.39907E-07         0.36322E-19         0.00000E+00
    0.40707E-07         0.15217E-19         0.00000E+00
    0.41456E-07         0.18626E-20         0.00000E+00
    0.42149E-07         0.12107E-19         0.00000E+00
    0.42779E-07         0.18626E-19         0.00000E+00
    0.43341E-07         0.16764E-19         0.00000E+00
    0.43830E-07         0.18626E-19         0.00000E+00
    0.44238E-07         0.19558E-19         0.00000E+00
    0.44562E-07         0.29802E-19         0.00000E+00
    0.44797E-07         0.18626E-20         0.00000E+00
    0.44939E-07         0.13039E-19         0.00000E+00
    0.44987E-07         0.00000E+00         0.00000E+00
    0.91510E-09         0.00000E+00         0.00000E+00
    0.91687E-09         0.37253E-20         0.00000E+00
    0.92219E-09         0.13039E-19         0.00000E+00
    0.93107E-09        -0.13613E-19         0.00000E+00
    0.94355E-09         0.29802E-19         0.00000E+00
    0.95967E-09         0.74506E-20         0.00000E+00
    0.97946E-09         0.14681E-19         0.00000E+00
    0.10030E-08         0.35390E-19         0.00000E+00
    0.10304E-08         0.22352E-19         0.00000E+00
    0.10616E-08         0.16764E-19         0.00000E+00
    0.10969E-08         0.35390E-19         0.00000E+00
    0.11362E-08        -0.60705E-20         0.00000E+00
    0.11798E-08         0.42059E-20         0.00000E+00
    0.12278E-08         0.74506E-20         0.00000E+00
    0.12803E-08        -0.14901E-19         0.00000E+00
    0.13374E-08        -0.91430E-21         0.00000E+00
    0.13993E-08         0.74506E-20         0.00000E+00
    0.14663E-08         0.13031E-19         0.00000E+00
    0.15385E-08         0.16764E-19         0.00000E+00
    0.16161E-08        -0.37253E-20         0.00000E+00
    0.16994E-08         0.74506E-20         0.00000E+00
    0.17885E-08         0.31665E-19         0.00000E+00
    0.18838E-08         0.18832E-20         0.00000E+00
    0.19855E-08         0.14874E-19         0.00000E+00
    0.20939E-08         0.74166E-20         0.00000E+00
    0.22093E-08         0.55879E-20         0.00000E+00
    0.23319E-08         0.14901E-19         0.00000E+00
    0.24622E-08        -0.37253E-20         0.00000E+00
    0.26004E-08        -0.37253E-20         0.00000E+00
    0.27470E-08        -0.55879E-20         0.00000E+00
    0.29022E-08         0.35575E-20         0.00000E+00
    0.30665E-08        -0.93132E-20         0.00000E+00
    0.32403E-08        -0.93132E-20         0.00000E+00
    0.34240E-08        -0.18626E-20         0.00000E+00
    0.36180E-08        -0.53329E-20         0.00000E+00
    0.38228E-08         0.18626E-20         0.00000E+00
    0.40389E-08        -0.20489E-19         0.00000E+00
    0.42667E-08        -0.27940E-19         0.00000E+00
    0.45067E-08        -0.27940E-19         0.00000E+00
    0.47594E-08        -0.39116E-19         0.00000E+00
    0.50254E-08        -0.54445E-19         0.00000E+00
    0.53052E-08        -0.39116E-19         0.00000E+00
    0.55992E-08        -0.46067E-19         0.00000E+00
    0.59082E-08        -0.46566E-19         0.00000E+00
    0.62326E-08        -0.39116E-19         0.00000E+00
    0.65729E-08        -0.24214E-19         0.00000E+00
    0.69299E-08        -0.45371E-19         0.00000E+00
    0.73040E-08        -0.24214E-19         0.00000E+00
    0.76958E-08        -0.28706E-19         0.00000E+00
    0.81059E-08        -0.33528E-19         0.00000E+00
    0.85348E-08        -0.34459E-19         0.00000E+00
    0.89832E-08        -0.29802E-19         0.00000E+00
    0.94516E-08        -0.29802E-19         0.00000E+00
    0.99405E-08        -0.27270E-19         0.00000E+00
    0.10450E-07        -0.20489E-19         0.00000E+00
    0.10982E-07        -0.22352E-19         0.00000E+00
    0.11535E-07        -0.55879E-20         0.00000E+00
    0.12111E-07         0.00000E+00         0.00000E+00
    0.12710E-07        -0.13131E-19         0.00000E+00
    0.13331E-07        -0.12376E-19         0.00000E+00
    0.13977E-07        -0.17695E-19         0.00000E+00
    0.14646E-07         0.55879E-20         0.00000E+00
    0.15338E-07        -0.26077E-19         0.00000E+00
    0.16055E-07        -0.74506E-20         0.00000E+00
    0.16796E-07        -0.13039E-19         0.00000E+00
    0.17560E-07        -0.13039E-19         0.00000E+00
    0.18348E-07        -0.35390E-19         0.00000E+00
    0.19159E-07        -0.39890E-19         0.00000E+00
    0.19993E-07        -0.10753E-19         0.00000E+00
    0.20849E-07        -0.40978E-19         0.00000E+00
    0.21727E-07        -0.11176E-19         0.00000E+00
    0.22625E-07        -0.13039E-19         0.00000E+00
    0.23543E-07        -0.14901E-19         0.00000E+00
    0.24479E-07        -0.11176E-19         0.00000E+00
    0.25431E-07        -0.55879E-20         0.00000E+00
    0.26399E-07         0.00000E+00         0.00000E+00
    0.27379E-07         0.55879E-20         0.00000E+00
    0.28370E-07        -0.74506E-20         0.00000E+00
    0.29369E-07         0.74506E-20         0.00000E+00
    0.30374E-07         0.74506E-20         0.00000E+00
    0.31381E-07         0.55879E-20         0.00000E+00
    0.32387E-07        -0.55879E-20         0.00000E+00
    0.33389E-07        -0.13039E-19         0.00000E+00
    0.34383E-07         0.18626E-20         0.00000E+00
    0.35363E-07        -0.64473E-22         0.00000E+00
    0.36327E-07         0.12538E-19         0.00000E+00
    0.37268E-07         0.74506E-20         0.00000E+00
    0.38183E-07         0.25146E-19         0.00000E+00
    0.39064E-07         0.14901E-19         0.00000E+00
    0.39907E-07         0.36812E-19         0.00000E+00
    0.40707E-07         0.93132E-20         0.00000E+00
    0.41456E-07         0.56301E-20         0.00000E+00
    0.42149E-07         0.14359E-19         0.00000E+00
    0.42779E-07         0.22147E-19         0.00000E+00
    0.43341E-07         0.93132E-20         0.00000E+00
    0.43830E-07         0.24214E-19         0.00000E+00
    0.44238E-07         0.15655E-19         0.00000E+00
    0.44562E-07         0.27940E-19         0.00000E+00
    0.44797E-07         0.93132E-20         0.00000E+00
    0.44939E-07         0.18626E-20         0.00000E+00
    0.44987E-07         0.00000E+00         0.00000E+00
    0.91510E-09         0.00000E+00         0.00000E+00
    0.91687E-09         0.55879E-20         0.00000E+00
    0.92219E-09         0.18626E-19         0.00000E+00
    0.93107E-09        -0.83819E-20         0.00000E+00
    0.94355E-09         0.20489E-19         0.00000E+00
    0.95967E-09         0.18626E-20         0.00000E+00
    0.97946E-09         0.30734E-19         0.00000E+00
    0.10030E-08         0.44703E-19         0.00000E+00
    0.10304E-08         0.26077E-19         0.00000E+00
    0.10616E-08         0.18626E-19         0.00000E+00
    0.10969E-08         0.27940E-19         0.00000E+00
    0.11362E-08        -0.15832E-19         0.00000E+00
    0.11798E-08         0.29802E-19         0.00000E+00
    0.12278E-08         0.74506E-20         0.00000E+00
    0.12803E-08         0.00000E+00         0.00000E+00
    0.13374E-08         0.93132E-20         0.00000E+00
    0.13993E-08         0.13039E-19         0.00000E+00
    0.14663E-08         0.93207E-20         0.00000E+00
    0.15385E-08         0.14901E-19         0.00000E+00
    0.16161E-08         0.18626E-20         0.00000E+00
    0.16994E-08         0.74506E-20         0.00000E+00
    0.17885E-08         0.22352E-19         0.00000E+00
    0.18838E-08         0.16764E-19         0.00000E+00
    0.19855E-08         0.23283E-19         0.00000E+00
    0.20939E-08         0.18626E-20         0.00000E+00
    0.22093E-08         0.18585E-19         0.00000E+00
    0.23319E-08         0.11176E-19         0.00000E+00
    0.24622E-08         0.11176E-19         0.00000E+00
    0.26004E-08        -0.55879E-20         0.00000E+00
    0.27470E-08         0.37253E-20         0.00000E+00
    0.29022E-08         0.00000E+00         0.00000E+00
    0.30665E-08        -0.76384E-20         0.00000E+00
    0.32403E-08         0.74506E-20         0.00000E+00
    0.34240E-08         0.37253E-20         0.00000E+00
    0.36180E-08         0.71955E-20         0.00000E+00
    0.38228E-08        -0.14901E-19         0.00000E+00
    0.40389E-08         0.55879E-20         0.00000E+00
    0.42667E-08        -0.27940E-19         0.00000E+00
    0.45067E-08        -0.22352E-19         0.00000E+00
    0.47594E-08        -0.44703E-19         0.00000E+00
    0.50254E-08        -0.40047E-19         0.00000E+00
    0.53052E-08        -0.61467E-19         0.00000E+00
    0.55992E-08        -0.40978E-19         0.00000E+00
    0.59082E-08        -0.40047E-19         0.00000E+00
    0.62326E-08        -0.44703E-19         0.00000E+00
    0.65729E-08        -0.38184E-19         0.00000E+00
    0.69299E-08        -0.39116E-19         0.00000E+00
    0.73040E-08        -0.27008E-19         0.00000E+00
    0.76958E-08        -0.23283E-19         0.00000E+00
    0.81059E-08        -0.29802E-19         0.00000E+00
    0.85348E-08        -0.29746E-19         0.00000E+00
    0.89832E-08        -0.33528E-19         0.00000E+00
    0.94516E-08        -0.31665E-19         0.00000E+00
    0.99405E-08        -0.24214E-19         0.00000E+00
    0.10450E-07        -0.33528E-19         0.00000E+00
    0.10982E-07        -0.13039E-19         0.00000E+00
    0.11535E-07        -0.18626E-20         0.00000E+00
    0.12111E-07         0.37253E-20         0.00000E+00
    0.12710E-07        -0.37253E-20         0.00000E+00
    0.13331E-07         0.37253E-20         0.00000E+00
    0.13977E-07        -0.23737E-19         0.00000E+00
    0.14646E-07         0.18626E-20         0.00000E+00
    0.15338E-07        -0.19478E-19         0.00000E+00
    0.16055E-07        -0.11176E-19         0.00000E+00
    0.16796E-07        -0.74506E-20         0.00000E+00
    0.17560E-07        -0.55879E-20         0.00000E+00
    0.18348E-07        -0.18626E-19         0.00000E+00
    0.19159E-07        -0.39116E-19         0.00000E+00
    0.19993E-07        -0.19050E-19         0.00000E+00
    0.20849E-07        -0.26077E-19         0.00000E+00
    0.21727E-07        -0.27940E-19         0.00000E+00
    0.22625E-07        -0.26077E-19         0.00000E+00
    0.23543E-07        -0.11176E-19         0.00000E+00
    0.24479E-07        -0.20489E-19         0.00000E+00
    0.25431E-07        -0.37253E-20         0.00000E+00
    0.26399E-07         0.18626E-20         0.00000E+00
    0.27379E-07         0.93132E-20         0.00000E+00
    0.28370E-07         0.37253E-20         0.00000E+00
    0.29369E-07         0.18626E-20         0.00000E+00
    0.30374E-07         0.93132E-20         0.00000E+00
    0.31381E-07         0.55879E-20         0.00000E+00
    0.32387E-07         0.37253E-20         0.00000E+00
    0.33389E-07        -0.37253E-20         0.00000E+00
    0.34383E-07        -0.18626E-20         0.00000E+00
    0.35363E-07         0.56524E-20         0.00000E+00
    0.36327E-07         0.12107E-19         0.00000E+00
    0.37268E-07         0.15832E-19         0.00000E+00
    0.38183E-07         0.21021E-19         0.00000E+00
    0.39064E-07         0.30734E-19         0.00000E+00
    0.39907E-07         0.17450E-19         0.00000E+00
    0.40707E-07         0.14901E-19         0.00000E+00
    0.41456E-07         0.93132E-20         0.00000E+00
    0.42149E-07         0.14901E-19         0.00000E+00
    0.42779E-07         0.13039E-19         0.00000E+00
    0.43341E-07         0.21420E-19         0.00000E+00
    0.43830E-07         0.22794E-19         0.00000E+00
    0.44238E-07         0.13039E-19         0.00000E+00
    0.44562E-07         0.37253E-19         0.00000E+00
    0.44797E-07         0.18626E-20         0.00000E+00
    0.44939E-07        -0.37253E-20         0.00000E+00
    0.44987E-07         0.00000E+00         0.00000E+00
    0.91510E-09         0.00000E+00         0.00000E+00
    0.91687E-09        -0.65193E-20         0.00000E+00
    0.92219E-09        -0.14901E-19         0.00000E+00
    0.93107E-09         0.24370E-20         0.00000E+00
    0.94355E-09        -0.65193E-20         0.00000E+00
    0.95967E-09         0.29802E-19         0.00000E+00
    0.97946E-09         0.18846E-19         0.00000E+00
    0.10030E-08         0.26077E-19         0.00000E+00
    0.10304E-08         0.14901E-19         0.00000E+00
    0.10616E-08         0.33528E-19         0.00000E+00
    0.10969E-08         0.13039E-19         0.00000E+00
    0.11362E-08         0.11658E-19         0.00000E+00
    0.11798E-08         0.30253E-19         0.00000E+00
    0.12278E-08         0.00000E+00         0.00000E+00
    0.12803E-08         0.18626E-19         0.00000E+00
    0.13374E-08         0.11176E-19         0.00000E+00
    0.13993E-08         0.14901E-19         0.00000E+00
    0.14663E-08         0.25138E-19         0.00000E+00
    0.15385E-08         0.14901E-19         0.00000E+00
    0.16161E-08         0.22352E-19         0.00000E+00
    0.16994E-08         0.14901E-19         0.00000E+00
    0.17885E-08        -0.18483E-20         0.00000E+00
    0.18838E-08         0.20469E-19         0.00000E+00
    0.19855E-08         0.31692E-19         0.00000E+00
    0.20939E-08         0.93472E-20         0.00000E+00
    0.22093E-08         0.93132E-20         0.00000E+00
    0.23319E-08         0.13039E-19         0.00000E+00
    0.24622E-08         0.93132E-20         0.00000E+00
    0.26004E-08         0.74506E-20         0.00000E+00
    0.27470E-08         0.18626E-20         0.00000E+00
    0.29022E-08        -0.16764E-19         0.00000E+00
    0.30665E-08         0.93132E-20         0.00000E+00
    0.32403E-08         0.55879E-20         0.00000E+00
    0.34240E-08         0.74506E-20         0.00000E+00
    0.36180E-08        -0.34702E-20         0.00000E+00
    0.38228E-08         0.00000E+00         0.00000E+00
    0.40389E-08         0.74506E-20         0.00000E+00
    0.42667E-08        -0.30734E-19         0.00000E+00
    0.45067E-08        -0.24214E-19         0.00000E+00
    0.47594E-08        -0.44703E-19         0.00000E+00
    0.50254E-08        -0.33100E-19         0.00000E+00
    0.53052E-08        -0.52154E-19         0.00000E+00
    0.55992E-08        -0.41910E-19         0.00000E+00
    0.59082E-08        -0.37646E-19         0.00000E+00
    0.62326E-08        -0.44351E-19         0.00000E+00
    0.65729E-08        -0.53707E-19         0.00000E+00
    0.69299E-08        -0.34459E-19         0.00000E+00
    0.73040E-08        -0.45419E-19         0.00000E+00
    0.76958E-08        -0.31830E-19         0.00000E+00
    0.81059E-08        -0.26077E-19         0.00000E+00
    0.85348E-08        -0.27996E-19         0.00000E+00
    0.89832E-08        -0.38184E-19         0.00000E+00
    0.94516E-08        -0.39116E-19         0.00000E+00
    0.99405E-08        -0.22352E-19         0.00000E+00
    0.10450E-07        -0.14901E-19         0.00000E+00
    0.10982E-07        -0.11176E-19         0.00000E+00
    0.11535E-07        -0.55879E-20         0.00000E+00
    0.12111E-07        -0.18626E-20         0.00000E+00
    0.12710E-07         0.37253E-20         0.00000E+00
    0.13331E-07         0.55879E-20         0.00000E+00
    0.13977E-07        -0.13039E-19         0.00000E+00
    0.14646E-07        -0.55879E-20         0.00000E+00
    0.15338E-07        -0.18707E-19         0.00000E+00
    0.16055E-07        -0.11176E-19         0.00000E+00
    0.16796E-07         0.00000E+00         0.00000E+00
    0.17560E-07        -0.96554E-20         0.00000E+00
    0.18348E-07        -0.10245E-19         0.00000E+00
    0.19159E-07        -0.20489E-19         0.00000E+00
    0.19993E-07        -0.26585E-19         0.00000E+00
    0.20849E-07        -0.37253E-20         0.00000E+00
    0.21727E-07        -0.33528E-19         0.00000E+00
    0.22625E-07        -0.24214E-19         0.00000E+00
    0.23543E-07        -0.11176E-19         0.00000E+00
    0.24479E-07        -0.30734E-19         0.00000E+00
    0.25431E-07         0.93132E-21         0.00000E+00
    0.26399E-07        -0.37253E-20         0.00000E+00
    0.27379E-07         0.16764E-19         0.00000E+00
    0.28370E-07         0.26077E-19         0.00000E+00
    0.29369E-07        -0.74506E-20         0.00000E+00
    0.30374E-07         0.20489E-19         0.00000E+00
    0.31381E-07         0.55879E-20         0.00000E+00
    0.32387E-07         0.37253E-20         0.00000E+00
    0.33389E-07         0.24214E-19         0.00000E+00
    0.34383E-07         0.37253E-20         0.00000E+00
    0.35363E-07         0.21356E-19         0.00000E+00
    0.36327E-07        -0.32251E-20         0.00000E+00
    0.37268E-07         0.34468E-19         0.00000E+00
    0.38183E-07         0.14901E-19         0.00000E+00
    0.39064E-07         0.32459E-19         0.00000E+00
    0.39907E-07         0.46566E-20         0.00000E+00
    0.40707E-07         0.25761E-19         0.00000E+00
    0.41456E-07         0.10245E-19         0.00000E+00
    0.42149E-07         0.18626E-19         0.00000E+00
    0.42779E-07         0.30007E-19         0.00000E+00
    0.43341E-07         0.21543E-19         0.00000E+00
    0.43830E-07         0.27940E-19         0.00000E+00
    0.44238E-07         0.25323E-19         0.00000E+00
    0.44562E-07         0.20489E-19         0.00000E+00
    0.44797E-07         0.74506E-20         0.00000E+00
    0.44939E-07         0.37253E-20         0.00000E+00
    0.44987E-07         0.00000E+00         0.00000E+00
    0.91510E-09         0.00000E+00         0.00000E+00
    0.91687E-09        -0.44777E-20         0.00000E+00
    0.92219E-09        -0.61619E-20         0.00000E+00
    0.93107E-09         0.96702E-20         0.00000E+00
    0.94355E-09        -0.48748E-20         0.00000E+00
    0.95967E-09         0.31665E-19         0.00000E+00
    0.97946E-09         0.20269E-19         0.00000E+00
    0.10030E-08         0.26077E-19         0.00000E+00
    0.10304E-08         0.11664E-19         0.00000E+00
    0.10616E-08         0.22352E-19         0.00000E+00
    0.10969E-08         0.16764E-19         0.00000E+00
    0.11362E-08         0.36322E-19         0.00000E+00
    0.11798E-08         0.22832E-19         0.00000E+00
    0.12278E-08        -0.37253E-20         0.00000E+00
    0.12803E-08         0.18626E-19         0.00000E+00
    0.13374E-08         0.83819E-20         0.00000E+00
    0.13993E-08         0.13982E-19         0.00000E+00
    0.14663E-08         0.16764E-19         0.00000E+00
    0.15385E-08         0.20489E-19         0.00000E+00
    0.16161E-08         0.26077E-19         0.00000E+00
    0.16994E-08         0.11176E-19         0.00000E+00
    0.17885E-08         0.20475E-19         0.00000E+00
    0.18838E-08         0.30734E-19         0.00000E+00
    0.19855E-08         0.40020E-19         0.00000E+00
    0.20939E-08         0.38150E-19         0.00000E+00
    0.22093E-08         0.65193E-20         0.00000E+00
    0.23319E-08         0.14901E-19         0.00000E+00
    0.24622E-08         0.27940E-19         0.00000E+00
    0.26004E-08         0.13039E-19         0.00000E+00
    0.27470E-08         0.18626E-20         0.00000E+00
    0.29022E-08         0.93132E-20         0.00000E+00
    0.30665E-08         0.13226E-19         0.00000E+00
    0.32403E-08        -0.76596E-20         0.00000E+00
    0.34240E-08         0.72192E-20         0.00000E+00
    0.36180E-08         0.37253E-20         0.00000E+00
    0.38228E-08         0.13690E-19         0.00000E+00
    0.40389E-08        -0.55879E-20         0.00000E+00
    0.42667E-08        -0.68536E-20         0.00000E+00
    0.45067E-08        -0.22352E-19         0.00000E+00
    0.47594E-08        -0.20489E-19         0.00000E+00
    0.50254E-08        -0.29299E-19         0.00000E+00
    0.53052E-08        -0.24677E-19         0.00000E+00
    0.55992E-08        -0.41478E-19         0.00000E+00
    0.59082E-08        -0.46173E-19         0.00000E+00
    0.62326E-08        -0.38184E-19         0.00000E+00
    0.65729E-08        -0.36012E-19         0.00000E+00
    0.69299E-08        -0.23951E-19         0.00000E+00
    0.73040E-08        -0.38184E-19         0.00000E+00
    0.76958E-08        -0.36156E-19         0.00000E+00
    0.81059E-08        -0.22352E-19         0.00000E+00
    0.85348E-08        -0.23227E-19         0.00000E+00
    0.89832E-08        -0.32599E-19         0.00000E+00
    0.94516E-08        -0.22352E-19         0.00000E+00
    0.99405E-08        -0.18626E-19         0.00000E+00
    0.10450E-07         0.55879E-20         0.00000E+00
    0.10982E-07        -0.18626E-20         0.00000E+00
    0.11535E-07         0.00000E+00         0.00000E+00
    0.12111E-07        -0.93132E-20         0.00000E+00
    0.12710E-07         0.00000E+00         0.00000E+00
    0.13331E-07         0.93132E-21         0.00000E+00
    0.13977E-07        -0.46566E-20         0.00000E+00
    0.14646E-07        -0.43732E-20         0.00000E+00
    0.15338E-07        -0.73705E-20         0.00000E+00
    0.16055E-07        -0.18626E-20         0.00000E+00
    0.16796E-07         0.83819E-20         0.00000E+00
    0.17560E-07        -0.17353E-19         0.00000E+00
    0.18348E-07        -0.10146E-19         0.00000E+00
    0.19159E-07        -0.27322E-19         0.00000E+00
    0.19993E-07        -0.18626E-19         0.00000E+00
    0.20849E-07        -0.10015E-19         0.00000E+00
    0.21727E-07        -0.16824E-19         0.00000E+00
    0.22625E-07        -0.35390E-19         0.00000E+00
    0.23543E-07        -0.14901E-19         0.00000E+00
    0.24479E-07        -0.26151E-19         0.00000E+00
    0.25431E-07         0.88976E-20         0.00000E+00
    0.26399E-07         0.13039E-19         0.00000E+00
    0.27379E-07         0.55879E-20         0.00000E+00
    0.28370E-07         0.20489E-19         0.00000E+00
    0.29369E-07         0.18626E-19         0.00000E+00
    0.30374E-07         0.26077E-19         0.00000E+00
    0.31381E-07         0.55879E-20         0.00000E+00
    0.32387E-07         0.20489E-19         0.00000E+00
    0.33389E-07         0.93132E-20         0.00000E+00
    0.34383E-07         0.17695E-19         0.00000E+00
    0.35363E-07         0.28935E-19         0.00000E+00
    0.36327E-07        -0.37253E-20         0.00000E+00
    0.37268E-07         0.40969E-19         0.00000E+00
    0.38183E-07         0.14901E-19         0.00000E+00
    0.39064E-07         0.55879E-20         0.00000E+00
    0.39907E-07         0.17009E-19         0.00000E+00
    0.40707E-07         0.22036E-19         0.00000E+00
    0.41456E-07         0.28913E-19         0.00000E+00
    0.42149E-07         0.11565E-19         0.00000E+00
    0.42779E-07         0.27735E-19         0.00000E+00
    0.43341E-07         0.21420E-19         0.00000E+00
    0.43830E-07         0.24214E-19         0.00000E+00
    0.44238E-07         0.17518E-19         0.00000E+00
    0.44562E-07         0.18626E-20         0.00000E+00
    0.44797E-07         0.29802E-19         0.00000E+00
    0.44939E-07         0.11176E-19         0.00000E+00
    0.44987E-07         0.00000E+00         0.00000E+00
    0.91510E-09         0.00000E+00         0.00000E+00
    0.91687E-09         0.11749E-19         0.00000E+00
    0.92219E-09         0.95298E-20         0.00000E+00
    0.93107E-09         0.16407E-19         0.00000E+00
    0.94355E-09        -0.51516E-20         0.00000E+00
    0.95967E-09         0.29802E-19         0.00000E+00
    0.97946E-09         0.58078E-20         0.00000E+00
    0.10030E-08         0.16764E-19         0.00000E+00
    0.10304E-08         0.16719E-19         0.00000E+00
    0.10616E-08         0.37253E-20         0.00000E+00
    0.10969E-08         0.31665E-19         0.00000E+00
    0.11362E-08         0.31631E-19         0.00000E+00
    0.11798E-08         0.21871E-19         0.00000E+00
    0.12278E-08         0.13039E-19         0.00000E+00
    0.12803E-08         0.13039E-19         0.00000E+00
    0.13374E-08         0.46396E-20         0.00000E+00
    0.13993E-08         0.17670E-19         0.00000E+00
    0.14663E-08         0.11176E-19         0.00000E+00
    0.15385E-08         0.13970E-19         0.00000E+00
    0.16161E-08         0.93132E-20         0.00000E+00
    0.16994E-08         0.24214E-19         0.00000E+00
    0.17885E-08         0.31665E-19         0.00000E+00
    0.18838E-08         0.28912E-19         0.00000E+00
    0.19855E-08         0.26131E-19         0.00000E+00
    0.20939E-08         0.50325E-19         0.00000E+00
    0.22093E-08         0.19599E-19         0.00000E+00
    0.23319E-08         0.74506E-20         0.00000E+00
    0.24622E-08         0.50291E-19         0.00000E+00
    0.26004E-08         0.16764E-19         0.00000E+00
    0.27470E-08        -0.18626E-20         0.00000E+00
    0.29022E-08         0.21588E-19         0.00000E+00
    0.30665E-08         0.00000E+00         0.00000E+00
    0.32403E-08        -0.14446E-20         0.00000E+00
    0.34240E-08         0.15364E-19         0.00000E+00
    0.36180E-08         0.93132E-20         0.00000E+00
    0.38228E-08         0.86620E-20         0.00000E+00
    0.40389E-08        -0.74506E-20         0.00000E+00
    0.42667E-08         0.59223E-20         0.00000E+00
    0.45067E-08        -0.13039E-19         0.00000E+00
    0.47594E-08        -0.37253E-20         0.00000E+00
    0.50254E-08        -0.70227E-20         0.00000E+00
    0.53052E-08        -0.25614E-19         0.00000E+00
    0.55992E-08        -0.41410E-19         0.00000E+00
    0.59082E-08        -0.35784E-19         0.00000E+00
    0.62326E-08        -0.25851E-19         0.00000E+00
    0.65729E-08        -0.15500E-20         0.00000E+00
    0.69299E-08        -0.10772E-19         0.00000E+00
    0.73040E-08        -0.28156E-19         0.00000E+00
    0.76958E-08        -0.22517E-19         0.00000E+00
    0.81059E-08        -0.26077E-19         0.00000E+00
    0.85348E-08        -0.93692E-20         0.00000E+00
    0.89832E-08        -0.13035E-19         0.00000E+00
    0.94516E-08        -0.18626E-19         0.00000E+00
    0.99405E-08        -0.16764E-19         0.00000E+00
    0.10450E-07        -0.93132E-20         0.00000E+00
    0.10982E-07         0.16764E-19         0.00000E+00
    0.11535E-07        -0.37253E-20         0.00000E+00
    0.12111E-07        -0.18626E-20         0.00000E+00
    0.12710E-07         0.94060E-20         0.00000E+00
    0.13331E-07         0.77196E-20         0.00000E+00
    0.13977E-07        -0.14447E-19         0.00000E+00
    0.14646E-07        -0.10528E-19         0.00000E+00
    0.15338E-07         0.11096E-19         0.00000E+00
    0.16055E-07         0.11309E-19         0.00000E+00
    0.16796E-07        -0.61634E-20         0.00000E+00
    0.17560E-07        -0.18969E-19         0.00000E+00
    0.18348E-07        -0.39216E-20         0.00000E+00
    0.19159E-07        -0.12725E-19         0.00000E+00
    0.19993E-07        -0.27940E-19         0.00000E+00
    0.20849E-07        -0.16994E-19         0.00000E+00
    0.21727E-07        -0.73903E-20         0.00000E+00
    0.22625E-07        -0.26077E-19         0.00000E+00
    0.23543E-07        -0.15832E-19         0.00000E+00
    0.24479E-07        -0.13895E-19         0.00000E+00
    0.25431E-07         0.19042E-19         0.00000E+00
    0.26399E-07         0.24214E-19         0.00000E+00
    0.27379E-07         0.11176E-19         0.00000E+00
    0.28370E-07         0.18626E-19         0.00000E+00
    0.29369E-07         0.35390E-19         0.00000E+00
    0.30374E-07         0.93132E-20         0.00000E+00
    0.31381E-07         0.13039E-19         0.00000E+00
    0.32387E-07         0.31665E-19         0.00000E+00
    0.33389E-07         0.00000E+00         0.00000E+00
    0.34383E-07         0.22737E-19         0.00000E+00
    0.35363E-07         0.20425E-19         0.00000E+00
    0.36327E-07         0.21852E-19         0.00000E+00
    0.37268E-07         0.11185E-19         0.00000E+00
    0.38183E-07         0.19558E-19         0.00000E+00
    0.39064E-07         0.30684E-20         0.00000E+00
    0.39907E-07         0.31175E-19         0.00000E+00
    0.40707E-07        -0.29903E-21         0.00000E+00
    0.41456E-07         0.48344E-19         0.00000E+00
    0.42149E-07         0.30886E-19         0.00000E+00
    0.42779E-07         0.24419E-19         0.00000E+00
    0.43341E-07         0.40855E-19         0.00000E+00
    0.43830E-07         0.12596E-19         0.00000E+00
    0.44238E-07         0.16941E-19         0.00000E+00
    0.44562E-07         0.15832E-19         0.00000E+00
    0.44797E-07         0.33528E-19         0.00000E+00
    0.44939E-07         0.14901E-19         0.00000E+00
    0.44987E-07         0.00000E+00         0.00000E+00
    0.91510E-09         0.00000E+00         0.00000E+00
    0.91687E-09         0.68771E-20         0.00000E+00
    0.92219E-09        -0.12324E-19         0.00000E+00
    0.93107E-09         0.87389E-20         0.00000E+00
    0.94355E-09        -0.43634E-21         0.00000E+00
    0.95967E-09         0.29802E-19         0.00000E+00
    0.97946E-09        -0.20825E-20         0.00000E+00
    0.10030E-08        -0.18626E-20         0.00000E+00
    0.10304E-08         0.11221E-19         0.00000E+00
    0.10616E-08         0.11662E-19         0.00000E+00
    0.10969E-08         0.16764E-19         0.00000E+00
    0.11362E-08         0.20523E-19         0.00000E+00
    0.11798E-08         0.15382E-19         0.00000E+00
    0.12278E-08         0.24214E-19         0.00000E+00
    0.12803E-08        -0.18626E-20         0.00000E+00
    0.13374E-08        -0.55709E-20         0.00000E+00
    0.13993E-08         0.17720E-19         0.00000E+00
    0.14663E-08         0.20489E-19         0.00000E+00
    0.15385E-08         0.12110E-19         0.00000E+00
    0.16161E-08         0.74506E-20         0.00000E+00
    0.16994E-08         0.31665E-19         0.00000E+00
    0.17885E-08         0.46566E-19         0.00000E+00
    0.18838E-08         0.25105E-19         0.00000E+00
    0.19855E-08         0.33473E-19         0.00000E+00
    0.20939E-08         0.34425E-19         0.00000E+00
    0.22093E-08         0.25146E-19         0.00000E+00
    0.23319E-08         0.93132E-20         0.00000E+00
    0.24622E-08         0.37253E-19         0.00000E+00
    0.26004E-08         0.18626E-19         0.00000E+00
    0.27470E-08         0.93132E-20         0.00000E+00
    0.29022E-08         0.26262E-20         0.00000E+00
    0.30665E-08         0.72628E-20         0.00000E+00
    0.32403E-08         0.51699E-20         0.00000E+00
    0.34240E-08         0.31202E-19         0.00000E+00
    0.36180E-08         0.74506E-20         0.00000E+00
    0.38228E-08         0.18626E-20         0.00000E+00
    0.40389E-08         0.43501E-20         0.00000E+00
    0.42667E-08        -0.68536E-20         0.00000E+00
    0.45067E-08        -0.93132E-20         0.00000E+00
    0.47594E-08        -0.74506E-20         0.00000E+00
    0.50254E-08        -0.92377E-20         0.00000E+00
    0.53052E-08        -0.27940E-19         0.00000E+00
    0.55992E-08        -0.24214E-19         0.00000E+00
    0.59082E-08        -0.29409E-19         0.00000E+00
    0.62326E-08        -0.39518E-20         0.00000E+00
    0.65729E-08        -0.68319E-20         0.00000E+00
    0.69299E-08        -0.78542E-20         0.00000E+00
    0.73040E-08        -0.24930E-19         0.00000E+00
    0.76958E-08        -0.93132E-20         0.00000E+00
    0.81059E-08        -0.27940E-19         0.00000E+00
    0.85348E-08        -0.14901E-19         0.00000E+00
    0.89832E-08        -0.13039E-19         0.00000E+00
    0.94516E-08        -0.11176E-19         0.00000E+00
    0.99405E-08        -0.35390E-19         0.00000E+00
    0.10450E-07        -0.14901E-19         0.00000E+00
    0.10982E-07         0.93132E-20         0.00000E+00
    0.11535E-07        -0.13039E-19         0.00000E+00
    0.12111E-07        -0.93132E-20         0.00000E+00
    0.12710E-07         0.11083E-19         0.00000E+00
    0.13331E-07        -0.30630E-20         0.00000E+00
    0.13977E-07        -0.69732E-20         0.00000E+00
    0.14646E-07        -0.74506E-20         0.00000E+00
    0.15338E-07        -0.27138E-20         0.00000E+00
    0.16055E-07         0.14768E-19         0.00000E+00
    0.16796E-07        -0.24926E-19         0.00000E+00
    0.17560E-07        -0.25393E-19         0.00000E+00
    0.18348E-07        -0.91169E-20         0.00000E+00
    0.19159E-07        -0.38822E-20         0.00000E+00
    0.19993E-07        -0.35390E-19         0.00000E+00
    0.20849E-07        -0.11877E-19         0.00000E+00
    0.21727E-07        -0.93132E-20         0.00000E+00
    0.22625E-07        -0.93132E-20         0.00000E+00
    0.23543E-07        -0.24892E-19         0.00000E+00
    0.24479E-07        -0.47310E-20         0.00000E+00
    0.25431E-07         0.20074E-19         0.00000E+00
    0.26399E-07         0.20489E-19         0.00000E+00
    0.27379E-07         0.20489E-19         0.00000E+00
    0.28370E-07         0.18626E-19         0.00000E+00
    0.29369E-07         0.20489E-19         0.00000E+00
    0.30374E-07         0.18626E-20         0.00000E+00
    0.31381E-07         0.16764E-19         0.00000E+00
    0.32387E-07         0.74506E-20         0.00000E+00
    0.33389E-07         0.26077E-19         0.00000E+00
    0.34383E-07         0.13585E-19         0.00000E+00
    0.35363E-07         0.17760E-19         0.00000E+00
    0.36327E-07         0.20989E-19         0.00000E+00
    0.37268E-07         0.65100E-20         0.00000E+00
    0.38183E-07         0.19025E-19         0.00000E+00
    0.39064E-07         0.25803E-19         0.00000E+00
    0.39907E-07         0.31910E-19         0.00000E+00
    0.40707E-07         0.96123E-20         0.00000E+00
    0.41456E-07         0.40131E-19         0.00000E+00
    0.42149E-07         0.36169E-19         0.00000E+00
    0.42779E-07         0.33323E-19         0.00000E+00
    0.43341E-07         0.42032E-19         0.00000E+00
    0.43830E-07         0.27450E-19         0.00000E+00
    0.44238E-07         0.24214E-19         0.00000E+00
    0.44562E-07         0.23411E-19         0.00000E+00
    0.44797E-07         0.44703E-19         0.00000E+00
    0.44939E-07         0.93132E-20         0.00000E+00
    0.44987E-07         0.00000E+00         0.00000E+00
    0.91510E-09         0.00000E+00         0.00000E+00
    0.91687E-09        -0.20668E-19         0.00000E+00
    0.92219E-09        -0.78080E-20         0.00000E+00
    0.93107E-09        -0.50136E-20         0.00000E+00
    0.94355E-09         0.20808E-20         0.00000E+00
    0.95967E-09        -0.74506E-20         0.00000E+00
    0.97946E-09         0.76704E-20         0.00000E+00
    0.10030E-08        -0.93132E-20         0.00000E+00
    0.10304E-08         0.12550E-19         0.00000E+00
    0.10616E-08         0.12552E-19         0.00000E+00
    0.10969E-08        -0.74506E-20         0.00000E+00
    0.11362E-08         0.16281E-19         0.00000E+00
    0.11798E-08         0.30253E-19         0.00000E+00
    0.12278E-08         0.22352E-19         0.00000E+00
    0.12803E-08         0.00000E+00         0.00000E+00
    0.13374E-08        -0.11176E-19         0.00000E+00
    0.13993E-08         0.15820E-19         0.00000E+00
    0.14663E-08         0.18634E-19         0.00000E+00
    0.15385E-08         0.93108E-20         0.00000E+00
    0.16161E-08         0.16764E-19         0.00000E+00
    0.16994E-08         0.40978E-19         0.00000E+00
    0.17885E-08         0.44703E-19         0.00000E+00
    0.18838E-08         0.34480E-19         0.00000E+00
    0.19855E-08         0.43799E-19         0.00000E+00
    0.20939E-08         0.27974E-19         0.00000E+00
    0.22093E-08         0.32555E-19         0.00000E+00
    0.23319E-08         0.27940E-19         0.00000E+00
    0.24622E-08         0.18626E-19         0.00000E+00
    0.26004E-08         0.74506E-20         0.00000E+00
    0.27470E-08         0.24214E-19         0.00000E+00
    0.29022E-08        -0.74506E-20         0.00000E+00
    0.30665E-08         0.11176E-19         0.00000E+00
    0.32403E-08         0.57969E-20         0.00000E+00
    0.34240E-08         0.30034E-19         0.00000E+00
    0.36180E-08         0.12783E-19         0.00000E+00
    0.38228E-08         0.11176E-19         0.00000E+00
    0.40389E-08         0.10551E-19         0.00000E+00
    0.42667E-08        -0.24596E-20         0.00000E+00
    0.45067E-08        -0.93132E-20         0.00000E+00
    0.47594E-08        -0.14901E-19         0.00000E+00
    0.50254E-08        -0.24290E-19         0.00000E+00
    0.53052E-08        -0.26077E-19         0.00000E+00
    0.55992E-08        -0.93132E-20         0.00000E+00
    0.59082E-08        -0.14363E-19         0.00000E+00
    0.62326E-08        -0.12460E-19         0.00000E+00
    0.65729E-08        -0.71379E-20         0.00000E+00
    0.69299E-08        -0.89096E-20         0.00000E+00
    0.73040E-08        -0.15832E-19         0.00000E+00
    0.76958E-08        -0.12107E-19         0.00000E+00
    0.81059E-08        -0.18626E-19         0.00000E+00
    0.85348E-08        -0.19558E-19         0.00000E+00
    0.89832E-08        -0.16764E-19         0.00000E+00
    0.94516E-08        -0.55879E-20         0.00000E+00
    0.99405E-08        -0.31665E-19         0.00000E+00
    0.10450E-07        -0.14901E-19         0.00000E+00
    0.10982E-07        -0.13039E-19         0.00000E+00
    0.11535E-07        -0.24214E-19         0.00000E+00
    0.12111E-07        -0.24214E-19         0.00000E+00
    0.12710E-07        -0.37253E-20         0.00000E+00
    0.13331E-07        -0.23283E-19         0.00000E+00
    0.13977E-07        -0.74506E-20         0.00000E+00
    0.14646E-07        -0.27940E-19         0.00000E+00
    0.15338E-07         0.74506E-20         0.00000E+00
    0.16055E-07        -0.14901E-19         0.00000E+00
    0.16796E-07        -0.26653E-19         0.00000E+00
    0.17560E-07        -0.34801E-19         0.00000E+00
    0.18348E-07        -0.33626E-19         0.00000E+00
    0.19159E-07        -0.23126E-19         0.00000E+00
    0.19993E-07        -0.40978E-19         0.00000E+00
    0.20849E-07        -0.16994E-19         0.00000E+00
    0.21727E-07        -0.14901E-19         0.00000E+00
    0.22625E-07        -0.20489E-19         0.00000E+00
    0.23543E-07        -0.17017E-19         0.00000E+00
    0.24479E-07        -0.10170E-19         0.00000E+00
    0.25431E-07         0.23699E-19         0.00000E+00
    0.26399E-07         0.20489E-19         0.00000E+00
    0.27379E-07         0.11176E-19         0.00000E+00
    0.28370E-07         0.00000E+00         0.00000E+00
    0.29369E-07         0.14901E-19         0.00000E+00
    0.30374E-07         0.11176E-19         0.00000E+00
    0.31381E-07         0.22352E-19         0.00000E+00
    0.32387E-07        -0.18626E-20         0.00000E+00
    0.33389E-07         0.31665E-19         0.00000E+00
    0.34383E-07         0.22352E-19         0.00000E+00
    0.35363E-07         0.16764E-19         0.00000E+00
    0.36327E-07         0.27940E-19         0.00000E+00
    0.37268E-07         0.12116E-19         0.00000E+00
    0.38183E-07         0.14502E-19         0.00000E+00
    0.39064E-07         0.34596E-19         0.00000E+00
    0.39907E-07         0.18626E-19         0.00000E+00
    0.40707E-07         0.18327E-19         0.00000E+00
    0.41456E-07         0.34417E-19         0.00000E+00
    0.42149E-07         0.43924E-19         0.00000E+00
    0.42779E-07         0.33528E-19         0.00000E+00
    0.43341E-07         0.19558E-19         0.00000E+00
    0.43830E-07         0.27498E-19         0.00000E+00
    0.44238E-07         0.74506E-20         0.00000E+00
    0.44562E-07         0.37125E-19         0.00000E+00
    0.44797E-07         0.27940E-19         0.00000E+00
    0.44939E-07         0.11176E-19         0.00000E+00
    0.44987E-07         0.00000E+00         0.00000E+00
    0.91510E-09         0.00000E+00         0.00000E+00
    0.91687E-09        -0.24214E-19         0.00000E+00
    0.92219E-09         0.18626E-20         0.00000E+00
    0.93107E-09         0.35699E-21         0.00000E+00
    0.94355E-09        -0.14901E-19         0.00000E+00
    0.95967E-09        -0.26077E-19         0.00000E+00
    0.97946E-09         0.17475E-19         0.00000E+00
    0.10030E-08        -0.55879E-20         0.00000E+00
    0.10304E-08         0.14901E-19         0.00000E+00
    0.10616E-08         0.11176E-19         0.00000E+00
    0.10969E-08        -0.74506E-20         0.00000E+00
    0.11362E-08         0.13039E-19         0.00000E+00
    0.11798E-08         0.24695E-19         0.00000E+00
    0.12278E-08         0.24214E-19         0.00000E+00
    0.12803E-08         0.11176E-19         0.00000E+00
    0.13374E-08         0.37253E-20         0.00000E+00
    0.13993E-08         0.55879E-20         0.00000E+00
    0.14663E-08         0.20482E-19         0.00000E+00
    0.15385E-08         0.74506E-20         0.00000E+00
    0.16161E-08         0.13039E-19         0.00000E+00
    0.16994E-08         0.46566E-19         0.00000E+00
    0.17885E-08         0.44703E-19         0.00000E+00
    0.18838E-08         0.27940E-19         0.00000E+00
    0.19855E-08         0.29829E-19         0.00000E+00
    0.20939E-08         0.48395E-19         0.00000E+00
    0.22093E-08         0.37253E-19         0.00000E+00
    0.23319E-08         0.42841E-19         0.00000E+00
    0.24622E-08         0.74506E-20         0.00000E+00
    0.26004E-08         0.13039E-19         0.00000E+00
    0.27470E-08         0.13039E-19         0.00000E+00
    0.29022E-08         0.00000E+00         0.00000E+00
    0.30665E-08        -0.16748E-20         0.00000E+00
    0.32403E-08         0.27940E-19         0.00000E+00
    0.34240E-08         0.16764E-19         0.00000E+00
    0.36180E-08         0.11431E-19         0.00000E+00
    0.38228E-08         0.24214E-19         0.00000E+00
    0.40389E-08         0.55879E-20         0.00000E+00
    0.42667E-08         0.11176E-19         0.00000E+00
    0.45067E-08        -0.93132E-20         0.00000E+00
    0.47594E-08        -0.14901E-19         0.00000E+00
    0.50254E-08        -0.55879E-20         0.00000E+00
    0.53052E-08        -0.27940E-19         0.00000E+00
    0.55992E-08        -0.55879E-20         0.00000E+00
    0.59082E-08         0.00000E+00         0.00000E+00
    0.62326E-08        -0.12107E-19         0.00000E+00
    0.65729E-08         0.21720E-20         0.00000E+00
    0.69299E-08        -0.78542E-20         0.00000E+00
    0.73040E-08        -0.48725E-20         0.00000E+00
    0.76958E-08        -0.16973E-20         0.00000E+00
    0.81059E-08         0.00000E+00         0.00000E+00
    0.85348E-08        -0.24158E-19         0.00000E+00
    0.89832E-08        -0.16764E-19         0.00000E+00
    0.94516E-08        -0.37253E-20         0.00000E+00
    0.99405E-08        -0.11176E-19         0.00000E+00
    0.10450E-07        -0.26077E-19         0.00000E+00
    0.10982E-07        -0.24214E-19         0.00000E+00
    0.11535E-07        -0.37253E-20         0.00000E+00
    0.12111E-07        -0.12107E-19         0.00000E+00
    0.12710E-07        -0.14901E-19         0.00000E+00
    0.13331E-07        -0.25808E-19         0.00000E+00
    0.13977E-07        -0.14901E-19         0.00000E+00
    0.14646E-07        -0.29802E-19         0.00000E+00
    0.15338E-07         0.55078E-20         0.00000E+00
    0.16055E-07        -0.37253E-19         0.00000E+00
    0.16796E-07        -0.37253E-19         0.00000E+00
    0.17560E-07        -0.32938E-19         0.00000E+00
    0.18348E-07        -0.37253E-19         0.00000E+00
    0.19159E-07        -0.43772E-19         0.00000E+00
    0.19993E-07        -0.39116E-19         0.00000E+00
    0.20849E-07        -0.22352E-19         0.00000E+00
    0.21727E-07        -0.37253E-20         0.00000E+00
    0.22625E-07        -0.13039E-19         0.00000E+00
    0.23543E-07        -0.74506E-20         0.00000E+00
    0.24479E-07        -0.74506E-20         0.00000E+00
    0.25431E-07         0.16764E-19         0.00000E+00
    0.26399E-07         0.13039E-19         0.00000E+00
    0.27379E-07         0.13039E-19         0.00000E+00
    0.28370E-07         0.55879E-20         0.00000E+00
    0.29369E-07         0.11176E-19         0.00000E+00
    0.30374E-07         0.37253E-20         0.00000E+00
    0.31381E-07         0.14901E-19         0.00000E+00
    0.32387E-07         0.13039E-19         0.00000E+00
    0.33389E-07         0.29802E-19         0.00000E+00
    0.34383E-07         0.20489E-19         0.00000E+00
    0.35363E-07         0.20489E-19         0.00000E+00
    0.36327E-07         0.31665E-19         0.00000E+00
    0.37268E-07         0.24214E-19         0.00000E+00
    0.38183E-07         0.19957E-19         0.00000E+00
    0.39064E-07         0.28871E-19         0.00000E+00
    0.39907E-07         0.83819E-20         0.00000E+00
    0.40707E-07         0.22036E-19         0.00000E+00
    0.41456E-07         0.27008E-19         0.00000E+00
    0.42149E-07         0.58521E-19         0.00000E+00
    0.42779E-07         0.22556E-19         0.00000E+00
    0.43341E-07         0.25023E-19         0.00000E+00
    0.43830E-07         0.20000E-19         0.00000E+00
    0.44238E-07         0.82043E-20         0.00000E+00
    0.44562E-07         0.44703E-19         0.00000E+00
    0.44797E-07         0.55879E-20         0.00000E+00
    0.44939E-07         0.55879E-20         0.00000E+00
    0.44987E-07         0.00000E+00         0.00000E+00
    0.91510E-09         0.00000E+00         0.00000E+00
    0.91687E-09         0.37253E-20         0.00000E+00
    0.92219E-09         0.11176E-19         0.00000E+00
    0.93107E-09        -0.13970E-19         0.00000E+00
    0.94355E-09        -0.13039E-19         0.00000E+00
    0.95967E-09        -0.93132E-20         0.00000E+00
    0.97946E-09         0.23283E-19         0.00000E+00
    0.10030E-08        -0.74506E-20         0.00000E+00
    0.10304E-08         0.13039E-19         0.00000E+00
    0.10616E-08         0.14901E-19         0.00000E+00
    0.10969E-08         0.16764E-19         0.00000E+00
    0.11362E-08         0.12107E-19         0.00000E+00
    0.11798E-08         0.10245E-19         0.00000E+00
    0.12278E-08         0.40978E-19         0.00000E+00
    0.12803E-08         0.14901E-19         0.00000E+00
    0.13374E-08         0.15832E-19         0.00000E+00
    0.13993E-08         0.13039E-19         0.00000E+00
    0.14663E-08         0.12107E-19         0.00000E+00
    0.15385E-08         0.26077E-19         0.00000E+00
    0.16161E-08         0.74506E-20         0.00000E+00
    0.16994E-08         0.26077E-19         0.00000E+00
    0.17885E-08         0.42841E-19         0.00000E+00
    0.18838E-08         0.32596E-19         0.00000E+00
    0.19855E-08         0.20462E-19         0.00000E+00
    0.20939E-08         0.55879E-19         0.00000E+00
    0.22093E-08         0.26118E-19         0.00000E+00
    0.23319E-08         0.37253E-19         0.00000E+00
    0.24622E-08         0.93132E-20         0.00000E+00
    0.26004E-08         0.18626E-19         0.00000E+00
    0.27470E-08         0.15050E-19         0.00000E+00
    0.29022E-08         0.74506E-20         0.00000E+00
    0.30665E-08         0.37253E-20         0.00000E+00
    0.32403E-08         0.13039E-19         0.00000E+00
    0.34240E-08         0.93132E-20         0.00000E+00
    0.36180E-08         0.55879E-20         0.00000E+00
    0.38228E-08         0.31665E-19         0.00000E+00
    0.40389E-08         0.13039E-19         0.00000E+00
    0.42667E-08         0.11176E-19         0.00000E+00
    0.45067E-08        -0.37253E-20         0.00000E+00
    0.47594E-08        -0.18626E-20         0.00000E+00
    0.50254E-08        -0.60158E-20         0.00000E+00
    0.53052E-08        -0.24214E-19         0.00000E+00
    0.55992E-08        -0.37253E-20         0.00000E+00
    0.59082E-08        -0.25146E-19         0.00000E+00
    0.62326E-08        -0.12837E-20         0.00000E+00
    0.65729E-08         0.12406E-20         0.00000E+00
    0.69299E-08         0.15988E-20         0.00000E+00
    0.73040E-08        -0.74506E-20         0.00000E+00
    0.76958E-08         0.26286E-20         0.00000E+00
    0.81059E-08         0.13039E-19         0.00000E+00
    0.85348E-08        -0.15888E-19         0.00000E+00
    0.89832E-08         0.00000E+00         0.00000E+00
    0.94516E-08        -0.24214E-19         0.00000E+00
    0.99405E-08         0.27940E-20         0.00000E+00
    0.10450E-07        -0.31665E-19         0.00000E+00
    0.10982E-07        -0.13039E-19         0.00000E+00
    0.11535E-07        -0.55879E-20         0.00000E+00
    0.12111E-07        -0.56631E-20         0.00000E+00
    0.12710E-07        -0.27940E-19         0.00000E+00
    0.13331E-07        -0.32865E-19         0.00000E+00
    0.13977E-07        -0.15832E-19         0.00000E+00
    0.14646E-07        -0.33528E-19         0.00000E+00
    0.15338E-07        -0.14901E-19         0.00000E+00
    0.16055E-07        -0.37253E-19         0.00000E+00
    0.16796E-07        -0.40978E-19         0.00000E+00
    0.17560E-07        -0.40636E-19         0.00000E+00
    0.18348E-07        -0.46566E-19         0.00000E+00
    0.19159E-07        -0.36478E-19         0.00000E+00
    0.19993E-07        -0.38184E-19         0.00000E+00
    0.20849E-07        -0.20489E-19         0.00000E+00
    0.21727E-07        -0.13039E-19         0.00000E+00
    0.22625E-07         0.74506E-20         0.00000E+00
    0.23543E-07         0.55879E-20         0.00000E+00
    0.24479E-07         0.74506E-20         0.00000E+00
    0.25431E-07         0.93132E-20         0.00000E+00
    0.26399E-07         0.11176E-19         0.00000E+00
    0.27379E-07         0.11176E-19         0.00000E+00
    0.28370E-07         0.16764E-19         0.00000E+00
    0.29369E-07         0.00000E+00         0.00000E+00
    0.30374E-07         0.37253E-20         0.00000E+00
    0.31381E-07         0.74506E-20         0.00000E+00
    0.32387E-07         0.18626E-19         0.00000E+00
    0.33389E-07         0.16764E-19         0.00000E+00
    0.34383E-07         0.18626E-19         0.00000E+00
    0.35363E-07         0.27940E-19         0.00000E+00
    0.36327E-07         0.27440E-19         0.00000E+00
    0.37268E-07         0.27940E-19         0.00000E+00
    0.38183E-07         0.14901E-19         0.00000E+00
    0.39064E-07         0.23420E-19         0.00000E+00
    0.39907E-07         0.86270E-20         0.00000E+00
    0.40707E-07         0.23898E-19         0.00000E+00
    0.41456E-07         0.20447E-19         0.00000E+00
    0.42149E-07         0.53627E-19         0.00000E+00
    0.42779E-07         0.15832E-19         0.00000E+00
    0.43341E-07         0.36322E-19         0.00000E+00
    0.43830E-07         0.14412E-19         0.00000E+00
    0.44238E-07         0.34637E-19         0.00000E+00
    0.44562E-07         0.16764E-19         0.00000E+00
    0.44797E-07         0.74506E-20         0.00000E+00
    0.44939E-07         0.11176E-19         0.00000E+00
    0.44987E-07         0.00000E+00         0.00000E+00
    0.91510E-09         0.00000E+00         0.00000E+00
    0.91687E-09         0.74506E-20         0.00000E+00
    0.92219E-09         0.74506E-20         0.00000E+00
    0.93107E-09        -0.50136E-20         0.00000E+00
    0.94355E-09         0.37253E-20         0.00000E+00
    0.95967E-09         0.18626E-19         0.00000E+00
    0.97946E-09         0.10464E-19         0.00000E+00
    0.10030E-08         0.20489E-19         0.00000E+00
    0.10304E-08         0.18626E-19         0.00000E+00
    0.10616E-08         0.16764E-19         0.00000E+00
    0.10969E-08         0.31665E-19         0.00000E+00
    0.11362E-08         0.30251E-19         0.00000E+00
    0.11798E-08         0.10695E-19         0.00000E+00
    0.12278E-08         0.29802E-19         0.00000E+00
    0.12803E-08         0.26077E-19         0.00000E+00
    0.13374E-08         0.23266E-19         0.00000E+00
    0.13993E-08         0.14901E-19         0.00000E+00
    0.14663E-08         0.14909E-19         0.00000E+00
    0.15385E-08         0.13039E-19         0.00000E+00
    0.16161E-08         0.27940E-19         0.00000E+00
    0.16994E-08         0.20489E-19         0.00000E+00
    0.17885E-08         0.20503E-19         0.00000E+00
    0.18838E-08         0.40067E-19         0.00000E+00
    0.19855E-08         0.13997E-19         0.00000E+00
    0.20939E-08         0.50325E-19         0.00000E+00
    0.22093E-08         0.26077E-19         0.00000E+00
    0.23319E-08         0.31665E-19         0.00000E+00
    0.24622E-08         0.24214E-19         0.00000E+00
    0.26004E-08         0.93132E-20         0.00000E+00
    0.27470E-08         0.37104E-19         0.00000E+00
    0.29022E-08         0.38931E-20         0.00000E+00
    0.30665E-08         0.55879E-20         0.00000E+00
    0.32403E-08        -0.20489E-19         0.00000E+00
    0.34240E-08         0.00000E+00         0.00000E+00
    0.36180E-08         0.71955E-20         0.00000E+00
    0.38228E-08         0.25797E-19         0.00000E+00
    0.40389E-08         0.00000E+00         0.00000E+00
    0.42667E-08         0.93132E-20         0.00000E+00
    0.45067E-08        -0.11176E-19         0.00000E+00
    0.47594E-08        -0.55879E-20         0.00000E+00
    0.50254E-08        -0.10245E-19         0.00000E+00
    0.53052E-08        -0.18626E-19         0.00000E+00
    0.55992E-08        -0.74506E-20         0.00000E+00
    0.59082E-08        -0.36860E-19         0.00000E+00
    0.62326E-08        -0.76771E-20         0.00000E+00
    0.65729E-08        -0.12107E-19         0.00000E+00
    0.69299E-08         0.39891E-20         0.00000E+00
    0.73040E-08        -0.15401E-19         0.00000E+00
    0.76958E-08        -0.14901E-19         0.00000E+00
    0.81059E-08         0.14901E-19         0.00000E+00
    0.85348E-08         0.18626E-20         0.00000E+00
    0.89832E-08        -0.18626E-20         0.00000E+00
    0.94516E-08        -0.24084E-19         0.00000E+00
    0.99405E-08        -0.81204E-20         0.00000E+00
    0.10450E-07        -0.14901E-19         0.00000E+00
    0.10982E-07        -0.27940E-19         0.00000E+00
    0.11535E-07        -0.22352E-19         0.00000E+00
    0.12111E-07        -0.83067E-20         0.00000E+00
    0.12710E-07        -0.37253E-19         0.00000E+00
    0.13331E-07        -0.46297E-19         0.00000E+00
    0.13977E-07        -0.45181E-19         0.00000E+00
    0.14646E-07        -0.52154E-19         0.00000E+00
    0.15338E-07        -0.24214E-19         0.00000E+00
    0.16055E-07        -0.37253E-19         0.00000E+00
    0.16796E-07        -0.42841E-19         0.00000E+00
    0.17560E-07        -0.50291E-19         0.00000E+00
    0.18348E-07        -0.61467E-19         0.00000E+00
    0.19159E-07        -0.24214E-19         0.00000E+00
    0.19993E-07        -0.32088E-19         0.00000E+00
    0.20849E-07        -0.20259E-19         0.00000E+00
    0.21727E-07        -0.18626E-19         0.00000E+00
    0.22625E-07        -0.37253E-20         0.00000E+00
    0.23543E-07         0.16764E-19         0.00000E+00
    0.24479E-07         0.18626E-20         0.00000E+00
    0.25431E-07         0.00000E+00         0.00000E+00
    0.26399E-07         0.18626E-19         0.00000E+00
    0.27379E-07        -0.11176E-19         0.00000E+00
    0.28370E-07         0.16764E-19         0.00000E+00
    0.29369E-07        -0.93132E-20         0.00000E+00
    0.30374E-07         0.18626E-20         0.00000E+00
    0.31381E-07         0.74506E-20         0.00000E+00
    0.32387E-07         0.12107E-19         0.00000E+00
    0.33389E-07         0.13039E-19         0.00000E+00
    0.34383E-07         0.18626E-19         0.00000E+00
    0.35363E-07         0.25146E-19         0.00000E+00
    0.36327E-07         0.35890E-19         0.00000E+00
    0.37268E-07         0.12098E-19         0.00000E+00
    0.38183E-07         0.11176E-19         0.00000E+00
    0.39064E-07         0.53135E-20         0.00000E+00
    0.39907E-07         0.74506E-20         0.00000E+00
    0.40707E-07         0.13039E-19         0.00000E+00
    0.41456E-07         0.25230E-19         0.00000E+00
    0.42149E-07         0.28329E-19         0.00000E+00
    0.42779E-07         0.24736E-19         0.00000E+00
    0.43341E-07         0.24460E-19         0.00000E+00
    0.43830E-07         0.32643E-19         0.00000E+00
    0.44238E-07         0.33528E-19         0.00000E+00
    0.44562E-07        -0.37253E-20         0.00000E+00
    0.44797E-07         0.11176E-19         0.00000E+00
    0.44939E-07         0.16764E-19         0.00000E+00
    0.44987E-07         0.00000E+00         0.00000E+00
    0.91510E-09         0.00000E+00         0.00000E+00
    0.91687E-09        -0.37253E-20         0.00000E+00
    0.92219E-09        -0.18626E-20         0.00000E+00
    0.93107E-09         0.46566E-20         0.00000E+00
    0.94355E-09         0.16764E-19         0.00000E+00
    0.95967E-09         0.14901E-19         0.00000E+00
    0.97946E-09         0.65193E-20         0.00000E+00
    0.10030E-08         0.39116E-19         0.00000E+00
    0.10304E-08         0.22352E-19         0.00000E+00
    0.10616E-08         0.14901E-19         0.00000E+00
    0.10969E-08         0.27940E-19         0.00000E+00
    0.11362E-08         0.15866E-19         0.00000E+00
    0.11798E-08         0.27940E-19         0.00000E+00
    0.12278E-08         0.37253E-20         0.00000E+00
    0.12803E-08         0.33528E-19         0.00000E+00
    0.13374E-08         0.29819E-19         0.00000E+00
    0.13993E-08         0.13039E-19         0.00000E+00
    0.14663E-08         0.29795E-19         0.00000E+00
    0.15385E-08         0.12107E-19         0.00000E+00
    0.16161E-08         0.31665E-19         0.00000E+00
    0.16994E-08         0.37253E-19         0.00000E+00
    0.17885E-08         0.22337E-19         0.00000E+00
    0.18838E-08         0.48388E-19         0.00000E+00
    0.19855E-08         0.19531E-19         0.00000E+00
    0.20939E-08         0.40978E-19         0.00000E+00
    0.22093E-08         0.31665E-19         0.00000E+00
    0.23319E-08         0.26077E-19         0.00000E+00
    0.24622E-08         0.35390E-19         0.00000E+00
    0.26004E-08         0.11176E-19         0.00000E+00
    0.27470E-08         0.31665E-19         0.00000E+00
    0.29022E-08         0.72828E-20         0.00000E+00
    0.30665E-08         0.00000E+00         0.00000E+00
    0.32403E-08        -0.55879E-20         0.00000E+00
    0.34240E-08        -0.74506E-20         0.00000E+00
    0.36180E-08         0.58430E-20         0.00000E+00
    0.38228E-08         0.21427E-20         0.00000E+00
    0.40389E-08        -0.37253E-20         0.00000E+00
    0.42667E-08         0.18626E-20         0.00000E+00
    0.45067E-08        -0.22352E-19         0.00000E+00
    0.47594E-08        -0.13039E-19         0.00000E+00
    0.50254E-08        -0.12611E-19         0.00000E+00
    0.53052E-08        -0.19089E-19         0.00000E+00
    0.55992E-08        -0.27008E-19         0.00000E+00
    0.59082E-08        -0.24070E-19         0.00000E+00
    0.62326E-08        -0.27940E-19         0.00000E+00
    0.65729E-08        -0.18936E-19         0.00000E+00
    0.69299E-08        -0.16096E-19         0.00000E+00
    0.73040E-08        -0.21591E-21         0.00000E+00
    0.76958E-08        -0.20489E-19         0.00000E+00
    0.81059E-08         0.13970E-19         0.00000E+00
    0.85348E-08         0.37253E-20         0.00000E+00
    0.89832E-08         0.18626E-20         0.00000E+00
    0.94516E-08         0.13039E-19         0.00000E+00
    0.99405E-08        -0.16764E-19         0.00000E+00
    0.10450E-07         0.37253E-20         0.00000E+00
    0.10982E-07        -0.40978E-19         0.00000E+00
    0.11535E-07        -0.14901E-19         0.00000E+00
    0.12111E-07        -0.28946E-19         0.00000E+00
    0.12710E-07        -0.44703E-19         0.00000E+00
    0.13331E-07        -0.58011E-19         0.00000E+00
    0.13977E-07        -0.64261E-19         0.00000E+00
    0.14646E-07        -0.37253E-19         0.00000E+00
    0.15338E-07        -0.34459E-19         0.00000E+00
    0.16055E-07        -0.46566E-19         0.00000E+00
    0.16796E-07        -0.59605E-19         0.00000E+00
    0.17560E-07        -0.55879E-19         0.00000E+00
    0.18348E-07        -0.54017E-19         0.00000E+00
    0.19159E-07        -0.33528E-19         0.00000E+00
    0.19993E-07        -0.10753E-19         0.00000E+00
    0.20849E-07        -0.36551E-19         0.00000E+00
    0.21727E-07        -0.24214E-19         0.00000E+00
    0.22625E-07        -0.15832E-19         0.00000E+00
    0.23543E-07         0.93132E-20         0.00000E+00
    0.24479E-07         0.25146E-19         0.00000E+00
    0.25431E-07        -0.13039E-19         0.00000E+00
    0.26399E-07         0.13039E-19         0.00000E+00
    0.27379E-07         0.00000E+00         0.00000E+00
    0.28370E-07         0.13039E-19         0.00000E+00
    0.29369E-07         0.55879E-20         0.00000E+00
    0.30374E-07         0.18626E-20         0.00000E+00
    0.31381E-07        -0.93132E-20         0.00000E+00
    0.32387E-07         0.17160E-19         0.00000E+00
    0.33389E-07         0.20489E-19         0.00000E+00
    0.34383E-07         0.74506E-20         0.00000E+00
    0.35363E-07         0.24150E-19         0.00000E+00
    0.36327E-07         0.24214E-19         0.00000E+00
    0.37268E-07         0.37439E-20         0.00000E+00
    0.38183E-07         0.10777E-19         0.00000E+00
    0.39064E-07         0.37253E-20         0.00000E+00
    0.39907E-07         0.22352E-19         0.00000E+00
    0.40707E-07         0.18011E-19         0.00000E+00
    0.41456E-07         0.33443E-19         0.00000E+00
    0.42149E-07         0.18237E-19         0.00000E+00
    0.42779E-07         0.33937E-19         0.00000E+00
    0.43341E-07         0.18504E-19         0.00000E+00
    0.43830E-07         0.27940E-19         0.00000E+00
    0.44238E-07         0.20489E-19         0.00000E+00
    0.44562E-07        -0.91855E-20         0.00000E+00
    0.44797E-07         0.22352E-19         0.00000E+00
    0.44939E-07         0.17695E-19         0.00000E+00
    0.44987E-07         0.00000E+00         0.00000E+00
    0.91510E-09         0.00000E+00         0.00000E+00
    0.91687E-09        -0.37253E-20         0.00000E+00
    0.92219E-09        -0.93132E-20         0.00000E+00
    0.93107E-09         0.35699E-21         0.00000E+00
    0.94355E-09         0.14901E-19         0.00000E+00
    0.95967E-09         0.37253E-20         0.00000E+00
    0.97946E-09         0.25741E-20         0.00000E+00
    0.10030E-08         0.37253E-19         0.00000E+00
    0.10304E-08         0.93132E-20         0.00000E+00
    0.10616E-08         0.20975E-19         0.00000E+00
    0.10969E-08         0.29802E-19         0.00000E+00
    0.11362E-08         0.17695E-19         0.00000E+00
    0.11798E-08         0.19107E-19         0.00000E+00
    0.12278E-08         0.55879E-20         0.00000E+00
    0.12803E-08         0.27940E-19         0.00000E+00
    0.13374E-08         0.35390E-19         0.00000E+00
    0.13993E-08         0.35390E-19         0.00000E+00
    0.14663E-08         0.36329E-19         0.00000E+00
    0.15385E-08         0.36324E-19         0.00000E+00
    0.16161E-08         0.27940E-19         0.00000E+00
    0.16994E-08         0.39116E-19         0.00000E+00
    0.17885E-08         0.24214E-19         0.00000E+00
    0.18838E-08         0.48429E-19         0.00000E+00
    0.19855E-08         0.38157E-19         0.00000E+00
    0.20939E-08         0.39082E-19         0.00000E+00
    0.22093E-08         0.46566E-19         0.00000E+00
    0.23319E-08         0.14901E-19         0.00000E+00
    0.24622E-08         0.44703E-19         0.00000E+00
    0.26004E-08         0.20489E-19         0.00000E+00
    0.27470E-08         0.29802E-19         0.00000E+00
    0.29022E-08         0.27940E-19         0.00000E+00
    0.30665E-08         0.16576E-19         0.00000E+00
    0.32403E-08         0.74506E-20         0.00000E+00
    0.34240E-08         0.16312E-20         0.00000E+00
    0.36180E-08         0.53329E-20         0.00000E+00
    0.38228E-08        -0.16764E-19         0.00000E+00
    0.40389E-08         0.21114E-19         0.00000E+00
    0.42667E-08        -0.11176E-19         0.00000E+00
    0.45067E-08        -0.14901E-19         0.00000E+00
    0.47594E-08        -0.93132E-20         0.00000E+00
    0.50254E-08        -0.97411E-20         0.00000E+00
    0.53052E-08        -0.13970E-19         0.00000E+00
    0.55992E-08        -0.24282E-19         0.00000E+00
    0.59082E-08        -0.14115E-19         0.00000E+00
    0.62326E-08        -0.24214E-19         0.00000E+00
    0.65729E-08        -0.52786E-20         0.00000E+00
    0.69299E-08        -0.33528E-19         0.00000E+00
    0.73040E-08         0.95291E-20         0.00000E+00
    0.76958E-08        -0.18626E-19         0.00000E+00
    0.81059E-08         0.13151E-19         0.00000E+00
    0.85348E-08        -0.22352E-19         0.00000E+00
    0.89832E-08         0.14901E-19         0.00000E+00
    0.94516E-08         0.14640E-19         0.00000E+00
    0.99405E-08         0.59963E-20         0.00000E+00
    0.10450E-07        -0.13039E-19         0.00000E+00
    0.10982E-07        -0.22352E-19         0.00000E+00
    0.11535E-07        -0.14901E-19         0.00000E+00
    0.12111E-07        -0.49285E-19         0.00000E+00
    0.12710E-07        -0.37253E-19         0.00000E+00
    0.13331E-07        -0.54948E-19         0.00000E+00
    0.13977E-07        -0.52608E-19         0.00000E+00
    0.14646E-07        -0.27940E-19         0.00000E+00
    0.15338E-07        -0.56731E-19         0.00000E+00
    0.16055E-07        -0.50424E-19         0.00000E+00
    0.16796E-07        -0.57742E-19         0.00000E+00
    0.17560E-07        -0.55879E-19         0.00000E+00
    0.18348E-07        -0.42841E-19         0.00000E+00
    0.19159E-07        -0.50291E-19         0.00000E+00
    0.19993E-07        -0.60113E-20         0.00000E+00
    0.20849E-07        -0.34229E-19         0.00000E+00
    0.21727E-07        -0.35451E-19         0.00000E+00
    0.22625E-07        -0.96759E-20         0.00000E+00
    0.23543E-07        -0.55879E-20         0.00000E+00
    0.24479E-07         0.35316E-19         0.00000E+00
    0.25431E-07        -0.11176E-19         0.00000E+00
    0.26399E-07         0.11176E-19         0.00000E+00
    0.27379E-07         0.74506E-20         0.00000E+00
    0.28370E-07        -0.18626E-20         0.00000E+00
    0.29369E-07         0.20489E-19         0.00000E+00
    0.30374E-07        -0.55879E-20         0.00000E+00
    0.31381E-07        -0.16764E-19         0.00000E+00
    0.32387E-07         0.98485E-20         0.00000E+00
    0.33389E-07         0.21420E-19         0.00000E+00
    0.34383E-07         0.17695E-19         0.00000E+00
    0.35363E-07         0.27073E-19         0.00000E+00
    0.36327E-07         0.13039E-19         0.00000E+00
    0.37268E-07         0.12089E-19         0.00000E+00
    0.38183E-07         0.13438E-19         0.00000E+00
    0.39064E-07         0.20489E-19         0.00000E+00
    0.39907E-07         0.26077E-19         0.00000E+00
    0.40707E-07         0.36005E-19         0.00000E+00
    0.41456E-07         0.30818E-19         0.00000E+00
    0.42149E-07         0.16764E-19         0.00000E+00
    0.42779E-07         0.42636E-19         0.00000E+00
    0.43341E-07         0.22475E-19         0.00000E+00
    0.43830E-07         0.20000E-19         0.00000E+00
    0.44238E-07         0.11176E-19         0.00000E+00
    0.44562E-07         0.74506E-20         0.00000E+00
    0.44797E-07         0.15329E-19         0.00000E+00
    0.44939E-07         0.10761E-19         0.00000E+00
    0.44987E-07         0.00000E+00         0.00000E+00
    0.91510E-09         0.00000E+00         0.00000E+00
    0.91687E-09        -0.11176E-19         0.00000E+00
    0.92219E-09        -0.74506E-20         0.00000E+00
    0.93107E-09         0.42996E-20         0.00000E+00
    0.94355E-09         0.11176E-19         0.00000E+00
    0.95967E-09         0.16764E-19         0.00000E+00
    0.97946E-09         0.58078E-20         0.00000E+00
    0.10030E-08         0.40978E-19         0.00000E+00
    0.10304E-08         0.93132E-20         0.00000E+00
    0.10616E-08         0.27453E-19         0.00000E+00
    0.10969E-08         0.20489E-19         0.00000E+00
    0.11362E-08         0.31182E-19         0.00000E+00
    0.11798E-08        -0.23432E-20         0.00000E+00
    0.12278E-08         0.11176E-19         0.00000E+00
    0.12803E-08         0.24214E-19         0.00000E+00
    0.13374E-08         0.46549E-19         0.00000E+00
    0.13993E-08         0.27940E-19         0.00000E+00
    0.14663E-08         0.27940E-19         0.00000E+00
    0.15385E-08         0.48426E-19         0.00000E+00
    0.16161E-08         0.40978E-19         0.00000E+00
    0.16994E-08         0.27940E-19         0.00000E+00
    0.17885E-08         0.26077E-19         0.00000E+00
    0.18838E-08         0.31686E-19         0.00000E+00
    0.19855E-08         0.46566E-19         0.00000E+00
    0.20939E-08         0.33562E-19         0.00000E+00
    0.22093E-08         0.46525E-19         0.00000E+00
    0.23319E-08         0.18626E-19         0.00000E+00
    0.24622E-08         0.39116E-19         0.00000E+00
    0.26004E-08         0.26077E-19         0.00000E+00
    0.27470E-08         0.16764E-19         0.00000E+00
    0.29022E-08         0.31833E-19         0.00000E+00
    0.30665E-08         0.13226E-19         0.00000E+00
    0.32403E-08         0.74506E-20         0.00000E+00
    0.34240E-08        -0.72192E-20         0.00000E+00
    0.36180E-08        -0.93132E-21         0.00000E+00
    0.38228E-08        -0.13039E-19         0.00000E+00
    0.40389E-08         0.19864E-19         0.00000E+00
    0.42667E-08        -0.93132E-20         0.00000E+00
    0.45067E-08         0.37253E-20         0.00000E+00
    0.47594E-08        -0.25146E-19         0.00000E+00
    0.50254E-08        -0.12535E-19         0.00000E+00
    0.53052E-08        -0.60566E-20         0.00000E+00
    0.55992E-08        -0.26941E-19         0.00000E+00
    0.59082E-08        -0.10245E-19         0.00000E+00
    0.62326E-08        -0.10949E-19         0.00000E+00
    0.65729E-08        -0.24813E-20         0.00000E+00
    0.69299E-08        -0.21420E-19         0.00000E+00
    0.73040E-08        -0.10460E-19         0.00000E+00
    0.76958E-08        -0.16764E-19         0.00000E+00
    0.81059E-08         0.36132E-20         0.00000E+00
    0.85348E-08        -0.18626E-19         0.00000E+00
    0.89832E-08         0.18626E-19         0.00000E+00
    0.94516E-08        -0.12908E-19         0.00000E+00
    0.99405E-08         0.13561E-19         0.00000E+00
    0.10450E-07        -0.24214E-19         0.00000E+00
    0.10982E-07        -0.14901E-19         0.00000E+00
    0.11535E-07        -0.93132E-20         0.00000E+00
    0.12111E-07        -0.57817E-19         0.00000E+00
    0.12710E-07        -0.20489E-19         0.00000E+00
    0.13331E-07        -0.40709E-19         0.00000E+00
    0.13977E-07        -0.42387E-19         0.00000E+00
    0.14646E-07        -0.33528E-19         0.00000E+00
    0.15338E-07        -0.65193E-19         0.00000E+00
    0.16055E-07        -0.33395E-19         0.00000E+00
    0.16796E-07        -0.43772E-19         0.00000E+00
    0.17560E-07        -0.29802E-19         0.00000E+00
    0.18348E-07        -0.48429E-19         0.00000E+00
    0.19159E-07        -0.20489E-19         0.00000E+00
    0.19993E-07        -0.15409E-19         0.00000E+00
    0.20849E-07        -0.11406E-19         0.00000E+00
    0.21727E-07        -0.33467E-19         0.00000E+00
    0.22625E-07         0.50193E-20         0.00000E+00
    0.23543E-07        -0.74506E-20         0.00000E+00
    0.24479E-07         0.84563E-20         0.00000E+00
    0.25431E-07         0.74506E-20         0.00000E+00
    0.26399E-07         0.14901E-19         0.00000E+00
    0.27379E-07         0.27940E-20         0.00000E+00
    0.28370E-07         0.37253E-20         0.00000E+00
    0.29369E-07         0.14901E-19         0.00000E+00
    0.30374E-07        -0.22352E-19         0.00000E+00
    0.31381E-07        -0.55879E-20         0.00000E+00
    0.32387E-07         0.65193E-20         0.00000E+00
    0.33389E-07         0.22270E-19         0.00000E+00
    0.34383E-07         0.19012E-19         0.00000E+00
    0.35363E-07         0.20489E-19         0.00000E+00
    0.36327E-07         0.26077E-19         0.00000E+00
    0.37268E-07         0.13970E-19         0.00000E+00
    0.38183E-07         0.33263E-20         0.00000E+00
    0.39064E-07         0.23557E-19         0.00000E+00
    0.39907E-07         0.10245E-19         0.00000E+00
    0.40707E-07         0.31366E-19         0.00000E+00
    0.41456E-07         0.16722E-19         0.00000E+00
    0.42149E-07         0.24214E-19         0.00000E+00
    0.42779E-07         0.43046E-19         0.00000E+00
    0.43341E-07         0.39924E-19         0.00000E+00
    0.43830E-07         0.28429E-19         0.00000E+00
    0.44238E-07        -0.37253E-20         0.00000E+00
    0.44562E-07         0.27940E-19         0.00000E+00
    0.44797E-07         0.16336E-19         0.00000E+00
    0.44939E-07         0.16248E-19         0.00000E+00
    0.44987E-07         0.00000E+00         0.00000E+00
    0.91510E-09         0.00000E+00         0.00000E+00
    0.91687E-09        -0.13039E-19         0.00000E+00
    0.92219E-09        -0.37253E-20         0.00000E+00
    0.93107E-09        -0.18626E-20         0.00000E+00
    0.94355E-09         0.93132E-20         0.00000E+00
    0.95967E-09         0.18626E-19         0.00000E+00
    0.97946E-09         0.26077E-19         0.00000E+00
    0.10030E-08         0.16764E-19         0.00000E+00
    0.10304E-08         0.24214E-19         0.00000E+00
    0.10616E-08         0.13039E-19         0.00000E+00
    0.10969E-08         0.29802E-19         0.00000E+00
    0.11362E-08         0.19558E-19         0.00000E+00
    0.11798E-08         0.93132E-20         0.00000E+00
    0.12278E-08        -0.18626E-20         0.00000E+00
    0.12803E-08         0.35390E-19         0.00000E+00
    0.13374E-08         0.31665E-19         0.00000E+00
    0.13993E-08         0.37253E-20         0.00000E+00
    0.14663E-08         0.28863E-19         0.00000E+00
    0.15385E-08         0.35390E-19         0.00000E+00
    0.16161E-08         0.40978E-19         0.00000E+00
    0.16994E-08         0.26077E-19         0.00000E+00
    0.17885E-08         0.37253E-19         0.00000E+00
    0.18838E-08         0.11176E-19         0.00000E+00
    0.19855E-08         0.45662E-19         0.00000E+00
    0.20939E-08         0.18626E-19         0.00000E+00
    0.22093E-08         0.36322E-19         0.00000E+00
    0.23319E-08         0.33528E-19         0.00000E+00
    0.24622E-08         0.22352E-19         0.00000E+00
    0.26004E-08         0.24214E-19         0.00000E+00
    0.27470E-08         0.37253E-20         0.00000E+00
    0.29022E-08         0.55879E-20         0.00000E+00
    0.30665E-08         0.00000E+00         0.00000E+00
    0.32403E-08         0.11176E-19         0.00000E+00
    0.34240E-08        -0.55879E-20         0.00000E+00
    0.36180E-08        -0.25389E-20         0.00000E+00
    0.38228E-08        -0.12387E-19         0.00000E+00
    0.40389E-08        -0.13039E-19         0.00000E+00
    0.42667E-08        -0.74506E-20         0.00000E+00
    0.45067E-08         0.74506E-20         0.00000E+00
    0.47594E-08        -0.36858E-19         0.00000E+00
    0.50254E-08        -0.27940E-19         0.00000E+00
    0.53052E-08        -0.22352E-19         0.00000E+00
    0.55992E-08        -0.50291E-19         0.00000E+00
    0.59082E-08        -0.27402E-19         0.00000E+00
    0.62326E-08        -0.11578E-20         0.00000E+00
    0.65729E-08        -0.23283E-19         0.00000E+00
    0.69299E-08        -0.58518E-20         0.00000E+00
    0.73040E-08        -0.18626E-19         0.00000E+00
    0.76958E-08        -0.11176E-19         0.00000E+00
    0.81059E-08         0.47687E-20         0.00000E+00
    0.85348E-08         0.74506E-20         0.00000E+00
    0.89832E-08         0.83850E-20         0.00000E+00
    0.94516E-08        -0.11176E-19         0.00000E+00
    0.99405E-08        -0.67807E-20         0.00000E+00
    0.10450E-07        -0.14901E-19         0.00000E+00
    0.10982E-07        -0.13039E-19         0.00000E+00
    0.11535E-07        -0.93132E-20         0.00000E+00
    0.12111E-07        -0.52079E-19         0.00000E+00
    0.12710E-07        -0.39023E-19         0.00000E+00
    0.13331E-07        -0.51492E-19         0.00000E+00
    0.13977E-07        -0.41432E-19         0.00000E+00
    0.14646E-07        -0.27940E-19         0.00000E+00
    0.15338E-07        -0.57822E-19         0.00000E+00
    0.16055E-07        -0.35390E-19         0.00000E+00
    0.16796E-07        -0.42485E-19         0.00000E+00
    0.17560E-07        -0.18626E-19         0.00000E+00
    0.18348E-07        -0.48429E-19         0.00000E+00
    0.19159E-07        -0.55879E-20         0.00000E+00
    0.19993E-07        -0.21420E-19         0.00000E+00
    0.20849E-07        -0.11176E-19         0.00000E+00
    0.21727E-07        -0.14030E-19         0.00000E+00
    0.22625E-07        -0.55879E-20         0.00000E+00
    0.23543E-07         0.13039E-19         0.00000E+00
    0.24479E-07         0.37253E-20         0.00000E+00
    0.25431E-07         0.18626E-20         0.00000E+00
    0.26399E-07         0.11176E-19         0.00000E+00
    0.27379E-07         0.26284E-19         0.00000E+00
    0.28370E-07         0.11176E-19         0.00000E+00
    0.29369E-07         0.13039E-19         0.00000E+00
    0.30374E-07        -0.55879E-20         0.00000E+00
    0.31381E-07         0.00000E+00         0.00000E+00
    0.32387E-07         0.39608E-21         0.00000E+00
    0.33389E-07         0.17777E-19         0.00000E+00
    0.34383E-07         0.70653E-20         0.00000E+00
    0.35363E-07         0.24214E-19         0.00000E+00
    0.36327E-07         0.35821E-19         0.00000E+00
    0.37268E-07         0.83912E-20         0.00000E+00
    0.38183E-07         0.22617E-20         0.00000E+00
    0.39064E-07         0.14627E-19         0.00000E+00
    0.39907E-07         0.19313E-19         0.00000E+00
    0.40707E-07         0.34459E-19         0.00000E+00
    0.41456E-07         0.26119E-19         0.00000E+00
    0.42149E-07         0.45245E-19         0.00000E+00
    0.42779E-07         0.29598E-19         0.00000E+00
    0.43341E-07         0.39116E-19         0.00000E+00
    0.43830E-07         0.29802E-19         0.00000E+00
    0.44238E-07         0.55879E-20         0.00000E+00
    0.44562E-07         0.24087E-19         0.00000E+00
    0.44797E-07         0.17192E-19         0.00000E+00
    0.44939E-07         0.16764E-19         0.00000E+00
    0.44987E-07         0.00000E+00         0.00000E+00
    0.91510E-09         0.00000E+00         0.00000E+00
    0.91687E-09        -0.55879E-20         0.00000E+00
    0.92219E-09        -0.13039E-19         0.00000E+00
    0.93107E-09        -0.13039E-19         0.00000E+00
    0.94355E-09         0.13039E-19         0.00000E+00
    0.95967E-09         0.37253E-20         0.00000E+00
    0.97946E-09         0.16764E-19         0.00000E+00
    0.10030E-08         0.13039E-19         0.00000E+00
    0.10304E-08         0.35390E-19         0.00000E+00
    0.10616E-08         0.00000E+00         0.00000E+00
    0.10969E-08         0.46566E-19         0.00000E+00
    0.11362E-08         0.29354E-19         0.00000E+00
    0.11798E-08         0.11176E-19         0.00000E+00
    0.12278E-08        -0.11176E-19         0.00000E+00
    0.12803E-08         0.16764E-19         0.00000E+00
    0.13374E-08         0.18626E-19         0.00000E+00
    0.13993E-08         0.18626E-20         0.00000E+00
    0.14663E-08         0.24222E-19         0.00000E+00
    0.15385E-08         0.27940E-19         0.00000E+00
    0.16161E-08         0.30734E-19         0.00000E+00
    0.16994E-08         0.31665E-19         0.00000E+00
    0.17885E-08         0.31665E-19         0.00000E+00
    0.18838E-08         0.13018E-19         0.00000E+00
    0.19855E-08         0.39088E-19         0.00000E+00
    0.20939E-08         0.93132E-20         0.00000E+00
    0.22093E-08         0.34500E-19         0.00000E+00
    0.23319E-08         0.16764E-19         0.00000E+00
    0.24622E-08         0.11176E-19         0.00000E+00
    0.26004E-08         0.18626E-19         0.00000E+00
    0.27470E-08         0.19558E-19         0.00000E+00
    0.29022E-08         0.93132E-20         0.00000E+00
    0.30665E-08        -0.11176E-19         0.00000E+00
    0.32403E-08         0.18626E-20         0.00000E+00
    0.34240E-08         0.10245E-19         0.00000E+00
    0.36180E-08        -0.77056E-20         0.00000E+00
    0.38228E-08        -0.81018E-20         0.00000E+00
    0.40389E-08        -0.33528E-19         0.00000E+00
    0.42667E-08        -0.55879E-20         0.00000E+00
    0.45067E-08        -0.27940E-20         0.00000E+00
    0.47594E-08        -0.27403E-19         0.00000E+00
    0.50254E-08        -0.41054E-19         0.00000E+00
    0.53052E-08        -0.34459E-19         0.00000E+00
    0.55992E-08        -0.46566E-19         0.00000E+00
    0.59082E-08        -0.31665E-19         0.00000E+00
    0.62326E-08        -0.40777E-20         0.00000E+00
    0.65729E-08        -0.35081E-19         0.00000E+00
    0.69299E-08         0.22616E-19         0.00000E+00
    0.73040E-08        -0.65193E-20         0.00000E+00
    0.76958E-08        -0.11176E-19         0.00000E+00
    0.81059E-08        -0.94253E-20         0.00000E+00
    0.85348E-08         0.55879E-20         0.00000E+00
    0.89832E-08        -0.22355E-19         0.00000E+00
    0.94516E-08         0.11176E-19         0.00000E+00
    0.99405E-08        -0.12107E-19         0.00000E+00
    0.10450E-07        -0.74506E-20         0.00000E+00
    0.10982E-07        -0.93132E-20         0.00000E+00
    0.11535E-07        -0.27940E-19         0.00000E+00
    0.12111E-07        -0.83819E-20         0.00000E+00
    0.12710E-07        -0.55972E-19         0.00000E+00
    0.13331E-07        -0.71712E-19         0.00000E+00
    0.13977E-07        -0.43318E-19         0.00000E+00
    0.14646E-07        -0.31665E-19         0.00000E+00
    0.15338E-07        -0.54017E-19         0.00000E+00
    0.16055E-07        -0.50291E-19         0.00000E+00
    0.16796E-07        -0.21776E-19         0.00000E+00
    0.17560E-07        -0.37253E-19         0.00000E+00
    0.18348E-07        -0.35390E-19         0.00000E+00
    0.19159E-07        -0.21420E-19         0.00000E+00
    0.19993E-07        -0.24638E-19         0.00000E+00
    0.20849E-07        -0.33528E-19         0.00000E+00
    0.21727E-07        -0.27337E-20         0.00000E+00
    0.22625E-07        -0.16764E-19         0.00000E+00
    0.23543E-07         0.55879E-20         0.00000E+00
    0.24479E-07         0.00000E+00         0.00000E+00
    0.25431E-07        -0.21420E-19         0.00000E+00
    0.26399E-07         0.74506E-20         0.00000E+00
    0.27379E-07         0.32389E-19         0.00000E+00
    0.28370E-07        -0.37253E-20         0.00000E+00
    0.29369E-07         0.83819E-20         0.00000E+00
    0.30374E-07         0.12107E-19         0.00000E+00
    0.31381E-07         0.13039E-19         0.00000E+00
    0.32387E-07         0.10780E-19         0.00000E+00
    0.33389E-07         0.37253E-20         0.00000E+00
    0.34383E-07         0.15286E-19         0.00000E+00
    0.35363E-07         0.11111E-19         0.00000E+00
    0.36327E-07         0.18626E-19         0.00000E+00
    0.37268E-07         0.93132E-20         0.00000E+00
    0.38183E-07         0.33263E-20         0.00000E+00
    0.39064E-07         0.13176E-19         0.00000E+00
    0.39907E-07         0.19558E-19         0.00000E+00
    0.40707E-07         0.29486E-19         0.00000E+00
    0.41456E-07         0.35348E-19         0.00000E+00
    0.42149E-07         0.43230E-19         0.00000E+00
    0.42779E-07         0.35390E-19         0.00000E+00
    0.43341E-07         0.46566E-20         0.00000E+00
    0.43830E-07         0.26077E-19         0.00000E+00
    0.44238E-07         0.26077E-19         0.00000E+00
    0.44562E-07         0.55879E-20         0.00000E+00
    0.44797E-07         0.21924E-19         0.00000E+00
    0.44939E-07         0.11176E-19         0.00000E+00
    0.44987E-07         0.00000E+00         0.00000E+00
    0.91510E-09         0.00000E+00         0.00000E+00
    0.91687E-09        -0.55879E-20         0.00000E+00
    0.92219E-09        -0.18626E-20         0.00000E+00
    0.93107E-09        -0.17695E-19         0.00000E+00
    0.94355E-09         0.93132E-20         0.00000E+00
    0.95967E-09        -0.46566E-20         0.00000E+00
    0.97946E-09         0.12107E-19         0.00000E+00
    0.10030E-08         0.29802E-19         0.00000E+00
    0.10304E-08         0.46566E-19         0.00000E+00
    0.10616E-08         0.55879E-20         0.00000E+00
    0.10969E-08         0.30734E-19         0.00000E+00
    0.11362E-08         0.38633E-19         0.00000E+00
    0.11798E-08        -0.27940E-20         0.00000E+00
    0.12278E-08         0.24214E-19         0.00000E+00
    0.12803E-08         0.00000E+00         0.00000E+00
    0.13374E-08         0.24214E-19         0.00000E+00
    0.13993E-08        -0.18626E-20         0.00000E+00
    0.14663E-08         0.25138E-19         0.00000E+00
    0.15385E-08         0.52154E-19         0.00000E+00
    0.16161E-08         0.30737E-19         0.00000E+00
    0.16994E-08         0.36322E-19         0.00000E+00
    0.17885E-08         0.93132E-20         0.00000E+00
    0.18838E-08         0.38205E-19         0.00000E+00
    0.19855E-08         0.28925E-19         0.00000E+00
    0.20939E-08         0.17695E-19         0.00000E+00
    0.22093E-08         0.18626E-20         0.00000E+00
    0.23319E-08         0.14901E-19         0.00000E+00
    0.24622E-08         0.55879E-20         0.00000E+00
    0.26004E-08         0.20489E-19         0.00000E+00
    0.27470E-08         0.26226E-19         0.00000E+00
    0.29022E-08         0.27940E-19         0.00000E+00
    0.30665E-08        -0.22352E-19         0.00000E+00
    0.32403E-08        -0.74506E-20         0.00000E+00
    0.34240E-08        -0.44252E-20         0.00000E+00
    0.36180E-08        -0.71955E-20         0.00000E+00
    0.38228E-08         0.00000E+00         0.00000E+00
    0.40389E-08        -0.14901E-19         0.00000E+00
    0.42667E-08        -0.93132E-20         0.00000E+00
    0.45067E-08        -0.15469E-19         0.00000E+00
    0.47594E-08        -0.21957E-19         0.00000E+00
    0.50254E-08        -0.48429E-19         0.00000E+00
    0.53052E-08        -0.34922E-19         0.00000E+00
    0.55992E-08        -0.20489E-19         0.00000E+00
    0.59082E-08        -0.31665E-19         0.00000E+00
    0.62326E-08        -0.13391E-19         0.00000E+00
    0.65729E-08        -0.29180E-19         0.00000E+00
    0.69299E-08         0.14637E-19         0.00000E+00
    0.73040E-08        -0.67352E-20         0.00000E+00
    0.76958E-08         0.00000E+00         0.00000E+00
    0.81059E-08        -0.31665E-19         0.00000E+00
    0.85348E-08         0.00000E+00         0.00000E+00
    0.89832E-08        -0.74444E-20         0.00000E+00
    0.94516E-08         0.14901E-19         0.00000E+00
    0.99405E-08        -0.10914E-19         0.00000E+00
    0.10450E-07        -0.37253E-20         0.00000E+00
    0.10982E-07         0.18626E-20         0.00000E+00
    0.11535E-07        -0.26077E-19         0.00000E+00
    0.12111E-07        -0.84571E-20         0.00000E+00
    0.12710E-07        -0.45635E-19         0.00000E+00
    0.13331E-07        -0.36053E-19         0.00000E+00
    0.13977E-07        -0.46566E-19         0.00000E+00
    0.14646E-07        -0.54300E-19         0.00000E+00
    0.15338E-07        -0.44703E-19         0.00000E+00
    0.16055E-07        -0.40978E-19         0.00000E+00
    0.16796E-07        -0.13039E-19         0.00000E+00
    0.17560E-07        -0.33528E-19         0.00000E+00
    0.18348E-07        -0.30832E-19         0.00000E+00
    0.19159E-07        -0.25920E-19         0.00000E+00
    0.19993E-07        -0.29379E-19         0.00000E+00
    0.20849E-07        -0.24214E-19         0.00000E+00
    0.21727E-07        -0.55879E-20         0.00000E+00
    0.22625E-07        -0.26077E-19         0.00000E+00
    0.23543E-07        -0.24214E-19         0.00000E+00
    0.24479E-07        -0.18626E-20         0.00000E+00
    0.25431E-07        -0.10760E-19         0.00000E+00
    0.26399E-07         0.93132E-20         0.00000E+00
    0.27379E-07         0.20489E-19         0.00000E+00
    0.28370E-07        -0.18626E-20         0.00000E+00
    0.29369E-07         0.84358E-20         0.00000E+00
    0.30374E-07         0.12571E-19         0.00000E+00
    0.31381E-07         0.16764E-19         0.00000E+00
    0.32387E-07         0.97093E-20         0.00000E+00
    0.33389E-07         0.11176E-19         0.00000E+00
    0.34383E-07         0.50419E-20         0.00000E+00
    0.35363E-07        -0.18626E-20         0.00000E+00
    0.36327E-07         0.10245E-19         0.00000E+00
    0.37268E-07         0.11176E-19         0.00000E+00
    0.38183E-07         0.55879E-20         0.00000E+00
    0.39064E-07         0.18764E-19         0.00000E+00
    0.39907E-07         0.53428E-20         0.00000E+00
    0.40707E-07         0.21737E-19         0.00000E+00
    0.41456E-07         0.26035E-19         0.00000E+00
    0.42149E-07         0.13580E-19         0.00000E+00
    0.42779E-07         0.41183E-19         0.00000E+00
    0.43341E-07         0.80839E-21         0.00000E+00
    0.43830E-07         0.24656E-19         0.00000E+00
    0.44238E-07         0.26077E-19         0.00000E+00
    0.44562E-07        -0.13039E-19         0.00000E+00
    0.44797E-07         0.18626E-19         0.00000E+00
    0.44939E-07         0.37253E-20         0.00000E+00
    0.44987E-07         0.00000E+00         0.00000E+00
    0.91510E-09         0.00000E+00         0.00000E+00
    0.91687E-09         0.55879E-20         0.00000E+00
    0.92219E-09        -0.74506E-20         0.00000E+00
    0.93107E-09        -0.89562E-20         0.00000E+00
    0.94355E-09        -0.37253E-20         0.00000E+00
    0.95967E-09        -0.44376E-20         0.00000E+00
    0.97946E-09         0.18407E-19         0.00000E+00
    0.10030E-08         0.37253E-19         0.00000E+00
    0.10304E-08         0.35390E-19         0.00000E+00
    0.10616E-08         0.31665E-19         0.00000E+00
    0.10969E-08         0.27455E-19         0.00000E+00
    0.11362E-08         0.30285E-19         0.00000E+00
    0.11798E-08         0.32746E-20         0.00000E+00
    0.12278E-08         0.29802E-19         0.00000E+00
    0.12803E-08         0.22352E-19         0.00000E+00
    0.13374E-08         0.33528E-19         0.00000E+00
    0.13993E-08         0.55879E-20         0.00000E+00
    0.14663E-08         0.18626E-20         0.00000E+00
    0.15385E-08         0.50291E-19         0.00000E+00
    0.16161E-08         0.42838E-19         0.00000E+00
    0.16994E-08         0.41918E-19         0.00000E+00
    0.17885E-08         0.93132E-20         0.00000E+00
    0.18838E-08         0.26056E-19         0.00000E+00
    0.19855E-08         0.31665E-19         0.00000E+00
    0.20939E-08         0.14867E-19         0.00000E+00
    0.22093E-08         0.18626E-20         0.00000E+00
    0.23319E-08         0.24214E-19         0.00000E+00
    0.24622E-08         0.11176E-19         0.00000E+00
    0.26004E-08         0.31665E-19         0.00000E+00
    0.27470E-08         0.15684E-19         0.00000E+00
    0.29022E-08         0.13039E-19         0.00000E+00
    0.30665E-08        -0.22352E-19         0.00000E+00
    0.32403E-08        -0.37253E-20         0.00000E+00
    0.34240E-08        -0.15133E-19         0.00000E+00
    0.36180E-08        -0.74506E-20         0.00000E+00
    0.38228E-08        -0.18626E-20         0.00000E+00
    0.40389E-08        -0.14901E-19         0.00000E+00
    0.42667E-08        -0.43175E-19         0.00000E+00
    0.45067E-08        -0.11540E-19         0.00000E+00
    0.47594E-08        -0.41373E-19         0.00000E+00
    0.50254E-08        -0.35390E-19         0.00000E+00
    0.53052E-08        -0.24214E-19         0.00000E+00
    0.55992E-08        -0.13039E-19         0.00000E+00
    0.59082E-08        -0.23283E-19         0.00000E+00
    0.62326E-08        -0.19205E-19         0.00000E+00
    0.65729E-08        -0.17076E-19         0.00000E+00
    0.69299E-08        -0.16500E-19         0.00000E+00
    0.73040E-08        -0.21420E-19         0.00000E+00
    0.76958E-08         0.13039E-19         0.00000E+00
    0.81059E-08        -0.19558E-19         0.00000E+00
    0.85348E-08         0.14901E-19         0.00000E+00
    0.89832E-08        -0.28001E-20         0.00000E+00
    0.94516E-08         0.20489E-19         0.00000E+00
    0.99405E-08        -0.16094E-19         0.00000E+00
    0.10450E-07        -0.74506E-20         0.00000E+00
    0.10982E-07         0.00000E+00         0.00000E+00
    0.11535E-07        -0.14901E-19         0.00000E+00
    0.12111E-07        -0.46566E-19         0.00000E+00
    0.12710E-07        -0.52061E-19         0.00000E+00
    0.13331E-07        -0.33797E-19         0.00000E+00
    0.13977E-07        -0.43772E-19         0.00000E+00
    0.14646E-07        -0.53733E-19         0.00000E+00
    0.15338E-07        -0.29802E-19         0.00000E+00
    0.16055E-07        -0.46566E-19         0.00000E+00
    0.16796E-07        -0.31665E-19         0.00000E+00
    0.17560E-07        -0.26077E-19         0.00000E+00
    0.18348E-07        -0.17597E-19         0.00000E+00
    0.19159E-07        -0.21577E-19         0.00000E+00
    0.19993E-07        -0.32088E-19         0.00000E+00
    0.20849E-07        -0.16764E-19         0.00000E+00
    0.21727E-07        -0.93735E-20         0.00000E+00
    0.22625E-07        -0.44703E-19         0.00000E+00
    0.23543E-07        -0.27940E-19         0.00000E+00
    0.24479E-07        -0.55879E-20         0.00000E+00
    0.25431E-07        -0.32096E-20         0.00000E+00
    0.26399E-07        -0.35641E-20         0.00000E+00
    0.27379E-07         0.55879E-20         0.00000E+00
    0.28370E-07         0.37253E-20         0.00000E+00
    0.29369E-07         0.73967E-20         0.00000E+00
    0.30374E-07         0.11176E-19         0.00000E+00
    0.31381E-07         0.18626E-20         0.00000E+00
    0.32387E-07        -0.69153E-20         0.00000E+00
    0.33389E-07         0.21420E-19         0.00000E+00
    0.34383E-07         0.10921E-20         0.00000E+00
    0.35363E-07        -0.27295E-20         0.00000E+00
    0.36327E-07         0.11676E-19         0.00000E+00
    0.37268E-07         0.10245E-19         0.00000E+00
    0.38183E-07         0.18626E-20         0.00000E+00
    0.39064E-07         0.13833E-19         0.00000E+00
    0.39907E-07         0.11764E-20         0.00000E+00
    0.40707E-07         0.30101E-19         0.00000E+00
    0.41456E-07         0.93554E-20         0.00000E+00
    0.42149E-07         0.21810E-19         0.00000E+00
    0.42779E-07         0.24214E-19         0.00000E+00
    0.43341E-07         0.19558E-19         0.00000E+00
    0.43830E-07         0.14459E-19         0.00000E+00
    0.44238E-07         0.26077E-19         0.00000E+00
    0.44562E-07        -0.93132E-20         0.00000E+00
    0.44797E-07        -0.18626E-20         0.00000E+00
    0.44939E-07         0.00000E+00         0.00000E+00
    0.44987E-07         0.00000E+00         0.00000E+00
    0.91510E-09         0.00000E+00         0.00000E+00
    0.91687E-09         0.16764E-19         0.00000E+00
    0.92219E-09        -0.55879E-20         0.00000E+00
    0.93107E-09        -0.40823E-20         0.00000E+00
    0.94355E-09        -0.37253E-20         0.00000E+00
    0.95967E-09        -0.93132E-21         0.00000E+00
    0.97946E-09         0.13258E-19         0.00000E+00
    0.10030E-08         0.24214E-19         0.00000E+00
    0.10304E-08         0.14901E-19         0.00000E+00
    0.10616E-08         0.40978E-19         0.00000E+00
    0.10969E-08         0.28871E-19         0.00000E+00
    0.11362E-08         0.60367E-20         0.00000E+00
    0.11798E-08         0.24665E-19         0.00000E+00
    0.12278E-08        -0.37253E-20         0.00000E+00
    0.12803E-08         0.35390E-19         0.00000E+00
    0.13374E-08         0.26094E-19         0.00000E+00
    0.13993E-08         0.35390E-19         0.00000E+00
    0.14663E-08        -0.13039E-19         0.00000E+00
    0.15385E-08         0.22352E-19         0.00000E+00
    0.16161E-08         0.46566E-19         0.00000E+00
    0.16994E-08         0.39116E-19         0.00000E+00
    0.17885E-08         0.19558E-19         0.00000E+00
    0.18838E-08         0.84025E-20         0.00000E+00
    0.19855E-08         0.17668E-19         0.00000E+00
    0.20939E-08         0.37592E-20         0.00000E+00
    0.22093E-08         0.18626E-19         0.00000E+00
    0.23319E-08         0.37253E-20         0.00000E+00
    0.24622E-08         0.16764E-19         0.00000E+00
    0.26004E-08         0.20489E-19         0.00000E+00
    0.27470E-08         0.46566E-20         0.00000E+00
    0.29022E-08        -0.16777E-21         0.00000E+00
    0.30665E-08        -0.31665E-19         0.00000E+00
    0.32403E-08        -0.55879E-20         0.00000E+00
    0.34240E-08        -0.74506E-20         0.00000E+00
    0.36180E-08        -0.20489E-19         0.00000E+00
    0.38228E-08        -0.93132E-20         0.00000E+00
    0.40389E-08        -0.16764E-19         0.00000E+00
    0.42667E-08        -0.56811E-19         0.00000E+00
    0.45067E-08        -0.74506E-20         0.00000E+00
    0.47594E-08        -0.31665E-19         0.00000E+00
    0.50254E-08        -0.21420E-19         0.00000E+00
    0.53052E-08        -0.16764E-19         0.00000E+00
    0.55992E-08        -0.55879E-20         0.00000E+00
    0.59082E-08        -0.70573E-20         0.00000E+00
    0.62326E-08        -0.39116E-19         0.00000E+00
    0.65729E-08        -0.46566E-20         0.00000E+00
    0.69299E-08        -0.35654E-19         0.00000E+00
    0.73040E-08        -0.12823E-19         0.00000E+00
    0.76958E-08         0.74506E-20         0.00000E+00
    0.81059E-08        -0.20377E-19         0.00000E+00
    0.85348E-08         0.11176E-19         0.00000E+00
    0.89832E-08         0.93132E-21         0.00000E+00
    0.94516E-08         0.93132E-20         0.00000E+00
    0.99405E-08        -0.26077E-19         0.00000E+00
    0.10450E-07        -0.93132E-20         0.00000E+00
    0.10982E-07        -0.22352E-19         0.00000E+00
    0.11535E-07        -0.26077E-19         0.00000E+00
    0.12111E-07        -0.28871E-19         0.00000E+00
    0.12710E-07        -0.52247E-19         0.00000E+00
    0.13331E-07        -0.51885E-19         0.00000E+00
    0.13977E-07        -0.34913E-19         0.00000E+00
    0.14646E-07        -0.42841E-19         0.00000E+00
    0.15338E-07        -0.33528E-19         0.00000E+00
    0.16055E-07        -0.50291E-19         0.00000E+00
    0.16796E-07        -0.37253E-19         0.00000E+00
    0.17560E-07        -0.37253E-19         0.00000E+00
    0.18348E-07        -0.27940E-20         0.00000E+00
    0.19159E-07        -0.18626E-19         0.00000E+00
    0.19993E-07        -0.30310E-19         0.00000E+00
    0.20849E-07        -0.93132E-20         0.00000E+00
    0.21727E-07        -0.16764E-19         0.00000E+00
    0.22625E-07        -0.22352E-19         0.00000E+00
    0.23543E-07        -0.31665E-19         0.00000E+00
    0.24479E-07        -0.13039E-19         0.00000E+00
    0.25431E-07         0.13039E-19         0.00000E+00
    0.26399E-07        -0.28871E-19         0.00000E+00
    0.27379E-07         0.74506E-20         0.00000E+00
    0.28370E-07        -0.74506E-20         0.00000E+00
    0.29369E-07        -0.93132E-21         0.00000E+00
    0.30374E-07        -0.93132E-21         0.00000E+00
    0.31381E-07         0.74506E-20         0.00000E+00
    0.32387E-07         0.16764E-19         0.00000E+00
    0.33389E-07         0.11094E-19         0.00000E+00
    0.34383E-07         0.69045E-20         0.00000E+00
    0.35363E-07        -0.10309E-19         0.00000E+00
    0.36327E-07         0.11176E-19         0.00000E+00
    0.37268E-07         0.11167E-19         0.00000E+00
    0.38183E-07         0.51889E-20         0.00000E+00
    0.39064E-07        -0.74506E-20         0.00000E+00
    0.39907E-07         0.28871E-19         0.00000E+00
    0.40707E-07         0.26077E-19         0.00000E+00
    0.41456E-07         0.14859E-19         0.00000E+00
    0.42149E-07         0.27550E-19         0.00000E+00
    0.42779E-07         0.16559E-19         0.00000E+00
    0.43341E-07         0.20612E-19         0.00000E+00
    0.43830E-07        -0.37253E-20         0.00000E+00
    0.44238E-07         0.15832E-19         0.00000E+00
    0.44562E-07         0.74506E-20         0.00000E+00
    0.44797E-07        -0.51602E-20         0.00000E+00
    0.44939E-07         0.18626E-20         0.00000E+00
    0.44987E-07         0.00000E+00         0.00000E+00
    0.91510E-09         0.00000E+00         0.00000E+00
    0.91687E-09         0.11176E-19         0.00000E+00
    0.92219E-09         0.29802E-19         0.00000E+00
    0.93107E-09        -0.57434E-21         0.00000E+00
    0.94355E-09         0.18626E-20         0.00000E+00
    0.95967E-09         0.25750E-20         0.00000E+00
    0.97946E-09         0.71147E-21         0.00000E+00
    0.10030E-08         0.83819E-20         0.00000E+00
    0.10304E-08         0.93132E-20         0.00000E+00
    0.10616E-08         0.27008E-19         0.00000E+00
    0.10969E-08         0.13523E-19         0.00000E+00
    0.11362E-08         0.97958E-20         0.00000E+00
    0.11798E-08         0.22832E-19         0.00000E+00
    0.12278E-08         0.93132E-20         0.00000E+00
    0.12803E-08         0.26077E-19         0.00000E+00
    0.13374E-08         0.13039E-19         0.00000E+00
    0.13993E-08         0.33528E-19         0.00000E+00
    0.14663E-08         0.93207E-20         0.00000E+00
    0.15385E-08         0.16764E-19         0.00000E+00
    0.16161E-08         0.44703E-19         0.00000E+00
    0.16994E-08         0.26069E-19         0.00000E+00
    0.17885E-08         0.22366E-19         0.00000E+00
    0.18838E-08        -0.56085E-20         0.00000E+00
    0.19855E-08         0.10272E-19         0.00000E+00
    0.20939E-08         0.64853E-20         0.00000E+00
    0.22093E-08         0.74506E-20         0.00000E+00
    0.23319E-08         0.18626E-20         0.00000E+00
    0.24622E-08         0.12107E-19         0.00000E+00
    0.26004E-08         0.10245E-19         0.00000E+00
    0.27470E-08         0.29428E-20         0.00000E+00
    0.29022E-08        -0.83819E-20         0.00000E+00
    0.30665E-08        -0.93132E-20         0.00000E+00
    0.32403E-08        -0.20489E-19         0.00000E+00
    0.34240E-08        -0.25626E-20         0.00000E+00
    0.36180E-08        -0.17019E-19         0.00000E+00
    0.38228E-08        -0.46566E-20         0.00000E+00
    0.40389E-08        -0.32596E-19         0.00000E+00
    0.42667E-08        -0.21086E-19         0.00000E+00
    0.45067E-08        -0.42841E-19         0.00000E+00
    0.47594E-08        -0.93132E-20         0.00000E+00
    0.50254E-08        -0.40475E-19         0.00000E+00
    0.53052E-08        -0.10713E-19         0.00000E+00
    0.55992E-08         0.12107E-19         0.00000E+00
    0.59082E-08        -0.16226E-19         0.00000E+00
    0.62326E-08        -0.30734E-19         0.00000E+00
    0.65729E-08        -0.77599E-20         0.00000E+00
    0.69299E-08        -0.38852E-19         0.00000E+00
    0.73040E-08        -0.11472E-20         0.00000E+00
    0.76958E-08        -0.10845E-19         0.00000E+00
    0.81059E-08        -0.19670E-19         0.00000E+00
    0.85348E-08        -0.37253E-20         0.00000E+00
    0.89832E-08        -0.27970E-20         0.00000E+00
    0.94516E-08        -0.13039E-19         0.00000E+00
    0.99405E-08        -0.33528E-19         0.00000E+00
    0.10450E-07        -0.37253E-20         0.00000E+00
    0.10982E-07        -0.24214E-19         0.00000E+00
    0.11535E-07        -0.31665E-19         0.00000E+00
    0.12111E-07        -0.83067E-20         0.00000E+00
    0.12710E-07        -0.47405E-19         0.00000E+00
    0.13331E-07        -0.45635E-19         0.00000E+00
    0.13977E-07        -0.27008E-19         0.00000E+00
    0.14646E-07        -0.52154E-19         0.00000E+00
    0.15338E-07        -0.44703E-19         0.00000E+00
    0.16055E-07        -0.42841E-19         0.00000E+00
    0.16796E-07        -0.48429E-19         0.00000E+00
    0.17560E-07        -0.33528E-19         0.00000E+00
    0.18348E-07         0.17645E-20         0.00000E+00
    0.19159E-07        -0.29802E-19         0.00000E+00
    0.19993E-07        -0.27008E-19         0.00000E+00
    0.20849E-07        -0.16328E-20         0.00000E+00
    0.21727E-07        -0.27940E-19         0.00000E+00
    0.22625E-07        -0.93132E-21         0.00000E+00
    0.23543E-07        -0.31665E-19         0.00000E+00
    0.24479E-07        -0.13039E-19         0.00000E+00
    0.25431E-07         0.26077E-19         0.00000E+00
    0.26399E-07        -0.27170E-19         0.00000E+00
    0.27379E-07         0.37253E-20         0.00000E+00
    0.28370E-07        -0.55879E-20         0.00000E+00
    0.29369E-07         0.56418E-20         0.00000E+00
    0.30374E-07         0.13985E-20         0.00000E+00
    0.31381E-07         0.10245E-19         0.00000E+00
    0.32387E-07         0.15832E-19         0.00000E+00
    0.33389E-07         0.93954E-20         0.00000E+00
    0.34383E-07        -0.37253E-20         0.00000E+00
    0.35363E-07         0.00000E+00         0.00000E+00
    0.36327E-07         0.11176E-19         0.00000E+00
    0.37268E-07         0.83912E-20         0.00000E+00
    0.38183E-07         0.17163E-19         0.00000E+00
    0.39064E-07        -0.65193E-20         0.00000E+00
    0.39907E-07         0.26763E-19         0.00000E+00
    0.40707E-07         0.18943E-19         0.00000E+00
    0.41456E-07         0.33570E-19         0.00000E+00
    0.42149E-07         0.16222E-19         0.00000E+00
    0.42779E-07         0.22352E-19         0.00000E+00
    0.43341E-07         0.28748E-19         0.00000E+00
    0.43830E-07        -0.18626E-20         0.00000E+00
    0.44238E-07         0.15075E-20         0.00000E+00
    0.44562E-07         0.10372E-19         0.00000E+00
    0.44797E-07         0.32975E-20         0.00000E+00
    0.44939E-07        -0.37253E-20         0.00000E+00
    0.44987E-07         0.18626E-20         0.00000E+00
    0.91510E-09         0.00000E+00         0.00000E+00
    0.91687E-09         0.83819E-20         0.00000E+00
    0.92219E-09         0.31665E-19         0.00000E+00
    0.93107E-09         0.12107E-19         0.00000E+00
    0.94355E-09         0.18626E-20         0.00000E+00
    0.95967E-09         0.37253E-20         0.00000E+00
    0.97946E-09         0.46566E-20         0.00000E+00
    0.10030E-08         0.19068E-19         0.00000E+00
    0.10304E-08         0.13970E-19         0.00000E+00
    0.10616E-08         0.25632E-19         0.00000E+00
    0.10969E-08         0.14901E-19         0.00000E+00
    0.11362E-08         0.27008E-19         0.00000E+00
    0.11798E-08        -0.46566E-20         0.00000E+00
    0.12278E-08         0.22352E-19         0.00000E+00
    0.12803E-08         0.22330E-19         0.00000E+00
    0.13374E-08         0.14884E-19         0.00000E+00
    0.13993E-08         0.32596E-19         0.00000E+00
    0.14663E-08         0.19558E-19         0.00000E+00
    0.15385E-08         0.25148E-19         0.00000E+00
    0.16161E-08         0.54017E-19         0.00000E+00
    0.16994E-08         0.16764E-19         0.00000E+00
    0.17885E-08         0.30719E-19         0.00000E+00
    0.18838E-08         0.74506E-20         0.00000E+00
    0.19855E-08         0.12080E-19         0.00000E+00
    0.20939E-08         0.65193E-20         0.00000E+00
    0.22093E-08        -0.41199E-22         0.00000E+00
    0.23319E-08         0.13039E-19         0.00000E+00
    0.24622E-08         0.38391E-20         0.00000E+00
    0.26004E-08         0.57187E-20         0.00000E+00
    0.27470E-08         0.11176E-19         0.00000E+00
    0.29022E-08        -0.15665E-19         0.00000E+00
    0.30665E-08         0.14901E-19         0.00000E+00
    0.32403E-08        -0.20489E-19         0.00000E+00
    0.34240E-08        -0.10476E-19         0.00000E+00
    0.36180E-08         0.00000E+00         0.00000E+00
    0.38228E-08        -0.86620E-20         0.00000E+00
    0.40389E-08        -0.33834E-19         0.00000E+00
    0.42667E-08        -0.26077E-19         0.00000E+00
    0.45067E-08        -0.47497E-19         0.00000E+00
    0.47594E-08         0.37253E-20         0.00000E+00
    0.50254E-08        -0.33528E-19         0.00000E+00
    0.53052E-08        -0.21883E-19         0.00000E+00
    0.55992E-08         0.10677E-19         0.00000E+00
    0.59082E-08        -0.14901E-19         0.00000E+00
    0.62326E-08        -0.32017E-19         0.00000E+00
    0.65729E-08        -0.16142E-19         0.00000E+00
    0.69299E-08        -0.41242E-19         0.00000E+00
    0.73040E-08        -0.37253E-20         0.00000E+00
    0.76958E-08        -0.15232E-19         0.00000E+00
    0.81059E-08         0.55879E-20         0.00000E+00
    0.85348E-08         0.37253E-20         0.00000E+00
    0.89832E-08        -0.74475E-20         0.00000E+00
    0.94516E-08        -0.22352E-19         0.00000E+00
    0.99405E-08        -0.16764E-19         0.00000E+00
    0.10450E-07         0.74506E-20         0.00000E+00
    0.10982E-07        -0.18626E-19         0.00000E+00
    0.11535E-07        -0.26077E-19         0.00000E+00
    0.12111E-07        -0.13039E-19         0.00000E+00
    0.12710E-07        -0.53178E-19         0.00000E+00
    0.13331E-07        -0.37522E-19         0.00000E+00
    0.13977E-07        -0.37730E-19         0.00000E+00
    0.14646E-07        -0.31665E-19         0.00000E+00
    0.15338E-07        -0.48429E-19         0.00000E+00
    0.16055E-07        -0.40978E-19         0.00000E+00
    0.16796E-07        -0.40978E-19         0.00000E+00
    0.17560E-07        -0.35390E-19         0.00000E+00
    0.18348E-07        -0.92151E-20         0.00000E+00
    0.19159E-07        -0.22352E-19         0.00000E+00
    0.19993E-07        -0.30226E-19         0.00000E+00
    0.20849E-07        -0.16764E-19         0.00000E+00
    0.21727E-07        -0.34459E-19         0.00000E+00
    0.22625E-07        -0.36270E-21         0.00000E+00
    0.23543E-07        -0.14901E-19         0.00000E+00
    0.24479E-07        -0.26077E-19         0.00000E+00
    0.25431E-07         0.10245E-19         0.00000E+00
    0.26399E-07        -0.18626E-20         0.00000E+00
    0.27379E-07        -0.37253E-20         0.00000E+00
    0.28370E-07         0.55879E-20         0.00000E+00
    0.29369E-07         0.64654E-20         0.00000E+00
    0.30374E-07         0.15365E-19         0.00000E+00
    0.31381E-07         0.12064E-19         0.00000E+00
    0.32387E-07         0.10641E-19         0.00000E+00
    0.33389E-07        -0.38074E-20         0.00000E+00
    0.34383E-07         0.00000E+00         0.00000E+00
    0.35363E-07         0.18626E-20         0.00000E+00
    0.36327E-07         0.32251E-20         0.00000E+00
    0.37268E-07         0.74506E-20         0.00000E+00
    0.38183E-07         0.25146E-19         0.00000E+00
    0.39064E-07         0.13176E-19         0.00000E+00
    0.39907E-07         0.13039E-19         0.00000E+00
    0.40707E-07         0.20805E-19         0.00000E+00
    0.41456E-07         0.42799E-19         0.00000E+00
    0.42149E-07         0.98550E-20         0.00000E+00
    0.42779E-07         0.35595E-19         0.00000E+00
    0.43341E-07         0.18626E-19         0.00000E+00
    0.43830E-07         0.74506E-20         0.00000E+00
    0.44238E-07         0.50118E-20         0.00000E+00
    0.44562E-07         0.12911E-19         0.00000E+00
    0.44797E-07        -0.37253E-20         0.00000E+00
    0.44939E-07         0.11176E-19         0.00000E+00
    0.44987E-07         0.20344E-20         0.00000E+00
    0.91510E-09         0.00000E+00         0.00000E+00
    0.91687E-09         0.17516E-19         0.00000E+00
    0.92219E-09         0.61619E-20         0.00000E+00
    0.93107E-09         0.22926E-19         0.00000E+00
    0.94355E-09         0.39435E-20         0.00000E+00
    0.95967E-09        -0.37253E-20         0.00000E+00
    0.97946E-09         0.48765E-20         0.00000E+00
    0.10030E-08         0.22842E-19         0.00000E+00
    0.10304E-08         0.15344E-19         0.00000E+00
    0.10616E-08         0.28385E-19         0.00000E+00
    0.10969E-08         0.11176E-19         0.00000E+00
    0.11362E-08         0.18144E-19         0.00000E+00
    0.11798E-08        -0.48059E-21         0.00000E+00
    0.12278E-08         0.24214E-19         0.00000E+00
    0.12803E-08         0.16785E-19         0.00000E+00
    0.13374E-08         0.13039E-19         0.00000E+00
    0.13993E-08         0.16751E-19         0.00000E+00
    0.14663E-08         0.30726E-19         0.00000E+00
    0.15385E-08         0.32594E-19         0.00000E+00
    0.16161E-08         0.32593E-19         0.00000E+00
    0.16994E-08         0.22352E-19         0.00000E+00
    0.17885E-08         0.34459E-19         0.00000E+00
    0.18838E-08         0.33548E-19         0.00000E+00
    0.19855E-08         0.95841E-21         0.00000E+00
    0.20939E-08         0.15866E-19         0.00000E+00
    0.22093E-08        -0.18214E-20         0.00000E+00
    0.23319E-08         0.24214E-19         0.00000E+00
    0.24622E-08        -0.14084E-19         0.00000E+00
    0.26004E-08        -0.66501E-20         0.00000E+00
    0.27470E-08         0.27940E-20         0.00000E+00
    0.29022E-08        -0.74506E-20         0.00000E+00
    0.30665E-08         0.31665E-19         0.00000E+00
    0.32403E-08        -0.20280E-19         0.00000E+00
    0.34240E-08        -0.30734E-19         0.00000E+00
    0.36180E-08        -0.10921E-19         0.00000E+00
    0.38228E-08        -0.18626E-19         0.00000E+00
    0.40389E-08        -0.10869E-19         0.00000E+00
    0.42667E-08        -0.42841E-19         0.00000E+00
    0.45067E-08        -0.21784E-19         0.00000E+00
    0.47594E-08        -0.74506E-20         0.00000E+00
    0.50254E-08        -0.17695E-19         0.00000E+00
    0.53052E-08        -0.13507E-19         0.00000E+00
    0.55992E-08        -0.46566E-20         0.00000E+00
    0.59082E-08        -0.65193E-20         0.00000E+00
    0.62326E-08        -0.22931E-19         0.00000E+00
    0.65729E-08        -0.26077E-19         0.00000E+00
    0.69299E-08        -0.25813E-19         0.00000E+00
    0.73040E-08        -0.55879E-20         0.00000E+00
    0.76958E-08        -0.27940E-20         0.00000E+00
    0.81059E-08         0.12219E-19         0.00000E+00
    0.85348E-08         0.14901E-19         0.00000E+00
    0.89832E-08        -0.37253E-20         0.00000E+00
    0.94516E-08        -0.74506E-20         0.00000E+00
    0.99405E-08         0.46566E-20         0.00000E+00
    0.10450E-07         0.13970E-19         0.00000E+00
    0.10982E-07        -0.11176E-19         0.00000E+00
    0.11535E-07        -0.18626E-19         0.00000E+00
    0.12111E-07        -0.18626E-19         0.00000E+00
    0.12710E-07        -0.25053E-19         0.00000E+00
    0.13331E-07        -0.41641E-19         0.00000E+00
    0.13977E-07        -0.47497E-19         0.00000E+00
    0.14646E-07        -0.17047E-19         0.00000E+00
    0.15338E-07        -0.33528E-19         0.00000E+00
    0.16055E-07        -0.47497E-19         0.00000E+00
    0.16796E-07        -0.31665E-19         0.00000E+00
    0.17560E-07        -0.40047E-19         0.00000E+00
    0.18348E-07        -0.19656E-19         0.00000E+00
    0.19159E-07        -0.24214E-19         0.00000E+00
    0.19993E-07        -0.98212E-20         0.00000E+00
    0.20849E-07        -0.27008E-19         0.00000E+00
    0.21727E-07        -0.34399E-19         0.00000E+00
    0.22625E-07        -0.52252E-20         0.00000E+00
    0.23543E-07        -0.12785E-19         0.00000E+00
    0.24479E-07        -0.24214E-19         0.00000E+00
    0.25431E-07        -0.13454E-19         0.00000E+00
    0.26399E-07         0.74506E-20         0.00000E+00
    0.27379E-07        -0.27940E-19         0.00000E+00
    0.28370E-07         0.18626E-20         0.00000E+00
    0.29369E-07         0.46566E-20         0.00000E+00
    0.30374E-07         0.28407E-19         0.00000E+00
    0.31381E-07         0.13970E-19         0.00000E+00
    0.32387E-07         0.65193E-20         0.00000E+00
    0.33389E-07        -0.82998E-20         0.00000E+00
    0.34383E-07         0.93132E-20         0.00000E+00
    0.35363E-07         0.56524E-20         0.00000E+00
    0.36327E-07        -0.50878E-20         0.00000E+00
    0.37268E-07         0.10245E-19         0.00000E+00
    0.38183E-07         0.22751E-19         0.00000E+00
    0.39064E-07         0.26871E-19         0.00000E+00
    0.39907E-07         0.12352E-19         0.00000E+00
    0.40707E-07         0.27940E-19         0.00000E+00
    0.41456E-07         0.36364E-19         0.00000E+00
    0.42149E-07         0.20879E-19         0.00000E+00
    0.42779E-07         0.31460E-19         0.00000E+00
    0.43341E-07         0.11176E-19         0.00000E+00
    0.43830E-07         0.55879E-20         0.00000E+00
    0.44238E-07         0.18626E-19         0.00000E+00
    0.44562E-07         0.15960E-19         0.00000E+00
    0.44797E-07        -0.70228E-20         0.00000E+00
    0.44939E-07         0.18626E-19         0.00000E+00
    0.44987E-07        -0.18626E-20         0.00000E+00
    0.91510E-09         0.00000E+00         0.00000E+00
    0.91687E-09         0.13217E-19         0.00000E+00
    0.92219E-09        -0.42992E-20         0.00000E+00
    0.93107E-09         0.29802E-19         0.00000E+00
    0.94355E-09        -0.76688E-20         0.00000E+00
    0.95967E-09        -0.74506E-20         0.00000E+00
    0.97946E-09         0.55879E-20         0.00000E+00
    0.10030E-08         0.18626E-20         0.00000E+00
    0.10304E-08         0.48815E-21         0.00000E+00
    0.10616E-08         0.20044E-19         0.00000E+00
    0.10969E-08         0.18626E-20         0.00000E+00
    0.11362E-08         0.93132E-21         0.00000E+00
    0.11798E-08         0.13039E-19         0.00000E+00
    0.12278E-08         0.27940E-19         0.00000E+00
    0.12803E-08         0.14901E-19         0.00000E+00
    0.13374E-08        -0.27940E-20         0.00000E+00
    0.13993E-08         0.65316E-20         0.00000E+00
    0.14663E-08         0.16771E-19         0.00000E+00
    0.15385E-08         0.34461E-19         0.00000E+00
    0.16161E-08         0.25149E-19         0.00000E+00
    0.16994E-08         0.24214E-19         0.00000E+00
    0.17885E-08         0.23297E-19         0.00000E+00
    0.18838E-08         0.26077E-19         0.00000E+00
    0.19855E-08        -0.28211E-20         0.00000E+00
    0.20939E-08         0.40978E-19         0.00000E+00
    0.22093E-08        -0.55879E-20         0.00000E+00
    0.23319E-08         0.74506E-20         0.00000E+00
    0.24622E-08         0.00000E+00         0.00000E+00
    0.26004E-08        -0.74506E-20         0.00000E+00
    0.27470E-08        -0.15981E-19         0.00000E+00
    0.29022E-08        -0.18626E-20         0.00000E+00
    0.30665E-08         0.42841E-19         0.00000E+00
    0.32403E-08        -0.26286E-19         0.00000E+00
    0.34240E-08        -0.23052E-19         0.00000E+00
    0.36180E-08        -0.17019E-19         0.00000E+00
    0.38228E-08        -0.18346E-19         0.00000E+00
    0.40389E-08        -0.18933E-19         0.00000E+00
    0.42667E-08        -0.27940E-19         0.00000E+00
    0.45067E-08        -0.70867E-20         0.00000E+00
    0.47594E-08        -0.27940E-19         0.00000E+00
    0.50254E-08        -0.15405E-19         0.00000E+00
    0.53052E-08         0.41940E-20         0.00000E+00
    0.55992E-08        -0.13471E-19         0.00000E+00
    0.59082E-08        -0.42633E-20         0.00000E+00
    0.62326E-08         0.46566E-20         0.00000E+00
    0.65729E-08        -0.30734E-19         0.00000E+00
    0.69299E-08        -0.17959E-19         0.00000E+00
    0.73040E-08         0.46566E-20         0.00000E+00
    0.76958E-08        -0.18461E-19         0.00000E+00
    0.81059E-08        -0.19670E-19         0.00000E+00
    0.85348E-08         0.55879E-20         0.00000E+00
    0.89832E-08        -0.10245E-19         0.00000E+00
    0.94516E-08        -0.37253E-20         0.00000E+00
    0.99405E-08         0.18888E-19         0.00000E+00
    0.10450E-07         0.39918E-21         0.00000E+00
    0.10982E-07         0.18626E-19         0.00000E+00
    0.11535E-07        -0.25146E-19         0.00000E+00
    0.12111E-07        -0.20489E-19         0.00000E+00
    0.12710E-07        -0.16857E-19         0.00000E+00
    0.13331E-07        -0.44703E-19         0.00000E+00
    0.13977E-07        -0.33050E-19         0.00000E+00
    0.14646E-07        -0.35107E-19         0.00000E+00
    0.15338E-07        -0.11176E-19         0.00000E+00
    0.16055E-07        -0.48296E-19         0.00000E+00
    0.16796E-07        -0.37253E-19         0.00000E+00
    0.17560E-07        -0.29460E-19         0.00000E+00
    0.18348E-07        -0.24116E-19         0.00000E+00
    0.19159E-07        -0.28871E-19         0.00000E+00
    0.19993E-07        -0.13970E-19         0.00000E+00
    0.20849E-07        -0.34689E-19         0.00000E+00
    0.21727E-07        -0.18626E-19         0.00000E+00
    0.22625E-07        -0.21783E-19         0.00000E+00
    0.23543E-07        -0.18626E-20         0.00000E+00
    0.24479E-07        -0.16764E-19         0.00000E+00
    0.25431E-07        -0.11692E-19         0.00000E+00
    0.26399E-07         0.11176E-19         0.00000E+00
    0.27379E-07        -0.28871E-19         0.00000E+00
    0.28370E-07        -0.74506E-20         0.00000E+00
    0.29369E-07        -0.46027E-20         0.00000E+00
    0.30374E-07         0.33528E-19         0.00000E+00
    0.31381E-07         0.23326E-19         0.00000E+00
    0.32387E-07         0.79858E-20         0.00000E+00
    0.33389E-07        -0.47387E-20         0.00000E+00
    0.34383E-07         0.11176E-19         0.00000E+00
    0.35363E-07         0.10180E-19         0.00000E+00
    0.36327E-07        -0.14470E-19         0.00000E+00
    0.37268E-07         0.13961E-19         0.00000E+00
    0.38183E-07         0.16365E-19         0.00000E+00
    0.39064E-07         0.40047E-19         0.00000E+00
    0.39907E-07         0.18872E-19         0.00000E+00
    0.40707E-07         0.30734E-19         0.00000E+00
    0.41456E-07         0.22352E-19         0.00000E+00
    0.42149E-07         0.32207E-19         0.00000E+00
    0.42779E-07         0.20694E-19         0.00000E+00
    0.43341E-07         0.27008E-19         0.00000E+00
    0.43830E-07        -0.32832E-20         0.00000E+00
    0.44238E-07         0.16586E-19         0.00000E+00
    0.44562E-07         0.14773E-19         0.00000E+00
    0.44797E-07        -0.22904E-20         0.00000E+00
    0.44939E-07         0.37253E-20         0.00000E+00
    0.44987E-07        -0.20344E-20         0.00000E+00
    0.91510E-09         0.00000E+00         0.00000E+00
    0.91687E-09         0.18626E-20         0.00000E+00
    0.92219E-09         0.93132E-21         0.00000E+00
    0.93107E-09         0.24214E-19         0.00000E+00
    0.94355E-09        -0.10245E-19         0.00000E+00
    0.95967E-09        -0.37253E-20         0.00000E+00
    0.97946E-09         0.24214E-19         0.00000E+00
    0.10030E-08        -0.74506E-20         0.00000E+00
    0.10304E-08         0.11176E-19         0.00000E+00
    0.10616E-08         0.26522E-19         0.00000E+00
    0.10969E-08         0.74506E-20         0.00000E+00
    0.11362E-08         0.88645E-20         0.00000E+00
    0.11798E-08         0.14901E-19         0.00000E+00
    0.12278E-08         0.18626E-19         0.00000E+00
    0.12803E-08         0.74506E-20         0.00000E+00
    0.13374E-08        -0.65022E-20         0.00000E+00
    0.13993E-08         0.83819E-20         0.00000E+00
    0.14663E-08         0.18626E-19         0.00000E+00
    0.15385E-08         0.20487E-19         0.00000E+00
    0.16161E-08         0.22352E-19         0.00000E+00
    0.16994E-08         0.16764E-19         0.00000E+00
    0.17885E-08         0.18612E-19         0.00000E+00
    0.18838E-08         0.10224E-19         0.00000E+00
    0.19855E-08         0.27091E-22         0.00000E+00
    0.20939E-08         0.26077E-19         0.00000E+00
    0.22093E-08        -0.55879E-20         0.00000E+00
    0.23319E-08        -0.29802E-19         0.00000E+00
    0.24622E-08         0.55879E-20         0.00000E+00
    0.26004E-08        -0.74506E-20         0.00000E+00
    0.27470E-08        -0.11027E-19         0.00000E+00
    0.29022E-08        -0.11344E-19         0.00000E+00
    0.30665E-08         0.21420E-19         0.00000E+00
    0.32403E-08        -0.26077E-19         0.00000E+00
    0.34240E-08        -0.14901E-19         0.00000E+00
    0.36180E-08        -0.55879E-20         0.00000E+00
    0.38228E-08        -0.33808E-19         0.00000E+00
    0.40389E-08        -0.19251E-19         0.00000E+00
    0.42667E-08        -0.13039E-19         0.00000E+00
    0.45067E-08         0.00000E+00         0.00000E+00
    0.47594E-08        -0.24214E-19         0.00000E+00
    0.50254E-08        -0.15329E-19         0.00000E+00
    0.53052E-08        -0.32626E-20         0.00000E+00
    0.55992E-08         0.13633E-20         0.00000E+00
    0.59082E-08         0.00000E+00         0.00000E+00
    0.62326E-08        -0.78030E-20         0.00000E+00
    0.65729E-08        -0.17386E-19         0.00000E+00
    0.69299E-08        -0.93132E-20         0.00000E+00
    0.73040E-08         0.12323E-19         0.00000E+00
    0.76958E-08        -0.26242E-19         0.00000E+00
    0.81059E-08        -0.35390E-19         0.00000E+00
    0.85348E-08        -0.74506E-20         0.00000E+00
    0.89832E-08        -0.11179E-19         0.00000E+00
    0.94516E-08        -0.93132E-20         0.00000E+00
    0.99405E-08         0.26747E-19         0.00000E+00
    0.10450E-07        -0.21820E-19         0.00000E+00
    0.10982E-07         0.16764E-19         0.00000E+00
    0.11535E-07        -0.21656E-19         0.00000E+00
    0.12111E-07        -0.20489E-19         0.00000E+00
    0.12710E-07        -0.31665E-19         0.00000E+00
    0.13331E-07        -0.29802E-19         0.00000E+00
    0.13977E-07        -0.24214E-19         0.00000E+00
    0.14646E-07        -0.23931E-19         0.00000E+00
    0.15338E-07        -0.24295E-19         0.00000E+00
    0.16055E-07        -0.30866E-19         0.00000E+00
    0.16796E-07        -0.36322E-19         0.00000E+00
    0.17560E-07        -0.14312E-19         0.00000E+00
    0.18348E-07        -0.24214E-19         0.00000E+00
    0.19159E-07        -0.29645E-19         0.00000E+00
    0.19993E-07        -0.23706E-19         0.00000E+00
    0.20849E-07        -0.29572E-19         0.00000E+00
    0.21727E-07        -0.11176E-19         0.00000E+00
    0.22625E-07        -0.16764E-19         0.00000E+00
    0.23543E-07        -0.39788E-20         0.00000E+00
    0.24479E-07        -0.74506E-20         0.00000E+00
    0.25431E-07        -0.15832E-19         0.00000E+00
    0.26399E-07         0.37253E-20         0.00000E+00
    0.27379E-07        -0.11383E-19         0.00000E+00
    0.28370E-07        -0.77928E-20         0.00000E+00
    0.29369E-07        -0.12107E-19         0.00000E+00
    0.30374E-07         0.16764E-19         0.00000E+00
    0.31381E-07         0.27008E-19         0.00000E+00
    0.32387E-07         0.20489E-19         0.00000E+00
    0.33389E-07        -0.12956E-19         0.00000E+00
    0.34383E-07         0.55879E-20         0.00000E+00
    0.35363E-07         0.28935E-19         0.00000E+00
    0.36327E-07        -0.11176E-19         0.00000E+00
    0.37268E-07         0.46566E-20         0.00000E+00
    0.38183E-07         0.26476E-19         0.00000E+00
    0.39064E-07         0.22489E-19         0.00000E+00
    0.39907E-07         0.32351E-19         0.00000E+00
    0.40707E-07         0.15516E-19         0.00000E+00
    0.41456E-07         0.13039E-19         0.00000E+00
    0.42149E-07         0.29802E-19         0.00000E+00
    0.42779E-07         0.24214E-19         0.00000E+00
    0.43341E-07         0.27131E-19         0.00000E+00
    0.43830E-07         0.12107E-19         0.00000E+00
    0.44238E-07         0.20402E-20         0.00000E+00
    0.44562E-07         0.39116E-19         0.00000E+00
    0.44797E-07         0.11176E-19         0.00000E+00
    0.44939E-07         0.74506E-20         0.00000E+00
    0.44987E-07         0.00000E+00         0.00000E+00
    0.91510E-09         0.00000E+00         0.00000E+00
    0.91687E-09        -0.11102E-20         0.00000E+00
    0.92219E-09         0.70932E-20         0.00000E+00
    0.93107E-09         0.74506E-20         0.00000E+00
    0.94355E-09        -0.72324E-20         0.00000E+00
    0.95967E-09        -0.27940E-20         0.00000E+00
    0.97946E-09         0.20489E-19         0.00000E+00
    0.10030E-08         0.11176E-19         0.00000E+00
    0.10304E-08         0.20932E-19         0.00000E+00
    0.10616E-08         0.14456E-19         0.00000E+00
    0.10969E-08         0.10245E-19         0.00000E+00
    0.11362E-08         0.31182E-19         0.00000E+00
    0.11798E-08         0.93132E-20         0.00000E+00
    0.12278E-08         0.13039E-19         0.00000E+00
    0.12803E-08        -0.55879E-20         0.00000E+00
    0.13374E-08        -0.18626E-20         0.00000E+00
    0.13993E-08         0.37129E-20         0.00000E+00
    0.14663E-08         0.33528E-19         0.00000E+00
    0.15385E-08         0.24340E-23         0.00000E+00
    0.16161E-08         0.37253E-20         0.00000E+00
    0.16994E-08         0.37253E-19         0.00000E+00
    0.17885E-08         0.18626E-20         0.00000E+00
    0.18838E-08         0.84025E-20         0.00000E+00
    0.19855E-08        -0.19168E-20         0.00000E+00
    0.20939E-08        -0.93132E-20         0.00000E+00
    0.22093E-08         0.37253E-20         0.00000E+00
    0.23319E-08        -0.26077E-19         0.00000E+00
    0.24622E-08        -0.74506E-20         0.00000E+00
    0.26004E-08        -0.13039E-19         0.00000E+00
    0.27470E-08        -0.11176E-19         0.00000E+00
    0.29022E-08        -0.11176E-19         0.00000E+00
    0.30665E-08         0.44688E-20         0.00000E+00
    0.32403E-08        -0.81729E-20         0.00000E+00
    0.34240E-08        -0.13270E-19         0.00000E+00
    0.36180E-08         0.00000E+00         0.00000E+00
    0.38228E-08        -0.47497E-19         0.00000E+00
    0.40389E-08        -0.14276E-19         0.00000E+00
    0.42667E-08        -0.11176E-19         0.00000E+00
    0.45067E-08        -0.20489E-19         0.00000E+00
    0.47594E-08        -0.20489E-19         0.00000E+00
    0.50254E-08        -0.13970E-19         0.00000E+00
    0.53052E-08        -0.97759E-20         0.00000E+00
    0.55992E-08        -0.27940E-20         0.00000E+00
    0.59082E-08        -0.78656E-21         0.00000E+00
    0.62326E-08        -0.22931E-19         0.00000E+00
    0.65729E-08        -0.55879E-20         0.00000E+00
    0.69299E-08         0.65193E-20         0.00000E+00
    0.73040E-08         0.83819E-20         0.00000E+00
    0.76958E-08        -0.91478E-20         0.00000E+00
    0.81059E-08        -0.20489E-19         0.00000E+00
    0.85348E-08        -0.13039E-19         0.00000E+00
    0.89832E-08         0.11179E-19         0.00000E+00
    0.94516E-08        -0.54574E-20         0.00000E+00
    0.99405E-08         0.20489E-19         0.00000E+00
    0.10450E-07        -0.12107E-19         0.00000E+00
    0.10982E-07        -0.78379E-20         0.00000E+00
    0.11535E-07        -0.53528E-20         0.00000E+00
    0.12111E-07         0.00000E+00         0.00000E+00
    0.12710E-07        -0.27847E-19         0.00000E+00
    0.13331E-07         0.71816E-20         0.00000E+00
    0.13977E-07        -0.19558E-19         0.00000E+00
    0.14646E-07        -0.20773E-19         0.00000E+00
    0.15338E-07        -0.24054E-19         0.00000E+00
    0.16055E-07        -0.24214E-19         0.00000E+00
    0.16796E-07        -0.27584E-19         0.00000E+00
    0.17560E-07        -0.22352E-19         0.00000E+00
    0.18348E-07        -0.28871E-19         0.00000E+00
    0.19159E-07        -0.26234E-19         0.00000E+00
    0.19993E-07        -0.65193E-20         0.00000E+00
    0.20849E-07        -0.93132E-20         0.00000E+00
    0.21727E-07        -0.55879E-20         0.00000E+00
    0.22625E-07        -0.15832E-19         0.00000E+00
    0.23543E-07        -0.10922E-19         0.00000E+00
    0.24479E-07        -0.74506E-20         0.00000E+00
    0.25431E-07        -0.26493E-19         0.00000E+00
    0.26399E-07        -0.13039E-19         0.00000E+00
    0.27379E-07        -0.81748E-20         0.00000E+00
    0.28370E-07        -0.15205E-20         0.00000E+00
    0.29369E-07        -0.47105E-20         0.00000E+00
    0.30374E-07        -0.27940E-20         0.00000E+00
    0.31381E-07         0.12064E-19         0.00000E+00
    0.32387E-07         0.10245E-19         0.00000E+00
    0.33389E-07        -0.66014E-20         0.00000E+00
    0.34383E-07         0.37253E-20         0.00000E+00
    0.35363E-07         0.15832E-19         0.00000E+00
    0.36327E-07         0.18626E-20         0.00000E+00
    0.37268E-07         0.37439E-20         0.00000E+00
    0.38183E-07         0.32197E-19         0.00000E+00
    0.39064E-07         0.21283E-19         0.00000E+00
    0.39907E-07         0.20489E-19         0.00000E+00
    0.40707E-07         0.14901E-19         0.00000E+00
    0.41456E-07         0.46566E-20         0.00000E+00
    0.42149E-07         0.55879E-20         0.00000E+00
    0.42779E-07         0.37253E-20         0.00000E+00
    0.43341E-07         0.23283E-19         0.00000E+00
    0.43830E-07         0.28429E-19         0.00000E+00
    0.44238E-07         0.91356E-20         0.00000E+00
    0.44562E-07         0.40978E-19         0.00000E+00
    0.44797E-07         0.14901E-19         0.00000E+00
    0.44939E-07         0.91057E-20         0.00000E+00
    0.44987E-07         0.00000E+00         0.00000E+00
    0.91510E-09         0.00000E+00         0.00000E+00
    0.91687E-09        -0.17337E-19         0.00000E+00
    0.92219E-09         0.10028E-19         0.00000E+00
    0.93107E-09         0.46566E-20         0.00000E+00
    0.94355E-09         0.42203E-20         0.00000E+00
    0.95967E-09         0.30130E-20         0.00000E+00
    0.97946E-09         0.93132E-20         0.00000E+00
    0.10030E-08         0.27940E-19         0.00000E+00
    0.10304E-08         0.14946E-19         0.00000E+00
    0.10616E-08         0.10690E-19         0.00000E+00
    0.10969E-08         0.27455E-19         0.00000E+00
    0.11362E-08         0.11176E-19         0.00000E+00
    0.11798E-08         0.27940E-20         0.00000E+00
    0.12278E-08         0.11176E-19         0.00000E+00
    0.12803E-08        -0.14901E-19         0.00000E+00
    0.13374E-08        -0.13039E-19         0.00000E+00
    0.13993E-08         0.95608E-21         0.00000E+00
    0.14663E-08         0.22352E-19         0.00000E+00
    0.15385E-08         0.10242E-19         0.00000E+00
    0.16161E-08         0.29802E-19         0.00000E+00
    0.16994E-08         0.37261E-19         0.00000E+00
    0.17885E-08        -0.14887E-19         0.00000E+00
    0.18838E-08         0.93132E-20         0.00000E+00
    0.19855E-08         0.84090E-20         0.00000E+00
    0.20939E-08        -0.15832E-19         0.00000E+00
    0.22093E-08         0.74506E-20         0.00000E+00
    0.23319E-08        -0.13039E-19         0.00000E+00
    0.24622E-08         0.00000E+00         0.00000E+00
    0.26004E-08        -0.27940E-19         0.00000E+00
    0.27470E-08        -0.15050E-19         0.00000E+00
    0.29022E-08        -0.55879E-20         0.00000E+00
    0.30665E-08        -0.83819E-20         0.00000E+00
    0.32403E-08        -0.13493E-20         0.00000E+00
    0.34240E-08         0.37253E-20         0.00000E+00
    0.36180E-08        -0.55879E-20         0.00000E+00
    0.38228E-08        -0.39767E-19         0.00000E+00
    0.40389E-08        -0.19251E-19         0.00000E+00
    0.42667E-08        -0.16764E-19         0.00000E+00
    0.45067E-08        -0.22352E-19         0.00000E+00
    0.47594E-08        -0.18626E-19         0.00000E+00
    0.50254E-08        -0.11679E-19         0.00000E+00
    0.53052E-08        -0.41940E-20         0.00000E+00
    0.55992E-08        -0.14402E-19         0.00000E+00
    0.59082E-08        -0.98513E-20         0.00000E+00
    0.62326E-08        -0.12107E-19         0.00000E+00
    0.65729E-08        -0.93132E-21         0.00000E+00
    0.69299E-08         0.25673E-19         0.00000E+00
    0.73040E-08         0.16548E-19         0.00000E+00
    0.76958E-08        -0.66846E-20         0.00000E+00
    0.81059E-08         0.93132E-21         0.00000E+00
    0.85348E-08        -0.18626E-20         0.00000E+00
    0.89832E-08         0.20486E-19         0.00000E+00
    0.94516E-08         0.17321E-20         0.00000E+00
    0.99405E-08         0.00000E+00         0.00000E+00
    0.10450E-07         0.13438E-19         0.00000E+00
    0.10982E-07        -0.21964E-19         0.00000E+00
    0.11535E-07        -0.16764E-19         0.00000E+00
    0.12111E-07         0.19558E-19         0.00000E+00
    0.12710E-07        -0.24307E-19         0.00000E+00
    0.13331E-07         0.14901E-19         0.00000E+00
    0.13977E-07        -0.15379E-19         0.00000E+00
    0.14646E-07        -0.13039E-19         0.00000E+00
    0.15338E-07        -0.20569E-19         0.00000E+00
    0.16055E-07        -0.16764E-19         0.00000E+00
    0.16796E-07        -0.37609E-19         0.00000E+00
    0.17560E-07        -0.33870E-19         0.00000E+00
    0.18348E-07        -0.41076E-19         0.00000E+00
    0.19159E-07        -0.44997E-20         0.00000E+00
    0.19993E-07        -0.51646E-20         0.00000E+00
    0.20849E-07        -0.11406E-19         0.00000E+00
    0.21727E-07         0.18626E-20         0.00000E+00
    0.22625E-07        -0.11744E-19         0.00000E+00
    0.23543E-07        -0.20743E-19         0.00000E+00
    0.24479E-07        -0.12107E-19         0.00000E+00
    0.25431E-07        -0.79663E-20         0.00000E+00
    0.26399E-07        -0.24214E-19         0.00000E+00
    0.27379E-07        -0.74506E-20         0.00000E+00
    0.28370E-07        -0.55879E-20         0.00000E+00
    0.29369E-07        -0.65193E-20         0.00000E+00
    0.30374E-07        -0.16300E-19         0.00000E+00
    0.31381E-07         0.14901E-19         0.00000E+00
    0.32387E-07        -0.14666E-20         0.00000E+00
    0.33389E-07         0.10245E-19         0.00000E+00
    0.34383E-07        -0.74506E-20         0.00000E+00
    0.35363E-07        -0.28584E-20         0.00000E+00
    0.36327E-07         0.16764E-19         0.00000E+00
    0.37268E-07         0.26999E-19         0.00000E+00
    0.38183E-07         0.31665E-19         0.00000E+00
    0.39064E-07         0.27008E-19         0.00000E+00
    0.39907E-07         0.74506E-20         0.00000E+00
    0.40707E-07         0.33528E-19         0.00000E+00
    0.41456E-07        -0.11134E-19         0.00000E+00
    0.42149E-07        -0.76028E-20         0.00000E+00
    0.42779E-07        -0.37253E-20         0.00000E+00
    0.43341E-07         0.91903E-20         0.00000E+00
    0.43830E-07         0.25146E-19         0.00000E+00
    0.44238E-07         0.13216E-19         0.00000E+00
    0.44562E-07         0.22352E-19         0.00000E+00
    0.44797E-07         0.29802E-19         0.00000E+00
    0.44939E-07         0.20702E-20         0.00000E+00
    0.44987E-07         0.00000E+00         0.00000E+00
    0.91510E-09         0.00000E+00         0.00000E+00
    0.91687E-09        -0.55879E-20         0.00000E+00
    0.92219E-09        -0.18626E-20         0.00000E+00
    0.93107E-09         0.11533E-19         0.00000E+00
    0.94355E-09         0.11176E-19         0.00000E+00
    0.95967E-09        -0.18626E-20         0.00000E+00
    0.97946E-09         0.11887E-19         0.00000E+00
    0.10030E-08         0.19558E-19         0.00000E+00
    0.10304E-08         0.46566E-20         0.00000E+00
    0.10616E-08         0.16764E-19         0.00000E+00
    0.10969E-08         0.28871E-19         0.00000E+00
    0.11362E-08        -0.74506E-20         0.00000E+00
    0.11798E-08         0.10725E-19         0.00000E+00
    0.12278E-08         0.74506E-20         0.00000E+00
    0.12803E-08        -0.20489E-19         0.00000E+00
    0.13374E-08        -0.12107E-19         0.00000E+00
    0.13993E-08         0.19558E-19         0.00000E+00
    0.14663E-08         0.00000E+00         0.00000E+00
    0.15385E-08         0.20489E-19         0.00000E+00
    0.16161E-08         0.40978E-19         0.00000E+00
    0.16994E-08         0.37253E-20         0.00000E+00
    0.17885E-08        -0.74506E-20         0.00000E+00
    0.18838E-08         0.00000E+00         0.00000E+00
    0.19855E-08         0.37253E-20         0.00000E+00
    0.20939E-08        -0.12141E-19         0.00000E+00
    0.22093E-08        -0.18668E-19         0.00000E+00
    0.23319E-08        -0.16764E-19         0.00000E+00
    0.24622E-08         0.55879E-20         0.00000E+00
    0.26004E-08        -0.35390E-19         0.00000E+00
    0.27470E-08        -0.93132E-20         0.00000E+00
    0.29022E-08        -0.74506E-20         0.00000E+00
    0.30665E-08        -0.74350E-21         0.00000E+00
    0.32403E-08        -0.55879E-20         0.00000E+00
    0.34240E-08         0.18626E-20         0.00000E+00
    0.36180E-08        -0.13039E-19         0.00000E+00
    0.38228E-08        -0.29802E-19         0.00000E+00
    0.40389E-08        -0.29802E-19         0.00000E+00
    0.42667E-08         0.37253E-20         0.00000E+00
    0.45067E-08        -0.12107E-19         0.00000E+00
    0.47594E-08        -0.18626E-19         0.00000E+00
    0.50254E-08        -0.74506E-20         0.00000E+00
    0.53052E-08        -0.79132E-20         0.00000E+00
    0.55992E-08        -0.37253E-20         0.00000E+00
    0.59082E-08         0.18626E-20         0.00000E+00
    0.62326E-08         0.43042E-20         0.00000E+00
    0.65729E-08        -0.12729E-19         0.00000E+00
    0.69299E-08         0.26744E-19         0.00000E+00
    0.73040E-08         0.67352E-20         0.00000E+00
    0.76958E-08         0.55879E-20         0.00000E+00
    0.81059E-08        -0.54758E-20         0.00000E+00
    0.85348E-08         0.13039E-19         0.00000E+00
    0.89832E-08         0.13042E-19         0.00000E+00
    0.94516E-08         0.13039E-19         0.00000E+00
    0.99405E-08         0.93132E-20         0.00000E+00
    0.10450E-07         0.98454E-20         0.00000E+00
    0.10982E-07        -0.16764E-19         0.00000E+00
    0.11535E-07        -0.26077E-19         0.00000E+00
    0.12111E-07         0.13895E-19         0.00000E+00
    0.12710E-07        -0.13039E-19         0.00000E+00
    0.13331E-07        -0.83819E-20         0.00000E+00
    0.13977E-07        -0.13039E-19         0.00000E+00
    0.14646E-07        -0.16764E-19         0.00000E+00
    0.15338E-07        -0.13039E-19         0.00000E+00
    0.16055E-07        -0.18626E-19         0.00000E+00
    0.16796E-07        -0.33883E-19         0.00000E+00
    0.17560E-07        -0.39116E-19         0.00000E+00
    0.18348E-07        -0.41811E-19         0.00000E+00
    0.19159E-07         0.37253E-20         0.00000E+00
    0.19993E-07        -0.25569E-19         0.00000E+00
    0.20849E-07        -0.10245E-19         0.00000E+00
    0.21727E-07         0.55879E-20         0.00000E+00
    0.22625E-07        -0.83819E-20         0.00000E+00
    0.23543E-07        -0.29549E-19         0.00000E+00
    0.24479E-07        -0.19371E-20         0.00000E+00
    0.25431E-07        -0.83819E-20         0.00000E+00
    0.26399E-07        -0.29802E-19         0.00000E+00
    0.27379E-07        -0.23283E-19         0.00000E+00
    0.28370E-07        -0.20147E-19         0.00000E+00
    0.29369E-07        -0.73967E-20         0.00000E+00
    0.30374E-07        -0.13503E-19         0.00000E+00
    0.31381E-07         0.10245E-19         0.00000E+00
    0.32387E-07         0.14666E-20         0.00000E+00
    0.33389E-07         0.18709E-19         0.00000E+00
    0.34383E-07        -0.93132E-20         0.00000E+00
    0.35363E-07        -0.37253E-20         0.00000E+00
    0.36327E-07         0.25646E-19         0.00000E+00
    0.37268E-07         0.35390E-19         0.00000E+00
    0.38183E-07         0.16764E-19         0.00000E+00
    0.39064E-07         0.29312E-20         0.00000E+00
    0.39907E-07         0.11176E-19         0.00000E+00
    0.40707E-07         0.16448E-19         0.00000E+00
    0.41456E-07        -0.19471E-20         0.00000E+00
    0.42149E-07        -0.41148E-20         0.00000E+00
    0.42779E-07         0.18626E-20         0.00000E+00
    0.43341E-07         0.66422E-20         0.00000E+00
    0.43830E-07         0.16275E-19         0.00000E+00
    0.44238E-07         0.22352E-19         0.00000E+00
    0.44562E-07         0.14901E-19         0.00000E+00
    0.44797E-07         0.18123E-19         0.00000E+00
    0.44939E-07         0.13039E-19         0.00000E+00
    0.44987E-07         0.00000E+00         0.00000E+00
    0.91510E-09         0.00000E+00         0.00000E+00
    0.91687E-09         0.16837E-20         0.00000E+00
    0.92219E-09        -0.96706E-20         0.00000E+00
    0.93107E-09         0.33683E-20         0.00000E+00
    0.94355E-09         0.11394E-19         0.00000E+00
    0.95967E-09         0.16436E-20         0.00000E+00
    0.97946E-09         0.95331E-20         0.00000E+00
    0.10030E-08         0.44142E-21         0.00000E+00
    0.10304E-08         0.12550E-19         0.00000E+00
    0.10616E-08         0.55879E-20         0.00000E+00
    0.10969E-08         0.20974E-19         0.00000E+00
    0.11362E-08        -0.11176E-19         0.00000E+00
    0.11798E-08         0.11627E-19         0.00000E+00
    0.12278E-08         0.37253E-20         0.00000E+00
    0.12803E-08        -0.14923E-19         0.00000E+00
    0.13374E-08        -0.15850E-19         0.00000E+00
    0.13993E-08         0.19545E-19         0.00000E+00
    0.14663E-08         0.74506E-20         0.00000E+00
    0.15385E-08         0.93132E-20         0.00000E+00
    0.16161E-08         0.20486E-19         0.00000E+00
    0.16994E-08         0.13030E-19         0.00000E+00
    0.17885E-08        -0.11176E-19         0.00000E+00
    0.18838E-08        -0.74506E-20         0.00000E+00
    0.19855E-08         0.55879E-20         0.00000E+00
    0.20939E-08        -0.36913E-20         0.00000E+00
    0.22093E-08        -0.16723E-19         0.00000E+00
    0.23319E-08        -0.14901E-19         0.00000E+00
    0.24622E-08        -0.74506E-20         0.00000E+00
    0.26004E-08        -0.27809E-19         0.00000E+00
    0.27470E-08        -0.22203E-19         0.00000E+00
    0.29022E-08         0.76183E-20         0.00000E+00
    0.30665E-08         0.35375E-20         0.00000E+00
    0.32403E-08         0.39343E-20         0.00000E+00
    0.34240E-08        -0.16312E-20         0.00000E+00
    0.36180E-08        -0.18626E-19         0.00000E+00
    0.38228E-08        -0.93132E-20         0.00000E+00
    0.40389E-08        -0.11176E-19         0.00000E+00
    0.42667E-08         0.12107E-19         0.00000E+00
    0.45067E-08        -0.20853E-19         0.00000E+00
    0.47594E-08        -0.14901E-19         0.00000E+00
    0.50254E-08        -0.17192E-19         0.00000E+00
    0.53052E-08        -0.12576E-19         0.00000E+00
    0.55992E-08        -0.74506E-20         0.00000E+00
    0.59082E-08         0.74506E-20         0.00000E+00
    0.62326E-08         0.11176E-19         0.00000E+00
    0.65729E-08        -0.10554E-19         0.00000E+00
    0.69299E-08         0.37253E-20         0.00000E+00
    0.73040E-08         0.27940E-20         0.00000E+00
    0.76958E-08         0.83819E-20         0.00000E+00
    0.81059E-08        -0.29061E-20         0.00000E+00
    0.85348E-08         0.18626E-19         0.00000E+00
    0.89832E-08        -0.18657E-20         0.00000E+00
    0.94516E-08         0.55879E-20         0.00000E+00
    0.99405E-08         0.22352E-19         0.00000E+00
    0.10450E-07         0.00000E+00         0.00000E+00
    0.10982E-07         0.33380E-20         0.00000E+00
    0.11535E-07        -0.58231E-20         0.00000E+00
    0.12111E-07        -0.73754E-20         0.00000E+00
    0.12710E-07         0.56807E-20         0.00000E+00
    0.13331E-07        -0.90442E-20         0.00000E+00
    0.13977E-07        -0.11176E-19         0.00000E+00
    0.14646E-07        -0.18343E-19         0.00000E+00
    0.15338E-07        -0.36452E-20         0.00000E+00
    0.16055E-07        -0.74506E-20         0.00000E+00
    0.16796E-07        -0.37828E-19         0.00000E+00
    0.17560E-07        -0.31665E-19         0.00000E+00
    0.18348E-07        -0.13039E-19         0.00000E+00
    0.19159E-07        -0.83819E-20         0.00000E+00
    0.19993E-07        -0.17695E-19         0.00000E+00
    0.20849E-07        -0.81520E-20         0.00000E+00
    0.21727E-07        -0.93132E-21         0.00000E+00
    0.22625E-07        -0.22253E-20         0.00000E+00
    0.23543E-07        -0.18880E-19         0.00000E+00
    0.24479E-07        -0.27195E-20         0.00000E+00
    0.25431E-07        -0.10760E-19         0.00000E+00
    0.26399E-07        -0.29802E-19         0.00000E+00
    0.27379E-07        -0.37460E-19         0.00000E+00
    0.28370E-07        -0.17106E-19         0.00000E+00
    0.29369E-07        -0.21474E-19         0.00000E+00
    0.30374E-07         0.32581E-20         0.00000E+00
    0.31381E-07        -0.27513E-20         0.00000E+00
    0.32387E-07         0.11572E-19         0.00000E+00
    0.33389E-07         0.16682E-19         0.00000E+00
    0.34383E-07         0.00000E+00         0.00000E+00
    0.35363E-07        -0.55235E-20         0.00000E+00
    0.36327E-07         0.29802E-19         0.00000E+00
    0.37268E-07         0.13039E-19         0.00000E+00
    0.38183E-07        -0.18626E-20         0.00000E+00
    0.39064E-07         0.93132E-21         0.00000E+00
    0.39907E-07         0.93132E-20         0.00000E+00
    0.40707E-07        -0.71344E-20         0.00000E+00
    0.41456E-07         0.14012E-19         0.00000E+00
    0.42149E-07        -0.11176E-19         0.00000E+00
    0.42779E-07        -0.20674E-20         0.00000E+00
    0.43341E-07         0.15832E-19         0.00000E+00
    0.43830E-07         0.23772E-19         0.00000E+00
    0.44238E-07         0.37253E-19         0.00000E+00
    0.44562E-07        -0.93132E-20         0.00000E+00
    0.44797E-07         0.79542E-20         0.00000E+00
    0.44939E-07        -0.15109E-19         0.00000E+00
    0.44987E-07        -0.18626E-20         0.00000E+00
    0.91510E-09         0.00000E+00         0.00000E+00
    0.91687E-09         0.00000E+00         0.00000E+00
    0.92219E-09        -0.14901E-19         0.00000E+00
    0.93107E-09        -0.33683E-20         0.00000E+00
    0.94355E-09         0.26077E-19         0.00000E+00
    0.95967E-09         0.00000E+00         0.00000E+00
    0.97946E-09        -0.11512E-20         0.00000E+00
    0.10030E-08        -0.88233E-20         0.00000E+00
    0.10304E-08         0.55879E-20         0.00000E+00
    0.10616E-08         0.55879E-20         0.00000E+00
    0.10969E-08         0.00000E+00         0.00000E+00
    0.11362E-08         0.93132E-21         0.00000E+00
    0.11798E-08         0.60685E-20         0.00000E+00
    0.12278E-08         0.00000E+00         0.00000E+00
    0.12803E-08        -0.11154E-19         0.00000E+00
    0.13374E-08        -0.29802E-19         0.00000E+00
    0.13993E-08         0.00000E+00         0.00000E+00
    0.14663E-08         0.22344E-19         0.00000E+00
    0.15385E-08         0.13039E-19         0.00000E+00
    0.16161E-08        -0.18597E-20         0.00000E+00
    0.16994E-08         0.24214E-19         0.00000E+00
    0.17885E-08        -0.18626E-19         0.00000E+00
    0.18838E-08         0.65193E-20         0.00000E+00
    0.19855E-08         0.13039E-19         0.00000E+00
    0.20939E-08         0.11142E-19         0.00000E+00
    0.22093E-08         0.13039E-19         0.00000E+00
    0.23319E-08         0.37253E-20         0.00000E+00
    0.24622E-08        -0.45428E-20         0.00000E+00
    0.26004E-08        -0.15032E-19         0.00000E+00
    0.27470E-08        -0.20638E-19         0.00000E+00
    0.29022E-08         0.14901E-19         0.00000E+00
    0.30665E-08         0.39131E-20         0.00000E+00
    0.32403E-08         0.11176E-19         0.00000E+00
    0.34240E-08        -0.39567E-20         0.00000E+00
    0.36180E-08         0.39803E-20         0.00000E+00
    0.38228E-08        -0.40053E-20         0.00000E+00
    0.40389E-08         0.55879E-20         0.00000E+00
    0.42667E-08        -0.12657E-20         0.00000E+00
    0.45067E-08        -0.17331E-19         0.00000E+00
    0.47594E-08        -0.19558E-19         0.00000E+00
    0.50254E-08        -0.11176E-19         0.00000E+00
    0.53052E-08         0.93132E-20         0.00000E+00
    0.55992E-08        -0.22352E-19         0.00000E+00
    0.59082E-08         0.27940E-20         0.00000E+00
    0.62326E-08         0.62928E-20         0.00000E+00
    0.65729E-08         0.83819E-20         0.00000E+00
    0.69299E-08         0.55879E-20         0.00000E+00
    0.73040E-08        -0.11472E-20         0.00000E+00
    0.76958E-08         0.15067E-19         0.00000E+00
    0.81059E-08         0.93132E-21         0.00000E+00
    0.85348E-08         0.20489E-19         0.00000E+00
    0.89832E-08        -0.15829E-19         0.00000E+00
    0.94516E-08        -0.37253E-20         0.00000E+00
    0.99405E-08         0.18626E-19         0.00000E+00
    0.10450E-07         0.27940E-20         0.00000E+00
    0.10982E-07        -0.74506E-20         0.00000E+00
    0.11535E-07         0.20724E-19         0.00000E+00
    0.12111E-07        -0.35465E-19         0.00000E+00
    0.12710E-07        -0.56807E-20         0.00000E+00
    0.13331E-07         0.16495E-19         0.00000E+00
    0.13977E-07        -0.18626E-20         0.00000E+00
    0.14646E-07        -0.22635E-19         0.00000E+00
    0.15338E-07        -0.38054E-20         0.00000E+00
    0.16055E-07         0.14901E-19         0.00000E+00
    0.16796E-07        -0.37253E-19         0.00000E+00
    0.17560E-07        -0.10834E-19         0.00000E+00
    0.18348E-07         0.46566E-20         0.00000E+00
    0.19159E-07        -0.12264E-19         0.00000E+00
    0.19993E-07         0.13462E-19         0.00000E+00
    0.20849E-07        -0.12107E-19         0.00000E+00
    0.21727E-07        -0.28542E-20         0.00000E+00
    0.22625E-07        -0.61566E-20         0.00000E+00
    0.23543E-07        -0.11176E-19         0.00000E+00
    0.24479E-07         0.18626E-20         0.00000E+00
    0.25431E-07        -0.13870E-19         0.00000E+00
    0.26399E-07         0.00000E+00         0.00000E+00
    0.27379E-07        -0.34252E-19         0.00000E+00
    0.28370E-07        -0.74506E-20         0.00000E+00
    0.29369E-07        -0.17695E-19         0.00000E+00
    0.30374E-07        -0.55879E-20         0.00000E+00
    0.31381E-07        -0.74506E-20         0.00000E+00
    0.32387E-07         0.61232E-20         0.00000E+00
    0.33389E-07        -0.45745E-20         0.00000E+00
    0.34383E-07         0.00000E+00         0.00000E+00
    0.35363E-07        -0.64473E-22         0.00000E+00
    0.36327E-07         0.25146E-19         0.00000E+00
    0.37268E-07         0.27940E-20         0.00000E+00
    0.38183E-07         0.93132E-20         0.00000E+00
    0.39064E-07         0.71762E-20         0.00000E+00
    0.39907E-07         0.37253E-20         0.00000E+00
    0.40707E-07        -0.65193E-20         0.00000E+00
    0.41456E-07        -0.11176E-19         0.00000E+00
    0.42149E-07         0.18626E-20         0.00000E+00
    0.42779E-07         0.55879E-20         0.00000E+00
    0.43341E-07         0.15710E-19         0.00000E+00
    0.43830E-07         0.20489E-19         0.00000E+00
    0.44238E-07         0.24037E-19         0.00000E+00
    0.44562E-07        -0.20489E-19         0.00000E+00
    0.44797E-07         0.29802E-19         0.00000E+00
    0.44939E-07        -0.33528E-19         0.00000E+00
    0.44987E-07        -0.17174E-21         0.00000E+00
    0.91510E-09        -0.18626E-20         0.00000E+00
    0.91687E-09         0.12107E-19         0.00000E+00
    0.92219E-09        -0.83819E-20         0.00000E+00
    0.93107E-09        -0.50136E-20         0.00000E+00
    0.94355E-09         0.83819E-20         0.00000E+00
    0.95967E-09         0.10245E-19         0.00000E+00
    0.97946E-09        -0.53681E-20         0.00000E+00
    0.10030E-08         0.18626E-20         0.00000E+00
    0.10304E-08        -0.93132E-21         0.00000E+00
    0.10616E-08         0.12107E-19         0.00000E+00
    0.10969E-08        -0.27940E-20         0.00000E+00
    0.11362E-08         0.12590E-19         0.00000E+00
    0.11798E-08         0.23134E-20         0.00000E+00
    0.12278E-08        -0.74506E-20         0.00000E+00
    0.12803E-08         0.37253E-20         0.00000E+00
    0.13374E-08        -0.16764E-19         0.00000E+00
    0.13993E-08        -0.46566E-20         0.00000E+00
    0.14663E-08         0.83894E-20         0.00000E+00
    0.15385E-08         0.83819E-20         0.00000E+00
    0.16161E-08        -0.46566E-20         0.00000E+00
    0.16994E-08        -0.12107E-19         0.00000E+00
    0.17885E-08         0.74506E-20         0.00000E+00
    0.18838E-08        -0.20573E-22         0.00000E+00
    0.19855E-08         0.10245E-19         0.00000E+00
    0.20939E-08         0.33958E-22         0.00000E+00
    0.22093E-08        -0.93132E-21         0.00000E+00
    0.23319E-08         0.16764E-19         0.00000E+00
    0.24622E-08        -0.29078E-20         0.00000E+00
    0.26004E-08         0.00000E+00         0.00000E+00
    0.27470E-08        -0.74506E-20         0.00000E+00
    0.29022E-08        -0.37253E-20         0.00000E+00
    0.30665E-08        -0.37253E-20         0.00000E+00
    0.32403E-08         0.15832E-19         0.00000E+00
    0.34240E-08        -0.72192E-20         0.00000E+00
    0.36180E-08         0.81268E-20         0.00000E+00
    0.38228E-08        -0.93132E-21         0.00000E+00
    0.40389E-08         0.46566E-20         0.00000E+00
    0.42667E-08        -0.74506E-20         0.00000E+00
    0.45067E-08        -0.17695E-19         0.00000E+00
    0.47594E-08        -0.11712E-19         0.00000E+00
    0.50254E-08        -0.18626E-20         0.00000E+00
    0.53052E-08         0.51253E-20         0.00000E+00
    0.55992E-08        -0.20489E-19         0.00000E+00
    0.59082E-08        -0.14694E-20         0.00000E+00
    0.62326E-08        -0.78030E-20         0.00000E+00
    0.65729E-08         0.62099E-20         0.00000E+00
    0.69299E-08         0.10245E-19         0.00000E+00
    0.73040E-08        -0.13039E-19         0.00000E+00
    0.76958E-08         0.15667E-19         0.00000E+00
    0.81059E-08        -0.54758E-20         0.00000E+00
    0.85348E-08         0.00000E+00         0.00000E+00
    0.89832E-08        -0.12107E-19         0.00000E+00
    0.94516E-08        -0.93132E-20         0.00000E+00
    0.99405E-08         0.37253E-20         0.00000E+00
    0.10450E-07         0.78498E-20         0.00000E+00
    0.10982E-07        -0.11176E-19         0.00000E+00
    0.11535E-07         0.55879E-20         0.00000E+00
    0.12111E-07        -0.29802E-19         0.00000E+00
    0.12710E-07        -0.18626E-20         0.00000E+00
    0.13331E-07         0.19827E-19         0.00000E+00
    0.13977E-07         0.93132E-20         0.00000E+00
    0.14646E-07        -0.20489E-19         0.00000E+00
    0.15338E-07        -0.13039E-19         0.00000E+00
    0.16055E-07         0.16764E-19         0.00000E+00
    0.16796E-07        -0.12107E-19         0.00000E+00
    0.17560E-07        -0.83819E-20         0.00000E+00
    0.18348E-07        -0.10295E-20         0.00000E+00
    0.19159E-07        -0.93132E-21         0.00000E+00
    0.19993E-07        -0.41486E-20         0.00000E+00
    0.20849E-07         0.44267E-20         0.00000E+00
    0.21727E-07         0.93132E-21         0.00000E+00
    0.22625E-07        -0.17695E-19         0.00000E+00
    0.23543E-07        -0.55879E-20         0.00000E+00
    0.24479E-07         0.65193E-20         0.00000E+00
    0.25431E-07        -0.65193E-20         0.00000E+00
    0.26399E-07         0.65193E-20         0.00000E+00
    0.27379E-07        -0.83819E-20         0.00000E+00
    0.28370E-07        -0.83819E-20         0.00000E+00
    0.29369E-07         0.98521E-21         0.00000E+00
    0.30374E-07        -0.65162E-20         0.00000E+00
    0.31381E-07        -0.46566E-20         0.00000E+00
    0.32387E-07        -0.18626E-20         0.00000E+00
    0.33389E-07        -0.14901E-19         0.00000E+00
    0.34383E-07         0.55879E-20         0.00000E+00
    0.35363E-07        -0.37253E-20         0.00000E+00
    0.36327E-07         0.43116E-21         0.00000E+00
    0.37268E-07         0.37160E-20         0.00000E+00
    0.38183E-07         0.11176E-19         0.00000E+00
    0.39064E-07         0.19998E-20         0.00000E+00
    0.39907E-07         0.13039E-19         0.00000E+00
    0.40707E-07        -0.80658E-20         0.00000E+00
    0.41456E-07        -0.15832E-19         0.00000E+00
    0.42149E-07         0.13039E-19         0.00000E+00
    0.42779E-07         0.93132E-20         0.00000E+00
    0.43341E-07         0.74506E-20         0.00000E+00
    0.43830E-07         0.97553E-20         0.00000E+00
    0.44238E-07        -0.35477E-20         0.00000E+00
    0.44562E-07         0.00000E+00         0.00000E+00
    0.44797E-07         0.11604E-19         0.00000E+00
    0.44939E-07        -0.35178E-20         0.00000E+00
    0.44987E-07         0.17174E-21         0.00000E+00
    0.91510E-09        -0.37253E-20         0.00000E+00
    0.91687E-09         0.12681E-19         0.00000E+00
    0.92219E-09        -0.25774E-20         0.00000E+00
    0.93107E-09        -0.37253E-20         0.00000E+00
    0.94355E-09        -0.16327E-19         0.00000E+00
    0.95967E-09         0.28378E-19         0.00000E+00
    0.97946E-09        -0.11176E-19         0.00000E+00
    0.10030E-08         0.37253E-20         0.00000E+00
    0.10304E-08         0.17650E-19         0.00000E+00
    0.10616E-08         0.10203E-19         0.00000E+00
    0.10969E-08         0.64816E-20         0.00000E+00
    0.11362E-08         0.17950E-20         0.00000E+00
    0.11798E-08         0.37253E-20         0.00000E+00
    0.12278E-08        -0.14901E-19         0.00000E+00
    0.12803E-08         0.14901E-19         0.00000E+00
    0.13374E-08         0.37253E-20         0.00000E+00
    0.13993E-08         0.18379E-20         0.00000E+00
    0.14663E-08        -0.18777E-20         0.00000E+00
    0.15385E-08        -0.18675E-20         0.00000E+00
    0.16161E-08         0.13044E-19         0.00000E+00
    0.16994E-08        -0.31648E-19         0.00000E+00
    0.17885E-08         0.37253E-19         0.00000E+00
    0.18838E-08        -0.24132E-19         0.00000E+00
    0.19855E-08         0.16818E-19         0.00000E+00
    0.20939E-08        -0.18626E-19         0.00000E+00
    0.22093E-08        -0.12956E-19         0.00000E+00
    0.23319E-08         0.14901E-19         0.00000E+00
    0.24622E-08        -0.14901E-19         0.00000E+00
    0.26004E-08         0.11176E-19         0.00000E+00
    0.27470E-08        -0.37253E-20         0.00000E+00
    0.29022E-08        -0.14901E-19         0.00000E+00
    0.30665E-08        -0.74506E-20         0.00000E+00
    0.32403E-08         0.17182E-19         0.00000E+00
    0.34240E-08         0.00000E+00         0.00000E+00
    0.36180E-08        -0.88031E-20         0.00000E+00
    0.38228E-08         0.17324E-19         0.00000E+00
    0.40389E-08        -0.12497E-20         0.00000E+00
    0.42667E-08        -0.15426E-19         0.00000E+00
    0.45067E-08        -0.27212E-19         0.00000E+00
    0.47594E-08         0.74506E-20         0.00000E+00
    0.50254E-08        -0.14045E-19         0.00000E+00
    0.53052E-08        -0.10251E-19         0.00000E+00
    0.55992E-08        -0.15765E-19         0.00000E+00
    0.59082E-08        -0.63745E-20         0.00000E+00
    0.62326E-08        -0.17469E-19         0.00000E+00
    0.65729E-08         0.74506E-20         0.00000E+00
    0.69299E-08        -0.23904E-20         0.00000E+00
    0.73040E-08        -0.74506E-20         0.00000E+00
    0.76958E-08        -0.37253E-20         0.00000E+00
    0.81059E-08         0.14142E-20         0.00000E+00
    0.85348E-08        -0.75626E-20         0.00000E+00
    0.89832E-08        -0.93071E-20         0.00000E+00
    0.94516E-08        -0.11176E-19         0.00000E+00
    0.99405E-08        -0.14901E-19         0.00000E+00
    0.10450E-07         0.85149E-20         0.00000E+00
    0.10982E-07         0.77467E-21         0.00000E+00
    0.11535E-07        -0.14901E-19         0.00000E+00
    0.12111E-07        -0.14751E-19         0.00000E+00
    0.12710E-07         0.15087E-19         0.00000E+00
    0.13331E-07         0.74506E-20         0.00000E+00
    0.13977E-07         0.37253E-20         0.00000E+00
    0.14646E-07         0.37253E-20         0.00000E+00
    0.15338E-07        -0.22352E-19         0.00000E+00
    0.16055E-07         0.15167E-19         0.00000E+00
    0.16796E-07        -0.86016E-20         0.00000E+00
    0.17560E-07        -0.99976E-20         0.00000E+00
    0.18348E-07        -0.74506E-20         0.00000E+00
    0.19159E-07         0.21765E-20         0.00000E+00
    0.19993E-07        -0.23368E-19         0.00000E+00
    0.20849E-07         0.11176E-19         0.00000E+00
    0.21727E-07        -0.54674E-20         0.00000E+00
    0.22625E-07        -0.12313E-19         0.00000E+00
    0.23543E-07        -0.42324E-20         0.00000E+00
    0.24479E-07         0.20115E-20         0.00000E+00
    0.25431E-07         0.91129E-20         0.00000E+00
    0.26399E-07        -0.17086E-19         0.00000E+00
    0.27379E-07         0.60021E-20         0.00000E+00
    0.28370E-07        -0.13723E-19         0.00000E+00
    0.29369E-07         0.00000E+00         0.00000E+00
    0.30374E-07         0.13032E-19         0.00000E+00
    0.31381E-07         0.17772E-20         0.00000E+00
    0.32387E-07         0.79216E-21         0.00000E+00
    0.33389E-07        -0.38896E-20         0.00000E+00
    0.34383E-07         0.74506E-20         0.00000E+00
    0.35363E-07        -0.38542E-20         0.00000E+00
    0.36327E-07        -0.10003E-20         0.00000E+00
    0.37268E-07        -0.18441E-20         0.00000E+00
    0.38183E-07        -0.37253E-20         0.00000E+00
    0.39064E-07        -0.53135E-20         0.00000E+00
    0.39907E-07         0.18136E-19         0.00000E+00
    0.40707E-07        -0.11176E-19         0.00000E+00
    0.41456E-07        -0.19471E-20         0.00000E+00
    0.42149E-07         0.66715E-20         0.00000E+00
    0.42779E-07         0.41347E-20         0.00000E+00
    0.43341E-07        -0.37253E-20         0.00000E+00
    0.43830E-07         0.17742E-19         0.00000E+00
    0.44238E-07        -0.11176E-19         0.00000E+00
    0.44562E-07         0.10920E-19         0.00000E+00
    0.44797E-07        -0.35736E-20         0.00000E+00
    0.44939E-07         0.11591E-19         0.00000E+00
    0.44987E-07        -0.34348E-21         0.00000E+00
CELL_DATA       5000
TENSORS stressef double 
    0.35485E+04         0.87572E+04         0.00000E+00
    0.87572E+04        -0.47565E+08         0.00000E+00
    0.00000E+00         0.00000E+00        -0.19028E-08
 
    0.25347E+04         0.23833E+05         0.00000E+00
    0.23833E+05        -0.47568E+08         0.00000E+00
    0.00000E+00         0.00000E+00        -0.14271E-08
 
    0.22288E+04         0.35688E+05         0.00000E+00
    0.35688E+05        -0.47574E+08         0.00000E+00
    0.00000E+00         0.00000E+00         0.95139E-09
 
    0.20344E+04         0.46287E+05         0.00000E+00
    0.46287E+05        -0.47580E+08         0.00000E+00
    0.00000E+00         0.00000E+00        -0.47567E-09
 
    0.19252E+04         0.56139E+05         0.00000E+00
    0.56139E+05        -0.47588E+08         0.00000E+00
    0.00000E+00         0.00000E+00         0.17442E-08
 
    0.18618E+04         0.65567E+05         0.00000E+00
    0.65567E+05        -0.47597E+08         0.00000E+00
    0.00000E+00         0.00000E+00        -0.22198E-08
 
    0.18290E+04         0.74762E+05         0.00000E+00
    0.74762E+05        -0.47606E+08         0.00000E+00
    0.00000E+00         0.00000E+00        -0.34884E-08
 
    0.18164E+04         0.83849E+05         0.00000E+00
    0.83849E+05        -0.47616E+08         0.00000E+00
    0.00000E+00         0.00000E+00        -0.20613E-08
 
    0.18182E+04         0.92915E+05         0.00000E+00
    0.92915E+05        -0.47626E+08         0.00000E+00
    0.00000E+00         0.00000E+00         0.20613E-08
 
    0.18308E+04         0.10202E+06         0.00000E+00
    0.10202E+06        -0.47636E+08         0.00000E+00
    0.00000E+00         0.00000E+00        -0.15854E-09
 
    0.18522E+04         0.11121E+06         0.00000E+00
    0.11121E+06        -0.47647E+08         0.00000E+00
    0.00000E+00         0.00000E+00        -0.19028E-08
 
    0.18815E+04         0.12053E+06         0.00000E+00
    0.12053E+06        -0.47659E+08         0.00000E+00
    0.00000E+00         0.00000E+00         0.63426E-09
 
    0.19184E+04         0.13002E+06         0.00000E+00
    0.13002E+06        -0.47670E+08         0.00000E+00
    0.00000E+00         0.00000E+00         0.79280E-09
 
    0.19627E+04         0.13971E+06         0.00000E+00
    0.13971E+06        -0.47682E+08         0.00000E+00
    0.00000E+00         0.00000E+00        -0.17442E-08
 
    0.20145E+04         0.14964E+06         0.00000E+00
    0.14964E+06        -0.47694E+08         0.00000E+00
    0.00000E+00         0.00000E+00         0.19028E-08
 
    0.20739E+04         0.15984E+06         0.00000E+00
    0.15984E+06        -0.47707E+08         0.00000E+00
    0.00000E+00         0.00000E+00        -0.31713E-09
 
    0.21412E+04         0.17036E+06         0.00000E+00
    0.17036E+06        -0.47719E+08         0.00000E+00
    0.00000E+00         0.00000E+00        -0.17442E-08
 
    0.22164E+04         0.18123E+06         0.00000E+00
    0.18123E+06        -0.47732E+08         0.00000E+00
    0.00000E+00         0.00000E+00         0.26956E-08
 
    0.22997E+04         0.19250E+06         0.00000E+00
    0.19250E+06        -0.47746E+08         0.00000E+00
    0.00000E+00         0.00000E+00         0.15854E-09
 
    0.23911E+04         0.20420E+06         0.00000E+00
    0.20420E+06        -0.47760E+08         0.00000E+00
    0.00000E+00         0.00000E+00        -0.12685E-08
 
    0.24906E+04         0.21637E+06         0.00000E+00
    0.21637E+06        -0.47775E+08         0.00000E+00
    0.00000E+00         0.00000E+00        -0.31713E-09
 
    0.25983E+04         0.22906E+06         0.00000E+00
    0.22906E+06        -0.47790E+08         0.00000E+00
    0.00000E+00         0.00000E+00        -0.79280E-09
 
    0.27142E+04         0.24230E+06         0.00000E+00
    0.24230E+06        -0.47807E+08         0.00000E+00
    0.00000E+00         0.00000E+00         0.15859E-09
 
    0.28382E+04         0.25614E+06         0.00000E+00
    0.25614E+06        -0.47823E+08         0.00000E+00
    0.00000E+00         0.00000E+00         0.47567E-09
 
    0.29703E+04         0.27062E+06         0.00000E+00
    0.27062E+06        -0.47841E+08         0.00000E+00
    0.00000E+00         0.00000E+00        -0.47567E-09
 
    0.31105E+04         0.28577E+06         0.00000E+00
    0.28577E+06        -0.47860E+08         0.00000E+00
    0.00000E+00         0.00000E+00         0.15856E-08
 
    0.32588E+04         0.30164E+06         0.00000E+00
    0.30164E+06        -0.47880E+08         0.00000E+00
    0.00000E+00         0.00000E+00        -0.17442E-08
 
    0.34151E+04         0.31827E+06         0.00000E+00
    0.31827E+06        -0.47900E+08         0.00000E+00
    0.00000E+00         0.00000E+00         0.79285E-09
 
    0.35795E+04         0.33570E+06         0.00000E+00
    0.33570E+06        -0.47922E+08         0.00000E+00
    0.00000E+00         0.00000E+00        -0.15857E-08
 
    0.37518E+04         0.35396E+06         0.00000E+00
    0.35396E+06        -0.47945E+08         0.00000E+00
    0.00000E+00         0.00000E+00         0.63426E-09
 
    0.39321E+04         0.37310E+06         0.00000E+00
    0.37310E+06        -0.47970E+08         0.00000E+00
    0.00000E+00         0.00000E+00        -0.11369E-12
 
    0.41203E+04         0.39316E+06         0.00000E+00
    0.39316E+06        -0.47996E+08         0.00000E+00
    0.00000E+00         0.00000E+00         0.95133E-09
 
    0.43163E+04         0.41417E+06         0.00000E+00
    0.41417E+06        -0.48024E+08         0.00000E+00
    0.00000E+00         0.00000E+00        -0.23784E-08
 
    0.45203E+04         0.43617E+06         0.00000E+00
    0.43617E+06        -0.48053E+08         0.00000E+00
    0.00000E+00         0.00000E+00        -0.79285E-09
 
    0.47319E+04         0.45921E+06         0.00000E+00
    0.45921E+06        -0.48084E+08         0.00000E+00
    0.00000E+00         0.00000E+00         0.12685E-08
 
    0.49513E+04         0.48332E+06         0.00000E+00
    0.48332E+06        -0.48117E+08         0.00000E+00
    0.00000E+00         0.00000E+00         0.63415E-09
 
    0.51782E+04         0.50855E+06         0.00000E+00
    0.50855E+06        -0.48151E+08         0.00000E+00
    0.00000E+00         0.00000E+00         0.95133E-09
 
    0.54126E+04         0.53491E+06         0.00000E+00
    0.53491E+06        -0.48188E+08         0.00000E+00
    0.00000E+00         0.00000E+00         0.12685E-08
 
    0.56543E+04         0.56247E+06         0.00000E+00
    0.56247E+06        -0.48227E+08         0.00000E+00
    0.00000E+00         0.00000E+00         0.31696E-09
 
    0.59031E+04         0.59124E+06         0.00000E+00
    0.59124E+06        -0.48269E+08         0.00000E+00
    0.00000E+00         0.00000E+00        -0.31719E-09
 
    0.61588E+04         0.62126E+06         0.00000E+00
    0.62126E+06        -0.48313E+08         0.00000E+00
    0.00000E+00         0.00000E+00        -0.79262E-09
 
    0.64211E+04         0.65258E+06         0.00000E+00
    0.65258E+06        -0.48360E+08         0.00000E+00
    0.00000E+00         0.00000E+00         0.22201E-08
 
    0.66897E+04         0.68521E+06         0.00000E+00
    0.68521E+06        -0.48409E+08         0.00000E+00
    0.00000E+00         0.00000E+00         0.00000E+00
 
    0.69641E+04         0.71919E+06         0.00000E+00
    0.71919E+06        -0.48462E+08         0.00000E+00
    0.00000E+00         0.00000E+00         0.12683E-08
 
    0.72439E+04         0.75455E+06         0.00000E+00
    0.75455E+06        -0.48517E+08         0.00000E+00
    0.00000E+00         0.00000E+00         0.00000E+00
 
    0.75287E+04         0.79131E+06         0.00000E+00
    0.79131E+06        -0.48576E+08         0.00000E+00
    0.00000E+00         0.00000E+00        -0.12685E-08
 
    0.78176E+04         0.82949E+06         0.00000E+00
    0.82949E+06        -0.48639E+08         0.00000E+00
    0.00000E+00         0.00000E+00         0.31696E-09
 
    0.81101E+04         0.86912E+06         0.00000E+00
    0.86912E+06        -0.48705E+08         0.00000E+00
    0.00000E+00         0.00000E+00        -0.47567E-09
 
    0.84053E+04         0.91021E+06         0.00000E+00
    0.91021E+06        -0.48775E+08         0.00000E+00
    0.00000E+00         0.00000E+00        -0.20614E-08
 
    0.87024E+04         0.95277E+06         0.00000E+00
    0.95277E+06        -0.48850E+08         0.00000E+00
    0.00000E+00         0.00000E+00        -0.14270E-08
 
    0.90001E+04         0.99680E+06         0.00000E+00
    0.99680E+06        -0.48928E+08         0.00000E+00
    0.00000E+00         0.00000E+00         0.20614E-08
 
    0.92975E+04         0.10423E+07         0.00000E+00
    0.10423E+07        -0.49011E+08         0.00000E+00
    0.00000E+00         0.00000E+00        -0.31696E-09
 
    0.95931E+04         0.10893E+07         0.00000E+00
    0.10893E+07        -0.49099E+08         0.00000E+00
    0.00000E+00         0.00000E+00         0.95179E-09
 
    0.98854E+04         0.11377E+07         0.00000E+00
    0.11377E+07        -0.49192E+08         0.00000E+00
    0.00000E+00         0.00000E+00         0.45475E-12
 
    0.10173E+05         0.11876E+07         0.00000E+00
    0.11876E+07        -0.49291E+08         0.00000E+00
    0.00000E+00         0.00000E+00         0.11100E-08
 
    0.10454E+05         0.12389E+07         0.00000E+00
    0.12389E+07        -0.49395E+08         0.00000E+00
    0.00000E+00         0.00000E+00        -0.28540E-08
 
    0.10725E+05         0.12915E+07         0.00000E+00
    0.12915E+07        -0.49505E+08         0.00000E+00
    0.00000E+00         0.00000E+00        -0.26962E-08
 
    0.10986E+05         0.13455E+07         0.00000E+00
    0.13455E+07        -0.49621E+08         0.00000E+00
    0.00000E+00         0.00000E+00        -0.26953E-08
 
    0.11233E+05         0.14007E+07         0.00000E+00
    0.14007E+07        -0.49743E+08         0.00000E+00
    0.00000E+00         0.00000E+00        -0.47567E-09
 
    0.11464E+05         0.14571E+07         0.00000E+00
    0.14571E+07        -0.49872E+08         0.00000E+00
    0.00000E+00         0.00000E+00         0.15857E-08
 
    0.11675E+05         0.15146E+07         0.00000E+00
    0.15146E+07        -0.50009E+08         0.00000E+00
    0.00000E+00         0.00000E+00        -0.31696E-09
 
    0.11864E+05         0.15731E+07         0.00000E+00
    0.15731E+07        -0.50152E+08         0.00000E+00
    0.00000E+00         0.00000E+00         0.00000E+00
 
    0.12025E+05         0.16324E+07         0.00000E+00
    0.16324E+07        -0.50304E+08         0.00000E+00
    0.00000E+00         0.00000E+00         0.31832E-09
 
    0.12157E+05         0.16924E+07         0.00000E+00
    0.16924E+07        -0.50464E+08         0.00000E+00
    0.00000E+00         0.00000E+00         0.15825E-09
 
    0.12253E+05         0.17530E+07         0.00000E+00
    0.17530E+07        -0.50632E+08         0.00000E+00
    0.00000E+00         0.00000E+00        -0.95133E-09
 
    0.12309E+05         0.18140E+07         0.00000E+00
    0.18140E+07        -0.50809E+08         0.00000E+00
    0.00000E+00         0.00000E+00        -0.14270E-08
 
    0.12319E+05         0.18751E+07         0.00000E+00
    0.18751E+07        -0.50995E+08         0.00000E+00
    0.00000E+00         0.00000E+00         0.15852E-08
 
    0.12279E+05         0.19361E+07         0.00000E+00
    0.19361E+07        -0.51191E+08         0.00000E+00
    0.00000E+00         0.00000E+00         0.00000E+00
 
    0.12182E+05         0.19967E+07         0.00000E+00
    0.19967E+07        -0.51398E+08         0.00000E+00
    0.00000E+00         0.00000E+00         0.31741E-09
 
    0.12022E+05         0.20567E+07         0.00000E+00
    0.20567E+07        -0.51614E+08         0.00000E+00
    0.00000E+00         0.00000E+00         0.31741E-09
 
    0.11790E+05         0.21156E+07         0.00000E+00
    0.21156E+07        -0.51842E+08         0.00000E+00
    0.00000E+00         0.00000E+00        -0.79308E-09
 
    0.11480E+05         0.21732E+07         0.00000E+00
    0.21732E+07        -0.52081E+08         0.00000E+00
    0.00000E+00         0.00000E+00        -0.95133E-09
 
    0.11085E+05         0.22290E+07         0.00000E+00
    0.22290E+07        -0.52332E+08         0.00000E+00
    0.00000E+00         0.00000E+00        -0.17444E-08
 
    0.10595E+05         0.22826E+07         0.00000E+00
    0.22826E+07        -0.52596E+08         0.00000E+00
    0.00000E+00         0.00000E+00         0.15916E-09
 
    0.10003E+05         0.23335E+07         0.00000E+00
    0.23335E+07        -0.52872E+08         0.00000E+00
    0.00000E+00         0.00000E+00         0.63392E-09
 
    0.92990E+04         0.23810E+07         0.00000E+00
    0.23810E+07        -0.53161E+08         0.00000E+00
    0.00000E+00         0.00000E+00         0.26957E-08
 
    0.84756E+04         0.24248E+07         0.00000E+00
    0.24248E+07        -0.53464E+08         0.00000E+00
    0.00000E+00         0.00000E+00         0.00000E+00
 
    0.75242E+04         0.24640E+07         0.00000E+00
    0.24640E+07        -0.53782E+08         0.00000E+00
    0.00000E+00         0.00000E+00         0.22192E-08
 
    0.64368E+04         0.24982E+07         0.00000E+00
    0.24982E+07        -0.54114E+08         0.00000E+00
    0.00000E+00         0.00000E+00        -0.63483E-09
 
    0.52066E+04         0.25265E+07         0.00000E+00
    0.25265E+07        -0.54461E+08         0.00000E+00
    0.00000E+00         0.00000E+00        -0.47658E-09
 
    0.38277E+04         0.25484E+07         0.00000E+00
    0.25484E+07        -0.54824E+08         0.00000E+00
    0.00000E+00         0.00000E+00        -0.47658E-09
 
    0.22957E+04         0.25629E+07         0.00000E+00
    0.25629E+07        -0.55202E+08         0.00000E+00
    0.00000E+00         0.00000E+00        -0.30122E-08
 
    0.60821E+03         0.25693E+07         0.00000E+00
    0.25693E+07        -0.55596E+08         0.00000E+00
    0.00000E+00         0.00000E+00         0.79126E-09
 
   -0.12348E+04         0.25670E+07         0.00000E+00
    0.25670E+07        -0.56006E+08         0.00000E+00
    0.00000E+00         0.00000E+00         0.26957E-08
 
   -0.32309E+04         0.25551E+07         0.00000E+00
    0.25551E+07        -0.56431E+08         0.00000E+00
    0.00000E+00         0.00000E+00         0.00000E+00
 
   -0.53752E+04         0.25328E+07         0.00000E+00
    0.25328E+07        -0.56871E+08         0.00000E+00
    0.00000E+00         0.00000E+00        -0.63301E-09
 
   -0.76606E+04         0.24995E+07         0.00000E+00
    0.24995E+07        -0.57326E+08         0.00000E+00
    0.00000E+00         0.00000E+00         0.19045E-08
 
   -0.10079E+05         0.24546E+07         0.00000E+00
    0.24546E+07        -0.57793E+08         0.00000E+00
    0.00000E+00         0.00000E+00         0.00000E+00
 
   -0.12626E+05         0.23973E+07         0.00000E+00
    0.23973E+07        -0.58271E+08         0.00000E+00
    0.00000E+00         0.00000E+00        -0.11096E-08
 
   -0.15300E+05         0.23272E+07         0.00000E+00
    0.23272E+07        -0.58758E+08         0.00000E+00
    0.00000E+00         0.00000E+00        -0.79308E-09
 
   -0.18117E+05         0.22435E+07         0.00000E+00
    0.22435E+07        -0.59249E+08         0.00000E+00
    0.00000E+00         0.00000E+00         0.16007E-09
 
   -0.21118E+05         0.21455E+07         0.00000E+00
    0.21455E+07        -0.59741E+08         0.00000E+00
    0.00000E+00         0.00000E+00         0.45984E-08
 
   -0.24392E+05         0.20322E+07         0.00000E+00
    0.20322E+07        -0.60227E+08         0.00000E+00
    0.00000E+00         0.00000E+00        -0.11096E-08
 
   -0.28100E+05         0.19018E+07         0.00000E+00
    0.19018E+07        -0.60700E+08         0.00000E+00
    0.00000E+00         0.00000E+00         0.31650E-09
 
   -0.32520E+05         0.17515E+07         0.00000E+00
    0.17515E+07        -0.61153E+08         0.00000E+00
    0.00000E+00         0.00000E+00        -0.12697E-08
 
   -0.38140E+05         0.15766E+07         0.00000E+00
    0.15766E+07        -0.61576E+08         0.00000E+00
    0.00000E+00         0.00000E+00         0.00000E+00
 
   -0.45684E+05         0.13692E+07         0.00000E+00
    0.13692E+07        -0.61960E+08         0.00000E+00
    0.00000E+00         0.00000E+00         0.19018E-08
 
   -0.57044E+05         0.11153E+07         0.00000E+00
    0.11153E+07        -0.62291E+08         0.00000E+00
    0.00000E+00         0.00000E+00         0.19036E-08
 
   -0.73449E+05         0.79184E+06         0.00000E+00
    0.79184E+06        -0.62566E+08         0.00000E+00
    0.00000E+00         0.00000E+00         0.95042E-09
 
   -0.12412E+06         0.30460E+06         0.00000E+00
    0.30460E+06        -0.62748E+08         0.00000E+00
    0.00000E+00         0.00000E+00        -0.28535E-08
 
    0.10365E+05         0.78606E+04         0.00000E+00
    0.78606E+04        -0.47568E+08         0.00000E+00
    0.00000E+00         0.00000E+00        -0.12685E-08
 
    0.76534E+04         0.22096E+05         0.00000E+00
    0.22096E+05        -0.47571E+08         0.00000E+00
    0.00000E+00         0.00000E+00        -0.28542E-08
 
    0.66882E+04         0.33948E+05         0.00000E+00
    0.33948E+05        -0.47576E+08         0.00000E+00
    0.00000E+00         0.00000E+00        -0.28422E-13
 
    0.61160E+04         0.44465E+05         0.00000E+00
    0.44465E+05        -0.47582E+08         0.00000E+00
    0.00000E+00         0.00000E+00        -0.41227E-08
 
    0.57828E+04         0.54270E+05         0.00000E+00
    0.54270E+05        -0.47590E+08         0.00000E+00
    0.00000E+00         0.00000E+00         0.28542E-08
 
    0.55898E+04         0.63646E+05         0.00000E+00
    0.63646E+05        -0.47598E+08         0.00000E+00
    0.00000E+00         0.00000E+00         0.12685E-08
 
    0.54876E+04         0.72788E+05         0.00000E+00
    0.72788E+05        -0.47608E+08         0.00000E+00
    0.00000E+00         0.00000E+00        -0.12685E-08
 
    0.54466E+04         0.81818E+05         0.00000E+00
    0.81818E+05        -0.47617E+08         0.00000E+00
    0.00000E+00         0.00000E+00        -0.31713E-08
 
    0.54488E+04         0.90821E+05         0.00000E+00
    0.90821E+05        -0.47628E+08         0.00000E+00
    0.00000E+00         0.00000E+00        -0.95139E-09
 
    0.54839E+04         0.99856E+05         0.00000E+00
    0.99856E+05        -0.47638E+08         0.00000E+00
    0.00000E+00         0.00000E+00        -0.34884E-08
 
    0.55459E+04         0.10897E+06         0.00000E+00
    0.10897E+06        -0.47649E+08         0.00000E+00
    0.00000E+00         0.00000E+00        -0.28542E-08
 
    0.56320E+04         0.11821E+06         0.00000E+00
    0.11821E+06        -0.47661E+08         0.00000E+00
    0.00000E+00         0.00000E+00        -0.31713E-08
 
    0.57409E+04         0.12760E+06         0.00000E+00
    0.12760E+06        -0.47672E+08         0.00000E+00
    0.00000E+00         0.00000E+00        -0.19028E-08
 
    0.58723E+04         0.13718E+06         0.00000E+00
    0.13718E+06        -0.47684E+08         0.00000E+00
    0.00000E+00         0.00000E+00        -0.31713E-09
 
    0.60265E+04         0.14700E+06         0.00000E+00
    0.14700E+06        -0.47696E+08         0.00000E+00
    0.00000E+00         0.00000E+00         0.38056E-08
 
    0.62037E+04         0.15708E+06         0.00000E+00
    0.15708E+06        -0.47709E+08         0.00000E+00
    0.00000E+00         0.00000E+00        -0.63426E-09
 
    0.64045E+04         0.16747E+06         0.00000E+00
    0.16747E+06        -0.47721E+08         0.00000E+00
    0.00000E+00         0.00000E+00         0.63426E-09
 
    0.66291E+04         0.17820E+06         0.00000E+00
    0.17820E+06        -0.47735E+08         0.00000E+00
    0.00000E+00         0.00000E+00         0.31712E-08
 
    0.68779E+04         0.18931E+06         0.00000E+00
    0.18931E+06        -0.47748E+08         0.00000E+00
    0.00000E+00         0.00000E+00        -0.12685E-08
 
    0.71510E+04         0.20084E+06         0.00000E+00
    0.20084E+06        -0.47763E+08         0.00000E+00
    0.00000E+00         0.00000E+00        -0.19028E-08
 
    0.74485E+04         0.21284E+06         0.00000E+00
    0.21284E+06        -0.47778E+08         0.00000E+00
    0.00000E+00         0.00000E+00        -0.19028E-08
 
    0.77705E+04         0.22534E+06         0.00000E+00
    0.22534E+06        -0.47793E+08         0.00000E+00
    0.00000E+00         0.00000E+00        -0.19028E-08
 
    0.81169E+04         0.23839E+06         0.00000E+00
    0.23839E+06        -0.47809E+08         0.00000E+00
    0.00000E+00         0.00000E+00        -0.31707E-09
 
    0.84877E+04         0.25201E+06         0.00000E+00
    0.25201E+06        -0.47826E+08         0.00000E+00
    0.00000E+00         0.00000E+00         0.00000E+00
 
    0.88828E+04         0.26626E+06         0.00000E+00
    0.26626E+06        -0.47844E+08         0.00000E+00
    0.00000E+00         0.00000E+00        -0.63426E-09
 
    0.93021E+04         0.28118E+06         0.00000E+00
    0.28118E+06        -0.47863E+08         0.00000E+00
    0.00000E+00         0.00000E+00         0.00000E+00
 
    0.97455E+04         0.29679E+06         0.00000E+00
    0.29679E+06        -0.47883E+08         0.00000E+00
    0.00000E+00         0.00000E+00         0.00000E+00
 
    0.10213E+05         0.31315E+06         0.00000E+00
    0.31315E+06        -0.47904E+08         0.00000E+00
    0.00000E+00         0.00000E+00         0.15857E-08
 
    0.10704E+05         0.33029E+06         0.00000E+00
    0.33029E+06        -0.47926E+08         0.00000E+00
    0.00000E+00         0.00000E+00        -0.31713E-08
 
    0.11220E+05         0.34824E+06         0.00000E+00
    0.34824E+06        -0.47949E+08         0.00000E+00
    0.00000E+00         0.00000E+00        -0.12686E-08
 
    0.11759E+05         0.36706E+06         0.00000E+00
    0.36706E+06        -0.47974E+08         0.00000E+00
    0.00000E+00         0.00000E+00         0.50741E-08
 
    0.12322E+05         0.38678E+06         0.00000E+00
    0.38678E+06        -0.48000E+08         0.00000E+00
    0.00000E+00         0.00000E+00         0.95145E-09
 
    0.12908E+05         0.40743E+06         0.00000E+00
    0.40743E+06        -0.48028E+08         0.00000E+00
    0.00000E+00         0.00000E+00        -0.19028E-08
 
    0.13518E+05         0.42905E+06         0.00000E+00
    0.42905E+06        -0.48057E+08         0.00000E+00
    0.00000E+00         0.00000E+00         0.15856E-08
 
    0.14151E+05         0.45169E+06         0.00000E+00
    0.45169E+06        -0.48088E+08         0.00000E+00
    0.00000E+00         0.00000E+00        -0.63426E-09
 
    0.14807E+05         0.47538E+06         0.00000E+00
    0.47538E+06        -0.48121E+08         0.00000E+00
    0.00000E+00         0.00000E+00         0.00000E+00
 
    0.15485E+05         0.50015E+06         0.00000E+00
    0.50015E+06        -0.48156E+08         0.00000E+00
    0.00000E+00         0.00000E+00         0.31696E-09
 
    0.16186E+05         0.52605E+06         0.00000E+00
    0.52605E+06        -0.48194E+08         0.00000E+00
    0.00000E+00         0.00000E+00         0.12685E-08
 
    0.16909E+05         0.55311E+06         0.00000E+00
    0.55311E+06        -0.48233E+08         0.00000E+00
    0.00000E+00         0.00000E+00         0.00000E+00
 
    0.17653E+05         0.58136E+06         0.00000E+00
    0.58136E+06        -0.48275E+08         0.00000E+00
    0.00000E+00         0.00000E+00         0.31719E-09
 
    0.18417E+05         0.61084E+06         0.00000E+00
    0.61084E+06        -0.48319E+08         0.00000E+00
    0.00000E+00         0.00000E+00         0.63437E-09
 
    0.19202E+05         0.64157E+06         0.00000E+00
    0.64157E+06        -0.48366E+08         0.00000E+00
    0.00000E+00         0.00000E+00        -0.15857E-08
 
    0.20005E+05         0.67360E+06         0.00000E+00
    0.67360E+06        -0.48416E+08         0.00000E+00
    0.00000E+00         0.00000E+00        -0.25373E-08
 
    0.20825E+05         0.70695E+06         0.00000E+00
    0.70695E+06        -0.48469E+08         0.00000E+00
    0.00000E+00         0.00000E+00         0.19027E-08
 
    0.21662E+05         0.74164E+06         0.00000E+00
    0.74164E+06        -0.48525E+08         0.00000E+00
    0.00000E+00         0.00000E+00        -0.31719E-09
 
    0.22513E+05         0.77770E+06         0.00000E+00
    0.77770E+06        -0.48584E+08         0.00000E+00
    0.00000E+00         0.00000E+00        -0.25370E-08
 
    0.23377E+05         0.81515E+06         0.00000E+00
    0.81515E+06        -0.48647E+08         0.00000E+00
    0.00000E+00         0.00000E+00         0.28542E-08
 
    0.24252E+05         0.85401E+06         0.00000E+00
    0.85401E+06        -0.48713E+08         0.00000E+00
    0.00000E+00         0.00000E+00        -0.31741E-09
 
    0.25134E+05         0.89430E+06         0.00000E+00
    0.89430E+06        -0.48784E+08         0.00000E+00
    0.00000E+00         0.00000E+00        -0.95179E-09
 
    0.26022E+05         0.93602E+06         0.00000E+00
    0.93602E+06        -0.48858E+08         0.00000E+00
    0.00000E+00         0.00000E+00         0.00000E+00
 
    0.26913E+05         0.97917E+06         0.00000E+00
    0.97917E+06        -0.48937E+08         0.00000E+00
    0.00000E+00         0.00000E+00        -0.47571E-08
 
    0.27802E+05         0.10238E+07         0.00000E+00
    0.10238E+07        -0.49021E+08         0.00000E+00
    0.00000E+00         0.00000E+00        -0.15857E-08
 
    0.28685E+05         0.10698E+07         0.00000E+00
    0.10698E+07        -0.49109E+08         0.00000E+00
    0.00000E+00         0.00000E+00         0.19027E-08
 
    0.29559E+05         0.11172E+07         0.00000E+00
    0.11172E+07        -0.49202E+08         0.00000E+00
    0.00000E+00         0.00000E+00         0.00000E+00
 
    0.30418E+05         0.11661E+07         0.00000E+00
    0.11661E+07        -0.49301E+08         0.00000E+00
    0.00000E+00         0.00000E+00         0.31696E-09
 
    0.31257E+05         0.12163E+07         0.00000E+00
    0.12163E+07        -0.49405E+08         0.00000E+00
    0.00000E+00         0.00000E+00        -0.95133E-09
 
    0.32070E+05         0.12678E+07         0.00000E+00
    0.12678E+07        -0.49515E+08         0.00000E+00
    0.00000E+00         0.00000E+00        -0.31741E-09
 
    0.32850E+05         0.13206E+07         0.00000E+00
    0.13206E+07        -0.49631E+08         0.00000E+00
    0.00000E+00         0.00000E+00         0.12687E-08
 
    0.33588E+05         0.13746E+07         0.00000E+00
    0.13746E+07        -0.49754E+08         0.00000E+00
    0.00000E+00         0.00000E+00         0.25370E-08
 
    0.34278E+05         0.14297E+07         0.00000E+00
    0.14297E+07        -0.49884E+08         0.00000E+00
    0.00000E+00         0.00000E+00        -0.12683E-08
 
    0.34909E+05         0.14859E+07         0.00000E+00
    0.14859E+07        -0.50020E+08         0.00000E+00
    0.00000E+00         0.00000E+00        -0.28540E-08
 
    0.35472E+05         0.15430E+07         0.00000E+00
    0.15430E+07        -0.50164E+08         0.00000E+00
    0.00000E+00         0.00000E+00         0.95133E-09
 
    0.35955E+05         0.16009E+07         0.00000E+00
    0.16009E+07        -0.50316E+08         0.00000E+00
    0.00000E+00         0.00000E+00         0.31650E-09
 
    0.36346E+05         0.16595E+07         0.00000E+00
    0.16595E+07        -0.50476E+08         0.00000E+00
    0.00000E+00         0.00000E+00        -0.63483E-09
 
    0.36633E+05         0.17186E+07         0.00000E+00
    0.17186E+07        -0.50644E+08         0.00000E+00
    0.00000E+00         0.00000E+00        -0.22201E-08
 
    0.36799E+05         0.17780E+07         0.00000E+00
    0.17780E+07        -0.50821E+08         0.00000E+00
    0.00000E+00         0.00000E+00         0.38053E-08
 
    0.36831E+05         0.18376E+07         0.00000E+00
    0.18376E+07        -0.51007E+08         0.00000E+00
    0.00000E+00         0.00000E+00         0.63483E-09
 
    0.36711E+05         0.18969E+07         0.00000E+00
    0.18969E+07        -0.51203E+08         0.00000E+00
    0.00000E+00         0.00000E+00        -0.63483E-09
 
    0.36419E+05         0.19559E+07         0.00000E+00
    0.19559E+07        -0.51410E+08         0.00000E+00
    0.00000E+00         0.00000E+00         0.22201E-08
 
    0.35938E+05         0.20142E+07         0.00000E+00
    0.20142E+07        -0.51626E+08         0.00000E+00
    0.00000E+00         0.00000E+00        -0.95133E-09
 
    0.35245E+05         0.20714E+07         0.00000E+00
    0.20714E+07        -0.51854E+08         0.00000E+00
    0.00000E+00         0.00000E+00         0.63483E-09
 
    0.34318E+05         0.21272E+07         0.00000E+00
    0.21272E+07        -0.52092E+08         0.00000E+00
    0.00000E+00         0.00000E+00        -0.19027E-08
 
    0.33134E+05         0.21812E+07         0.00000E+00
    0.21812E+07        -0.52343E+08         0.00000E+00
    0.00000E+00         0.00000E+00        -0.63483E-09
 
    0.31668E+05         0.22329E+07         0.00000E+00
    0.22329E+07        -0.52606E+08         0.00000E+00
    0.00000E+00         0.00000E+00         0.44392E-08
 
    0.29895E+05         0.22819E+07         0.00000E+00
    0.22819E+07        -0.52881E+08         0.00000E+00
    0.00000E+00         0.00000E+00         0.31650E-09
 
    0.27789E+05         0.23276E+07         0.00000E+00
    0.23276E+07        -0.53170E+08         0.00000E+00
    0.00000E+00         0.00000E+00         0.31705E-08
 
    0.25324E+05         0.23694E+07         0.00000E+00
    0.23694E+07        -0.53473E+08         0.00000E+00
    0.00000E+00         0.00000E+00        -0.95042E-09
 
    0.22475E+05         0.24067E+07         0.00000E+00
    0.24067E+07        -0.53789E+08         0.00000E+00
    0.00000E+00         0.00000E+00         0.19027E-08
 
    0.19220E+05         0.24389E+07         0.00000E+00
    0.24389E+07        -0.54120E+08         0.00000E+00
    0.00000E+00         0.00000E+00         0.25357E-08
 
    0.15535E+05         0.24653E+07         0.00000E+00
    0.24653E+07        -0.54466E+08         0.00000E+00
    0.00000E+00         0.00000E+00        -0.63483E-09
 
    0.11404E+05         0.24852E+07         0.00000E+00
    0.24852E+07        -0.54827E+08         0.00000E+00
    0.00000E+00         0.00000E+00        -0.28540E-08
 
    0.68131E+04         0.24977E+07         0.00000E+00
    0.24977E+07        -0.55204E+08         0.00000E+00
    0.00000E+00         0.00000E+00        -0.12678E-08
 
    0.17539E+04         0.25023E+07         0.00000E+00
    0.25023E+07        -0.55596E+08         0.00000E+00
    0.00000E+00         0.00000E+00         0.15843E-08
 
   -0.37745E+04         0.24980E+07         0.00000E+00
    0.24980E+07        -0.56004E+08         0.00000E+00
    0.00000E+00         0.00000E+00         0.82455E-08
 
   -0.97661E+04         0.24842E+07         0.00000E+00
    0.24842E+07        -0.56427E+08         0.00000E+00
    0.00000E+00         0.00000E+00         0.31650E-09
 
   -0.16207E+05         0.24601E+07         0.00000E+00
    0.24601E+07        -0.56865E+08         0.00000E+00
    0.00000E+00         0.00000E+00         0.41218E-08
 
   -0.23079E+05         0.24250E+07         0.00000E+00
    0.24250E+07        -0.57318E+08         0.00000E+00
    0.00000E+00         0.00000E+00         0.28558E-08
 
   -0.30361E+05         0.23783E+07         0.00000E+00
    0.23783E+07        -0.57783E+08         0.00000E+00
    0.00000E+00         0.00000E+00         0.00000E+00
 
   -0.38036E+05         0.23194E+07         0.00000E+00
    0.23194E+07        -0.58258E+08         0.00000E+00
    0.00000E+00         0.00000E+00        -0.22192E-08
 
   -0.46110E+05         0.22476E+07         0.00000E+00
    0.22476E+07        -0.58742E+08         0.00000E+00
    0.00000E+00         0.00000E+00        -0.22210E-08
 
   -0.54629E+05         0.21624E+07         0.00000E+00
    0.21624E+07        -0.59231E+08         0.00000E+00
    0.00000E+00         0.00000E+00         0.31705E-08
 
   -0.63719E+05         0.20631E+07         0.00000E+00
    0.20631E+07        -0.59719E+08         0.00000E+00
    0.00000E+00         0.00000E+00         0.63483E-09
 
   -0.73643E+05         0.19486E+07         0.00000E+00
    0.19486E+07        -0.60202E+08         0.00000E+00
    0.00000E+00         0.00000E+00        -0.63483E-09
 
   -0.84884E+05         0.18172E+07         0.00000E+00
    0.18172E+07        -0.60672E+08         0.00000E+00
    0.00000E+00         0.00000E+00         0.00000E+00
 
   -0.98280E+05         0.16662E+07         0.00000E+00
    0.16662E+07        -0.61121E+08         0.00000E+00
    0.00000E+00         0.00000E+00        -0.19008E-08
 
   -0.11523E+06         0.14910E+07         0.00000E+00
    0.14910E+07        -0.61539E+08         0.00000E+00
    0.00000E+00         0.00000E+00         0.25366E-08
 
   -0.13807E+06         0.12837E+07         0.00000E+00
    0.12837E+07        -0.61914E+08         0.00000E+00
    0.00000E+00         0.00000E+00        -0.12687E-08
 
   -0.17155E+06         0.10321E+07         0.00000E+00
    0.10321E+07        -0.62236E+08         0.00000E+00
    0.00000E+00         0.00000E+00         0.12687E-08
 
   -0.22304E+06         0.70749E+06         0.00000E+00
    0.70749E+06        -0.62489E+08         0.00000E+00
    0.00000E+00         0.00000E+00         0.63421E-08
 
   -0.35877E+06         0.26077E+06         0.00000E+00
    0.26077E+06        -0.62638E+08         0.00000E+00
    0.00000E+00         0.00000E+00        -0.31710E-08
 
    0.16688E+05         0.71792E+04         0.00000E+00
    0.71792E+04        -0.47571E+08         0.00000E+00
    0.00000E+00         0.00000E+00         0.63423E-09
 
    0.12814E+05         0.20608E+05         0.00000E+00
    0.20608E+05        -0.47574E+08         0.00000E+00
    0.00000E+00         0.00000E+00        -0.12685E-08
 
    0.11155E+05         0.32285E+05         0.00000E+00
    0.32285E+05        -0.47578E+08         0.00000E+00
    0.00000E+00         0.00000E+00         0.63426E-09
 
    0.10216E+05         0.42707E+05         0.00000E+00
    0.42707E+05        -0.47584E+08         0.00000E+00
    0.00000E+00         0.00000E+00         0.12685E-08
 
    0.96531E+04         0.52433E+05         0.00000E+00
    0.52433E+05        -0.47592E+08         0.00000E+00
    0.00000E+00         0.00000E+00         0.12685E-08
 
    0.93246E+04         0.61745E+05         0.00000E+00
    0.61745E+05        -0.47600E+08         0.00000E+00
    0.00000E+00         0.00000E+00        -0.25370E-08
 
    0.91463E+04         0.70824E+05         0.00000E+00
    0.70824E+05        -0.47609E+08         0.00000E+00
    0.00000E+00         0.00000E+00        -0.25370E-08
 
    0.90704E+04         0.79791E+05         0.00000E+00
    0.79791E+05        -0.47619E+08         0.00000E+00
    0.00000E+00         0.00000E+00         0.31713E-08
 
    0.90673E+04         0.88725E+05         0.00000E+00
    0.88725E+05        -0.47629E+08         0.00000E+00
    0.00000E+00         0.00000E+00         0.63426E-09
 
    0.91197E+04         0.97686E+05         0.00000E+00
    0.97686E+05        -0.47640E+08         0.00000E+00
    0.00000E+00         0.00000E+00         0.00000E+00
 
    0.92179E+04         0.10672E+06         0.00000E+00
    0.10672E+06        -0.47651E+08         0.00000E+00
    0.00000E+00         0.00000E+00         0.19028E-08
 
    0.93568E+04         0.11587E+06         0.00000E+00
    0.11587E+06        -0.47662E+08         0.00000E+00
    0.00000E+00         0.00000E+00         0.63426E-09
 
    0.95345E+04         0.12516E+06         0.00000E+00
    0.12516E+06        -0.47674E+08         0.00000E+00
    0.00000E+00         0.00000E+00         0.19028E-08
 
    0.97502E+04         0.13464E+06         0.00000E+00
    0.13464E+06        -0.47686E+08         0.00000E+00
    0.00000E+00         0.00000E+00         0.25370E-08
 
    0.10004E+05         0.14434E+06         0.00000E+00
    0.14434E+06        -0.47698E+08         0.00000E+00
    0.00000E+00         0.00000E+00         0.12685E-08
 
    0.10297E+05         0.15429E+06         0.00000E+00
    0.15429E+06        -0.47711E+08         0.00000E+00
    0.00000E+00         0.00000E+00         0.12685E-08
 
    0.10629E+05         0.16455E+06         0.00000E+00
    0.16455E+06        -0.47724E+08         0.00000E+00
    0.00000E+00         0.00000E+00         0.31713E-08
 
    0.11001E+05         0.17513E+06         0.00000E+00
    0.17513E+06        -0.47737E+08         0.00000E+00
    0.00000E+00         0.00000E+00        -0.44398E-08
 
    0.11413E+05         0.18609E+06         0.00000E+00
    0.18609E+06        -0.47751E+08         0.00000E+00
    0.00000E+00         0.00000E+00         0.19028E-08
 
    0.11866E+05         0.19746E+06         0.00000E+00
    0.19746E+06        -0.47765E+08         0.00000E+00
    0.00000E+00         0.00000E+00         0.31713E-08
 
    0.12359E+05         0.20928E+06         0.00000E+00
    0.20928E+06        -0.47780E+08         0.00000E+00
    0.00000E+00         0.00000E+00        -0.31713E-08
 
    0.12893E+05         0.22159E+06         0.00000E+00
    0.22159E+06        -0.47796E+08         0.00000E+00
    0.00000E+00         0.00000E+00         0.00000E+00
 
    0.13468E+05         0.23443E+06         0.00000E+00
    0.23443E+06        -0.47812E+08         0.00000E+00
    0.00000E+00         0.00000E+00         0.38056E-08
 
    0.14083E+05         0.24784E+06         0.00000E+00
    0.24784E+06        -0.47829E+08         0.00000E+00
    0.00000E+00         0.00000E+00         0.25370E-08
 
    0.14739E+05         0.26186E+06         0.00000E+00
    0.26186E+06        -0.47847E+08         0.00000E+00
    0.00000E+00         0.00000E+00        -0.12685E-08
 
    0.15434E+05         0.27652E+06         0.00000E+00
    0.27652E+06        -0.47866E+08         0.00000E+00
    0.00000E+00         0.00000E+00        -0.31713E-08
 
    0.16170E+05         0.29188E+06         0.00000E+00
    0.29188E+06        -0.47886E+08         0.00000E+00
    0.00000E+00         0.00000E+00        -0.63426E-09
 
    0.16946E+05         0.30796E+06         0.00000E+00
    0.30796E+06        -0.47907E+08         0.00000E+00
    0.00000E+00         0.00000E+00        -0.63426E-09
 
    0.17761E+05         0.32481E+06         0.00000E+00
    0.32481E+06        -0.47929E+08         0.00000E+00
    0.00000E+00         0.00000E+00         0.63426E-09
 
    0.18616E+05         0.34246E+06         0.00000E+00
    0.34246E+06        -0.47953E+08         0.00000E+00
    0.00000E+00         0.00000E+00         0.63426E-09
 
    0.19511E+05         0.36095E+06         0.00000E+00
    0.36095E+06        -0.47978E+08         0.00000E+00
    0.00000E+00         0.00000E+00         0.12685E-08
 
    0.20444E+05         0.38032E+06         0.00000E+00
    0.38032E+06        -0.48004E+08         0.00000E+00
    0.00000E+00         0.00000E+00         0.19028E-08
 
    0.21417E+05         0.40061E+06         0.00000E+00
    0.40061E+06        -0.48032E+08         0.00000E+00
    0.00000E+00         0.00000E+00        -0.69768E-08
 
    0.22429E+05         0.42185E+06         0.00000E+00
    0.42185E+06        -0.48062E+08         0.00000E+00
    0.00000E+00         0.00000E+00        -0.12051E-07
 
    0.23479E+05         0.44408E+06         0.00000E+00
    0.44408E+06        -0.48093E+08         0.00000E+00
    0.00000E+00         0.00000E+00         0.25370E-08
 
    0.24567E+05         0.46734E+06         0.00000E+00
    0.46734E+06        -0.48126E+08         0.00000E+00
    0.00000E+00         0.00000E+00        -0.63437E-09
 
    0.25693E+05         0.49167E+06         0.00000E+00
    0.49167E+06        -0.48161E+08         0.00000E+00
    0.00000E+00         0.00000E+00        -0.44399E-08
 
    0.26856E+05         0.51709E+06         0.00000E+00
    0.51709E+06        -0.48199E+08         0.00000E+00
    0.00000E+00         0.00000E+00        -0.31712E-08
 
    0.28055E+05         0.54365E+06         0.00000E+00
    0.54365E+06        -0.48239E+08         0.00000E+00
    0.00000E+00         0.00000E+00         0.63415E-09
 
    0.29289E+05         0.57138E+06         0.00000E+00
    0.57138E+06        -0.48281E+08         0.00000E+00
    0.00000E+00         0.00000E+00        -0.38058E-08
 
    0.30558E+05         0.60031E+06         0.00000E+00
    0.60031E+06        -0.48325E+08         0.00000E+00
    0.00000E+00         0.00000E+00         0.63415E-09
 
    0.31859E+05         0.63046E+06         0.00000E+00
    0.63046E+06        -0.48372E+08         0.00000E+00
    0.00000E+00         0.00000E+00        -0.44397E-08
 
    0.33191E+05         0.66188E+06         0.00000E+00
    0.66188E+06        -0.48422E+08         0.00000E+00
    0.00000E+00         0.00000E+00        -0.63437E-09
 
    0.34552E+05         0.69459E+06         0.00000E+00
    0.69459E+06        -0.48475E+08         0.00000E+00
    0.00000E+00         0.00000E+00         0.63437E-09
 
    0.35940E+05         0.72861E+06         0.00000E+00
    0.72861E+06        -0.48532E+08         0.00000E+00
    0.00000E+00         0.00000E+00        -0.12683E-08
 
    0.37352E+05         0.76397E+06         0.00000E+00
    0.76397E+06        -0.48591E+08         0.00000E+00
    0.00000E+00         0.00000E+00         0.44397E-08
 
    0.38785E+05         0.80069E+06         0.00000E+00
    0.80069E+06        -0.48654E+08         0.00000E+00
    0.00000E+00         0.00000E+00         0.63426E-08
 
    0.40236E+05         0.83879E+06         0.00000E+00
    0.83879E+06        -0.48721E+08         0.00000E+00
    0.00000E+00         0.00000E+00        -0.38056E-08
 
    0.41700E+05         0.87827E+06         0.00000E+00
    0.87827E+06        -0.48792E+08         0.00000E+00
    0.00000E+00         0.00000E+00         0.00000E+00
 
    0.43173E+05         0.91915E+06         0.00000E+00
    0.91915E+06        -0.48867E+08         0.00000E+00
    0.00000E+00         0.00000E+00        -0.63392E-09
 
    0.44649E+05         0.96143E+06         0.00000E+00
    0.96143E+06        -0.48946E+08         0.00000E+00
    0.00000E+00         0.00000E+00         0.19031E-08
 
    0.46124E+05         0.10051E+07         0.00000E+00
    0.10051E+07        -0.49029E+08         0.00000E+00
    0.00000E+00         0.00000E+00         0.45475E-12
 
    0.47589E+05         0.10502E+07         0.00000E+00
    0.10502E+07        -0.49118E+08         0.00000E+00
    0.00000E+00         0.00000E+00         0.00000E+00
 
    0.49039E+05         0.10966E+07         0.00000E+00
    0.10966E+07        -0.49212E+08         0.00000E+00
    0.00000E+00         0.00000E+00         0.63437E-09
 
    0.50464E+05         0.11444E+07         0.00000E+00
    0.11444E+07        -0.49311E+08         0.00000E+00
    0.00000E+00         0.00000E+00         0.38053E-08
 
    0.51855E+05         0.11935E+07         0.00000E+00
    0.11935E+07        -0.49415E+08         0.00000E+00
    0.00000E+00         0.00000E+00         0.63392E-09
 
    0.53203E+05         0.12439E+07         0.00000E+00
    0.12439E+07        -0.49525E+08         0.00000E+00
    0.00000E+00         0.00000E+00        -0.38053E-08
 
    0.54495E+05         0.12956E+07         0.00000E+00
    0.12956E+07        -0.49642E+08         0.00000E+00
    0.00000E+00         0.00000E+00         0.00000E+00
 
    0.55720E+05         0.13484E+07         0.00000E+00
    0.13484E+07        -0.49765E+08         0.00000E+00
    0.00000E+00         0.00000E+00         0.12687E-08
 
    0.56863E+05         0.14022E+07         0.00000E+00
    0.14022E+07        -0.49895E+08         0.00000E+00
    0.00000E+00         0.00000E+00         0.12683E-08
 
    0.57909E+05         0.14571E+07         0.00000E+00
    0.14571E+07        -0.50031E+08         0.00000E+00
    0.00000E+00         0.00000E+00        -0.31719E-08
 
    0.58842E+05         0.15129E+07         0.00000E+00
    0.15129E+07        -0.50175E+08         0.00000E+00
    0.00000E+00         0.00000E+00         0.19027E-08
 
    0.59642E+05         0.15694E+07         0.00000E+00
    0.15694E+07        -0.50327E+08         0.00000E+00
    0.00000E+00         0.00000E+00        -0.12687E-08
 
    0.60290E+05         0.16266E+07         0.00000E+00
    0.16266E+07        -0.50487E+08         0.00000E+00
    0.00000E+00         0.00000E+00         0.12678E-08
 
    0.60764E+05         0.16842E+07         0.00000E+00
    0.16842E+07        -0.50656E+08         0.00000E+00
    0.00000E+00         0.00000E+00         0.63428E-08
 
    0.61040E+05         0.17421E+07         0.00000E+00
    0.17421E+07        -0.50833E+08         0.00000E+00
    0.00000E+00         0.00000E+00        -0.12678E-08
 
    0.61091E+05         0.18001E+07         0.00000E+00
    0.18001E+07        -0.51019E+08         0.00000E+00
    0.00000E+00         0.00000E+00        -0.63483E-09
 
    0.60890E+05         0.18579E+07         0.00000E+00
    0.18579E+07        -0.51215E+08         0.00000E+00
    0.00000E+00         0.00000E+00         0.63428E-08
 
    0.60405E+05         0.19152E+07         0.00000E+00
    0.19152E+07        -0.51421E+08         0.00000E+00
    0.00000E+00         0.00000E+00        -0.63392E-09
 
    0.59605E+05         0.19718E+07         0.00000E+00
    0.19718E+07        -0.51637E+08         0.00000E+00
    0.00000E+00         0.00000E+00         0.44411E-08
 
    0.58453E+05         0.20273E+07         0.00000E+00
    0.20273E+07        -0.51865E+08         0.00000E+00
    0.00000E+00         0.00000E+00         0.19027E-08
 
    0.56914E+05         0.20813E+07         0.00000E+00
    0.20813E+07        -0.52103E+08         0.00000E+00
    0.00000E+00         0.00000E+00         0.00000E+00
 
    0.54947E+05         0.21335E+07         0.00000E+00
    0.21335E+07        -0.52353E+08         0.00000E+00
    0.00000E+00         0.00000E+00         0.50741E-08
 
    0.52512E+05         0.21835E+07         0.00000E+00
    0.21835E+07        -0.52616E+08         0.00000E+00
    0.00000E+00         0.00000E+00         0.19018E-08
 
    0.49567E+05         0.22306E+07         0.00000E+00
    0.22306E+07        -0.52891E+08         0.00000E+00
    0.00000E+00         0.00000E+00        -0.38053E-08
 
    0.46068E+05         0.22744E+07         0.00000E+00
    0.22744E+07        -0.53179E+08         0.00000E+00
    0.00000E+00         0.00000E+00        -0.50741E-08
 
    0.41973E+05         0.23143E+07         0.00000E+00
    0.23143E+07        -0.53480E+08         0.00000E+00
    0.00000E+00         0.00000E+00         0.38053E-08
 
    0.37240E+05         0.23498E+07         0.00000E+00
    0.23498E+07        -0.53796E+08         0.00000E+00
    0.00000E+00         0.00000E+00         0.44402E-08
 
    0.31829E+05         0.23801E+07         0.00000E+00
    0.23801E+07        -0.54126E+08         0.00000E+00
    0.00000E+00         0.00000E+00         0.63483E-09
 
    0.25703E+05         0.24046E+07         0.00000E+00
    0.24046E+07        -0.54471E+08         0.00000E+00
    0.00000E+00         0.00000E+00        -0.44383E-08
 
    0.18832E+05         0.24226E+07         0.00000E+00
    0.24226E+07        -0.54830E+08         0.00000E+00
    0.00000E+00         0.00000E+00        -0.25357E-08
 
    0.11192E+05         0.24333E+07         0.00000E+00
    0.24333E+07        -0.55205E+08         0.00000E+00
    0.00000E+00         0.00000E+00        -0.57098E-08
 
    0.27679E+04         0.24359E+07         0.00000E+00
    0.24359E+07        -0.55596E+08         0.00000E+00
    0.00000E+00         0.00000E+00        -0.63483E-09
 
   -0.64447E+04         0.24298E+07         0.00000E+00
    0.24298E+07        -0.56002E+08         0.00000E+00
    0.00000E+00         0.00000E+00        -0.18190E-11
 
   -0.16438E+05         0.24141E+07         0.00000E+00
    0.24141E+07        -0.56423E+08         0.00000E+00
    0.00000E+00         0.00000E+00        -0.50750E-08
 
   -0.27194E+05         0.23883E+07         0.00000E+00
    0.23883E+07        -0.56859E+08         0.00000E+00
    0.00000E+00         0.00000E+00         0.19027E-08
 
   -0.38685E+05         0.23514E+07         0.00000E+00
    0.23514E+07        -0.57309E+08         0.00000E+00
    0.00000E+00         0.00000E+00         0.63410E-08
 
   -0.50879E+05         0.23030E+07         0.00000E+00
    0.23030E+07        -0.57772E+08         0.00000E+00
    0.00000E+00         0.00000E+00        -0.19045E-08
 
   -0.63758E+05         0.22425E+07         0.00000E+00
    0.22425E+07        -0.58245E+08         0.00000E+00
    0.00000E+00         0.00000E+00        -0.38035E-08
 
   -0.77332E+05         0.21692E+07         0.00000E+00
    0.21692E+07        -0.58726E+08         0.00000E+00
    0.00000E+00         0.00000E+00         0.00000E+00
 
   -0.91685E+05         0.20826E+07         0.00000E+00
    0.20826E+07        -0.59212E+08         0.00000E+00
    0.00000E+00         0.00000E+00         0.00000E+00
 
   -0.10703E+06         0.19820E+07         0.00000E+00
    0.19820E+07        -0.59698E+08         0.00000E+00
    0.00000E+00         0.00000E+00        -0.31705E-08
 
   -0.12380E+06         0.18664E+07         0.00000E+00
    0.18664E+07        -0.60178E+08         0.00000E+00
    0.00000E+00         0.00000E+00         0.00000E+00
 
   -0.14280E+06         0.17342E+07         0.00000E+00
    0.17342E+07        -0.60644E+08         0.00000E+00
    0.00000E+00         0.00000E+00         0.31705E-08
 
   -0.16540E+06         0.15829E+07         0.00000E+00
    0.15829E+07        -0.61089E+08         0.00000E+00
    0.00000E+00         0.00000E+00         0.25393E-08
 
   -0.19386E+06         0.14080E+07         0.00000E+00
    0.14080E+07        -0.61501E+08         0.00000E+00
    0.00000E+00         0.00000E+00         0.31723E-08
 
   -0.23217E+06         0.12021E+07         0.00000E+00
    0.12021E+07        -0.61869E+08         0.00000E+00
    0.00000E+00         0.00000E+00        -0.44402E-08
 
   -0.28710E+06         0.95320E+06         0.00000E+00
    0.95320E+06        -0.62180E+08         0.00000E+00
    0.00000E+00         0.00000E+00        -0.12697E-08
 
   -0.37521E+06         0.63575E+06         0.00000E+00
    0.63575E+06        -0.62415E+08         0.00000E+00
    0.00000E+00         0.00000E+00        -0.31707E-08
 
   -0.56957E+06         0.22769E+06         0.00000E+00
    0.22769E+06        -0.62542E+08         0.00000E+00
    0.00000E+00         0.00000E+00         0.12687E-08
 
    0.22629E+05         0.66364E+04         0.00000E+00
    0.66364E+04        -0.47574E+08         0.00000E+00
    0.00000E+00         0.00000E+00         0.63426E-09
 
    0.17930E+05         0.19315E+05         0.00000E+00
    0.19315E+05        -0.47576E+08         0.00000E+00
    0.00000E+00         0.00000E+00        -0.12685E-08
 
    0.15628E+05         0.30712E+05         0.00000E+00
    0.30712E+05        -0.47580E+08         0.00000E+00
    0.00000E+00         0.00000E+00        -0.63426E-09
 
    0.14323E+05         0.41005E+05         0.00000E+00
    0.41005E+05        -0.47586E+08         0.00000E+00
    0.00000E+00         0.00000E+00         0.19028E-08
 
    0.13532E+05         0.50633E+05         0.00000E+00
    0.50633E+05        -0.47594E+08         0.00000E+00
    0.00000E+00         0.00000E+00         0.25370E-08
 
    0.13063E+05         0.59865E+05         0.00000E+00
    0.59865E+05        -0.47602E+08         0.00000E+00
    0.00000E+00         0.00000E+00         0.19028E-08
 
    0.12803E+05         0.68872E+05         0.00000E+00
    0.68872E+05        -0.47611E+08         0.00000E+00
    0.00000E+00         0.00000E+00        -0.38056E-08
 
    0.12686E+05         0.77767E+05         0.00000E+00
    0.77767E+05        -0.47621E+08         0.00000E+00
    0.00000E+00         0.00000E+00        -0.50741E-08
 
    0.12672E+05         0.86628E+05         0.00000E+00
    0.86628E+05        -0.47631E+08         0.00000E+00
    0.00000E+00         0.00000E+00         0.25370E-08
 
    0.12737E+05         0.95511E+05         0.00000E+00
    0.95511E+05        -0.47642E+08         0.00000E+00
    0.00000E+00         0.00000E+00        -0.63426E-09
 
    0.12867E+05         0.10446E+06         0.00000E+00
    0.10446E+06        -0.47653E+08         0.00000E+00
    0.00000E+00         0.00000E+00         0.50741E-08
 
    0.13055E+05         0.11351E+06         0.00000E+00
    0.11351E+06        -0.47664E+08         0.00000E+00
    0.00000E+00         0.00000E+00         0.63426E-09
 
    0.13298E+05         0.12271E+06         0.00000E+00
    0.12271E+06        -0.47676E+08         0.00000E+00
    0.00000E+00         0.00000E+00         0.38056E-08
 
    0.13595E+05         0.13208E+06         0.00000E+00
    0.13208E+06        -0.47688E+08         0.00000E+00
    0.00000E+00         0.00000E+00        -0.44398E-08
 
    0.13946E+05         0.14166E+06         0.00000E+00
    0.14166E+06        -0.47700E+08         0.00000E+00
    0.00000E+00         0.00000E+00         0.19028E-08
 
    0.14352E+05         0.15149E+06         0.00000E+00
    0.15149E+06        -0.47713E+08         0.00000E+00
    0.00000E+00         0.00000E+00        -0.19028E-08
 
    0.14814E+05         0.16160E+06         0.00000E+00
    0.16160E+06        -0.47726E+08         0.00000E+00
    0.00000E+00         0.00000E+00        -0.38056E-08
 
    0.15331E+05         0.17203E+06         0.00000E+00
    0.17203E+06        -0.47739E+08         0.00000E+00
    0.00000E+00         0.00000E+00         0.76111E-08
 
    0.15904E+05         0.18283E+06         0.00000E+00
    0.18283E+06        -0.47753E+08         0.00000E+00
    0.00000E+00         0.00000E+00        -0.19028E-08
 
    0.16535E+05         0.19403E+06         0.00000E+00
    0.19403E+06        -0.47767E+08         0.00000E+00
    0.00000E+00         0.00000E+00         0.82454E-08
 
    0.17222E+05         0.20567E+06         0.00000E+00
    0.20567E+06        -0.47782E+08         0.00000E+00
    0.00000E+00         0.00000E+00        -0.63426E-09
 
    0.17966E+05         0.21778E+06         0.00000E+00
    0.21778E+06        -0.47798E+08         0.00000E+00
    0.00000E+00         0.00000E+00        -0.12685E-08
 
    0.18766E+05         0.23042E+06         0.00000E+00
    0.23042E+06        -0.47814E+08         0.00000E+00
    0.00000E+00         0.00000E+00         0.00000E+00
 
    0.19623E+05         0.24361E+06         0.00000E+00
    0.24361E+06        -0.47832E+08         0.00000E+00
    0.00000E+00         0.00000E+00        -0.50741E-08
 
    0.20537E+05         0.25739E+06         0.00000E+00
    0.25739E+06        -0.47850E+08         0.00000E+00
    0.00000E+00         0.00000E+00        -0.63426E-09
 
    0.21506E+05         0.27181E+06         0.00000E+00
    0.27181E+06        -0.47869E+08         0.00000E+00
    0.00000E+00         0.00000E+00         0.63426E-09
 
    0.22531E+05         0.28691E+06         0.00000E+00
    0.28691E+06        -0.47889E+08         0.00000E+00
    0.00000E+00         0.00000E+00         0.00000E+00
 
    0.23612E+05         0.30271E+06         0.00000E+00
    0.30271E+06        -0.47910E+08         0.00000E+00
    0.00000E+00         0.00000E+00         0.63426E-09
 
    0.24748E+05         0.31926E+06         0.00000E+00
    0.31926E+06        -0.47933E+08         0.00000E+00
    0.00000E+00         0.00000E+00         0.63426E-09
 
    0.25940E+05         0.33660E+06         0.00000E+00
    0.33660E+06        -0.47956E+08         0.00000E+00
    0.00000E+00         0.00000E+00         0.25370E-08
 
    0.27186E+05         0.35477E+06         0.00000E+00
    0.35477E+06        -0.47981E+08         0.00000E+00
    0.00000E+00         0.00000E+00         0.31713E-08
 
    0.28487E+05         0.37379E+06         0.00000E+00
    0.37379E+06        -0.48008E+08         0.00000E+00
    0.00000E+00         0.00000E+00         0.88796E-08
 
    0.29843E+05         0.39371E+06         0.00000E+00
    0.39371E+06        -0.48036E+08         0.00000E+00
    0.00000E+00         0.00000E+00         0.95139E-08
 
    0.31252E+05         0.41457E+06         0.00000E+00
    0.41457E+06        -0.48066E+08         0.00000E+00
    0.00000E+00         0.00000E+00         0.00000E+00
 
    0.32716E+05         0.43639E+06         0.00000E+00
    0.43639E+06        -0.48097E+08         0.00000E+00
    0.00000E+00         0.00000E+00         0.63426E-09
 
    0.34232E+05         0.45922E+06         0.00000E+00
    0.45922E+06        -0.48131E+08         0.00000E+00
    0.00000E+00         0.00000E+00        -0.25370E-08
 
    0.35801E+05         0.48310E+06         0.00000E+00
    0.48310E+06        -0.48166E+08         0.00000E+00
    0.00000E+00         0.00000E+00        -0.19029E-08
 
    0.37421E+05         0.50804E+06         0.00000E+00
    0.50804E+06        -0.48204E+08         0.00000E+00
    0.00000E+00         0.00000E+00         0.12687E-08
 
    0.39091E+05         0.53410E+06         0.00000E+00
    0.53410E+06        -0.48244E+08         0.00000E+00
    0.00000E+00         0.00000E+00        -0.63437E-09
 
    0.40811E+05         0.56130E+06         0.00000E+00
    0.56130E+06        -0.48286E+08         0.00000E+00
    0.00000E+00         0.00000E+00        -0.50741E-08
 
    0.42578E+05         0.58967E+06         0.00000E+00
    0.58967E+06        -0.48331E+08         0.00000E+00
    0.00000E+00         0.00000E+00        -0.44399E-08
 
    0.44391E+05         0.61925E+06         0.00000E+00
    0.61925E+06        -0.48378E+08         0.00000E+00
    0.00000E+00         0.00000E+00        -0.25370E-08
 
    0.46247E+05         0.65006E+06         0.00000E+00
    0.65006E+06        -0.48429E+08         0.00000E+00
    0.00000E+00         0.00000E+00         0.00000E+00
 
    0.48143E+05         0.68213E+06         0.00000E+00
    0.68213E+06        -0.48482E+08         0.00000E+00
    0.00000E+00         0.00000E+00        -0.44399E-08
 
    0.50077E+05         0.71548E+06         0.00000E+00
    0.71548E+06        -0.48538E+08         0.00000E+00
    0.00000E+00         0.00000E+00         0.12687E-08
 
    0.52044E+05         0.75014E+06         0.00000E+00
    0.75014E+06        -0.48598E+08         0.00000E+00
    0.00000E+00         0.00000E+00         0.57082E-08
 
    0.54041E+05         0.78612E+06         0.00000E+00
    0.78612E+06        -0.48662E+08         0.00000E+00
    0.00000E+00         0.00000E+00         0.63415E-09
 
    0.56062E+05         0.82345E+06         0.00000E+00
    0.82345E+06        -0.48729E+08         0.00000E+00
    0.00000E+00         0.00000E+00        -0.25370E-08
 
    0.58101E+05         0.86212E+06         0.00000E+00
    0.86212E+06        -0.48800E+08         0.00000E+00
    0.00000E+00         0.00000E+00        -0.19031E-08
 
    0.60153E+05         0.90216E+06         0.00000E+00
    0.90216E+06        -0.48875E+08         0.00000E+00
    0.00000E+00         0.00000E+00        -0.63424E-08
 
    0.62210E+05         0.94356E+06         0.00000E+00
    0.94356E+06        -0.48954E+08         0.00000E+00
    0.00000E+00         0.00000E+00        -0.38053E-08
 
    0.64264E+05         0.98633E+06         0.00000E+00
    0.98633E+06        -0.49038E+08         0.00000E+00
    0.00000E+00         0.00000E+00         0.63437E-09
 
    0.66306E+05         0.10304E+07         0.00000E+00
    0.10304E+07        -0.49127E+08         0.00000E+00
    0.00000E+00         0.00000E+00         0.00000E+00
 
    0.68325E+05         0.10759E+07         0.00000E+00
    0.10759E+07        -0.49221E+08         0.00000E+00
    0.00000E+00         0.00000E+00         0.63437E-09
 
    0.70310E+05         0.11227E+07         0.00000E+00
    0.11227E+07        -0.49320E+08         0.00000E+00
    0.00000E+00         0.00000E+00        -0.19022E-08
 
    0.72248E+05         0.11707E+07         0.00000E+00
    0.11707E+07        -0.49425E+08         0.00000E+00
    0.00000E+00         0.00000E+00         0.63437E-09
 
    0.74125E+05         0.12200E+07         0.00000E+00
    0.12200E+07        -0.49536E+08         0.00000E+00
    0.00000E+00         0.00000E+00        -0.63424E-08
 
    0.75925E+05         0.12705E+07         0.00000E+00
    0.12705E+07        -0.49652E+08         0.00000E+00
    0.00000E+00         0.00000E+00         0.19027E-08
 
    0.77630E+05         0.13220E+07         0.00000E+00
    0.13220E+07        -0.49775E+08         0.00000E+00
    0.00000E+00         0.00000E+00        -0.63392E-09
 
    0.79222E+05         0.13747E+07         0.00000E+00
    0.13747E+07        -0.49905E+08         0.00000E+00
    0.00000E+00         0.00000E+00        -0.63437E-09
 
    0.80679E+05         0.14283E+07         0.00000E+00
    0.14283E+07        -0.50042E+08         0.00000E+00
    0.00000E+00         0.00000E+00         0.63437E-09
 
    0.81977E+05         0.14827E+07         0.00000E+00
    0.14827E+07        -0.50187E+08         0.00000E+00
    0.00000E+00         0.00000E+00         0.25366E-08
 
    0.83092E+05         0.15379E+07         0.00000E+00
    0.15379E+07        -0.50339E+08         0.00000E+00
    0.00000E+00         0.00000E+00         0.44402E-08
 
    0.83994E+05         0.15936E+07         0.00000E+00
    0.15936E+07        -0.50499E+08         0.00000E+00
    0.00000E+00         0.00000E+00         0.63483E-09
 
    0.84653E+05         0.16498E+07         0.00000E+00
    0.16498E+07        -0.50667E+08         0.00000E+00
    0.00000E+00         0.00000E+00         0.76116E-08
 
    0.85036E+05         0.17062E+07         0.00000E+00
    0.17062E+07        -0.50844E+08         0.00000E+00
    0.00000E+00         0.00000E+00         0.19018E-08
 
    0.85106E+05         0.17626E+07         0.00000E+00
    0.17626E+07        -0.51031E+08         0.00000E+00
    0.00000E+00         0.00000E+00         0.57080E-08
 
    0.84825E+05         0.18188E+07         0.00000E+00
    0.18188E+07        -0.51226E+08         0.00000E+00
    0.00000E+00         0.00000E+00        -0.12678E-08
 
    0.84148E+05         0.18745E+07         0.00000E+00
    0.18745E+07        -0.51432E+08         0.00000E+00
    0.00000E+00         0.00000E+00         0.76116E-08
 
    0.83031E+05         0.19294E+07         0.00000E+00
    0.19294E+07        -0.51649E+08         0.00000E+00
    0.00000E+00         0.00000E+00         0.57080E-08
 
    0.81425E+05         0.19833E+07         0.00000E+00
    0.19833E+07        -0.51875E+08         0.00000E+00
    0.00000E+00         0.00000E+00         0.31714E-08
 
    0.79278E+05         0.20356E+07         0.00000E+00
    0.20356E+07        -0.52114E+08         0.00000E+00
    0.00000E+00         0.00000E+00         0.63392E-09
 
    0.76535E+05         0.20861E+07         0.00000E+00
    0.20861E+07        -0.52363E+08         0.00000E+00
    0.00000E+00         0.00000E+00         0.95142E-08
 
    0.73139E+05         0.21342E+07         0.00000E+00
    0.21342E+07        -0.52625E+08         0.00000E+00
    0.00000E+00         0.00000E+00         0.50741E-08
 
    0.69032E+05         0.21795E+07         0.00000E+00
    0.21795E+07        -0.52900E+08         0.00000E+00
    0.00000E+00         0.00000E+00        -0.90949E-12
 
    0.64152E+05         0.22215E+07         0.00000E+00
    0.22215E+07        -0.53187E+08         0.00000E+00
    0.00000E+00         0.00000E+00         0.12687E-08
 
    0.58439E+05         0.22597E+07         0.00000E+00
    0.22597E+07        -0.53488E+08         0.00000E+00
    0.00000E+00         0.00000E+00        -0.31705E-08
 
    0.51835E+05         0.22933E+07         0.00000E+00
    0.22933E+07        -0.53802E+08         0.00000E+00
    0.00000E+00         0.00000E+00         0.31714E-08
 
    0.44282E+05         0.23218E+07         0.00000E+00
    0.23218E+07        -0.54131E+08         0.00000E+00
    0.00000E+00         0.00000E+00         0.63301E-09
 
    0.35729E+05         0.23444E+07         0.00000E+00
    0.23444E+07        -0.54475E+08         0.00000E+00
    0.00000E+00         0.00000E+00         0.00000E+00
 
    0.26131E+05         0.23605E+07         0.00000E+00
    0.23605E+07        -0.54833E+08         0.00000E+00
    0.00000E+00         0.00000E+00        -0.31705E-08
 
    0.15452E+05         0.23694E+07         0.00000E+00
    0.23694E+07        -0.55207E+08         0.00000E+00
    0.00000E+00         0.00000E+00         0.44402E-08
 
    0.36697E+04         0.23703E+07         0.00000E+00
    0.23703E+07        -0.55596E+08         0.00000E+00
    0.00000E+00         0.00000E+00         0.50750E-08
 
   -0.92260E+04         0.23623E+07         0.00000E+00
    0.23623E+07        -0.56000E+08         0.00000E+00
    0.00000E+00         0.00000E+00        -0.50732E-08
 
   -0.23229E+05         0.23449E+07         0.00000E+00
    0.23449E+07        -0.56419E+08         0.00000E+00
    0.00000E+00         0.00000E+00         0.18190E-11
 
   -0.38317E+05         0.23173E+07         0.00000E+00
    0.23173E+07        -0.56853E+08         0.00000E+00
    0.00000E+00         0.00000E+00         0.25375E-08
 
   -0.54459E+05         0.22788E+07         0.00000E+00
    0.22788E+07        -0.57301E+08         0.00000E+00
    0.00000E+00         0.00000E+00         0.00000E+00
 
   -0.71617E+05         0.22288E+07         0.00000E+00
    0.22288E+07        -0.57761E+08         0.00000E+00
    0.00000E+00         0.00000E+00         0.38053E-08
 
   -0.89771E+05         0.21666E+07         0.00000E+00
    0.21666E+07        -0.58232E+08         0.00000E+00
    0.00000E+00         0.00000E+00        -0.25357E-08
 
   -0.10894E+06         0.20919E+07         0.00000E+00
    0.20919E+07        -0.58710E+08         0.00000E+00
    0.00000E+00         0.00000E+00         0.00000E+00
 
   -0.12926E+06         0.20039E+07         0.00000E+00
    0.20039E+07        -0.59193E+08         0.00000E+00
    0.00000E+00         0.00000E+00        -0.31705E-08
 
   -0.15102E+06         0.19021E+07         0.00000E+00
    0.19021E+07        -0.59676E+08         0.00000E+00
    0.00000E+00         0.00000E+00         0.31723E-08
 
   -0.17482E+06         0.17856E+07         0.00000E+00
    0.17856E+07        -0.60153E+08         0.00000E+00
    0.00000E+00         0.00000E+00         0.19027E-08
 
   -0.20176E+06         0.16529E+07         0.00000E+00
    0.16529E+07        -0.60616E+08         0.00000E+00
    0.00000E+00         0.00000E+00        -0.38053E-08
 
   -0.23374E+06         0.15016E+07         0.00000E+00
    0.15016E+07        -0.61056E+08         0.00000E+00
    0.00000E+00         0.00000E+00        -0.18190E-11
 
   -0.27385E+06         0.13276E+07         0.00000E+00
    0.13276E+07        -0.61463E+08         0.00000E+00
    0.00000E+00         0.00000E+00         0.25366E-08
 
   -0.32745E+06         0.11240E+07         0.00000E+00
    0.11240E+07        -0.61824E+08         0.00000E+00
    0.00000E+00         0.00000E+00         0.00000E+00
 
   -0.40366E+06         0.87939E+06         0.00000E+00
    0.87939E+06        -0.62126E+08         0.00000E+00
    0.00000E+00         0.00000E+00         0.25375E-08
 
   -0.52586E+06         0.57403E+06         0.00000E+00
    0.57403E+06        -0.62345E+08         0.00000E+00
    0.00000E+00         0.00000E+00        -0.25374E-08
 
   -0.76206E+06         0.20156E+06         0.00000E+00
    0.20156E+06        -0.62458E+08         0.00000E+00
    0.00000E+00         0.00000E+00         0.90949E-12
 
    0.28263E+05         0.61866E+04         0.00000E+00
    0.61866E+04        -0.47576E+08         0.00000E+00
    0.00000E+00         0.00000E+00         0.12685E-08
 
    0.22963E+05         0.18175E+05         0.00000E+00
    0.18175E+05        -0.47578E+08         0.00000E+00
    0.00000E+00         0.00000E+00         0.76111E-08
 
    0.20092E+05         0.29233E+05         0.00000E+00
    0.29233E+05        -0.47582E+08         0.00000E+00
    0.00000E+00         0.00000E+00        -0.76111E-08
 
    0.18430E+05         0.39359E+05         0.00000E+00
    0.39359E+05        -0.47588E+08         0.00000E+00
    0.00000E+00         0.00000E+00         0.12685E-08
 
    0.17413E+05         0.48868E+05         0.00000E+00
    0.48868E+05        -0.47596E+08         0.00000E+00
    0.00000E+00         0.00000E+00         0.12685E-08
 
    0.16800E+05         0.58007E+05         0.00000E+00
    0.58007E+05        -0.47604E+08         0.00000E+00
    0.00000E+00         0.00000E+00        -0.12685E-08
 
    0.16455E+05         0.66932E+05         0.00000E+00
    0.66932E+05        -0.47613E+08         0.00000E+00
    0.00000E+00         0.00000E+00         0.00000E+00
 
    0.16292E+05         0.75749E+05         0.00000E+00
    0.75749E+05        -0.47623E+08         0.00000E+00
    0.00000E+00         0.00000E+00         0.25370E-08
 
    0.16262E+05         0.84531E+05         0.00000E+00
    0.84531E+05        -0.47633E+08         0.00000E+00
    0.00000E+00         0.00000E+00         0.25370E-08
 
    0.16335E+05         0.93331E+05         0.00000E+00
    0.93331E+05        -0.47644E+08         0.00000E+00
    0.00000E+00         0.00000E+00         0.00000E+00
 
    0.16492E+05         0.10219E+06         0.00000E+00
    0.10219E+06        -0.47655E+08         0.00000E+00
    0.00000E+00         0.00000E+00         0.50741E-08
 
    0.16726E+05         0.11115E+06         0.00000E+00
    0.11115E+06        -0.47666E+08         0.00000E+00
    0.00000E+00         0.00000E+00        -0.50741E-08
 
    0.17031E+05         0.12024E+06         0.00000E+00
    0.12024E+06        -0.47678E+08         0.00000E+00
    0.00000E+00         0.00000E+00         0.38056E-08
 
    0.17407E+05         0.12950E+06         0.00000E+00
    0.12950E+06        -0.47690E+08         0.00000E+00
    0.00000E+00         0.00000E+00         0.12685E-08
 
    0.17852E+05         0.13896E+06         0.00000E+00
    0.13896E+06        -0.47702E+08         0.00000E+00
    0.00000E+00         0.00000E+00         0.00000E+00
 
    0.18369E+05         0.14865E+06         0.00000E+00
    0.14865E+06        -0.47715E+08         0.00000E+00
    0.00000E+00         0.00000E+00        -0.50741E-08
 
    0.18957E+05         0.15862E+06         0.00000E+00
    0.15862E+06        -0.47728E+08         0.00000E+00
    0.00000E+00         0.00000E+00        -0.10148E-07
 
    0.19618E+05         0.16891E+06         0.00000E+00
    0.16891E+06        -0.47741E+08         0.00000E+00
    0.00000E+00         0.00000E+00        -0.12685E-08
 
    0.20351E+05         0.17954E+06         0.00000E+00
    0.17954E+06        -0.47755E+08         0.00000E+00
    0.00000E+00         0.00000E+00         0.10148E-07
 
    0.21157E+05         0.19057E+06         0.00000E+00
    0.19057E+06        -0.47770E+08         0.00000E+00
    0.00000E+00         0.00000E+00        -0.25370E-08
 
    0.22035E+05         0.20202E+06         0.00000E+00
    0.20202E+06        -0.47785E+08         0.00000E+00
    0.00000E+00         0.00000E+00        -0.25370E-08
 
    0.22987E+05         0.21394E+06         0.00000E+00
    0.21394E+06        -0.47800E+08         0.00000E+00
    0.00000E+00         0.00000E+00        -0.63426E-08
 
    0.24011E+05         0.22636E+06         0.00000E+00
    0.22636E+06        -0.47817E+08         0.00000E+00
    0.00000E+00         0.00000E+00         0.00000E+00
 
    0.25108E+05         0.23933E+06         0.00000E+00
    0.23933E+06        -0.47834E+08         0.00000E+00
    0.00000E+00         0.00000E+00         0.10148E-07
 
    0.26276E+05         0.25288E+06         0.00000E+00
    0.25288E+06        -0.47853E+08         0.00000E+00
    0.00000E+00         0.00000E+00         0.12685E-08
 
    0.27517E+05         0.26705E+06         0.00000E+00
    0.26705E+06        -0.47872E+08         0.00000E+00
    0.00000E+00         0.00000E+00         0.00000E+00
 
    0.28829E+05         0.28188E+06         0.00000E+00
    0.28188E+06        -0.47892E+08         0.00000E+00
    0.00000E+00         0.00000E+00        -0.25370E-08
 
    0.30212E+05         0.29740E+06         0.00000E+00
    0.29740E+06        -0.47913E+08         0.00000E+00
    0.00000E+00         0.00000E+00        -0.38056E-08
 
    0.31666E+05         0.31365E+06         0.00000E+00
    0.31365E+06        -0.47936E+08         0.00000E+00
    0.00000E+00         0.00000E+00        -0.10148E-07
 
    0.33190E+05         0.33068E+06         0.00000E+00
    0.33068E+06        -0.47960E+08         0.00000E+00
    0.00000E+00         0.00000E+00         0.00000E+00
 
    0.34785E+05         0.34851E+06         0.00000E+00
    0.34851E+06        -0.47985E+08         0.00000E+00
    0.00000E+00         0.00000E+00         0.00000E+00
 
    0.36450E+05         0.36718E+06         0.00000E+00
    0.36718E+06        -0.48012E+08         0.00000E+00
    0.00000E+00         0.00000E+00         0.38056E-08
 
    0.38184E+05         0.38674E+06         0.00000E+00
    0.38674E+06        -0.48040E+08         0.00000E+00
    0.00000E+00         0.00000E+00         0.25370E-08
 
    0.39988E+05         0.40720E+06         0.00000E+00
    0.40720E+06        -0.48070E+08         0.00000E+00
    0.00000E+00         0.00000E+00        -0.12685E-08
 
    0.41860E+05         0.42862E+06         0.00000E+00
    0.42862E+06        -0.48102E+08         0.00000E+00
    0.00000E+00         0.00000E+00         0.38056E-08
 
    0.43800E+05         0.45101E+06         0.00000E+00
    0.45101E+06        -0.48136E+08         0.00000E+00
    0.00000E+00         0.00000E+00        -0.50741E-08
 
    0.45807E+05         0.47443E+06         0.00000E+00
    0.47443E+06        -0.48171E+08         0.00000E+00
    0.00000E+00         0.00000E+00        -0.76111E-08
 
    0.47880E+05         0.49890E+06         0.00000E+00
    0.49890E+06        -0.48209E+08         0.00000E+00
    0.00000E+00         0.00000E+00        -0.12685E-07
 
    0.50018E+05         0.52445E+06         0.00000E+00
    0.52445E+06        -0.48249E+08         0.00000E+00
    0.00000E+00         0.00000E+00         0.63426E-08
 
    0.52218E+05         0.55112E+06         0.00000E+00
    0.55112E+06        -0.48292E+08         0.00000E+00
    0.00000E+00         0.00000E+00        -0.12685E-08
 
    0.54479E+05         0.57894E+06         0.00000E+00
    0.57894E+06        -0.48337E+08         0.00000E+00
    0.00000E+00         0.00000E+00        -0.63426E-08
 
    0.56798E+05         0.60793E+06         0.00000E+00
    0.60793E+06        -0.48384E+08         0.00000E+00
    0.00000E+00         0.00000E+00         0.16491E-07
 
    0.59173E+05         0.63813E+06         0.00000E+00
    0.63813E+06        -0.48435E+08         0.00000E+00
    0.00000E+00         0.00000E+00         0.38056E-08
 
    0.61599E+05         0.66956E+06         0.00000E+00
    0.66956E+06        -0.48488E+08         0.00000E+00
    0.00000E+00         0.00000E+00         0.50741E-08
 
    0.64073E+05         0.70224E+06         0.00000E+00
    0.70224E+06        -0.48545E+08         0.00000E+00
    0.00000E+00         0.00000E+00        -0.50741E-08
 
    0.66590E+05         0.73619E+06         0.00000E+00
    0.73619E+06        -0.48605E+08         0.00000E+00
    0.00000E+00         0.00000E+00         0.88796E-08
 
    0.69144E+05         0.77144E+06         0.00000E+00
    0.77144E+06        -0.48669E+08         0.00000E+00
    0.00000E+00         0.00000E+00         0.12685E-08
 
    0.71730E+05         0.80799E+06         0.00000E+00
    0.80799E+06        -0.48736E+08         0.00000E+00
    0.00000E+00         0.00000E+00        -0.25370E-08
 
    0.74339E+05         0.84586E+06         0.00000E+00
    0.84586E+06        -0.48807E+08         0.00000E+00
    0.00000E+00         0.00000E+00         0.12683E-08
 
    0.76964E+05         0.88506E+06         0.00000E+00
    0.88506E+06        -0.48883E+08         0.00000E+00
    0.00000E+00         0.00000E+00        -0.25370E-08
 
    0.79596E+05         0.92559E+06         0.00000E+00
    0.92559E+06        -0.48963E+08         0.00000E+00
    0.00000E+00         0.00000E+00         0.11416E-07
 
    0.82223E+05         0.96743E+06         0.00000E+00
    0.96743E+06        -0.49047E+08         0.00000E+00
    0.00000E+00         0.00000E+00         0.38053E-08
 
    0.84835E+05         0.10106E+07         0.00000E+00
    0.10106E+07        -0.49136E+08         0.00000E+00
    0.00000E+00         0.00000E+00         0.12683E-08
 
    0.87418E+05         0.10551E+07         0.00000E+00
    0.10551E+07        -0.49230E+08         0.00000E+00
    0.00000E+00         0.00000E+00        -0.12683E-08
 
    0.89957E+05         0.11008E+07         0.00000E+00
    0.11008E+07        -0.49330E+08         0.00000E+00
    0.00000E+00         0.00000E+00        -0.76111E-08
 
    0.92436E+05         0.11478E+07         0.00000E+00
    0.11478E+07        -0.49435E+08         0.00000E+00
    0.00000E+00         0.00000E+00        -0.25370E-08
 
    0.94837E+05         0.11959E+07         0.00000E+00
    0.11959E+07        -0.49545E+08         0.00000E+00
    0.00000E+00         0.00000E+00        -0.25370E-08
 
    0.97140E+05         0.12452E+07         0.00000E+00
    0.12452E+07        -0.49662E+08         0.00000E+00
    0.00000E+00         0.00000E+00         0.38058E-08
 
    0.99321E+05         0.12956E+07         0.00000E+00
    0.12956E+07        -0.49786E+08         0.00000E+00
    0.00000E+00         0.00000E+00        -0.25375E-08
 
    0.10136E+06         0.13470E+07         0.00000E+00
    0.13470E+07        -0.49916E+08         0.00000E+00
    0.00000E+00         0.00000E+00        -0.12687E-08
 
    0.10322E+06         0.13994E+07         0.00000E+00
    0.13994E+07        -0.50053E+08         0.00000E+00
    0.00000E+00         0.00000E+00         0.25370E-08
 
    0.10488E+06         0.14525E+07         0.00000E+00
    0.14525E+07        -0.50197E+08         0.00000E+00
    0.00000E+00         0.00000E+00         0.11417E-07
 
    0.10631E+06         0.15063E+07         0.00000E+00
    0.15063E+07        -0.50349E+08         0.00000E+00
    0.00000E+00         0.00000E+00         0.25375E-08
 
    0.10746E+06         0.15606E+07         0.00000E+00
    0.15606E+07        -0.50510E+08         0.00000E+00
    0.00000E+00         0.00000E+00        -0.50732E-08
 
    0.10830E+06         0.16153E+07         0.00000E+00
    0.16153E+07        -0.50678E+08         0.00000E+00
    0.00000E+00         0.00000E+00        -0.12687E-08
 
    0.10879E+06         0.16702E+07         0.00000E+00
    0.16702E+07        -0.50855E+08         0.00000E+00
    0.00000E+00         0.00000E+00        -0.63428E-08
 
    0.10888E+06         0.17251E+07         0.00000E+00
    0.17251E+07        -0.51042E+08         0.00000E+00
    0.00000E+00         0.00000E+00         0.25375E-08
 
    0.10852E+06         0.17798E+07         0.00000E+00
    0.17798E+07        -0.51238E+08         0.00000E+00
    0.00000E+00         0.00000E+00        -0.63428E-08
 
    0.10765E+06         0.18339E+07         0.00000E+00
    0.18339E+07        -0.51443E+08         0.00000E+00
    0.00000E+00         0.00000E+00         0.63437E-08
 
    0.10622E+06         0.18872E+07         0.00000E+00
    0.18872E+07        -0.51659E+08         0.00000E+00
    0.00000E+00         0.00000E+00        -0.50750E-08
 
    0.10417E+06         0.19393E+07         0.00000E+00
    0.19393E+07        -0.51886E+08         0.00000E+00
    0.00000E+00         0.00000E+00        -0.38053E-08
 
    0.10142E+06         0.19900E+07         0.00000E+00
    0.19900E+07        -0.52124E+08         0.00000E+00
    0.00000E+00         0.00000E+00         0.50732E-08
 
    0.97909E+05         0.20387E+07         0.00000E+00
    0.20387E+07        -0.52373E+08         0.00000E+00
    0.00000E+00         0.00000E+00        -0.63437E-08
 
    0.93562E+05         0.20851E+07         0.00000E+00
    0.20851E+07        -0.52634E+08         0.00000E+00
    0.00000E+00         0.00000E+00         0.38053E-08
 
    0.88303E+05         0.21287E+07         0.00000E+00
    0.21287E+07        -0.52908E+08         0.00000E+00
    0.00000E+00         0.00000E+00        -0.25366E-08
 
    0.82054E+05         0.21690E+07         0.00000E+00
    0.21690E+07        -0.53195E+08         0.00000E+00
    0.00000E+00         0.00000E+00        -0.50741E-08
 
    0.74737E+05         0.22053E+07         0.00000E+00
    0.22053E+07        -0.53495E+08         0.00000E+00
    0.00000E+00         0.00000E+00        -0.38062E-08
 
    0.66276E+05         0.22372E+07         0.00000E+00
    0.22372E+07        -0.53808E+08         0.00000E+00
    0.00000E+00         0.00000E+00        -0.10148E-07
 
    0.56596E+05         0.22639E+07         0.00000E+00
    0.22639E+07        -0.54136E+08         0.00000E+00
    0.00000E+00         0.00000E+00        -0.38053E-08
 
    0.45630E+05         0.22847E+07         0.00000E+00
    0.22847E+07        -0.54478E+08         0.00000E+00
    0.00000E+00         0.00000E+00        -0.88785E-08
 
    0.33318E+05         0.22991E+07         0.00000E+00
    0.22991E+07        -0.54835E+08         0.00000E+00
    0.00000E+00         0.00000E+00        -0.38053E-08
 
    0.19613E+05         0.23062E+07         0.00000E+00
    0.23062E+07        -0.55207E+08         0.00000E+00
    0.00000E+00         0.00000E+00         0.10148E-07
 
    0.44793E+04         0.23053E+07         0.00000E+00
    0.23053E+07        -0.55595E+08         0.00000E+00
    0.00000E+00         0.00000E+00        -0.38053E-08
 
   -0.12098E+05         0.22957E+07         0.00000E+00
    0.22957E+07        -0.55997E+08         0.00000E+00
    0.00000E+00         0.00000E+00         0.50750E-08
 
   -0.30116E+05         0.22766E+07         0.00000E+00
    0.22766E+07        -0.56414E+08         0.00000E+00
    0.00000E+00         0.00000E+00        -0.10148E-07
 
   -0.49555E+05         0.22473E+07         0.00000E+00
    0.22473E+07        -0.56846E+08         0.00000E+00
    0.00000E+00         0.00000E+00         0.38053E-08
 
   -0.70380E+05         0.22071E+07         0.00000E+00
    0.22071E+07        -0.57292E+08         0.00000E+00
    0.00000E+00         0.00000E+00        -0.25393E-08
 
   -0.92552E+05         0.21555E+07         0.00000E+00
    0.21555E+07        -0.57749E+08         0.00000E+00
    0.00000E+00         0.00000E+00        -0.25375E-08
 
   -0.11605E+06         0.20919E+07         0.00000E+00
    0.20919E+07        -0.58218E+08         0.00000E+00
    0.00000E+00         0.00000E+00        -0.50750E-08
 
   -0.14092E+06         0.20157E+07         0.00000E+00
    0.20157E+07        -0.58694E+08         0.00000E+00
    0.00000E+00         0.00000E+00         0.76125E-08
 
   -0.16732E+06         0.19265E+07         0.00000E+00
    0.19265E+07        -0.59174E+08         0.00000E+00
    0.00000E+00         0.00000E+00         0.50768E-08
 
   -0.19564E+06         0.18237E+07         0.00000E+00
    0.18237E+07        -0.59654E+08         0.00000E+00
    0.00000E+00         0.00000E+00         0.10150E-07
 
   -0.22663E+06         0.17064E+07         0.00000E+00
    0.17064E+07        -0.60128E+08         0.00000E+00
    0.00000E+00         0.00000E+00        -0.10148E-07
 
   -0.26169E+06         0.15734E+07         0.00000E+00
    0.15734E+07        -0.60588E+08         0.00000E+00
    0.00000E+00         0.00000E+00        -0.12697E-08
 
   -0.30316E+06         0.14224E+07         0.00000E+00
    0.14224E+07        -0.61024E+08         0.00000E+00
    0.00000E+00         0.00000E+00        -0.63428E-08
 
   -0.35497E+06         0.12498E+07         0.00000E+00
    0.12498E+07        -0.61426E+08         0.00000E+00
    0.00000E+00         0.00000E+00        -0.12686E-07
 
   -0.42363E+06         0.10494E+07         0.00000E+00
    0.10494E+07        -0.61781E+08         0.00000E+00
    0.00000E+00         0.00000E+00        -0.11417E-07
 
   -0.52061E+06         0.81073E+06         0.00000E+00
    0.81073E+06        -0.62072E+08         0.00000E+00
    0.00000E+00         0.00000E+00        -0.17758E-07
 
   -0.67304E+06         0.52023E+06         0.00000E+00
    0.52023E+06        -0.62279E+08         0.00000E+00
    0.00000E+00         0.00000E+00         0.25364E-08
 
   -0.94005E+06         0.18014E+06         0.00000E+00
    0.18014E+06        -0.62382E+08         0.00000E+00
    0.00000E+00         0.00000E+00         0.16491E-07
 
    0.33644E+05         0.58019E+04         0.00000E+00
    0.58019E+04        -0.47579E+08         0.00000E+00
    0.00000E+00         0.00000E+00         0.63426E-08
 
    0.27893E+05         0.17157E+05         0.00000E+00
    0.17157E+05        -0.47581E+08         0.00000E+00
    0.00000E+00         0.00000E+00         0.63426E-08
 
    0.24534E+05         0.27843E+05         0.00000E+00
    0.27843E+05        -0.47585E+08         0.00000E+00
    0.00000E+00         0.00000E+00         0.13954E-07
 
    0.22530E+05         0.37767E+05         0.00000E+00
    0.37767E+05        -0.47590E+08         0.00000E+00
    0.00000E+00         0.00000E+00        -0.76111E-08
 
    0.21291E+05         0.47139E+05         0.00000E+00
    0.47139E+05        -0.47597E+08         0.00000E+00
    0.00000E+00         0.00000E+00         0.25370E-08
 
    0.20535E+05         0.56171E+05         0.00000E+00
    0.56171E+05        -0.47606E+08         0.00000E+00
    0.00000E+00         0.00000E+00         0.63426E-08
 
    0.20099E+05         0.65005E+05         0.00000E+00
    0.65005E+05        -0.47615E+08         0.00000E+00
    0.00000E+00         0.00000E+00         0.12685E-08
 
    0.19886E+05         0.73737E+05         0.00000E+00
    0.73737E+05        -0.47624E+08         0.00000E+00
    0.00000E+00         0.00000E+00         0.88796E-08
 
    0.19836E+05         0.82436E+05         0.00000E+00
    0.82436E+05        -0.47635E+08         0.00000E+00
    0.00000E+00         0.00000E+00        -0.63426E-08
 
    0.19911E+05         0.91149E+05         0.00000E+00
    0.91149E+05        -0.47645E+08         0.00000E+00
    0.00000E+00         0.00000E+00         0.25370E-08
 
    0.20092E+05         0.99917E+05         0.00000E+00
    0.99917E+05        -0.47656E+08         0.00000E+00
    0.00000E+00         0.00000E+00         0.12685E-08
 
    0.20368E+05         0.10878E+06         0.00000E+00
    0.10878E+06        -0.47668E+08         0.00000E+00
    0.00000E+00         0.00000E+00        -0.12685E-08
 
    0.20732E+05         0.11776E+06         0.00000E+00
    0.11776E+06        -0.47680E+08         0.00000E+00
    0.00000E+00         0.00000E+00        -0.12685E-08
 
    0.21183E+05         0.12690E+06         0.00000E+00
    0.12690E+06        -0.47692E+08         0.00000E+00
    0.00000E+00         0.00000E+00         0.50741E-08
 
    0.21721E+05         0.13623E+06         0.00000E+00
    0.13623E+06        -0.47704E+08         0.00000E+00
    0.00000E+00         0.00000E+00        -0.25370E-08
 
    0.22346E+05         0.14580E+06         0.00000E+00
    0.14580E+06        -0.47717E+08         0.00000E+00
    0.00000E+00         0.00000E+00         0.00000E+00
 
    0.23059E+05         0.15562E+06         0.00000E+00
    0.15562E+06        -0.47730E+08         0.00000E+00
    0.00000E+00         0.00000E+00         0.00000E+00
 
    0.23861E+05         0.16575E+06         0.00000E+00
    0.16575E+06        -0.47743E+08         0.00000E+00
    0.00000E+00         0.00000E+00         0.76111E-08
 
    0.24751E+05         0.17622E+06         0.00000E+00
    0.17622E+06        -0.47757E+08         0.00000E+00
    0.00000E+00         0.00000E+00        -0.16491E-07
 
    0.25730E+05         0.18707E+06         0.00000E+00
    0.18707E+06        -0.47772E+08         0.00000E+00
    0.00000E+00         0.00000E+00         0.50741E-08
 
    0.26799E+05         0.19833E+06         0.00000E+00
    0.19833E+06        -0.47787E+08         0.00000E+00
    0.00000E+00         0.00000E+00         0.88796E-08
 
    0.27956E+05         0.21005E+06         0.00000E+00
    0.21005E+06        -0.47803E+08         0.00000E+00
    0.00000E+00         0.00000E+00         0.12685E-07
 
    0.29201E+05         0.22226E+06         0.00000E+00
    0.22226E+06        -0.47820E+08         0.00000E+00
    0.00000E+00         0.00000E+00        -0.16491E-07
 
    0.30535E+05         0.23500E+06         0.00000E+00
    0.23500E+06        -0.47837E+08         0.00000E+00
    0.00000E+00         0.00000E+00        -0.11417E-07
 
    0.31956E+05         0.24831E+06         0.00000E+00
    0.24831E+06        -0.47855E+08         0.00000E+00
    0.00000E+00         0.00000E+00         0.50741E-08
 
    0.33465E+05         0.26223E+06         0.00000E+00
    0.26223E+06        -0.47875E+08         0.00000E+00
    0.00000E+00         0.00000E+00         0.50741E-08
 
    0.35061E+05         0.27679E+06         0.00000E+00
    0.27679E+06        -0.47895E+08         0.00000E+00
    0.00000E+00         0.00000E+00         0.63426E-08
 
    0.36743E+05         0.29203E+06         0.00000E+00
    0.29203E+06        -0.47917E+08         0.00000E+00
    0.00000E+00         0.00000E+00         0.88796E-08
 
    0.38511E+05         0.30798E+06         0.00000E+00
    0.30798E+06        -0.47939E+08         0.00000E+00
    0.00000E+00         0.00000E+00         0.00000E+00
 
    0.40366E+05         0.32469E+06         0.00000E+00
    0.32469E+06        -0.47963E+08         0.00000E+00
    0.00000E+00         0.00000E+00        -0.63426E-08
 
    0.42306E+05         0.34218E+06         0.00000E+00
    0.34218E+06        -0.47989E+08         0.00000E+00
    0.00000E+00         0.00000E+00         0.50741E-08
 
    0.44330E+05         0.36050E+06         0.00000E+00
    0.36050E+06        -0.48016E+08         0.00000E+00
    0.00000E+00         0.00000E+00         0.00000E+00
 
    0.46440E+05         0.37968E+06         0.00000E+00
    0.37968E+06        -0.48044E+08         0.00000E+00
    0.00000E+00         0.00000E+00         0.00000E+00
 
    0.48634E+05         0.39976E+06         0.00000E+00
    0.39976E+06        -0.48074E+08         0.00000E+00
    0.00000E+00         0.00000E+00         0.00000E+00
 
    0.50911E+05         0.42076E+06         0.00000E+00
    0.42076E+06        -0.48106E+08         0.00000E+00
    0.00000E+00         0.00000E+00        -0.25370E-08
 
    0.53270E+05         0.44272E+06         0.00000E+00
    0.44272E+06        -0.48140E+08         0.00000E+00
    0.00000E+00         0.00000E+00         0.38056E-08
 
    0.55712E+05         0.46568E+06         0.00000E+00
    0.46568E+06        -0.48176E+08         0.00000E+00
    0.00000E+00         0.00000E+00         0.25370E-08
 
    0.58233E+05         0.48967E+06         0.00000E+00
    0.48967E+06        -0.48214E+08         0.00000E+00
    0.00000E+00         0.00000E+00         0.25370E-08
 
    0.60833E+05         0.51471E+06         0.00000E+00
    0.51471E+06        -0.48254E+08         0.00000E+00
    0.00000E+00         0.00000E+00         0.76111E-08
 
    0.63509E+05         0.54085E+06         0.00000E+00
    0.54085E+06        -0.48297E+08         0.00000E+00
    0.00000E+00         0.00000E+00         0.12685E-08
 
    0.66259E+05         0.56811E+06         0.00000E+00
    0.56811E+06        -0.48342E+08         0.00000E+00
    0.00000E+00         0.00000E+00         0.12685E-08
 
    0.69079E+05         0.59651E+06         0.00000E+00
    0.59651E+06        -0.48390E+08         0.00000E+00
    0.00000E+00         0.00000E+00         0.38056E-08
 
    0.71967E+05         0.62610E+06         0.00000E+00
    0.62610E+06        -0.48441E+08         0.00000E+00
    0.00000E+00         0.00000E+00        -0.50741E-08
 
    0.74918E+05         0.65688E+06         0.00000E+00
    0.65688E+06        -0.48495E+08         0.00000E+00
    0.00000E+00         0.00000E+00         0.12685E-08
 
    0.77927E+05         0.68888E+06         0.00000E+00
    0.68888E+06        -0.48552E+08         0.00000E+00
    0.00000E+00         0.00000E+00         0.76111E-08
 
    0.80988E+05         0.72213E+06         0.00000E+00
    0.72213E+06        -0.48612E+08         0.00000E+00
    0.00000E+00         0.00000E+00         0.00000E+00
 
    0.84095E+05         0.75664E+06         0.00000E+00
    0.75664E+06        -0.48676E+08         0.00000E+00
    0.00000E+00         0.00000E+00        -0.38056E-08
 
    0.87239E+05         0.79242E+06         0.00000E+00
    0.79242E+06        -0.48744E+08         0.00000E+00
    0.00000E+00         0.00000E+00        -0.88796E-08
 
    0.90413E+05         0.82949E+06         0.00000E+00
    0.82949E+06        -0.48815E+08         0.00000E+00
    0.00000E+00         0.00000E+00         0.12687E-08
 
    0.93605E+05         0.86785E+06         0.00000E+00
    0.86785E+06        -0.48891E+08         0.00000E+00
    0.00000E+00         0.00000E+00        -0.50736E-08
 
    0.96806E+05         0.90749E+06         0.00000E+00
    0.90749E+06        -0.48971E+08         0.00000E+00
    0.00000E+00         0.00000E+00        -0.63424E-08
 
    0.10000E+06         0.94843E+06         0.00000E+00
    0.94843E+06        -0.49055E+08         0.00000E+00
    0.00000E+00         0.00000E+00        -0.50741E-08
 
    0.10318E+06         0.99064E+06         0.00000E+00
    0.99064E+06        -0.49145E+08         0.00000E+00
    0.00000E+00         0.00000E+00         0.00000E+00
 
    0.10632E+06         0.10341E+07         0.00000E+00
    0.10341E+07        -0.49239E+08         0.00000E+00
    0.00000E+00         0.00000E+00         0.12687E-08
 
    0.10941E+06         0.10788E+07         0.00000E+00
    0.10788E+07        -0.49339E+08         0.00000E+00
    0.00000E+00         0.00000E+00         0.17759E-07
 
    0.11242E+06         0.11247E+07         0.00000E+00
    0.11247E+07        -0.49444E+08         0.00000E+00
    0.00000E+00         0.00000E+00         0.12683E-08
 
    0.11534E+06         0.11718E+07         0.00000E+00
    0.11718E+07        -0.49555E+08         0.00000E+00
    0.00000E+00         0.00000E+00        -0.76111E-08
 
    0.11814E+06         0.12199E+07         0.00000E+00
    0.12199E+07        -0.49672E+08         0.00000E+00
    0.00000E+00         0.00000E+00        -0.50741E-08
 
    0.12079E+06         0.12691E+07         0.00000E+00
    0.12691E+07        -0.49796E+08         0.00000E+00
    0.00000E+00         0.00000E+00        -0.25370E-08
 
    0.12327E+06         0.13193E+07         0.00000E+00
    0.13193E+07        -0.49926E+08         0.00000E+00
    0.00000E+00         0.00000E+00         0.12687E-08
 
    0.12554E+06         0.13704E+07         0.00000E+00
    0.13704E+07        -0.50063E+08         0.00000E+00
    0.00000E+00         0.00000E+00        -0.76111E-08
 
    0.12756E+06         0.14222E+07         0.00000E+00
    0.14222E+07        -0.50208E+08         0.00000E+00
    0.00000E+00         0.00000E+00         0.00000E+00
 
    0.12929E+06         0.14746E+07         0.00000E+00
    0.14746E+07        -0.50360E+08         0.00000E+00
    0.00000E+00         0.00000E+00        -0.25375E-08
 
    0.13069E+06         0.15276E+07         0.00000E+00
    0.15276E+07        -0.50520E+08         0.00000E+00
    0.00000E+00         0.00000E+00         0.15222E-07
 
    0.13172E+06         0.15808E+07         0.00000E+00
    0.15808E+07        -0.50689E+08         0.00000E+00
    0.00000E+00         0.00000E+00         0.17759E-07
 
    0.13231E+06         0.16343E+07         0.00000E+00
    0.16343E+07        -0.50866E+08         0.00000E+00
    0.00000E+00         0.00000E+00        -0.25375E-08
 
    0.13242E+06         0.16877E+07         0.00000E+00
    0.16877E+07        -0.51053E+08         0.00000E+00
    0.00000E+00         0.00000E+00        -0.50741E-08
 
    0.13199E+06         0.17408E+07         0.00000E+00
    0.17408E+07        -0.51248E+08         0.00000E+00
    0.00000E+00         0.00000E+00         0.12687E-08
 
    0.13093E+06         0.17933E+07         0.00000E+00
    0.17933E+07        -0.51454E+08         0.00000E+00
    0.00000E+00         0.00000E+00         0.12687E-08
 
    0.12919E+06         0.18450E+07         0.00000E+00
    0.18450E+07        -0.51670E+08         0.00000E+00
    0.00000E+00         0.00000E+00        -0.12678E-08
 
    0.12669E+06         0.18955E+07         0.00000E+00
    0.18955E+07        -0.51896E+08         0.00000E+00
    0.00000E+00         0.00000E+00         0.38053E-08
 
    0.12335E+06         0.19445E+07         0.00000E+00
    0.19445E+07        -0.52134E+08         0.00000E+00
    0.00000E+00         0.00000E+00         0.00000E+00
 
    0.11908E+06         0.19916E+07         0.00000E+00
    0.19916E+07        -0.52382E+08         0.00000E+00
    0.00000E+00         0.00000E+00         0.63428E-08
 
    0.11379E+06         0.20363E+07         0.00000E+00
    0.20363E+07        -0.52643E+08         0.00000E+00
    0.00000E+00         0.00000E+00         0.12687E-08
 
    0.10739E+06         0.20782E+07         0.00000E+00
    0.20782E+07        -0.52916E+08         0.00000E+00
    0.00000E+00         0.00000E+00        -0.12687E-08
 
    0.99789E+05         0.21167E+07         0.00000E+00
    0.21167E+07        -0.53202E+08         0.00000E+00
    0.00000E+00         0.00000E+00         0.12687E-08
 
    0.90882E+05         0.21513E+07         0.00000E+00
    0.21513E+07        -0.53501E+08         0.00000E+00
    0.00000E+00         0.00000E+00         0.00000E+00
 
    0.80579E+05         0.21814E+07         0.00000E+00
    0.21814E+07        -0.53814E+08         0.00000E+00
    0.00000E+00         0.00000E+00         0.25366E-08
 
    0.68789E+05         0.22064E+07         0.00000E+00
    0.22064E+07        -0.54141E+08         0.00000E+00
    0.00000E+00         0.00000E+00         0.50750E-08
 
    0.55425E+05         0.22256E+07         0.00000E+00
    0.22256E+07        -0.54482E+08         0.00000E+00
    0.00000E+00         0.00000E+00         0.10148E-07
 
    0.40414E+05         0.22382E+07         0.00000E+00
    0.22382E+07        -0.54837E+08         0.00000E+00
    0.00000E+00         0.00000E+00        -0.12684E-07
 
    0.23693E+05         0.22436E+07         0.00000E+00
    0.22436E+07        -0.55208E+08         0.00000E+00
    0.00000E+00         0.00000E+00         0.25375E-08
 
    0.52172E+04         0.22410E+07         0.00000E+00
    0.22410E+07        -0.55593E+08         0.00000E+00
    0.00000E+00         0.00000E+00         0.16491E-07
 
   -0.15040E+05         0.22298E+07         0.00000E+00
    0.22298E+07        -0.55994E+08         0.00000E+00
    0.00000E+00         0.00000E+00        -0.50750E-08
 
   -0.37081E+05         0.22090E+07         0.00000E+00
    0.22090E+07        -0.56409E+08         0.00000E+00
    0.00000E+00         0.00000E+00         0.88785E-08
 
   -0.60888E+05         0.21782E+07         0.00000E+00
    0.21782E+07        -0.56839E+08         0.00000E+00
    0.00000E+00         0.00000E+00         0.12684E-07
 
   -0.86428E+05         0.21365E+07         0.00000E+00
    0.21365E+07        -0.57282E+08         0.00000E+00
    0.00000E+00         0.00000E+00        -0.12678E-08
 
   -0.11366E+06         0.20834E+07         0.00000E+00
    0.20834E+07        -0.57738E+08         0.00000E+00
    0.00000E+00         0.00000E+00         0.12697E-08
 
   -0.14258E+06         0.20183E+07         0.00000E+00
    0.20183E+07        -0.58204E+08         0.00000E+00
    0.00000E+00         0.00000E+00         0.11416E-07
 
   -0.17324E+06         0.19408E+07         0.00000E+00
    0.19408E+07        -0.58677E+08         0.00000E+00
    0.00000E+00         0.00000E+00         0.88785E-08
 
   -0.20584E+06         0.18504E+07         0.00000E+00
    0.18504E+07        -0.59155E+08         0.00000E+00
    0.00000E+00         0.00000E+00        -0.88785E-08
 
   -0.24085E+06         0.17466E+07         0.00000E+00
    0.17466E+07        -0.59632E+08         0.00000E+00
    0.00000E+00         0.00000E+00         0.38071E-08
 
   -0.27918E+06         0.16287E+07         0.00000E+00
    0.16287E+07        -0.60103E+08         0.00000E+00
    0.00000E+00         0.00000E+00         0.12684E-07
 
   -0.32249E+06         0.14956E+07         0.00000E+00
    0.14956E+07        -0.60559E+08         0.00000E+00
    0.00000E+00         0.00000E+00         0.25357E-08
 
   -0.37355E+06         0.13454E+07         0.00000E+00
    0.13454E+07        -0.60992E+08         0.00000E+00
    0.00000E+00         0.00000E+00        -0.50750E-08
 
   -0.43700E+06         0.11747E+07         0.00000E+00
    0.11747E+07        -0.61389E+08         0.00000E+00
    0.00000E+00         0.00000E+00         0.11417E-07
 
   -0.52042E+06         0.97815E+06         0.00000E+00
    0.97815E+06        -0.61738E+08         0.00000E+00
    0.00000E+00         0.00000E+00         0.38053E-08
 
   -0.63726E+06         0.74697E+06         0.00000E+00
    0.74697E+06        -0.62021E+08         0.00000E+00
    0.00000E+00         0.00000E+00         0.25384E-08
 
   -0.81592E+06         0.47273E+06         0.00000E+00
    0.47273E+06        -0.62217E+08         0.00000E+00
    0.00000E+00         0.00000E+00        -0.38054E-08
 
   -0.11062E+07         0.16205E+06         0.00000E+00
    0.16205E+06        -0.62314E+08         0.00000E+00
    0.00000E+00         0.00000E+00        -0.63428E-08
 
    0.38810E+05         0.54643E+04         0.00000E+00
    0.54643E+04        -0.47581E+08         0.00000E+00
    0.00000E+00         0.00000E+00        -0.25370E-08
 
    0.32715E+05         0.16235E+05         0.00000E+00
    0.16235E+05        -0.47583E+08         0.00000E+00
    0.00000E+00         0.00000E+00        -0.50741E-08
 
    0.28939E+05         0.26533E+05         0.00000E+00
    0.26533E+05        -0.47587E+08         0.00000E+00
    0.00000E+00         0.00000E+00         0.25370E-08
 
    0.26617E+05         0.36228E+05         0.00000E+00
    0.36228E+05        -0.47592E+08         0.00000E+00
    0.00000E+00         0.00000E+00        -0.76111E-08
 
    0.25163E+05         0.45445E+05         0.00000E+00
    0.45445E+05        -0.47599E+08         0.00000E+00
    0.00000E+00         0.00000E+00         0.76111E-08
 
    0.24262E+05         0.54358E+05         0.00000E+00
    0.54358E+05        -0.47607E+08         0.00000E+00
    0.00000E+00         0.00000E+00        -0.12685E-08
 
    0.23734E+05         0.63092E+05         0.00000E+00
    0.63092E+05        -0.47616E+08         0.00000E+00
    0.00000E+00         0.00000E+00         0.12685E-08
 
    0.23467E+05         0.71733E+05         0.00000E+00
    0.71733E+05        -0.47626E+08         0.00000E+00
    0.00000E+00         0.00000E+00         0.50741E-08
 
    0.23391E+05         0.80342E+05         0.00000E+00
    0.80342E+05        -0.47636E+08         0.00000E+00
    0.00000E+00         0.00000E+00         0.76111E-08
 
    0.23466E+05         0.88964E+05         0.00000E+00
    0.88964E+05        -0.47647E+08         0.00000E+00
    0.00000E+00         0.00000E+00        -0.12685E-08
 
    0.23666E+05         0.97637E+05         0.00000E+00
    0.97637E+05        -0.47658E+08         0.00000E+00
    0.00000E+00         0.00000E+00         0.12685E-08
 
    0.23980E+05         0.10639E+06         0.00000E+00
    0.10639E+06        -0.47670E+08         0.00000E+00
    0.00000E+00         0.00000E+00        -0.12685E-08
 
    0.24400E+05         0.11526E+06         0.00000E+00
    0.11526E+06        -0.47681E+08         0.00000E+00
    0.00000E+00         0.00000E+00        -0.76110E-08
 
    0.24924E+05         0.12429E+06         0.00000E+00
    0.12429E+06        -0.47693E+08         0.00000E+00
    0.00000E+00         0.00000E+00        -0.17759E-07
 
    0.25552E+05         0.13349E+06         0.00000E+00
    0.13349E+06        -0.47706E+08         0.00000E+00
    0.00000E+00         0.00000E+00         0.13954E-07
 
    0.26283E+05         0.14292E+06         0.00000E+00
    0.14292E+06        -0.47718E+08         0.00000E+00
    0.00000E+00         0.00000E+00        -0.38056E-08
 
    0.27119E+05         0.15259E+06         0.00000E+00
    0.15259E+06        -0.47732E+08         0.00000E+00
    0.00000E+00         0.00000E+00        -0.76111E-08
 
    0.28059E+05         0.16256E+06         0.00000E+00
    0.16256E+06        -0.47745E+08         0.00000E+00
    0.00000E+00         0.00000E+00        -0.88796E-08
 
    0.29105E+05         0.17286E+06         0.00000E+00
    0.17286E+06        -0.47759E+08         0.00000E+00
    0.00000E+00         0.00000E+00         0.12685E-08
 
    0.30255E+05         0.18353E+06         0.00000E+00
    0.18353E+06        -0.47774E+08         0.00000E+00
    0.00000E+00         0.00000E+00         0.76111E-08
 
    0.31511E+05         0.19460E+06         0.00000E+00
    0.19460E+06        -0.47789E+08         0.00000E+00
    0.00000E+00         0.00000E+00        -0.12685E-07
 
    0.32871E+05         0.20612E+06         0.00000E+00
    0.20612E+06        -0.47805E+08         0.00000E+00
    0.00000E+00         0.00000E+00         0.00000E+00
 
    0.34336E+05         0.21811E+06         0.00000E+00
    0.21811E+06        -0.47822E+08         0.00000E+00
    0.00000E+00         0.00000E+00         0.38056E-08
 
    0.35904E+05         0.23062E+06         0.00000E+00
    0.23062E+06        -0.47840E+08         0.00000E+00
    0.00000E+00         0.00000E+00         0.00000E+00
 
    0.37576E+05         0.24369E+06         0.00000E+00
    0.24369E+06        -0.47858E+08         0.00000E+00
    0.00000E+00         0.00000E+00         0.12685E-08
 
    0.39350E+05         0.25735E+06         0.00000E+00
    0.25735E+06        -0.47878E+08         0.00000E+00
    0.00000E+00         0.00000E+00        -0.25370E-08
 
    0.41227E+05         0.27164E+06         0.00000E+00
    0.27164E+06        -0.47898E+08         0.00000E+00
    0.00000E+00         0.00000E+00         0.20296E-07
 
    0.43206E+05         0.28659E+06         0.00000E+00
    0.28659E+06        -0.47920E+08         0.00000E+00
    0.00000E+00         0.00000E+00         0.00000E+00
 
    0.45285E+05         0.30224E+06         0.00000E+00
    0.30224E+06        -0.47943E+08         0.00000E+00
    0.00000E+00         0.00000E+00         0.63426E-08
 
    0.47466E+05         0.31863E+06         0.00000E+00
    0.31863E+06        -0.47967E+08         0.00000E+00
    0.00000E+00         0.00000E+00        -0.16491E-07
 
    0.49747E+05         0.33579E+06         0.00000E+00
    0.33579E+06        -0.47992E+08         0.00000E+00
    0.00000E+00         0.00000E+00         0.63426E-08
 
    0.52129E+05         0.35375E+06         0.00000E+00
    0.35375E+06        -0.48019E+08         0.00000E+00
    0.00000E+00         0.00000E+00         0.25370E-08
 
    0.54610E+05         0.37255E+06         0.00000E+00
    0.37255E+06        -0.48048E+08         0.00000E+00
    0.00000E+00         0.00000E+00        -0.12685E-07
 
    0.57189E+05         0.39223E+06         0.00000E+00
    0.39223E+06        -0.48078E+08         0.00000E+00
    0.00000E+00         0.00000E+00         0.63426E-08
 
    0.59867E+05         0.41282E+06         0.00000E+00
    0.41282E+06        -0.48111E+08         0.00000E+00
    0.00000E+00         0.00000E+00        -0.63426E-08
 
    0.62642E+05         0.43434E+06         0.00000E+00
    0.43434E+06        -0.48145E+08         0.00000E+00
    0.00000E+00         0.00000E+00         0.25370E-08
 
    0.65513E+05         0.45684E+06         0.00000E+00
    0.45684E+06        -0.48181E+08         0.00000E+00
    0.00000E+00         0.00000E+00         0.50741E-08
 
    0.68478E+05         0.48034E+06         0.00000E+00
    0.48034E+06        -0.48219E+08         0.00000E+00
    0.00000E+00         0.00000E+00         0.25370E-08
 
    0.71536E+05         0.50488E+06         0.00000E+00
    0.50488E+06        -0.48259E+08         0.00000E+00
    0.00000E+00         0.00000E+00         0.11417E-07
 
    0.74683E+05         0.53048E+06         0.00000E+00
    0.53048E+06        -0.48302E+08         0.00000E+00
    0.00000E+00         0.00000E+00        -0.63426E-08
 
    0.77917E+05         0.55718E+06         0.00000E+00
    0.55718E+06        -0.48348E+08         0.00000E+00
    0.00000E+00         0.00000E+00        -0.63426E-08
 
    0.81234E+05         0.58500E+06         0.00000E+00
    0.58500E+06        -0.48396E+08         0.00000E+00
    0.00000E+00         0.00000E+00        -0.88796E-08
 
    0.84630E+05         0.61396E+06         0.00000E+00
    0.61396E+06        -0.48447E+08         0.00000E+00
    0.00000E+00         0.00000E+00         0.25370E-08
 
    0.88100E+05         0.64410E+06         0.00000E+00
    0.64410E+06        -0.48501E+08         0.00000E+00
    0.00000E+00         0.00000E+00         0.25370E-08
 
    0.91639E+05         0.67543E+06         0.00000E+00
    0.67543E+06        -0.48558E+08         0.00000E+00
    0.00000E+00         0.00000E+00        -0.38056E-08
 
    0.95239E+05         0.70797E+06         0.00000E+00
    0.70797E+06        -0.48619E+08         0.00000E+00
    0.00000E+00         0.00000E+00        -0.12685E-08
 
    0.98892E+05         0.74173E+06         0.00000E+00
    0.74173E+06        -0.48683E+08         0.00000E+00
    0.00000E+00         0.00000E+00         0.10148E-07
 
    0.10259E+06         0.77674E+06         0.00000E+00
    0.77674E+06        -0.48751E+08         0.00000E+00
    0.00000E+00         0.00000E+00        -0.63426E-08
 
    0.10632E+06         0.81300E+06         0.00000E+00
    0.81300E+06        -0.48823E+08         0.00000E+00
    0.00000E+00         0.00000E+00         0.12683E-08
 
    0.11008E+06         0.85052E+06         0.00000E+00
    0.85052E+06        -0.48898E+08         0.00000E+00
    0.00000E+00         0.00000E+00        -0.11416E-07
 
    0.11384E+06         0.88929E+06         0.00000E+00
    0.88929E+06        -0.48979E+08         0.00000E+00
    0.00000E+00         0.00000E+00         0.00000E+00
 
    0.11760E+06         0.92931E+06         0.00000E+00
    0.92931E+06        -0.49064E+08         0.00000E+00
    0.00000E+00         0.00000E+00         0.12687E-08
 
    0.12133E+06         0.97056E+06         0.00000E+00
    0.97056E+06        -0.49153E+08         0.00000E+00
    0.00000E+00         0.00000E+00        -0.50741E-08
 
    0.12503E+06         0.10130E+07         0.00000E+00
    0.10130E+07        -0.49248E+08         0.00000E+00
    0.00000E+00         0.00000E+00        -0.63424E-08
 
    0.12866E+06         0.10567E+07         0.00000E+00
    0.10567E+07        -0.49348E+08         0.00000E+00
    0.00000E+00         0.00000E+00         0.00000E+00
 
    0.13221E+06         0.11016E+07         0.00000E+00
    0.11016E+07        -0.49453E+08         0.00000E+00
    0.00000E+00         0.00000E+00         0.13954E-07
 
    0.13564E+06         0.11475E+07         0.00000E+00
    0.11475E+07        -0.49564E+08         0.00000E+00
    0.00000E+00         0.00000E+00         0.25370E-08
 
    0.13893E+06         0.11945E+07         0.00000E+00
    0.11945E+07        -0.49682E+08         0.00000E+00
    0.00000E+00         0.00000E+00         0.12687E-08
 
    0.14205E+06         0.12426E+07         0.00000E+00
    0.12426E+07        -0.49806E+08         0.00000E+00
    0.00000E+00         0.00000E+00        -0.45475E-12
 
    0.14497E+06         0.12915E+07         0.00000E+00
    0.12915E+07        -0.49936E+08         0.00000E+00
    0.00000E+00         0.00000E+00        -0.50741E-08
 
    0.14763E+06         0.13413E+07         0.00000E+00
    0.13413E+07        -0.50073E+08         0.00000E+00
    0.00000E+00         0.00000E+00        -0.12687E-08
 
    0.15001E+06         0.13918E+07         0.00000E+00
    0.13918E+07        -0.50218E+08         0.00000E+00
    0.00000E+00         0.00000E+00        -0.15222E-07
 
    0.15205E+06         0.14429E+07         0.00000E+00
    0.14429E+07        -0.50371E+08         0.00000E+00
    0.00000E+00         0.00000E+00         0.50741E-08
 
    0.15370E+06         0.14944E+07         0.00000E+00
    0.14944E+07        -0.50531E+08         0.00000E+00
    0.00000E+00         0.00000E+00        -0.11417E-07
 
    0.15491E+06         0.15463E+07         0.00000E+00
    0.15463E+07        -0.50699E+08         0.00000E+00
    0.00000E+00         0.00000E+00        -0.63428E-08
 
    0.15561E+06         0.15983E+07         0.00000E+00
    0.15983E+07        -0.50877E+08         0.00000E+00
    0.00000E+00         0.00000E+00        -0.20296E-07
 
    0.15574E+06         0.16502E+07         0.00000E+00
    0.16502E+07        -0.51063E+08         0.00000E+00
    0.00000E+00         0.00000E+00         0.00000E+00
 
    0.15522E+06         0.17018E+07         0.00000E+00
    0.17018E+07        -0.51259E+08         0.00000E+00
    0.00000E+00         0.00000E+00        -0.10147E-07
 
    0.15399E+06         0.17528E+07         0.00000E+00
    0.17528E+07        -0.51464E+08         0.00000E+00
    0.00000E+00         0.00000E+00         0.38053E-08
 
    0.15195E+06         0.18029E+07         0.00000E+00
    0.18029E+07        -0.51680E+08         0.00000E+00
    0.00000E+00         0.00000E+00        -0.90949E-12
 
    0.14901E+06         0.18518E+07         0.00000E+00
    0.18518E+07        -0.51906E+08         0.00000E+00
    0.00000E+00         0.00000E+00        -0.11417E-07
 
    0.14508E+06         0.18992E+07         0.00000E+00
    0.18992E+07        -0.52143E+08         0.00000E+00
    0.00000E+00         0.00000E+00         0.00000E+00
 
    0.14006E+06         0.19446E+07         0.00000E+00
    0.19446E+07        -0.52392E+08         0.00000E+00
    0.00000E+00         0.00000E+00         0.38044E-08
 
    0.13384E+06         0.19877E+07         0.00000E+00
    0.19877E+07        -0.52652E+08         0.00000E+00
    0.00000E+00         0.00000E+00        -0.38044E-08
 
    0.12632E+06         0.20279E+07         0.00000E+00
    0.20279E+07        -0.52924E+08         0.00000E+00
    0.00000E+00         0.00000E+00        -0.38062E-08
 
    0.11737E+06         0.20647E+07         0.00000E+00
    0.20647E+07        -0.53210E+08         0.00000E+00
    0.00000E+00         0.00000E+00        -0.12678E-08
 
    0.10689E+06         0.20977E+07         0.00000E+00
    0.20977E+07        -0.53508E+08         0.00000E+00
    0.00000E+00         0.00000E+00        -0.13953E-07
 
    0.94762E+05         0.21261E+07         0.00000E+00
    0.21261E+07        -0.53819E+08         0.00000E+00
    0.00000E+00         0.00000E+00        -0.10149E-07
 
    0.80877E+05         0.21494E+07         0.00000E+00
    0.21494E+07        -0.54145E+08         0.00000E+00
    0.00000E+00         0.00000E+00        -0.76107E-08
 
    0.65133E+05         0.21669E+07         0.00000E+00
    0.21669E+07        -0.54485E+08         0.00000E+00
    0.00000E+00         0.00000E+00         0.76107E-08
 
    0.47438E+05         0.21779E+07         0.00000E+00
    0.21779E+07        -0.54839E+08         0.00000E+00
    0.00000E+00         0.00000E+00         0.50750E-08
 
    0.27715E+05         0.21817E+07         0.00000E+00
    0.21817E+07        -0.55208E+08         0.00000E+00
    0.00000E+00         0.00000E+00         0.76088E-08
 
    0.59045E+04         0.21775E+07         0.00000E+00
    0.21775E+07        -0.55592E+08         0.00000E+00
    0.00000E+00         0.00000E+00        -0.88785E-08
 
   -0.18029E+05         0.21646E+07         0.00000E+00
    0.21646E+07        -0.55991E+08         0.00000E+00
    0.00000E+00         0.00000E+00         0.63410E-08
 
   -0.44099E+05         0.21423E+07         0.00000E+00
    0.21423E+07        -0.56404E+08         0.00000E+00
    0.00000E+00         0.00000E+00        -0.25375E-08
 
   -0.72292E+05         0.21099E+07         0.00000E+00
    0.21099E+07        -0.56832E+08         0.00000E+00
    0.00000E+00         0.00000E+00        -0.63428E-08
 
   -0.10258E+06         0.20668E+07         0.00000E+00
    0.20668E+07        -0.57273E+08         0.00000E+00
    0.00000E+00         0.00000E+00        -0.25357E-08
 
   -0.13493E+06         0.20122E+07         0.00000E+00
    0.20122E+07        -0.57726E+08         0.00000E+00
    0.00000E+00         0.00000E+00        -0.25375E-08
 
   -0.16934E+06         0.19458E+07         0.00000E+00
    0.19458E+07        -0.58189E+08         0.00000E+00
    0.00000E+00         0.00000E+00        -0.76107E-08
 
   -0.20588E+06         0.18671E+07         0.00000E+00
    0.18671E+07        -0.58660E+08         0.00000E+00
    0.00000E+00         0.00000E+00         0.12686E-07
 
   -0.24479E+06         0.17756E+07         0.00000E+00
    0.17756E+07        -0.59136E+08         0.00000E+00
    0.00000E+00         0.00000E+00        -0.12678E-08
 
   -0.28662E+06         0.16709E+07         0.00000E+00
    0.16709E+07        -0.59610E+08         0.00000E+00
    0.00000E+00         0.00000E+00        -0.12678E-08
 
   -0.33242E+06         0.15525E+07         0.00000E+00
    0.15525E+07        -0.60078E+08         0.00000E+00
    0.00000E+00         0.00000E+00        -0.88803E-08
 
   -0.38408E+06         0.14196E+07         0.00000E+00
    0.14196E+07        -0.60531E+08         0.00000E+00
    0.00000E+00         0.00000E+00        -0.76125E-08
 
   -0.44478E+06         0.12704E+07         0.00000E+00
    0.12704E+07        -0.60960E+08         0.00000E+00
    0.00000E+00         0.00000E+00        -0.11416E-07
 
   -0.51977E+06         0.11021E+07         0.00000E+00
    0.11021E+07        -0.61353E+08         0.00000E+00
    0.00000E+00         0.00000E+00        -0.12678E-08
 
   -0.61756E+06         0.91020E+06         0.00000E+00
    0.91020E+06        -0.61696E+08         0.00000E+00
    0.00000E+00         0.00000E+00        -0.38035E-08
 
   -0.75305E+06         0.68771E+06         0.00000E+00
    0.68771E+06        -0.61972E+08         0.00000E+00
    0.00000E+00         0.00000E+00        -0.25361E-08
 
   -0.95428E+06         0.43030E+06         0.00000E+00
    0.43030E+06        -0.62160E+08         0.00000E+00
    0.00000E+00         0.00000E+00         0.50749E-08
 
   -0.12626E+07         0.14639E+06         0.00000E+00
    0.14639E+06        -0.62252E+08         0.00000E+00
    0.00000E+00         0.00000E+00        -0.12674E-08
 
    0.43791E+05         0.51618E+04         0.00000E+00
    0.51618E+04        -0.47583E+08         0.00000E+00
    0.00000E+00         0.00000E+00         0.00000E+00
 
    0.37428E+05         0.15390E+05         0.00000E+00
    0.15390E+05        -0.47585E+08         0.00000E+00
    0.00000E+00         0.00000E+00        -0.88796E-08
 
    0.33300E+05         0.25296E+05         0.00000E+00
    0.25296E+05        -0.47589E+08         0.00000E+00
    0.00000E+00         0.00000E+00        -0.76111E-08
 
    0.30685E+05         0.34740E+05         0.00000E+00
    0.34740E+05        -0.47594E+08         0.00000E+00
    0.00000E+00         0.00000E+00         0.25370E-08
 
    0.29023E+05         0.43786E+05         0.00000E+00
    0.43786E+05        -0.47601E+08         0.00000E+00
    0.00000E+00         0.00000E+00         0.76111E-08
 
    0.27980E+05         0.52568E+05         0.00000E+00
    0.52568E+05        -0.47609E+08         0.00000E+00
    0.00000E+00         0.00000E+00        -0.10148E-07
 
    0.27357E+05         0.61193E+05         0.00000E+00
    0.61193E+05        -0.47618E+08         0.00000E+00
    0.00000E+00         0.00000E+00        -0.76111E-08
 
    0.27032E+05         0.69737E+05         0.00000E+00
    0.69737E+05        -0.47628E+08         0.00000E+00
    0.00000E+00         0.00000E+00         0.15222E-07
 
    0.26927E+05         0.78251E+05         0.00000E+00
    0.78251E+05        -0.47638E+08         0.00000E+00
    0.00000E+00         0.00000E+00        -0.88796E-08
 
    0.26996E+05         0.86778E+05         0.00000E+00
    0.86778E+05        -0.47649E+08         0.00000E+00
    0.00000E+00         0.00000E+00         0.25370E-08
 
    0.27213E+05         0.95350E+05         0.00000E+00
    0.95350E+05        -0.47660E+08         0.00000E+00
    0.00000E+00         0.00000E+00         0.00000E+00
 
    0.27561E+05         0.10400E+06         0.00000E+00
    0.10400E+06        -0.47671E+08         0.00000E+00
    0.00000E+00         0.00000E+00         0.17759E-07
 
    0.28034E+05         0.11276E+06         0.00000E+00
    0.11276E+06        -0.47683E+08         0.00000E+00
    0.00000E+00         0.00000E+00         0.76110E-08
 
    0.28628E+05         0.12166E+06         0.00000E+00
    0.12166E+06        -0.47695E+08         0.00000E+00
    0.00000E+00         0.00000E+00        -0.63426E-08
 
    0.29343E+05         0.13073E+06         0.00000E+00
    0.13073E+06        -0.47708E+08         0.00000E+00
    0.00000E+00         0.00000E+00        -0.12685E-08
 
    0.30178E+05         0.14001E+06         0.00000E+00
    0.14001E+06        -0.47720E+08         0.00000E+00
    0.00000E+00         0.00000E+00        -0.10148E-07
 
    0.31134E+05         0.14954E+06         0.00000E+00
    0.14954E+06        -0.47734E+08         0.00000E+00
    0.00000E+00         0.00000E+00         0.50741E-08
 
    0.32212E+05         0.15935E+06         0.00000E+00
    0.15935E+06        -0.47747E+08         0.00000E+00
    0.00000E+00         0.00000E+00        -0.24102E-07
 
    0.33410E+05         0.16948E+06         0.00000E+00
    0.16948E+06        -0.47761E+08         0.00000E+00
    0.00000E+00         0.00000E+00        -0.11417E-07
 
    0.34730E+05         0.17996E+06         0.00000E+00
    0.17996E+06        -0.47776E+08         0.00000E+00
    0.00000E+00         0.00000E+00         0.12685E-08
 
    0.36171E+05         0.19084E+06         0.00000E+00
    0.19084E+06        -0.47792E+08         0.00000E+00
    0.00000E+00         0.00000E+00         0.50741E-08
 
    0.37733E+05         0.20214E+06         0.00000E+00
    0.20214E+06        -0.47808E+08         0.00000E+00
    0.00000E+00         0.00000E+00         0.25370E-08
 
    0.39414E+05         0.21392E+06         0.00000E+00
    0.21392E+06        -0.47824E+08         0.00000E+00
    0.00000E+00         0.00000E+00        -0.50741E-08
 
    0.41215E+05         0.22620E+06         0.00000E+00
    0.22620E+06        -0.47842E+08         0.00000E+00
    0.00000E+00         0.00000E+00         0.12685E-07
 
    0.43134E+05         0.23902E+06         0.00000E+00
    0.23902E+06        -0.47861E+08         0.00000E+00
    0.00000E+00         0.00000E+00        -0.10148E-07
 
    0.45172E+05         0.25242E+06         0.00000E+00
    0.25242E+06        -0.47880E+08         0.00000E+00
    0.00000E+00         0.00000E+00         0.00000E+00
 
    0.47326E+05         0.26643E+06         0.00000E+00
    0.26643E+06        -0.47901E+08         0.00000E+00
    0.00000E+00         0.00000E+00        -0.12685E-08
 
    0.49598E+05         0.28110E+06         0.00000E+00
    0.28110E+06        -0.47923E+08         0.00000E+00
    0.00000E+00         0.00000E+00         0.88796E-08
 
    0.51986E+05         0.29644E+06         0.00000E+00
    0.29644E+06        -0.47946E+08         0.00000E+00
    0.00000E+00         0.00000E+00         0.00000E+00
 
    0.54490E+05         0.31251E+06         0.00000E+00
    0.31251E+06        -0.47970E+08         0.00000E+00
    0.00000E+00         0.00000E+00         0.12685E-08
 
    0.57109E+05         0.32932E+06         0.00000E+00
    0.32932E+06        -0.47996E+08         0.00000E+00
    0.00000E+00         0.00000E+00        -0.50741E-08
 
    0.59844E+05         0.34693E+06         0.00000E+00
    0.34693E+06        -0.48023E+08         0.00000E+00
    0.00000E+00         0.00000E+00         0.25370E-08
 
    0.62692E+05         0.36535E+06         0.00000E+00
    0.36535E+06        -0.48052E+08         0.00000E+00
    0.00000E+00         0.00000E+00         0.15222E-07
 
    0.65654E+05         0.38463E+06         0.00000E+00
    0.38463E+06        -0.48082E+08         0.00000E+00
    0.00000E+00         0.00000E+00         0.00000E+00
 
    0.68729E+05         0.40479E+06         0.00000E+00
    0.40479E+06        -0.48115E+08         0.00000E+00
    0.00000E+00         0.00000E+00         0.10148E-07
 
    0.71915E+05         0.42588E+06         0.00000E+00
    0.42588E+06        -0.48149E+08         0.00000E+00
    0.00000E+00         0.00000E+00        -0.11417E-07
 
    0.75211E+05         0.44791E+06         0.00000E+00
    0.44791E+06        -0.48185E+08         0.00000E+00
    0.00000E+00         0.00000E+00         0.25370E-08
 
    0.78616E+05         0.47092E+06         0.00000E+00
    0.47092E+06        -0.48224E+08         0.00000E+00
    0.00000E+00         0.00000E+00         0.12685E-08
 
    0.82126E+05         0.49495E+06         0.00000E+00
    0.49495E+06        -0.48264E+08         0.00000E+00
    0.00000E+00         0.00000E+00         0.12685E-08
 
    0.85739E+05         0.52002E+06         0.00000E+00
    0.52002E+06        -0.48307E+08         0.00000E+00
    0.00000E+00         0.00000E+00         0.12685E-07
 
    0.89452E+05         0.54615E+06         0.00000E+00
    0.54615E+06        -0.48353E+08         0.00000E+00
    0.00000E+00         0.00000E+00         0.25370E-08
 
    0.93261E+05         0.57338E+06         0.00000E+00
    0.57338E+06        -0.48402E+08         0.00000E+00
    0.00000E+00         0.00000E+00        -0.88796E-08
 
    0.97160E+05         0.60172E+06         0.00000E+00
    0.60172E+06        -0.48453E+08         0.00000E+00
    0.00000E+00         0.00000E+00        -0.50741E-08
 
    0.10114E+06         0.63121E+06         0.00000E+00
    0.63121E+06        -0.48507E+08         0.00000E+00
    0.00000E+00         0.00000E+00        -0.11417E-07
 
    0.10521E+06         0.66186E+06         0.00000E+00
    0.66186E+06        -0.48565E+08         0.00000E+00
    0.00000E+00         0.00000E+00        -0.88796E-08
 
    0.10934E+06         0.69369E+06         0.00000E+00
    0.69369E+06        -0.48625E+08         0.00000E+00
    0.00000E+00         0.00000E+00         0.50741E-08
 
    0.11354E+06         0.72672E+06         0.00000E+00
    0.72672E+06        -0.48690E+08         0.00000E+00
    0.00000E+00         0.00000E+00         0.76111E-08
 
    0.11778E+06         0.76095E+06         0.00000E+00
    0.76095E+06        -0.48758E+08         0.00000E+00
    0.00000E+00         0.00000E+00         0.17759E-07
 
    0.12207E+06         0.79640E+06         0.00000E+00
    0.79640E+06        -0.48830E+08         0.00000E+00
    0.00000E+00         0.00000E+00        -0.25370E-08
 
    0.12638E+06         0.83308E+06         0.00000E+00
    0.83308E+06        -0.48906E+08         0.00000E+00
    0.00000E+00         0.00000E+00        -0.88794E-08
 
    0.13070E+06         0.87097E+06         0.00000E+00
    0.87097E+06        -0.48986E+08         0.00000E+00
    0.00000E+00         0.00000E+00         0.50741E-08
 
    0.13501E+06         0.91007E+06         0.00000E+00
    0.91007E+06        -0.49072E+08         0.00000E+00
    0.00000E+00         0.00000E+00         0.76111E-08
 
    0.13930E+06         0.95038E+06         0.00000E+00
    0.95038E+06        -0.49161E+08         0.00000E+00
    0.00000E+00         0.00000E+00        -0.25370E-08
 
    0.14354E+06         0.99187E+06         0.00000E+00
    0.99187E+06        -0.49256E+08         0.00000E+00
    0.00000E+00         0.00000E+00         0.50741E-08
 
    0.14772E+06         0.10345E+07         0.00000E+00
    0.10345E+07        -0.49356E+08         0.00000E+00
    0.00000E+00         0.00000E+00         0.25370E-08
 
    0.15179E+06         0.10783E+07         0.00000E+00
    0.10783E+07        -0.49462E+08         0.00000E+00
    0.00000E+00         0.00000E+00        -0.63424E-08
 
    0.15573E+06         0.11231E+07         0.00000E+00
    0.11231E+07        -0.49574E+08         0.00000E+00
    0.00000E+00         0.00000E+00         0.76107E-08
 
    0.15951E+06         0.11690E+07         0.00000E+00
    0.11690E+07        -0.49691E+08         0.00000E+00
    0.00000E+00         0.00000E+00         0.00000E+00
 
    0.16310E+06         0.12159E+07         0.00000E+00
    0.12159E+07        -0.49815E+08         0.00000E+00
    0.00000E+00         0.00000E+00        -0.88794E-08
 
    0.16644E+06         0.12636E+07         0.00000E+00
    0.12636E+07        -0.49946E+08         0.00000E+00
    0.00000E+00         0.00000E+00        -0.38058E-08
 
    0.16950E+06         0.13121E+07         0.00000E+00
    0.13121E+07        -0.50083E+08         0.00000E+00
    0.00000E+00         0.00000E+00        -0.25370E-08
 
    0.17224E+06         0.13613E+07         0.00000E+00
    0.13613E+07        -0.50228E+08         0.00000E+00
    0.00000E+00         0.00000E+00         0.00000E+00
 
    0.17458E+06         0.14111E+07         0.00000E+00
    0.14111E+07        -0.50381E+08         0.00000E+00
    0.00000E+00         0.00000E+00         0.15222E-07
 
    0.17648E+06         0.14613E+07         0.00000E+00
    0.14613E+07        -0.50541E+08         0.00000E+00
    0.00000E+00         0.00000E+00         0.76116E-08
 
    0.17787E+06         0.15118E+07         0.00000E+00
    0.15118E+07        -0.50710E+08         0.00000E+00
    0.00000E+00         0.00000E+00         0.12687E-08
 
    0.17868E+06         0.15623E+07         0.00000E+00
    0.15623E+07        -0.50887E+08         0.00000E+00
    0.00000E+00         0.00000E+00        -0.38053E-08
 
    0.17883E+06         0.16127E+07         0.00000E+00
    0.16127E+07        -0.51073E+08         0.00000E+00
    0.00000E+00         0.00000E+00         0.12686E-07
 
    0.17824E+06         0.16628E+07         0.00000E+00
    0.16628E+07        -0.51269E+08         0.00000E+00
    0.00000E+00         0.00000E+00         0.16491E-07
 
    0.17683E+06         0.17123E+07         0.00000E+00
    0.17123E+07        -0.51474E+08         0.00000E+00
    0.00000E+00         0.00000E+00        -0.63419E-08
 
    0.17449E+06         0.17609E+07         0.00000E+00
    0.17609E+07        -0.51689E+08         0.00000E+00
    0.00000E+00         0.00000E+00        -0.63428E-08
 
    0.17112E+06         0.18082E+07         0.00000E+00
    0.18082E+07        -0.51915E+08         0.00000E+00
    0.00000E+00         0.00000E+00        -0.21565E-07
 
    0.16662E+06         0.18540E+07         0.00000E+00
    0.18540E+07        -0.52152E+08         0.00000E+00
    0.00000E+00         0.00000E+00         0.00000E+00
 
    0.16086E+06         0.18978E+07         0.00000E+00
    0.18978E+07        -0.52400E+08         0.00000E+00
    0.00000E+00         0.00000E+00        -0.38053E-08
 
    0.15372E+06         0.19392E+07         0.00000E+00
    0.19392E+07        -0.52660E+08         0.00000E+00
    0.00000E+00         0.00000E+00         0.15222E-07
 
    0.14509E+06         0.19778E+07         0.00000E+00
    0.19778E+07        -0.52932E+08         0.00000E+00
    0.00000E+00         0.00000E+00        -0.12678E-08
 
    0.13481E+06         0.20130E+07         0.00000E+00
    0.20130E+07        -0.53216E+08         0.00000E+00
    0.00000E+00         0.00000E+00         0.76107E-08
 
    0.12277E+06         0.20443E+07         0.00000E+00
    0.20443E+07        -0.53514E+08         0.00000E+00
    0.00000E+00         0.00000E+00        -0.19028E-07
 
    0.10884E+06         0.20712E+07         0.00000E+00
    0.20712E+07        -0.53824E+08         0.00000E+00
    0.00000E+00         0.00000E+00         0.12685E-07
 
    0.92879E+05         0.20928E+07         0.00000E+00
    0.20928E+07        -0.54149E+08         0.00000E+00
    0.00000E+00         0.00000E+00         0.18190E-11
 
    0.74772E+05         0.21087E+07         0.00000E+00
    0.21087E+07        -0.54487E+08         0.00000E+00
    0.00000E+00         0.00000E+00         0.50750E-08
 
    0.54410E+05         0.21181E+07         0.00000E+00
    0.21181E+07        -0.54840E+08         0.00000E+00
    0.00000E+00         0.00000E+00        -0.11416E-07
 
    0.31698E+05         0.21204E+07         0.00000E+00
    0.21204E+07        -0.55208E+08         0.00000E+00
    0.00000E+00         0.00000E+00         0.88803E-08
 
    0.65628E+04         0.21146E+07         0.00000E+00
    0.21146E+07        -0.55590E+08         0.00000E+00
    0.00000E+00         0.00000E+00         0.50732E-08
 
   -0.21045E+05         0.21003E+07         0.00000E+00
    0.21003E+07        -0.55987E+08         0.00000E+00
    0.00000E+00         0.00000E+00         0.00000E+00
 
   -0.51148E+05         0.20765E+07         0.00000E+00
    0.20765E+07        -0.56399E+08         0.00000E+00
    0.00000E+00         0.00000E+00        -0.11418E-07
 
   -0.83743E+05         0.20426E+07         0.00000E+00
    0.20426E+07        -0.56824E+08         0.00000E+00
    0.00000E+00         0.00000E+00         0.76107E-08
 
   -0.11881E+06         0.19980E+07         0.00000E+00
    0.19980E+07        -0.57263E+08         0.00000E+00
    0.00000E+00         0.00000E+00        -0.19028E-07
 
   -0.15632E+06         0.19422E+07         0.00000E+00
    0.19422E+07        -0.57714E+08         0.00000E+00
    0.00000E+00         0.00000E+00        -0.22834E-07
 
   -0.19628E+06         0.18745E+07         0.00000E+00
    0.18745E+07        -0.58175E+08         0.00000E+00
    0.00000E+00         0.00000E+00        -0.27909E-07
 
   -0.23879E+06         0.17945E+07         0.00000E+00
    0.17945E+07        -0.58643E+08         0.00000E+00
    0.00000E+00         0.00000E+00         0.22834E-07
 
   -0.28412E+06         0.17021E+07         0.00000E+00
    0.17021E+07        -0.59116E+08         0.00000E+00
    0.00000E+00         0.00000E+00        -0.10148E-07
 
   -0.33289E+06         0.15967E+07         0.00000E+00
    0.15967E+07        -0.59588E+08         0.00000E+00
    0.00000E+00         0.00000E+00        -0.12684E-07
 
   -0.38627E+06         0.14780E+07         0.00000E+00
    0.14780E+07        -0.60053E+08         0.00000E+00
    0.00000E+00         0.00000E+00         0.00000E+00
 
   -0.44638E+06         0.13453E+07         0.00000E+00
    0.13453E+07        -0.60503E+08         0.00000E+00
    0.00000E+00         0.00000E+00         0.76125E-08
 
   -0.51673E+06         0.11974E+07         0.00000E+00
    0.11974E+07        -0.60929E+08         0.00000E+00
    0.00000E+00         0.00000E+00        -0.50750E-08
 
   -0.60311E+06         0.10321E+07         0.00000E+00
    0.10321E+07        -0.61318E+08         0.00000E+00
    0.00000E+00         0.00000E+00         0.25375E-08
 
   -0.71479E+06         0.84542E+06         0.00000E+00
    0.84542E+06        -0.61656E+08         0.00000E+00
    0.00000E+00         0.00000E+00         0.12687E-07
 
   -0.86758E+06         0.63251E+06         0.00000E+00
    0.63251E+06        -0.61925E+08         0.00000E+00
    0.00000E+00         0.00000E+00         0.50736E-08
 
   -0.10881E+07         0.39197E+06         0.00000E+00
    0.39197E+06        -0.62108E+08         0.00000E+00
    0.00000E+00         0.00000E+00        -0.76104E-08
 
   -0.14108E+07         0.13256E+06         0.00000E+00
    0.13256E+06        -0.62197E+08         0.00000E+00
    0.00000E+00         0.00000E+00        -0.50736E-08
 
    0.48610E+05         0.48860E+04         0.00000E+00
    0.48860E+04        -0.47585E+08         0.00000E+00
    0.00000E+00         0.00000E+00         0.50741E-08
 
    0.42034E+05         0.14607E+05         0.00000E+00
    0.14607E+05        -0.47587E+08         0.00000E+00
    0.00000E+00         0.00000E+00        -0.88796E-08
 
    0.37609E+05         0.24122E+05         0.00000E+00
    0.24122E+05        -0.47590E+08         0.00000E+00
    0.00000E+00         0.00000E+00        -0.15222E-07
 
    0.34729E+05         0.33300E+05         0.00000E+00
    0.33300E+05        -0.47596E+08         0.00000E+00
    0.00000E+00         0.00000E+00         0.63426E-08
 
    0.32868E+05         0.42161E+05         0.00000E+00
    0.42161E+05        -0.47603E+08         0.00000E+00
    0.00000E+00         0.00000E+00        -0.38056E-08
 
    0.31684E+05         0.50801E+05         0.00000E+00
    0.50801E+05        -0.47611E+08         0.00000E+00
    0.00000E+00         0.00000E+00         0.25370E-08
 
    0.30966E+05         0.59310E+05         0.00000E+00
    0.59310E+05        -0.47620E+08         0.00000E+00
    0.00000E+00         0.00000E+00         0.12685E-08
 
    0.30580E+05         0.67749E+05         0.00000E+00
    0.67749E+05        -0.47630E+08         0.00000E+00
    0.00000E+00         0.00000E+00         0.50741E-08
 
    0.30442E+05         0.76164E+05         0.00000E+00
    0.76164E+05        -0.47640E+08         0.00000E+00
    0.00000E+00         0.00000E+00         0.12685E-08
 
    0.30502E+05         0.84591E+05         0.00000E+00
    0.84591E+05        -0.47651E+08         0.00000E+00
    0.00000E+00         0.00000E+00         0.00000E+00
 
    0.30730E+05         0.93059E+05         0.00000E+00
    0.93059E+05        -0.47662E+08         0.00000E+00
    0.00000E+00         0.00000E+00         0.38056E-08
 
    0.31110E+05         0.10160E+06         0.00000E+00
    0.10160E+06        -0.47673E+08         0.00000E+00
    0.00000E+00         0.00000E+00        -0.12685E-07
 
    0.31632E+05         0.11024E+06         0.00000E+00
    0.11024E+06        -0.47685E+08         0.00000E+00
    0.00000E+00         0.00000E+00        -0.25370E-08
 
    0.32294E+05         0.11901E+06         0.00000E+00
    0.11901E+06        -0.47697E+08         0.00000E+00
    0.00000E+00         0.00000E+00        -0.12685E-08
 
    0.33094E+05         0.12795E+06         0.00000E+00
    0.12795E+06        -0.47709E+08         0.00000E+00
    0.00000E+00         0.00000E+00        -0.38056E-08
 
    0.34031E+05         0.13709E+06         0.00000E+00
    0.13709E+06        -0.47722E+08         0.00000E+00
    0.00000E+00         0.00000E+00         0.25370E-08
 
    0.35105E+05         0.14646E+06         0.00000E+00
    0.14646E+06        -0.47735E+08         0.00000E+00
    0.00000E+00         0.00000E+00         0.11417E-07
 
    0.36317E+05         0.15610E+06         0.00000E+00
    0.15610E+06        -0.47749E+08         0.00000E+00
    0.00000E+00         0.00000E+00         0.88796E-08
 
    0.37667E+05         0.16606E+06         0.00000E+00
    0.16606E+06        -0.47763E+08         0.00000E+00
    0.00000E+00         0.00000E+00         0.12685E-07
 
    0.39155E+05         0.17635E+06         0.00000E+00
    0.17635E+06        -0.47778E+08         0.00000E+00
    0.00000E+00         0.00000E+00        -0.76111E-08
 
    0.40779E+05         0.18703E+06         0.00000E+00
    0.18703E+06        -0.47794E+08         0.00000E+00
    0.00000E+00         0.00000E+00         0.10148E-07
 
    0.42539E+05         0.19813E+06         0.00000E+00
    0.19813E+06        -0.47810E+08         0.00000E+00
    0.00000E+00         0.00000E+00        -0.16491E-07
 
    0.44435E+05         0.20968E+06         0.00000E+00
    0.20968E+06        -0.47827E+08         0.00000E+00
    0.00000E+00         0.00000E+00         0.11417E-07
 
    0.46466E+05         0.22173E+06         0.00000E+00
    0.22173E+06        -0.47845E+08         0.00000E+00
    0.00000E+00         0.00000E+00        -0.15222E-07
 
    0.48630E+05         0.23430E+06         0.00000E+00
    0.23430E+06        -0.47863E+08         0.00000E+00
    0.00000E+00         0.00000E+00         0.12685E-08
 
    0.50928E+05         0.24744E+06         0.00000E+00
    0.24744E+06        -0.47883E+08         0.00000E+00
    0.00000E+00         0.00000E+00         0.00000E+00
 
    0.53358E+05         0.26117E+06         0.00000E+00
    0.26117E+06        -0.47904E+08         0.00000E+00
    0.00000E+00         0.00000E+00         0.10148E-07
 
    0.55920E+05         0.27554E+06         0.00000E+00
    0.27554E+06        -0.47926E+08         0.00000E+00
    0.00000E+00         0.00000E+00         0.00000E+00
 
    0.58613E+05         0.29058E+06         0.00000E+00
    0.29058E+06        -0.47949E+08         0.00000E+00
    0.00000E+00         0.00000E+00         0.25370E-08
 
    0.61437E+05         0.30631E+06         0.00000E+00
    0.30631E+06        -0.47973E+08         0.00000E+00
    0.00000E+00         0.00000E+00         0.10148E-07
 
    0.64391E+05         0.32279E+06         0.00000E+00
    0.32279E+06        -0.47999E+08         0.00000E+00
    0.00000E+00         0.00000E+00        -0.12685E-08
 
    0.67474E+05         0.34003E+06         0.00000E+00
    0.34003E+06        -0.48027E+08         0.00000E+00
    0.00000E+00         0.00000E+00         0.63426E-08
 
    0.70687E+05         0.35807E+06         0.00000E+00
    0.35807E+06        -0.48056E+08         0.00000E+00
    0.00000E+00         0.00000E+00        -0.21565E-07
 
    0.74027E+05         0.37695E+06         0.00000E+00
    0.37695E+06        -0.48086E+08         0.00000E+00
    0.00000E+00         0.00000E+00         0.16491E-07
 
    0.77494E+05         0.39669E+06         0.00000E+00
    0.39669E+06        -0.48119E+08         0.00000E+00
    0.00000E+00         0.00000E+00        -0.17759E-07
 
    0.81088E+05         0.41733E+06         0.00000E+00
    0.41733E+06        -0.48153E+08         0.00000E+00
    0.00000E+00         0.00000E+00        -0.16491E-07
 
    0.84805E+05         0.43890E+06         0.00000E+00
    0.43890E+06        -0.48190E+08         0.00000E+00
    0.00000E+00         0.00000E+00        -0.88796E-08
 
    0.88644E+05         0.46142E+06         0.00000E+00
    0.46142E+06        -0.48228E+08         0.00000E+00
    0.00000E+00         0.00000E+00         0.25370E-08
 
    0.92602E+05         0.48493E+06         0.00000E+00
    0.48493E+06        -0.48269E+08         0.00000E+00
    0.00000E+00         0.00000E+00         0.13954E-07
 
    0.96677E+05         0.50946E+06         0.00000E+00
    0.50946E+06        -0.48313E+08         0.00000E+00
    0.00000E+00         0.00000E+00         0.10148E-07
 
    0.10086E+06         0.53502E+06         0.00000E+00
    0.53502E+06        -0.48358E+08         0.00000E+00
    0.00000E+00         0.00000E+00         0.50741E-08
 
    0.10516E+06         0.56166E+06         0.00000E+00
    0.56166E+06        -0.48407E+08         0.00000E+00
    0.00000E+00         0.00000E+00         0.12685E-08
 
    0.10956E+06         0.58938E+06         0.00000E+00
    0.58938E+06        -0.48459E+08         0.00000E+00
    0.00000E+00         0.00000E+00         0.12685E-08
 
    0.11405E+06         0.61822E+06         0.00000E+00
    0.61822E+06        -0.48513E+08         0.00000E+00
    0.00000E+00         0.00000E+00         0.12685E-08
 
    0.11863E+06         0.64819E+06         0.00000E+00
    0.64819E+06        -0.48571E+08         0.00000E+00
    0.00000E+00         0.00000E+00         0.11417E-07
 
    0.12329E+06         0.67931E+06         0.00000E+00
    0.67931E+06        -0.48632E+08         0.00000E+00
    0.00000E+00         0.00000E+00        -0.38056E-08
 
    0.12802E+06         0.71159E+06         0.00000E+00
    0.71159E+06        -0.48696E+08         0.00000E+00
    0.00000E+00         0.00000E+00        -0.12685E-08
 
    0.13281E+06         0.74505E+06         0.00000E+00
    0.74505E+06        -0.48765E+08         0.00000E+00
    0.00000E+00         0.00000E+00         0.16491E-07
 
    0.13765E+06         0.77970E+06         0.00000E+00
    0.77970E+06        -0.48837E+08         0.00000E+00
    0.00000E+00         0.00000E+00        -0.76111E-08
 
    0.14251E+06         0.81553E+06         0.00000E+00
    0.81553E+06        -0.48913E+08         0.00000E+00
    0.00000E+00         0.00000E+00        -0.19028E-07
 
    0.14738E+06         0.85254E+06         0.00000E+00
    0.85254E+06        -0.48994E+08         0.00000E+00
    0.00000E+00         0.00000E+00         0.63424E-08
 
    0.15225E+06         0.89073E+06         0.00000E+00
    0.89073E+06        -0.49079E+08         0.00000E+00
    0.00000E+00         0.00000E+00        -0.88799E-08
 
    0.15709E+06         0.93009E+06         0.00000E+00
    0.93009E+06        -0.49169E+08         0.00000E+00
    0.00000E+00         0.00000E+00        -0.38053E-08
 
    0.16187E+06         0.97060E+06         0.00000E+00
    0.97060E+06        -0.49265E+08         0.00000E+00
    0.00000E+00         0.00000E+00         0.13954E-07
 
    0.16658E+06         0.10122E+07         0.00000E+00
    0.10122E+07        -0.49365E+08         0.00000E+00
    0.00000E+00         0.00000E+00         0.50741E-08
 
    0.17117E+06         0.10549E+07         0.00000E+00
    0.10549E+07        -0.49471E+08         0.00000E+00
    0.00000E+00         0.00000E+00        -0.11416E-07
 
    0.17562E+06         0.10987E+07         0.00000E+00
    0.10987E+07        -0.49583E+08         0.00000E+00
    0.00000E+00         0.00000E+00         0.16491E-07
 
    0.17989E+06         0.11434E+07         0.00000E+00
    0.11434E+07        -0.49700E+08         0.00000E+00
    0.00000E+00         0.00000E+00         0.76107E-08
 
    0.18393E+06         0.11891E+07         0.00000E+00
    0.11891E+07        -0.49825E+08         0.00000E+00
    0.00000E+00         0.00000E+00        -0.38053E-08
 
    0.18770E+06         0.12356E+07         0.00000E+00
    0.12356E+07        -0.49955E+08         0.00000E+00
    0.00000E+00         0.00000E+00        -0.25370E-07
 
    0.19116E+06         0.12829E+07         0.00000E+00
    0.12829E+07        -0.50093E+08         0.00000E+00
    0.00000E+00         0.00000E+00         0.76111E-08
 
    0.19424E+06         0.13308E+07         0.00000E+00
    0.13308E+07        -0.50238E+08         0.00000E+00
    0.00000E+00         0.00000E+00         0.12687E-08
 
    0.19689E+06         0.13793E+07         0.00000E+00
    0.13793E+07        -0.50391E+08         0.00000E+00
    0.00000E+00         0.00000E+00         0.13954E-07
 
    0.19904E+06         0.14281E+07         0.00000E+00
    0.14281E+07        -0.50551E+08         0.00000E+00
    0.00000E+00         0.00000E+00        -0.76107E-08
 
    0.20061E+06         0.14772E+07         0.00000E+00
    0.14772E+07        -0.50720E+08         0.00000E+00
    0.00000E+00         0.00000E+00         0.00000E+00
 
    0.20153E+06         0.15263E+07         0.00000E+00
    0.15263E+07        -0.50897E+08         0.00000E+00
    0.00000E+00         0.00000E+00        -0.16490E-07
 
    0.20171E+06         0.15753E+07         0.00000E+00
    0.15753E+07        -0.51083E+08         0.00000E+00
    0.00000E+00         0.00000E+00        -0.13954E-07
 
    0.20105E+06         0.16239E+07         0.00000E+00
    0.16239E+07        -0.51279E+08         0.00000E+00
    0.00000E+00         0.00000E+00         0.12678E-08
 
    0.19946E+06         0.16718E+07         0.00000E+00
    0.16718E+07        -0.51484E+08         0.00000E+00
    0.00000E+00         0.00000E+00         0.27908E-07
 
    0.19683E+06         0.17189E+07         0.00000E+00
    0.17189E+07        -0.51699E+08         0.00000E+00
    0.00000E+00         0.00000E+00        -0.38053E-08
 
    0.19305E+06         0.17647E+07         0.00000E+00
    0.17647E+07        -0.51925E+08         0.00000E+00
    0.00000E+00         0.00000E+00         0.00000E+00
 
    0.18797E+06         0.18089E+07         0.00000E+00
    0.18089E+07        -0.52161E+08         0.00000E+00
    0.00000E+00         0.00000E+00        -0.25366E-08
 
    0.18149E+06         0.18512E+07         0.00000E+00
    0.18512E+07        -0.52409E+08         0.00000E+00
    0.00000E+00         0.00000E+00         0.25375E-08
 
    0.17345E+06         0.18910E+07         0.00000E+00
    0.18910E+07        -0.52668E+08         0.00000E+00
    0.00000E+00         0.00000E+00        -0.12687E-08
 
    0.16371E+06         0.19280E+07         0.00000E+00
    0.19280E+07        -0.52939E+08         0.00000E+00
    0.00000E+00         0.00000E+00        -0.11416E-07
 
    0.15213E+06         0.19616E+07         0.00000E+00
    0.19616E+07        -0.53223E+08         0.00000E+00
    0.00000E+00         0.00000E+00        -0.15222E-07
 
    0.13855E+06         0.19914E+07         0.00000E+00
    0.19914E+07        -0.53519E+08         0.00000E+00
    0.00000E+00         0.00000E+00         0.22833E-07
 
    0.12283E+06         0.20166E+07         0.00000E+00
    0.20166E+07        -0.53829E+08         0.00000E+00
    0.00000E+00         0.00000E+00        -0.16491E-07
 
    0.10481E+06         0.20367E+07         0.00000E+00
    0.20367E+07        -0.54153E+08         0.00000E+00
    0.00000E+00         0.00000E+00        -0.12686E-07
 
    0.84361E+05         0.20511E+07         0.00000E+00
    0.20511E+07        -0.54490E+08         0.00000E+00
    0.00000E+00         0.00000E+00        -0.50750E-08
 
    0.61349E+05         0.20590E+07         0.00000E+00
    0.20590E+07        -0.54841E+08         0.00000E+00
    0.00000E+00         0.00000E+00        -0.20298E-07
 
    0.35663E+05         0.20597E+07         0.00000E+00
    0.20597E+07        -0.55207E+08         0.00000E+00
    0.00000E+00         0.00000E+00         0.50732E-08
 
    0.72140E+04         0.20525E+07         0.00000E+00
    0.20525E+07        -0.55588E+08         0.00000E+00
    0.00000E+00         0.00000E+00        -0.15223E-07
 
   -0.24063E+05         0.20367E+07         0.00000E+00
    0.20367E+07        -0.55983E+08         0.00000E+00
    0.00000E+00         0.00000E+00        -0.17757E-07
 
   -0.58204E+05         0.20115E+07         0.00000E+00
    0.20115E+07        -0.56393E+08         0.00000E+00
    0.00000E+00         0.00000E+00         0.17761E-07
 
   -0.95217E+05         0.19762E+07         0.00000E+00
    0.19762E+07        -0.56816E+08         0.00000E+00
    0.00000E+00         0.00000E+00        -0.25375E-08
 
   -0.13509E+06         0.19303E+07         0.00000E+00
    0.19303E+07        -0.57253E+08         0.00000E+00
    0.00000E+00         0.00000E+00         0.76107E-08
 
   -0.17781E+06         0.18732E+07         0.00000E+00
    0.18732E+07        -0.57701E+08         0.00000E+00
    0.00000E+00         0.00000E+00         0.00000E+00
 
   -0.22339E+06         0.18043E+07         0.00000E+00
    0.18043E+07        -0.58160E+08         0.00000E+00
    0.00000E+00         0.00000E+00        -0.20296E-07
 
   -0.27195E+06         0.17233E+07         0.00000E+00
    0.17233E+07        -0.58626E+08         0.00000E+00
    0.00000E+00         0.00000E+00        -0.20296E-07
 
   -0.32380E+06         0.16299E+07         0.00000E+00
    0.16299E+07        -0.59096E+08         0.00000E+00
    0.00000E+00         0.00000E+00        -0.25375E-08
 
   -0.37962E+06         0.15239E+07         0.00000E+00
    0.15239E+07        -0.59565E+08         0.00000E+00
    0.00000E+00         0.00000E+00         0.25357E-08
 
   -0.44069E+06         0.14050E+07         0.00000E+00
    0.14050E+07        -0.60028E+08         0.00000E+00
    0.00000E+00         0.00000E+00         0.76125E-08
 
   -0.50931E+06         0.12729E+07         0.00000E+00
    0.12729E+07        -0.60475E+08         0.00000E+00
    0.00000E+00         0.00000E+00         0.50732E-08
 
   -0.58930E+06         0.11266E+07         0.00000E+00
    0.11266E+07        -0.60898E+08         0.00000E+00
    0.00000E+00         0.00000E+00         0.76097E-08
 
   -0.68685E+06         0.96447E+06         0.00000E+00
    0.96447E+06        -0.61283E+08         0.00000E+00
    0.00000E+00         0.00000E+00        -0.76116E-08
 
   -0.81187E+06         0.78366E+06         0.00000E+00
    0.78366E+06        -0.61617E+08         0.00000E+00
    0.00000E+00         0.00000E+00        -0.12685E-07
 
   -0.98056E+06         0.58094E+06         0.00000E+00
    0.58094E+06        -0.61881E+08         0.00000E+00
    0.00000E+00         0.00000E+00         0.00000E+00
 
   -0.12177E+07         0.35701E+06         0.00000E+00
    0.35701E+06        -0.62059E+08         0.00000E+00
    0.00000E+00         0.00000E+00         0.76112E-08
 
   -0.15518E+07         0.12015E+06         0.00000E+00
    0.12015E+06        -0.62146E+08         0.00000E+00
    0.00000E+00         0.00000E+00         0.90949E-12
 
    0.53286E+05         0.46310E+04         0.00000E+00
    0.46310E+04        -0.47587E+08         0.00000E+00
    0.00000E+00         0.00000E+00         0.76111E-08
 
    0.46539E+05         0.13875E+05         0.00000E+00
    0.13875E+05        -0.47589E+08         0.00000E+00
    0.00000E+00         0.00000E+00         0.76111E-08
 
    0.41862E+05         0.23005E+05         0.00000E+00
    0.23005E+05        -0.47592E+08         0.00000E+00
    0.00000E+00         0.00000E+00         0.10148E-07
 
    0.38742E+05         0.31905E+05         0.00000E+00
    0.31905E+05        -0.47598E+08         0.00000E+00
    0.00000E+00         0.00000E+00        -0.15222E-07
 
    0.36693E+05         0.40568E+05         0.00000E+00
    0.40568E+05        -0.47605E+08         0.00000E+00
    0.00000E+00         0.00000E+00        -0.25370E-08
 
    0.35372E+05         0.49058E+05         0.00000E+00
    0.49058E+05        -0.47613E+08         0.00000E+00
    0.00000E+00         0.00000E+00        -0.50741E-08
 
    0.34558E+05         0.57442E+05         0.00000E+00
    0.57442E+05        -0.47622E+08         0.00000E+00
    0.00000E+00         0.00000E+00         0.25370E-08
 
    0.34108E+05         0.65771E+05         0.00000E+00
    0.65771E+05        -0.47631E+08         0.00000E+00
    0.00000E+00         0.00000E+00         0.25370E-08
 
    0.33934E+05         0.74082E+05         0.00000E+00
    0.74082E+05        -0.47642E+08         0.00000E+00
    0.00000E+00         0.00000E+00         0.25370E-08
 
    0.33982E+05         0.82404E+05         0.00000E+00
    0.82404E+05        -0.47652E+08         0.00000E+00
    0.00000E+00         0.00000E+00         0.12685E-07
 
    0.34218E+05         0.90764E+05         0.00000E+00
    0.90764E+05        -0.47663E+08         0.00000E+00
    0.00000E+00         0.00000E+00        -0.25370E-08
 
    0.34625E+05         0.99190E+05         0.00000E+00
    0.99190E+05        -0.47675E+08         0.00000E+00
    0.00000E+00         0.00000E+00        -0.76110E-08
 
    0.35195E+05         0.10771E+06         0.00000E+00
    0.10771E+06        -0.47687E+08         0.00000E+00
    0.00000E+00         0.00000E+00        -0.50741E-08
 
    0.35921E+05         0.11635E+06         0.00000E+00
    0.11635E+06        -0.47699E+08         0.00000E+00
    0.00000E+00         0.00000E+00         0.25370E-08
 
    0.36803E+05         0.12515E+06         0.00000E+00
    0.12515E+06        -0.47711E+08         0.00000E+00
    0.00000E+00         0.00000E+00         0.50741E-08
 
    0.37839E+05         0.13414E+06         0.00000E+00
    0.13414E+06        -0.47724E+08         0.00000E+00
    0.00000E+00         0.00000E+00        -0.20296E-07
 
    0.39030E+05         0.14336E+06         0.00000E+00
    0.14336E+06        -0.47737E+08         0.00000E+00
    0.00000E+00         0.00000E+00         0.25370E-08
 
    0.40375E+05         0.15283E+06         0.00000E+00
    0.15283E+06        -0.47751E+08         0.00000E+00
    0.00000E+00         0.00000E+00         0.25370E-08
 
    0.41874E+05         0.16260E+06         0.00000E+00
    0.16260E+06        -0.47765E+08         0.00000E+00
    0.00000E+00         0.00000E+00         0.10148E-07
 
    0.43527E+05         0.17271E+06         0.00000E+00
    0.17271E+06        -0.47780E+08         0.00000E+00
    0.00000E+00         0.00000E+00         0.50741E-08
 
    0.45332E+05         0.18319E+06         0.00000E+00
    0.18319E+06        -0.47796E+08         0.00000E+00
    0.00000E+00         0.00000E+00         0.25370E-08
 
    0.47289E+05         0.19407E+06         0.00000E+00
    0.19407E+06        -0.47812E+08         0.00000E+00
    0.00000E+00         0.00000E+00         0.76111E-08
 
    0.49398E+05         0.20540E+06         0.00000E+00
    0.20540E+06        -0.47829E+08         0.00000E+00
    0.00000E+00         0.00000E+00        -0.15222E-07
 
    0.51656E+05         0.21721E+06         0.00000E+00
    0.21721E+06        -0.47847E+08         0.00000E+00
    0.00000E+00         0.00000E+00         0.50741E-08
 
    0.54063E+05         0.22953E+06         0.00000E+00
    0.22953E+06        -0.47866E+08         0.00000E+00
    0.00000E+00         0.00000E+00         0.12685E-07
 
    0.56618E+05         0.24240E+06         0.00000E+00
    0.24240E+06        -0.47886E+08         0.00000E+00
    0.00000E+00         0.00000E+00         0.10148E-07
 
    0.59321E+05         0.25585E+06         0.00000E+00
    0.25585E+06        -0.47907E+08         0.00000E+00
    0.00000E+00         0.00000E+00         0.50741E-08
 
    0.62170E+05         0.26993E+06         0.00000E+00
    0.26993E+06        -0.47929E+08         0.00000E+00
    0.00000E+00         0.00000E+00        -0.25370E-08
 
    0.65165E+05         0.28465E+06         0.00000E+00
    0.28465E+06        -0.47952E+08         0.00000E+00
    0.00000E+00         0.00000E+00         0.00000E+00
 
    0.68305E+05         0.30006E+06         0.00000E+00
    0.30006E+06        -0.47976E+08         0.00000E+00
    0.00000E+00         0.00000E+00         0.50741E-08
 
    0.71590E+05         0.31619E+06         0.00000E+00
    0.31619E+06        -0.48003E+08         0.00000E+00
    0.00000E+00         0.00000E+00         0.00000E+00
 
    0.75020E+05         0.33306E+06         0.00000E+00
    0.33306E+06        -0.48030E+08         0.00000E+00
    0.00000E+00         0.00000E+00         0.00000E+00
 
    0.78592E+05         0.35072E+06         0.00000E+00
    0.35072E+06        -0.48059E+08         0.00000E+00
    0.00000E+00         0.00000E+00        -0.25370E-08
 
    0.82307E+05         0.36919E+06         0.00000E+00
    0.36919E+06        -0.48090E+08         0.00000E+00
    0.00000E+00         0.00000E+00        -0.25370E-08
 
    0.86163E+05         0.38851E+06         0.00000E+00
    0.38851E+06        -0.48123E+08         0.00000E+00
    0.00000E+00         0.00000E+00         0.00000E+00
 
    0.90159E+05         0.40870E+06         0.00000E+00
    0.40870E+06        -0.48157E+08         0.00000E+00
    0.00000E+00         0.00000E+00         0.17759E-07
 
    0.94293E+05         0.42980E+06         0.00000E+00
    0.42980E+06        -0.48194E+08         0.00000E+00
    0.00000E+00         0.00000E+00         0.50741E-08
 
    0.98562E+05         0.45183E+06         0.00000E+00
    0.45183E+06        -0.48233E+08         0.00000E+00
    0.00000E+00         0.00000E+00        -0.25370E-08
 
    0.10296E+06         0.47482E+06         0.00000E+00
    0.47482E+06        -0.48274E+08         0.00000E+00
    0.00000E+00         0.00000E+00        -0.25370E-08
 
    0.10750E+06         0.49880E+06         0.00000E+00
    0.49880E+06        -0.48318E+08         0.00000E+00
    0.00000E+00         0.00000E+00         0.20296E-07
 
    0.11215E+06         0.52380E+06         0.00000E+00
    0.52380E+06        -0.48364E+08         0.00000E+00
    0.00000E+00         0.00000E+00         0.50741E-08
 
    0.11693E+06         0.54984E+06         0.00000E+00
    0.54984E+06        -0.48412E+08         0.00000E+00
    0.00000E+00         0.00000E+00         0.20296E-07
 
    0.12182E+06         0.57694E+06         0.00000E+00
    0.57694E+06        -0.48464E+08         0.00000E+00
    0.00000E+00         0.00000E+00         0.25370E-08
 
    0.12682E+06         0.60513E+06         0.00000E+00
    0.60513E+06        -0.48519E+08         0.00000E+00
    0.00000E+00         0.00000E+00         0.25370E-08
 
    0.13191E+06         0.63441E+06         0.00000E+00
    0.63441E+06        -0.48577E+08         0.00000E+00
    0.00000E+00         0.00000E+00         0.50741E-08
 
    0.13710E+06         0.66482E+06         0.00000E+00
    0.66482E+06        -0.48638E+08         0.00000E+00
    0.00000E+00         0.00000E+00        -0.10148E-07
 
    0.14236E+06         0.69636E+06         0.00000E+00
    0.69636E+06        -0.48703E+08         0.00000E+00
    0.00000E+00         0.00000E+00         0.12685E-07
 
    0.14768E+06         0.72904E+06         0.00000E+00
    0.72904E+06        -0.48771E+08         0.00000E+00
    0.00000E+00         0.00000E+00        -0.25370E-08
 
    0.15306E+06         0.76288E+06         0.00000E+00
    0.76288E+06        -0.48844E+08         0.00000E+00
    0.00000E+00         0.00000E+00         0.76111E-08
 
    0.15847E+06         0.79786E+06         0.00000E+00
    0.79786E+06        -0.48921E+08         0.00000E+00
    0.00000E+00         0.00000E+00        -0.25370E-08
 
    0.16389E+06         0.83400E+06         0.00000E+00
    0.83400E+06        -0.49002E+08         0.00000E+00
    0.00000E+00         0.00000E+00        -0.50741E-08
 
    0.16930E+06         0.87128E+06         0.00000E+00
    0.87128E+06        -0.49087E+08         0.00000E+00
    0.00000E+00         0.00000E+00         0.00000E+00
 
    0.17468E+06         0.90969E+06         0.00000E+00
    0.90969E+06        -0.49177E+08         0.00000E+00
    0.00000E+00         0.00000E+00         0.25370E-08
 
    0.18001E+06         0.94921E+06         0.00000E+00
    0.94921E+06        -0.49273E+08         0.00000E+00
    0.00000E+00         0.00000E+00         0.25370E-08
 
    0.18524E+06         0.98982E+06         0.00000E+00
    0.98982E+06        -0.49373E+08         0.00000E+00
    0.00000E+00         0.00000E+00         0.50741E-08
 
    0.19035E+06         0.10315E+07         0.00000E+00
    0.10315E+07        -0.49479E+08         0.00000E+00
    0.00000E+00         0.00000E+00         0.00000E+00
 
    0.19530E+06         0.10741E+07         0.00000E+00
    0.10741E+07        -0.49591E+08         0.00000E+00
    0.00000E+00         0.00000E+00         0.50741E-08
 
    0.20005E+06         0.11177E+07         0.00000E+00
    0.11177E+07        -0.49709E+08         0.00000E+00
    0.00000E+00         0.00000E+00        -0.10148E-07
 
    0.20455E+06         0.11622E+07         0.00000E+00
    0.11622E+07        -0.49834E+08         0.00000E+00
    0.00000E+00         0.00000E+00         0.25370E-08
 
    0.20875E+06         0.12076E+07         0.00000E+00
    0.12076E+07        -0.49965E+08         0.00000E+00
    0.00000E+00         0.00000E+00         0.76111E-08
 
    0.21260E+06         0.12536E+07         0.00000E+00
    0.12536E+07        -0.50102E+08         0.00000E+00
    0.00000E+00         0.00000E+00        -0.17759E-07
 
    0.21603E+06         0.13002E+07         0.00000E+00
    0.13002E+07        -0.50248E+08         0.00000E+00
    0.00000E+00         0.00000E+00         0.10148E-07
 
    0.21898E+06         0.13474E+07         0.00000E+00
    0.13474E+07        -0.50400E+08         0.00000E+00
    0.00000E+00         0.00000E+00         0.22834E-07
 
    0.22138E+06         0.13949E+07         0.00000E+00
    0.13949E+07        -0.50561E+08         0.00000E+00
    0.00000E+00         0.00000E+00        -0.50732E-08
 
    0.22313E+06         0.14426E+07         0.00000E+00
    0.14426E+07        -0.50729E+08         0.00000E+00
    0.00000E+00         0.00000E+00         0.12685E-07
 
    0.22416E+06         0.14903E+07         0.00000E+00
    0.14903E+07        -0.50907E+08         0.00000E+00
    0.00000E+00         0.00000E+00        -0.25366E-08
 
    0.22437E+06         0.15378E+07         0.00000E+00
    0.15378E+07        -0.51093E+08         0.00000E+00
    0.00000E+00         0.00000E+00         0.00000E+00
 
    0.22365E+06         0.15850E+07         0.00000E+00
    0.15850E+07        -0.51288E+08         0.00000E+00
    0.00000E+00         0.00000E+00        -0.15222E-07
 
    0.22190E+06         0.16315E+07         0.00000E+00
    0.16315E+07        -0.51493E+08         0.00000E+00
    0.00000E+00         0.00000E+00         0.00000E+00
 
    0.21899E+06         0.16770E+07         0.00000E+00
    0.16770E+07        -0.51708E+08         0.00000E+00
    0.00000E+00         0.00000E+00         0.15222E-07
 
    0.21478E+06         0.17213E+07         0.00000E+00
    0.17213E+07        -0.51933E+08         0.00000E+00
    0.00000E+00         0.00000E+00        -0.15221E-07
 
    0.20916E+06         0.17640E+07         0.00000E+00
    0.17640E+07        -0.52169E+08         0.00000E+00
    0.00000E+00         0.00000E+00         0.00000E+00
 
    0.20196E+06         0.18047E+07         0.00000E+00
    0.18047E+07        -0.52417E+08         0.00000E+00
    0.00000E+00         0.00000E+00        -0.76107E-08
 
    0.19303E+06         0.18430E+07         0.00000E+00
    0.18430E+07        -0.52675E+08         0.00000E+00
    0.00000E+00         0.00000E+00         0.00000E+00
 
    0.18221E+06         0.18784E+07         0.00000E+00
    0.18784E+07        -0.52946E+08         0.00000E+00
    0.00000E+00         0.00000E+00         0.17759E-07
 
    0.16934E+06         0.19105E+07         0.00000E+00
    0.19105E+07        -0.53229E+08         0.00000E+00
    0.00000E+00         0.00000E+00         0.12685E-07
 
    0.15424E+06         0.19387E+07         0.00000E+00
    0.19387E+07        -0.53525E+08         0.00000E+00
    0.00000E+00         0.00000E+00         0.10149E-07
 
    0.13675E+06         0.19624E+07         0.00000E+00
    0.19624E+07        -0.53834E+08         0.00000E+00
    0.00000E+00         0.00000E+00        -0.15222E-07
 
    0.11669E+06         0.19810E+07         0.00000E+00
    0.19810E+07        -0.54156E+08         0.00000E+00
    0.00000E+00         0.00000E+00         0.50732E-08
 
    0.93919E+05         0.19939E+07         0.00000E+00
    0.19939E+07        -0.54492E+08         0.00000E+00
    0.00000E+00         0.00000E+00         0.50732E-08
 
    0.68275E+05         0.20003E+07         0.00000E+00
    0.20003E+07        -0.54842E+08         0.00000E+00
    0.00000E+00         0.00000E+00        -0.76107E-08
 
    0.39632E+05         0.19996E+07         0.00000E+00
    0.19996E+07        -0.55207E+08         0.00000E+00
    0.00000E+00         0.00000E+00         0.50750E-08
 
    0.78808E+04         0.19910E+07         0.00000E+00
    0.19910E+07        -0.55586E+08         0.00000E+00
    0.00000E+00         0.00000E+00         0.10148E-07
 
   -0.27060E+05         0.19738E+07         0.00000E+00
    0.19738E+07        -0.55979E+08         0.00000E+00
    0.00000E+00         0.00000E+00         0.12686E-07
 
   -0.65242E+05         0.19473E+07         0.00000E+00
    0.19473E+07        -0.56387E+08         0.00000E+00
    0.00000E+00         0.00000E+00        -0.50732E-08
 
   -0.10669E+06         0.19108E+07         0.00000E+00
    0.19108E+07        -0.56808E+08         0.00000E+00
    0.00000E+00         0.00000E+00         0.12684E-07
 
   -0.15140E+06         0.18636E+07         0.00000E+00
    0.18636E+07        -0.57242E+08         0.00000E+00
    0.00000E+00         0.00000E+00        -0.12684E-07
 
   -0.19937E+06         0.18053E+07         0.00000E+00
    0.18053E+07        -0.57689E+08         0.00000E+00
    0.00000E+00         0.00000E+00         0.25375E-08
 
   -0.25063E+06         0.17353E+07         0.00000E+00
    0.17353E+07        -0.58145E+08         0.00000E+00
    0.00000E+00         0.00000E+00        -0.50732E-08
 
   -0.30532E+06         0.16533E+07         0.00000E+00
    0.16533E+07        -0.58608E+08         0.00000E+00
    0.00000E+00         0.00000E+00        -0.25375E-08
 
   -0.36379E+06         0.15591E+07         0.00000E+00
    0.15591E+07        -0.59076E+08         0.00000E+00
    0.00000E+00         0.00000E+00         0.10148E-07
 
   -0.42676E+06         0.14526E+07         0.00000E+00
    0.14526E+07        -0.59543E+08         0.00000E+00
    0.00000E+00         0.00000E+00        -0.15225E-07
 
   -0.49562E+06         0.13337E+07         0.00000E+00
    0.13337E+07        -0.60003E+08         0.00000E+00
    0.00000E+00         0.00000E+00        -0.76125E-08
 
   -0.57280E+06         0.12023E+07         0.00000E+00
    0.12023E+07        -0.60448E+08         0.00000E+00
    0.00000E+00         0.00000E+00         0.00000E+00
 
   -0.66236E+06         0.10578E+07         0.00000E+00
    0.10578E+07        -0.60867E+08         0.00000E+00
    0.00000E+00         0.00000E+00         0.76116E-08
 
   -0.77086E+06         0.89926E+06         0.00000E+00
    0.89926E+06        -0.61249E+08         0.00000E+00
    0.00000E+00         0.00000E+00        -0.50750E-08
 
   -0.90863E+06         0.72475E+06         0.00000E+00
    0.72475E+06        -0.61579E+08         0.00000E+00
    0.00000E+00         0.00000E+00         0.22832E-07
 
   -0.10918E+07         0.53258E+06         0.00000E+00
    0.53258E+06        -0.61839E+08         0.00000E+00
    0.00000E+00         0.00000E+00         0.50745E-08
 
   -0.13433E+07         0.32484E+06         0.00000E+00
    0.32484E+06        -0.62015E+08         0.00000E+00
    0.00000E+00         0.00000E+00        -0.76106E-08
 
   -0.16867E+07         0.10887E+06         0.00000E+00
    0.10887E+06        -0.62101E+08         0.00000E+00
    0.00000E+00         0.00000E+00        -0.45667E-07
 
    0.57832E+05         0.43925E+04         0.00000E+00
    0.43925E+04        -0.47589E+08         0.00000E+00
    0.00000E+00         0.00000E+00         0.28422E-13
 
    0.50948E+05         0.13184E+05         0.00000E+00
    0.13184E+05        -0.47590E+08         0.00000E+00
    0.00000E+00         0.00000E+00        -0.50741E-08
 
    0.46057E+05         0.21935E+05         0.00000E+00
    0.21935E+05        -0.47594E+08         0.00000E+00
    0.00000E+00         0.00000E+00         0.10148E-07
 
    0.42722E+05         0.30552E+05         0.00000E+00
    0.30552E+05        -0.47599E+08         0.00000E+00
    0.00000E+00         0.00000E+00         0.25370E-08
 
    0.40497E+05         0.39007E+05         0.00000E+00
    0.39007E+05        -0.47606E+08         0.00000E+00
    0.00000E+00         0.00000E+00         0.76111E-08
 
    0.39042E+05         0.47337E+05         0.00000E+00
    0.47337E+05        -0.47614E+08         0.00000E+00
    0.00000E+00         0.00000E+00        -0.20296E-07
 
    0.38131E+05         0.55590E+05         0.00000E+00
    0.55590E+05        -0.47623E+08         0.00000E+00
    0.00000E+00         0.00000E+00        -0.12685E-07
 
    0.37616E+05         0.63803E+05         0.00000E+00
    0.63803E+05        -0.47633E+08         0.00000E+00
    0.00000E+00         0.00000E+00        -0.76111E-08
 
    0.37402E+05         0.72005E+05         0.00000E+00
    0.72005E+05        -0.47643E+08         0.00000E+00
    0.00000E+00         0.00000E+00        -0.17759E-07
 
    0.37433E+05         0.80218E+05         0.00000E+00
    0.80218E+05        -0.47654E+08         0.00000E+00
    0.00000E+00         0.00000E+00        -0.25370E-08
 
    0.37674E+05         0.88466E+05         0.00000E+00
    0.88466E+05        -0.47665E+08         0.00000E+00
    0.00000E+00         0.00000E+00        -0.15222E-07
 
    0.38107E+05         0.96774E+05         0.00000E+00
    0.96774E+05        -0.47676E+08         0.00000E+00
    0.00000E+00         0.00000E+00        -0.25370E-08
 
    0.38720E+05         0.10517E+06         0.00000E+00
    0.10517E+06        -0.47688E+08         0.00000E+00
    0.00000E+00         0.00000E+00        -0.50741E-08
 
    0.39508E+05         0.11368E+06         0.00000E+00
    0.11368E+06        -0.47700E+08         0.00000E+00
    0.00000E+00         0.00000E+00         0.50741E-08
 
    0.40470E+05         0.12234E+06         0.00000E+00
    0.12234E+06        -0.47713E+08         0.00000E+00
    0.00000E+00         0.00000E+00        -0.25370E-08
 
    0.41603E+05         0.13117E+06         0.00000E+00
    0.13117E+06        -0.47726E+08         0.00000E+00
    0.00000E+00         0.00000E+00        -0.25370E-08
 
    0.42908E+05         0.14023E+06         0.00000E+00
    0.14023E+06        -0.47739E+08         0.00000E+00
    0.00000E+00         0.00000E+00        -0.20296E-07
 
    0.44384E+05         0.14953E+06         0.00000E+00
    0.14953E+06        -0.47753E+08         0.00000E+00
    0.00000E+00         0.00000E+00         0.50741E-08
 
    0.46031E+05         0.15912E+06         0.00000E+00
    0.15912E+06        -0.47767E+08         0.00000E+00
    0.00000E+00         0.00000E+00        -0.25370E-08
 
    0.47846E+05         0.16904E+06         0.00000E+00
    0.16904E+06        -0.47782E+08         0.00000E+00
    0.00000E+00         0.00000E+00         0.00000E+00
 
    0.49831E+05         0.17931E+06         0.00000E+00
    0.17931E+06        -0.47798E+08         0.00000E+00
    0.00000E+00         0.00000E+00         0.00000E+00
 
    0.51983E+05         0.18998E+06         0.00000E+00
    0.18998E+06        -0.47814E+08         0.00000E+00
    0.00000E+00         0.00000E+00         0.50741E-08
 
    0.54301E+05         0.20108E+06         0.00000E+00
    0.20108E+06        -0.47831E+08         0.00000E+00
    0.00000E+00         0.00000E+00         0.00000E+00
 
    0.56784E+05         0.21264E+06         0.00000E+00
    0.21264E+06        -0.47849E+08         0.00000E+00
    0.00000E+00         0.00000E+00        -0.25370E-08
 
    0.59431E+05         0.22471E+06         0.00000E+00
    0.22471E+06        -0.47868E+08         0.00000E+00
    0.00000E+00         0.00000E+00        -0.25370E-08
 
    0.62241E+05         0.23731E+06         0.00000E+00
    0.23731E+06        -0.47888E+08         0.00000E+00
    0.00000E+00         0.00000E+00         0.50741E-08
 
    0.65214E+05         0.25048E+06         0.00000E+00
    0.25048E+06        -0.47909E+08         0.00000E+00
    0.00000E+00         0.00000E+00         0.00000E+00
 
    0.68347E+05         0.26425E+06         0.00000E+00
    0.26425E+06        -0.47931E+08         0.00000E+00
    0.00000E+00         0.00000E+00        -0.50741E-08
 
    0.71641E+05         0.27866E+06         0.00000E+00
    0.27866E+06        -0.47955E+08         0.00000E+00
    0.00000E+00         0.00000E+00        -0.25369E-08
 
    0.75095E+05         0.29374E+06         0.00000E+00
    0.29374E+06        -0.47980E+08         0.00000E+00
    0.00000E+00         0.00000E+00        -0.25370E-08
 
    0.78708E+05         0.30952E+06         0.00000E+00
    0.30952E+06        -0.48006E+08         0.00000E+00
    0.00000E+00         0.00000E+00        -0.76111E-08
 
    0.82479E+05         0.32602E+06         0.00000E+00
    0.32602E+06        -0.48033E+08         0.00000E+00
    0.00000E+00         0.00000E+00        -0.25370E-08
 
    0.86408E+05         0.34330E+06         0.00000E+00
    0.34330E+06        -0.48063E+08         0.00000E+00
    0.00000E+00         0.00000E+00         0.15222E-07
 
    0.90493E+05         0.36136E+06         0.00000E+00
    0.36136E+06        -0.48094E+08         0.00000E+00
    0.00000E+00         0.00000E+00        -0.76111E-08
 
    0.94734E+05         0.38025E+06         0.00000E+00
    0.38025E+06        -0.48127E+08         0.00000E+00
    0.00000E+00         0.00000E+00         0.10148E-07
 
    0.99128E+05         0.39999E+06         0.00000E+00
    0.39999E+06        -0.48161E+08         0.00000E+00
    0.00000E+00         0.00000E+00        -0.20296E-07
 
    0.10367E+06         0.42061E+06         0.00000E+00
    0.42061E+06        -0.48198E+08         0.00000E+00
    0.00000E+00         0.00000E+00        -0.12685E-07
 
    0.10837E+06         0.44215E+06         0.00000E+00
    0.44215E+06        -0.48237E+08         0.00000E+00
    0.00000E+00         0.00000E+00         0.25370E-08
 
    0.11321E+06         0.46462E+06         0.00000E+00
    0.46462E+06        -0.48279E+08         0.00000E+00
    0.00000E+00         0.00000E+00        -0.76111E-08
 
    0.11820E+06         0.48806E+06         0.00000E+00
    0.48806E+06        -0.48322E+08         0.00000E+00
    0.00000E+00         0.00000E+00        -0.76111E-08
 
    0.12332E+06         0.51249E+06         0.00000E+00
    0.51249E+06        -0.48369E+08         0.00000E+00
    0.00000E+00         0.00000E+00         0.25370E-08
 
    0.12857E+06         0.53793E+06         0.00000E+00
    0.53793E+06        -0.48418E+08         0.00000E+00
    0.00000E+00         0.00000E+00         0.15222E-07
 
    0.13395E+06         0.56440E+06         0.00000E+00
    0.56440E+06        -0.48470E+08         0.00000E+00
    0.00000E+00         0.00000E+00         0.10148E-07
 
    0.13944E+06         0.59193E+06         0.00000E+00
    0.59193E+06        -0.48525E+08         0.00000E+00
    0.00000E+00         0.00000E+00         0.12685E-07
 
    0.14505E+06         0.62054E+06         0.00000E+00
    0.62054E+06        -0.48583E+08         0.00000E+00
    0.00000E+00         0.00000E+00        -0.10148E-07
 
    0.15075E+06         0.65023E+06         0.00000E+00
    0.65023E+06        -0.48644E+08         0.00000E+00
    0.00000E+00         0.00000E+00        -0.50741E-08
 
    0.15654E+06         0.68102E+06         0.00000E+00
    0.68102E+06        -0.48709E+08         0.00000E+00
    0.00000E+00         0.00000E+00        -0.25370E-08
 
    0.16240E+06         0.71293E+06         0.00000E+00
    0.71293E+06        -0.48778E+08         0.00000E+00
    0.00000E+00         0.00000E+00        -0.50741E-08
 
    0.16831E+06         0.74595E+06         0.00000E+00
    0.74595E+06        -0.48851E+08         0.00000E+00
    0.00000E+00         0.00000E+00        -0.10148E-07
 
    0.17426E+06         0.78009E+06         0.00000E+00
    0.78009E+06        -0.48928E+08         0.00000E+00
    0.00000E+00         0.00000E+00         0.10148E-07
 
    0.18022E+06         0.81535E+06         0.00000E+00
    0.81535E+06        -0.49009E+08         0.00000E+00
    0.00000E+00         0.00000E+00        -0.25370E-08
 
    0.18618E+06         0.85172E+06         0.00000E+00
    0.85172E+06        -0.49095E+08         0.00000E+00
    0.00000E+00         0.00000E+00        -0.10148E-07
 
    0.19210E+06         0.88918E+06         0.00000E+00
    0.88918E+06        -0.49185E+08         0.00000E+00
    0.00000E+00         0.00000E+00        -0.50741E-08
 
    0.19795E+06         0.92772E+06         0.00000E+00
    0.92772E+06        -0.49281E+08         0.00000E+00
    0.00000E+00         0.00000E+00        -0.12685E-07
 
    0.20371E+06         0.96731E+06         0.00000E+00
    0.96731E+06        -0.49381E+08         0.00000E+00
    0.00000E+00         0.00000E+00         0.25370E-08
 
    0.20934E+06         0.10079E+07         0.00000E+00
    0.10079E+07        -0.49488E+08         0.00000E+00
    0.00000E+00         0.00000E+00        -0.10148E-07
 
    0.21478E+06         0.10495E+07         0.00000E+00
    0.10495E+07        -0.49600E+08         0.00000E+00
    0.00000E+00         0.00000E+00         0.00000E+00
 
    0.22001E+06         0.10920E+07         0.00000E+00
    0.10920E+07        -0.49718E+08         0.00000E+00
    0.00000E+00         0.00000E+00         0.00000E+00
 
    0.22496E+06         0.11353E+07         0.00000E+00
    0.11353E+07        -0.49843E+08         0.00000E+00
    0.00000E+00         0.00000E+00         0.50741E-08
 
    0.22959E+06         0.11794E+07         0.00000E+00
    0.11794E+07        -0.49974E+08         0.00000E+00
    0.00000E+00         0.00000E+00        -0.25370E-08
 
    0.23383E+06         0.12242E+07         0.00000E+00
    0.12242E+07        -0.50112E+08         0.00000E+00
    0.00000E+00         0.00000E+00         0.50741E-08
 
    0.23761E+06         0.12696E+07         0.00000E+00
    0.12696E+07        -0.50257E+08         0.00000E+00
    0.00000E+00         0.00000E+00         0.00000E+00
 
    0.24086E+06         0.13154E+07         0.00000E+00
    0.13154E+07        -0.50410E+08         0.00000E+00
    0.00000E+00         0.00000E+00         0.00000E+00
 
    0.24350E+06         0.13616E+07         0.00000E+00
    0.13616E+07        -0.50570E+08         0.00000E+00
    0.00000E+00         0.00000E+00         0.25366E-08
 
    0.24544E+06         0.14079E+07         0.00000E+00
    0.14079E+07        -0.50739E+08         0.00000E+00
    0.00000E+00         0.00000E+00        -0.76116E-08
 
    0.24659E+06         0.14543E+07         0.00000E+00
    0.14543E+07        -0.50916E+08         0.00000E+00
    0.00000E+00         0.00000E+00        -0.12686E-07
 
    0.24683E+06         0.15004E+07         0.00000E+00
    0.15004E+07        -0.51102E+08         0.00000E+00
    0.00000E+00         0.00000E+00        -0.76107E-08
 
    0.24605E+06         0.15461E+07         0.00000E+00
    0.15461E+07        -0.51297E+08         0.00000E+00
    0.00000E+00         0.00000E+00         0.50741E-08
 
    0.24414E+06         0.15911E+07         0.00000E+00
    0.15911E+07        -0.51502E+08         0.00000E+00
    0.00000E+00         0.00000E+00         0.50750E-08
 
    0.24095E+06         0.16352E+07         0.00000E+00
    0.16352E+07        -0.51717E+08         0.00000E+00
    0.00000E+00         0.00000E+00         0.10148E-07
 
    0.23635E+06         0.16780E+07         0.00000E+00
    0.16780E+07        -0.51942E+08         0.00000E+00
    0.00000E+00         0.00000E+00         0.50732E-08
 
    0.23018E+06         0.17192E+07         0.00000E+00
    0.17192E+07        -0.52178E+08         0.00000E+00
    0.00000E+00         0.00000E+00        -0.22834E-07
 
    0.22227E+06         0.17584E+07         0.00000E+00
    0.17584E+07        -0.52424E+08         0.00000E+00
    0.00000E+00         0.00000E+00         0.76116E-08
 
    0.21247E+06         0.17952E+07         0.00000E+00
    0.17952E+07        -0.52683E+08         0.00000E+00
    0.00000E+00         0.00000E+00         0.12686E-07
 
    0.20059E+06         0.18291E+07         0.00000E+00
    0.18291E+07        -0.52953E+08         0.00000E+00
    0.00000E+00         0.00000E+00         0.25366E-08
 
    0.18644E+06         0.18597E+07         0.00000E+00
    0.18597E+07        -0.53235E+08         0.00000E+00
    0.00000E+00         0.00000E+00         0.25366E-08
 
    0.16985E+06         0.18864E+07         0.00000E+00
    0.18864E+07        -0.53530E+08         0.00000E+00
    0.00000E+00         0.00000E+00         0.10148E-07
 
    0.15061E+06         0.19086E+07         0.00000E+00
    0.19086E+07        -0.53838E+08         0.00000E+00
    0.00000E+00         0.00000E+00        -0.20296E-07
 
    0.12854E+06         0.19258E+07         0.00000E+00
    0.19258E+07        -0.54159E+08         0.00000E+00
    0.00000E+00         0.00000E+00        -0.50741E-08
 
    0.10346E+06         0.19372E+07         0.00000E+00
    0.19372E+07        -0.54494E+08         0.00000E+00
    0.00000E+00         0.00000E+00        -0.25375E-08
 
    0.75210E+05         0.19423E+07         0.00000E+00
    0.19423E+07        -0.54843E+08         0.00000E+00
    0.00000E+00         0.00000E+00        -0.22832E-07
 
    0.43627E+05         0.19402E+07         0.00000E+00
    0.19402E+07        -0.55206E+08         0.00000E+00
    0.00000E+00         0.00000E+00         0.20296E-07
 
    0.85863E+04         0.19303E+07         0.00000E+00
    0.19303E+07        -0.55583E+08         0.00000E+00
    0.00000E+00         0.00000E+00         0.00000E+00
 
   -0.30012E+05         0.19118E+07         0.00000E+00
    0.19118E+07        -0.55974E+08         0.00000E+00
    0.00000E+00         0.00000E+00         0.76107E-08
 
   -0.72236E+05         0.18840E+07         0.00000E+00
    0.18840E+07        -0.56380E+08         0.00000E+00
    0.00000E+00         0.00000E+00        -0.50750E-08
 
   -0.11813E+06         0.18463E+07         0.00000E+00
    0.18463E+07        -0.56799E+08         0.00000E+00
    0.00000E+00         0.00000E+00        -0.25375E-08
 
   -0.16770E+06         0.17979E+07         0.00000E+00
    0.17979E+07        -0.57232E+08         0.00000E+00
    0.00000E+00         0.00000E+00        -0.27907E-07
 
   -0.22096E+06         0.17385E+07         0.00000E+00
    0.17385E+07        -0.57676E+08         0.00000E+00
    0.00000E+00         0.00000E+00        -0.17759E-07
 
   -0.27797E+06         0.16674E+07         0.00000E+00
    0.16674E+07        -0.58129E+08         0.00000E+00
    0.00000E+00         0.00000E+00        -0.76107E-08
 
   -0.33888E+06         0.15846E+07         0.00000E+00
    0.15846E+07        -0.58591E+08         0.00000E+00
    0.00000E+00         0.00000E+00         0.25375E-08
 
   -0.40405E+06         0.14897E+07         0.00000E+00
    0.14897E+07        -0.59056E+08         0.00000E+00
    0.00000E+00         0.00000E+00         0.76088E-08
 
   -0.47427E+06         0.13828E+07         0.00000E+00
    0.13828E+07        -0.59520E+08         0.00000E+00
    0.00000E+00         0.00000E+00         0.10148E-07
 
   -0.55099E+06         0.12640E+07         0.00000E+00
    0.12640E+07        -0.59978E+08         0.00000E+00
    0.00000E+00         0.00000E+00         0.25371E-07
 
   -0.63676E+06         0.11334E+07         0.00000E+00
    0.11334E+07        -0.60420E+08         0.00000E+00
    0.00000E+00         0.00000E+00        -0.50732E-08
 
   -0.73584E+06         0.99104E+06         0.00000E+00
    0.99104E+06        -0.60837E+08         0.00000E+00
    0.00000E+00         0.00000E+00        -0.32983E-07
 
   -0.85503E+06         0.83637E+06         0.00000E+00
    0.83637E+06        -0.61217E+08         0.00000E+00
    0.00000E+00         0.00000E+00         0.00000E+00
 
   -0.10049E+07         0.66849E+06         0.00000E+00
    0.66849E+06        -0.61543E+08         0.00000E+00
    0.00000E+00         0.00000E+00        -0.50750E-08
 
   -0.12014E+07         0.48707E+06         0.00000E+00
    0.48707E+06        -0.61800E+08         0.00000E+00
    0.00000E+00         0.00000E+00         0.00000E+00
 
   -0.14652E+07         0.29500E+06         0.00000E+00
    0.29500E+06        -0.61974E+08         0.00000E+00
    0.00000E+00         0.00000E+00        -0.76107E-08
 
   -0.18164E+07         0.98493E+05         0.00000E+00
    0.98493E+05        -0.62059E+08         0.00000E+00
    0.00000E+00         0.00000E+00         0.00000E+00
 
    0.62262E+05         0.41672E+04         0.00000E+00
    0.41672E+04        -0.47590E+08         0.00000E+00
    0.00000E+00         0.00000E+00        -0.10148E-07
 
    0.55264E+05         0.12528E+05         0.00000E+00
    0.12528E+05        -0.47592E+08         0.00000E+00
    0.00000E+00         0.00000E+00        -0.10148E-07
 
    0.50191E+05         0.20908E+05         0.00000E+00
    0.20908E+05        -0.47596E+08         0.00000E+00
    0.00000E+00         0.00000E+00         0.76111E-08
 
    0.46664E+05         0.29237E+05         0.00000E+00
    0.29237E+05        -0.47601E+08         0.00000E+00
    0.00000E+00         0.00000E+00        -0.25370E-08
 
    0.44274E+05         0.37476E+05         0.00000E+00
    0.37476E+05        -0.47608E+08         0.00000E+00
    0.00000E+00         0.00000E+00         0.25370E-08
 
    0.42691E+05         0.45639E+05         0.00000E+00
    0.45639E+05        -0.47616E+08         0.00000E+00
    0.00000E+00         0.00000E+00         0.17759E-07
 
    0.41683E+05         0.53754E+05         0.00000E+00
    0.53754E+05        -0.47625E+08         0.00000E+00
    0.00000E+00         0.00000E+00        -0.15222E-07
 
    0.41100E+05         0.61846E+05         0.00000E+00
    0.61846E+05        -0.47635E+08         0.00000E+00
    0.00000E+00         0.00000E+00        -0.50741E-08
 
    0.40844E+05         0.69933E+05         0.00000E+00
    0.69933E+05        -0.47645E+08         0.00000E+00
    0.00000E+00         0.00000E+00        -0.50740E-08
 
    0.40855E+05         0.78033E+05         0.00000E+00
    0.78033E+05        -0.47656E+08         0.00000E+00
    0.00000E+00         0.00000E+00         0.00000E+00
 
    0.41098E+05         0.86165E+05         0.00000E+00
    0.86165E+05        -0.47667E+08         0.00000E+00
    0.00000E+00         0.00000E+00        -0.50741E-08
 
    0.41552E+05         0.94351E+05         0.00000E+00
    0.94351E+05        -0.47678E+08         0.00000E+00
    0.00000E+00         0.00000E+00        -0.50741E-08
 
    0.42206E+05         0.10262E+06         0.00000E+00
    0.10262E+06        -0.47690E+08         0.00000E+00
    0.00000E+00         0.00000E+00         0.12685E-07
 
    0.43054E+05         0.11099E+06         0.00000E+00
    0.11099E+06        -0.47702E+08         0.00000E+00
    0.00000E+00         0.00000E+00        -0.25370E-08
 
    0.44093E+05         0.11950E+06         0.00000E+00
    0.11950E+06        -0.47715E+08         0.00000E+00
    0.00000E+00         0.00000E+00         0.12685E-07
 
    0.45321E+05         0.12818E+06         0.00000E+00
    0.12818E+06        -0.47728E+08         0.00000E+00
    0.00000E+00         0.00000E+00         0.10148E-07
 
    0.46738E+05         0.13707E+06         0.00000E+00
    0.13707E+06        -0.47741E+08         0.00000E+00
    0.00000E+00         0.00000E+00         0.25370E-08
 
    0.48343E+05         0.14620E+06         0.00000E+00
    0.14620E+06        -0.47755E+08         0.00000E+00
    0.00000E+00         0.00000E+00         0.50741E-08
 
    0.50135E+05         0.15561E+06         0.00000E+00
    0.15561E+06        -0.47769E+08         0.00000E+00
    0.00000E+00         0.00000E+00         0.76111E-08
 
    0.52112E+05         0.16533E+06         0.00000E+00
    0.16533E+06        -0.47784E+08         0.00000E+00
    0.00000E+00         0.00000E+00        -0.25370E-08
 
    0.54274E+05         0.17539E+06         0.00000E+00
    0.17539E+06        -0.47800E+08         0.00000E+00
    0.00000E+00         0.00000E+00        -0.17759E-07
 
    0.56618E+05         0.18584E+06         0.00000E+00
    0.18584E+06        -0.47816E+08         0.00000E+00
    0.00000E+00         0.00000E+00        -0.32981E-07
 
    0.59144E+05         0.19671E+06         0.00000E+00
    0.19671E+06        -0.47834E+08         0.00000E+00
    0.00000E+00         0.00000E+00        -0.12685E-07
 
    0.61850E+05         0.20803E+06         0.00000E+00
    0.20803E+06        -0.47852E+08         0.00000E+00
    0.00000E+00         0.00000E+00         0.00000E+00
 
    0.64734E+05         0.21984E+06         0.00000E+00
    0.21984E+06        -0.47871E+08         0.00000E+00
    0.00000E+00         0.00000E+00         0.25370E-08
 
    0.67797E+05         0.23217E+06         0.00000E+00
    0.23217E+06        -0.47891E+08         0.00000E+00
    0.00000E+00         0.00000E+00         0.76111E-08
 
    0.71036E+05         0.24505E+06         0.00000E+00
    0.24505E+06        -0.47912E+08         0.00000E+00
    0.00000E+00         0.00000E+00        -0.76111E-08
 
    0.74451E+05         0.25852E+06         0.00000E+00
    0.25852E+06        -0.47934E+08         0.00000E+00
    0.00000E+00         0.00000E+00        -0.10148E-07
 
    0.78041E+05         0.27261E+06         0.00000E+00
    0.27261E+06        -0.47958E+08         0.00000E+00
    0.00000E+00         0.00000E+00        -0.50741E-08
 
    0.81804E+05         0.28736E+06         0.00000E+00
    0.28736E+06        -0.47983E+08         0.00000E+00
    0.00000E+00         0.00000E+00         0.15222E-07
 
    0.85742E+05         0.30278E+06         0.00000E+00
    0.30278E+06        -0.48009E+08         0.00000E+00
    0.00000E+00         0.00000E+00         0.12685E-07
 
    0.89851E+05         0.31892E+06         0.00000E+00
    0.31892E+06        -0.48037E+08         0.00000E+00
    0.00000E+00         0.00000E+00         0.17759E-07
 
    0.94133E+05         0.33580E+06         0.00000E+00
    0.33580E+06        -0.48066E+08         0.00000E+00
    0.00000E+00         0.00000E+00        -0.76111E-08
 
    0.98585E+05         0.35345E+06         0.00000E+00
    0.35345E+06        -0.48097E+08         0.00000E+00
    0.00000E+00         0.00000E+00        -0.17759E-07
 
    0.10321E+06         0.37191E+06         0.00000E+00
    0.37191E+06        -0.48130E+08         0.00000E+00
    0.00000E+00         0.00000E+00        -0.15222E-07
 
    0.10799E+06         0.39120E+06         0.00000E+00
    0.39120E+06        -0.48165E+08         0.00000E+00
    0.00000E+00         0.00000E+00         0.25370E-08
 
    0.11295E+06         0.41135E+06         0.00000E+00
    0.41135E+06        -0.48202E+08         0.00000E+00
    0.00000E+00         0.00000E+00        -0.15222E-07
 
    0.11807E+06         0.43239E+06         0.00000E+00
    0.43239E+06        -0.48242E+08         0.00000E+00
    0.00000E+00         0.00000E+00        -0.25370E-08
 
    0.12334E+06         0.45434E+06         0.00000E+00
    0.45434E+06        -0.48283E+08         0.00000E+00
    0.00000E+00         0.00000E+00        -0.76111E-08
 
    0.12877E+06         0.47723E+06         0.00000E+00
    0.47723E+06        -0.48327E+08         0.00000E+00
    0.00000E+00         0.00000E+00        -0.10148E-07
 
    0.13435E+06         0.50108E+06         0.00000E+00
    0.50108E+06        -0.48374E+08         0.00000E+00
    0.00000E+00         0.00000E+00         0.76111E-08
 
    0.14008E+06         0.52592E+06         0.00000E+00
    0.52592E+06        -0.48423E+08         0.00000E+00
    0.00000E+00         0.00000E+00        -0.15222E-07
 
    0.14594E+06         0.55176E+06         0.00000E+00
    0.55176E+06        -0.48475E+08         0.00000E+00
    0.00000E+00         0.00000E+00        -0.10148E-07
 
    0.15193E+06         0.57864E+06         0.00000E+00
    0.57864E+06        -0.48530E+08         0.00000E+00
    0.00000E+00         0.00000E+00        -0.10148E-07
 
    0.15804E+06         0.60656E+06         0.00000E+00
    0.60656E+06        -0.48588E+08         0.00000E+00
    0.00000E+00         0.00000E+00        -0.10148E-07
 
    0.16425E+06         0.63553E+06         0.00000E+00
    0.63553E+06        -0.48650E+08         0.00000E+00
    0.00000E+00         0.00000E+00         0.15222E-07
 
    0.17056E+06         0.66558E+06         0.00000E+00
    0.66558E+06        -0.48715E+08         0.00000E+00
    0.00000E+00         0.00000E+00        -0.15222E-07
 
    0.17695E+06         0.69671E+06         0.00000E+00
    0.69671E+06        -0.48784E+08         0.00000E+00
    0.00000E+00         0.00000E+00         0.25370E-08
 
    0.18339E+06         0.72892E+06         0.00000E+00
    0.72892E+06        -0.48857E+08         0.00000E+00
    0.00000E+00         0.00000E+00         0.00000E+00
 
    0.18988E+06         0.76222E+06         0.00000E+00
    0.76222E+06        -0.48934E+08         0.00000E+00
    0.00000E+00         0.00000E+00         0.00000E+00
 
    0.19638E+06         0.79660E+06         0.00000E+00
    0.79660E+06        -0.49016E+08         0.00000E+00
    0.00000E+00         0.00000E+00         0.50741E-08
 
    0.20287E+06         0.83205E+06         0.00000E+00
    0.83205E+06        -0.49102E+08         0.00000E+00
    0.00000E+00         0.00000E+00        -0.10148E-07
 
    0.20933E+06         0.86857E+06         0.00000E+00
    0.86857E+06        -0.49193E+08         0.00000E+00
    0.00000E+00         0.00000E+00         0.50741E-08
 
    0.21571E+06         0.90612E+06         0.00000E+00
    0.90612E+06        -0.49288E+08         0.00000E+00
    0.00000E+00         0.00000E+00        -0.17759E-07
 
    0.22199E+06         0.94469E+06         0.00000E+00
    0.94469E+06        -0.49389E+08         0.00000E+00
    0.00000E+00         0.00000E+00         0.00000E+00
 
    0.22812E+06         0.98424E+06         0.00000E+00
    0.98424E+06        -0.49496E+08         0.00000E+00
    0.00000E+00         0.00000E+00        -0.20296E-07
 
    0.23406E+06         0.10247E+07         0.00000E+00
    0.10247E+07        -0.49608E+08         0.00000E+00
    0.00000E+00         0.00000E+00         0.76111E-08
 
    0.23977E+06         0.10661E+07         0.00000E+00
    0.10661E+07        -0.49726E+08         0.00000E+00
    0.00000E+00         0.00000E+00         0.76111E-08
 
    0.24517E+06         0.11083E+07         0.00000E+00
    0.11083E+07        -0.49851E+08         0.00000E+00
    0.00000E+00         0.00000E+00         0.00000E+00
 
    0.25022E+06         0.11512E+07         0.00000E+00
    0.11512E+07        -0.49982E+08         0.00000E+00
    0.00000E+00         0.00000E+00        -0.25370E-08
 
    0.25485E+06         0.11947E+07         0.00000E+00
    0.11947E+07        -0.50120E+08         0.00000E+00
    0.00000E+00         0.00000E+00         0.25370E-08
 
    0.25898E+06         0.12389E+07         0.00000E+00
    0.12389E+07        -0.50266E+08         0.00000E+00
    0.00000E+00         0.00000E+00         0.25370E-08
 
    0.26253E+06         0.12834E+07         0.00000E+00
    0.12834E+07        -0.50419E+08         0.00000E+00
    0.00000E+00         0.00000E+00        -0.12686E-07
 
    0.26542E+06         0.13283E+07         0.00000E+00
    0.13283E+07        -0.50579E+08         0.00000E+00
    0.00000E+00         0.00000E+00         0.76107E-08
 
    0.26755E+06         0.13733E+07         0.00000E+00
    0.13733E+07        -0.50748E+08         0.00000E+00
    0.00000E+00         0.00000E+00        -0.25375E-08
 
    0.26881E+06         0.14182E+07         0.00000E+00
    0.14182E+07        -0.50925E+08         0.00000E+00
    0.00000E+00         0.00000E+00        -0.25366E-08
 
    0.26909E+06         0.14629E+07         0.00000E+00
    0.14629E+07        -0.51111E+08         0.00000E+00
    0.00000E+00         0.00000E+00        -0.76116E-08
 
    0.26826E+06         0.15072E+07         0.00000E+00
    0.15072E+07        -0.51306E+08         0.00000E+00
    0.00000E+00         0.00000E+00        -0.15222E-07
 
    0.26619E+06         0.15508E+07         0.00000E+00
    0.15508E+07        -0.51511E+08         0.00000E+00
    0.00000E+00         0.00000E+00        -0.10148E-07
 
    0.26274E+06         0.15934E+07         0.00000E+00
    0.15934E+07        -0.51725E+08         0.00000E+00
    0.00000E+00         0.00000E+00         0.17759E-07
 
    0.25775E+06         0.16347E+07         0.00000E+00
    0.16347E+07        -0.51950E+08         0.00000E+00
    0.00000E+00         0.00000E+00        -0.12686E-07
 
    0.25104E+06         0.16745E+07         0.00000E+00
    0.16745E+07        -0.52186E+08         0.00000E+00
    0.00000E+00         0.00000E+00         0.17759E-07
 
    0.24245E+06         0.17122E+07         0.00000E+00
    0.17122E+07        -0.52432E+08         0.00000E+00
    0.00000E+00         0.00000E+00         0.00000E+00
 
    0.23179E+06         0.17475E+07         0.00000E+00
    0.17475E+07        -0.52690E+08         0.00000E+00
    0.00000E+00         0.00000E+00        -0.76107E-08
 
    0.21887E+06         0.17800E+07         0.00000E+00
    0.17800E+07        -0.52959E+08         0.00000E+00
    0.00000E+00         0.00000E+00        -0.15222E-07
 
    0.20347E+06         0.18091E+07         0.00000E+00
    0.18091E+07        -0.53241E+08         0.00000E+00
    0.00000E+00         0.00000E+00         0.17759E-07
 
    0.18539E+06         0.18344E+07         0.00000E+00
    0.18344E+07        -0.53535E+08         0.00000E+00
    0.00000E+00         0.00000E+00         0.00000E+00
 
    0.16443E+06         0.18552E+07         0.00000E+00
    0.18552E+07        -0.53842E+08         0.00000E+00
    0.00000E+00         0.00000E+00        -0.25366E-08
 
    0.14037E+06         0.18710E+07         0.00000E+00
    0.18710E+07        -0.54162E+08         0.00000E+00
    0.00000E+00         0.00000E+00         0.50741E-08
 
    0.11302E+06         0.18811E+07         0.00000E+00
    0.18811E+07        -0.54495E+08         0.00000E+00
    0.00000E+00         0.00000E+00         0.50750E-08
 
    0.82172E+05         0.18848E+07         0.00000E+00
    0.18848E+07        -0.54843E+08         0.00000E+00
    0.00000E+00         0.00000E+00        -0.25369E-07
 
    0.47669E+05         0.18814E+07         0.00000E+00
    0.18814E+07        -0.55204E+08         0.00000E+00
    0.00000E+00         0.00000E+00        -0.15223E-07
 
    0.93542E+04         0.18702E+07         0.00000E+00
    0.18702E+07        -0.55580E+08         0.00000E+00
    0.00000E+00         0.00000E+00         0.10148E-07
 
   -0.32892E+05         0.18505E+07         0.00000E+00
    0.18505E+07        -0.55970E+08         0.00000E+00
    0.00000E+00         0.00000E+00        -0.27909E-07
 
   -0.79159E+05         0.18215E+07         0.00000E+00
    0.18215E+07        -0.56373E+08         0.00000E+00
    0.00000E+00         0.00000E+00        -0.50732E-08
 
   -0.12951E+06         0.17827E+07         0.00000E+00
    0.17827E+07        -0.56791E+08         0.00000E+00
    0.00000E+00         0.00000E+00         0.12684E-07
 
   -0.18396E+06         0.17332E+07         0.00000E+00
    0.17332E+07        -0.57221E+08         0.00000E+00
    0.00000E+00         0.00000E+00         0.38055E-07
 
   -0.24257E+06         0.16728E+07         0.00000E+00
    0.16728E+07        -0.57662E+08         0.00000E+00
    0.00000E+00         0.00000E+00        -0.10148E-07
 
   -0.30538E+06         0.16008E+07         0.00000E+00
    0.16008E+07        -0.58114E+08         0.00000E+00
    0.00000E+00         0.00000E+00        -0.32982E-07
 
   -0.37257E+06         0.15171E+07         0.00000E+00
    0.15171E+07        -0.58573E+08         0.00000E+00
    0.00000E+00         0.00000E+00        -0.10148E-07
 
   -0.44454E+06         0.14217E+07         0.00000E+00
    0.14217E+07        -0.59036E+08         0.00000E+00
    0.00000E+00         0.00000E+00         0.15221E-07
 
   -0.52209E+06         0.13145E+07         0.00000E+00
    0.13145E+07        -0.59498E+08         0.00000E+00
    0.00000E+00         0.00000E+00         0.12686E-07
 
   -0.60675E+06         0.11959E+07         0.00000E+00
    0.11959E+07        -0.59953E+08         0.00000E+00
    0.00000E+00         0.00000E+00        -0.40593E-07
 
   -0.70114E+06         0.10664E+07         0.00000E+00
    0.10664E+07        -0.60393E+08         0.00000E+00
    0.00000E+00         0.00000E+00        -0.50750E-08
 
   -0.80966E+06         0.92626E+06         0.00000E+00
    0.92626E+06        -0.60808E+08         0.00000E+00
    0.00000E+00         0.00000E+00         0.25357E-08
 
   -0.93925E+06         0.77571E+06         0.00000E+00
    0.77571E+06        -0.61185E+08         0.00000E+00
    0.00000E+00         0.00000E+00        -0.15221E-07
 
   -0.11006E+07         0.61473E+06         0.00000E+00
    0.61473E+06        -0.61509E+08         0.00000E+00
    0.00000E+00         0.00000E+00        -0.25366E-08
 
   -0.13091E+07         0.44408E+06         0.00000E+00
    0.44408E+06        -0.61764E+08         0.00000E+00
    0.00000E+00         0.00000E+00        -0.45475E-12
 
   -0.15836E+07         0.26713E+06         0.00000E+00
    0.26713E+06        -0.61936E+08         0.00000E+00
    0.00000E+00         0.00000E+00        -0.76112E-08
 
   -0.19413E+07         0.88861E+05         0.00000E+00
    0.88861E+05        -0.62022E+08         0.00000E+00
    0.00000E+00         0.00000E+00        -0.25371E-07
 
    0.66584E+05         0.39527E+04         0.00000E+00
    0.39527E+04        -0.47592E+08         0.00000E+00
    0.00000E+00         0.00000E+00         0.20296E-07
 
    0.59494E+05         0.11901E+05         0.00000E+00
    0.11901E+05        -0.47594E+08         0.00000E+00
    0.00000E+00         0.00000E+00        -0.76111E-08
 
    0.54266E+05         0.19918E+05         0.00000E+00
    0.19918E+05        -0.47597E+08         0.00000E+00
    0.00000E+00         0.00000E+00         0.15222E-07
 
    0.50568E+05         0.27957E+05         0.00000E+00
    0.27957E+05        -0.47603E+08         0.00000E+00
    0.00000E+00         0.00000E+00         0.76111E-08
 
    0.48024E+05         0.35974E+05         0.00000E+00
    0.35974E+05        -0.47610E+08         0.00000E+00
    0.00000E+00         0.00000E+00        -0.50741E-08
 
    0.46316E+05         0.43963E+05         0.00000E+00
    0.43963E+05        -0.47618E+08         0.00000E+00
    0.00000E+00         0.00000E+00         0.00000E+00
 
    0.45212E+05         0.51935E+05         0.00000E+00
    0.51935E+05        -0.47626E+08         0.00000E+00
    0.00000E+00         0.00000E+00         0.10148E-07
 
    0.44559E+05         0.59900E+05         0.00000E+00
    0.59900E+05        -0.47636E+08         0.00000E+00
    0.00000E+00         0.00000E+00        -0.12685E-07
 
    0.44258E+05         0.67868E+05         0.00000E+00
    0.67868E+05        -0.47646E+08         0.00000E+00
    0.00000E+00         0.00000E+00         0.50741E-08
 
    0.44246E+05         0.75850E+05         0.00000E+00
    0.75850E+05        -0.47657E+08         0.00000E+00
    0.00000E+00         0.00000E+00        -0.10148E-07
 
    0.44487E+05         0.83862E+05         0.00000E+00
    0.83862E+05        -0.47668E+08         0.00000E+00
    0.00000E+00         0.00000E+00        -0.50741E-08
 
    0.44960E+05         0.91923E+05         0.00000E+00
    0.91923E+05        -0.47680E+08         0.00000E+00
    0.00000E+00         0.00000E+00         0.20296E-07
 
    0.45652E+05         0.10006E+06         0.00000E+00
    0.10006E+06        -0.47692E+08         0.00000E+00
    0.00000E+00         0.00000E+00        -0.25370E-08
 
    0.46557E+05         0.10829E+06         0.00000E+00
    0.10829E+06        -0.47704E+08         0.00000E+00
    0.00000E+00         0.00000E+00        -0.12685E-07
 
    0.47671E+05         0.11665E+06         0.00000E+00
    0.11665E+06        -0.47716E+08         0.00000E+00
    0.00000E+00         0.00000E+00         0.25370E-08
 
    0.48992E+05         0.12517E+06         0.00000E+00
    0.12517E+06        -0.47729E+08         0.00000E+00
    0.00000E+00         0.00000E+00         0.15222E-07
 
    0.50520E+05         0.13389E+06         0.00000E+00
    0.13389E+06        -0.47743E+08         0.00000E+00
    0.00000E+00         0.00000E+00        -0.22833E-07
 
    0.52252E+05         0.14285E+06         0.00000E+00
    0.14285E+06        -0.47757E+08         0.00000E+00
    0.00000E+00         0.00000E+00        -0.22833E-07
 
    0.54186E+05         0.15206E+06         0.00000E+00
    0.15206E+06        -0.47771E+08         0.00000E+00
    0.00000E+00         0.00000E+00         0.25370E-08
 
    0.56323E+05         0.16158E+06         0.00000E+00
    0.16158E+06        -0.47786E+08         0.00000E+00
    0.00000E+00         0.00000E+00        -0.12685E-07
 
    0.58659E+05         0.17144E+06         0.00000E+00
    0.17144E+06        -0.47802E+08         0.00000E+00
    0.00000E+00         0.00000E+00         0.25370E-08
 
    0.61194E+05         0.18166E+06         0.00000E+00
    0.18166E+06        -0.47819E+08         0.00000E+00
    0.00000E+00         0.00000E+00        -0.32981E-07
 
    0.63926E+05         0.19230E+06         0.00000E+00
    0.19230E+06        -0.47836E+08         0.00000E+00
    0.00000E+00         0.00000E+00         0.10148E-07
 
    0.66852E+05         0.20337E+06         0.00000E+00
    0.20337E+06        -0.47854E+08         0.00000E+00
    0.00000E+00         0.00000E+00         0.00000E+00
 
    0.69972E+05         0.21492E+06         0.00000E+00
    0.21492E+06        -0.47873E+08         0.00000E+00
    0.00000E+00         0.00000E+00        -0.15222E-07
 
    0.73284E+05         0.22697E+06         0.00000E+00
    0.22697E+06        -0.47893E+08         0.00000E+00
    0.00000E+00         0.00000E+00         0.00000E+00
 
    0.76787E+05         0.23957E+06         0.00000E+00
    0.23957E+06        -0.47915E+08         0.00000E+00
    0.00000E+00         0.00000E+00        -0.25370E-08
 
    0.80480E+05         0.25273E+06         0.00000E+00
    0.25273E+06        -0.47937E+08         0.00000E+00
    0.00000E+00         0.00000E+00        -0.50740E-08
 
    0.84363E+05         0.26650E+06         0.00000E+00
    0.26650E+06        -0.47961E+08         0.00000E+00
    0.00000E+00         0.00000E+00         0.22833E-07
 
    0.88433E+05         0.28091E+06         0.00000E+00
    0.28091E+06        -0.47986E+08         0.00000E+00
    0.00000E+00         0.00000E+00         0.15222E-07
 
    0.92691E+05         0.29598E+06         0.00000E+00
    0.29598E+06        -0.48012E+08         0.00000E+00
    0.00000E+00         0.00000E+00         0.22833E-07
 
    0.97136E+05         0.31174E+06         0.00000E+00
    0.31174E+06        -0.48040E+08         0.00000E+00
    0.00000E+00         0.00000E+00        -0.10148E-07
 
    0.10177E+06         0.32823E+06         0.00000E+00
    0.32823E+06        -0.48070E+08         0.00000E+00
    0.00000E+00         0.00000E+00        -0.15222E-07
 
    0.10658E+06         0.34547E+06         0.00000E+00
    0.34547E+06        -0.48101E+08         0.00000E+00
    0.00000E+00         0.00000E+00         0.10148E-07
 
    0.11158E+06         0.36349E+06         0.00000E+00
    0.36349E+06        -0.48134E+08         0.00000E+00
    0.00000E+00         0.00000E+00        -0.15222E-07
 
    0.11676E+06         0.38233E+06         0.00000E+00
    0.38233E+06        -0.48169E+08         0.00000E+00
    0.00000E+00         0.00000E+00        -0.25370E-08
 
    0.12212E+06         0.40200E+06         0.00000E+00
    0.40200E+06        -0.48207E+08         0.00000E+00
    0.00000E+00         0.00000E+00         0.50741E-08
 
    0.12765E+06         0.42254E+06         0.00000E+00
    0.42254E+06        -0.48246E+08         0.00000E+00
    0.00000E+00         0.00000E+00         0.76111E-08
 
    0.13336E+06         0.44396E+06         0.00000E+00
    0.44396E+06        -0.48288E+08         0.00000E+00
    0.00000E+00         0.00000E+00         0.25370E-08
 
    0.13923E+06         0.46630E+06         0.00000E+00
    0.46630E+06        -0.48332E+08         0.00000E+00
    0.00000E+00         0.00000E+00         0.25370E-08
 
    0.14527E+06         0.48958E+06         0.00000E+00
    0.48958E+06        -0.48378E+08         0.00000E+00
    0.00000E+00         0.00000E+00        -0.22833E-07
 
    0.15146E+06         0.51381E+06         0.00000E+00
    0.51381E+06        -0.48428E+08         0.00000E+00
    0.00000E+00         0.00000E+00        -0.10148E-07
 
    0.15780E+06         0.53903E+06         0.00000E+00
    0.53903E+06        -0.48480E+08         0.00000E+00
    0.00000E+00         0.00000E+00         0.30444E-07
 
    0.16428E+06         0.56524E+06         0.00000E+00
    0.56524E+06        -0.48536E+08         0.00000E+00
    0.00000E+00         0.00000E+00        -0.15222E-07
 
    0.17088E+06         0.59247E+06         0.00000E+00
    0.59247E+06        -0.48594E+08         0.00000E+00
    0.00000E+00         0.00000E+00         0.76111E-08
 
    0.17761E+06         0.62073E+06         0.00000E+00
    0.62073E+06        -0.48656E+08         0.00000E+00
    0.00000E+00         0.00000E+00         0.12685E-07
 
    0.18443E+06         0.65003E+06         0.00000E+00
    0.65003E+06        -0.48721E+08         0.00000E+00
    0.00000E+00         0.00000E+00        -0.10148E-07
 
    0.19134E+06         0.68038E+06         0.00000E+00
    0.68038E+06        -0.48791E+08         0.00000E+00
    0.00000E+00         0.00000E+00        -0.76111E-08
 
    0.19831E+06         0.71178E+06         0.00000E+00
    0.71178E+06        -0.48864E+08         0.00000E+00
    0.00000E+00         0.00000E+00         0.50741E-08
 
    0.20532E+06         0.74423E+06         0.00000E+00
    0.74423E+06        -0.48941E+08         0.00000E+00
    0.00000E+00         0.00000E+00         0.00000E+00
 
    0.21236E+06         0.77773E+06         0.00000E+00
    0.77773E+06        -0.49023E+08         0.00000E+00
    0.00000E+00         0.00000E+00         0.25370E-08
 
    0.21938E+06         0.81228E+06         0.00000E+00
    0.81228E+06        -0.49109E+08         0.00000E+00
    0.00000E+00         0.00000E+00         0.25370E-08
 
    0.22637E+06         0.84785E+06         0.00000E+00
    0.84785E+06        -0.49200E+08         0.00000E+00
    0.00000E+00         0.00000E+00        -0.30444E-07
 
    0.23328E+06         0.88442E+06         0.00000E+00
    0.88442E+06        -0.49296E+08         0.00000E+00
    0.00000E+00         0.00000E+00         0.50741E-08
 
    0.24007E+06         0.92198E+06         0.00000E+00
    0.92198E+06        -0.49397E+08         0.00000E+00
    0.00000E+00         0.00000E+00        -0.50741E-08
 
    0.24671E+06         0.96047E+06         0.00000E+00
    0.96047E+06        -0.49504E+08         0.00000E+00
    0.00000E+00         0.00000E+00         0.22833E-07
 
    0.25314E+06         0.99987E+06         0.00000E+00
    0.99987E+06        -0.49616E+08         0.00000E+00
    0.00000E+00         0.00000E+00         0.27907E-07
 
    0.25932E+06         0.10401E+07         0.00000E+00
    0.10401E+07        -0.49735E+08         0.00000E+00
    0.00000E+00         0.00000E+00         0.32981E-07
 
    0.26517E+06         0.10811E+07         0.00000E+00
    0.10811E+07        -0.49860E+08         0.00000E+00
    0.00000E+00         0.00000E+00         0.12685E-07
 
    0.27064E+06         0.11229E+07         0.00000E+00
    0.11229E+07        -0.49991E+08         0.00000E+00
    0.00000E+00         0.00000E+00        -0.76111E-08
 
    0.27566E+06         0.11652E+07         0.00000E+00
    0.11652E+07        -0.50129E+08         0.00000E+00
    0.00000E+00         0.00000E+00        -0.10148E-07
 
    0.28014E+06         0.12081E+07         0.00000E+00
    0.12081E+07        -0.50275E+08         0.00000E+00
    0.00000E+00         0.00000E+00         0.00000E+00
 
    0.28399E+06         0.12514E+07         0.00000E+00
    0.12514E+07        -0.50427E+08         0.00000E+00
    0.00000E+00         0.00000E+00         0.25366E-08
 
    0.28713E+06         0.12949E+07         0.00000E+00
    0.12949E+07        -0.50588E+08         0.00000E+00
    0.00000E+00         0.00000E+00        -0.50741E-08
 
    0.28945E+06         0.13386E+07         0.00000E+00
    0.13386E+07        -0.50757E+08         0.00000E+00
    0.00000E+00         0.00000E+00        -0.15222E-07
 
    0.29083E+06         0.13821E+07         0.00000E+00
    0.13821E+07        -0.50934E+08         0.00000E+00
    0.00000E+00         0.00000E+00         0.20296E-07
 
    0.29115E+06         0.14255E+07         0.00000E+00
    0.14255E+07        -0.51120E+08         0.00000E+00
    0.00000E+00         0.00000E+00         0.00000E+00
 
    0.29028E+06         0.14684E+07         0.00000E+00
    0.14684E+07        -0.51315E+08         0.00000E+00
    0.00000E+00         0.00000E+00         0.15223E-07
 
    0.28807E+06         0.15105E+07         0.00000E+00
    0.15105E+07        -0.51519E+08         0.00000E+00
    0.00000E+00         0.00000E+00        -0.27908E-07
 
    0.28436E+06         0.15517E+07         0.00000E+00
    0.15517E+07        -0.51734E+08         0.00000E+00
    0.00000E+00         0.00000E+00         0.20296E-07
 
    0.27898E+06         0.15916E+07         0.00000E+00
    0.15916E+07        -0.51958E+08         0.00000E+00
    0.00000E+00         0.00000E+00        -0.76116E-08
 
    0.27176E+06         0.16299E+07         0.00000E+00
    0.16299E+07        -0.52193E+08         0.00000E+00
    0.00000E+00         0.00000E+00         0.10148E-07
 
    0.26250E+06         0.16662E+07         0.00000E+00
    0.16662E+07        -0.52439E+08         0.00000E+00
    0.00000E+00         0.00000E+00        -0.25375E-08
 
    0.25100E+06         0.17001E+07         0.00000E+00
    0.17001E+07        -0.52696E+08         0.00000E+00
    0.00000E+00         0.00000E+00         0.76116E-08
 
    0.23705E+06         0.17311E+07         0.00000E+00
    0.17311E+07        -0.52965E+08         0.00000E+00
    0.00000E+00         0.00000E+00         0.48204E-07
 
    0.22042E+06         0.17588E+07         0.00000E+00
    0.17588E+07        -0.53246E+08         0.00000E+00
    0.00000E+00         0.00000E+00        -0.10148E-07
 
    0.20089E+06         0.17827E+07         0.00000E+00
    0.17827E+07        -0.53539E+08         0.00000E+00
    0.00000E+00         0.00000E+00         0.76107E-08
 
    0.17823E+06         0.18022E+07         0.00000E+00
    0.18022E+07        -0.53845E+08         0.00000E+00
    0.00000E+00         0.00000E+00        -0.50741E-08
 
    0.15220E+06         0.18166E+07         0.00000E+00
    0.18166E+07        -0.54164E+08         0.00000E+00
    0.00000E+00         0.00000E+00         0.00000E+00
 
    0.12259E+06         0.18254E+07         0.00000E+00
    0.18254E+07        -0.54497E+08         0.00000E+00
    0.00000E+00         0.00000E+00         0.76125E-08
 
    0.89184E+05         0.18278E+07         0.00000E+00
    0.18278E+07        -0.54843E+08         0.00000E+00
    0.00000E+00         0.00000E+00         0.10148E-07
 
    0.51780E+05         0.18232E+07         0.00000E+00
    0.18232E+07        -0.55203E+08         0.00000E+00
    0.00000E+00         0.00000E+00        -0.35518E-07
 
    0.10209E+05         0.18108E+07         0.00000E+00
    0.18108E+07        -0.55577E+08         0.00000E+00
    0.00000E+00         0.00000E+00         0.15223E-07
 
   -0.35676E+05         0.17900E+07         0.00000E+00
    0.17900E+07        -0.55965E+08         0.00000E+00
    0.00000E+00         0.00000E+00         0.00000E+00
 
   -0.85984E+05         0.17599E+07         0.00000E+00
    0.17599E+07        -0.56367E+08         0.00000E+00
    0.00000E+00         0.00000E+00        -0.76125E-08
 
   -0.14080E+06         0.17200E+07         0.00000E+00
    0.17200E+07        -0.56782E+08         0.00000E+00
    0.00000E+00         0.00000E+00         0.76107E-08
 
   -0.20016E+06         0.16696E+07         0.00000E+00
    0.16696E+07        -0.57210E+08         0.00000E+00
    0.00000E+00         0.00000E+00        -0.30446E-07
 
   -0.26414E+06         0.16082E+07         0.00000E+00
    0.16082E+07        -0.57649E+08         0.00000E+00
    0.00000E+00         0.00000E+00        -0.27905E-07
 
   -0.33281E+06         0.15354E+07         0.00000E+00
    0.15354E+07        -0.58098E+08         0.00000E+00
    0.00000E+00         0.00000E+00        -0.12686E-07
 
   -0.40635E+06         0.14510E+07         0.00000E+00
    0.14510E+07        -0.58555E+08         0.00000E+00
    0.00000E+00         0.00000E+00         0.00000E+00
 
   -0.48520E+06         0.13551E+07         0.00000E+00
    0.13551E+07        -0.59015E+08         0.00000E+00
    0.00000E+00         0.00000E+00         0.00000E+00
 
   -0.57018E+06         0.12477E+07         0.00000E+00
    0.12477E+07        -0.59475E+08         0.00000E+00
    0.00000E+00         0.00000E+00        -0.17761E-07
 
   -0.66284E+06         0.11295E+07         0.00000E+00
    0.11295E+07        -0.59928E+08         0.00000E+00
    0.00000E+00         0.00000E+00        -0.38055E-07
 
   -0.76587E+06         0.10012E+07         0.00000E+00
    0.10012E+07        -0.60366E+08         0.00000E+00
    0.00000E+00         0.00000E+00        -0.12686E-07
 
   -0.88372E+06         0.86344E+06         0.00000E+00
    0.86344E+06        -0.60779E+08         0.00000E+00
    0.00000E+00         0.00000E+00        -0.50723E-08
 
   -0.10234E+07         0.71720E+06         0.00000E+00
    0.71720E+06        -0.61154E+08         0.00000E+00
    0.00000E+00         0.00000E+00         0.00000E+00
 
   -0.11956E+07         0.56326E+06         0.00000E+00
    0.56326E+06        -0.61477E+08         0.00000E+00
    0.00000E+00         0.00000E+00        -0.12685E-07
 
   -0.14151E+07         0.40333E+06         0.00000E+00
    0.40333E+06        -0.61730E+08         0.00000E+00
    0.00000E+00         0.00000E+00         0.10148E-07
 
   -0.16990E+07         0.24093E+06         0.00000E+00
    0.24093E+06        -0.61902E+08         0.00000E+00
    0.00000E+00         0.00000E+00         0.27908E-07
 
   -0.20621E+07         0.79847E+05         0.00000E+00
    0.79847E+05        -0.61988E+08         0.00000E+00
    0.00000E+00         0.00000E+00         0.76116E-08
 
    0.70809E+05         0.37470E+04         0.00000E+00
    0.37470E+04        -0.47594E+08         0.00000E+00
    0.00000E+00         0.00000E+00         0.50741E-08
 
    0.63641E+05         0.11297E+05         0.00000E+00
    0.11297E+05        -0.47595E+08         0.00000E+00
    0.00000E+00         0.00000E+00        -0.20296E-07
 
    0.58280E+05         0.18959E+05         0.00000E+00
    0.18959E+05        -0.47599E+08         0.00000E+00
    0.00000E+00         0.00000E+00        -0.25370E-08
 
    0.54430E+05         0.26708E+05         0.00000E+00
    0.26708E+05        -0.47604E+08         0.00000E+00
    0.00000E+00         0.00000E+00         0.17759E-07
 
    0.51744E+05         0.34499E+05         0.00000E+00
    0.34499E+05        -0.47611E+08         0.00000E+00
    0.00000E+00         0.00000E+00         0.15222E-07
 
    0.49915E+05         0.42309E+05         0.00000E+00
    0.42309E+05        -0.47619E+08         0.00000E+00
    0.00000E+00         0.00000E+00        -0.50741E-08
 
    0.48716E+05         0.50132E+05         0.00000E+00
    0.50132E+05        -0.47628E+08         0.00000E+00
    0.00000E+00         0.00000E+00         0.40593E-07
 
    0.47992E+05         0.57965E+05         0.00000E+00
    0.57965E+05        -0.47638E+08         0.00000E+00
    0.00000E+00         0.00000E+00         0.35518E-07
 
    0.47643E+05         0.65810E+05         0.00000E+00
    0.65810E+05        -0.47648E+08         0.00000E+00
    0.00000E+00         0.00000E+00        -0.10148E-07
 
    0.47605E+05         0.73670E+05         0.00000E+00
    0.73670E+05        -0.47659E+08         0.00000E+00
    0.00000E+00         0.00000E+00        -0.12685E-07
 
    0.47841E+05         0.81558E+05         0.00000E+00
    0.81558E+05        -0.47670E+08         0.00000E+00
    0.00000E+00         0.00000E+00         0.20296E-07
 
    0.48329E+05         0.89489E+05         0.00000E+00
    0.89489E+05        -0.47681E+08         0.00000E+00
    0.00000E+00         0.00000E+00        -0.25370E-08
 
    0.49057E+05         0.97485E+05         0.00000E+00
    0.97485E+05        -0.47693E+08         0.00000E+00
    0.00000E+00         0.00000E+00         0.10148E-07
 
    0.50016E+05         0.10557E+06         0.00000E+00
    0.10557E+06        -0.47705E+08         0.00000E+00
    0.00000E+00         0.00000E+00         0.15222E-07
 
    0.51203E+05         0.11378E+06         0.00000E+00
    0.11378E+06        -0.47718E+08         0.00000E+00
    0.00000E+00         0.00000E+00         0.30444E-07
 
    0.52615E+05         0.12215E+06         0.00000E+00
    0.12215E+06        -0.47731E+08         0.00000E+00
    0.00000E+00         0.00000E+00         0.76111E-08
 
    0.54251E+05         0.13069E+06         0.00000E+00
    0.13069E+06        -0.47745E+08         0.00000E+00
    0.00000E+00         0.00000E+00        -0.50741E-08
 
    0.56108E+05         0.13946E+06         0.00000E+00
    0.13946E+06        -0.47759E+08         0.00000E+00
    0.00000E+00         0.00000E+00        -0.15222E-07
 
    0.58184E+05         0.14849E+06         0.00000E+00
    0.14849E+06        -0.47773E+08         0.00000E+00
    0.00000E+00         0.00000E+00         0.17759E-07
 
    0.60478E+05         0.15780E+06         0.00000E+00
    0.15780E+06        -0.47788E+08         0.00000E+00
    0.00000E+00         0.00000E+00         0.50740E-08
 
    0.62988E+05         0.16745E+06         0.00000E+00
    0.16745E+06        -0.47804E+08         0.00000E+00
    0.00000E+00         0.00000E+00         0.12685E-07
 
    0.65711E+05         0.17745E+06         0.00000E+00
    0.17745E+06        -0.47821E+08         0.00000E+00
    0.00000E+00         0.00000E+00         0.12685E-07
 
    0.68645E+05         0.18784E+06         0.00000E+00
    0.18784E+06        -0.47838E+08         0.00000E+00
    0.00000E+00         0.00000E+00         0.00000E+00
 
    0.71790E+05         0.19867E+06         0.00000E+00
    0.19867E+06        -0.47856E+08         0.00000E+00
    0.00000E+00         0.00000E+00         0.10148E-07
 
    0.75142E+05         0.20995E+06         0.00000E+00
    0.20995E+06        -0.47876E+08         0.00000E+00
    0.00000E+00         0.00000E+00        -0.12685E-07
 
    0.78701E+05         0.22173E+06         0.00000E+00
    0.22173E+06        -0.47896E+08         0.00000E+00
    0.00000E+00         0.00000E+00         0.00000E+00
 
    0.82466E+05         0.23403E+06         0.00000E+00
    0.23403E+06        -0.47917E+08         0.00000E+00
    0.00000E+00         0.00000E+00         0.50741E-08
 
    0.86434E+05         0.24689E+06         0.00000E+00
    0.24689E+06        -0.47940E+08         0.00000E+00
    0.00000E+00         0.00000E+00         0.50741E-08
 
    0.90606E+05         0.26034E+06         0.00000E+00
    0.26034E+06        -0.47963E+08         0.00000E+00
    0.00000E+00         0.00000E+00         0.25370E-08
 
    0.94980E+05         0.27440E+06         0.00000E+00
    0.27440E+06        -0.47989E+08         0.00000E+00
    0.00000E+00         0.00000E+00         0.00000E+00
 
    0.99556E+05         0.28911E+06         0.00000E+00
    0.28911E+06        -0.48015E+08         0.00000E+00
    0.00000E+00         0.00000E+00         0.50741E-08
 
    0.10433E+06         0.30450E+06         0.00000E+00
    0.30450E+06        -0.48043E+08         0.00000E+00
    0.00000E+00         0.00000E+00         0.17759E-07
 
    0.10931E+06         0.32059E+06         0.00000E+00
    0.32059E+06        -0.48073E+08         0.00000E+00
    0.00000E+00         0.00000E+00         0.38056E-07
 
    0.11448E+06         0.33741E+06         0.00000E+00
    0.33741E+06        -0.48105E+08         0.00000E+00
    0.00000E+00         0.00000E+00         0.12685E-07
 
    0.11985E+06         0.35500E+06         0.00000E+00
    0.35500E+06        -0.48138E+08         0.00000E+00
    0.00000E+00         0.00000E+00        -0.22833E-07
 
    0.12542E+06         0.37338E+06         0.00000E+00
    0.37338E+06        -0.48173E+08         0.00000E+00
    0.00000E+00         0.00000E+00        -0.76111E-08
 
    0.13117E+06         0.39257E+06         0.00000E+00
    0.39257E+06        -0.48210E+08         0.00000E+00
    0.00000E+00         0.00000E+00         0.20296E-07
 
    0.13712E+06         0.41260E+06         0.00000E+00
    0.41260E+06        -0.48250E+08         0.00000E+00
    0.00000E+00         0.00000E+00         0.15222E-07
 
    0.14325E+06         0.43350E+06         0.00000E+00
    0.43350E+06        -0.48292E+08         0.00000E+00
    0.00000E+00         0.00000E+00        -0.25370E-08
 
    0.14956E+06         0.45528E+06         0.00000E+00
    0.45528E+06        -0.48336E+08         0.00000E+00
    0.00000E+00         0.00000E+00        -0.25370E-08
 
    0.15605E+06         0.47798E+06         0.00000E+00
    0.47798E+06        -0.48383E+08         0.00000E+00
    0.00000E+00         0.00000E+00         0.20296E-07
 
    0.16270E+06         0.50161E+06         0.00000E+00
    0.50161E+06        -0.48433E+08         0.00000E+00
    0.00000E+00         0.00000E+00         0.22833E-07
 
    0.16952E+06         0.52620E+06         0.00000E+00
    0.52620E+06        -0.48485E+08         0.00000E+00
    0.00000E+00         0.00000E+00        -0.25370E-07
 
    0.17648E+06         0.55175E+06         0.00000E+00
    0.55175E+06        -0.48541E+08         0.00000E+00
    0.00000E+00         0.00000E+00         0.17759E-07
 
    0.18358E+06         0.57829E+06         0.00000E+00
    0.57829E+06        -0.48600E+08         0.00000E+00
    0.00000E+00         0.00000E+00        -0.32981E-07
 
    0.19081E+06         0.60583E+06         0.00000E+00
    0.60583E+06        -0.48662E+08         0.00000E+00
    0.00000E+00         0.00000E+00         0.15222E-07
 
    0.19814E+06         0.63438E+06         0.00000E+00
    0.63438E+06        -0.48727E+08         0.00000E+00
    0.00000E+00         0.00000E+00        -0.12685E-07
 
    0.20556E+06         0.66394E+06         0.00000E+00
    0.66394E+06        -0.48797E+08         0.00000E+00
    0.00000E+00         0.00000E+00         0.50741E-08
 
    0.21306E+06         0.69453E+06         0.00000E+00
    0.69453E+06        -0.48870E+08         0.00000E+00
    0.00000E+00         0.00000E+00        -0.25370E-07
 
    0.22060E+06         0.72614E+06         0.00000E+00
    0.72614E+06        -0.48948E+08         0.00000E+00
    0.00000E+00         0.00000E+00         0.25370E-08
 
    0.22816E+06         0.75876E+06         0.00000E+00
    0.75876E+06        -0.49029E+08         0.00000E+00
    0.00000E+00         0.00000E+00         0.50741E-08
 
    0.23572E+06         0.79240E+06         0.00000E+00
    0.79240E+06        -0.49116E+08         0.00000E+00
    0.00000E+00         0.00000E+00         0.20296E-07
 
    0.24323E+06         0.82702E+06         0.00000E+00
    0.82702E+06        -0.49207E+08         0.00000E+00
    0.00000E+00         0.00000E+00        -0.15222E-07
 
    0.25066E+06         0.86262E+06         0.00000E+00
    0.86262E+06        -0.49303E+08         0.00000E+00
    0.00000E+00         0.00000E+00         0.00000E+00
 
    0.25796E+06         0.89916E+06         0.00000E+00
    0.89916E+06        -0.49405E+08         0.00000E+00
    0.00000E+00         0.00000E+00        -0.25370E-08
 
    0.26511E+06         0.93661E+06         0.00000E+00
    0.93661E+06        -0.49511E+08         0.00000E+00
    0.00000E+00         0.00000E+00         0.00000E+00
 
    0.27203E+06         0.97492E+06         0.00000E+00
    0.97492E+06        -0.49624E+08         0.00000E+00
    0.00000E+00         0.00000E+00         0.15222E-07
 
    0.27867E+06         0.10141E+07         0.00000E+00
    0.10141E+07        -0.49743E+08         0.00000E+00
    0.00000E+00         0.00000E+00         0.12685E-07
 
    0.28497E+06         0.10539E+07         0.00000E+00
    0.10539E+07        -0.49868E+08         0.00000E+00
    0.00000E+00         0.00000E+00         0.50741E-08
 
    0.29086E+06         0.10945E+07         0.00000E+00
    0.10945E+07        -0.49999E+08         0.00000E+00
    0.00000E+00         0.00000E+00         0.00000E+00
 
    0.29626E+06         0.11356E+07         0.00000E+00
    0.11356E+07        -0.50138E+08         0.00000E+00
    0.00000E+00         0.00000E+00        -0.76111E-08
 
    0.30109E+06         0.11772E+07         0.00000E+00
    0.11772E+07        -0.50283E+08         0.00000E+00
    0.00000E+00         0.00000E+00        -0.30444E-07
 
    0.30525E+06         0.12192E+07         0.00000E+00
    0.12192E+07        -0.50436E+08         0.00000E+00
    0.00000E+00         0.00000E+00        -0.25370E-07
 
    0.30864E+06         0.12615E+07         0.00000E+00
    0.12615E+07        -0.50597E+08         0.00000E+00
    0.00000E+00         0.00000E+00         0.38055E-07
 
    0.31115E+06         0.13038E+07         0.00000E+00
    0.13038E+07        -0.50765E+08         0.00000E+00
    0.00000E+00         0.00000E+00         0.50741E-08
 
    0.31266E+06         0.13461E+07         0.00000E+00
    0.13461E+07        -0.50943E+08         0.00000E+00
    0.00000E+00         0.00000E+00         0.50741E-08
 
    0.31303E+06         0.13880E+07         0.00000E+00
    0.13880E+07        -0.51128E+08         0.00000E+00
    0.00000E+00         0.00000E+00         0.40593E-07
 
    0.31212E+06         0.14295E+07         0.00000E+00
    0.14295E+07        -0.51323E+08         0.00000E+00
    0.00000E+00         0.00000E+00         0.15222E-07
 
    0.30977E+06         0.14703E+07         0.00000E+00
    0.14703E+07        -0.51528E+08         0.00000E+00
    0.00000E+00         0.00000E+00        -0.15221E-07
 
    0.30582E+06         0.15101E+07         0.00000E+00
    0.15101E+07        -0.51742E+08         0.00000E+00
    0.00000E+00         0.00000E+00         0.20296E-07
 
    0.30007E+06         0.15486E+07         0.00000E+00
    0.15486E+07        -0.51966E+08         0.00000E+00
    0.00000E+00         0.00000E+00        -0.50741E-08
 
    0.29235E+06         0.15854E+07         0.00000E+00
    0.15854E+07        -0.52201E+08         0.00000E+00
    0.00000E+00         0.00000E+00         0.90949E-12
 
    0.28244E+06         0.16203E+07         0.00000E+00
    0.16203E+07        -0.52446E+08         0.00000E+00
    0.00000E+00         0.00000E+00        -0.38055E-07
 
    0.27011E+06         0.16528E+07         0.00000E+00
    0.16528E+07        -0.52703E+08         0.00000E+00
    0.00000E+00         0.00000E+00         0.17760E-07
 
    0.25515E+06         0.16824E+07         0.00000E+00
    0.16824E+07        -0.52971E+08         0.00000E+00
    0.00000E+00         0.00000E+00         0.30444E-07
 
    0.23732E+06         0.17088E+07         0.00000E+00
    0.17088E+07        -0.53251E+08         0.00000E+00
    0.00000E+00         0.00000E+00         0.17759E-07
 
    0.21636E+06         0.17313E+07         0.00000E+00
    0.17313E+07        -0.53543E+08         0.00000E+00
    0.00000E+00         0.00000E+00         0.12686E-07
 
    0.19202E+06         0.17495E+07         0.00000E+00
    0.17495E+07        -0.53848E+08         0.00000E+00
    0.00000E+00         0.00000E+00         0.15222E-07
 
    0.16405E+06         0.17626E+07         0.00000E+00
    0.17626E+07        -0.54166E+08         0.00000E+00
    0.00000E+00         0.00000E+00         0.00000E+00
 
    0.13222E+06         0.17701E+07         0.00000E+00
    0.17701E+07        -0.54498E+08         0.00000E+00
    0.00000E+00         0.00000E+00        -0.50732E-08
 
    0.96266E+05         0.17714E+07         0.00000E+00
    0.17714E+07        -0.54842E+08         0.00000E+00
    0.00000E+00         0.00000E+00         0.50750E-08
 
    0.55985E+05         0.17656E+07         0.00000E+00
    0.17656E+07        -0.55201E+08         0.00000E+00
    0.00000E+00         0.00000E+00        -0.12686E-07
 
    0.11174E+05         0.17521E+07         0.00000E+00
    0.17521E+07        -0.55573E+08         0.00000E+00
    0.00000E+00         0.00000E+00        -0.22834E-07
 
   -0.38336E+05         0.17302E+07         0.00000E+00
    0.17302E+07        -0.55960E+08         0.00000E+00
    0.00000E+00         0.00000E+00        -0.20296E-07
 
   -0.92681E+05         0.16991E+07         0.00000E+00
    0.16991E+07        -0.56360E+08         0.00000E+00
    0.00000E+00         0.00000E+00        -0.50750E-08
 
   -0.15196E+06         0.16583E+07         0.00000E+00
    0.16583E+07        -0.56773E+08         0.00000E+00
    0.00000E+00         0.00000E+00         0.25357E-08
 
   -0.21626E+06         0.16070E+07         0.00000E+00
    0.16070E+07        -0.57198E+08         0.00000E+00
    0.00000E+00         0.00000E+00         0.12684E-07
 
   -0.28565E+06         0.15447E+07         0.00000E+00
    0.15447E+07        -0.57636E+08         0.00000E+00
    0.00000E+00         0.00000E+00        -0.25371E-07
 
   -0.36022E+06         0.14712E+07         0.00000E+00
    0.14712E+07        -0.58083E+08         0.00000E+00
    0.00000E+00         0.00000E+00        -0.12686E-07
 
   -0.44020E+06         0.13863E+07         0.00000E+00
    0.13863E+07        -0.58537E+08         0.00000E+00
    0.00000E+00         0.00000E+00        -0.10150E-07
 
   -0.52600E+06         0.12899E+07         0.00000E+00
    0.12899E+07        -0.58995E+08         0.00000E+00
    0.00000E+00         0.00000E+00         0.48203E-07
 
   -0.61849E+06         0.11825E+07         0.00000E+00
    0.11825E+07        -0.59453E+08         0.00000E+00
    0.00000E+00         0.00000E+00         0.20296E-07
 
   -0.71921E+06         0.10648E+07         0.00000E+00
    0.10648E+07        -0.59903E+08         0.00000E+00
    0.00000E+00         0.00000E+00        -0.76088E-08
 
   -0.83089E+06         0.93771E+06         0.00000E+00
    0.93771E+06        -0.60340E+08         0.00000E+00
    0.00000E+00         0.00000E+00        -0.30444E-07
 
   -0.95797E+06         0.80255E+06         0.00000E+00
    0.80255E+06        -0.60751E+08         0.00000E+00
    0.00000E+00         0.00000E+00         0.25357E-08
 
   -0.11075E+07         0.66074E+06         0.00000E+00
    0.66074E+06        -0.61125E+08         0.00000E+00
    0.00000E+00         0.00000E+00         0.50741E-08
 
   -0.12899E+07         0.51394E+06         0.00000E+00
    0.51394E+06        -0.61446E+08         0.00000E+00
    0.00000E+00         0.00000E+00        -0.25366E-08
 
   -0.15194E+07         0.36458E+06         0.00000E+00
    0.36458E+06        -0.61699E+08         0.00000E+00
    0.00000E+00         0.00000E+00         0.50736E-08
 
   -0.18115E+07         0.21617E+06         0.00000E+00
    0.21617E+06        -0.61871E+08         0.00000E+00
    0.00000E+00         0.00000E+00         0.25370E-07
 
   -0.21793E+07         0.71354E+05         0.00000E+00
    0.71354E+05        -0.61958E+08         0.00000E+00
    0.00000E+00         0.00000E+00        -0.15222E-07
 
    0.74943E+05         0.35485E+04         0.00000E+00
    0.35485E+04        -0.47595E+08         0.00000E+00
    0.00000E+00         0.00000E+00        -0.25370E-08
 
    0.67710E+05         0.10713E+05         0.00000E+00
    0.10713E+05        -0.47597E+08         0.00000E+00
    0.00000E+00         0.00000E+00         0.27907E-07
 
    0.62236E+05         0.18029E+05         0.00000E+00
    0.18029E+05        -0.47601E+08         0.00000E+00
    0.00000E+00         0.00000E+00        -0.15222E-07
 
    0.58250E+05         0.25488E+05         0.00000E+00
    0.25488E+05        -0.47606E+08         0.00000E+00
    0.00000E+00         0.00000E+00         0.00000E+00
 
    0.55431E+05         0.33049E+05         0.00000E+00
    0.33049E+05        -0.47613E+08         0.00000E+00
    0.00000E+00         0.00000E+00        -0.22833E-07
 
    0.53487E+05         0.40676E+05         0.00000E+00
    0.40676E+05        -0.47621E+08         0.00000E+00
    0.00000E+00         0.00000E+00         0.00000E+00
 
    0.52193E+05         0.48346E+05         0.00000E+00
    0.48346E+05        -0.47630E+08         0.00000E+00
    0.00000E+00         0.00000E+00         0.00000E+00
 
    0.51397E+05         0.56043E+05         0.00000E+00
    0.56043E+05        -0.47639E+08         0.00000E+00
    0.00000E+00         0.00000E+00         0.22833E-07
 
    0.50996E+05         0.63760E+05         0.00000E+00
    0.63760E+05        -0.47650E+08         0.00000E+00
    0.00000E+00         0.00000E+00         0.17759E-07
 
    0.50930E+05         0.71494E+05         0.00000E+00
    0.71494E+05        -0.47660E+08         0.00000E+00
    0.00000E+00         0.00000E+00         0.17759E-07
 
    0.51158E+05         0.79253E+05         0.00000E+00
    0.79253E+05        -0.47671E+08         0.00000E+00
    0.00000E+00         0.00000E+00        -0.10148E-07
 
    0.51659E+05         0.87050E+05         0.00000E+00
    0.87050E+05        -0.47683E+08         0.00000E+00
    0.00000E+00         0.00000E+00         0.00000E+00
 
    0.52419E+05         0.94906E+05         0.00000E+00
    0.94906E+05        -0.47695E+08         0.00000E+00
    0.00000E+00         0.00000E+00        -0.76111E-08
 
    0.53430E+05         0.10285E+06         0.00000E+00
    0.10285E+06        -0.47707E+08         0.00000E+00
    0.00000E+00         0.00000E+00         0.15222E-07
 
    0.54688E+05         0.11090E+06         0.00000E+00
    0.11090E+06        -0.47720E+08         0.00000E+00
    0.00000E+00         0.00000E+00         0.12685E-07
 
    0.56189E+05         0.11910E+06         0.00000E+00
    0.11910E+06        -0.47733E+08         0.00000E+00
    0.00000E+00         0.00000E+00         0.35518E-07
 
    0.57931E+05         0.12747E+06         0.00000E+00
    0.12747E+06        -0.47746E+08         0.00000E+00
    0.00000E+00         0.00000E+00        -0.22833E-07
 
    0.59911E+05         0.13605E+06         0.00000E+00
    0.13605E+06        -0.47760E+08         0.00000E+00
    0.00000E+00         0.00000E+00         0.50741E-08
 
    0.62127E+05         0.14488E+06         0.00000E+00
    0.14488E+06        -0.47775E+08         0.00000E+00
    0.00000E+00         0.00000E+00         0.50740E-08
 
    0.64577E+05         0.15399E+06         0.00000E+00
    0.15399E+06        -0.47790E+08         0.00000E+00
    0.00000E+00         0.00000E+00         0.25370E-07
 
    0.67257E+05         0.16342E+06         0.00000E+00
    0.16342E+06        -0.47806E+08         0.00000E+00
    0.00000E+00         0.00000E+00         0.27907E-07
 
    0.70166E+05         0.17319E+06         0.00000E+00
    0.17319E+06        -0.47823E+08         0.00000E+00
    0.00000E+00         0.00000E+00         0.25370E-07
 
    0.73302E+05         0.18335E+06         0.00000E+00
    0.18335E+06        -0.47840E+08         0.00000E+00
    0.00000E+00         0.00000E+00         0.76111E-08
 
    0.76662E+05         0.19392E+06         0.00000E+00
    0.19392E+06        -0.47858E+08         0.00000E+00
    0.00000E+00         0.00000E+00         0.43129E-07
 
    0.80245E+05         0.20494E+06         0.00000E+00
    0.20494E+06        -0.47878E+08         0.00000E+00
    0.00000E+00         0.00000E+00         0.25370E-08
 
    0.84048E+05         0.21643E+06         0.00000E+00
    0.21643E+06        -0.47898E+08         0.00000E+00
    0.00000E+00         0.00000E+00         0.00000E+00
 
    0.88071E+05         0.22844E+06         0.00000E+00
    0.22844E+06        -0.47920E+08         0.00000E+00
    0.00000E+00         0.00000E+00        -0.10148E-07
 
    0.92312E+05         0.24099E+06         0.00000E+00
    0.24099E+06        -0.47942E+08         0.00000E+00
    0.00000E+00         0.00000E+00        -0.12685E-07
 
    0.96770E+05         0.25411E+06         0.00000E+00
    0.25411E+06        -0.47966E+08         0.00000E+00
    0.00000E+00         0.00000E+00        -0.12685E-07
 
    0.10144E+06         0.26783E+06         0.00000E+00
    0.26783E+06        -0.47991E+08         0.00000E+00
    0.00000E+00         0.00000E+00        -0.50741E-08
 
    0.10633E+06         0.28218E+06         0.00000E+00
    0.28218E+06        -0.48018E+08         0.00000E+00
    0.00000E+00         0.00000E+00        -0.12685E-07
 
    0.11144E+06         0.29718E+06         0.00000E+00
    0.29718E+06        -0.48046E+08         0.00000E+00
    0.00000E+00         0.00000E+00        -0.25370E-07
 
    0.11675E+06         0.31288E+06         0.00000E+00
    0.31288E+06        -0.48076E+08         0.00000E+00
    0.00000E+00         0.00000E+00        -0.76111E-08
 
    0.12228E+06         0.32929E+06         0.00000E+00
    0.32929E+06        -0.48108E+08         0.00000E+00
    0.00000E+00         0.00000E+00        -0.76111E-08
 
    0.12802E+06         0.34643E+06         0.00000E+00
    0.34643E+06        -0.48141E+08         0.00000E+00
    0.00000E+00         0.00000E+00         0.76111E-08
 
    0.13397E+06         0.36435E+06         0.00000E+00
    0.36435E+06        -0.48177E+08         0.00000E+00
    0.00000E+00         0.00000E+00         0.38056E-07
 
    0.14012E+06         0.38306E+06         0.00000E+00
    0.38306E+06        -0.48214E+08         0.00000E+00
    0.00000E+00         0.00000E+00        -0.12685E-07
 
    0.14648E+06         0.40258E+06         0.00000E+00
    0.40258E+06        -0.48254E+08         0.00000E+00
    0.00000E+00         0.00000E+00         0.76111E-08
 
    0.15303E+06         0.42295E+06         0.00000E+00
    0.42295E+06        -0.48296E+08         0.00000E+00
    0.00000E+00         0.00000E+00        -0.76111E-08
 
    0.15977E+06         0.44418E+06         0.00000E+00
    0.44418E+06        -0.48341E+08         0.00000E+00
    0.00000E+00         0.00000E+00        -0.22833E-07
 
    0.16671E+06         0.46630E+06         0.00000E+00
    0.46630E+06        -0.48388E+08         0.00000E+00
    0.00000E+00         0.00000E+00         0.76111E-08
 
    0.17382E+06         0.48932E+06         0.00000E+00
    0.48932E+06        -0.48437E+08         0.00000E+00
    0.00000E+00         0.00000E+00        -0.17759E-07
 
    0.18110E+06         0.51327E+06         0.00000E+00
    0.51327E+06        -0.48490E+08         0.00000E+00
    0.00000E+00         0.00000E+00         0.76111E-08
 
    0.18854E+06         0.53816E+06         0.00000E+00
    0.53816E+06        -0.48546E+08         0.00000E+00
    0.00000E+00         0.00000E+00         0.10148E-07
 
    0.19613E+06         0.56401E+06         0.00000E+00
    0.56401E+06        -0.48605E+08         0.00000E+00
    0.00000E+00         0.00000E+00         0.43130E-07
 
    0.20386E+06         0.59083E+06         0.00000E+00
    0.59083E+06        -0.48667E+08         0.00000E+00
    0.00000E+00         0.00000E+00        -0.27907E-07
 
    0.21169E+06         0.61862E+06         0.00000E+00
    0.61862E+06        -0.48733E+08         0.00000E+00
    0.00000E+00         0.00000E+00         0.12685E-07
 
    0.21963E+06         0.64741E+06         0.00000E+00
    0.64741E+06        -0.48803E+08         0.00000E+00
    0.00000E+00         0.00000E+00        -0.17759E-07
 
    0.22764E+06         0.67718E+06         0.00000E+00
    0.67718E+06        -0.48876E+08         0.00000E+00
    0.00000E+00         0.00000E+00         0.10148E-07
 
    0.23571E+06         0.70794E+06         0.00000E+00
    0.70794E+06        -0.48954E+08         0.00000E+00
    0.00000E+00         0.00000E+00        -0.20296E-07
 
    0.24379E+06         0.73969E+06         0.00000E+00
    0.73969E+06        -0.49036E+08         0.00000E+00
    0.00000E+00         0.00000E+00         0.15222E-07
 
    0.25187E+06         0.77241E+06         0.00000E+00
    0.77241E+06        -0.49123E+08         0.00000E+00
    0.00000E+00         0.00000E+00         0.38056E-07
 
    0.25990E+06         0.80609E+06         0.00000E+00
    0.80609E+06        -0.49214E+08         0.00000E+00
    0.00000E+00         0.00000E+00        -0.22833E-07
 
    0.26785E+06         0.84071E+06         0.00000E+00
    0.84071E+06        -0.49310E+08         0.00000E+00
    0.00000E+00         0.00000E+00         0.12685E-07
 
    0.27566E+06         0.87624E+06         0.00000E+00
    0.87624E+06        -0.49412E+08         0.00000E+00
    0.00000E+00         0.00000E+00         0.25370E-08
 
    0.28330E+06         0.91264E+06         0.00000E+00
    0.91264E+06        -0.49519E+08         0.00000E+00
    0.00000E+00         0.00000E+00         0.30444E-07
 
    0.29071E+06         0.94988E+06         0.00000E+00
    0.94988E+06        -0.49632E+08         0.00000E+00
    0.00000E+00         0.00000E+00        -0.50741E-08
 
    0.29782E+06         0.98790E+06         0.00000E+00
    0.98790E+06        -0.49751E+08         0.00000E+00
    0.00000E+00         0.00000E+00         0.00000E+00
 
    0.30456E+06         0.10266E+07         0.00000E+00
    0.10266E+07        -0.49876E+08         0.00000E+00
    0.00000E+00         0.00000E+00         0.50741E-08
 
    0.31087E+06         0.10660E+07         0.00000E+00
    0.10660E+07        -0.50007E+08         0.00000E+00
    0.00000E+00         0.00000E+00        -0.10148E-07
 
    0.31666E+06         0.11059E+07         0.00000E+00
    0.11059E+07        -0.50146E+08         0.00000E+00
    0.00000E+00         0.00000E+00        -0.50741E-08
 
    0.32184E+06         0.11463E+07         0.00000E+00
    0.11463E+07        -0.50291E+08         0.00000E+00
    0.00000E+00         0.00000E+00         0.20296E-07
 
    0.32630E+06         0.11871E+07         0.00000E+00
    0.11871E+07        -0.50444E+08         0.00000E+00
    0.00000E+00         0.00000E+00         0.20296E-07
 
    0.32995E+06         0.12280E+07         0.00000E+00
    0.12280E+07        -0.50605E+08         0.00000E+00
    0.00000E+00         0.00000E+00        -0.38056E-07
 
    0.33266E+06         0.12691E+07         0.00000E+00
    0.12691E+07        -0.50774E+08         0.00000E+00
    0.00000E+00         0.00000E+00         0.10149E-07
 
    0.33429E+06         0.13100E+07         0.00000E+00
    0.13100E+07        -0.50951E+08         0.00000E+00
    0.00000E+00         0.00000E+00         0.10149E-07
 
    0.33472E+06         0.13506E+07         0.00000E+00
    0.13506E+07        -0.51137E+08         0.00000E+00
    0.00000E+00         0.00000E+00         0.27908E-07
 
    0.33378E+06         0.13907E+07         0.00000E+00
    0.13907E+07        -0.51331E+08         0.00000E+00
    0.00000E+00         0.00000E+00         0.00000E+00
 
    0.33130E+06         0.14301E+07         0.00000E+00
    0.14301E+07        -0.51536E+08         0.00000E+00
    0.00000E+00         0.00000E+00        -0.25370E-07
 
    0.32712E+06         0.14685E+07         0.00000E+00
    0.14685E+07        -0.51749E+08         0.00000E+00
    0.00000E+00         0.00000E+00         0.76116E-08
 
    0.32102E+06         0.15056E+07         0.00000E+00
    0.15056E+07        -0.51973E+08         0.00000E+00
    0.00000E+00         0.00000E+00        -0.90949E-12
 
    0.31281E+06         0.15411E+07         0.00000E+00
    0.15411E+07        -0.52208E+08         0.00000E+00
    0.00000E+00         0.00000E+00         0.25369E-07
 
    0.30226E+06         0.15746E+07         0.00000E+00
    0.15746E+07        -0.52453E+08         0.00000E+00
    0.00000E+00         0.00000E+00        -0.20296E-07
 
    0.28914E+06         0.16057E+07         0.00000E+00
    0.16057E+07        -0.52709E+08         0.00000E+00
    0.00000E+00         0.00000E+00         0.22834E-07
 
    0.27319E+06         0.16340E+07         0.00000E+00
    0.16340E+07        -0.52976E+08         0.00000E+00
    0.00000E+00         0.00000E+00        -0.20296E-07
 
    0.25417E+06         0.16590E+07         0.00000E+00
    0.16590E+07        -0.53256E+08         0.00000E+00
    0.00000E+00         0.00000E+00        -0.22834E-07
 
    0.23180E+06         0.16802E+07         0.00000E+00
    0.16802E+07        -0.53547E+08         0.00000E+00
    0.00000E+00         0.00000E+00        -0.35518E-07
 
    0.20582E+06         0.16971E+07         0.00000E+00
    0.16971E+07        -0.53851E+08         0.00000E+00
    0.00000E+00         0.00000E+00        -0.12686E-07
 
    0.17594E+06         0.17091E+07         0.00000E+00
    0.17091E+07        -0.54168E+08         0.00000E+00
    0.00000E+00         0.00000E+00         0.12685E-07
 
    0.14190E+06         0.17154E+07         0.00000E+00
    0.17154E+07        -0.54498E+08         0.00000E+00
    0.00000E+00         0.00000E+00        -0.12686E-07
 
    0.10344E+06         0.17155E+07         0.00000E+00
    0.17155E+07        -0.54842E+08         0.00000E+00
    0.00000E+00         0.00000E+00         0.50732E-08
 
    0.60305E+05         0.17086E+07         0.00000E+00
    0.17086E+07        -0.55199E+08         0.00000E+00
    0.00000E+00         0.00000E+00         0.15221E-07
 
    0.12276E+05         0.16941E+07         0.00000E+00
    0.16941E+07        -0.55570E+08         0.00000E+00
    0.00000E+00         0.00000E+00         0.15223E-07
 
   -0.40845E+05         0.16712E+07         0.00000E+00
    0.16712E+07        -0.55954E+08         0.00000E+00
    0.00000E+00         0.00000E+00        -0.76107E-08
 
   -0.99221E+05         0.16392E+07         0.00000E+00
    0.16392E+07        -0.56352E+08         0.00000E+00
    0.00000E+00         0.00000E+00        -0.12686E-07
 
   -0.16298E+06         0.15975E+07         0.00000E+00
    0.15975E+07        -0.56763E+08         0.00000E+00
    0.00000E+00         0.00000E+00        -0.15223E-07
 
   -0.23223E+06         0.15454E+07         0.00000E+00
    0.15454E+07        -0.57187E+08         0.00000E+00
    0.00000E+00         0.00000E+00        -0.15223E-07
 
   -0.30705E+06         0.14824E+07         0.00000E+00
    0.14824E+07        -0.57622E+08         0.00000E+00
    0.00000E+00         0.00000E+00        -0.50743E-07
 
   -0.38759E+06         0.14083E+07         0.00000E+00
    0.14083E+07        -0.58067E+08         0.00000E+00
    0.00000E+00         0.00000E+00         0.00000E+00
 
   -0.47405E+06         0.13228E+07         0.00000E+00
    0.13228E+07        -0.58519E+08         0.00000E+00
    0.00000E+00         0.00000E+00         0.50750E-08
 
   -0.56689E+06         0.12262E+07         0.00000E+00
    0.12262E+07        -0.58975E+08         0.00000E+00
    0.00000E+00         0.00000E+00        -0.76107E-08
 
   -0.66696E+06         0.11189E+07         0.00000E+00
    0.11189E+07        -0.59430E+08         0.00000E+00
    0.00000E+00         0.00000E+00         0.22834E-07
 
   -0.77581E+06         0.10017E+07         0.00000E+00
    0.10017E+07        -0.59879E+08         0.00000E+00
    0.00000E+00         0.00000E+00         0.38055E-07
 
   -0.89613E+06         0.87605E+06         0.00000E+00
    0.87605E+06        -0.60314E+08         0.00000E+00
    0.00000E+00         0.00000E+00        -0.76107E-08
 
   -0.10324E+07         0.74355E+06         0.00000E+00
    0.74355E+06        -0.60724E+08         0.00000E+00
    0.00000E+00         0.00000E+00         0.40593E-07
 
   -0.11914E+07         0.60627E+06         0.00000E+00
    0.60627E+06        -0.61097E+08         0.00000E+00
    0.00000E+00         0.00000E+00        -0.12685E-07
 
   -0.13836E+07         0.46661E+06         0.00000E+00
    0.46661E+06        -0.61417E+08         0.00000E+00
    0.00000E+00         0.00000E+00        -0.10148E-07
 
   -0.16221E+07         0.32761E+06         0.00000E+00
    0.32761E+06        -0.61670E+08         0.00000E+00
    0.00000E+00         0.00000E+00        -0.50736E-08
 
   -0.19215E+07         0.19265E+06         0.00000E+00
    0.19265E+06        -0.61844E+08         0.00000E+00
    0.00000E+00         0.00000E+00        -0.34106E-12
 
   -0.22933E+07         0.63302E+05         0.00000E+00
    0.63302E+05        -0.61931E+08         0.00000E+00
    0.00000E+00         0.00000E+00         0.10149E-07
 
    0.78993E+05         0.33560E+04         0.00000E+00
    0.33560E+04        -0.47596E+08         0.00000E+00
    0.00000E+00         0.00000E+00        -0.14211E-13
 
    0.71706E+05         0.10147E+05         0.00000E+00
    0.10147E+05        -0.47598E+08         0.00000E+00
    0.00000E+00         0.00000E+00         0.76111E-08
 
    0.66133E+05         0.17122E+05         0.00000E+00
    0.17122E+05        -0.47602E+08         0.00000E+00
    0.00000E+00         0.00000E+00        -0.50741E-08
 
    0.62026E+05         0.24295E+05         0.00000E+00
    0.24295E+05        -0.47607E+08         0.00000E+00
    0.00000E+00         0.00000E+00         0.15222E-07
 
    0.59085E+05         0.31624E+05         0.00000E+00
    0.31624E+05        -0.47614E+08         0.00000E+00
    0.00000E+00         0.00000E+00         0.00000E+00
 
    0.57029E+05         0.39064E+05         0.00000E+00
    0.39064E+05        -0.47622E+08         0.00000E+00
    0.00000E+00         0.00000E+00         0.12685E-07
 
    0.55641E+05         0.46576E+05         0.00000E+00
    0.46576E+05        -0.47631E+08         0.00000E+00
    0.00000E+00         0.00000E+00        -0.20296E-07
 
    0.54771E+05         0.54133E+05         0.00000E+00
    0.54133E+05        -0.47641E+08         0.00000E+00
    0.00000E+00         0.00000E+00        -0.76111E-08
 
    0.54317E+05         0.61718E+05         0.00000E+00
    0.61718E+05        -0.47651E+08         0.00000E+00
    0.00000E+00         0.00000E+00        -0.25370E-08
 
    0.54219E+05         0.69321E+05         0.00000E+00
    0.69321E+05        -0.47662E+08         0.00000E+00
    0.00000E+00         0.00000E+00         0.12685E-07
 
    0.54437E+05         0.76947E+05         0.00000E+00
    0.76947E+05        -0.47673E+08         0.00000E+00
    0.00000E+00         0.00000E+00         0.76111E-08
 
    0.54947E+05         0.84607E+05         0.00000E+00
    0.84607E+05        -0.47685E+08         0.00000E+00
    0.00000E+00         0.00000E+00         0.27907E-07
 
    0.55738E+05         0.92319E+05         0.00000E+00
    0.92319E+05        -0.47696E+08         0.00000E+00
    0.00000E+00         0.00000E+00         0.76111E-08
 
    0.56799E+05         0.10011E+06         0.00000E+00
    0.10011E+06        -0.47709E+08         0.00000E+00
    0.00000E+00         0.00000E+00         0.12685E-07
 
    0.58125E+05         0.10800E+06         0.00000E+00
    0.10800E+06        -0.47721E+08         0.00000E+00
    0.00000E+00         0.00000E+00        -0.15222E-07
 
    0.59713E+05         0.11603E+06         0.00000E+00
    0.11603E+06        -0.47734E+08         0.00000E+00
    0.00000E+00         0.00000E+00         0.25370E-07
 
    0.61559E+05         0.12422E+06         0.00000E+00
    0.12422E+06        -0.47748E+08         0.00000E+00
    0.00000E+00         0.00000E+00         0.00000E+00
 
    0.63661E+05         0.13262E+06         0.00000E+00
    0.13262E+06        -0.47762E+08         0.00000E+00
    0.00000E+00         0.00000E+00        -0.27907E-07
 
    0.66014E+05         0.14125E+06         0.00000E+00
    0.14125E+06        -0.47777E+08         0.00000E+00
    0.00000E+00         0.00000E+00         0.25370E-07
 
    0.68617E+05         0.15015E+06         0.00000E+00
    0.15015E+06        -0.47792E+08         0.00000E+00
    0.00000E+00         0.00000E+00         0.10148E-07
 
    0.71467E+05         0.15936E+06         0.00000E+00
    0.15936E+06        -0.47808E+08         0.00000E+00
    0.00000E+00         0.00000E+00        -0.27907E-07
 
    0.74560E+05         0.16890E+06         0.00000E+00
    0.16890E+06        -0.47825E+08         0.00000E+00
    0.00000E+00         0.00000E+00        -0.12685E-07
 
    0.77895E+05         0.17881E+06         0.00000E+00
    0.17881E+06        -0.47842E+08         0.00000E+00
    0.00000E+00         0.00000E+00        -0.15222E-07
 
    0.81468E+05         0.18913E+06         0.00000E+00
    0.18913E+06        -0.47861E+08         0.00000E+00
    0.00000E+00         0.00000E+00         0.17759E-07
 
    0.85279E+05         0.19987E+06         0.00000E+00
    0.19987E+06        -0.47880E+08         0.00000E+00
    0.00000E+00         0.00000E+00         0.50741E-08
 
    0.89324E+05         0.21109E+06         0.00000E+00
    0.21109E+06        -0.47900E+08         0.00000E+00
    0.00000E+00         0.00000E+00         0.50741E-08
 
    0.93603E+05         0.22280E+06         0.00000E+00
    0.22280E+06        -0.47922E+08         0.00000E+00
    0.00000E+00         0.00000E+00        -0.76111E-08
 
    0.98113E+05         0.23503E+06         0.00000E+00
    0.23503E+06        -0.47945E+08         0.00000E+00
    0.00000E+00         0.00000E+00        -0.50741E-08
 
    0.10285E+06         0.24782E+06         0.00000E+00
    0.24782E+06        -0.47969E+08         0.00000E+00
    0.00000E+00         0.00000E+00         0.10148E-07
 
    0.10783E+06         0.26120E+06         0.00000E+00
    0.26120E+06        -0.47994E+08         0.00000E+00
    0.00000E+00         0.00000E+00        -0.76111E-08
 
    0.11303E+06         0.27518E+06         0.00000E+00
    0.27518E+06        -0.48021E+08         0.00000E+00
    0.00000E+00         0.00000E+00         0.20296E-07
 
    0.11845E+06         0.28981E+06         0.00000E+00
    0.28981E+06        -0.48049E+08         0.00000E+00
    0.00000E+00         0.00000E+00         0.00000E+00
 
    0.12411E+06         0.30510E+06         0.00000E+00
    0.30510E+06        -0.48079E+08         0.00000E+00
    0.00000E+00         0.00000E+00        -0.15222E-07
 
    0.12999E+06         0.32109E+06         0.00000E+00
    0.32109E+06        -0.48111E+08         0.00000E+00
    0.00000E+00         0.00000E+00         0.10148E-07
 
    0.13609E+06         0.33779E+06         0.00000E+00
    0.33779E+06        -0.48145E+08         0.00000E+00
    0.00000E+00         0.00000E+00        -0.48204E-07
 
    0.14242E+06         0.35524E+06         0.00000E+00
    0.35524E+06        -0.48180E+08         0.00000E+00
    0.00000E+00         0.00000E+00        -0.15222E-07
 
    0.14896E+06         0.37347E+06         0.00000E+00
    0.37347E+06        -0.48218E+08         0.00000E+00
    0.00000E+00         0.00000E+00         0.12685E-07
 
    0.15572E+06         0.39248E+06         0.00000E+00
    0.39248E+06        -0.48258E+08         0.00000E+00
    0.00000E+00         0.00000E+00        -0.25370E-07
 
    0.16269E+06         0.41232E+06         0.00000E+00
    0.41232E+06        -0.48300E+08         0.00000E+00
    0.00000E+00         0.00000E+00        -0.17759E-07
 
    0.16986E+06         0.43299E+06         0.00000E+00
    0.43299E+06        -0.48345E+08         0.00000E+00
    0.00000E+00         0.00000E+00         0.25370E-07
 
    0.17723E+06         0.45452E+06         0.00000E+00
    0.45452E+06        -0.48392E+08         0.00000E+00
    0.00000E+00         0.00000E+00        -0.22833E-07
 
    0.18480E+06         0.47694E+06         0.00000E+00
    0.47694E+06        -0.48442E+08         0.00000E+00
    0.00000E+00         0.00000E+00         0.10148E-07
 
    0.19255E+06         0.50025E+06         0.00000E+00
    0.50025E+06        -0.48495E+08         0.00000E+00
    0.00000E+00         0.00000E+00         0.00000E+00
 
    0.20046E+06         0.52448E+06         0.00000E+00
    0.52448E+06        -0.48551E+08         0.00000E+00
    0.00000E+00         0.00000E+00        -0.10148E-07
 
    0.20854E+06         0.54963E+06         0.00000E+00
    0.54963E+06        -0.48610E+08         0.00000E+00
    0.00000E+00         0.00000E+00         0.20296E-07
 
    0.21675E+06         0.57573E+06         0.00000E+00
    0.57573E+06        -0.48673E+08         0.00000E+00
    0.00000E+00         0.00000E+00        -0.12685E-07
 
    0.22509E+06         0.60277E+06         0.00000E+00
    0.60277E+06        -0.48739E+08         0.00000E+00
    0.00000E+00         0.00000E+00        -0.35518E-07
 
    0.23353E+06         0.63077E+06         0.00000E+00
    0.63077E+06        -0.48809E+08         0.00000E+00
    0.00000E+00         0.00000E+00        -0.10148E-07
 
    0.24206E+06         0.65973E+06         0.00000E+00
    0.65973E+06        -0.48882E+08         0.00000E+00
    0.00000E+00         0.00000E+00         0.50741E-08
 
    0.25064E+06         0.68964E+06         0.00000E+00
    0.68964E+06        -0.48960E+08         0.00000E+00
    0.00000E+00         0.00000E+00        -0.10148E-07
 
    0.25924E+06         0.72051E+06         0.00000E+00
    0.72051E+06        -0.49042E+08         0.00000E+00
    0.00000E+00         0.00000E+00         0.12685E-07
 
    0.26784E+06         0.75232E+06         0.00000E+00
    0.75232E+06        -0.49129E+08         0.00000E+00
    0.00000E+00         0.00000E+00        -0.25370E-08
 
    0.27639E+06         0.78506E+06         0.00000E+00
    0.78506E+06        -0.49221E+08         0.00000E+00
    0.00000E+00         0.00000E+00        -0.50741E-08
 
    0.28485E+06         0.81870E+06         0.00000E+00
    0.81870E+06        -0.49317E+08         0.00000E+00
    0.00000E+00         0.00000E+00         0.25370E-07
 
    0.29317E+06         0.85322E+06         0.00000E+00
    0.85322E+06        -0.49419E+08         0.00000E+00
    0.00000E+00         0.00000E+00        -0.50741E-08
 
    0.30131E+06         0.88858E+06         0.00000E+00
    0.88858E+06        -0.49526E+08         0.00000E+00
    0.00000E+00         0.00000E+00         0.20296E-07
 
    0.30919E+06         0.92474E+06         0.00000E+00
    0.92474E+06        -0.49639E+08         0.00000E+00
    0.00000E+00         0.00000E+00         0.25370E-08
 
    0.31677E+06         0.96165E+06         0.00000E+00
    0.96165E+06        -0.49758E+08         0.00000E+00
    0.00000E+00         0.00000E+00        -0.17759E-07
 
    0.32396E+06         0.99925E+06         0.00000E+00
    0.99925E+06        -0.49883E+08         0.00000E+00
    0.00000E+00         0.00000E+00        -0.10148E-07
 
    0.33068E+06         0.10375E+07         0.00000E+00
    0.10375E+07        -0.50015E+08         0.00000E+00
    0.00000E+00         0.00000E+00         0.25366E-08
 
    0.33686E+06         0.10762E+07         0.00000E+00
    0.10762E+07        -0.50154E+08         0.00000E+00
    0.00000E+00         0.00000E+00         0.25370E-08
 
    0.34239E+06         0.11154E+07         0.00000E+00
    0.11154E+07        -0.50299E+08         0.00000E+00
    0.00000E+00         0.00000E+00        -0.50741E-08
 
    0.34716E+06         0.11549E+07         0.00000E+00
    0.11549E+07        -0.50452E+08         0.00000E+00
    0.00000E+00         0.00000E+00         0.00000E+00
 
    0.35106E+06         0.11945E+07         0.00000E+00
    0.11945E+07        -0.50613E+08         0.00000E+00
    0.00000E+00         0.00000E+00         0.17760E-07
 
    0.35397E+06         0.12342E+07         0.00000E+00
    0.12342E+07        -0.50782E+08         0.00000E+00
    0.00000E+00         0.00000E+00        -0.76116E-08
 
    0.35574E+06         0.12739E+07         0.00000E+00
    0.12739E+07        -0.50959E+08         0.00000E+00
    0.00000E+00         0.00000E+00         0.27908E-07
 
    0.35623E+06         0.13131E+07         0.00000E+00
    0.13131E+07        -0.51145E+08         0.00000E+00
    0.00000E+00         0.00000E+00        -0.15222E-07
 
    0.35527E+06         0.13519E+07         0.00000E+00
    0.13519E+07        -0.51339E+08         0.00000E+00
    0.00000E+00         0.00000E+00         0.38056E-07
 
    0.35268E+06         0.13900E+07         0.00000E+00
    0.13900E+07        -0.51543E+08         0.00000E+00
    0.00000E+00         0.00000E+00         0.25370E-07
 
    0.34827E+06         0.14270E+07         0.00000E+00
    0.14270E+07        -0.51757E+08         0.00000E+00
    0.00000E+00         0.00000E+00        -0.30444E-07
 
    0.34183E+06         0.14627E+07         0.00000E+00
    0.14627E+07        -0.51980E+08         0.00000E+00
    0.00000E+00         0.00000E+00         0.76107E-08
 
    0.33315E+06         0.14968E+07         0.00000E+00
    0.14968E+07        -0.52214E+08         0.00000E+00
    0.00000E+00         0.00000E+00         0.43129E-07
 
    0.32198E+06         0.15290E+07         0.00000E+00
    0.15290E+07        -0.52459E+08         0.00000E+00
    0.00000E+00         0.00000E+00        -0.35518E-07
 
    0.30808E+06         0.15588E+07         0.00000E+00
    0.15588E+07        -0.52715E+08         0.00000E+00
    0.00000E+00         0.00000E+00        -0.10147E-07
 
    0.29118E+06         0.15858E+07         0.00000E+00
    0.15858E+07        -0.52982E+08         0.00000E+00
    0.00000E+00         0.00000E+00         0.10148E-07
 
    0.27099E+06         0.16095E+07         0.00000E+00
    0.16095E+07        -0.53260E+08         0.00000E+00
    0.00000E+00         0.00000E+00         0.20295E-07
 
    0.24725E+06         0.16295E+07         0.00000E+00
    0.16295E+07        -0.53551E+08         0.00000E+00
    0.00000E+00         0.00000E+00        -0.32981E-07
 
    0.21964E+06         0.16451E+07         0.00000E+00
    0.16451E+07        -0.53854E+08         0.00000E+00
    0.00000E+00         0.00000E+00        -0.50741E-08
 
    0.18789E+06         0.16559E+07         0.00000E+00
    0.16559E+07        -0.54170E+08         0.00000E+00
    0.00000E+00         0.00000E+00        -0.35518E-07
 
    0.15167E+06         0.16611E+07         0.00000E+00
    0.16611E+07        -0.54499E+08         0.00000E+00
    0.00000E+00         0.00000E+00         0.50732E-08
 
    0.11073E+06         0.16601E+07         0.00000E+00
    0.16601E+07        -0.54841E+08         0.00000E+00
    0.00000E+00         0.00000E+00         0.27907E-07
 
    0.64765E+05         0.16523E+07         0.00000E+00
    0.16523E+07        -0.55197E+08         0.00000E+00
    0.00000E+00         0.00000E+00         0.17761E-07
 
    0.13539E+05         0.16368E+07         0.00000E+00
    0.16368E+07        -0.55566E+08         0.00000E+00
    0.00000E+00         0.00000E+00        -0.50750E-08
 
   -0.43176E+05         0.16130E+07         0.00000E+00
    0.16130E+07        -0.55949E+08         0.00000E+00
    0.00000E+00         0.00000E+00         0.76088E-08
 
   -0.10557E+06         0.15802E+07         0.00000E+00
    0.15802E+07        -0.56345E+08         0.00000E+00
    0.00000E+00         0.00000E+00         0.43128E-07
 
   -0.17381E+06         0.15376E+07         0.00000E+00
    0.15376E+07        -0.56754E+08         0.00000E+00
    0.00000E+00         0.00000E+00        -0.30446E-07
 
   -0.24802E+06         0.14848E+07         0.00000E+00
    0.14848E+07        -0.57176E+08         0.00000E+00
    0.00000E+00         0.00000E+00        -0.30446E-07
 
   -0.32832E+06         0.14213E+07         0.00000E+00
    0.14213E+07        -0.57608E+08         0.00000E+00
    0.00000E+00         0.00000E+00        -0.76107E-08
 
   -0.41486E+06         0.13466E+07         0.00000E+00
    0.13466E+07        -0.58051E+08         0.00000E+00
    0.00000E+00         0.00000E+00        -0.35516E-07
 
   -0.50787E+06         0.12608E+07         0.00000E+00
    0.12608E+07        -0.58500E+08         0.00000E+00
    0.00000E+00         0.00000E+00         0.22834E-07
 
   -0.60782E+06         0.11640E+07         0.00000E+00
    0.11640E+07        -0.58954E+08         0.00000E+00
    0.00000E+00         0.00000E+00        -0.22834E-07
 
   -0.71554E+06         0.10568E+07         0.00000E+00
    0.10568E+07        -0.59408E+08         0.00000E+00
    0.00000E+00         0.00000E+00        -0.76107E-08
 
   -0.83257E+06         0.94034E+06         0.00000E+00
    0.94034E+06        -0.59855E+08         0.00000E+00
    0.00000E+00         0.00000E+00         0.12684E-07
 
   -0.96155E+06         0.81617E+06         0.00000E+00
    0.81617E+06        -0.60288E+08         0.00000E+00
    0.00000E+00         0.00000E+00         0.15221E-07
 
   -0.11068E+07         0.68641E+06         0.00000E+00
    0.68641E+06        -0.60697E+08         0.00000E+00
    0.00000E+00         0.00000E+00         0.30445E-07
 
   -0.12752E+07         0.55370E+06         0.00000E+00
    0.55370E+06        -0.61069E+08         0.00000E+00
    0.00000E+00         0.00000E+00        -0.25369E-07
 
   -0.14765E+07         0.42113E+06         0.00000E+00
    0.42113E+06        -0.61390E+08         0.00000E+00
    0.00000E+00         0.00000E+00        -0.50732E-08
 
   -0.17233E+07         0.29224E+06         0.00000E+00
    0.29224E+06        -0.61644E+08         0.00000E+00
    0.00000E+00         0.00000E+00         0.45475E-12
 
   -0.20292E+07         0.17022E+06         0.00000E+00
    0.17022E+06        -0.61819E+08         0.00000E+00
    0.00000E+00         0.00000E+00        -0.50741E-07
 
   -0.24045E+07         0.55628E+05         0.00000E+00
    0.55628E+05        -0.61907E+08         0.00000E+00
    0.00000E+00         0.00000E+00        -0.40592E-07
 
    0.82965E+05         0.31685E+04         0.00000E+00
    0.31685E+04        -0.47598E+08         0.00000E+00
    0.00000E+00         0.00000E+00         0.14211E-13
 
    0.75631E+05         0.95944E+04         0.00000E+00
    0.95944E+04        -0.47600E+08         0.00000E+00
    0.00000E+00         0.00000E+00        -0.50741E-08
 
    0.69974E+05         0.16237E+05         0.00000E+00
    0.16237E+05        -0.47603E+08         0.00000E+00
    0.00000E+00         0.00000E+00        -0.76111E-08
 
    0.65759E+05         0.23126E+05         0.00000E+00
    0.23126E+05        -0.47609E+08         0.00000E+00
    0.00000E+00         0.00000E+00         0.00000E+00
 
    0.62703E+05         0.30223E+05         0.00000E+00
    0.30223E+05        -0.47616E+08         0.00000E+00
    0.00000E+00         0.00000E+00         0.25370E-07
 
    0.60540E+05         0.37472E+05         0.00000E+00
    0.37472E+05        -0.47624E+08         0.00000E+00
    0.00000E+00         0.00000E+00        -0.76111E-08
 
    0.59059E+05         0.44824E+05         0.00000E+00
    0.44824E+05        -0.47633E+08         0.00000E+00
    0.00000E+00         0.00000E+00         0.30444E-07
 
    0.58113E+05         0.52237E+05         0.00000E+00
    0.52237E+05        -0.47642E+08         0.00000E+00
    0.00000E+00         0.00000E+00        -0.38055E-07
 
    0.57604E+05         0.59684E+05         0.00000E+00
    0.59684E+05        -0.47653E+08         0.00000E+00
    0.00000E+00         0.00000E+00        -0.22833E-07
 
    0.57471E+05         0.67153E+05         0.00000E+00
    0.67153E+05        -0.47663E+08         0.00000E+00
    0.00000E+00         0.00000E+00         0.76111E-08
 
    0.57675E+05         0.74642E+05         0.00000E+00
    0.74642E+05        -0.47674E+08         0.00000E+00
    0.00000E+00         0.00000E+00         0.00000E+00
 
    0.58193E+05         0.82160E+05         0.00000E+00
    0.82160E+05        -0.47686E+08         0.00000E+00
    0.00000E+00         0.00000E+00        -0.27907E-07
 
    0.59011E+05         0.89724E+05         0.00000E+00
    0.89724E+05        -0.47698E+08         0.00000E+00
    0.00000E+00         0.00000E+00        -0.56843E-13
 
    0.60119E+05         0.97356E+05         0.00000E+00
    0.97356E+05        -0.47710E+08         0.00000E+00
    0.00000E+00         0.00000E+00         0.50741E-08
 
    0.61512E+05         0.10508E+06         0.00000E+00
    0.10508E+06        -0.47723E+08         0.00000E+00
    0.00000E+00         0.00000E+00        -0.15222E-07
 
    0.63185E+05         0.11294E+06         0.00000E+00
    0.11294E+06        -0.47736E+08         0.00000E+00
    0.00000E+00         0.00000E+00         0.30444E-07
 
    0.65134E+05         0.12095E+06         0.00000E+00
    0.12095E+06        -0.47750E+08         0.00000E+00
    0.00000E+00         0.00000E+00        -0.76110E-08
 
    0.67355E+05         0.12916E+06         0.00000E+00
    0.12916E+06        -0.47764E+08         0.00000E+00
    0.00000E+00         0.00000E+00         0.50741E-08
 
    0.69844E+05         0.13759E+06         0.00000E+00
    0.13759E+06        -0.47778E+08         0.00000E+00
    0.00000E+00         0.00000E+00         0.50741E-08
 
    0.72599E+05         0.14628E+06         0.00000E+00
    0.14628E+06        -0.47794E+08         0.00000E+00
    0.00000E+00         0.00000E+00        -0.15222E-07
 
    0.75616E+05         0.15526E+06         0.00000E+00
    0.15526E+06        -0.47810E+08         0.00000E+00
    0.00000E+00         0.00000E+00        -0.12685E-07
 
    0.78892E+05         0.16457E+06         0.00000E+00
    0.16457E+06        -0.47827E+08         0.00000E+00
    0.00000E+00         0.00000E+00         0.20296E-07
 
    0.82423E+05         0.17423E+06         0.00000E+00
    0.17423E+06        -0.47844E+08         0.00000E+00
    0.00000E+00         0.00000E+00         0.25370E-08
 
    0.86208E+05         0.18429E+06         0.00000E+00
    0.18429E+06        -0.47863E+08         0.00000E+00
    0.00000E+00         0.00000E+00        -0.10148E-07
 
    0.90243E+05         0.19476E+06         0.00000E+00
    0.19476E+06        -0.47882E+08         0.00000E+00
    0.00000E+00         0.00000E+00         0.50741E-08
 
    0.94527E+05         0.20569E+06         0.00000E+00
    0.20569E+06        -0.47903E+08         0.00000E+00
    0.00000E+00         0.00000E+00         0.10148E-07
 
    0.99059E+05         0.21710E+06         0.00000E+00
    0.21710E+06        -0.47924E+08         0.00000E+00
    0.00000E+00         0.00000E+00        -0.17759E-07
 
    0.10384E+06         0.22902E+06         0.00000E+00
    0.22902E+06        -0.47947E+08         0.00000E+00
    0.00000E+00         0.00000E+00        -0.17759E-07
 
    0.10886E+06         0.24148E+06         0.00000E+00
    0.24148E+06        -0.47971E+08         0.00000E+00
    0.00000E+00         0.00000E+00         0.25370E-08
 
    0.11412E+06         0.25450E+06         0.00000E+00
    0.25450E+06        -0.47997E+08         0.00000E+00
    0.00000E+00         0.00000E+00         0.00000E+00
 
    0.11963E+06         0.26812E+06         0.00000E+00
    0.26812E+06        -0.48024E+08         0.00000E+00
    0.00000E+00         0.00000E+00         0.12685E-07
 
    0.12538E+06         0.28236E+06         0.00000E+00
    0.28236E+06        -0.48052E+08         0.00000E+00
    0.00000E+00         0.00000E+00         0.00000E+00
 
    0.13137E+06         0.29725E+06         0.00000E+00
    0.29725E+06        -0.48083E+08         0.00000E+00
    0.00000E+00         0.00000E+00         0.50741E-08
 
    0.13759E+06         0.31281E+06         0.00000E+00
    0.31281E+06        -0.48114E+08         0.00000E+00
    0.00000E+00         0.00000E+00        -0.32981E-07
 
    0.14406E+06         0.32908E+06         0.00000E+00
    0.32908E+06        -0.48148E+08         0.00000E+00
    0.00000E+00         0.00000E+00         0.22833E-07
 
    0.15075E+06         0.34606E+06         0.00000E+00
    0.34606E+06        -0.48184E+08         0.00000E+00
    0.00000E+00         0.00000E+00        -0.20296E-07
 
    0.15768E+06         0.36380E+06         0.00000E+00
    0.36380E+06        -0.48222E+08         0.00000E+00
    0.00000E+00         0.00000E+00         0.17759E-07
 
    0.16484E+06         0.38230E+06         0.00000E+00
    0.38230E+06        -0.48262E+08         0.00000E+00
    0.00000E+00         0.00000E+00        -0.10148E-07
 
    0.17222E+06         0.40160E+06         0.00000E+00
    0.40160E+06        -0.48304E+08         0.00000E+00
    0.00000E+00         0.00000E+00         0.25370E-07
 
    0.17982E+06         0.42171E+06         0.00000E+00
    0.42171E+06        -0.48349E+08         0.00000E+00
    0.00000E+00         0.00000E+00         0.25370E-08
 
    0.18763E+06         0.44266E+06         0.00000E+00
    0.44266E+06        -0.48396E+08         0.00000E+00
    0.00000E+00         0.00000E+00         0.15222E-07
 
    0.19565E+06         0.46446E+06         0.00000E+00
    0.46446E+06        -0.48447E+08         0.00000E+00
    0.00000E+00         0.00000E+00         0.15222E-07
 
    0.20385E+06         0.48714E+06         0.00000E+00
    0.48714E+06        -0.48500E+08         0.00000E+00
    0.00000E+00         0.00000E+00         0.10148E-07
 
    0.21224E+06         0.51070E+06         0.00000E+00
    0.51070E+06        -0.48556E+08         0.00000E+00
    0.00000E+00         0.00000E+00         0.10148E-07
 
    0.22079E+06         0.53515E+06         0.00000E+00
    0.53515E+06        -0.48615E+08         0.00000E+00
    0.00000E+00         0.00000E+00        -0.50741E-08
 
    0.22949E+06         0.56052E+06         0.00000E+00
    0.56052E+06        -0.48678E+08         0.00000E+00
    0.00000E+00         0.00000E+00        -0.25370E-08
 
    0.23833E+06         0.58681E+06         0.00000E+00
    0.58681E+06        -0.48744E+08         0.00000E+00
    0.00000E+00         0.00000E+00         0.25370E-08
 
    0.24728E+06         0.61403E+06         0.00000E+00
    0.61403E+06        -0.48814E+08         0.00000E+00
    0.00000E+00         0.00000E+00         0.12685E-07
 
    0.25631E+06         0.64217E+06         0.00000E+00
    0.64217E+06        -0.48888E+08         0.00000E+00
    0.00000E+00         0.00000E+00        -0.15222E-07
 
    0.26540E+06         0.67124E+06         0.00000E+00
    0.67124E+06        -0.48966E+08         0.00000E+00
    0.00000E+00         0.00000E+00         0.00000E+00
 
    0.27452E+06         0.70123E+06         0.00000E+00
    0.70123E+06        -0.49049E+08         0.00000E+00
    0.00000E+00         0.00000E+00        -0.25370E-08
 
    0.28363E+06         0.73213E+06         0.00000E+00
    0.73213E+06        -0.49135E+08         0.00000E+00
    0.00000E+00         0.00000E+00         0.10148E-07
 
    0.29269E+06         0.76392E+06         0.00000E+00
    0.76392E+06        -0.49227E+08         0.00000E+00
    0.00000E+00         0.00000E+00        -0.50741E-08
 
    0.30166E+06         0.79659E+06         0.00000E+00
    0.79659E+06        -0.49324E+08         0.00000E+00
    0.00000E+00         0.00000E+00        -0.32981E-07
 
    0.31049E+06         0.83010E+06         0.00000E+00
    0.83010E+06        -0.49426E+08         0.00000E+00
    0.00000E+00         0.00000E+00         0.00000E+00
 
    0.31912E+06         0.86442E+06         0.00000E+00
    0.86442E+06        -0.49533E+08         0.00000E+00
    0.00000E+00         0.00000E+00        -0.25370E-08
 
    0.32748E+06         0.89951E+06         0.00000E+00
    0.89951E+06        -0.49646E+08         0.00000E+00
    0.00000E+00         0.00000E+00        -0.20296E-07
 
    0.33552E+06         0.93532E+06         0.00000E+00
    0.93532E+06        -0.49765E+08         0.00000E+00
    0.00000E+00         0.00000E+00        -0.25370E-08
 
    0.34315E+06         0.97178E+06         0.00000E+00
    0.97178E+06        -0.49891E+08         0.00000E+00
    0.00000E+00         0.00000E+00         0.12685E-07
 
    0.35030E+06         0.10088E+07         0.00000E+00
    0.10088E+07        -0.50023E+08         0.00000E+00
    0.00000E+00         0.00000E+00        -0.15222E-07
 
    0.35686E+06         0.10464E+07         0.00000E+00
    0.10464E+07        -0.50161E+08         0.00000E+00
    0.00000E+00         0.00000E+00         0.32981E-07
 
    0.36274E+06         0.10843E+07         0.00000E+00
    0.10843E+07        -0.50307E+08         0.00000E+00
    0.00000E+00         0.00000E+00         0.00000E+00
 
    0.36782E+06         0.11226E+07         0.00000E+00
    0.11226E+07        -0.50460E+08         0.00000E+00
    0.00000E+00         0.00000E+00         0.25366E-08
 
    0.37198E+06         0.11610E+07         0.00000E+00
    0.11610E+07        -0.50621E+08         0.00000E+00
    0.00000E+00         0.00000E+00         0.15222E-07
 
    0.37509E+06         0.11994E+07         0.00000E+00
    0.11994E+07        -0.50790E+08         0.00000E+00
    0.00000E+00         0.00000E+00         0.50732E-08
 
    0.37701E+06         0.12377E+07         0.00000E+00
    0.12377E+07        -0.50967E+08         0.00000E+00
    0.00000E+00         0.00000E+00        -0.20297E-07
 
    0.37757E+06         0.12757E+07         0.00000E+00
    0.12757E+07        -0.51152E+08         0.00000E+00
    0.00000E+00         0.00000E+00        -0.15221E-07
 
    0.37659E+06         0.13131E+07         0.00000E+00
    0.13131E+07        -0.51347E+08         0.00000E+00
    0.00000E+00         0.00000E+00        -0.76116E-08
 
    0.37390E+06         0.13498E+07         0.00000E+00
    0.13498E+07        -0.51551E+08         0.00000E+00
    0.00000E+00         0.00000E+00        -0.10148E-07
 
    0.36928E+06         0.13855E+07         0.00000E+00
    0.13855E+07        -0.51764E+08         0.00000E+00
    0.00000E+00         0.00000E+00        -0.22833E-07
 
    0.36252E+06         0.14199E+07         0.00000E+00
    0.14199E+07        -0.51987E+08         0.00000E+00
    0.00000E+00         0.00000E+00        -0.17759E-07
 
    0.35338E+06         0.14527E+07         0.00000E+00
    0.14527E+07        -0.52221E+08         0.00000E+00
    0.00000E+00         0.00000E+00         0.22833E-07
 
    0.34162E+06         0.14835E+07         0.00000E+00
    0.14835E+07        -0.52465E+08         0.00000E+00
    0.00000E+00         0.00000E+00        -0.17759E-07
 
    0.32696E+06         0.15120E+07         0.00000E+00
    0.15120E+07        -0.52720E+08         0.00000E+00
    0.00000E+00         0.00000E+00         0.15222E-07
 
    0.30912E+06         0.15377E+07         0.00000E+00
    0.15377E+07        -0.52987E+08         0.00000E+00
    0.00000E+00         0.00000E+00         0.38056E-07
 
    0.28780E+06         0.15602E+07         0.00000E+00
    0.15602E+07        -0.53265E+08         0.00000E+00
    0.00000E+00         0.00000E+00        -0.25366E-08
 
    0.26271E+06         0.15790E+07         0.00000E+00
    0.15790E+07        -0.53554E+08         0.00000E+00
    0.00000E+00         0.00000E+00         0.10148E-07
 
    0.23351E+06         0.15935E+07         0.00000E+00
    0.15935E+07        -0.53857E+08         0.00000E+00
    0.00000E+00         0.00000E+00         0.17760E-07
 
    0.19990E+06         0.16031E+07         0.00000E+00
    0.16031E+07        -0.54172E+08         0.00000E+00
    0.00000E+00         0.00000E+00         0.00000E+00
 
    0.16155E+06         0.16073E+07         0.00000E+00
    0.16073E+07        -0.54499E+08         0.00000E+00
    0.00000E+00         0.00000E+00         0.50741E-07
 
    0.11815E+06         0.16053E+07         0.00000E+00
    0.16053E+07        -0.54840E+08         0.00000E+00
    0.00000E+00         0.00000E+00         0.45668E-07
 
    0.69388E+05         0.15965E+07         0.00000E+00
    0.15965E+07        -0.55194E+08         0.00000E+00
    0.00000E+00         0.00000E+00         0.48203E-07
 
    0.14991E+05         0.15801E+07         0.00000E+00
    0.15801E+07        -0.55562E+08         0.00000E+00
    0.00000E+00         0.00000E+00         0.10148E-07
 
   -0.45299E+05         0.15555E+07         0.00000E+00
    0.15555E+07        -0.55943E+08         0.00000E+00
    0.00000E+00         0.00000E+00        -0.18190E-11
 
   -0.11171E+06         0.15219E+07         0.00000E+00
    0.15219E+07        -0.56337E+08         0.00000E+00
    0.00000E+00         0.00000E+00         0.17759E-07
 
   -0.18442E+06         0.14787E+07         0.00000E+00
    0.14787E+07        -0.56744E+08         0.00000E+00
    0.00000E+00         0.00000E+00         0.27909E-07
 
   -0.26360E+06         0.14253E+07         0.00000E+00
    0.14253E+07        -0.57164E+08         0.00000E+00
    0.00000E+00         0.00000E+00         0.18190E-11
 
   -0.34940E+06         0.13612E+07         0.00000E+00
    0.13612E+07        -0.57594E+08         0.00000E+00
    0.00000E+00         0.00000E+00         0.35518E-07
 
   -0.44199E+06         0.12862E+07         0.00000E+00
    0.12862E+07        -0.58035E+08         0.00000E+00
    0.00000E+00         0.00000E+00        -0.10148E-07
 
   -0.54161E+06         0.12001E+07         0.00000E+00
    0.12001E+07        -0.58482E+08         0.00000E+00
    0.00000E+00         0.00000E+00        -0.50732E-08
 
   -0.64874E+06         0.11032E+07         0.00000E+00
    0.11032E+07        -0.58934E+08         0.00000E+00
    0.00000E+00         0.00000E+00         0.15221E-07
 
   -0.76419E+06         0.99634E+06         0.00000E+00
    0.99634E+06        -0.59385E+08         0.00000E+00
    0.00000E+00         0.00000E+00         0.10148E-07
 
   -0.88946E+06         0.88066E+06         0.00000E+00
    0.88066E+06        -0.59831E+08         0.00000E+00
    0.00000E+00         0.00000E+00         0.20296E-07
 
   -0.10271E+07         0.75806E+06         0.00000E+00
    0.75806E+06        -0.60263E+08         0.00000E+00
    0.00000E+00         0.00000E+00        -0.20296E-07
 
   -0.11813E+07         0.63109E+06         0.00000E+00
    0.63109E+06        -0.60671E+08         0.00000E+00
    0.00000E+00         0.00000E+00         0.15221E-07
 
   -0.13587E+07         0.50295E+06         0.00000E+00
    0.50295E+06        -0.61043E+08         0.00000E+00
    0.00000E+00         0.00000E+00         0.50732E-08
 
   -0.15687E+07         0.37737E+06         0.00000E+00
    0.37737E+06        -0.61365E+08         0.00000E+00
    0.00000E+00         0.00000E+00         0.25370E-07
 
   -0.18232E+07         0.25831E+06         0.00000E+00
    0.25831E+06        -0.61620E+08         0.00000E+00
    0.00000E+00         0.00000E+00         0.00000E+00
 
   -0.21348E+07         0.14873E+06         0.00000E+00
    0.14873E+06        -0.61796E+08         0.00000E+00
    0.00000E+00         0.00000E+00         0.20296E-07
 
   -0.25132E+07         0.48282E+05         0.00000E+00
    0.48282E+05        -0.61886E+08         0.00000E+00
    0.00000E+00         0.00000E+00         0.00000E+00
 
    0.86864E+05         0.29851E+04         0.00000E+00
    0.29851E+04        -0.47599E+08         0.00000E+00
    0.00000E+00         0.00000E+00        -0.14211E-13
 
    0.79491E+05         0.90544E+04         0.00000E+00
    0.90544E+04        -0.47601E+08         0.00000E+00
    0.00000E+00         0.00000E+00         0.30444E-07
 
    0.73761E+05         0.15370E+05         0.00000E+00
    0.15370E+05        -0.47605E+08         0.00000E+00
    0.00000E+00         0.00000E+00         0.22833E-07
 
    0.69449E+05         0.21978E+05         0.00000E+00
    0.21978E+05        -0.47610E+08         0.00000E+00
    0.00000E+00         0.00000E+00         0.25370E-08
 
    0.66286E+05         0.28843E+05         0.00000E+00
    0.28843E+05        -0.47617E+08         0.00000E+00
    0.00000E+00         0.00000E+00         0.12685E-07
 
    0.64018E+05         0.35901E+05         0.00000E+00
    0.35901E+05        -0.47625E+08         0.00000E+00
    0.00000E+00         0.00000E+00        -0.22833E-07
 
    0.62444E+05         0.43088E+05         0.00000E+00
    0.43088E+05        -0.47634E+08         0.00000E+00
    0.00000E+00         0.00000E+00         0.30444E-07
 
    0.61421E+05         0.50353E+05         0.00000E+00
    0.50353E+05        -0.47644E+08         0.00000E+00
    0.00000E+00         0.00000E+00        -0.76111E-08
 
    0.60855E+05         0.57660E+05         0.00000E+00
    0.57660E+05        -0.47654E+08         0.00000E+00
    0.00000E+00         0.00000E+00        -0.76111E-08
 
    0.60684E+05         0.64990E+05         0.00000E+00
    0.64990E+05        -0.47665E+08         0.00000E+00
    0.00000E+00         0.00000E+00         0.10148E-07
 
    0.60872E+05         0.72338E+05         0.00000E+00
    0.72338E+05        -0.47676E+08         0.00000E+00
    0.00000E+00         0.00000E+00        -0.50741E-08
 
    0.61394E+05         0.79710E+05         0.00000E+00
    0.79710E+05        -0.47688E+08         0.00000E+00
    0.00000E+00         0.00000E+00        -0.27907E-07
 
    0.62237E+05         0.87121E+05         0.00000E+00
    0.87121E+05        -0.47699E+08         0.00000E+00
    0.00000E+00         0.00000E+00         0.43130E-07
 
    0.63391E+05         0.94594E+05         0.00000E+00
    0.94594E+05        -0.47712E+08         0.00000E+00
    0.00000E+00         0.00000E+00         0.20296E-07
 
    0.64849E+05         0.10215E+06         0.00000E+00
    0.10215E+06        -0.47724E+08         0.00000E+00
    0.00000E+00         0.00000E+00         0.25370E-07
 
    0.66605E+05         0.10983E+06         0.00000E+00
    0.10983E+06        -0.47738E+08         0.00000E+00
    0.00000E+00         0.00000E+00        -0.27907E-07
 
    0.68654E+05         0.11766E+06         0.00000E+00
    0.11766E+06        -0.47751E+08         0.00000E+00
    0.00000E+00         0.00000E+00         0.30444E-07
 
    0.70993E+05         0.12567E+06         0.00000E+00
    0.12567E+06        -0.47765E+08         0.00000E+00
    0.00000E+00         0.00000E+00        -0.32981E-07
 
    0.73617E+05         0.13390E+06         0.00000E+00
    0.13390E+06        -0.47780E+08         0.00000E+00
    0.00000E+00         0.00000E+00        -0.50741E-08
 
    0.76522E+05         0.14237E+06         0.00000E+00
    0.14237E+06        -0.47795E+08         0.00000E+00
    0.00000E+00         0.00000E+00        -0.10148E-07
 
    0.79704E+05         0.15113E+06         0.00000E+00
    0.15113E+06        -0.47812E+08         0.00000E+00
    0.00000E+00         0.00000E+00        -0.15222E-07
 
    0.83159E+05         0.16020E+06         0.00000E+00
    0.16020E+06        -0.47828E+08         0.00000E+00
    0.00000E+00         0.00000E+00         0.00000E+00
 
    0.86885E+05         0.16961E+06         0.00000E+00
    0.16961E+06        -0.47846E+08         0.00000E+00
    0.00000E+00         0.00000E+00         0.43129E-07
 
    0.90879E+05         0.17941E+06         0.00000E+00
    0.17941E+06        -0.47865E+08         0.00000E+00
    0.00000E+00         0.00000E+00        -0.76111E-08
 
    0.95137E+05         0.18961E+06         0.00000E+00
    0.18961E+06        -0.47884E+08         0.00000E+00
    0.00000E+00         0.00000E+00        -0.25370E-08
 
    0.99658E+05         0.20025E+06         0.00000E+00
    0.20025E+06        -0.47905E+08         0.00000E+00
    0.00000E+00         0.00000E+00         0.00000E+00
 
    0.10444E+06         0.21135E+06         0.00000E+00
    0.21135E+06        -0.47927E+08         0.00000E+00
    0.00000E+00         0.00000E+00         0.00000E+00
 
    0.10948E+06         0.22295E+06         0.00000E+00
    0.22295E+06        -0.47950E+08         0.00000E+00
    0.00000E+00         0.00000E+00         0.27907E-07
 
    0.11478E+06         0.23508E+06         0.00000E+00
    0.23508E+06        -0.47974E+08         0.00000E+00
    0.00000E+00         0.00000E+00         0.20296E-07
 
    0.12033E+06         0.24775E+06         0.00000E+00
    0.24775E+06        -0.47999E+08         0.00000E+00
    0.00000E+00         0.00000E+00         0.76111E-08
 
    0.12614E+06         0.26100E+06         0.00000E+00
    0.26100E+06        -0.48027E+08         0.00000E+00
    0.00000E+00         0.00000E+00         0.30444E-07
 
    0.13221E+06         0.27485E+06         0.00000E+00
    0.27485E+06        -0.48055E+08         0.00000E+00
    0.00000E+00         0.00000E+00        -0.20296E-07
 
    0.13853E+06         0.28934E+06         0.00000E+00
    0.28934E+06        -0.48086E+08         0.00000E+00
    0.00000E+00         0.00000E+00        -0.76111E-08
 
    0.14510E+06         0.30447E+06         0.00000E+00
    0.30447E+06        -0.48118E+08         0.00000E+00
    0.00000E+00         0.00000E+00        -0.35518E-07
 
    0.15192E+06         0.32029E+06         0.00000E+00
    0.32029E+06        -0.48151E+08         0.00000E+00
    0.00000E+00         0.00000E+00         0.25370E-07
 
    0.15899E+06         0.33681E+06         0.00000E+00
    0.33681E+06        -0.48187E+08         0.00000E+00
    0.00000E+00         0.00000E+00         0.20296E-07
 
    0.16630E+06         0.35405E+06         0.00000E+00
    0.35405E+06        -0.48225E+08         0.00000E+00
    0.00000E+00         0.00000E+00         0.25370E-08
 
    0.17385E+06         0.37204E+06         0.00000E+00
    0.37204E+06        -0.48266E+08         0.00000E+00
    0.00000E+00         0.00000E+00         0.00000E+00
 
    0.18164E+06         0.39080E+06         0.00000E+00
    0.39080E+06        -0.48308E+08         0.00000E+00
    0.00000E+00         0.00000E+00         0.15222E-07
 
    0.18966E+06         0.41035E+06         0.00000E+00
    0.41035E+06        -0.48353E+08         0.00000E+00
    0.00000E+00         0.00000E+00         0.76111E-08
 
    0.19790E+06         0.43071E+06         0.00000E+00
    0.43071E+06        -0.48401E+08         0.00000E+00
    0.00000E+00         0.00000E+00        -0.10148E-07
 
    0.20636E+06         0.45190E+06         0.00000E+00
    0.45190E+06        -0.48451E+08         0.00000E+00
    0.00000E+00         0.00000E+00         0.10148E-07
 
    0.21502E+06         0.47393E+06         0.00000E+00
    0.47393E+06        -0.48504E+08         0.00000E+00
    0.00000E+00         0.00000E+00         0.25370E-08
 
    0.22387E+06         0.49682E+06         0.00000E+00
    0.49682E+06        -0.48561E+08         0.00000E+00
    0.00000E+00         0.00000E+00         0.17759E-07
 
    0.23289E+06         0.52058E+06         0.00000E+00
    0.52058E+06        -0.48620E+08         0.00000E+00
    0.00000E+00         0.00000E+00        -0.32981E-07
 
    0.24208E+06         0.54523E+06         0.00000E+00
    0.54523E+06        -0.48683E+08         0.00000E+00
    0.00000E+00         0.00000E+00         0.25370E-08
 
    0.25141E+06         0.57076E+06         0.00000E+00
    0.57076E+06        -0.48749E+08         0.00000E+00
    0.00000E+00         0.00000E+00         0.25370E-07
 
    0.26085E+06         0.59719E+06         0.00000E+00
    0.59719E+06        -0.48820E+08         0.00000E+00
    0.00000E+00         0.00000E+00        -0.76111E-08
 
    0.27039E+06         0.62451E+06         0.00000E+00
    0.62451E+06        -0.48894E+08         0.00000E+00
    0.00000E+00         0.00000E+00         0.10148E-07
 
    0.27999E+06         0.65273E+06         0.00000E+00
    0.65273E+06        -0.48972E+08         0.00000E+00
    0.00000E+00         0.00000E+00         0.15222E-07
 
    0.28962E+06         0.68184E+06         0.00000E+00
    0.68184E+06        -0.49055E+08         0.00000E+00
    0.00000E+00         0.00000E+00        -0.50741E-08
 
    0.29924E+06         0.71183E+06         0.00000E+00
    0.71183E+06        -0.49142E+08         0.00000E+00
    0.00000E+00         0.00000E+00        -0.12685E-07
 
    0.30881E+06         0.74268E+06         0.00000E+00
    0.74268E+06        -0.49234E+08         0.00000E+00
    0.00000E+00         0.00000E+00         0.25370E-08
 
    0.31829E+06         0.77437E+06         0.00000E+00
    0.77437E+06        -0.49330E+08         0.00000E+00
    0.00000E+00         0.00000E+00        -0.25370E-08
 
    0.32762E+06         0.80688E+06         0.00000E+00
    0.80688E+06        -0.49433E+08         0.00000E+00
    0.00000E+00         0.00000E+00        -0.63426E-07
 
    0.33673E+06         0.84016E+06         0.00000E+00
    0.84016E+06        -0.49540E+08         0.00000E+00
    0.00000E+00         0.00000E+00         0.22833E-07
 
    0.34558E+06         0.87418E+06         0.00000E+00
    0.87418E+06        -0.49653E+08         0.00000E+00
    0.00000E+00         0.00000E+00        -0.50741E-08
 
    0.35408E+06         0.90889E+06         0.00000E+00
    0.90889E+06        -0.49773E+08         0.00000E+00
    0.00000E+00         0.00000E+00        -0.25370E-07
 
    0.36215E+06         0.94423E+06         0.00000E+00
    0.94423E+06        -0.49898E+08         0.00000E+00
    0.00000E+00         0.00000E+00        -0.25370E-08
 
    0.36971E+06         0.98012E+06         0.00000E+00
    0.98012E+06        -0.50030E+08         0.00000E+00
    0.00000E+00         0.00000E+00        -0.27907E-07
 
    0.37666E+06         0.10165E+07         0.00000E+00
    0.10165E+07        -0.50169E+08         0.00000E+00
    0.00000E+00         0.00000E+00        -0.25370E-08
 
    0.38289E+06         0.10532E+07         0.00000E+00
    0.10532E+07        -0.50315E+08         0.00000E+00
    0.00000E+00         0.00000E+00         0.00000E+00
 
    0.38828E+06         0.10902E+07         0.00000E+00
    0.10902E+07        -0.50468E+08         0.00000E+00
    0.00000E+00         0.00000E+00         0.00000E+00
 
    0.39271E+06         0.11274E+07         0.00000E+00
    0.11274E+07        -0.50628E+08         0.00000E+00
    0.00000E+00         0.00000E+00        -0.20295E-07
 
    0.39604E+06         0.11645E+07         0.00000E+00
    0.11645E+07        -0.50797E+08         0.00000E+00
    0.00000E+00         0.00000E+00         0.17759E-07
 
    0.39810E+06         0.12016E+07         0.00000E+00
    0.12016E+07        -0.50974E+08         0.00000E+00
    0.00000E+00         0.00000E+00         0.35518E-07
 
    0.39873E+06         0.12382E+07         0.00000E+00
    0.12382E+07        -0.51160E+08         0.00000E+00
    0.00000E+00         0.00000E+00        -0.12686E-07
 
    0.39775E+06         0.12744E+07         0.00000E+00
    0.12744E+07        -0.51354E+08         0.00000E+00
    0.00000E+00         0.00000E+00         0.50741E-08
 
    0.39497E+06         0.13097E+07         0.00000E+00
    0.13097E+07        -0.51558E+08         0.00000E+00
    0.00000E+00         0.00000E+00         0.00000E+00
 
    0.39016E+06         0.13441E+07         0.00000E+00
    0.13441E+07        -0.51771E+08         0.00000E+00
    0.00000E+00         0.00000E+00         0.35518E-07
 
    0.38309E+06         0.13772E+07         0.00000E+00
    0.13772E+07        -0.51994E+08         0.00000E+00
    0.00000E+00         0.00000E+00        -0.43130E-07
 
    0.37352E+06         0.14087E+07         0.00000E+00
    0.14087E+07        -0.52227E+08         0.00000E+00
    0.00000E+00         0.00000E+00         0.00000E+00
 
    0.36117E+06         0.14382E+07         0.00000E+00
    0.14382E+07        -0.52471E+08         0.00000E+00
    0.00000E+00         0.00000E+00         0.20296E-07
 
    0.34577E+06         0.14654E+07         0.00000E+00
    0.14654E+07        -0.52725E+08         0.00000E+00
    0.00000E+00         0.00000E+00        -0.15222E-07
 
    0.32702E+06         0.14899E+07         0.00000E+00
    0.14899E+07        -0.52991E+08         0.00000E+00
    0.00000E+00         0.00000E+00        -0.20296E-07
 
    0.30460E+06         0.15112E+07         0.00000E+00
    0.15112E+07        -0.53269E+08         0.00000E+00
    0.00000E+00         0.00000E+00         0.32982E-07
 
    0.27819E+06         0.15288E+07         0.00000E+00
    0.15288E+07        -0.53558E+08         0.00000E+00
    0.00000E+00         0.00000E+00        -0.17759E-07
 
    0.24744E+06         0.15422E+07         0.00000E+00
    0.15422E+07        -0.53859E+08         0.00000E+00
    0.00000E+00         0.00000E+00        -0.20296E-07
 
    0.21201E+06         0.15508E+07         0.00000E+00
    0.15508E+07        -0.54173E+08         0.00000E+00
    0.00000E+00         0.00000E+00        -0.50741E-08
 
    0.17155E+06         0.15539E+07         0.00000E+00
    0.15539E+07        -0.54499E+08         0.00000E+00
    0.00000E+00         0.00000E+00        -0.15221E-07
 
    0.12572E+06         0.15510E+07         0.00000E+00
    0.15510E+07        -0.54839E+08         0.00000E+00
    0.00000E+00         0.00000E+00        -0.50750E-08
 
    0.74198E+05         0.15413E+07         0.00000E+00
    0.15413E+07        -0.55192E+08         0.00000E+00
    0.00000E+00         0.00000E+00        -0.35519E-07
 
    0.16657E+05         0.15242E+07         0.00000E+00
    0.15242E+07        -0.55558E+08         0.00000E+00
    0.00000E+00         0.00000E+00         0.15223E-07
 
   -0.47186E+05         0.14988E+07         0.00000E+00
    0.14988E+07        -0.55937E+08         0.00000E+00
    0.00000E+00         0.00000E+00         0.30444E-07
 
   -0.11759E+06         0.14646E+07         0.00000E+00
    0.14646E+07        -0.56330E+08         0.00000E+00
    0.00000E+00         0.00000E+00        -0.25369E-07
 
   -0.19478E+06         0.14208E+07         0.00000E+00
    0.14208E+07        -0.56735E+08         0.00000E+00
    0.00000E+00         0.00000E+00         0.00000E+00
 
   -0.27894E+06         0.13669E+07         0.00000E+00
    0.13669E+07        -0.57152E+08         0.00000E+00
    0.00000E+00         0.00000E+00        -0.15223E-07
 
   -0.37026E+06         0.13024E+07         0.00000E+00
    0.13024E+07        -0.57580E+08         0.00000E+00
    0.00000E+00         0.00000E+00         0.15223E-07
 
   -0.46893E+06         0.12270E+07         0.00000E+00
    0.12270E+07        -0.58018E+08         0.00000E+00
    0.00000E+00         0.00000E+00        -0.15221E-07
 
   -0.57523E+06         0.11408E+07         0.00000E+00
    0.11408E+07        -0.58464E+08         0.00000E+00
    0.00000E+00         0.00000E+00        -0.25371E-07
 
   -0.68959E+06         0.10440E+07         0.00000E+00
    0.10440E+07        -0.58913E+08         0.00000E+00
    0.00000E+00         0.00000E+00         0.10148E-07
 
   -0.81284E+06         0.93747E+06         0.00000E+00
    0.93747E+06        -0.59363E+08         0.00000E+00
    0.00000E+00         0.00000E+00         0.10146E-07
 
   -0.94641E+06         0.82267E+06         0.00000E+00
    0.82267E+06        -0.59807E+08         0.00000E+00
    0.00000E+00         0.00000E+00         0.10148E-07
 
   -0.10927E+07         0.70172E+06         0.00000E+00
    0.70172E+06        -0.60238E+08         0.00000E+00
    0.00000E+00         0.00000E+00        -0.10148E-07
 
   -0.12558E+07         0.57757E+06         0.00000E+00
    0.57757E+06        -0.60646E+08         0.00000E+00
    0.00000E+00         0.00000E+00         0.50741E-08
 
   -0.14420E+07         0.45396E+06         0.00000E+00
    0.45396E+06        -0.61018E+08         0.00000E+00
    0.00000E+00         0.00000E+00         0.00000E+00
 
   -0.16603E+07         0.33523E+06         0.00000E+00
    0.33523E+06        -0.61341E+08         0.00000E+00
    0.00000E+00         0.00000E+00         0.00000E+00
 
   -0.19219E+07         0.22568E+06         0.00000E+00
    0.22568E+06        -0.61598E+08         0.00000E+00
    0.00000E+00         0.00000E+00        -0.25370E-07
 
   -0.22387E+07         0.12807E+06         0.00000E+00
    0.12807E+06        -0.61777E+08         0.00000E+00
    0.00000E+00         0.00000E+00         0.10148E-07
 
   -0.26198E+07         0.41220E+05         0.00000E+00
    0.41220E+05        -0.61868E+08         0.00000E+00
    0.00000E+00         0.00000E+00        -0.10149E-07
 
    0.90694E+05         0.28052E+04         0.00000E+00
    0.28052E+04        -0.47600E+08         0.00000E+00
    0.00000E+00         0.00000E+00         0.00000E+00
 
    0.83289E+05         0.85246E+04         0.00000E+00
    0.85246E+04        -0.47602E+08         0.00000E+00
    0.00000E+00         0.00000E+00         0.76111E-08
 
    0.77495E+05         0.14520E+05         0.00000E+00
    0.14520E+05        -0.47606E+08         0.00000E+00
    0.00000E+00         0.00000E+00         0.25370E-07
 
    0.73094E+05         0.20850E+05         0.00000E+00
    0.20850E+05        -0.47611E+08         0.00000E+00
    0.00000E+00         0.00000E+00        -0.10148E-07
 
    0.69831E+05         0.27484E+05         0.00000E+00
    0.27484E+05        -0.47618E+08         0.00000E+00
    0.00000E+00         0.00000E+00        -0.50741E-08
 
    0.67462E+05         0.34349E+05         0.00000E+00
    0.34349E+05        -0.47626E+08         0.00000E+00
    0.00000E+00         0.00000E+00         0.76111E-08
 
    0.65796E+05         0.41370E+05         0.00000E+00
    0.41370E+05        -0.47636E+08         0.00000E+00
    0.00000E+00         0.00000E+00         0.17759E-07
 
    0.64694E+05         0.48484E+05         0.00000E+00
    0.48484E+05        -0.47645E+08         0.00000E+00
    0.00000E+00         0.00000E+00        -0.50741E-08
 
    0.64067E+05         0.55646E+05         0.00000E+00
    0.55646E+05        -0.47656E+08         0.00000E+00
    0.00000E+00         0.00000E+00         0.25370E-08
 
    0.63856E+05         0.62833E+05         0.00000E+00
    0.62833E+05        -0.47666E+08         0.00000E+00
    0.00000E+00         0.00000E+00         0.40593E-07
 
    0.64025E+05         0.70035E+05         0.00000E+00
    0.70035E+05        -0.47677E+08         0.00000E+00
    0.00000E+00         0.00000E+00         0.00000E+00
 
    0.64550E+05         0.77257E+05         0.00000E+00
    0.77257E+05        -0.47689E+08         0.00000E+00
    0.00000E+00         0.00000E+00         0.50741E-08
 
    0.65416E+05         0.84512E+05         0.00000E+00
    0.84512E+05        -0.47701E+08         0.00000E+00
    0.00000E+00         0.00000E+00        -0.15222E-07
 
    0.66613E+05         0.91821E+05         0.00000E+00
    0.91821E+05        -0.47713E+08         0.00000E+00
    0.00000E+00         0.00000E+00         0.00000E+00
 
    0.68134E+05         0.99210E+05         0.00000E+00
    0.99210E+05        -0.47726E+08         0.00000E+00
    0.00000E+00         0.00000E+00        -0.10148E-07
 
    0.69971E+05         0.10671E+06         0.00000E+00
    0.10671E+06        -0.47739E+08         0.00000E+00
    0.00000E+00         0.00000E+00         0.50741E-08
 
    0.72120E+05         0.11435E+06         0.00000E+00
    0.11435E+06        -0.47753E+08         0.00000E+00
    0.00000E+00         0.00000E+00         0.00000E+00
 
    0.74574E+05         0.12216E+06         0.00000E+00
    0.12216E+06        -0.47767E+08         0.00000E+00
    0.00000E+00         0.00000E+00        -0.25370E-07
 
    0.77331E+05         0.13018E+06         0.00000E+00
    0.13018E+06        -0.47782E+08         0.00000E+00
    0.00000E+00         0.00000E+00        -0.10148E-07
 
    0.80384E+05         0.13843E+06         0.00000E+00
    0.13843E+06        -0.47797E+08         0.00000E+00
    0.00000E+00         0.00000E+00         0.15222E-07
 
    0.83729E+05         0.14696E+06         0.00000E+00
    0.14696E+06        -0.47813E+08         0.00000E+00
    0.00000E+00         0.00000E+00         0.00000E+00
 
    0.87363E+05         0.15579E+06         0.00000E+00
    0.15579E+06        -0.47830E+08         0.00000E+00
    0.00000E+00         0.00000E+00        -0.25370E-07
 
    0.91281E+05         0.16496E+06         0.00000E+00
    0.16496E+06        -0.47848E+08         0.00000E+00
    0.00000E+00         0.00000E+00         0.58352E-07
 
    0.95481E+05         0.17449E+06         0.00000E+00
    0.17449E+06        -0.47867E+08         0.00000E+00
    0.00000E+00         0.00000E+00        -0.22833E-07
 
    0.99960E+05         0.18441E+06         0.00000E+00
    0.18441E+06        -0.47886E+08         0.00000E+00
    0.00000E+00         0.00000E+00        -0.27907E-07
 
    0.10471E+06         0.19476E+06         0.00000E+00
    0.19476E+06        -0.47907E+08         0.00000E+00
    0.00000E+00         0.00000E+00         0.00000E+00
 
    0.10974E+06         0.20556E+06         0.00000E+00
    0.20556E+06        -0.47929E+08         0.00000E+00
    0.00000E+00         0.00000E+00         0.25370E-08
 
    0.11504E+06         0.21683E+06         0.00000E+00
    0.21683E+06        -0.47952E+08         0.00000E+00
    0.00000E+00         0.00000E+00        -0.50741E-08
 
    0.12062E+06         0.22862E+06         0.00000E+00
    0.22862E+06        -0.47976E+08         0.00000E+00
    0.00000E+00         0.00000E+00         0.15222E-07
 
    0.12646E+06         0.24094E+06         0.00000E+00
    0.24094E+06        -0.48002E+08         0.00000E+00
    0.00000E+00         0.00000E+00         0.55815E-07
 
    0.13257E+06         0.25382E+06         0.00000E+00
    0.25382E+06        -0.48029E+08         0.00000E+00
    0.00000E+00         0.00000E+00        -0.30444E-07
 
    0.13895E+06         0.26728E+06         0.00000E+00
    0.26728E+06        -0.48058E+08         0.00000E+00
    0.00000E+00         0.00000E+00        -0.76111E-08
 
    0.14559E+06         0.28135E+06         0.00000E+00
    0.28135E+06        -0.48088E+08         0.00000E+00
    0.00000E+00         0.00000E+00         0.76111E-08
 
    0.15250E+06         0.29606E+06         0.00000E+00
    0.29606E+06        -0.48121E+08         0.00000E+00
    0.00000E+00         0.00000E+00         0.25370E-08
 
    0.15968E+06         0.31143E+06         0.00000E+00
    0.31143E+06        -0.48155E+08         0.00000E+00
    0.00000E+00         0.00000E+00        -0.50741E-08
 
    0.16711E+06         0.32747E+06         0.00000E+00
    0.32747E+06        -0.48191E+08         0.00000E+00
    0.00000E+00         0.00000E+00         0.00000E+00
 
    0.17480E+06         0.34422E+06         0.00000E+00
    0.34422E+06        -0.48229E+08         0.00000E+00
    0.00000E+00         0.00000E+00        -0.20296E-07
 
    0.18274E+06         0.36170E+06         0.00000E+00
    0.36170E+06        -0.48269E+08         0.00000E+00
    0.00000E+00         0.00000E+00         0.00000E+00
 
    0.19094E+06         0.37992E+06         0.00000E+00
    0.37992E+06        -0.48312E+08         0.00000E+00
    0.00000E+00         0.00000E+00         0.00000E+00
 
    0.19937E+06         0.39890E+06         0.00000E+00
    0.39890E+06        -0.48357E+08         0.00000E+00
    0.00000E+00         0.00000E+00        -0.27907E-07
 
    0.20804E+06         0.41867E+06         0.00000E+00
    0.41867E+06        -0.48405E+08         0.00000E+00
    0.00000E+00         0.00000E+00        -0.25370E-08
 
    0.21693E+06         0.43924E+06         0.00000E+00
    0.43924E+06        -0.48455E+08         0.00000E+00
    0.00000E+00         0.00000E+00         0.00000E+00
 
    0.22604E+06         0.46063E+06         0.00000E+00
    0.46063E+06        -0.48509E+08         0.00000E+00
    0.00000E+00         0.00000E+00        -0.76111E-08
 
    0.23535E+06         0.48285E+06         0.00000E+00
    0.48285E+06        -0.48565E+08         0.00000E+00
    0.00000E+00         0.00000E+00        -0.10148E-07
 
    0.24485E+06         0.50591E+06         0.00000E+00
    0.50591E+06        -0.48625E+08         0.00000E+00
    0.00000E+00         0.00000E+00        -0.48203E-07
 
    0.25452E+06         0.52983E+06         0.00000E+00
    0.52983E+06        -0.48688E+08         0.00000E+00
    0.00000E+00         0.00000E+00        -0.22833E-07
 
    0.26433E+06         0.55461E+06         0.00000E+00
    0.55461E+06        -0.48755E+08         0.00000E+00
    0.00000E+00         0.00000E+00        -0.22833E-07
 
    0.27427E+06         0.58025E+06         0.00000E+00
    0.58025E+06        -0.48825E+08         0.00000E+00
    0.00000E+00         0.00000E+00         0.00000E+00
 
    0.28431E+06         0.60675E+06         0.00000E+00
    0.60675E+06        -0.48899E+08         0.00000E+00
    0.00000E+00         0.00000E+00        -0.27907E-07
 
    0.29441E+06         0.63413E+06         0.00000E+00
    0.63413E+06        -0.48978E+08         0.00000E+00
    0.00000E+00         0.00000E+00         0.00000E+00
 
    0.30454E+06         0.66236E+06         0.00000E+00
    0.66236E+06        -0.49060E+08         0.00000E+00
    0.00000E+00         0.00000E+00         0.10148E-07
 
    0.31467E+06         0.69143E+06         0.00000E+00
    0.69143E+06        -0.49148E+08         0.00000E+00
    0.00000E+00         0.00000E+00         0.27907E-07
 
    0.32475E+06         0.72134E+06         0.00000E+00
    0.72134E+06        -0.49240E+08         0.00000E+00
    0.00000E+00         0.00000E+00         0.76111E-08
 
    0.33473E+06         0.75206E+06         0.00000E+00
    0.75206E+06        -0.49337E+08         0.00000E+00
    0.00000E+00         0.00000E+00         0.00000E+00
 
    0.34455E+06         0.78356E+06         0.00000E+00
    0.78356E+06        -0.49439E+08         0.00000E+00
    0.00000E+00         0.00000E+00         0.55815E-07
 
    0.35416E+06         0.81581E+06         0.00000E+00
    0.81581E+06        -0.49547E+08         0.00000E+00
    0.00000E+00         0.00000E+00         0.35518E-07
 
    0.36348E+06         0.84876E+06         0.00000E+00
    0.84876E+06        -0.49660E+08         0.00000E+00
    0.00000E+00         0.00000E+00        -0.50741E-07
 
    0.37244E+06         0.88238E+06         0.00000E+00
    0.88238E+06        -0.49779E+08         0.00000E+00
    0.00000E+00         0.00000E+00         0.00000E+00
 
    0.38095E+06         0.91659E+06         0.00000E+00
    0.91659E+06        -0.49905E+08         0.00000E+00
    0.00000E+00         0.00000E+00        -0.30444E-07
 
    0.38893E+06         0.95132E+06         0.00000E+00
    0.95132E+06        -0.50037E+08         0.00000E+00
    0.00000E+00         0.00000E+00        -0.76111E-08
 
    0.39626E+06         0.98651E+06         0.00000E+00
    0.98651E+06        -0.50176E+08         0.00000E+00
    0.00000E+00         0.00000E+00         0.17759E-07
 
    0.40285E+06         0.10220E+07         0.00000E+00
    0.10220E+07        -0.50322E+08         0.00000E+00
    0.00000E+00         0.00000E+00        -0.50741E-08
 
    0.40856E+06         0.10578E+07         0.00000E+00
    0.10578E+07        -0.50475E+08         0.00000E+00
    0.00000E+00         0.00000E+00        -0.12685E-07
 
    0.41326E+06         0.10937E+07         0.00000E+00
    0.10937E+07        -0.50636E+08         0.00000E+00
    0.00000E+00         0.00000E+00        -0.76116E-08
 
    0.41680E+06         0.11296E+07         0.00000E+00
    0.11296E+07        -0.50804E+08         0.00000E+00
    0.00000E+00         0.00000E+00         0.00000E+00
 
    0.41901E+06         0.11654E+07         0.00000E+00
    0.11654E+07        -0.50981E+08         0.00000E+00
    0.00000E+00         0.00000E+00         0.50741E-08
 
    0.41973E+06         0.12008E+07         0.00000E+00
    0.12008E+07        -0.51167E+08         0.00000E+00
    0.00000E+00         0.00000E+00        -0.15222E-07
 
    0.41876E+06         0.12356E+07         0.00000E+00
    0.12356E+07        -0.51361E+08         0.00000E+00
    0.00000E+00         0.00000E+00        -0.90949E-12
 
    0.41590E+06         0.12697E+07         0.00000E+00
    0.12697E+07        -0.51565E+08         0.00000E+00
    0.00000E+00         0.00000E+00        -0.50741E-08
 
    0.41090E+06         0.13028E+07         0.00000E+00
    0.13028E+07        -0.51778E+08         0.00000E+00
    0.00000E+00         0.00000E+00         0.10148E-07
 
    0.40355E+06         0.13345E+07         0.00000E+00
    0.13345E+07        -0.52000E+08         0.00000E+00
    0.00000E+00         0.00000E+00         0.50741E-08
 
    0.39356E+06         0.13648E+07         0.00000E+00
    0.13648E+07        -0.52233E+08         0.00000E+00
    0.00000E+00         0.00000E+00        -0.15222E-07
 
    0.38066E+06         0.13930E+07         0.00000E+00
    0.13930E+07        -0.52476E+08         0.00000E+00
    0.00000E+00         0.00000E+00         0.00000E+00
 
    0.36455E+06         0.14190E+07         0.00000E+00
    0.14190E+07        -0.52731E+08         0.00000E+00
    0.00000E+00         0.00000E+00        -0.50741E-08
 
    0.34491E+06         0.14423E+07         0.00000E+00
    0.14423E+07        -0.52996E+08         0.00000E+00
    0.00000E+00         0.00000E+00         0.00000E+00
 
    0.32142E+06         0.14624E+07         0.00000E+00
    0.14624E+07        -0.53272E+08         0.00000E+00
    0.00000E+00         0.00000E+00        -0.50741E-08
 
    0.29371E+06         0.14789E+07         0.00000E+00
    0.14789E+07        -0.53561E+08         0.00000E+00
    0.00000E+00         0.00000E+00         0.35518E-07
 
    0.26144E+06         0.14912E+07         0.00000E+00
    0.14912E+07        -0.53861E+08         0.00000E+00
    0.00000E+00         0.00000E+00        -0.25370E-07
 
    0.22422E+06         0.14988E+07         0.00000E+00
    0.14988E+07        -0.54174E+08         0.00000E+00
    0.00000E+00         0.00000E+00         0.00000E+00
 
    0.18169E+06         0.15010E+07         0.00000E+00
    0.15010E+07        -0.54499E+08         0.00000E+00
    0.00000E+00         0.00000E+00        -0.50750E-08
 
    0.13348E+06         0.14972E+07         0.00000E+00
    0.14972E+07        -0.54838E+08         0.00000E+00
    0.00000E+00         0.00000E+00         0.25369E-07
 
    0.79219E+05         0.14867E+07         0.00000E+00
    0.14867E+07        -0.55189E+08         0.00000E+00
    0.00000E+00         0.00000E+00         0.20296E-07
 
    0.18565E+05         0.14688E+07         0.00000E+00
    0.14688E+07        -0.55554E+08         0.00000E+00
    0.00000E+00         0.00000E+00        -0.20298E-07
 
   -0.48806E+05         0.14428E+07         0.00000E+00
    0.14428E+07        -0.55931E+08         0.00000E+00
    0.00000E+00         0.00000E+00        -0.40593E-07
 
   -0.12319E+06         0.14080E+07         0.00000E+00
    0.14080E+07        -0.56322E+08         0.00000E+00
    0.00000E+00         0.00000E+00         0.50750E-08
 
   -0.20484E+06         0.13638E+07         0.00000E+00
    0.13638E+07        -0.56725E+08         0.00000E+00
    0.00000E+00         0.00000E+00        -0.10146E-07
 
   -0.29399E+06         0.13095E+07         0.00000E+00
    0.13095E+07        -0.57140E+08         0.00000E+00
    0.00000E+00         0.00000E+00         0.00000E+00
 
   -0.39085E+06         0.12447E+07         0.00000E+00
    0.12447E+07        -0.57566E+08         0.00000E+00
    0.00000E+00         0.00000E+00        -0.10148E-07
 
   -0.49565E+06         0.11691E+07         0.00000E+00
    0.11691E+07        -0.58002E+08         0.00000E+00
    0.00000E+00         0.00000E+00        -0.15221E-07
 
   -0.60866E+06         0.10829E+07         0.00000E+00
    0.10829E+07        -0.58445E+08         0.00000E+00
    0.00000E+00         0.00000E+00        -0.10148E-07
 
   -0.73033E+06         0.98624E+06         0.00000E+00
    0.98624E+06        -0.58893E+08         0.00000E+00
    0.00000E+00         0.00000E+00        -0.20296E-07
 
   -0.86146E+06         0.88022E+06         0.00000E+00
    0.88022E+06        -0.59341E+08         0.00000E+00
    0.00000E+00         0.00000E+00        -0.50741E-07
 
   -0.10034E+07         0.76639E+06         0.00000E+00
    0.76639E+06        -0.59783E+08         0.00000E+00
    0.00000E+00         0.00000E+00        -0.30444E-07
 
   -0.11584E+07         0.64714E+06         0.00000E+00
    0.64714E+06        -0.60213E+08         0.00000E+00
    0.00000E+00         0.00000E+00         0.10150E-07
 
   -0.13303E+07         0.52581E+06         0.00000E+00
    0.52581E+06        -0.60621E+08         0.00000E+00
    0.00000E+00         0.00000E+00        -0.50741E-08
 
   -0.15251E+07         0.40667E+06         0.00000E+00
    0.40667E+06        -0.60994E+08         0.00000E+00
    0.00000E+00         0.00000E+00         0.10147E-07
 
   -0.17513E+07         0.29460E+06         0.00000E+00
    0.29460E+06        -0.61319E+08         0.00000E+00
    0.00000E+00         0.00000E+00         0.10147E-07
 
   -0.20195E+07         0.19424E+06         0.00000E+00
    0.19424E+06        -0.61578E+08         0.00000E+00
    0.00000E+00         0.00000E+00         0.15223E-07
 
   -0.23410E+07         0.10817E+06         0.00000E+00
    0.10817E+06        -0.61760E+08         0.00000E+00
    0.00000E+00         0.00000E+00        -0.10148E-07
 
   -0.27244E+07         0.34406E+05         0.00000E+00
    0.34406E+05        -0.61853E+08         0.00000E+00
    0.00000E+00         0.00000E+00        -0.10148E-07
 
    0.94460E+05         0.26282E+04         0.00000E+00
    0.26282E+04        -0.47601E+08         0.00000E+00
    0.00000E+00         0.00000E+00         0.00000E+00
 
    0.87028E+05         0.80037E+04         0.00000E+00
    0.80037E+04        -0.47603E+08         0.00000E+00
    0.00000E+00         0.00000E+00        -0.50741E-08
 
    0.81178E+05         0.13684E+05         0.00000E+00
    0.13684E+05        -0.47607E+08         0.00000E+00
    0.00000E+00         0.00000E+00         0.40593E-07
 
    0.76697E+05         0.19741E+05         0.00000E+00
    0.19741E+05        -0.47613E+08         0.00000E+00
    0.00000E+00         0.00000E+00         0.15222E-07
 
    0.73339E+05         0.26146E+05         0.00000E+00
    0.26146E+05        -0.47620E+08         0.00000E+00
    0.00000E+00         0.00000E+00         0.50740E-08
 
    0.70871E+05         0.32817E+05         0.00000E+00
    0.32817E+05        -0.47628E+08         0.00000E+00
    0.00000E+00         0.00000E+00         0.20296E-07
 
    0.69112E+05         0.39669E+05         0.00000E+00
    0.39669E+05        -0.47637E+08         0.00000E+00
    0.00000E+00         0.00000E+00         0.50741E-08
 
    0.67930E+05         0.46628E+05         0.00000E+00
    0.46628E+05        -0.47647E+08         0.00000E+00
    0.00000E+00         0.00000E+00         0.10148E-07
 
    0.67240E+05         0.53642E+05         0.00000E+00
    0.53642E+05        -0.47657E+08         0.00000E+00
    0.00000E+00         0.00000E+00        -0.20296E-07
 
    0.66987E+05         0.60682E+05         0.00000E+00
    0.60682E+05        -0.47668E+08         0.00000E+00
    0.00000E+00         0.00000E+00         0.15222E-07
 
    0.67134E+05         0.67734E+05         0.00000E+00
    0.67734E+05        -0.47679E+08         0.00000E+00
    0.00000E+00         0.00000E+00        -0.50741E-08
 
    0.67658E+05         0.74802E+05         0.00000E+00
    0.74802E+05        -0.47690E+08         0.00000E+00
    0.00000E+00         0.00000E+00        -0.10148E-07
 
    0.68545E+05         0.81896E+05         0.00000E+00
    0.81896E+05        -0.47702E+08         0.00000E+00
    0.00000E+00         0.00000E+00         0.10148E-07
 
    0.69784E+05         0.89037E+05         0.00000E+00
    0.89037E+05        -0.47715E+08         0.00000E+00
    0.00000E+00         0.00000E+00        -0.20296E-07
 
    0.71365E+05         0.96251E+05         0.00000E+00
    0.96251E+05        -0.47727E+08         0.00000E+00
    0.00000E+00         0.00000E+00         0.25370E-07
 
    0.73282E+05         0.10357E+06         0.00000E+00
    0.10357E+06        -0.47741E+08         0.00000E+00
    0.00000E+00         0.00000E+00        -0.30444E-07
 
    0.75528E+05         0.11101E+06         0.00000E+00
    0.11101E+06        -0.47754E+08         0.00000E+00
    0.00000E+00         0.00000E+00        -0.15222E-07
 
    0.78098E+05         0.11862E+06         0.00000E+00
    0.11862E+06        -0.47769E+08         0.00000E+00
    0.00000E+00         0.00000E+00         0.00000E+00
 
    0.80985E+05         0.12643E+06         0.00000E+00
    0.12643E+06        -0.47783E+08         0.00000E+00
    0.00000E+00         0.00000E+00         0.35518E-07
 
    0.84184E+05         0.13447E+06         0.00000E+00
    0.13447E+06        -0.47799E+08         0.00000E+00
    0.00000E+00         0.00000E+00         0.50741E-08
 
    0.87691E+05         0.14276E+06         0.00000E+00
    0.14276E+06        -0.47815E+08         0.00000E+00
    0.00000E+00         0.00000E+00         0.50741E-08
 
    0.91501E+05         0.15135E+06         0.00000E+00
    0.15135E+06        -0.47832E+08         0.00000E+00
    0.00000E+00         0.00000E+00        -0.50742E-08
 
    0.95610E+05         0.16026E+06         0.00000E+00
    0.16026E+06        -0.47850E+08         0.00000E+00
    0.00000E+00         0.00000E+00        -0.40593E-07
 
    0.10001E+06         0.16952E+06         0.00000E+00
    0.16952E+06        -0.47869E+08         0.00000E+00
    0.00000E+00         0.00000E+00         0.00000E+00
 
    0.10471E+06         0.17916E+06         0.00000E+00
    0.17916E+06        -0.47888E+08         0.00000E+00
    0.00000E+00         0.00000E+00         0.25370E-07
 
    0.10970E+06         0.18922E+06         0.00000E+00
    0.18922E+06        -0.47909E+08         0.00000E+00
    0.00000E+00         0.00000E+00         0.00000E+00
 
    0.11497E+06         0.19971E+06         0.00000E+00
    0.19971E+06        -0.47931E+08         0.00000E+00
    0.00000E+00         0.00000E+00         0.50741E-08
 
    0.12053E+06         0.21066E+06         0.00000E+00
    0.21066E+06        -0.47954E+08         0.00000E+00
    0.00000E+00         0.00000E+00        -0.50741E-08
 
    0.12637E+06         0.22211E+06         0.00000E+00
    0.22211E+06        -0.47979E+08         0.00000E+00
    0.00000E+00         0.00000E+00         0.15222E-07
 
    0.13250E+06         0.23407E+06         0.00000E+00
    0.23407E+06        -0.48005E+08         0.00000E+00
    0.00000E+00         0.00000E+00        -0.60889E-07
 
    0.13891E+06         0.24657E+06         0.00000E+00
    0.24657E+06        -0.48032E+08         0.00000E+00
    0.00000E+00         0.00000E+00         0.00000E+00
 
    0.14559E+06         0.25964E+06         0.00000E+00
    0.25964E+06        -0.48061E+08         0.00000E+00
    0.00000E+00         0.00000E+00         0.10148E-07
 
    0.15256E+06         0.27331E+06         0.00000E+00
    0.27331E+06        -0.48091E+08         0.00000E+00
    0.00000E+00         0.00000E+00         0.20296E-07
 
    0.15981E+06         0.28758E+06         0.00000E+00
    0.28758E+06        -0.48124E+08         0.00000E+00
    0.00000E+00         0.00000E+00         0.45667E-07
 
    0.16733E+06         0.30249E+06         0.00000E+00
    0.30249E+06        -0.48158E+08         0.00000E+00
    0.00000E+00         0.00000E+00         0.00000E+00
 
    0.17512E+06         0.31807E+06         0.00000E+00
    0.31807E+06        -0.48194E+08         0.00000E+00
    0.00000E+00         0.00000E+00         0.50741E-08
 
    0.18319E+06         0.33432E+06         0.00000E+00
    0.33432E+06        -0.48232E+08         0.00000E+00
    0.00000E+00         0.00000E+00        -0.20296E-07
 
    0.19152E+06         0.35128E+06         0.00000E+00
    0.35128E+06        -0.48273E+08         0.00000E+00
    0.00000E+00         0.00000E+00         0.00000E+00
 
    0.20011E+06         0.36895E+06         0.00000E+00
    0.36895E+06        -0.48316E+08         0.00000E+00
    0.00000E+00         0.00000E+00         0.00000E+00
 
    0.20895E+06         0.38737E+06         0.00000E+00
    0.38737E+06        -0.48361E+08         0.00000E+00
    0.00000E+00         0.00000E+00        -0.35518E-07
 
    0.21804E+06         0.40655E+06         0.00000E+00
    0.40655E+06        -0.48409E+08         0.00000E+00
    0.00000E+00         0.00000E+00         0.10148E-07
 
    0.22737E+06         0.42650E+06         0.00000E+00
    0.42650E+06        -0.48459E+08         0.00000E+00
    0.00000E+00         0.00000E+00        -0.50741E-08
 
    0.23693E+06         0.44724E+06         0.00000E+00
    0.44724E+06        -0.48513E+08         0.00000E+00
    0.00000E+00         0.00000E+00        -0.30444E-07
 
    0.24669E+06         0.46879E+06         0.00000E+00
    0.46879E+06        -0.48570E+08         0.00000E+00
    0.00000E+00         0.00000E+00         0.15222E-07
 
    0.25665E+06         0.49115E+06         0.00000E+00
    0.49115E+06        -0.48629E+08         0.00000E+00
    0.00000E+00         0.00000E+00         0.30444E-07
 
    0.26679E+06         0.51434E+06         0.00000E+00
    0.51434E+06        -0.48693E+08         0.00000E+00
    0.00000E+00         0.00000E+00        -0.50740E-07
 
    0.27709E+06         0.53835E+06         0.00000E+00
    0.53835E+06        -0.48759E+08         0.00000E+00
    0.00000E+00         0.00000E+00        -0.30444E-07
 
    0.28752E+06         0.56321E+06         0.00000E+00
    0.56321E+06        -0.48830E+08         0.00000E+00
    0.00000E+00         0.00000E+00         0.00000E+00
 
    0.29805E+06         0.58890E+06         0.00000E+00
    0.58890E+06        -0.48904E+08         0.00000E+00
    0.00000E+00         0.00000E+00        -0.35518E-07
 
    0.30865E+06         0.61542E+06         0.00000E+00
    0.61542E+06        -0.48983E+08         0.00000E+00
    0.00000E+00         0.00000E+00        -0.10148E-07
 
    0.31929E+06         0.64277E+06         0.00000E+00
    0.64277E+06        -0.49066E+08         0.00000E+00
    0.00000E+00         0.00000E+00         0.45667E-07
 
    0.32992E+06         0.67093E+06         0.00000E+00
    0.67093E+06        -0.49153E+08         0.00000E+00
    0.00000E+00         0.00000E+00        -0.50741E-08
 
    0.34051E+06         0.69990E+06         0.00000E+00
    0.69990E+06        -0.49246E+08         0.00000E+00
    0.00000E+00         0.00000E+00        -0.10148E-07
 
    0.35098E+06         0.72964E+06         0.00000E+00
    0.72964E+06        -0.49343E+08         0.00000E+00
    0.00000E+00         0.00000E+00        -0.20296E-07
 
    0.36130E+06         0.76014E+06         0.00000E+00
    0.76014E+06        -0.49445E+08         0.00000E+00
    0.00000E+00         0.00000E+00         0.00000E+00
 
    0.37139E+06         0.79136E+06         0.00000E+00
    0.79136E+06        -0.49553E+08         0.00000E+00
    0.00000E+00         0.00000E+00        -0.25370E-07
 
    0.38118E+06         0.82325E+06         0.00000E+00
    0.82325E+06        -0.49667E+08         0.00000E+00
    0.00000E+00         0.00000E+00         0.50741E-08
 
    0.39060E+06         0.85577E+06         0.00000E+00
    0.85577E+06        -0.49786E+08         0.00000E+00
    0.00000E+00         0.00000E+00        -0.15222E-07
 
    0.39956E+06         0.88886E+06         0.00000E+00
    0.88886E+06        -0.49912E+08         0.00000E+00
    0.00000E+00         0.00000E+00        -0.30444E-07
 
    0.40795E+06         0.92245E+06         0.00000E+00
    0.92245E+06        -0.50044E+08         0.00000E+00
    0.00000E+00         0.00000E+00        -0.15222E-07
 
    0.41568E+06         0.95646E+06         0.00000E+00
    0.95646E+06        -0.50183E+08         0.00000E+00
    0.00000E+00         0.00000E+00        -0.30444E-07
 
    0.42262E+06         0.99080E+06         0.00000E+00
    0.99080E+06        -0.50329E+08         0.00000E+00
    0.00000E+00         0.00000E+00         0.00000E+00
 
    0.42865E+06         0.10254E+07         0.00000E+00
    0.10254E+07        -0.50482E+08         0.00000E+00
    0.00000E+00         0.00000E+00        -0.50741E-08
 
    0.43362E+06         0.10600E+07         0.00000E+00
    0.10600E+07        -0.50643E+08         0.00000E+00
    0.00000E+00         0.00000E+00        -0.10148E-07
 
    0.43738E+06         0.10947E+07         0.00000E+00
    0.10947E+07        -0.50812E+08         0.00000E+00
    0.00000E+00         0.00000E+00        -0.50741E-07
 
    0.43976E+06         0.11292E+07         0.00000E+00
    0.11292E+07        -0.50988E+08         0.00000E+00
    0.00000E+00         0.00000E+00        -0.25370E-07
 
    0.44057E+06         0.11633E+07         0.00000E+00
    0.11633E+07        -0.51174E+08         0.00000E+00
    0.00000E+00         0.00000E+00        -0.15222E-07
 
    0.43962E+06         0.11968E+07         0.00000E+00
    0.11968E+07        -0.51368E+08         0.00000E+00
    0.00000E+00         0.00000E+00         0.50741E-08
 
    0.43669E+06         0.12296E+07         0.00000E+00
    0.12296E+07        -0.51571E+08         0.00000E+00
    0.00000E+00         0.00000E+00        -0.10148E-07
 
    0.43153E+06         0.12614E+07         0.00000E+00
    0.12614E+07        -0.51784E+08         0.00000E+00
    0.00000E+00         0.00000E+00         0.00000E+00
 
    0.42390E+06         0.12920E+07         0.00000E+00
    0.12920E+07        -0.52006E+08         0.00000E+00
    0.00000E+00         0.00000E+00         0.15222E-07
 
    0.41351E+06         0.13209E+07         0.00000E+00
    0.13209E+07        -0.52239E+08         0.00000E+00
    0.00000E+00         0.00000E+00         0.60889E-07
 
    0.40008E+06         0.13480E+07         0.00000E+00
    0.13480E+07        -0.52482E+08         0.00000E+00
    0.00000E+00         0.00000E+00         0.50741E-07
 
    0.38329E+06         0.13728E+07         0.00000E+00
    0.13728E+07        -0.52735E+08         0.00000E+00
    0.00000E+00         0.00000E+00        -0.10148E-07
 
    0.36279E+06         0.13949E+07         0.00000E+00
    0.13949E+07        -0.53000E+08         0.00000E+00
    0.00000E+00         0.00000E+00         0.10148E-07
 
    0.33825E+06         0.14139E+07         0.00000E+00
    0.14139E+07        -0.53276E+08         0.00000E+00
    0.00000E+00         0.00000E+00         0.10148E-07
 
    0.30929E+06         0.14293E+07         0.00000E+00
    0.14293E+07        -0.53564E+08         0.00000E+00
    0.00000E+00         0.00000E+00         0.20296E-07
 
    0.27552E+06         0.14406E+07         0.00000E+00
    0.14406E+07        -0.53863E+08         0.00000E+00
    0.00000E+00         0.00000E+00        -0.60889E-07
 
    0.23656E+06         0.14472E+07         0.00000E+00
    0.14472E+07        -0.54175E+08         0.00000E+00
    0.00000E+00         0.00000E+00         0.00000E+00
 
    0.19200E+06         0.14486E+07         0.00000E+00
    0.14486E+07        -0.54499E+08         0.00000E+00
    0.00000E+00         0.00000E+00         0.50732E-08
 
    0.14144E+06         0.14439E+07         0.00000E+00
    0.14439E+07        -0.54836E+08         0.00000E+00
    0.00000E+00         0.00000E+00        -0.50750E-08
 
    0.84477E+05         0.14327E+07         0.00000E+00
    0.14327E+07        -0.55186E+08         0.00000E+00
    0.00000E+00         0.00000E+00         0.20294E-07
 
    0.20742E+05         0.14142E+07         0.00000E+00
    0.14142E+07        -0.55549E+08         0.00000E+00
    0.00000E+00         0.00000E+00         0.00000E+00
 
   -0.50129E+05         0.13876E+07         0.00000E+00
    0.13876E+07        -0.55925E+08         0.00000E+00
    0.00000E+00         0.00000E+00        -0.10148E-07
 
   -0.12847E+06         0.13524E+07         0.00000E+00
    0.13524E+07        -0.56314E+08         0.00000E+00
    0.00000E+00         0.00000E+00         0.50741E-07
 
   -0.21457E+06         0.13077E+07         0.00000E+00
    0.13077E+07        -0.56715E+08         0.00000E+00
    0.00000E+00         0.00000E+00         0.15223E-07
 
   -0.30871E+06         0.12531E+07         0.00000E+00
    0.12531E+07        -0.57128E+08         0.00000E+00
    0.00000E+00         0.00000E+00        -0.25371E-07
 
   -0.41113E+06         0.11882E+07         0.00000E+00
    0.11882E+07        -0.57552E+08         0.00000E+00
    0.00000E+00         0.00000E+00         0.00000E+00
 
   -0.52208E+06         0.11125E+07         0.00000E+00
    0.11125E+07        -0.57986E+08         0.00000E+00
    0.00000E+00         0.00000E+00        -0.30444E-07
 
   -0.64185E+06         0.10263E+07         0.00000E+00
    0.10263E+07        -0.58427E+08         0.00000E+00
    0.00000E+00         0.00000E+00         0.25369E-07
 
   -0.77090E+06         0.93004E+06         0.00000E+00
    0.93004E+06        -0.58873E+08         0.00000E+00
    0.00000E+00         0.00000E+00        -0.50741E-07
 
   -0.90997E+06         0.82461E+06         0.00000E+00
    0.82461E+06        -0.59319E+08         0.00000E+00
    0.00000E+00         0.00000E+00         0.71039E-07
 
   -0.10603E+07         0.71182E+06         0.00000E+00
    0.71182E+06        -0.59760E+08         0.00000E+00
    0.00000E+00         0.00000E+00        -0.20296E-07
 
   -0.12241E+07         0.59432E+06         0.00000E+00
    0.59432E+06        -0.60189E+08         0.00000E+00
    0.00000E+00         0.00000E+00         0.00000E+00
 
   -0.14048E+07         0.47581E+06         0.00000E+00
    0.47581E+06        -0.60597E+08         0.00000E+00
    0.00000E+00         0.00000E+00         0.00000E+00
 
   -0.16081E+07         0.36103E+06         0.00000E+00
    0.36103E+06        -0.60972E+08         0.00000E+00
    0.00000E+00         0.00000E+00        -0.50732E-08
 
   -0.18418E+07         0.25540E+06         0.00000E+00
    0.25540E+06        -0.61298E+08         0.00000E+00
    0.00000E+00         0.00000E+00         0.50732E-08
 
   -0.21162E+07         0.16389E+06         0.00000E+00
    0.16389E+06        -0.61561E+08         0.00000E+00
    0.00000E+00         0.00000E+00         0.15222E-07
 
   -0.24419E+07         0.88919E+05         0.00000E+00
    0.88919E+05        -0.61745E+08         0.00000E+00
    0.00000E+00         0.00000E+00        -0.50737E-08
 
   -0.28275E+07         0.27811E+05         0.00000E+00
    0.27811E+05        -0.61840E+08         0.00000E+00
    0.00000E+00         0.00000E+00        -0.45666E-07
 
    0.98167E+05         0.24536E+04         0.00000E+00
    0.24536E+04        -0.47602E+08         0.00000E+00
    0.00000E+00         0.00000E+00        -0.10148E-07
 
    0.90711E+05         0.74903E+04         0.00000E+00
    0.74903E+04        -0.47604E+08         0.00000E+00
    0.00000E+00         0.00000E+00         0.10148E-07
 
    0.84812E+05         0.12861E+05         0.00000E+00
    0.12861E+05        -0.47608E+08         0.00000E+00
    0.00000E+00         0.00000E+00        -0.50741E-07
 
    0.80258E+05         0.18649E+05         0.00000E+00
    0.18649E+05        -0.47614E+08         0.00000E+00
    0.00000E+00         0.00000E+00        -0.45667E-07
 
    0.76809E+05         0.24827E+05         0.00000E+00
    0.24827E+05        -0.47621E+08         0.00000E+00
    0.00000E+00         0.00000E+00        -0.25370E-07
 
    0.74244E+05         0.31305E+05         0.00000E+00
    0.31305E+05        -0.47629E+08         0.00000E+00
    0.00000E+00         0.00000E+00         0.10148E-07
 
    0.72391E+05         0.37986E+05         0.00000E+00
    0.37986E+05        -0.47638E+08         0.00000E+00
    0.00000E+00         0.00000E+00         0.15222E-07
 
    0.71127E+05         0.44787E+05         0.00000E+00
    0.44787E+05        -0.47648E+08         0.00000E+00
    0.00000E+00         0.00000E+00         0.15222E-07
 
    0.70372E+05         0.51650E+05         0.00000E+00
    0.51650E+05        -0.47658E+08         0.00000E+00
    0.00000E+00         0.00000E+00        -0.30444E-07
 
    0.70073E+05         0.58538E+05         0.00000E+00
    0.58538E+05        -0.47669E+08         0.00000E+00
    0.00000E+00         0.00000E+00         0.50740E-08
 
    0.70196E+05         0.65436E+05         0.00000E+00
    0.65436E+05        -0.47680E+08         0.00000E+00
    0.00000E+00         0.00000E+00        -0.15222E-07
 
    0.70718E+05         0.72345E+05         0.00000E+00
    0.72345E+05        -0.47692E+08         0.00000E+00
    0.00000E+00         0.00000E+00         0.10148E-07
 
    0.71624E+05         0.79274E+05         0.00000E+00
    0.79274E+05        -0.47704E+08         0.00000E+00
    0.00000E+00         0.00000E+00        -0.50741E-08
 
    0.72902E+05         0.86244E+05         0.00000E+00
    0.86244E+05        -0.47716E+08         0.00000E+00
    0.00000E+00         0.00000E+00        -0.15222E-07
 
    0.74542E+05         0.93279E+05         0.00000E+00
    0.93279E+05        -0.47729E+08         0.00000E+00
    0.00000E+00         0.00000E+00         0.45667E-07
 
    0.76537E+05         0.10041E+06         0.00000E+00
    0.10041E+06        -0.47742E+08         0.00000E+00
    0.00000E+00         0.00000E+00         0.20296E-07
 
    0.78879E+05         0.10766E+06         0.00000E+00
    0.10766E+06        -0.47756E+08         0.00000E+00
    0.00000E+00         0.00000E+00         0.10148E-07
 
    0.81561E+05         0.11506E+06         0.00000E+00
    0.11506E+06        -0.47770E+08         0.00000E+00
    0.00000E+00         0.00000E+00         0.50741E-08
 
    0.84578E+05         0.12266E+06         0.00000E+00
    0.12266E+06        -0.47785E+08         0.00000E+00
    0.00000E+00         0.00000E+00         0.20296E-07
 
    0.87922E+05         0.13047E+06         0.00000E+00
    0.13047E+06        -0.47800E+08         0.00000E+00
    0.00000E+00         0.00000E+00        -0.10148E-07
 
    0.91589E+05         0.13853E+06         0.00000E+00
    0.13853E+06        -0.47817E+08         0.00000E+00
    0.00000E+00         0.00000E+00         0.55815E-07
 
    0.95573E+05         0.14687E+06         0.00000E+00
    0.14687E+06        -0.47834E+08         0.00000E+00
    0.00000E+00         0.00000E+00         0.10148E-07
 
    0.99870E+05         0.15552E+06         0.00000E+00
    0.15552E+06        -0.47852E+08         0.00000E+00
    0.00000E+00         0.00000E+00        -0.25370E-07
 
    0.10448E+06         0.16451E+06         0.00000E+00
    0.16451E+06        -0.47870E+08         0.00000E+00
    0.00000E+00         0.00000E+00         0.50741E-07
 
    0.10939E+06         0.17387E+06         0.00000E+00
    0.17387E+06        -0.47890E+08         0.00000E+00
    0.00000E+00         0.00000E+00         0.55815E-07
 
    0.11460E+06         0.18363E+06         0.00000E+00
    0.18363E+06        -0.47911E+08         0.00000E+00
    0.00000E+00         0.00000E+00         0.10148E-07
 
    0.12012E+06         0.19381E+06         0.00000E+00
    0.19381E+06        -0.47933E+08         0.00000E+00
    0.00000E+00         0.00000E+00        -0.20296E-07
 
    0.12593E+06         0.20444E+06         0.00000E+00
    0.20444E+06        -0.47956E+08         0.00000E+00
    0.00000E+00         0.00000E+00        -0.10148E-07
 
    0.13204E+06         0.21554E+06         0.00000E+00
    0.21554E+06        -0.47981E+08         0.00000E+00
    0.00000E+00         0.00000E+00        -0.30444E-07
 
    0.13845E+06         0.22714E+06         0.00000E+00
    0.22714E+06        -0.48007E+08         0.00000E+00
    0.00000E+00         0.00000E+00        -0.10148E-07
 
    0.14515E+06         0.23927E+06         0.00000E+00
    0.23927E+06        -0.48034E+08         0.00000E+00
    0.00000E+00         0.00000E+00         0.20296E-07
 
    0.15214E+06         0.25194E+06         0.00000E+00
    0.25194E+06        -0.48063E+08         0.00000E+00
    0.00000E+00         0.00000E+00         0.25370E-07
 
    0.15943E+06         0.26519E+06         0.00000E+00
    0.26519E+06        -0.48094E+08         0.00000E+00
    0.00000E+00         0.00000E+00         0.50741E-08
 
    0.16701E+06         0.27903E+06         0.00000E+00
    0.27903E+06        -0.48126E+08         0.00000E+00
    0.00000E+00         0.00000E+00        -0.50741E-08
 
    0.17487E+06         0.29349E+06         0.00000E+00
    0.29349E+06        -0.48161E+08         0.00000E+00
    0.00000E+00         0.00000E+00        -0.91333E-07
 
    0.18302E+06         0.30859E+06         0.00000E+00
    0.30859E+06        -0.48197E+08         0.00000E+00
    0.00000E+00         0.00000E+00        -0.25370E-07
 
    0.19146E+06         0.32434E+06         0.00000E+00
    0.32434E+06        -0.48235E+08         0.00000E+00
    0.00000E+00         0.00000E+00         0.55815E-07
 
    0.20017E+06         0.34078E+06         0.00000E+00
    0.34078E+06        -0.48276E+08         0.00000E+00
    0.00000E+00         0.00000E+00         0.00000E+00
 
    0.20916E+06         0.35791E+06         0.00000E+00
    0.35791E+06        -0.48319E+08         0.00000E+00
    0.00000E+00         0.00000E+00         0.40593E-07
 
    0.21841E+06         0.37576E+06         0.00000E+00
    0.37576E+06        -0.48365E+08         0.00000E+00
    0.00000E+00         0.00000E+00        -0.50740E-07
 
    0.22792E+06         0.39434E+06         0.00000E+00
    0.39434E+06        -0.48413E+08         0.00000E+00
    0.00000E+00         0.00000E+00         0.20296E-07
 
    0.23767E+06         0.41367E+06         0.00000E+00
    0.41367E+06        -0.48463E+08         0.00000E+00
    0.00000E+00         0.00000E+00         0.00000E+00
 
    0.24767E+06         0.43376E+06         0.00000E+00
    0.43376E+06        -0.48517E+08         0.00000E+00
    0.00000E+00         0.00000E+00         0.40593E-07
 
    0.25789E+06         0.45464E+06         0.00000E+00
    0.45464E+06        -0.48574E+08         0.00000E+00
    0.00000E+00         0.00000E+00         0.50741E-08
 
    0.26831E+06         0.47629E+06         0.00000E+00
    0.47629E+06        -0.48634E+08         0.00000E+00
    0.00000E+00         0.00000E+00        -0.20296E-07
 
    0.27892E+06         0.49875E+06         0.00000E+00
    0.49875E+06        -0.48697E+08         0.00000E+00
    0.00000E+00         0.00000E+00         0.50741E-08
 
    0.28969E+06         0.52201E+06         0.00000E+00
    0.52201E+06        -0.48764E+08         0.00000E+00
    0.00000E+00         0.00000E+00        -0.35518E-07
 
    0.30061E+06         0.54607E+06         0.00000E+00
    0.54607E+06        -0.48835E+08         0.00000E+00
    0.00000E+00         0.00000E+00         0.71037E-07
 
    0.31163E+06         0.57094E+06         0.00000E+00
    0.57094E+06        -0.48910E+08         0.00000E+00
    0.00000E+00         0.00000E+00         0.10148E-07
 
    0.32273E+06         0.59661E+06         0.00000E+00
    0.59661E+06        -0.48988E+08         0.00000E+00
    0.00000E+00         0.00000E+00         0.10148E-07
 
    0.33386E+06         0.62308E+06         0.00000E+00
    0.62308E+06        -0.49071E+08         0.00000E+00
    0.00000E+00         0.00000E+00        -0.35518E-07
 
    0.34500E+06         0.65033E+06         0.00000E+00
    0.65033E+06        -0.49159E+08         0.00000E+00
    0.00000E+00         0.00000E+00         0.50741E-07
 
    0.35608E+06         0.67836E+06         0.00000E+00
    0.67836E+06        -0.49251E+08         0.00000E+00
    0.00000E+00         0.00000E+00         0.50741E-08
 
    0.36705E+06         0.70713E+06         0.00000E+00
    0.70713E+06        -0.49349E+08         0.00000E+00
    0.00000E+00         0.00000E+00        -0.10148E-07
 
    0.37786E+06         0.73663E+06         0.00000E+00
    0.73663E+06        -0.49451E+08         0.00000E+00
    0.00000E+00         0.00000E+00        -0.10148E-07
 
    0.38843E+06         0.76681E+06         0.00000E+00
    0.76681E+06        -0.49559E+08         0.00000E+00
    0.00000E+00         0.00000E+00        -0.81185E-07
 
    0.39870E+06         0.79764E+06         0.00000E+00
    0.79764E+06        -0.49673E+08         0.00000E+00
    0.00000E+00         0.00000E+00         0.20296E-07
 
    0.40857E+06         0.82907E+06         0.00000E+00
    0.82907E+06        -0.49793E+08         0.00000E+00
    0.00000E+00         0.00000E+00        -0.10148E-07
 
    0.41797E+06         0.86105E+06         0.00000E+00
    0.86105E+06        -0.49918E+08         0.00000E+00
    0.00000E+00         0.00000E+00         0.10148E-07
 
    0.42678E+06         0.89350E+06         0.00000E+00
    0.89350E+06        -0.50051E+08         0.00000E+00
    0.00000E+00         0.00000E+00        -0.50741E-08
 
    0.43490E+06         0.92634E+06         0.00000E+00
    0.92634E+06        -0.50190E+08         0.00000E+00
    0.00000E+00         0.00000E+00         0.45667E-07
 
    0.44220E+06         0.95949E+06         0.00000E+00
    0.95949E+06        -0.50336E+08         0.00000E+00
    0.00000E+00         0.00000E+00         0.00000E+00
 
    0.44855E+06         0.99285E+06         0.00000E+00
    0.99285E+06        -0.50489E+08         0.00000E+00
    0.00000E+00         0.00000E+00         0.10148E-07
 
    0.45380E+06         0.10263E+07         0.00000E+00
    0.10263E+07        -0.50650E+08         0.00000E+00
    0.00000E+00         0.00000E+00        -0.55815E-07
 
    0.45779E+06         0.10597E+07         0.00000E+00
    0.10597E+07        -0.50818E+08         0.00000E+00
    0.00000E+00         0.00000E+00        -0.50741E-08
 
    0.46034E+06         0.10929E+07         0.00000E+00
    0.10929E+07        -0.50995E+08         0.00000E+00
    0.00000E+00         0.00000E+00         0.50741E-08
 
    0.46126E+06         0.11258E+07         0.00000E+00
    0.11258E+07        -0.51180E+08         0.00000E+00
    0.00000E+00         0.00000E+00         0.20296E-07
 
    0.46034E+06         0.11581E+07         0.00000E+00
    0.11581E+07        -0.51374E+08         0.00000E+00
    0.00000E+00         0.00000E+00         0.50741E-08
 
    0.45735E+06         0.11896E+07         0.00000E+00
    0.11896E+07        -0.51578E+08         0.00000E+00
    0.00000E+00         0.00000E+00        -0.55815E-07
 
    0.45204E+06         0.12202E+07         0.00000E+00
    0.12202E+07        -0.51790E+08         0.00000E+00
    0.00000E+00         0.00000E+00        -0.20296E-07
 
    0.44416E+06         0.12494E+07         0.00000E+00
    0.12494E+07        -0.52012E+08         0.00000E+00
    0.00000E+00         0.00000E+00        -0.10148E-07
 
    0.43339E+06         0.12772E+07         0.00000E+00
    0.12772E+07        -0.52244E+08         0.00000E+00
    0.00000E+00         0.00000E+00         0.25370E-07
 
    0.41945E+06         0.13030E+07         0.00000E+00
    0.13030E+07        -0.52487E+08         0.00000E+00
    0.00000E+00         0.00000E+00         0.30444E-07
 
    0.40200E+06         0.13267E+07         0.00000E+00
    0.13267E+07        -0.52740E+08         0.00000E+00
    0.00000E+00         0.00000E+00        -0.50741E-08
 
    0.38068E+06         0.13476E+07         0.00000E+00
    0.13476E+07        -0.53004E+08         0.00000E+00
    0.00000E+00         0.00000E+00        -0.30444E-07
 
    0.35512E+06         0.13656E+07         0.00000E+00
    0.13656E+07        -0.53279E+08         0.00000E+00
    0.00000E+00         0.00000E+00        -0.40593E-07
 
    0.32494E+06         0.13800E+07         0.00000E+00
    0.13800E+07        -0.53566E+08         0.00000E+00
    0.00000E+00         0.00000E+00        -0.25370E-07
 
    0.28972E+06         0.13903E+07         0.00000E+00
    0.13903E+07        -0.53865E+08         0.00000E+00
    0.00000E+00         0.00000E+00        -0.20296E-07
 
    0.24905E+06         0.13960E+07         0.00000E+00
    0.13960E+07        -0.54176E+08         0.00000E+00
    0.00000E+00         0.00000E+00         0.00000E+00
 
    0.20249E+06         0.13965E+07         0.00000E+00
    0.13965E+07        -0.54499E+08         0.00000E+00
    0.00000E+00         0.00000E+00        -0.20296E-07
 
    0.14961E+06         0.13912E+07         0.00000E+00
    0.13912E+07        -0.54835E+08         0.00000E+00
    0.00000E+00         0.00000E+00         0.10146E-07
 
    0.89996E+05         0.13793E+07         0.00000E+00
    0.13793E+07        -0.55183E+08         0.00000E+00
    0.00000E+00         0.00000E+00        -0.10150E-07
 
    0.23216E+05         0.13602E+07         0.00000E+00
    0.13602E+07        -0.55545E+08         0.00000E+00
    0.00000E+00         0.00000E+00         0.00000E+00
 
   -0.51124E+05         0.13332E+07         0.00000E+00
    0.13332E+07        -0.55919E+08         0.00000E+00
    0.00000E+00         0.00000E+00         0.20296E-07
 
   -0.13340E+06         0.12975E+07         0.00000E+00
    0.12975E+07        -0.56306E+08         0.00000E+00
    0.00000E+00         0.00000E+00         0.00000E+00
 
   -0.22394E+06         0.12526E+07         0.00000E+00
    0.12526E+07        -0.56705E+08         0.00000E+00
    0.00000E+00         0.00000E+00         0.10148E-07
 
   -0.32306E+06         0.11978E+07         0.00000E+00
    0.11978E+07        -0.57116E+08         0.00000E+00
    0.00000E+00         0.00000E+00        -0.20296E-07
 
   -0.43105E+06         0.11328E+07         0.00000E+00
    0.11328E+07        -0.57538E+08         0.00000E+00
    0.00000E+00         0.00000E+00         0.30444E-07
 
   -0.54818E+06         0.10572E+07         0.00000E+00
    0.10572E+07        -0.57970E+08         0.00000E+00
    0.00000E+00         0.00000E+00         0.20296E-07
 
   -0.67476E+06         0.97127E+06         0.00000E+00
    0.97127E+06        -0.58409E+08         0.00000E+00
    0.00000E+00         0.00000E+00         0.15223E-07
 
   -0.81125E+06         0.87537E+06         0.00000E+00
    0.87537E+06        -0.58853E+08         0.00000E+00
    0.00000E+00         0.00000E+00        -0.50750E-08
 
   -0.95833E+06         0.77065E+06         0.00000E+00
    0.77065E+06        -0.59297E+08         0.00000E+00
    0.00000E+00         0.00000E+00        -0.20298E-07
 
   -0.11172E+07         0.65899E+06         0.00000E+00
    0.65899E+06        -0.59737E+08         0.00000E+00
    0.00000E+00         0.00000E+00        -0.60891E-07
 
   -0.12897E+07         0.54327E+06         0.00000E+00
    0.54327E+06        -0.60166E+08         0.00000E+00
    0.00000E+00         0.00000E+00        -0.35518E-07
 
   -0.14792E+07         0.42754E+06         0.00000E+00
    0.42754E+06        -0.60574E+08         0.00000E+00
    0.00000E+00         0.00000E+00         0.10147E-07
 
   -0.16908E+07         0.31699E+06         0.00000E+00
    0.31699E+06        -0.60950E+08         0.00000E+00
    0.00000E+00         0.00000E+00        -0.30444E-07
 
   -0.19319E+07         0.21756E+06         0.00000E+00
    0.21756E+06        -0.61279E+08         0.00000E+00
    0.00000E+00         0.00000E+00         0.25370E-07
 
   -0.22122E+07         0.13455E+06         0.00000E+00
    0.13455E+06        -0.61545E+08         0.00000E+00
    0.00000E+00         0.00000E+00        -0.50741E-08
 
   -0.25417E+07         0.70268E+05         0.00000E+00
    0.70268E+05        -0.61733E+08         0.00000E+00
    0.00000E+00         0.00000E+00        -0.50738E-08
 
   -0.29292E+07         0.21409E+05         0.00000E+00
    0.21409E+05        -0.61830E+08         0.00000E+00
    0.00000E+00         0.00000E+00        -0.30444E-07
 
    0.10182E+06         0.22810E+04         0.00000E+00
    0.22810E+04        -0.47603E+08         0.00000E+00
    0.00000E+00         0.00000E+00        -0.14211E-13
 
    0.94341E+05         0.69834E+04         0.00000E+00
    0.69834E+04        -0.47605E+08         0.00000E+00
    0.00000E+00         0.00000E+00         0.50741E-08
 
    0.88399E+05         0.12050E+05         0.00000E+00
    0.12050E+05        -0.47609E+08         0.00000E+00
    0.00000E+00         0.00000E+00         0.10148E-07
 
    0.83777E+05         0.17574E+05         0.00000E+00
    0.17574E+05        -0.47615E+08         0.00000E+00
    0.00000E+00         0.00000E+00        -0.10148E-07
 
    0.80240E+05         0.23526E+05         0.00000E+00
    0.23526E+05        -0.47622E+08         0.00000E+00
    0.00000E+00         0.00000E+00         0.10148E-07
 
    0.77579E+05         0.29812E+05         0.00000E+00
    0.29812E+05        -0.47631E+08         0.00000E+00
    0.00000E+00         0.00000E+00         0.15222E-07
 
    0.75631E+05         0.36321E+05         0.00000E+00
    0.36321E+05        -0.47640E+08         0.00000E+00
    0.00000E+00         0.00000E+00        -0.30444E-07
 
    0.74284E+05         0.42962E+05         0.00000E+00
    0.42962E+05        -0.47649E+08         0.00000E+00
    0.00000E+00         0.00000E+00        -0.50741E-07
 
    0.73461E+05         0.49668E+05         0.00000E+00
    0.49668E+05        -0.47660E+08         0.00000E+00
    0.00000E+00         0.00000E+00        -0.25370E-07
 
    0.73114E+05         0.56401E+05         0.00000E+00
    0.56401E+05        -0.47670E+08         0.00000E+00
    0.00000E+00         0.00000E+00         0.50741E-08
 
    0.73210E+05         0.63141E+05         0.00000E+00
    0.63141E+05        -0.47682E+08         0.00000E+00
    0.00000E+00         0.00000E+00         0.00000E+00
 
    0.73727E+05         0.69886E+05         0.00000E+00
    0.69886E+05        -0.47693E+08         0.00000E+00
    0.00000E+00         0.00000E+00         0.10148E-07
 
    0.74650E+05         0.76647E+05         0.00000E+00
    0.76647E+05        -0.47705E+08         0.00000E+00
    0.00000E+00         0.00000E+00         0.00000E+00
 
    0.75965E+05         0.83441E+05         0.00000E+00
    0.83441E+05        -0.47717E+08         0.00000E+00
    0.00000E+00         0.00000E+00         0.15222E-07
 
    0.77663E+05         0.90292E+05         0.00000E+00
    0.90292E+05        -0.47730E+08         0.00000E+00
    0.00000E+00         0.00000E+00        -0.15222E-07
 
    0.79735E+05         0.97229E+05         0.00000E+00
    0.97229E+05        -0.47743E+08         0.00000E+00
    0.00000E+00         0.00000E+00         0.25370E-07
 
    0.82171E+05         0.10428E+06         0.00000E+00
    0.10428E+06        -0.47757E+08         0.00000E+00
    0.00000E+00         0.00000E+00        -0.25370E-07
 
    0.84965E+05         0.11148E+06         0.00000E+00
    0.11148E+06        -0.47772E+08         0.00000E+00
    0.00000E+00         0.00000E+00         0.50741E-07
 
    0.88109E+05         0.11885E+06         0.00000E+00
    0.11885E+06        -0.47786E+08         0.00000E+00
    0.00000E+00         0.00000E+00         0.35518E-07
 
    0.91597E+05         0.12644E+06         0.00000E+00
    0.12644E+06        -0.47802E+08         0.00000E+00
    0.00000E+00         0.00000E+00         0.10148E-07
 
    0.95421E+05         0.13426E+06         0.00000E+00
    0.13426E+06        -0.47818E+08         0.00000E+00
    0.00000E+00         0.00000E+00        -0.20296E-07
 
    0.99578E+05         0.14235E+06         0.00000E+00
    0.14235E+06        -0.47835E+08         0.00000E+00
    0.00000E+00         0.00000E+00         0.00000E+00
 
    0.10406E+06         0.15074E+06         0.00000E+00
    0.15074E+06        -0.47853E+08         0.00000E+00
    0.00000E+00         0.00000E+00        -0.25370E-07
 
    0.10887E+06         0.15946E+06         0.00000E+00
    0.15946E+06        -0.47872E+08         0.00000E+00
    0.00000E+00         0.00000E+00         0.50741E-08
 
    0.11399E+06         0.16854E+06         0.00000E+00
    0.16854E+06        -0.47892E+08         0.00000E+00
    0.00000E+00         0.00000E+00         0.00000E+00
 
    0.11943E+06         0.17799E+06         0.00000E+00
    0.17799E+06        -0.47913E+08         0.00000E+00
    0.00000E+00         0.00000E+00        -0.15222E-07
 
    0.12519E+06         0.18786E+06         0.00000E+00
    0.18786E+06        -0.47935E+08         0.00000E+00
    0.00000E+00         0.00000E+00         0.10148E-07
 
    0.13125E+06         0.19816E+06         0.00000E+00
    0.19816E+06        -0.47959E+08         0.00000E+00
    0.00000E+00         0.00000E+00        -0.10148E-07
 
    0.13763E+06         0.20892E+06         0.00000E+00
    0.20892E+06        -0.47983E+08         0.00000E+00
    0.00000E+00         0.00000E+00        -0.50741E-08
 
    0.14431E+06         0.22016E+06         0.00000E+00
    0.22016E+06        -0.48009E+08         0.00000E+00
    0.00000E+00         0.00000E+00        -0.10148E-07
 
    0.15130E+06         0.23190E+06         0.00000E+00
    0.23190E+06        -0.48037E+08         0.00000E+00
    0.00000E+00         0.00000E+00         0.20296E-07
 
    0.15860E+06         0.24418E+06         0.00000E+00
    0.24418E+06        -0.48066E+08         0.00000E+00
    0.00000E+00         0.00000E+00        -0.30444E-07
 
    0.16620E+06         0.25701E+06         0.00000E+00
    0.25701E+06        -0.48097E+08         0.00000E+00
    0.00000E+00         0.00000E+00         0.40593E-07
 
    0.17411E+06         0.27042E+06         0.00000E+00
    0.27042E+06        -0.48129E+08         0.00000E+00
    0.00000E+00         0.00000E+00         0.10148E-07
 
    0.18231E+06         0.28442E+06         0.00000E+00
    0.28442E+06        -0.48164E+08         0.00000E+00
    0.00000E+00         0.00000E+00         0.50741E-07
 
    0.19082E+06         0.29904E+06         0.00000E+00
    0.29904E+06        -0.48200E+08         0.00000E+00
    0.00000E+00         0.00000E+00         0.00000E+00
 
    0.19961E+06         0.31429E+06         0.00000E+00
    0.31429E+06        -0.48239E+08         0.00000E+00
    0.00000E+00         0.00000E+00        -0.20296E-07
 
    0.20870E+06         0.33020E+06         0.00000E+00
    0.33020E+06        -0.48279E+08         0.00000E+00
    0.00000E+00         0.00000E+00         0.10148E-07
 
    0.21808E+06         0.34678E+06         0.00000E+00
    0.34678E+06        -0.48323E+08         0.00000E+00
    0.00000E+00         0.00000E+00        -0.50741E-08
 
    0.22773E+06         0.36406E+06         0.00000E+00
    0.36406E+06        -0.48368E+08         0.00000E+00
    0.00000E+00         0.00000E+00        -0.50741E-08
 
    0.23766E+06         0.38204E+06         0.00000E+00
    0.38204E+06        -0.48416E+08         0.00000E+00
    0.00000E+00         0.00000E+00         0.30444E-07
 
    0.24784E+06         0.40075E+06         0.00000E+00
    0.40075E+06        -0.48467E+08         0.00000E+00
    0.00000E+00         0.00000E+00         0.00000E+00
 
    0.25827E+06         0.42020E+06         0.00000E+00
    0.42020E+06        -0.48521E+08         0.00000E+00
    0.00000E+00         0.00000E+00        -0.50738E-08
 
    0.26893E+06         0.44039E+06         0.00000E+00
    0.44039E+06        -0.48578E+08         0.00000E+00
    0.00000E+00         0.00000E+00         0.50741E-08
 
    0.27981E+06         0.46135E+06         0.00000E+00
    0.46135E+06        -0.48638E+08         0.00000E+00
    0.00000E+00         0.00000E+00         0.10148E-07
 
    0.29089E+06         0.48307E+06         0.00000E+00
    0.48307E+06        -0.48702E+08         0.00000E+00
    0.00000E+00         0.00000E+00        -0.50741E-08
 
    0.30213E+06         0.50556E+06         0.00000E+00
    0.50556E+06        -0.48769E+08         0.00000E+00
    0.00000E+00         0.00000E+00        -0.35518E-07
 
    0.31353E+06         0.52883E+06         0.00000E+00
    0.52883E+06        -0.48840E+08         0.00000E+00
    0.00000E+00         0.00000E+00         0.00000E+00
 
    0.32503E+06         0.55288E+06         0.00000E+00
    0.55288E+06        -0.48915E+08         0.00000E+00
    0.00000E+00         0.00000E+00        -0.10148E-07
 
    0.33662E+06         0.57770E+06         0.00000E+00
    0.57770E+06        -0.48994E+08         0.00000E+00
    0.00000E+00         0.00000E+00        -0.50741E-08
 
    0.34826E+06         0.60329E+06         0.00000E+00
    0.60329E+06        -0.49077E+08         0.00000E+00
    0.00000E+00         0.00000E+00        -0.15222E-07
 
    0.35988E+06         0.62963E+06         0.00000E+00
    0.62963E+06        -0.49165E+08         0.00000E+00
    0.00000E+00         0.00000E+00        -0.15222E-07
 
    0.37146E+06         0.65672E+06         0.00000E+00
    0.65672E+06        -0.49257E+08         0.00000E+00
    0.00000E+00         0.00000E+00        -0.50741E-08
 
    0.38293E+06         0.68452E+06         0.00000E+00
    0.68452E+06        -0.49355E+08         0.00000E+00
    0.00000E+00         0.00000E+00        -0.25370E-07
 
    0.39423E+06         0.71302E+06         0.00000E+00
    0.71302E+06        -0.49457E+08         0.00000E+00
    0.00000E+00         0.00000E+00         0.00000E+00
 
    0.40528E+06         0.74217E+06         0.00000E+00
    0.74217E+06        -0.49565E+08         0.00000E+00
    0.00000E+00         0.00000E+00        -0.25370E-07
 
    0.41602E+06         0.77194E+06         0.00000E+00
    0.77194E+06        -0.49679E+08         0.00000E+00
    0.00000E+00         0.00000E+00        -0.15222E-07
 
    0.42635E+06         0.80229E+06         0.00000E+00
    0.80229E+06        -0.49799E+08         0.00000E+00
    0.00000E+00         0.00000E+00        -0.15222E-07
 
    0.43619E+06         0.83315E+06         0.00000E+00
    0.83315E+06        -0.49925E+08         0.00000E+00
    0.00000E+00         0.00000E+00        -0.20296E-07
 
    0.44542E+06         0.86446E+06         0.00000E+00
    0.86446E+06        -0.50057E+08         0.00000E+00
    0.00000E+00         0.00000E+00         0.00000E+00
 
    0.45393E+06         0.89615E+06         0.00000E+00
    0.89615E+06        -0.50196E+08         0.00000E+00
    0.00000E+00         0.00000E+00         0.10148E-07
 
    0.46159E+06         0.92812E+06         0.00000E+00
    0.92812E+06        -0.50342E+08         0.00000E+00
    0.00000E+00         0.00000E+00        -0.40593E-07
 
    0.46827E+06         0.96027E+06         0.00000E+00
    0.96027E+06        -0.50495E+08         0.00000E+00
    0.00000E+00         0.00000E+00        -0.15222E-07
 
    0.47380E+06         0.99250E+06         0.00000E+00
    0.99250E+06        -0.50656E+08         0.00000E+00
    0.00000E+00         0.00000E+00         0.50741E-08
 
    0.47802E+06         0.10247E+07         0.00000E+00
    0.10247E+07        -0.50825E+08         0.00000E+00
    0.00000E+00         0.00000E+00        -0.65963E-07
 
    0.48075E+06         0.10567E+07         0.00000E+00
    0.10567E+07        -0.51002E+08         0.00000E+00
    0.00000E+00         0.00000E+00        -0.45667E-07
 
    0.48179E+06         0.10883E+07         0.00000E+00
    0.10883E+07        -0.51187E+08         0.00000E+00
    0.00000E+00         0.00000E+00         0.10148E-07
 
    0.48091E+06         0.11193E+07         0.00000E+00
    0.11193E+07        -0.51381E+08         0.00000E+00
    0.00000E+00         0.00000E+00         0.10148E-07
 
    0.47789E+06         0.11496E+07         0.00000E+00
    0.11496E+07        -0.51584E+08         0.00000E+00
    0.00000E+00         0.00000E+00         0.15222E-07
 
    0.47245E+06         0.11789E+07         0.00000E+00
    0.11789E+07        -0.51796E+08         0.00000E+00
    0.00000E+00         0.00000E+00         0.50741E-08
 
    0.46432E+06         0.12070E+07         0.00000E+00
    0.12070E+07        -0.52018E+08         0.00000E+00
    0.00000E+00         0.00000E+00        -0.10148E-07
 
    0.45321E+06         0.12335E+07         0.00000E+00
    0.12335E+07        -0.52250E+08         0.00000E+00
    0.00000E+00         0.00000E+00        -0.30444E-07
 
    0.43878E+06         0.12582E+07         0.00000E+00
    0.12582E+07        -0.52492E+08         0.00000E+00
    0.00000E+00         0.00000E+00         0.15222E-07
 
    0.42069E+06         0.12807E+07         0.00000E+00
    0.12807E+07        -0.52744E+08         0.00000E+00
    0.00000E+00         0.00000E+00         0.00000E+00
 
    0.39858E+06         0.13006E+07         0.00000E+00
    0.13006E+07        -0.53008E+08         0.00000E+00
    0.00000E+00         0.00000E+00        -0.10148E-07
 
    0.37204E+06         0.13175E+07         0.00000E+00
    0.13175E+07        -0.53282E+08         0.00000E+00
    0.00000E+00         0.00000E+00        -0.15222E-07
 
    0.34067E+06         0.13309E+07         0.00000E+00
    0.13309E+07        -0.53569E+08         0.00000E+00
    0.00000E+00         0.00000E+00         0.50741E-08
 
    0.30403E+06         0.13403E+07         0.00000E+00
    0.13403E+07        -0.53866E+08         0.00000E+00
    0.00000E+00         0.00000E+00        -0.20296E-07
 
    0.26169E+06         0.13452E+07         0.00000E+00
    0.13452E+07        -0.54176E+08         0.00000E+00
    0.00000E+00         0.00000E+00         0.00000E+00
 
    0.21318E+06         0.13449E+07         0.00000E+00
    0.13449E+07        -0.54498E+08         0.00000E+00
    0.00000E+00         0.00000E+00         0.00000E+00
 
    0.15804E+06         0.13389E+07         0.00000E+00
    0.13389E+07        -0.54833E+08         0.00000E+00
    0.00000E+00         0.00000E+00         0.15223E-07
 
    0.95800E+05         0.13264E+07         0.00000E+00
    0.13264E+07        -0.55180E+08         0.00000E+00
    0.00000E+00         0.00000E+00         0.15221E-07
 
    0.26014E+05         0.13068E+07         0.00000E+00
    0.13068E+07        -0.55540E+08         0.00000E+00
    0.00000E+00         0.00000E+00         0.40593E-07
 
   -0.51759E+05         0.12794E+07         0.00000E+00
    0.12794E+07        -0.55913E+08         0.00000E+00
    0.00000E+00         0.00000E+00         0.00000E+00
 
   -0.13793E+06         0.12435E+07         0.00000E+00
    0.12435E+07        -0.56298E+08         0.00000E+00
    0.00000E+00         0.00000E+00         0.50750E-08
 
   -0.23290E+06         0.11984E+07         0.00000E+00
    0.11984E+07        -0.56695E+08         0.00000E+00
    0.00000E+00         0.00000E+00        -0.40591E-07
 
   -0.33700E+06         0.11436E+07         0.00000E+00
    0.11436E+07        -0.57104E+08         0.00000E+00
    0.00000E+00         0.00000E+00        -0.15223E-07
 
   -0.45056E+06         0.10786E+07         0.00000E+00
    0.10786E+07        -0.57524E+08         0.00000E+00
    0.00000E+00         0.00000E+00        -0.40591E-07
 
   -0.57389E+06         0.10033E+07         0.00000E+00
    0.10033E+07        -0.57954E+08         0.00000E+00
    0.00000E+00         0.00000E+00         0.10148E-07
 
   -0.70733E+06         0.91762E+06         0.00000E+00
    0.91762E+06        -0.58391E+08         0.00000E+00
    0.00000E+00         0.00000E+00        -0.25369E-07
 
   -0.85131E+06         0.82226E+06         0.00000E+00
    0.82226E+06        -0.58832E+08         0.00000E+00
    0.00000E+00         0.00000E+00         0.30444E-07
 
   -0.10065E+07         0.71835E+06         0.00000E+00
    0.71835E+06        -0.59275E+08         0.00000E+00
    0.00000E+00         0.00000E+00         0.00000E+00
 
   -0.11739E+07         0.60791E+06         0.00000E+00
    0.60791E+06        -0.59714E+08         0.00000E+00
    0.00000E+00         0.00000E+00        -0.10148E-07
 
   -0.13552E+07         0.49400E+06         0.00000E+00
    0.49400E+06        -0.60143E+08         0.00000E+00
    0.00000E+00         0.00000E+00        -0.10148E-07
 
   -0.15535E+07         0.38100E+06         0.00000E+00
    0.38100E+06        -0.60552E+08         0.00000E+00
    0.00000E+00         0.00000E+00        -0.20295E-07
 
   -0.17734E+07         0.27453E+06         0.00000E+00
    0.27453E+06        -0.60929E+08         0.00000E+00
    0.00000E+00         0.00000E+00         0.00000E+00
 
   -0.20217E+07         0.18102E+06         0.00000E+00
    0.18102E+06        -0.61261E+08         0.00000E+00
    0.00000E+00         0.00000E+00         0.50741E-08
 
   -0.23075E+07         0.10614E+06         0.00000E+00
    0.10614E+06        -0.61531E+08         0.00000E+00
    0.00000E+00         0.00000E+00         0.40592E-07
 
   -0.26406E+07         0.52156E+05         0.00000E+00
    0.52156E+05        -0.61723E+08         0.00000E+00
    0.00000E+00         0.00000E+00         0.15222E-07
 
   -0.30298E+07         0.15178E+05         0.00000E+00
    0.15178E+05        -0.61822E+08         0.00000E+00
    0.00000E+00         0.00000E+00         0.15222E-07
 
    0.10542E+06         0.21100E+04         0.00000E+00
    0.21100E+04        -0.47604E+08         0.00000E+00
    0.00000E+00         0.00000E+00         0.10148E-07
 
    0.97923E+05         0.64820E+04         0.00000E+00
    0.64820E+04        -0.47606E+08         0.00000E+00
    0.00000E+00         0.00000E+00        -0.30444E-07
 
    0.91942E+05         0.11249E+05         0.00000E+00
    0.11249E+05        -0.47610E+08         0.00000E+00
    0.00000E+00         0.00000E+00        -0.20296E-07
 
    0.87256E+05         0.16514E+05         0.00000E+00
    0.16514E+05        -0.47616E+08         0.00000E+00
    0.00000E+00         0.00000E+00        -0.50741E-07
 
    0.83634E+05         0.22245E+05         0.00000E+00
    0.22245E+05        -0.47623E+08         0.00000E+00
    0.00000E+00         0.00000E+00         0.00000E+00
 
    0.80876E+05         0.28338E+05         0.00000E+00
    0.28338E+05        -0.47632E+08         0.00000E+00
    0.00000E+00         0.00000E+00         0.50741E-08
 
    0.78832E+05         0.34674E+05         0.00000E+00
    0.34674E+05        -0.47641E+08         0.00000E+00
    0.00000E+00         0.00000E+00        -0.30444E-07
 
    0.77398E+05         0.41152E+05         0.00000E+00
    0.41152E+05        -0.47651E+08         0.00000E+00
    0.00000E+00         0.00000E+00         0.30444E-07
 
    0.76504E+05         0.47699E+05         0.00000E+00
    0.47699E+05        -0.47661E+08         0.00000E+00
    0.00000E+00         0.00000E+00         0.50741E-07
 
    0.76107E+05         0.54272E+05         0.00000E+00
    0.54272E+05        -0.47672E+08         0.00000E+00
    0.00000E+00         0.00000E+00        -0.20296E-07
 
    0.76174E+05         0.60849E+05         0.00000E+00
    0.60849E+05        -0.47683E+08         0.00000E+00
    0.00000E+00         0.00000E+00         0.10148E-07
 
    0.76685E+05         0.67427E+05         0.00000E+00
    0.67427E+05        -0.47695E+08         0.00000E+00
    0.00000E+00         0.00000E+00         0.15222E-07
 
    0.77622E+05         0.74014E+05         0.00000E+00
    0.74014E+05        -0.47706E+08         0.00000E+00
    0.00000E+00         0.00000E+00         0.25370E-07
 
    0.78974E+05         0.80628E+05         0.00000E+00
    0.80628E+05        -0.47719E+08         0.00000E+00
    0.00000E+00         0.00000E+00         0.20296E-07
 
    0.80728E+05         0.87293E+05         0.00000E+00
    0.87293E+05        -0.47732E+08         0.00000E+00
    0.00000E+00         0.00000E+00         0.15222E-07
 
    0.82874E+05         0.94035E+05         0.00000E+00
    0.94035E+05        -0.47745E+08         0.00000E+00
    0.00000E+00         0.00000E+00         0.45667E-07
 
    0.85404E+05         0.10088E+06         0.00000E+00
    0.10088E+06        -0.47759E+08         0.00000E+00
    0.00000E+00         0.00000E+00         0.15222E-07
 
    0.88308E+05         0.10787E+06         0.00000E+00
    0.10787E+06        -0.47773E+08         0.00000E+00
    0.00000E+00         0.00000E+00        -0.10148E-07
 
    0.91578E+05         0.11502E+06         0.00000E+00
    0.11502E+06        -0.47788E+08         0.00000E+00
    0.00000E+00         0.00000E+00         0.10148E-07
 
    0.95207E+05         0.12238E+06         0.00000E+00
    0.12238E+06        -0.47804E+08         0.00000E+00
    0.00000E+00         0.00000E+00         0.40593E-07
 
    0.99188E+05         0.12996E+06         0.00000E+00
    0.12996E+06        -0.47820E+08         0.00000E+00
    0.00000E+00         0.00000E+00        -0.30444E-07
 
    0.10351E+06         0.13780E+06         0.00000E+00
    0.13780E+06        -0.47837E+08         0.00000E+00
    0.00000E+00         0.00000E+00        -0.25370E-07
 
    0.10818E+06         0.14593E+06         0.00000E+00
    0.14593E+06        -0.47855E+08         0.00000E+00
    0.00000E+00         0.00000E+00         0.20296E-07
 
    0.11319E+06         0.15437E+06         0.00000E+00
    0.15437E+06        -0.47874E+08         0.00000E+00
    0.00000E+00         0.00000E+00        -0.10148E-07
 
    0.11852E+06         0.16316E+06         0.00000E+00
    0.16316E+06        -0.47894E+08         0.00000E+00
    0.00000E+00         0.00000E+00        -0.15222E-07
 
    0.12418E+06         0.17231E+06         0.00000E+00
    0.17231E+06        -0.47915E+08         0.00000E+00
    0.00000E+00         0.00000E+00         0.15222E-07
 
    0.13018E+06         0.18186E+06         0.00000E+00
    0.18186E+06        -0.47937E+08         0.00000E+00
    0.00000E+00         0.00000E+00         0.15222E-07
 
    0.13649E+06         0.19183E+06         0.00000E+00
    0.19183E+06        -0.47961E+08         0.00000E+00
    0.00000E+00         0.00000E+00        -0.60889E-07
 
    0.14313E+06         0.20224E+06         0.00000E+00
    0.20224E+06        -0.47985E+08         0.00000E+00
    0.00000E+00         0.00000E+00        -0.25370E-07
 
    0.15008E+06         0.21312E+06         0.00000E+00
    0.21312E+06        -0.48012E+08         0.00000E+00
    0.00000E+00         0.00000E+00         0.50741E-08
 
    0.15736E+06         0.22448E+06         0.00000E+00
    0.22448E+06        -0.48039E+08         0.00000E+00
    0.00000E+00         0.00000E+00        -0.25370E-07
 
    0.16496E+06         0.23636E+06         0.00000E+00
    0.23636E+06        -0.48068E+08         0.00000E+00
    0.00000E+00         0.00000E+00         0.15222E-07
 
    0.17287E+06         0.24877E+06         0.00000E+00
    0.24877E+06        -0.48099E+08         0.00000E+00
    0.00000E+00         0.00000E+00         0.35518E-07
 
    0.18110E+06         0.26174E+06         0.00000E+00
    0.26174E+06        -0.48132E+08         0.00000E+00
    0.00000E+00         0.00000E+00        -0.20296E-07
 
    0.18964E+06         0.27528E+06         0.00000E+00
    0.27528E+06        -0.48166E+08         0.00000E+00
    0.00000E+00         0.00000E+00        -0.55815E-07
 
    0.19849E+06         0.28941E+06         0.00000E+00
    0.28941E+06        -0.48203E+08         0.00000E+00
    0.00000E+00         0.00000E+00        -0.10148E-07
 
    0.20765E+06         0.30416E+06         0.00000E+00
    0.30416E+06        -0.48242E+08         0.00000E+00
    0.00000E+00         0.00000E+00         0.00000E+00
 
    0.21712E+06         0.31955E+06         0.00000E+00
    0.31955E+06        -0.48283E+08         0.00000E+00
    0.00000E+00         0.00000E+00         0.10148E-07
 
    0.22688E+06         0.33558E+06         0.00000E+00
    0.33558E+06        -0.48326E+08         0.00000E+00
    0.00000E+00         0.00000E+00        -0.50741E-07
 
    0.23693E+06         0.35228E+06         0.00000E+00
    0.35228E+06        -0.48372E+08         0.00000E+00
    0.00000E+00         0.00000E+00        -0.50741E-08
 
    0.24726E+06         0.36967E+06         0.00000E+00
    0.36967E+06        -0.48420E+08         0.00000E+00
    0.00000E+00         0.00000E+00        -0.20296E-07
 
    0.25786E+06         0.38775E+06         0.00000E+00
    0.38775E+06        -0.48471E+08         0.00000E+00
    0.00000E+00         0.00000E+00        -0.50741E-07
 
    0.26873E+06         0.40654E+06         0.00000E+00
    0.40654E+06        -0.48525E+08         0.00000E+00
    0.00000E+00         0.00000E+00         0.00000E+00
 
    0.27983E+06         0.42606E+06         0.00000E+00
    0.42606E+06        -0.48582E+08         0.00000E+00
    0.00000E+00         0.00000E+00         0.45667E-07
 
    0.29116E+06         0.44631E+06         0.00000E+00
    0.44631E+06        -0.48642E+08         0.00000E+00
    0.00000E+00         0.00000E+00         0.15222E-07
 
    0.30270E+06         0.46729E+06         0.00000E+00
    0.46729E+06        -0.48706E+08         0.00000E+00
    0.00000E+00         0.00000E+00         0.10148E-07
 
    0.31441E+06         0.48902E+06         0.00000E+00
    0.48902E+06        -0.48773E+08         0.00000E+00
    0.00000E+00         0.00000E+00        -0.50741E-08
 
    0.32628E+06         0.51150E+06         0.00000E+00
    0.51150E+06        -0.48844E+08         0.00000E+00
    0.00000E+00         0.00000E+00         0.25370E-07
 
    0.33827E+06         0.53473E+06         0.00000E+00
    0.53473E+06        -0.48919E+08         0.00000E+00
    0.00000E+00         0.00000E+00         0.00000E+00
 
    0.35035E+06         0.55870E+06         0.00000E+00
    0.55870E+06        -0.48998E+08         0.00000E+00
    0.00000E+00         0.00000E+00         0.15222E-07
 
    0.36247E+06         0.58340E+06         0.00000E+00
    0.58340E+06        -0.49082E+08         0.00000E+00
    0.00000E+00         0.00000E+00         0.00000E+00
 
    0.37459E+06         0.60884E+06         0.00000E+00
    0.60884E+06        -0.49170E+08         0.00000E+00
    0.00000E+00         0.00000E+00        -0.50741E-08
 
    0.38666E+06         0.63498E+06         0.00000E+00
    0.63498E+06        -0.49262E+08         0.00000E+00
    0.00000E+00         0.00000E+00         0.10148E-07
 
    0.39862E+06         0.66181E+06         0.00000E+00
    0.66181E+06        -0.49360E+08         0.00000E+00
    0.00000E+00         0.00000E+00         0.45667E-07
 
    0.41041E+06         0.68931E+06         0.00000E+00
    0.68931E+06        -0.49463E+08         0.00000E+00
    0.00000E+00         0.00000E+00        -0.50741E-08
 
    0.42194E+06         0.71743E+06         0.00000E+00
    0.71743E+06        -0.49571E+08         0.00000E+00
    0.00000E+00         0.00000E+00         0.20296E-07
 
    0.43315E+06         0.74615E+06         0.00000E+00
    0.74615E+06        -0.49685E+08         0.00000E+00
    0.00000E+00         0.00000E+00         0.10148E-07
 
    0.44394E+06         0.77541E+06         0.00000E+00
    0.77541E+06        -0.49805E+08         0.00000E+00
    0.00000E+00         0.00000E+00         0.20296E-07
 
    0.45421E+06         0.80516E+06         0.00000E+00
    0.80516E+06        -0.49931E+08         0.00000E+00
    0.00000E+00         0.00000E+00        -0.15222E-07
 
    0.46386E+06         0.83534E+06         0.00000E+00
    0.83534E+06        -0.50063E+08         0.00000E+00
    0.00000E+00         0.00000E+00        -0.20296E-07
 
    0.47277E+06         0.86587E+06         0.00000E+00
    0.86587E+06        -0.50202E+08         0.00000E+00
    0.00000E+00         0.00000E+00        -0.50740E-07
 
    0.48080E+06         0.89667E+06         0.00000E+00
    0.89667E+06        -0.50348E+08         0.00000E+00
    0.00000E+00         0.00000E+00         0.30444E-07
 
    0.48780E+06         0.92763E+06         0.00000E+00
    0.92763E+06        -0.50502E+08         0.00000E+00
    0.00000E+00         0.00000E+00         0.00000E+00
 
    0.49363E+06         0.95866E+06         0.00000E+00
    0.95866E+06        -0.50663E+08         0.00000E+00
    0.00000E+00         0.00000E+00         0.50741E-08
 
    0.49809E+06         0.98961E+06         0.00000E+00
    0.98961E+06        -0.50831E+08         0.00000E+00
    0.00000E+00         0.00000E+00         0.10148E-07
 
    0.50101E+06         0.10204E+07         0.00000E+00
    0.10204E+07        -0.51008E+08         0.00000E+00
    0.00000E+00         0.00000E+00         0.55815E-07
 
    0.50218E+06         0.10507E+07         0.00000E+00
    0.10507E+07        -0.51193E+08         0.00000E+00
    0.00000E+00         0.00000E+00        -0.50741E-08
 
    0.50136E+06         0.10806E+07         0.00000E+00
    0.10806E+07        -0.51387E+08         0.00000E+00
    0.00000E+00         0.00000E+00         0.00000E+00
 
    0.49830E+06         0.11096E+07         0.00000E+00
    0.11096E+07        -0.51589E+08         0.00000E+00
    0.00000E+00         0.00000E+00         0.50741E-08
 
    0.49275E+06         0.11377E+07         0.00000E+00
    0.11377E+07        -0.51802E+08         0.00000E+00
    0.00000E+00         0.00000E+00        -0.50741E-08
 
    0.48441E+06         0.11646E+07         0.00000E+00
    0.11646E+07        -0.52023E+08         0.00000E+00
    0.00000E+00         0.00000E+00         0.20296E-07
 
    0.47296E+06         0.11899E+07         0.00000E+00
    0.11899E+07        -0.52255E+08         0.00000E+00
    0.00000E+00         0.00000E+00         0.10148E-07
 
    0.45808E+06         0.12135E+07         0.00000E+00
    0.12135E+07        -0.52496E+08         0.00000E+00
    0.00000E+00         0.00000E+00         0.20296E-07
 
    0.43938E+06         0.12349E+07         0.00000E+00
    0.12349E+07        -0.52748E+08         0.00000E+00
    0.00000E+00         0.00000E+00        -0.20296E-07
 
    0.41650E+06         0.12537E+07         0.00000E+00
    0.12537E+07        -0.53011E+08         0.00000E+00
    0.00000E+00         0.00000E+00        -0.50741E-08
 
    0.38902E+06         0.12696E+07         0.00000E+00
    0.12696E+07        -0.53285E+08         0.00000E+00
    0.00000E+00         0.00000E+00         0.30444E-07
 
    0.35650E+06         0.12820E+07         0.00000E+00
    0.12820E+07        -0.53571E+08         0.00000E+00
    0.00000E+00         0.00000E+00        -0.20296E-07
 
    0.31849E+06         0.12906E+07         0.00000E+00
    0.12906E+07        -0.53868E+08         0.00000E+00
    0.00000E+00         0.00000E+00        -0.10148E-07
 
    0.27452E+06         0.12947E+07         0.00000E+00
    0.12947E+07        -0.54177E+08         0.00000E+00
    0.00000E+00         0.00000E+00         0.10148E-07
 
    0.22410E+06         0.12937E+07         0.00000E+00
    0.12937E+07        -0.54498E+08         0.00000E+00
    0.00000E+00         0.00000E+00         0.10148E-07
 
    0.16673E+06         0.12871E+07         0.00000E+00
    0.12871E+07        -0.54831E+08         0.00000E+00
    0.00000E+00         0.00000E+00         0.00000E+00
 
    0.10192E+06         0.12741E+07         0.00000E+00
    0.12741E+07        -0.55177E+08         0.00000E+00
    0.00000E+00         0.00000E+00         0.20296E-07
 
    0.29166E+05         0.12541E+07         0.00000E+00
    0.12541E+07        -0.55535E+08         0.00000E+00
    0.00000E+00         0.00000E+00        -0.50741E-07
 
   -0.52003E+05         0.12264E+07         0.00000E+00
    0.12264E+07        -0.55906E+08         0.00000E+00
    0.00000E+00         0.00000E+00         0.10148E-07
 
   -0.14205E+06         0.11903E+07         0.00000E+00
    0.11903E+07        -0.56290E+08         0.00000E+00
    0.00000E+00         0.00000E+00        -0.10146E-07
 
   -0.24141E+06         0.11452E+07         0.00000E+00
    0.11452E+07        -0.56685E+08         0.00000E+00
    0.00000E+00         0.00000E+00         0.76110E-07
 
   -0.35047E+06         0.10904E+07         0.00000E+00
    0.10904E+07        -0.57092E+08         0.00000E+00
    0.00000E+00         0.00000E+00         0.15221E-07
 
   -0.46961E+06         0.10256E+07         0.00000E+00
    0.10256E+07        -0.57510E+08         0.00000E+00
    0.00000E+00         0.00000E+00         0.25369E-07
 
   -0.59916E+06         0.95057E+06         0.00000E+00
    0.95057E+06        -0.57938E+08         0.00000E+00
    0.00000E+00         0.00000E+00         0.15223E-07
 
   -0.73950E+06         0.86541E+06         0.00000E+00
    0.86541E+06        -0.58373E+08         0.00000E+00
    0.00000E+00         0.00000E+00         0.15223E-07
 
   -0.89103E+06         0.77072E+06         0.00000E+00
    0.77072E+06        -0.58813E+08         0.00000E+00
    0.00000E+00         0.00000E+00         0.20298E-07
 
   -0.10543E+07         0.66773E+06         0.00000E+00
    0.66773E+06        -0.59254E+08         0.00000E+00
    0.00000E+00         0.00000E+00         0.15223E-07
 
   -0.12304E+07         0.55858E+06         0.00000E+00
    0.55858E+06        -0.59692E+08         0.00000E+00
    0.00000E+00         0.00000E+00         0.30444E-07
 
   -0.14207E+07         0.44651E+06         0.00000E+00
    0.44651E+06        -0.60120E+08         0.00000E+00
    0.00000E+00         0.00000E+00         0.50739E-07
 
   -0.16278E+07         0.33618E+06         0.00000E+00
    0.33618E+06        -0.60530E+08         0.00000E+00
    0.00000E+00         0.00000E+00        -0.30445E-07
 
   -0.18559E+07         0.23363E+06         0.00000E+00
    0.23363E+06        -0.60909E+08         0.00000E+00
    0.00000E+00         0.00000E+00         0.55814E-07
 
   -0.21112E+07         0.14575E+06         0.00000E+00
    0.14575E+06        -0.61245E+08         0.00000E+00
    0.00000E+00         0.00000E+00        -0.45666E-07
 
   -0.24023E+07         0.78620E+05         0.00000E+00
    0.78620E+05        -0.61519E+08         0.00000E+00
    0.00000E+00         0.00000E+00        -0.30444E-07
 
   -0.27388E+07         0.34536E+05         0.00000E+00
    0.34536E+05        -0.61715E+08         0.00000E+00
    0.00000E+00         0.00000E+00        -0.50738E-08
 
   -0.31296E+07         0.91002E+04         0.00000E+00
    0.91002E+04        -0.61817E+08         0.00000E+00
    0.00000E+00         0.00000E+00        -0.15222E-07
 
    0.10897E+06         0.19402E+04         0.00000E+00
    0.19402E+04        -0.47605E+08         0.00000E+00
    0.00000E+00         0.00000E+00        -0.35518E-07
 
    0.10146E+06         0.59853E+04         0.00000E+00
    0.59853E+04        -0.47607E+08         0.00000E+00
    0.00000E+00         0.00000E+00         0.50741E-08
 
    0.95442E+05         0.10458E+05         0.00000E+00
    0.10458E+05        -0.47611E+08         0.00000E+00
    0.00000E+00         0.00000E+00         0.60889E-07
 
    0.90694E+05         0.15468E+05         0.00000E+00
    0.15468E+05        -0.47617E+08         0.00000E+00
    0.00000E+00         0.00000E+00        -0.25370E-07
 
    0.86988E+05         0.20982E+05         0.00000E+00
    0.20982E+05        -0.47625E+08         0.00000E+00
    0.00000E+00         0.00000E+00         0.15222E-07
 
    0.84133E+05         0.26885E+05         0.00000E+00
    0.26885E+05        -0.47633E+08         0.00000E+00
    0.00000E+00         0.00000E+00         0.20296E-07
 
    0.81991E+05         0.33046E+05         0.00000E+00
    0.33046E+05        -0.47642E+08         0.00000E+00
    0.00000E+00         0.00000E+00        -0.20296E-07
 
    0.80468E+05         0.39358E+05         0.00000E+00
    0.39358E+05        -0.47652E+08         0.00000E+00
    0.00000E+00         0.00000E+00        -0.50741E-08
 
    0.79501E+05         0.45742E+05         0.00000E+00
    0.45742E+05        -0.47662E+08         0.00000E+00
    0.00000E+00         0.00000E+00         0.91333E-07
 
    0.79050E+05         0.52151E+05         0.00000E+00
    0.52151E+05        -0.47673E+08         0.00000E+00
    0.00000E+00         0.00000E+00         0.10148E-07
 
    0.79086E+05         0.58561E+05         0.00000E+00
    0.58561E+05        -0.47684E+08         0.00000E+00
    0.00000E+00         0.00000E+00         0.45667E-07
 
    0.79588E+05         0.64967E+05         0.00000E+00
    0.64967E+05        -0.47696E+08         0.00000E+00
    0.00000E+00         0.00000E+00        -0.40593E-07
 
    0.80539E+05         0.71376E+05         0.00000E+00
    0.71376E+05        -0.47708E+08         0.00000E+00
    0.00000E+00         0.00000E+00         0.50741E-08
 
    0.81925E+05         0.77807E+05         0.00000E+00
    0.77807E+05        -0.47720E+08         0.00000E+00
    0.00000E+00         0.00000E+00        -0.10148E-07
 
    0.83734E+05         0.84280E+05         0.00000E+00
    0.84280E+05        -0.47733E+08         0.00000E+00
    0.00000E+00         0.00000E+00        -0.20296E-07
 
    0.85954E+05         0.90824E+05         0.00000E+00
    0.90824E+05        -0.47746E+08         0.00000E+00
    0.00000E+00         0.00000E+00         0.50741E-08
 
    0.88575E+05         0.97467E+05         0.00000E+00
    0.97467E+05        -0.47760E+08         0.00000E+00
    0.00000E+00         0.00000E+00        -0.35518E-07
 
    0.91588E+05         0.10424E+06         0.00000E+00
    0.10424E+06        -0.47774E+08         0.00000E+00
    0.00000E+00         0.00000E+00        -0.56843E-13
 
    0.94983E+05         0.11117E+06         0.00000E+00
    0.11117E+06        -0.47789E+08         0.00000E+00
    0.00000E+00         0.00000E+00         0.40593E-07
 
    0.98752E+05         0.11829E+06         0.00000E+00
    0.11829E+06        -0.47805E+08         0.00000E+00
    0.00000E+00         0.00000E+00         0.30444E-07
 
    0.10289E+06         0.12563E+06         0.00000E+00
    0.12563E+06        -0.47821E+08         0.00000E+00
    0.00000E+00         0.00000E+00        -0.35518E-07
 
    0.10738E+06         0.13321E+06         0.00000E+00
    0.13321E+06        -0.47839E+08         0.00000E+00
    0.00000E+00         0.00000E+00         0.45667E-07
 
    0.11223E+06         0.14108E+06         0.00000E+00
    0.14108E+06        -0.47857E+08         0.00000E+00
    0.00000E+00         0.00000E+00         0.81185E-07
 
    0.11743E+06         0.14924E+06         0.00000E+00
    0.14924E+06        -0.47876E+08         0.00000E+00
    0.00000E+00         0.00000E+00         0.00000E+00
 
    0.12297E+06         0.15774E+06         0.00000E+00
    0.15774E+06        -0.47896E+08         0.00000E+00
    0.00000E+00         0.00000E+00         0.20296E-07
 
    0.12886E+06         0.16659E+06         0.00000E+00
    0.16659E+06        -0.47917E+08         0.00000E+00
    0.00000E+00         0.00000E+00        -0.30444E-07
 
    0.13508E+06         0.17582E+06         0.00000E+00
    0.17582E+06        -0.47939E+08         0.00000E+00
    0.00000E+00         0.00000E+00        -0.50741E-08
 
    0.14164E+06         0.18545E+06         0.00000E+00
    0.18545E+06        -0.47963E+08         0.00000E+00
    0.00000E+00         0.00000E+00         0.30444E-07
 
    0.14854E+06         0.19551E+06         0.00000E+00
    0.19551E+06        -0.47987E+08         0.00000E+00
    0.00000E+00         0.00000E+00         0.50741E-08
 
    0.15577E+06         0.20602E+06         0.00000E+00
    0.20602E+06        -0.48014E+08         0.00000E+00
    0.00000E+00         0.00000E+00         0.00000E+00
 
    0.16333E+06         0.21700E+06         0.00000E+00
    0.21700E+06        -0.48041E+08         0.00000E+00
    0.00000E+00         0.00000E+00        -0.35518E-07
 
    0.17122E+06         0.22848E+06         0.00000E+00
    0.22848E+06        -0.48071E+08         0.00000E+00
    0.00000E+00         0.00000E+00        -0.25370E-07
 
    0.17944E+06         0.24046E+06         0.00000E+00
    0.24046E+06        -0.48102E+08         0.00000E+00
    0.00000E+00         0.00000E+00        -0.30444E-07
 
    0.18799E+06         0.25299E+06         0.00000E+00
    0.25299E+06        -0.48135E+08         0.00000E+00
    0.00000E+00         0.00000E+00         0.35518E-07
 
    0.19686E+06         0.26607E+06         0.00000E+00
    0.26607E+06        -0.48169E+08         0.00000E+00
    0.00000E+00         0.00000E+00         0.40593E-07
 
    0.20606E+06         0.27972E+06         0.00000E+00
    0.27972E+06        -0.48206E+08         0.00000E+00
    0.00000E+00         0.00000E+00        -0.50741E-08
 
    0.21558E+06         0.29396E+06         0.00000E+00
    0.29396E+06        -0.48245E+08         0.00000E+00
    0.00000E+00         0.00000E+00        -0.50741E-08
 
    0.22541E+06         0.30882E+06         0.00000E+00
    0.30882E+06        -0.48286E+08         0.00000E+00
    0.00000E+00         0.00000E+00        -0.35518E-07
 
    0.23555E+06         0.32430E+06         0.00000E+00
    0.32430E+06        -0.48329E+08         0.00000E+00
    0.00000E+00         0.00000E+00        -0.60889E-07
 
    0.24599E+06         0.34043E+06         0.00000E+00
    0.34043E+06        -0.48375E+08         0.00000E+00
    0.00000E+00         0.00000E+00         0.35518E-07
 
    0.25673E+06         0.35721E+06         0.00000E+00
    0.35721E+06        -0.48423E+08         0.00000E+00
    0.00000E+00         0.00000E+00        -0.15222E-07
 
    0.26775E+06         0.37466E+06         0.00000E+00
    0.37466E+06        -0.48475E+08         0.00000E+00
    0.00000E+00         0.00000E+00        -0.25370E-07
 
    0.27904E+06         0.39280E+06         0.00000E+00
    0.39280E+06        -0.48529E+08         0.00000E+00
    0.00000E+00         0.00000E+00        -0.50741E-08
 
    0.29058E+06         0.41164E+06         0.00000E+00
    0.41164E+06        -0.48586E+08         0.00000E+00
    0.00000E+00         0.00000E+00        -0.35518E-07
 
    0.30236E+06         0.43117E+06         0.00000E+00
    0.43117E+06        -0.48647E+08         0.00000E+00
    0.00000E+00         0.00000E+00        -0.25370E-07
 
    0.31435E+06         0.45142E+06         0.00000E+00
    0.45142E+06        -0.48710E+08         0.00000E+00
    0.00000E+00         0.00000E+00         0.50741E-07
 
    0.32653E+06         0.47239E+06         0.00000E+00
    0.47239E+06        -0.48778E+08         0.00000E+00
    0.00000E+00         0.00000E+00         0.10148E-07
 
    0.33887E+06         0.49408E+06         0.00000E+00
    0.49408E+06        -0.48849E+08         0.00000E+00
    0.00000E+00         0.00000E+00         0.40593E-07
 
    0.35134E+06         0.51648E+06         0.00000E+00
    0.51648E+06        -0.48924E+08         0.00000E+00
    0.00000E+00         0.00000E+00        -0.50741E-08
 
    0.36390E+06         0.53960E+06         0.00000E+00
    0.53960E+06        -0.49003E+08         0.00000E+00
    0.00000E+00         0.00000E+00         0.50741E-08
 
    0.37651E+06         0.56342E+06         0.00000E+00
    0.56342E+06        -0.49087E+08         0.00000E+00
    0.00000E+00         0.00000E+00        -0.30444E-07
 
    0.38912E+06         0.58794E+06         0.00000E+00
    0.58794E+06        -0.49175E+08         0.00000E+00
    0.00000E+00         0.00000E+00         0.50741E-08
 
    0.40168E+06         0.61314E+06         0.00000E+00
    0.61314E+06        -0.49268E+08         0.00000E+00
    0.00000E+00         0.00000E+00         0.50741E-08
 
    0.41413E+06         0.63900E+06         0.00000E+00
    0.63900E+06        -0.49365E+08         0.00000E+00
    0.00000E+00         0.00000E+00        -0.15222E-07
 
    0.42640E+06         0.66550E+06         0.00000E+00
    0.66550E+06        -0.49468E+08         0.00000E+00
    0.00000E+00         0.00000E+00        -0.20296E-07
 
    0.43841E+06         0.69260E+06         0.00000E+00
    0.69260E+06        -0.49577E+08         0.00000E+00
    0.00000E+00         0.00000E+00         0.50741E-07
 
    0.45009E+06         0.72026E+06         0.00000E+00
    0.72026E+06        -0.49691E+08         0.00000E+00
    0.00000E+00         0.00000E+00        -0.25370E-07
 
    0.46133E+06         0.74845E+06         0.00000E+00
    0.74845E+06        -0.49811E+08         0.00000E+00
    0.00000E+00         0.00000E+00        -0.45667E-07
 
    0.47205E+06         0.77709E+06         0.00000E+00
    0.77709E+06        -0.49937E+08         0.00000E+00
    0.00000E+00         0.00000E+00         0.00000E+00
 
    0.48212E+06         0.80614E+06         0.00000E+00
    0.80614E+06        -0.50069E+08         0.00000E+00
    0.00000E+00         0.00000E+00         0.10148E-07
 
    0.49142E+06         0.83552E+06         0.00000E+00
    0.83552E+06        -0.50208E+08         0.00000E+00
    0.00000E+00         0.00000E+00        -0.25370E-07
 
    0.49982E+06         0.86515E+06         0.00000E+00
    0.86515E+06        -0.50354E+08         0.00000E+00
    0.00000E+00         0.00000E+00        -0.25370E-07
 
    0.50716E+06         0.89493E+06         0.00000E+00
    0.89493E+06        -0.50508E+08         0.00000E+00
    0.00000E+00         0.00000E+00         0.50741E-08
 
    0.51328E+06         0.92475E+06         0.00000E+00
    0.92475E+06        -0.50669E+08         0.00000E+00
    0.00000E+00         0.00000E+00        -0.20296E-07
 
    0.51800E+06         0.95450E+06         0.00000E+00
    0.95450E+06        -0.50837E+08         0.00000E+00
    0.00000E+00         0.00000E+00        -0.25370E-07
 
    0.52112E+06         0.98402E+06         0.00000E+00
    0.98402E+06        -0.51014E+08         0.00000E+00
    0.00000E+00         0.00000E+00        -0.45667E-07
 
    0.52242E+06         0.10132E+07         0.00000E+00
    0.10132E+07        -0.51199E+08         0.00000E+00
    0.00000E+00         0.00000E+00        -0.50741E-08
 
    0.52167E+06         0.10418E+07         0.00000E+00
    0.10418E+07        -0.51392E+08         0.00000E+00
    0.00000E+00         0.00000E+00        -0.20296E-07
 
    0.51861E+06         0.10696E+07         0.00000E+00
    0.10696E+07        -0.51595E+08         0.00000E+00
    0.00000E+00         0.00000E+00        -0.20296E-07
 
    0.51296E+06         0.10965E+07         0.00000E+00
    0.10965E+07        -0.51807E+08         0.00000E+00
    0.00000E+00         0.00000E+00        -0.15222E-07
 
    0.50442E+06         0.11222E+07         0.00000E+00
    0.11222E+07        -0.52028E+08         0.00000E+00
    0.00000E+00         0.00000E+00        -0.35518E-07
 
    0.49267E+06         0.11464E+07         0.00000E+00
    0.11464E+07        -0.52259E+08         0.00000E+00
    0.00000E+00         0.00000E+00         0.10148E-07
 
    0.47734E+06         0.11689E+07         0.00000E+00
    0.11689E+07        -0.52501E+08         0.00000E+00
    0.00000E+00         0.00000E+00        -0.35518E-07
 
    0.45808E+06         0.11892E+07         0.00000E+00
    0.11892E+07        -0.52752E+08         0.00000E+00
    0.00000E+00         0.00000E+00        -0.40593E-07
 
    0.43446E+06         0.12070E+07         0.00000E+00
    0.12070E+07        -0.53015E+08         0.00000E+00
    0.00000E+00         0.00000E+00        -0.10148E-07
 
    0.40607E+06         0.12219E+07         0.00000E+00
    0.12219E+07        -0.53288E+08         0.00000E+00
    0.00000E+00         0.00000E+00        -0.50741E-08
 
    0.37244E+06         0.12335E+07         0.00000E+00
    0.12335E+07        -0.53573E+08         0.00000E+00
    0.00000E+00         0.00000E+00        -0.10148E-07
 
    0.33309E+06         0.12412E+07         0.00000E+00
    0.12412E+07        -0.53869E+08         0.00000E+00
    0.00000E+00         0.00000E+00        -0.35518E-07
 
    0.28754E+06         0.12445E+07         0.00000E+00
    0.12445E+07        -0.54177E+08         0.00000E+00
    0.00000E+00         0.00000E+00         0.50741E-08
 
    0.23525E+06         0.12429E+07         0.00000E+00
    0.12429E+07        -0.54497E+08         0.00000E+00
    0.00000E+00         0.00000E+00        -0.50741E-08
 
    0.17571E+06         0.12357E+07         0.00000E+00
    0.12357E+07        -0.54829E+08         0.00000E+00
    0.00000E+00         0.00000E+00        -0.45666E-07
 
    0.10837E+06         0.12223E+07         0.00000E+00
    0.12223E+07        -0.55174E+08         0.00000E+00
    0.00000E+00         0.00000E+00         0.50750E-08
 
    0.32701E+05         0.12020E+07         0.00000E+00
    0.12020E+07        -0.55530E+08         0.00000E+00
    0.00000E+00         0.00000E+00        -0.30444E-07
 
   -0.51822E+05         0.11741E+07         0.00000E+00
    0.11741E+07        -0.55900E+08         0.00000E+00
    0.00000E+00         0.00000E+00        -0.15223E-07
 
   -0.14570E+06         0.11379E+07         0.00000E+00
    0.11379E+07        -0.56282E+08         0.00000E+00
    0.00000E+00         0.00000E+00        -0.30444E-07
 
   -0.24943E+06         0.10929E+07         0.00000E+00
    0.10929E+07        -0.56675E+08         0.00000E+00
    0.00000E+00         0.00000E+00         0.50732E-08
 
   -0.36344E+06         0.10383E+07         0.00000E+00
    0.10383E+07        -0.57080E+08         0.00000E+00
    0.00000E+00         0.00000E+00         0.10150E-07
 
   -0.48815E+06         0.97379E+06         0.00000E+00
    0.97379E+06        -0.57496E+08         0.00000E+00
    0.00000E+00         0.00000E+00         0.50750E-08
 
   -0.62394E+06         0.89920E+06         0.00000E+00
    0.89920E+06        -0.57922E+08         0.00000E+00
    0.00000E+00         0.00000E+00         0.50732E-08
 
   -0.77120E+06         0.81465E+06         0.00000E+00
    0.81465E+06        -0.58355E+08         0.00000E+00
    0.00000E+00         0.00000E+00         0.60887E-07
 
   -0.93034E+06         0.72076E+06         0.00000E+00
    0.72076E+06        -0.58793E+08         0.00000E+00
    0.00000E+00         0.00000E+00        -0.20296E-07
 
   -0.11019E+07         0.61881E+06         0.00000E+00
    0.61881E+06        -0.59233E+08         0.00000E+00
    0.00000E+00         0.00000E+00        -0.50750E-08
 
   -0.12867E+07         0.51102E+06         0.00000E+00
    0.51102E+06        -0.59670E+08         0.00000E+00
    0.00000E+00         0.00000E+00         0.15221E-07
 
   -0.14860E+07         0.40082E+06         0.00000E+00
    0.40082E+06        -0.60098E+08         0.00000E+00
    0.00000E+00         0.00000E+00        -0.65964E-07
 
   -0.17020E+07         0.29309E+06         0.00000E+00
    0.29309E+06        -0.60508E+08         0.00000E+00
    0.00000E+00         0.00000E+00         0.30444E-07
 
   -0.19383E+07         0.19426E+06         0.00000E+00
    0.19426E+06        -0.60891E+08         0.00000E+00
    0.00000E+00         0.00000E+00        -0.10148E-07
 
   -0.22006E+07         0.11171E+06         0.00000E+00
    0.11171E+06        -0.61230E+08         0.00000E+00
    0.00000E+00         0.00000E+00        -0.86260E-07
 
   -0.24968E+07         0.51933E+05         0.00000E+00
    0.51933E+05        -0.61509E+08         0.00000E+00
    0.00000E+00         0.00000E+00         0.40593E-07
 
   -0.28366E+07         0.17368E+05         0.00000E+00
    0.17368E+05        -0.61710E+08         0.00000E+00
    0.00000E+00         0.00000E+00        -0.20297E-07
 
   -0.32288E+07         0.31587E+04         0.00000E+00
    0.31587E+04        -0.61815E+08         0.00000E+00
    0.00000E+00         0.00000E+00         0.20296E-07
 
    0.11247E+06         0.17715E+04         0.00000E+00
    0.17715E+04        -0.47606E+08         0.00000E+00
    0.00000E+00         0.00000E+00         0.30444E-07
 
    0.10495E+06         0.54928E+04         0.00000E+00
    0.54928E+04        -0.47608E+08         0.00000E+00
    0.00000E+00         0.00000E+00         0.15222E-07
 
    0.98902E+05         0.96757E+04         0.00000E+00
    0.96757E+04        -0.47612E+08         0.00000E+00
    0.00000E+00         0.00000E+00        -0.10148E-07
 
    0.94095E+05         0.14437E+05         0.00000E+00
    0.14437E+05        -0.47618E+08         0.00000E+00
    0.00000E+00         0.00000E+00         0.28422E-13
 
    0.90304E+05         0.19738E+05         0.00000E+00
    0.19738E+05        -0.47626E+08         0.00000E+00
    0.00000E+00         0.00000E+00        -0.40593E-07
 
    0.87350E+05         0.25451E+05         0.00000E+00
    0.25451E+05        -0.47634E+08         0.00000E+00
    0.00000E+00         0.00000E+00         0.50741E-08
 
    0.85107E+05         0.31438E+05         0.00000E+00
    0.31438E+05        -0.47643E+08         0.00000E+00
    0.00000E+00         0.00000E+00         0.30444E-07
 
    0.83492E+05         0.37581E+05         0.00000E+00
    0.37581E+05        -0.47653E+08         0.00000E+00
    0.00000E+00         0.00000E+00         0.50740E-08
 
    0.82449E+05         0.43798E+05         0.00000E+00
    0.43798E+05        -0.47664E+08         0.00000E+00
    0.00000E+00         0.00000E+00         0.10148E-07
 
    0.81943E+05         0.50038E+05         0.00000E+00
    0.50038E+05        -0.47674E+08         0.00000E+00
    0.00000E+00         0.00000E+00         0.10148E-07
 
    0.81946E+05         0.56277E+05         0.00000E+00
    0.56277E+05        -0.47686E+08         0.00000E+00
    0.00000E+00         0.00000E+00        -0.15222E-07
 
    0.82437E+05         0.62506E+05         0.00000E+00
    0.62506E+05        -0.47697E+08         0.00000E+00
    0.00000E+00         0.00000E+00        -0.30444E-07
 
    0.83399E+05         0.68734E+05         0.00000E+00
    0.68734E+05        -0.47709E+08         0.00000E+00
    0.00000E+00         0.00000E+00         0.20296E-07
 
    0.84818E+05         0.74976E+05         0.00000E+00
    0.74976E+05        -0.47721E+08         0.00000E+00
    0.00000E+00         0.00000E+00        -0.20296E-07
 
    0.86680E+05         0.81255E+05         0.00000E+00
    0.81255E+05        -0.47734E+08         0.00000E+00
    0.00000E+00         0.00000E+00        -0.35518E-07
 
    0.88973E+05         0.87597E+05         0.00000E+00
    0.87597E+05        -0.47747E+08         0.00000E+00
    0.00000E+00         0.00000E+00        -0.50741E-08
 
    0.91685E+05         0.94030E+05         0.00000E+00
    0.94030E+05        -0.47761E+08         0.00000E+00
    0.00000E+00         0.00000E+00         0.50741E-08
 
    0.94805E+05         0.10058E+06         0.00000E+00
    0.10058E+06        -0.47776E+08         0.00000E+00
    0.00000E+00         0.00000E+00         0.50740E-08
 
    0.98323E+05         0.10729E+06         0.00000E+00
    0.10729E+06        -0.47791E+08         0.00000E+00
    0.00000E+00         0.00000E+00         0.50741E-08
 
    0.10223E+06         0.11417E+06         0.00000E+00
    0.11417E+06        -0.47806E+08         0.00000E+00
    0.00000E+00         0.00000E+00         0.00000E+00
 
    0.10652E+06         0.12126E+06         0.00000E+00
    0.12126E+06        -0.47823E+08         0.00000E+00
    0.00000E+00         0.00000E+00         0.10148E-07
 
    0.11118E+06         0.12859E+06         0.00000E+00
    0.12859E+06        -0.47840E+08         0.00000E+00
    0.00000E+00         0.00000E+00         0.10148E-07
 
    0.11621E+06         0.13619E+06         0.00000E+00
    0.13619E+06        -0.47858E+08         0.00000E+00
    0.00000E+00         0.00000E+00         0.50741E-08
 
    0.12160E+06         0.14407E+06         0.00000E+00
    0.14407E+06        -0.47877E+08         0.00000E+00
    0.00000E+00         0.00000E+00        -0.10148E-07
 
    0.12735E+06         0.15227E+06         0.00000E+00
    0.15227E+06        -0.47897E+08         0.00000E+00
    0.00000E+00         0.00000E+00         0.50741E-08
 
    0.13345E+06         0.16082E+06         0.00000E+00
    0.16082E+06        -0.47919E+08         0.00000E+00
    0.00000E+00         0.00000E+00         0.10148E-07
 
    0.13991E+06         0.16972E+06         0.00000E+00
    0.16972E+06        -0.47941E+08         0.00000E+00
    0.00000E+00         0.00000E+00        -0.20296E-07
 
    0.14671E+06         0.17902E+06         0.00000E+00
    0.17902E+06        -0.47965E+08         0.00000E+00
    0.00000E+00         0.00000E+00         0.20296E-07
 
    0.15386E+06         0.18873E+06         0.00000E+00
    0.18873E+06        -0.47990E+08         0.00000E+00
    0.00000E+00         0.00000E+00         0.30444E-07
 
    0.16136E+06         0.19887E+06         0.00000E+00
    0.19887E+06        -0.48016E+08         0.00000E+00
    0.00000E+00         0.00000E+00        -0.10148E-07
 
    0.16920E+06         0.20946E+06         0.00000E+00
    0.20946E+06        -0.48044E+08         0.00000E+00
    0.00000E+00         0.00000E+00        -0.25370E-07
 
    0.17738E+06         0.22053E+06         0.00000E+00
    0.22053E+06        -0.48073E+08         0.00000E+00
    0.00000E+00         0.00000E+00        -0.20296E-07
 
    0.18591E+06         0.23210E+06         0.00000E+00
    0.23210E+06        -0.48104E+08         0.00000E+00
    0.00000E+00         0.00000E+00         0.15222E-07
 
    0.19477E+06         0.24418E+06         0.00000E+00
    0.24418E+06        -0.48137E+08         0.00000E+00
    0.00000E+00         0.00000E+00         0.35518E-07
 
    0.20397E+06         0.25679E+06         0.00000E+00
    0.25679E+06        -0.48172E+08         0.00000E+00
    0.00000E+00         0.00000E+00        -0.40593E-07
 
    0.21351E+06         0.26996E+06         0.00000E+00
    0.26996E+06        -0.48209E+08         0.00000E+00
    0.00000E+00         0.00000E+00         0.25370E-07
 
    0.22338E+06         0.28369E+06         0.00000E+00
    0.28369E+06        -0.48248E+08         0.00000E+00
    0.00000E+00         0.00000E+00        -0.20296E-07
 
    0.23358E+06         0.29802E+06         0.00000E+00
    0.29802E+06        -0.48289E+08         0.00000E+00
    0.00000E+00         0.00000E+00         0.50741E-08
 
    0.24410E+06         0.31294E+06         0.00000E+00
    0.31294E+06        -0.48332E+08         0.00000E+00
    0.00000E+00         0.00000E+00        -0.60889E-07
 
    0.25493E+06         0.32849E+06         0.00000E+00
    0.32849E+06        -0.48378E+08         0.00000E+00
    0.00000E+00         0.00000E+00         0.50738E-08
 
    0.26607E+06         0.34467E+06         0.00000E+00
    0.34467E+06        -0.48427E+08         0.00000E+00
    0.00000E+00         0.00000E+00        -0.10148E-07
 
    0.27750E+06         0.36149E+06         0.00000E+00
    0.36149E+06        -0.48478E+08         0.00000E+00
    0.00000E+00         0.00000E+00        -0.20296E-07
 
    0.28921E+06         0.37897E+06         0.00000E+00
    0.37897E+06        -0.48532E+08         0.00000E+00
    0.00000E+00         0.00000E+00        -0.55815E-07
 
    0.30118E+06         0.39713E+06         0.00000E+00
    0.39713E+06        -0.48590E+08         0.00000E+00
    0.00000E+00         0.00000E+00        -0.50741E-08
 
    0.31340E+06         0.41595E+06         0.00000E+00
    0.41595E+06        -0.48650E+08         0.00000E+00
    0.00000E+00         0.00000E+00         0.96407E-07
 
    0.32584E+06         0.43546E+06         0.00000E+00
    0.43546E+06        -0.48714E+08         0.00000E+00
    0.00000E+00         0.00000E+00         0.15222E-07
 
    0.33848E+06         0.45566E+06         0.00000E+00
    0.45566E+06        -0.48782E+08         0.00000E+00
    0.00000E+00         0.00000E+00         0.00000E+00
 
    0.35129E+06         0.47655E+06         0.00000E+00
    0.47655E+06        -0.48853E+08         0.00000E+00
    0.00000E+00         0.00000E+00        -0.10148E-07
 
    0.36424E+06         0.49813E+06         0.00000E+00
    0.49813E+06        -0.48929E+08         0.00000E+00
    0.00000E+00         0.00000E+00         0.25370E-07
 
    0.37728E+06         0.52040E+06         0.00000E+00
    0.52040E+06        -0.49008E+08         0.00000E+00
    0.00000E+00         0.00000E+00         0.10148E-07
 
    0.39037E+06         0.54334E+06         0.00000E+00
    0.54334E+06        -0.49092E+08         0.00000E+00
    0.00000E+00         0.00000E+00         0.35518E-07
 
    0.40347E+06         0.56695E+06         0.00000E+00
    0.56695E+06        -0.49180E+08         0.00000E+00
    0.00000E+00         0.00000E+00        -0.50741E-08
 
    0.41652E+06         0.59121E+06         0.00000E+00
    0.59121E+06        -0.49273E+08         0.00000E+00
    0.00000E+00         0.00000E+00         0.00000E+00
 
    0.42945E+06         0.61610E+06         0.00000E+00
    0.61610E+06        -0.49371E+08         0.00000E+00
    0.00000E+00         0.00000E+00         0.50741E-08
 
    0.44220E+06         0.64160E+06         0.00000E+00
    0.64160E+06        -0.49474E+08         0.00000E+00
    0.00000E+00         0.00000E+00         0.00000E+00
 
    0.45469E+06         0.66767E+06         0.00000E+00
    0.66767E+06        -0.49582E+08         0.00000E+00
    0.00000E+00         0.00000E+00        -0.30444E-07
 
    0.46684E+06         0.69429E+06         0.00000E+00
    0.69429E+06        -0.49696E+08         0.00000E+00
    0.00000E+00         0.00000E+00         0.10148E-07
 
    0.47854E+06         0.72139E+06         0.00000E+00
    0.72139E+06        -0.49816E+08         0.00000E+00
    0.00000E+00         0.00000E+00        -0.30444E-07
 
    0.48970E+06         0.74894E+06         0.00000E+00
    0.74894E+06        -0.49942E+08         0.00000E+00
    0.00000E+00         0.00000E+00        -0.10148E-07
 
    0.50019E+06         0.77686E+06         0.00000E+00
    0.77686E+06        -0.50075E+08         0.00000E+00
    0.00000E+00         0.00000E+00         0.55815E-07
 
    0.50990E+06         0.80510E+06         0.00000E+00
    0.80510E+06        -0.50214E+08         0.00000E+00
    0.00000E+00         0.00000E+00         0.00000E+00
 
    0.51867E+06         0.83356E+06         0.00000E+00
    0.83356E+06        -0.50360E+08         0.00000E+00
    0.00000E+00         0.00000E+00        -0.50741E-08
 
    0.52635E+06         0.86216E+06         0.00000E+00
    0.86216E+06        -0.50514E+08         0.00000E+00
    0.00000E+00         0.00000E+00         0.15222E-07
 
    0.53277E+06         0.89080E+06         0.00000E+00
    0.89080E+06        -0.50674E+08         0.00000E+00
    0.00000E+00         0.00000E+00         0.15222E-07
 
    0.53775E+06         0.91934E+06         0.00000E+00
    0.91934E+06        -0.50843E+08         0.00000E+00
    0.00000E+00         0.00000E+00        -0.50741E-08
 
    0.54107E+06         0.94766E+06         0.00000E+00
    0.94766E+06        -0.51020E+08         0.00000E+00
    0.00000E+00         0.00000E+00         0.15222E-07
 
    0.54252E+06         0.97561E+06         0.00000E+00
    0.97561E+06        -0.51205E+08         0.00000E+00
    0.00000E+00         0.00000E+00        -0.30444E-07
 
    0.54185E+06         0.10030E+07         0.00000E+00
    0.10030E+07        -0.51398E+08         0.00000E+00
    0.00000E+00         0.00000E+00        -0.30444E-07
 
    0.53880E+06         0.10297E+07         0.00000E+00
    0.10297E+07        -0.51600E+08         0.00000E+00
    0.00000E+00         0.00000E+00        -0.10148E-07
 
    0.53307E+06         0.10554E+07         0.00000E+00
    0.10554E+07        -0.51812E+08         0.00000E+00
    0.00000E+00         0.00000E+00         0.30444E-07
 
    0.52436E+06         0.10799E+07         0.00000E+00
    0.10799E+07        -0.52033E+08         0.00000E+00
    0.00000E+00         0.00000E+00        -0.25370E-07
 
    0.51232E+06         0.11030E+07         0.00000E+00
    0.11030E+07        -0.52264E+08         0.00000E+00
    0.00000E+00         0.00000E+00         0.71037E-07
 
    0.49660E+06         0.11243E+07         0.00000E+00
    0.11243E+07        -0.52505E+08         0.00000E+00
    0.00000E+00         0.00000E+00        -0.10147E-07
 
    0.47679E+06         0.11436E+07         0.00000E+00
    0.11436E+07        -0.52756E+08         0.00000E+00
    0.00000E+00         0.00000E+00        -0.15222E-07
 
    0.45247E+06         0.11604E+07         0.00000E+00
    0.11604E+07        -0.53018E+08         0.00000E+00
    0.00000E+00         0.00000E+00        -0.15222E-07
 
    0.42320E+06         0.11744E+07         0.00000E+00
    0.11744E+07        -0.53291E+08         0.00000E+00
    0.00000E+00         0.00000E+00         0.50741E-08
 
    0.38850E+06         0.11851E+07         0.00000E+00
    0.11851E+07        -0.53575E+08         0.00000E+00
    0.00000E+00         0.00000E+00         0.15222E-07
 
    0.34787E+06         0.11921E+07         0.00000E+00
    0.11921E+07        -0.53870E+08         0.00000E+00
    0.00000E+00         0.00000E+00         0.10148E-07
 
    0.30078E+06         0.11947E+07         0.00000E+00
    0.11947E+07        -0.54177E+08         0.00000E+00
    0.00000E+00         0.00000E+00        -0.15222E-07
 
    0.24667E+06         0.11925E+07         0.00000E+00
    0.11925E+07        -0.54496E+08         0.00000E+00
    0.00000E+00         0.00000E+00         0.10148E-07
 
    0.18500E+06         0.11849E+07         0.00000E+00
    0.11849E+07        -0.54827E+08         0.00000E+00
    0.00000E+00         0.00000E+00        -0.50750E-08
 
    0.11519E+06         0.11711E+07         0.00000E+00
    0.11711E+07        -0.55170E+08         0.00000E+00
    0.00000E+00         0.00000E+00        -0.40593E-07
 
    0.36647E+05         0.11506E+07         0.00000E+00
    0.11506E+07        -0.55526E+08         0.00000E+00
    0.00000E+00         0.00000E+00        -0.20296E-07
 
   -0.51183E+05         0.11226E+07         0.00000E+00
    0.11226E+07        -0.55893E+08         0.00000E+00
    0.00000E+00         0.00000E+00        -0.15223E-07
 
   -0.14886E+06         0.10864E+07         0.00000E+00
    0.10864E+07        -0.56273E+08         0.00000E+00
    0.00000E+00         0.00000E+00         0.10148E-07
 
   -0.25692E+06         0.10415E+07         0.00000E+00
    0.10415E+07        -0.56665E+08         0.00000E+00
    0.00000E+00         0.00000E+00        -0.50741E-07
 
   -0.37585E+06         0.98718E+06         0.00000E+00
    0.98718E+06        -0.57069E+08         0.00000E+00
    0.00000E+00         0.00000E+00         0.10148E-07
 
   -0.50613E+06         0.92314E+06         0.00000E+00
    0.92314E+06        -0.57483E+08         0.00000E+00
    0.00000E+00         0.00000E+00         0.00000E+00
 
   -0.64817E+06         0.84915E+06         0.00000E+00
    0.84915E+06        -0.57906E+08         0.00000E+00
    0.00000E+00         0.00000E+00        -0.25371E-07
 
   -0.80238E+06         0.76536E+06         0.00000E+00
    0.76536E+06        -0.58337E+08         0.00000E+00
    0.00000E+00         0.00000E+00         0.20296E-07
 
   -0.96918E+06         0.67240E+06         0.00000E+00
    0.67240E+06        -0.58773E+08         0.00000E+00
    0.00000E+00         0.00000E+00         0.71037E-07
 
   -0.11490E+07         0.57160E+06         0.00000E+00
    0.57160E+06        -0.59212E+08         0.00000E+00
    0.00000E+00         0.00000E+00        -0.50750E-08
 
   -0.13427E+07         0.46527E+06         0.00000E+00
    0.46527E+06        -0.59648E+08         0.00000E+00
    0.00000E+00         0.00000E+00        -0.20298E-07
 
   -0.15511E+07         0.35694E+06         0.00000E+00
    0.35694E+06        -0.60076E+08         0.00000E+00
    0.00000E+00         0.00000E+00         0.25369E-07
 
   -0.17760E+07         0.25175E+06         0.00000E+00
    0.25175E+06        -0.60488E+08         0.00000E+00
    0.00000E+00         0.00000E+00        -0.30444E-07
 
   -0.20207E+07         0.15644E+06         0.00000E+00
    0.15644E+06        -0.60873E+08         0.00000E+00
    0.00000E+00         0.00000E+00         0.40593E-07
 
   -0.22899E+07         0.78878E+05         0.00000E+00
    0.78878E+05        -0.61216E+08         0.00000E+00
    0.00000E+00         0.00000E+00        -0.25369E-07
 
   -0.25912E+07         0.26052E+05         0.00000E+00
    0.26052E+05        -0.61500E+08         0.00000E+00
    0.00000E+00         0.00000E+00         0.20296E-07
 
   -0.29340E+07         0.61843E+03         0.00000E+00
    0.61843E+03        -0.61706E+08         0.00000E+00
    0.00000E+00         0.00000E+00         0.15222E-07
 
   -0.33275E+07        -0.26599E+04         0.00000E+00
   -0.26599E+04        -0.61815E+08         0.00000E+00
    0.00000E+00         0.00000E+00         0.30444E-07
 
    0.11594E+06         0.16036E+04         0.00000E+00
    0.16036E+04        -0.47606E+08         0.00000E+00
    0.00000E+00         0.00000E+00        -0.15222E-07
 
    0.10841E+06         0.50039E+04         0.00000E+00
    0.50039E+04        -0.47609E+08         0.00000E+00
    0.00000E+00         0.00000E+00         0.15222E-07
 
    0.10233E+06         0.89024E+04         0.00000E+00
    0.89024E+04        -0.47613E+08         0.00000E+00
    0.00000E+00         0.00000E+00         0.50741E-08
 
    0.97458E+05         0.13421E+05         0.00000E+00
    0.13421E+05        -0.47619E+08         0.00000E+00
    0.00000E+00         0.00000E+00        -0.96407E-07
 
    0.93582E+05         0.18512E+05         0.00000E+00
    0.18512E+05        -0.47627E+08         0.00000E+00
    0.00000E+00         0.00000E+00         0.15222E-07
 
    0.90526E+05         0.24038E+05         0.00000E+00
    0.24038E+05        -0.47635E+08         0.00000E+00
    0.00000E+00         0.00000E+00         0.10148E-07
 
    0.88179E+05         0.29849E+05         0.00000E+00
    0.29849E+05        -0.47645E+08         0.00000E+00
    0.00000E+00         0.00000E+00        -0.15222E-07
 
    0.86468E+05         0.35821E+05         0.00000E+00
    0.35821E+05        -0.47654E+08         0.00000E+00
    0.00000E+00         0.00000E+00        -0.55815E-07
 
    0.85347E+05         0.41868E+05         0.00000E+00
    0.41868E+05        -0.47665E+08         0.00000E+00
    0.00000E+00         0.00000E+00        -0.30444E-07
 
    0.84782E+05         0.47935E+05         0.00000E+00
    0.47935E+05        -0.47676E+08         0.00000E+00
    0.00000E+00         0.00000E+00        -0.50741E-07
 
    0.84750E+05         0.53997E+05         0.00000E+00
    0.53997E+05        -0.47687E+08         0.00000E+00
    0.00000E+00         0.00000E+00        -0.50741E-08
 
    0.85228E+05         0.60046E+05         0.00000E+00
    0.60046E+05        -0.47698E+08         0.00000E+00
    0.00000E+00         0.00000E+00         0.20296E-07
 
    0.86201E+05         0.66087E+05         0.00000E+00
    0.66087E+05        -0.47710E+08         0.00000E+00
    0.00000E+00         0.00000E+00         0.56843E-13
 
    0.87652E+05         0.72137E+05         0.00000E+00
    0.72137E+05        -0.47723E+08         0.00000E+00
    0.00000E+00         0.00000E+00         0.30444E-07
 
    0.89566E+05         0.78217E+05         0.00000E+00
    0.78217E+05        -0.47735E+08         0.00000E+00
    0.00000E+00         0.00000E+00         0.50740E-08
 
    0.91930E+05         0.84353E+05         0.00000E+00
    0.84353E+05        -0.47749E+08         0.00000E+00
    0.00000E+00         0.00000E+00        -0.10148E-07
 
    0.94731E+05         0.90573E+05         0.00000E+00
    0.90573E+05        -0.47763E+08         0.00000E+00
    0.00000E+00         0.00000E+00        -0.40593E-07
 
    0.97957E+05         0.96905E+05         0.00000E+00
    0.96905E+05        -0.47777E+08         0.00000E+00
    0.00000E+00         0.00000E+00         0.00000E+00
 
    0.10160E+06         0.10338E+06         0.00000E+00
    0.10338E+06        -0.47792E+08         0.00000E+00
    0.00000E+00         0.00000E+00         0.50741E-08
 
    0.10564E+06         0.11002E+06         0.00000E+00
    0.11002E+06        -0.47808E+08         0.00000E+00
    0.00000E+00         0.00000E+00        -0.65963E-07
 
    0.11008E+06         0.11687E+06         0.00000E+00
    0.11687E+06        -0.47824E+08         0.00000E+00
    0.00000E+00         0.00000E+00         0.60889E-07
 
    0.11491E+06         0.12394E+06         0.00000E+00
    0.12394E+06        -0.47842E+08         0.00000E+00
    0.00000E+00         0.00000E+00         0.20296E-07
 
    0.12012E+06         0.13126E+06         0.00000E+00
    0.13126E+06        -0.47860E+08         0.00000E+00
    0.00000E+00         0.00000E+00        -0.40592E-07
 
    0.12570E+06         0.13886E+06         0.00000E+00
    0.13886E+06        -0.47879E+08         0.00000E+00
    0.00000E+00         0.00000E+00        -0.50741E-08
 
    0.13165E+06         0.14677E+06         0.00000E+00
    0.14677E+06        -0.47899E+08         0.00000E+00
    0.00000E+00         0.00000E+00         0.20296E-07
 
    0.13797E+06         0.15500E+06         0.00000E+00
    0.15500E+06        -0.47920E+08         0.00000E+00
    0.00000E+00         0.00000E+00         0.10148E-07
 
    0.14465E+06         0.16358E+06         0.00000E+00
    0.16358E+06        -0.47943E+08         0.00000E+00
    0.00000E+00         0.00000E+00         0.25370E-07
 
    0.15170E+06         0.17254E+06         0.00000E+00
    0.17254E+06        -0.47966E+08         0.00000E+00
    0.00000E+00         0.00000E+00         0.30444E-07
 
    0.15910E+06         0.18189E+06         0.00000E+00
    0.18189E+06        -0.47991E+08         0.00000E+00
    0.00000E+00         0.00000E+00         0.15222E-07
 
    0.16686E+06         0.19166E+06         0.00000E+00
    0.19166E+06        -0.48018E+08         0.00000E+00
    0.00000E+00         0.00000E+00         0.00000E+00
 
    0.17497E+06         0.20187E+06         0.00000E+00
    0.20187E+06        -0.48046E+08         0.00000E+00
    0.00000E+00         0.00000E+00         0.00000E+00
 
    0.18345E+06         0.21253E+06         0.00000E+00
    0.21253E+06        -0.48075E+08         0.00000E+00
    0.00000E+00         0.00000E+00        -0.50741E-08
 
    0.19227E+06         0.22367E+06         0.00000E+00
    0.22367E+06        -0.48106E+08         0.00000E+00
    0.00000E+00         0.00000E+00         0.10148E-07
 
    0.20145E+06         0.23530E+06         0.00000E+00
    0.23530E+06        -0.48139E+08         0.00000E+00
    0.00000E+00         0.00000E+00        -0.40593E-07
 
    0.21097E+06         0.24745E+06         0.00000E+00
    0.24745E+06        -0.48174E+08         0.00000E+00
    0.00000E+00         0.00000E+00         0.20296E-07
 
    0.22085E+06         0.26012E+06         0.00000E+00
    0.26012E+06        -0.48211E+08         0.00000E+00
    0.00000E+00         0.00000E+00         0.30444E-07
 
    0.23107E+06         0.27335E+06         0.00000E+00
    0.27335E+06        -0.48250E+08         0.00000E+00
    0.00000E+00         0.00000E+00         0.25370E-07
 
    0.24162E+06         0.28714E+06         0.00000E+00
    0.28714E+06        -0.48292E+08         0.00000E+00
    0.00000E+00         0.00000E+00        -0.15222E-07
 
    0.25252E+06         0.30151E+06         0.00000E+00
    0.30151E+06        -0.48335E+08         0.00000E+00
    0.00000E+00         0.00000E+00        -0.60889E-07
 
    0.26373E+06         0.31647E+06         0.00000E+00
    0.31647E+06        -0.48381E+08         0.00000E+00
    0.00000E+00         0.00000E+00         0.50741E-08
 
    0.27526E+06         0.33204E+06         0.00000E+00
    0.33204E+06        -0.48430E+08         0.00000E+00
    0.00000E+00         0.00000E+00        -0.40592E-07
 
    0.28710E+06         0.34824E+06         0.00000E+00
    0.34824E+06        -0.48482E+08         0.00000E+00
    0.00000E+00         0.00000E+00        -0.50740E-07
 
    0.29923E+06         0.36506E+06         0.00000E+00
    0.36506E+06        -0.48536E+08         0.00000E+00
    0.00000E+00         0.00000E+00         0.00000E+00
 
    0.31163E+06         0.38253E+06         0.00000E+00
    0.38253E+06        -0.48593E+08         0.00000E+00
    0.00000E+00         0.00000E+00         0.55815E-07
 
    0.32429E+06         0.40064E+06         0.00000E+00
    0.40064E+06        -0.48654E+08         0.00000E+00
    0.00000E+00         0.00000E+00         0.25370E-07
 
    0.33718E+06         0.41941E+06         0.00000E+00
    0.41941E+06        -0.48718E+08         0.00000E+00
    0.00000E+00         0.00000E+00        -0.50741E-08
 
    0.35028E+06         0.43885E+06         0.00000E+00
    0.43885E+06        -0.48786E+08         0.00000E+00
    0.00000E+00         0.00000E+00        -0.50741E-08
 
    0.36355E+06         0.45894E+06         0.00000E+00
    0.45894E+06        -0.48857E+08         0.00000E+00
    0.00000E+00         0.00000E+00         0.15222E-07
 
    0.37696E+06         0.47969E+06         0.00000E+00
    0.47969E+06        -0.48933E+08         0.00000E+00
    0.00000E+00         0.00000E+00         0.50741E-08
 
    0.39048E+06         0.50110E+06         0.00000E+00
    0.50110E+06        -0.49012E+08         0.00000E+00
    0.00000E+00         0.00000E+00         0.30444E-07
 
    0.40406E+06         0.52316E+06         0.00000E+00
    0.52316E+06        -0.49096E+08         0.00000E+00
    0.00000E+00         0.00000E+00         0.20296E-07
 
    0.41764E+06         0.54586E+06         0.00000E+00
    0.54586E+06        -0.49184E+08         0.00000E+00
    0.00000E+00         0.00000E+00         0.50741E-08
 
    0.43117E+06         0.56918E+06         0.00000E+00
    0.56918E+06        -0.49277E+08         0.00000E+00
    0.00000E+00         0.00000E+00         0.00000E+00
 
    0.44458E+06         0.59310E+06         0.00000E+00
    0.59310E+06        -0.49375E+08         0.00000E+00
    0.00000E+00         0.00000E+00        -0.10148E-07
 
    0.45781E+06         0.61760E+06         0.00000E+00
    0.61760E+06        -0.49479E+08         0.00000E+00
    0.00000E+00         0.00000E+00         0.00000E+00
 
    0.47078E+06         0.64265E+06         0.00000E+00
    0.64265E+06        -0.49587E+08         0.00000E+00
    0.00000E+00         0.00000E+00        -0.15222E-07
 
    0.48339E+06         0.66821E+06         0.00000E+00
    0.66821E+06        -0.49701E+08         0.00000E+00
    0.00000E+00         0.00000E+00        -0.20296E-07
 
    0.49555E+06         0.69424E+06         0.00000E+00
    0.69424E+06        -0.49822E+08         0.00000E+00
    0.00000E+00         0.00000E+00         0.10148E-07
 
    0.50716E+06         0.72069E+06         0.00000E+00
    0.72069E+06        -0.49948E+08         0.00000E+00
    0.00000E+00         0.00000E+00        -0.50741E-08
 
    0.51808E+06         0.74750E+06         0.00000E+00
    0.74750E+06        -0.50080E+08         0.00000E+00
    0.00000E+00         0.00000E+00         0.30444E-07
 
    0.52818E+06         0.77460E+06         0.00000E+00
    0.77460E+06        -0.50220E+08         0.00000E+00
    0.00000E+00         0.00000E+00        -0.50741E-08
 
    0.53733E+06         0.80190E+06         0.00000E+00
    0.80190E+06        -0.50366E+08         0.00000E+00
    0.00000E+00         0.00000E+00        -0.55815E-07
 
    0.54536E+06         0.82933E+06         0.00000E+00
    0.82933E+06        -0.50519E+08         0.00000E+00
    0.00000E+00         0.00000E+00         0.45667E-07
 
    0.55209E+06         0.85678E+06         0.00000E+00
    0.85678E+06        -0.50680E+08         0.00000E+00
    0.00000E+00         0.00000E+00        -0.50741E-07
 
    0.55733E+06         0.88413E+06         0.00000E+00
    0.88413E+06        -0.50849E+08         0.00000E+00
    0.00000E+00         0.00000E+00         0.00000E+00
 
    0.56088E+06         0.91126E+06         0.00000E+00
    0.91126E+06        -0.51025E+08         0.00000E+00
    0.00000E+00         0.00000E+00        -0.35518E-07
 
    0.56249E+06         0.93801E+06         0.00000E+00
    0.93801E+06        -0.51210E+08         0.00000E+00
    0.00000E+00         0.00000E+00        -0.40593E-07
 
    0.56192E+06         0.96422E+06         0.00000E+00
    0.96422E+06        -0.51403E+08         0.00000E+00
    0.00000E+00         0.00000E+00        -0.30444E-07
 
    0.55889E+06         0.98971E+06         0.00000E+00
    0.98971E+06        -0.51606E+08         0.00000E+00
    0.00000E+00         0.00000E+00         0.76111E-07
 
    0.55310E+06         0.10143E+07         0.00000E+00
    0.10143E+07        -0.51817E+08         0.00000E+00
    0.00000E+00         0.00000E+00         0.50741E-08
 
    0.54424E+06         0.10377E+07         0.00000E+00
    0.10377E+07        -0.52038E+08         0.00000E+00
    0.00000E+00         0.00000E+00        -0.30444E-07
 
    0.53194E+06         0.10596E+07         0.00000E+00
    0.10596E+07        -0.52268E+08         0.00000E+00
    0.00000E+00         0.00000E+00         0.20295E-07
 
    0.51584E+06         0.10799E+07         0.00000E+00
    0.10799E+07        -0.52509E+08         0.00000E+00
    0.00000E+00         0.00000E+00        -0.45667E-07
 
    0.49552E+06         0.10982E+07         0.00000E+00
    0.10982E+07        -0.52760E+08         0.00000E+00
    0.00000E+00         0.00000E+00        -0.50741E-07
 
    0.47054E+06         0.11140E+07         0.00000E+00
    0.11140E+07        -0.53021E+08         0.00000E+00
    0.00000E+00         0.00000E+00         0.40593E-07
 
    0.44043E+06         0.11271E+07         0.00000E+00
    0.11271E+07        -0.53293E+08         0.00000E+00
    0.00000E+00         0.00000E+00        -0.10148E-07
 
    0.40470E+06         0.11370E+07         0.00000E+00
    0.11370E+07        -0.53576E+08         0.00000E+00
    0.00000E+00         0.00000E+00        -0.76111E-07
 
    0.36283E+06         0.11432E+07         0.00000E+00
    0.11432E+07        -0.53871E+08         0.00000E+00
    0.00000E+00         0.00000E+00        -0.65963E-07
 
    0.31424E+06         0.11452E+07         0.00000E+00
    0.11452E+07        -0.54177E+08         0.00000E+00
    0.00000E+00         0.00000E+00         0.00000E+00
 
    0.25838E+06         0.11425E+07         0.00000E+00
    0.11425E+07        -0.54495E+08         0.00000E+00
    0.00000E+00         0.00000E+00         0.00000E+00
 
    0.19463E+06         0.11345E+07         0.00000E+00
    0.11345E+07        -0.54825E+08         0.00000E+00
    0.00000E+00         0.00000E+00         0.91333E-07
 
    0.12239E+06         0.11204E+07         0.00000E+00
    0.11204E+07        -0.55167E+08         0.00000E+00
    0.00000E+00         0.00000E+00         0.81183E-07
 
    0.41034E+05         0.10997E+07         0.00000E+00
    0.10997E+07        -0.55521E+08         0.00000E+00
    0.00000E+00         0.00000E+00        -0.20296E-07
 
   -0.50054E+05         0.10717E+07         0.00000E+00
    0.10717E+07        -0.55887E+08         0.00000E+00
    0.00000E+00         0.00000E+00        -0.15221E-07
 
   -0.15148E+06         0.10357E+07         0.00000E+00
    0.10357E+07        -0.56265E+08         0.00000E+00
    0.00000E+00         0.00000E+00         0.10148E-07
 
   -0.26383E+06         0.99100E+06         0.00000E+00
    0.99100E+06        -0.56655E+08         0.00000E+00
    0.00000E+00         0.00000E+00         0.20296E-07
 
   -0.38766E+06         0.93714E+06         0.00000E+00
    0.93714E+06        -0.57057E+08         0.00000E+00
    0.00000E+00         0.00000E+00         0.76110E-07
 
   -0.52349E+06         0.87368E+06         0.00000E+00
    0.87368E+06        -0.57469E+08         0.00000E+00
    0.00000E+00         0.00000E+00         0.25369E-07
 
   -0.67178E+06         0.80043E+06         0.00000E+00
    0.80043E+06        -0.57890E+08         0.00000E+00
    0.00000E+00         0.00000E+00         0.40593E-07
 
   -0.83298E+06         0.71753E+06         0.00000E+00
    0.71753E+06        -0.58319E+08         0.00000E+00
    0.00000E+00         0.00000E+00        -0.15223E-07
 
   -0.10075E+07         0.62564E+06         0.00000E+00
    0.62564E+06        -0.58754E+08         0.00000E+00
    0.00000E+00         0.00000E+00        -0.45666E-07
 
   -0.11957E+07         0.52613E+06         0.00000E+00
    0.52613E+06        -0.59191E+08         0.00000E+00
    0.00000E+00         0.00000E+00         0.00000E+00
 
   -0.13983E+07         0.42133E+06         0.00000E+00
    0.42133E+06        -0.59627E+08         0.00000E+00
    0.00000E+00         0.00000E+00         0.18190E-11
 
   -0.16159E+07         0.31491E+06         0.00000E+00
    0.31491E+06        -0.60055E+08         0.00000E+00
    0.00000E+00         0.00000E+00         0.10148E-07
 
   -0.18500E+07         0.21217E+06         0.00000E+00
    0.21217E+06        -0.60468E+08         0.00000E+00
    0.00000E+00         0.00000E+00        -0.40592E-07
 
   -0.21031E+07         0.12017E+06         0.00000E+00
    0.12017E+06        -0.60855E+08         0.00000E+00
    0.00000E+00         0.00000E+00         0.50740E-07
 
   -0.23793E+07         0.47255E+05         0.00000E+00
    0.47255E+05        -0.61203E+08         0.00000E+00
    0.00000E+00         0.00000E+00        -0.15222E-07
 
   -0.26857E+07         0.95314E+03         0.00000E+00
    0.95314E+03        -0.61493E+08         0.00000E+00
    0.00000E+00         0.00000E+00        -0.10149E-07
 
   -0.30314E+07        -0.15738E+05         0.00000E+00
   -0.15738E+05        -0.61705E+08         0.00000E+00
    0.00000E+00         0.00000E+00        -0.22737E-12
 
   -0.34261E+07        -0.83675E+04         0.00000E+00
   -0.83675E+04        -0.61816E+08         0.00000E+00
    0.00000E+00         0.00000E+00         0.81185E-07
 
    0.11936E+06         0.14364E+04         0.00000E+00
    0.14364E+04        -0.47607E+08         0.00000E+00
    0.00000E+00         0.00000E+00         0.65963E-07
 
    0.11182E+06         0.45184E+04         0.00000E+00
    0.45184E+04        -0.47609E+08         0.00000E+00
    0.00000E+00         0.00000E+00        -0.40593E-07
 
    0.10571E+06         0.81376E+04         0.00000E+00
    0.81376E+04        -0.47614E+08         0.00000E+00
    0.00000E+00         0.00000E+00        -0.35518E-07
 
    0.10079E+06         0.12420E+05         0.00000E+00
    0.12420E+05        -0.47620E+08         0.00000E+00
    0.00000E+00         0.00000E+00         0.25370E-07
 
    0.96821E+05         0.17306E+05         0.00000E+00
    0.17306E+05        -0.47628E+08         0.00000E+00
    0.00000E+00         0.00000E+00         0.30444E-07
 
    0.93660E+05         0.22647E+05         0.00000E+00
    0.22647E+05        -0.47636E+08         0.00000E+00
    0.00000E+00         0.00000E+00         0.50741E-08
 
    0.91205E+05         0.28281E+05         0.00000E+00
    0.28281E+05        -0.47646E+08         0.00000E+00
    0.00000E+00         0.00000E+00         0.25370E-07
 
    0.89395E+05         0.34080E+05         0.00000E+00
    0.34080E+05        -0.47656E+08         0.00000E+00
    0.00000E+00         0.00000E+00         0.45667E-07
 
    0.88192E+05         0.39952E+05         0.00000E+00
    0.39952E+05        -0.47666E+08         0.00000E+00
    0.00000E+00         0.00000E+00         0.40593E-07
 
    0.87567E+05         0.45842E+05         0.00000E+00
    0.45842E+05        -0.47677E+08         0.00000E+00
    0.00000E+00         0.00000E+00        -0.50741E-08
 
    0.87496E+05         0.51723E+05         0.00000E+00
    0.51723E+05        -0.47688E+08         0.00000E+00
    0.00000E+00         0.00000E+00         0.50741E-08
 
    0.87961E+05         0.57586E+05         0.00000E+00
    0.57586E+05        -0.47699E+08         0.00000E+00
    0.00000E+00         0.00000E+00        -0.35518E-07
 
    0.88942E+05         0.63437E+05         0.00000E+00
    0.63437E+05        -0.47711E+08         0.00000E+00
    0.00000E+00         0.00000E+00         0.35518E-07
 
    0.90424E+05         0.69290E+05         0.00000E+00
    0.69290E+05        -0.47724E+08         0.00000E+00
    0.00000E+00         0.00000E+00         0.25370E-07
 
    0.92389E+05         0.75167E+05         0.00000E+00
    0.75167E+05        -0.47737E+08         0.00000E+00
    0.00000E+00         0.00000E+00         0.60889E-07
 
    0.94824E+05         0.81094E+05         0.00000E+00
    0.81094E+05        -0.47750E+08         0.00000E+00
    0.00000E+00         0.00000E+00        -0.50741E-08
 
    0.97713E+05         0.87096E+05         0.00000E+00
    0.87096E+05        -0.47764E+08         0.00000E+00
    0.00000E+00         0.00000E+00         0.10148E-07
 
    0.10104E+06         0.93204E+05         0.00000E+00
    0.93204E+05        -0.47778E+08         0.00000E+00
    0.00000E+00         0.00000E+00        -0.60889E-07
 
    0.10481E+06         0.99445E+05         0.00000E+00
    0.99445E+05        -0.47793E+08         0.00000E+00
    0.00000E+00         0.00000E+00        -0.55815E-07
 
    0.10899E+06         0.10585E+06         0.00000E+00
    0.10585E+06        -0.47809E+08         0.00000E+00
    0.00000E+00         0.00000E+00         0.25370E-07
 
    0.11357E+06         0.11244E+06         0.00000E+00
    0.11244E+06        -0.47826E+08         0.00000E+00
    0.00000E+00         0.00000E+00        -0.40593E-07
 
    0.11856E+06         0.11925E+06         0.00000E+00
    0.11925E+06        -0.47843E+08         0.00000E+00
    0.00000E+00         0.00000E+00         0.00000E+00
 
    0.12395E+06         0.12629E+06         0.00000E+00
    0.12629E+06        -0.47861E+08         0.00000E+00
    0.00000E+00         0.00000E+00         0.50741E-08
 
    0.12972E+06         0.13361E+06         0.00000E+00
    0.13361E+06        -0.47880E+08         0.00000E+00
    0.00000E+00         0.00000E+00         0.25370E-07
 
    0.13587E+06         0.14122E+06         0.00000E+00
    0.14122E+06        -0.47901E+08         0.00000E+00
    0.00000E+00         0.00000E+00         0.00000E+00
 
    0.14241E+06         0.14914E+06         0.00000E+00
    0.14914E+06        -0.47922E+08         0.00000E+00
    0.00000E+00         0.00000E+00         0.30444E-07
 
    0.14931E+06         0.15740E+06         0.00000E+00
    0.15740E+06        -0.47945E+08         0.00000E+00
    0.00000E+00         0.00000E+00        -0.50741E-08
 
    0.15659E+06         0.16601E+06         0.00000E+00
    0.16601E+06        -0.47968E+08         0.00000E+00
    0.00000E+00         0.00000E+00         0.00000E+00
 
    0.16425E+06         0.17501E+06         0.00000E+00
    0.17501E+06        -0.47993E+08         0.00000E+00
    0.00000E+00         0.00000E+00         0.35518E-07
 
    0.17227E+06         0.18440E+06         0.00000E+00
    0.18440E+06        -0.48020E+08         0.00000E+00
    0.00000E+00         0.00000E+00         0.20296E-07
 
    0.18065E+06         0.19422E+06         0.00000E+00
    0.19422E+06        -0.48048E+08         0.00000E+00
    0.00000E+00         0.00000E+00        -0.25370E-07
 
    0.18941E+06         0.20447E+06         0.00000E+00
    0.20447E+06        -0.48077E+08         0.00000E+00
    0.00000E+00         0.00000E+00        -0.10148E-07
 
    0.19853E+06         0.21518E+06         0.00000E+00
    0.21518E+06        -0.48109E+08         0.00000E+00
    0.00000E+00         0.00000E+00         0.15222E-07
 
    0.20802E+06         0.22636E+06         0.00000E+00
    0.22636E+06        -0.48142E+08         0.00000E+00
    0.00000E+00         0.00000E+00         0.40592E-07
 
    0.21786E+06         0.23804E+06         0.00000E+00
    0.23804E+06        -0.48177E+08         0.00000E+00
    0.00000E+00         0.00000E+00        -0.15222E-07
 
    0.22807E+06         0.25022E+06         0.00000E+00
    0.25022E+06        -0.48214E+08         0.00000E+00
    0.00000E+00         0.00000E+00        -0.15222E-07
 
    0.23863E+06         0.26294E+06         0.00000E+00
    0.26294E+06        -0.48253E+08         0.00000E+00
    0.00000E+00         0.00000E+00         0.40593E-07
 
    0.24955E+06         0.27619E+06         0.00000E+00
    0.27619E+06        -0.48294E+08         0.00000E+00
    0.00000E+00         0.00000E+00        -0.50741E-07
 
    0.26081E+06         0.29000E+06         0.00000E+00
    0.29000E+06        -0.48338E+08         0.00000E+00
    0.00000E+00         0.00000E+00        -0.60889E-07
 
    0.27240E+06         0.30438E+06         0.00000E+00
    0.30438E+06        -0.48384E+08         0.00000E+00
    0.00000E+00         0.00000E+00         0.25370E-07
 
    0.28432E+06         0.31934E+06         0.00000E+00
    0.31934E+06        -0.48433E+08         0.00000E+00
    0.00000E+00         0.00000E+00         0.35518E-07
 
    0.29656E+06         0.33490E+06         0.00000E+00
    0.33490E+06        -0.48485E+08         0.00000E+00
    0.00000E+00         0.00000E+00        -0.30444E-07
 
    0.30910E+06         0.35107E+06         0.00000E+00
    0.35107E+06        -0.48539E+08         0.00000E+00
    0.00000E+00         0.00000E+00         0.15222E-07
 
    0.32193E+06         0.36784E+06         0.00000E+00
    0.36784E+06        -0.48597E+08         0.00000E+00
    0.00000E+00         0.00000E+00         0.00000E+00
 
    0.33502E+06         0.38525E+06         0.00000E+00
    0.38525E+06        -0.48658E+08         0.00000E+00
    0.00000E+00         0.00000E+00         0.00000E+00
 
    0.34836E+06         0.40327E+06         0.00000E+00
    0.40327E+06        -0.48722E+08         0.00000E+00
    0.00000E+00         0.00000E+00        -0.20296E-07
 
    0.36190E+06         0.42194E+06         0.00000E+00
    0.42194E+06        -0.48790E+08         0.00000E+00
    0.00000E+00         0.00000E+00         0.40593E-07
 
    0.37564E+06         0.44123E+06         0.00000E+00
    0.44123E+06        -0.48861E+08         0.00000E+00
    0.00000E+00         0.00000E+00        -0.10148E-07
 
    0.38952E+06         0.46116E+06         0.00000E+00
    0.46116E+06        -0.48937E+08         0.00000E+00
    0.00000E+00         0.00000E+00         0.00000E+00
 
    0.40351E+06         0.48171E+06         0.00000E+00
    0.48171E+06        -0.49017E+08         0.00000E+00
    0.00000E+00         0.00000E+00         0.20296E-07
 
    0.41756E+06         0.50288E+06         0.00000E+00
    0.50288E+06        -0.49100E+08         0.00000E+00
    0.00000E+00         0.00000E+00        -0.50741E-08
 
    0.43162E+06         0.52467E+06         0.00000E+00
    0.52467E+06        -0.49189E+08         0.00000E+00
    0.00000E+00         0.00000E+00         0.00000E+00
 
    0.44563E+06         0.54705E+06         0.00000E+00
    0.54705E+06        -0.49282E+08         0.00000E+00
    0.00000E+00         0.00000E+00         0.00000E+00
 
    0.45953E+06         0.57000E+06         0.00000E+00
    0.57000E+06        -0.49380E+08         0.00000E+00
    0.00000E+00         0.00000E+00         0.40593E-07
 
    0.47324E+06         0.59351E+06         0.00000E+00
    0.59351E+06        -0.49484E+08         0.00000E+00
    0.00000E+00         0.00000E+00         0.15222E-07
 
    0.48668E+06         0.61754E+06         0.00000E+00
    0.61754E+06        -0.49592E+08         0.00000E+00
    0.00000E+00         0.00000E+00         0.20296E-07
 
    0.49976E+06         0.64205E+06         0.00000E+00
    0.64205E+06        -0.49707E+08         0.00000E+00
    0.00000E+00         0.00000E+00         0.20296E-07
 
    0.51238E+06         0.66701E+06         0.00000E+00
    0.66701E+06        -0.49827E+08         0.00000E+00
    0.00000E+00         0.00000E+00        -0.50740E-07
 
    0.52443E+06         0.69236E+06         0.00000E+00
    0.69236E+06        -0.49953E+08         0.00000E+00
    0.00000E+00         0.00000E+00        -0.45667E-07
 
    0.53577E+06         0.71805E+06         0.00000E+00
    0.71805E+06        -0.50086E+08         0.00000E+00
    0.00000E+00         0.00000E+00         0.15222E-07
 
    0.54629E+06         0.74401E+06         0.00000E+00
    0.74401E+06        -0.50225E+08         0.00000E+00
    0.00000E+00         0.00000E+00        -0.71037E-07
 
    0.55581E+06         0.77017E+06         0.00000E+00
    0.77017E+06        -0.50371E+08         0.00000E+00
    0.00000E+00         0.00000E+00         0.30444E-07
 
    0.56419E+06         0.79643E+06         0.00000E+00
    0.79643E+06        -0.50525E+08         0.00000E+00
    0.00000E+00         0.00000E+00         0.40593E-07
 
    0.57124E+06         0.82271E+06         0.00000E+00
    0.82271E+06        -0.50685E+08         0.00000E+00
    0.00000E+00         0.00000E+00         0.30444E-07
 
    0.57676E+06         0.84888E+06         0.00000E+00
    0.84888E+06        -0.50854E+08         0.00000E+00
    0.00000E+00         0.00000E+00        -0.10148E-07
 
    0.58054E+06         0.87482E+06         0.00000E+00
    0.87482E+06        -0.51030E+08         0.00000E+00
    0.00000E+00         0.00000E+00         0.30444E-07
 
    0.58232E+06         0.90039E+06         0.00000E+00
    0.90039E+06        -0.51215E+08         0.00000E+00
    0.00000E+00         0.00000E+00        -0.10148E-07
 
    0.58186E+06         0.92542E+06         0.00000E+00
    0.92542E+06        -0.51408E+08         0.00000E+00
    0.00000E+00         0.00000E+00         0.40593E-07
 
    0.57888E+06         0.94975E+06         0.00000E+00
    0.94975E+06        -0.51610E+08         0.00000E+00
    0.00000E+00         0.00000E+00        -0.40593E-07
 
    0.57306E+06         0.97317E+06         0.00000E+00
    0.97317E+06        -0.51822E+08         0.00000E+00
    0.00000E+00         0.00000E+00         0.45667E-07
 
    0.56406E+06         0.99545E+06         0.00000E+00
    0.99545E+06        -0.52042E+08         0.00000E+00
    0.00000E+00         0.00000E+00         0.10148E-07
 
    0.55153E+06         0.10163E+07         0.00000E+00
    0.10163E+07        -0.52272E+08         0.00000E+00
    0.00000E+00         0.00000E+00        -0.10148E-07
 
    0.53508E+06         0.10356E+07         0.00000E+00
    0.10356E+07        -0.52513E+08         0.00000E+00
    0.00000E+00         0.00000E+00         0.35518E-07
 
    0.51428E+06         0.10528E+07         0.00000E+00
    0.10528E+07        -0.52763E+08         0.00000E+00
    0.00000E+00         0.00000E+00         0.30444E-07
 
    0.48867E+06         0.10678E+07         0.00000E+00
    0.10678E+07        -0.53024E+08         0.00000E+00
    0.00000E+00         0.00000E+00         0.45667E-07
 
    0.45777E+06         0.10800E+07         0.00000E+00
    0.10800E+07        -0.53295E+08         0.00000E+00
    0.00000E+00         0.00000E+00         0.15222E-07
 
    0.42106E+06         0.10891E+07         0.00000E+00
    0.10891E+07        -0.53578E+08         0.00000E+00
    0.00000E+00         0.00000E+00         0.40593E-07
 
    0.37798E+06         0.10946E+07         0.00000E+00
    0.10946E+07        -0.53872E+08         0.00000E+00
    0.00000E+00         0.00000E+00        -0.20296E-07
 
    0.32796E+06         0.10961E+07         0.00000E+00
    0.10961E+07        -0.54177E+08         0.00000E+00
    0.00000E+00         0.00000E+00         0.00000E+00
 
    0.27038E+06         0.10929E+07         0.00000E+00
    0.10929E+07        -0.54494E+08         0.00000E+00
    0.00000E+00         0.00000E+00         0.00000E+00
 
    0.20462E+06         0.10845E+07         0.00000E+00
    0.10845E+07        -0.54823E+08         0.00000E+00
    0.00000E+00         0.00000E+00        -0.50741E-07
 
    0.13001E+06         0.10702E+07         0.00000E+00
    0.10702E+07        -0.55163E+08         0.00000E+00
    0.00000E+00         0.00000E+00         0.50750E-08
 
    0.45892E+05         0.10495E+07         0.00000E+00
    0.10495E+07        -0.55516E+08         0.00000E+00
    0.00000E+00         0.00000E+00        -0.60887E-07
 
   -0.48399E+05         0.10215E+07         0.00000E+00
    0.10215E+07        -0.55881E+08         0.00000E+00
    0.00000E+00         0.00000E+00        -0.50750E-08
 
   -0.15352E+06         0.98571E+06         0.00000E+00
    0.98571E+06        -0.56257E+08         0.00000E+00
    0.00000E+00         0.00000E+00        -0.25369E-07
 
   -0.27013E+06         0.94144E+06         0.00000E+00
    0.94144E+06        -0.56646E+08         0.00000E+00
    0.00000E+00         0.00000E+00         0.18190E-11
 
   -0.39882E+06         0.88814E+06         0.00000E+00
    0.88814E+06        -0.57045E+08         0.00000E+00
    0.00000E+00         0.00000E+00         0.25371E-07
 
   -0.54018E+06         0.82540E+06         0.00000E+00
    0.82540E+06        -0.57455E+08         0.00000E+00
    0.00000E+00         0.00000E+00        -0.15223E-07
 
   -0.69473E+06         0.75302E+06         0.00000E+00
    0.75302E+06        -0.57875E+08         0.00000E+00
    0.00000E+00         0.00000E+00        -0.40594E-07
 
   -0.86292E+06         0.67117E+06         0.00000E+00
    0.67117E+06        -0.58302E+08         0.00000E+00
    0.00000E+00         0.00000E+00        -0.45668E-07
 
   -0.10452E+07         0.58050E+06         0.00000E+00
    0.58050E+06        -0.58735E+08         0.00000E+00
    0.00000E+00         0.00000E+00         0.30444E-07
 
   -0.12419E+07         0.48240E+06         0.00000E+00
    0.48240E+06        -0.59171E+08         0.00000E+00
    0.00000E+00         0.00000E+00         0.50732E-08
 
   -0.14535E+07         0.37924E+06         0.00000E+00
    0.37924E+06        -0.59605E+08         0.00000E+00
    0.00000E+00         0.00000E+00        -0.20296E-07
 
   -0.16805E+07         0.27475E+06         0.00000E+00
    0.27475E+06        -0.60034E+08         0.00000E+00
    0.00000E+00         0.00000E+00         0.50732E-08
 
   -0.19239E+07         0.17438E+06         0.00000E+00
    0.17438E+06        -0.60448E+08         0.00000E+00
    0.00000E+00         0.00000E+00        -0.25371E-07
 
   -0.21855E+07         0.85486E+05         0.00000E+00
    0.85486E+05        -0.60839E+08         0.00000E+00
    0.00000E+00         0.00000E+00         0.20296E-07
 
   -0.24689E+07         0.16848E+05         0.00000E+00
    0.16848E+05        -0.61192E+08         0.00000E+00
    0.00000E+00         0.00000E+00        -0.15222E-07
 
   -0.27803E+07        -0.23372E+05         0.00000E+00
   -0.23372E+05        -0.61488E+08         0.00000E+00
    0.00000E+00         0.00000E+00        -0.71037E-07
 
   -0.31289E+07        -0.31721E+05         0.00000E+00
   -0.31721E+05        -0.61705E+08         0.00000E+00
    0.00000E+00         0.00000E+00         0.50745E-08
 
   -0.35249E+07        -0.13974E+05         0.00000E+00
   -0.13974E+05        -0.61821E+08         0.00000E+00
    0.00000E+00         0.00000E+00         0.86259E-07
 
    0.12276E+06         0.12695E+04         0.00000E+00
    0.12695E+04        -0.47607E+08         0.00000E+00
    0.00000E+00         0.00000E+00         0.14211E-13
 
    0.11521E+06         0.40358E+04         0.00000E+00
    0.40358E+04        -0.47610E+08         0.00000E+00
    0.00000E+00         0.00000E+00        -0.10148E-07
 
    0.10907E+06         0.73815E+04         0.00000E+00
    0.73815E+04        -0.47615E+08         0.00000E+00
    0.00000E+00         0.00000E+00         0.50741E-08
 
    0.10408E+06         0.11434E+05         0.00000E+00
    0.11434E+05        -0.47621E+08         0.00000E+00
    0.00000E+00         0.00000E+00         0.10148E-07
 
    0.10002E+06         0.16121E+05         0.00000E+00
    0.16121E+05        -0.47629E+08         0.00000E+00
    0.00000E+00         0.00000E+00         0.25370E-07
 
    0.96750E+05         0.21278E+05         0.00000E+00
    0.21278E+05        -0.47638E+08         0.00000E+00
    0.00000E+00         0.00000E+00         0.15222E-07
 
    0.94183E+05         0.26735E+05         0.00000E+00
    0.26735E+05        -0.47647E+08         0.00000E+00
    0.00000E+00         0.00000E+00         0.50741E-08
 
    0.92271E+05         0.32357E+05         0.00000E+00
    0.32357E+05        -0.47657E+08         0.00000E+00
    0.00000E+00         0.00000E+00        -0.15222E-07
 
    0.90983E+05         0.38050E+05         0.00000E+00
    0.38050E+05        -0.47667E+08         0.00000E+00
    0.00000E+00         0.00000E+00        -0.30444E-07
 
    0.90294E+05         0.43759E+05         0.00000E+00
    0.43759E+05        -0.47678E+08         0.00000E+00
    0.00000E+00         0.00000E+00         0.65963E-07
 
    0.90185E+05         0.49454E+05         0.00000E+00
    0.49454E+05        -0.47689E+08         0.00000E+00
    0.00000E+00         0.00000E+00        -0.20296E-07
 
    0.90634E+05         0.55127E+05         0.00000E+00
    0.55127E+05        -0.47701E+08         0.00000E+00
    0.00000E+00         0.00000E+00         0.25370E-07
 
    0.91623E+05         0.60782E+05         0.00000E+00
    0.60782E+05        -0.47713E+08         0.00000E+00
    0.00000E+00         0.00000E+00        -0.30444E-07
 
    0.93134E+05         0.66434E+05         0.00000E+00
    0.66434E+05        -0.47725E+08         0.00000E+00
    0.00000E+00         0.00000E+00        -0.20296E-07
 
    0.95149E+05         0.72105E+05         0.00000E+00
    0.72105E+05        -0.47738E+08         0.00000E+00
    0.00000E+00         0.00000E+00        -0.50741E-08
 
    0.97653E+05         0.77818E+05         0.00000E+00
    0.77818E+05        -0.47751E+08         0.00000E+00
    0.00000E+00         0.00000E+00        -0.50741E-08
 
    0.10063E+06         0.83601E+05         0.00000E+00
    0.83601E+05        -0.47765E+08         0.00000E+00
    0.00000E+00         0.00000E+00         0.15222E-07
 
    0.10406E+06         0.89480E+05         0.00000E+00
    0.89480E+05        -0.47779E+08         0.00000E+00
    0.00000E+00         0.00000E+00        -0.25370E-07
 
    0.10795E+06         0.95485E+05         0.00000E+00
    0.95485E+05        -0.47795E+08         0.00000E+00
    0.00000E+00         0.00000E+00         0.50741E-08
 
    0.11226E+06         0.10164E+06         0.00000E+00
    0.10164E+06        -0.47810E+08         0.00000E+00
    0.00000E+00         0.00000E+00         0.35518E-07
 
    0.11700E+06         0.10798E+06         0.00000E+00
    0.10798E+06        -0.47827E+08         0.00000E+00
    0.00000E+00         0.00000E+00         0.15222E-07
 
    0.12215E+06         0.11452E+06         0.00000E+00
    0.11452E+06        -0.47844E+08         0.00000E+00
    0.00000E+00         0.00000E+00        -0.10148E-07
 
    0.12771E+06         0.12129E+06         0.00000E+00
    0.12129E+06        -0.47863E+08         0.00000E+00
    0.00000E+00         0.00000E+00         0.00000E+00
 
    0.13367E+06         0.12832E+06         0.00000E+00
    0.12832E+06        -0.47882E+08         0.00000E+00
    0.00000E+00         0.00000E+00        -0.40593E-07
 
    0.14002E+06         0.13563E+06         0.00000E+00
    0.13563E+06        -0.47902E+08         0.00000E+00
    0.00000E+00         0.00000E+00         0.30444E-07
 
    0.14676E+06         0.14324E+06         0.00000E+00
    0.14324E+06        -0.47924E+08         0.00000E+00
    0.00000E+00         0.00000E+00        -0.50741E-07
 
    0.15389E+06         0.15116E+06         0.00000E+00
    0.15116E+06        -0.47946E+08         0.00000E+00
    0.00000E+00         0.00000E+00        -0.10148E-07
 
    0.16141E+06         0.15944E+06         0.00000E+00
    0.15944E+06        -0.47970E+08         0.00000E+00
    0.00000E+00         0.00000E+00        -0.20296E-07
 
    0.16930E+06         0.16807E+06         0.00000E+00
    0.16807E+06        -0.47995E+08         0.00000E+00
    0.00000E+00         0.00000E+00        -0.15222E-07
 
    0.17758E+06         0.17709E+06         0.00000E+00
    0.17709E+06        -0.48022E+08         0.00000E+00
    0.00000E+00         0.00000E+00         0.30444E-07
 
    0.18624E+06         0.18651E+06         0.00000E+00
    0.18651E+06        -0.48050E+08         0.00000E+00
    0.00000E+00         0.00000E+00        -0.25370E-07
 
    0.19527E+06         0.19635E+06         0.00000E+00
    0.19635E+06        -0.48079E+08         0.00000E+00
    0.00000E+00         0.00000E+00        -0.50741E-08
 
    0.20469E+06         0.20663E+06         0.00000E+00
    0.20663E+06        -0.48111E+08         0.00000E+00
    0.00000E+00         0.00000E+00        -0.65963E-07
 
    0.21448E+06         0.21736E+06         0.00000E+00
    0.21736E+06        -0.48144E+08         0.00000E+00
    0.00000E+00         0.00000E+00         0.50741E-08
 
    0.22464E+06         0.22856E+06         0.00000E+00
    0.22856E+06        -0.48179E+08         0.00000E+00
    0.00000E+00         0.00000E+00         0.40592E-07
 
    0.23518E+06         0.24026E+06         0.00000E+00
    0.24026E+06        -0.48216E+08         0.00000E+00
    0.00000E+00         0.00000E+00         0.00000E+00
 
    0.24608E+06         0.25245E+06         0.00000E+00
    0.25245E+06        -0.48255E+08         0.00000E+00
    0.00000E+00         0.00000E+00         0.10148E-07
 
    0.25734E+06         0.26517E+06         0.00000E+00
    0.26517E+06        -0.48297E+08         0.00000E+00
    0.00000E+00         0.00000E+00         0.00000E+00
 
    0.26897E+06         0.27842E+06         0.00000E+00
    0.27842E+06        -0.48341E+08         0.00000E+00
    0.00000E+00         0.00000E+00        -0.50740E-07
 
    0.28094E+06         0.29221E+06         0.00000E+00
    0.29221E+06        -0.48387E+08         0.00000E+00
    0.00000E+00         0.00000E+00        -0.40593E-07
 
    0.29325E+06         0.30656E+06         0.00000E+00
    0.30656E+06        -0.48436E+08         0.00000E+00
    0.00000E+00         0.00000E+00        -0.30444E-07
 
    0.30588E+06         0.32148E+06         0.00000E+00
    0.32148E+06        -0.48488E+08         0.00000E+00
    0.00000E+00         0.00000E+00         0.50741E-08
 
    0.31883E+06         0.33699E+06         0.00000E+00
    0.33699E+06        -0.48543E+08         0.00000E+00
    0.00000E+00         0.00000E+00         0.00000E+00
 
    0.33208E+06         0.35307E+06         0.00000E+00
    0.35307E+06        -0.48600E+08         0.00000E+00
    0.00000E+00         0.00000E+00         0.20296E-07
 
    0.34560E+06         0.36976E+06         0.00000E+00
    0.36976E+06        -0.48661E+08         0.00000E+00
    0.00000E+00         0.00000E+00        -0.35518E-07
 
    0.35937E+06         0.38705E+06         0.00000E+00
    0.38705E+06        -0.48726E+08         0.00000E+00
    0.00000E+00         0.00000E+00        -0.15222E-07
 
    0.37337E+06         0.40493E+06         0.00000E+00
    0.40493E+06        -0.48794E+08         0.00000E+00
    0.00000E+00         0.00000E+00        -0.15222E-07
 
    0.38756E+06         0.42343E+06         0.00000E+00
    0.42343E+06        -0.48865E+08         0.00000E+00
    0.00000E+00         0.00000E+00         0.20296E-07
 
    0.40190E+06         0.44253E+06         0.00000E+00
    0.44253E+06        -0.48941E+08         0.00000E+00
    0.00000E+00         0.00000E+00        -0.10148E-07
 
    0.41636E+06         0.46222E+06         0.00000E+00
    0.46222E+06        -0.49021E+08         0.00000E+00
    0.00000E+00         0.00000E+00         0.00000E+00
 
    0.43089E+06         0.48251E+06         0.00000E+00
    0.48251E+06        -0.49105E+08         0.00000E+00
    0.00000E+00         0.00000E+00         0.00000E+00
 
    0.44542E+06         0.50338E+06         0.00000E+00
    0.50338E+06        -0.49193E+08         0.00000E+00
    0.00000E+00         0.00000E+00        -0.40593E-07
 
    0.45992E+06         0.52482E+06         0.00000E+00
    0.52482E+06        -0.49287E+08         0.00000E+00
    0.00000E+00         0.00000E+00         0.20296E-07
 
    0.47429E+06         0.54681E+06         0.00000E+00
    0.54681E+06        -0.49385E+08         0.00000E+00
    0.00000E+00         0.00000E+00         0.45667E-07
 
    0.48848E+06         0.56932E+06         0.00000E+00
    0.56932E+06        -0.49488E+08         0.00000E+00
    0.00000E+00         0.00000E+00        -0.10148E-07
 
    0.50240E+06         0.59233E+06         0.00000E+00
    0.59233E+06        -0.49597E+08         0.00000E+00
    0.00000E+00         0.00000E+00         0.45667E-07
 
    0.51594E+06         0.61579E+06         0.00000E+00
    0.61579E+06        -0.49711E+08         0.00000E+00
    0.00000E+00         0.00000E+00        -0.30444E-07
 
    0.52902E+06         0.63968E+06         0.00000E+00
    0.63968E+06        -0.49832E+08         0.00000E+00
    0.00000E+00         0.00000E+00         0.45475E-12
 
    0.54151E+06         0.66394E+06         0.00000E+00
    0.66394E+06        -0.49958E+08         0.00000E+00
    0.00000E+00         0.00000E+00        -0.40593E-07
 
    0.55329E+06         0.68852E+06         0.00000E+00
    0.68852E+06        -0.50091E+08         0.00000E+00
    0.00000E+00         0.00000E+00         0.40593E-07
 
    0.56421E+06         0.71335E+06         0.00000E+00
    0.71335E+06        -0.50230E+08         0.00000E+00
    0.00000E+00         0.00000E+00        -0.40593E-07
 
    0.57412E+06         0.73836E+06         0.00000E+00
    0.73836E+06        -0.50376E+08         0.00000E+00
    0.00000E+00         0.00000E+00         0.25370E-07
 
    0.58286E+06         0.76347E+06         0.00000E+00
    0.76347E+06        -0.50530E+08         0.00000E+00
    0.00000E+00         0.00000E+00        -0.40593E-07
 
    0.59024E+06         0.78857E+06         0.00000E+00
    0.78857E+06        -0.50691E+08         0.00000E+00
    0.00000E+00         0.00000E+00        -0.25370E-07
 
    0.59604E+06         0.81357E+06         0.00000E+00
    0.81357E+06        -0.50859E+08         0.00000E+00
    0.00000E+00         0.00000E+00        -0.10148E-07
 
    0.60005E+06         0.83833E+06         0.00000E+00
    0.83833E+06        -0.51035E+08         0.00000E+00
    0.00000E+00         0.00000E+00         0.30444E-07
 
    0.60203E+06         0.86273E+06         0.00000E+00
    0.86273E+06        -0.51220E+08         0.00000E+00
    0.00000E+00         0.00000E+00        -0.10148E-07
 
    0.60170E+06         0.88661E+06         0.00000E+00
    0.88661E+06        -0.51413E+08         0.00000E+00
    0.00000E+00         0.00000E+00         0.10148E-07
 
    0.59877E+06         0.90979E+06         0.00000E+00
    0.90979E+06        -0.51615E+08         0.00000E+00
    0.00000E+00         0.00000E+00        -0.10148E-07
 
    0.59293E+06         0.93208E+06         0.00000E+00
    0.93208E+06        -0.51826E+08         0.00000E+00
    0.00000E+00         0.00000E+00         0.10148E-07
 
    0.58383E+06         0.95326E+06         0.00000E+00
    0.95326E+06        -0.52046E+08         0.00000E+00
    0.00000E+00         0.00000E+00        -0.10148E-07
 
    0.57110E+06         0.97309E+06         0.00000E+00
    0.97309E+06        -0.52276E+08         0.00000E+00
    0.00000E+00         0.00000E+00         0.20296E-07
 
    0.55433E+06         0.99131E+06         0.00000E+00
    0.99131E+06        -0.52516E+08         0.00000E+00
    0.00000E+00         0.00000E+00         0.10148E-07
 
    0.53308E+06         0.10076E+07         0.00000E+00
    0.10076E+07        -0.52766E+08         0.00000E+00
    0.00000E+00         0.00000E+00        -0.50741E-07
 
    0.50688E+06         0.10216E+07         0.00000E+00
    0.10216E+07        -0.53026E+08         0.00000E+00
    0.00000E+00         0.00000E+00        -0.25370E-07
 
    0.47523E+06         0.10331E+07         0.00000E+00
    0.10331E+07        -0.53297E+08         0.00000E+00
    0.00000E+00         0.00000E+00         0.50741E-08
 
    0.43758E+06         0.10414E+07         0.00000E+00
    0.10414E+07        -0.53579E+08         0.00000E+00
    0.00000E+00         0.00000E+00        -0.55815E-07
 
    0.39335E+06         0.10463E+07         0.00000E+00
    0.10463E+07        -0.53872E+08         0.00000E+00
    0.00000E+00         0.00000E+00         0.00000E+00
 
    0.34195E+06         0.10472E+07         0.00000E+00
    0.10472E+07        -0.54177E+08         0.00000E+00
    0.00000E+00         0.00000E+00         0.15222E-07
 
    0.28271E+06         0.10436E+07         0.00000E+00
    0.10436E+07        -0.54493E+08         0.00000E+00
    0.00000E+00         0.00000E+00         0.50741E-08
 
    0.21498E+06         0.10349E+07         0.00000E+00
    0.10349E+07        -0.54820E+08         0.00000E+00
    0.00000E+00         0.00000E+00         0.10148E-07
 
    0.13807E+06         0.10205E+07         0.00000E+00
    0.10205E+07        -0.55160E+08         0.00000E+00
    0.00000E+00         0.00000E+00        -0.30444E-07
 
    0.51250E+05         0.99979E+06         0.00000E+00
    0.99979E+06        -0.55511E+08         0.00000E+00
    0.00000E+00         0.00000E+00         0.30444E-07
 
   -0.46185E+05         0.97201E+06         0.00000E+00
    0.97201E+06        -0.55874E+08         0.00000E+00
    0.00000E+00         0.00000E+00        -0.30444E-07
 
   -0.15495E+06         0.93656E+06         0.00000E+00
    0.93656E+06        -0.56249E+08         0.00000E+00
    0.00000E+00         0.00000E+00         0.40593E-07
 
   -0.27576E+06         0.89280E+06         0.00000E+00
    0.89280E+06        -0.56636E+08         0.00000E+00
    0.00000E+00         0.00000E+00         0.50732E-08
 
   -0.40928E+06         0.84018E+06         0.00000E+00
    0.84018E+06        -0.57034E+08         0.00000E+00
    0.00000E+00         0.00000E+00         0.50741E-07
 
   -0.55614E+06         0.77829E+06         0.00000E+00
    0.77829E+06        -0.57442E+08         0.00000E+00
    0.00000E+00         0.00000E+00        -0.50732E-08
 
   -0.71693E+06         0.70694E+06         0.00000E+00
    0.70694E+06        -0.57859E+08         0.00000E+00
    0.00000E+00         0.00000E+00        -0.55814E-07
 
   -0.89214E+06         0.62629E+06         0.00000E+00
    0.62629E+06        -0.58285E+08         0.00000E+00
    0.00000E+00         0.00000E+00        -0.10150E-07
 
   -0.10822E+07         0.53700E+06         0.00000E+00
    0.53700E+06        -0.58716E+08         0.00000E+00
    0.00000E+00         0.00000E+00         0.55816E-07
 
   -0.12875E+07         0.44045E+06         0.00000E+00
    0.44045E+06        -0.59151E+08         0.00000E+00
    0.00000E+00         0.00000E+00         0.50732E-08
 
   -0.15082E+07         0.33902E+06         0.00000E+00
    0.33902E+06        -0.59585E+08         0.00000E+00
    0.00000E+00         0.00000E+00         0.76112E-07
 
   -0.17448E+07         0.23650E+06         0.00000E+00
    0.23650E+06        -0.60013E+08         0.00000E+00
    0.00000E+00         0.00000E+00        -0.65962E-07
 
   -0.19977E+07         0.13843E+06         0.00000E+00
    0.13843E+06        -0.60429E+08         0.00000E+00
    0.00000E+00         0.00000E+00        -0.15221E-07
 
   -0.22681E+07         0.52413E+05         0.00000E+00
    0.52413E+05        -0.60823E+08         0.00000E+00
    0.00000E+00         0.00000E+00         0.50741E-08
 
   -0.25588E+07        -0.12319E+05         0.00000E+00
   -0.12319E+05        -0.61181E+08         0.00000E+00
    0.00000E+00         0.00000E+00         0.50741E-07
 
   -0.28753E+07        -0.46923E+05         0.00000E+00
   -0.46923E+05        -0.61484E+08         0.00000E+00
    0.00000E+00         0.00000E+00        -0.65961E-07
 
   -0.32268E+07        -0.47343E+05         0.00000E+00
   -0.47343E+05        -0.61707E+08         0.00000E+00
    0.00000E+00         0.00000E+00        -0.91333E-07
 
   -0.36239E+07        -0.19488E+05         0.00000E+00
   -0.19488E+05        -0.61827E+08         0.00000E+00
    0.00000E+00         0.00000E+00         0.00000E+00
 
    0.12612E+06         0.11030E+04         0.00000E+00
    0.11030E+04        -0.47608E+08         0.00000E+00
    0.00000E+00         0.00000E+00         0.00000E+00
 
    0.11857E+06         0.35561E+04         0.00000E+00
    0.35561E+04        -0.47611E+08         0.00000E+00
    0.00000E+00         0.00000E+00         0.60889E-07
 
    0.11239E+06         0.66343E+04         0.00000E+00
    0.66343E+04        -0.47615E+08         0.00000E+00
    0.00000E+00         0.00000E+00        -0.25370E-07
 
    0.10734E+06         0.10464E+05         0.00000E+00
    0.10464E+05        -0.47622E+08         0.00000E+00
    0.00000E+00         0.00000E+00         0.10148E-07
 
    0.10318E+06         0.14957E+05         0.00000E+00
    0.14957E+05        -0.47630E+08         0.00000E+00
    0.00000E+00         0.00000E+00         0.25370E-07
 
    0.99796E+05         0.19932E+05         0.00000E+00
    0.19932E+05        -0.47639E+08         0.00000E+00
    0.00000E+00         0.00000E+00        -0.55815E-07
 
    0.97111E+05         0.25211E+05         0.00000E+00
    0.25211E+05        -0.47648E+08         0.00000E+00
    0.00000E+00         0.00000E+00         0.35518E-07
 
    0.95092E+05         0.30653E+05         0.00000E+00
    0.30653E+05        -0.47658E+08         0.00000E+00
    0.00000E+00         0.00000E+00        -0.20296E-07
 
    0.93716E+05         0.36164E+05         0.00000E+00
    0.36164E+05        -0.47668E+08         0.00000E+00
    0.00000E+00         0.00000E+00         0.15222E-07
 
    0.92963E+05         0.41686E+05         0.00000E+00
    0.41686E+05        -0.47679E+08         0.00000E+00
    0.00000E+00         0.00000E+00        -0.50741E-08
 
    0.92812E+05         0.47191E+05         0.00000E+00
    0.47191E+05        -0.47690E+08         0.00000E+00
    0.00000E+00         0.00000E+00         0.20296E-07
 
    0.93244E+05         0.52668E+05         0.00000E+00
    0.52668E+05        -0.47702E+08         0.00000E+00
    0.00000E+00         0.00000E+00        -0.50741E-08
 
    0.94239E+05         0.58124E+05         0.00000E+00
    0.58124E+05        -0.47714E+08         0.00000E+00
    0.00000E+00         0.00000E+00         0.45667E-07
 
    0.95779E+05         0.63571E+05         0.00000E+00
    0.63571E+05        -0.47726E+08         0.00000E+00
    0.00000E+00         0.00000E+00         0.00000E+00
 
    0.97844E+05         0.69031E+05         0.00000E+00
    0.69031E+05        -0.47739E+08         0.00000E+00
    0.00000E+00         0.00000E+00         0.20296E-07
 
    0.10042E+06         0.74527E+05         0.00000E+00
    0.74527E+05        -0.47752E+08         0.00000E+00
    0.00000E+00         0.00000E+00        -0.35518E-07
 
    0.10348E+06         0.80086E+05         0.00000E+00
    0.80086E+05        -0.47766E+08         0.00000E+00
    0.00000E+00         0.00000E+00        -0.20296E-07
 
    0.10702E+06         0.85735E+05         0.00000E+00
    0.85735E+05        -0.47781E+08         0.00000E+00
    0.00000E+00         0.00000E+00         0.10148E-07
 
    0.11102E+06         0.91500E+05         0.00000E+00
    0.91500E+05        -0.47796E+08         0.00000E+00
    0.00000E+00         0.00000E+00         0.15222E-07
 
    0.11546E+06         0.97410E+05         0.00000E+00
    0.97410E+05        -0.47812E+08         0.00000E+00
    0.00000E+00         0.00000E+00         0.55815E-07
 
    0.12035E+06         0.10349E+06         0.00000E+00
    0.10349E+06        -0.47828E+08         0.00000E+00
    0.00000E+00         0.00000E+00         0.15222E-07
 
    0.12566E+06         0.10976E+06         0.00000E+00
    0.10976E+06        -0.47846E+08         0.00000E+00
    0.00000E+00         0.00000E+00         0.10148E-07
 
    0.13139E+06         0.11626E+06         0.00000E+00
    0.11626E+06        -0.47864E+08         0.00000E+00
    0.00000E+00         0.00000E+00         0.50741E-08
 
    0.13753E+06         0.12300E+06         0.00000E+00
    0.12300E+06        -0.47883E+08         0.00000E+00
    0.00000E+00         0.00000E+00         0.10148E-07
 
    0.14408E+06         0.13000E+06         0.00000E+00
    0.13000E+06        -0.47904E+08         0.00000E+00
    0.00000E+00         0.00000E+00         0.50741E-08
 
    0.15103E+06         0.13729E+06         0.00000E+00
    0.13729E+06        -0.47925E+08         0.00000E+00
    0.00000E+00         0.00000E+00         0.00000E+00
 
    0.15838E+06         0.14489E+06         0.00000E+00
    0.14489E+06        -0.47948E+08         0.00000E+00
    0.00000E+00         0.00000E+00         0.20296E-07
 
    0.16613E+06         0.15281E+06         0.00000E+00
    0.15281E+06        -0.47972E+08         0.00000E+00
    0.00000E+00         0.00000E+00         0.50741E-08
 
    0.17427E+06         0.16108E+06         0.00000E+00
    0.16108E+06        -0.47997E+08         0.00000E+00
    0.00000E+00         0.00000E+00         0.45667E-07
 
    0.18280E+06         0.16972E+06         0.00000E+00
    0.16972E+06        -0.48024E+08         0.00000E+00
    0.00000E+00         0.00000E+00         0.15222E-07
 
    0.19172E+06         0.17875E+06         0.00000E+00
    0.17875E+06        -0.48052E+08         0.00000E+00
    0.00000E+00         0.00000E+00        -0.50741E-08
 
    0.20104E+06         0.18817E+06         0.00000E+00
    0.18817E+06        -0.48081E+08         0.00000E+00
    0.00000E+00         0.00000E+00         0.35518E-07
 
    0.21074E+06         0.19802E+06         0.00000E+00
    0.19802E+06        -0.48113E+08         0.00000E+00
    0.00000E+00         0.00000E+00         0.45667E-07
 
    0.22083E+06         0.20829E+06         0.00000E+00
    0.20829E+06        -0.48146E+08         0.00000E+00
    0.00000E+00         0.00000E+00         0.00000E+00
 
    0.23131E+06         0.21903E+06         0.00000E+00
    0.21903E+06        -0.48181E+08         0.00000E+00
    0.00000E+00         0.00000E+00         0.20296E-07
 
    0.24216E+06         0.23022E+06         0.00000E+00
    0.23022E+06        -0.48219E+08         0.00000E+00
    0.00000E+00         0.00000E+00        -0.35518E-07
 
    0.25340E+06         0.24190E+06         0.00000E+00
    0.24190E+06        -0.48258E+08         0.00000E+00
    0.00000E+00         0.00000E+00        -0.35518E-07
 
    0.26502E+06         0.25408E+06         0.00000E+00
    0.25408E+06        -0.48299E+08         0.00000E+00
    0.00000E+00         0.00000E+00         0.00000E+00
 
    0.27700E+06         0.26676E+06         0.00000E+00
    0.26676E+06        -0.48343E+08         0.00000E+00
    0.00000E+00         0.00000E+00         0.55815E-07
 
    0.28934E+06         0.27996E+06         0.00000E+00
    0.27996E+06        -0.48390E+08         0.00000E+00
    0.00000E+00         0.00000E+00        -0.60889E-07
 
    0.30203E+06         0.29370E+06         0.00000E+00
    0.29370E+06        -0.48439E+08         0.00000E+00
    0.00000E+00         0.00000E+00        -0.50741E-08
 
    0.31506E+06         0.30799E+06         0.00000E+00
    0.30799E+06        -0.48491E+08         0.00000E+00
    0.00000E+00         0.00000E+00         0.40593E-07
 
    0.32841E+06         0.32282E+06         0.00000E+00
    0.32282E+06        -0.48546E+08         0.00000E+00
    0.00000E+00         0.00000E+00        -0.50741E-08
 
    0.34207E+06         0.33822E+06         0.00000E+00
    0.33822E+06        -0.48603E+08         0.00000E+00
    0.00000E+00         0.00000E+00        -0.15222E-07
 
    0.35602E+06         0.35419E+06         0.00000E+00
    0.35419E+06        -0.48665E+08         0.00000E+00
    0.00000E+00         0.00000E+00        -0.15222E-07
 
    0.37023E+06         0.37073E+06         0.00000E+00
    0.37073E+06        -0.48729E+08         0.00000E+00
    0.00000E+00         0.00000E+00        -0.25370E-07
 
    0.38467E+06         0.38784E+06         0.00000E+00
    0.38784E+06        -0.48797E+08         0.00000E+00
    0.00000E+00         0.00000E+00         0.25370E-07
 
    0.39931E+06         0.40554E+06         0.00000E+00
    0.40554E+06        -0.48869E+08         0.00000E+00
    0.00000E+00         0.00000E+00        -0.20296E-07
 
    0.41411E+06         0.42380E+06         0.00000E+00
    0.42380E+06        -0.48945E+08         0.00000E+00
    0.00000E+00         0.00000E+00        -0.10148E-07
 
    0.42904E+06         0.44264E+06         0.00000E+00
    0.44264E+06        -0.49025E+08         0.00000E+00
    0.00000E+00         0.00000E+00        -0.45666E-07
 
    0.44403E+06         0.46205E+06         0.00000E+00
    0.46205E+06        -0.49109E+08         0.00000E+00
    0.00000E+00         0.00000E+00        -0.25370E-07
 
    0.45904E+06         0.48201E+06         0.00000E+00
    0.48201E+06        -0.49197E+08         0.00000E+00
    0.00000E+00         0.00000E+00         0.50741E-07
 
    0.47401E+06         0.50250E+06         0.00000E+00
    0.50250E+06        -0.49291E+08         0.00000E+00
    0.00000E+00         0.00000E+00        -0.10148E-07
 
    0.48887E+06         0.52352E+06         0.00000E+00
    0.52352E+06        -0.49389E+08         0.00000E+00
    0.00000E+00         0.00000E+00         0.40593E-07
 
    0.50353E+06         0.54504E+06         0.00000E+00
    0.54504E+06        -0.49493E+08         0.00000E+00
    0.00000E+00         0.00000E+00         0.00000E+00
 
    0.51792E+06         0.56702E+06         0.00000E+00
    0.56702E+06        -0.49601E+08         0.00000E+00
    0.00000E+00         0.00000E+00         0.10148E-07
 
    0.53194E+06         0.58944E+06         0.00000E+00
    0.58944E+06        -0.49716E+08         0.00000E+00
    0.00000E+00         0.00000E+00         0.15222E-07
 
    0.54547E+06         0.61227E+06         0.00000E+00
    0.61227E+06        -0.49836E+08         0.00000E+00
    0.00000E+00         0.00000E+00         0.30444E-07
 
    0.55841E+06         0.63544E+06         0.00000E+00
    0.63544E+06        -0.49963E+08         0.00000E+00
    0.00000E+00         0.00000E+00         0.30444E-07
 
    0.57062E+06         0.65891E+06         0.00000E+00
    0.65891E+06        -0.50096E+08         0.00000E+00
    0.00000E+00         0.00000E+00         0.55815E-07
 
    0.58195E+06         0.68261E+06         0.00000E+00
    0.68261E+06        -0.50235E+08         0.00000E+00
    0.00000E+00         0.00000E+00         0.35518E-07
 
    0.59226E+06         0.70648E+06         0.00000E+00
    0.70648E+06        -0.50381E+08         0.00000E+00
    0.00000E+00         0.00000E+00         0.00000E+00
 
    0.60136E+06         0.73043E+06         0.00000E+00
    0.73043E+06        -0.50535E+08         0.00000E+00
    0.00000E+00         0.00000E+00         0.00000E+00
 
    0.60907E+06         0.75437E+06         0.00000E+00
    0.75437E+06        -0.50695E+08         0.00000E+00
    0.00000E+00         0.00000E+00        -0.15222E-07
 
    0.61517E+06         0.77820E+06         0.00000E+00
    0.77820E+06        -0.50864E+08         0.00000E+00
    0.00000E+00         0.00000E+00        -0.15222E-07
 
    0.61943E+06         0.80181E+06         0.00000E+00
    0.80181E+06        -0.51040E+08         0.00000E+00
    0.00000E+00         0.00000E+00         0.10148E-07
 
    0.62161E+06         0.82504E+06         0.00000E+00
    0.82504E+06        -0.51225E+08         0.00000E+00
    0.00000E+00         0.00000E+00         0.50741E-08
 
    0.62143E+06         0.84777E+06         0.00000E+00
    0.84777E+06        -0.51418E+08         0.00000E+00
    0.00000E+00         0.00000E+00        -0.30444E-07
 
    0.61858E+06         0.86982E+06         0.00000E+00
    0.86982E+06        -0.51620E+08         0.00000E+00
    0.00000E+00         0.00000E+00         0.50741E-08
 
    0.61274E+06         0.89100E+06         0.00000E+00
    0.89100E+06        -0.51830E+08         0.00000E+00
    0.00000E+00         0.00000E+00         0.20296E-07
 
    0.60356E+06         0.91110E+06         0.00000E+00
    0.91110E+06        -0.52050E+08         0.00000E+00
    0.00000E+00         0.00000E+00        -0.10148E-07
 
    0.59065E+06         0.92989E+06         0.00000E+00
    0.92989E+06        -0.52280E+08         0.00000E+00
    0.00000E+00         0.00000E+00         0.15221E-07
 
    0.57359E+06         0.94712E+06         0.00000E+00
    0.94712E+06        -0.52520E+08         0.00000E+00
    0.00000E+00         0.00000E+00         0.30444E-07
 
    0.55193E+06         0.96248E+06         0.00000E+00
    0.96248E+06        -0.52769E+08         0.00000E+00
    0.00000E+00         0.00000E+00        -0.20296E-07
 
    0.52518E+06         0.97565E+06         0.00000E+00
    0.97565E+06        -0.53029E+08         0.00000E+00
    0.00000E+00         0.00000E+00        -0.81185E-07
 
    0.49282E+06         0.98628E+06         0.00000E+00
    0.98628E+06        -0.53299E+08         0.00000E+00
    0.00000E+00         0.00000E+00         0.30444E-07
 
    0.45428E+06         0.99396E+06         0.00000E+00
    0.99396E+06        -0.53581E+08         0.00000E+00
    0.00000E+00         0.00000E+00        -0.30444E-07
 
    0.40895E+06         0.99825E+06         0.00000E+00
    0.99825E+06        -0.53873E+08         0.00000E+00
    0.00000E+00         0.00000E+00         0.20296E-07
 
    0.35621E+06         0.99869E+06         0.00000E+00
    0.99869E+06        -0.54176E+08         0.00000E+00
    0.00000E+00         0.00000E+00        -0.10148E-07
 
    0.29538E+06         0.99474E+06         0.00000E+00
    0.99474E+06        -0.54491E+08         0.00000E+00
    0.00000E+00         0.00000E+00        -0.10148E-07
 
    0.22575E+06         0.98583E+06         0.00000E+00
    0.98583E+06        -0.54818E+08         0.00000E+00
    0.00000E+00         0.00000E+00        -0.15221E-07
 
    0.14659E+06         0.97136E+06         0.00000E+00
    0.97136E+06        -0.55156E+08         0.00000E+00
    0.00000E+00         0.00000E+00        -0.35518E-07
 
    0.57138E+05         0.95070E+06         0.00000E+00
    0.95070E+06        -0.55506E+08         0.00000E+00
    0.00000E+00         0.00000E+00        -0.35518E-07
 
   -0.43377E+05         0.92319E+06         0.00000E+00
    0.92319E+06        -0.55868E+08         0.00000E+00
    0.00000E+00         0.00000E+00        -0.20296E-07
 
   -0.15573E+06         0.88818E+06         0.00000E+00
    0.88818E+06        -0.56242E+08         0.00000E+00
    0.00000E+00         0.00000E+00        -0.30444E-07
 
   -0.28068E+06         0.84505E+06         0.00000E+00
    0.84505E+06        -0.56626E+08         0.00000E+00
    0.00000E+00         0.00000E+00         0.60889E-07
 
   -0.41898E+06         0.79324E+06         0.00000E+00
    0.79324E+06        -0.57022E+08         0.00000E+00
    0.00000E+00         0.00000E+00         0.00000E+00
 
   -0.57132E+06         0.73235E+06         0.00000E+00
    0.73235E+06        -0.57429E+08         0.00000E+00
    0.00000E+00         0.00000E+00         0.55816E-07
 
   -0.73833E+06         0.66219E+06         0.00000E+00
    0.66219E+06        -0.57844E+08         0.00000E+00
    0.00000E+00         0.00000E+00        -0.55814E-07
 
   -0.92057E+06         0.58290E+06         0.00000E+00
    0.58290E+06        -0.58268E+08         0.00000E+00
    0.00000E+00         0.00000E+00         0.15221E-07
 
   -0.11185E+07         0.49514E+06         0.00000E+00
    0.49514E+06        -0.58698E+08         0.00000E+00
    0.00000E+00         0.00000E+00        -0.50743E-07
 
   -0.13324E+07         0.40028E+06         0.00000E+00
    0.40028E+06        -0.59131E+08         0.00000E+00
    0.00000E+00         0.00000E+00         0.30444E-07
 
   -0.15624E+07         0.30070E+06         0.00000E+00
    0.30070E+06        -0.59564E+08         0.00000E+00
    0.00000E+00         0.00000E+00        -0.20296E-07
 
   -0.18087E+07         0.20019E+06         0.00000E+00
    0.20019E+06        -0.59993E+08         0.00000E+00
    0.00000E+00         0.00000E+00         0.20298E-07
 
   -0.20713E+07         0.10437E+06         0.00000E+00
    0.10437E+06        -0.60411E+08         0.00000E+00
    0.00000E+00         0.00000E+00        -0.50741E-08
 
   -0.23508E+07         0.21005E+05         0.00000E+00
    0.21005E+05        -0.60808E+08         0.00000E+00
    0.00000E+00         0.00000E+00         0.50741E-07
 
   -0.26491E+07        -0.40209E+05         0.00000E+00
   -0.40209E+05        -0.61171E+08         0.00000E+00
    0.00000E+00         0.00000E+00         0.10148E-07
 
   -0.29710E+07        -0.69684E+05         0.00000E+00
   -0.69684E+05        -0.61481E+08         0.00000E+00
    0.00000E+00         0.00000E+00        -0.10148E-07
 
   -0.33254E+07        -0.62612E+05         0.00000E+00
   -0.62612E+05        -0.61711E+08         0.00000E+00
    0.00000E+00         0.00000E+00         0.10148E-07
 
   -0.37236E+07        -0.24916E+05         0.00000E+00
   -0.24916E+05        -0.61836E+08         0.00000E+00
    0.00000E+00         0.00000E+00         0.20297E-07
 
    0.12946E+06         0.93673E+03         0.00000E+00
    0.93673E+03        -0.47608E+08         0.00000E+00
    0.00000E+00         0.00000E+00         0.10148E-07
 
    0.12190E+06         0.30794E+04         0.00000E+00
    0.30794E+04        -0.47611E+08         0.00000E+00
    0.00000E+00         0.00000E+00         0.30444E-07
 
    0.11569E+06         0.58966E+04         0.00000E+00
    0.58966E+04        -0.47616E+08         0.00000E+00
    0.00000E+00         0.00000E+00         0.10656E-06
 
    0.11057E+06         0.95109E+04         0.00000E+00
    0.95109E+04        -0.47623E+08         0.00000E+00
    0.00000E+00         0.00000E+00         0.40593E-07
 
    0.10631E+06         0.13815E+05         0.00000E+00
    0.13815E+05        -0.47631E+08         0.00000E+00
    0.00000E+00         0.00000E+00         0.50741E-08
 
    0.10280E+06         0.18611E+05         0.00000E+00
    0.18611E+05        -0.47640E+08         0.00000E+00
    0.00000E+00         0.00000E+00        -0.15222E-07
 
    0.99988E+05         0.23710E+05         0.00000E+00
    0.23710E+05        -0.47649E+08         0.00000E+00
    0.00000E+00         0.00000E+00         0.20296E-07
 
    0.97859E+05         0.28969E+05         0.00000E+00
    0.28969E+05        -0.47659E+08         0.00000E+00
    0.00000E+00         0.00000E+00         0.50741E-08
 
    0.96391E+05         0.34293E+05         0.00000E+00
    0.34293E+05        -0.47669E+08         0.00000E+00
    0.00000E+00         0.00000E+00         0.12685E-06
 
    0.95570E+05         0.39624E+05         0.00000E+00
    0.39624E+05        -0.47680E+08         0.00000E+00
    0.00000E+00         0.00000E+00        -0.15222E-07
 
    0.95376E+05         0.44933E+05         0.00000E+00
    0.44933E+05        -0.47691E+08         0.00000E+00
    0.00000E+00         0.00000E+00         0.45667E-07
 
    0.95790E+05         0.50211E+05         0.00000E+00
    0.50211E+05        -0.47703E+08         0.00000E+00
    0.00000E+00         0.00000E+00         0.35518E-07
 
    0.96791E+05         0.55462E+05         0.00000E+00
    0.55462E+05        -0.47715E+08         0.00000E+00
    0.00000E+00         0.00000E+00        -0.15222E-07
 
    0.98359E+05         0.60700E+05         0.00000E+00
    0.60700E+05        -0.47727E+08         0.00000E+00
    0.00000E+00         0.00000E+00        -0.50741E-08
 
    0.10047E+06         0.65945E+05         0.00000E+00
    0.65945E+05        -0.47740E+08         0.00000E+00
    0.00000E+00         0.00000E+00         0.15222E-07
 
    0.10311E+06         0.71221E+05         0.00000E+00
    0.71221E+05        -0.47753E+08         0.00000E+00
    0.00000E+00         0.00000E+00        -0.15222E-07
 
    0.10626E+06         0.76553E+05         0.00000E+00
    0.76553E+05        -0.47767E+08         0.00000E+00
    0.00000E+00         0.00000E+00         0.45667E-07
 
    0.10990E+06         0.81967E+05         0.00000E+00
    0.81967E+05        -0.47782E+08         0.00000E+00
    0.00000E+00         0.00000E+00        -0.40593E-07
 
    0.11402E+06         0.87490E+05         0.00000E+00
    0.87490E+05        -0.47797E+08         0.00000E+00
    0.00000E+00         0.00000E+00         0.55815E-07
 
    0.11860E+06         0.93149E+05         0.00000E+00
    0.93149E+05        -0.47813E+08         0.00000E+00
    0.00000E+00         0.00000E+00         0.45667E-07
 
    0.12363E+06         0.98969E+05         0.00000E+00
    0.98969E+05        -0.47829E+08         0.00000E+00
    0.00000E+00         0.00000E+00         0.40593E-07
 
    0.12910E+06         0.10497E+06         0.00000E+00
    0.10497E+06        -0.47847E+08         0.00000E+00
    0.00000E+00         0.00000E+00        -0.50740E-08
 
    0.13500E+06         0.11119E+06         0.00000E+00
    0.11119E+06        -0.47865E+08         0.00000E+00
    0.00000E+00         0.00000E+00         0.20296E-07
 
    0.14132E+06         0.11763E+06         0.00000E+00
    0.11763E+06        -0.47885E+08         0.00000E+00
    0.00000E+00         0.00000E+00         0.76111E-07
 
    0.14807E+06         0.12433E+06         0.00000E+00
    0.12433E+06        -0.47905E+08         0.00000E+00
    0.00000E+00         0.00000E+00        -0.11369E-12
 
    0.15522E+06         0.13130E+06         0.00000E+00
    0.13130E+06        -0.47927E+08         0.00000E+00
    0.00000E+00         0.00000E+00         0.00000E+00
 
    0.16279E+06         0.13856E+06         0.00000E+00
    0.13856E+06        -0.47949E+08         0.00000E+00
    0.00000E+00         0.00000E+00        -0.15222E-07
 
    0.17076E+06         0.14614E+06         0.00000E+00
    0.14614E+06        -0.47973E+08         0.00000E+00
    0.00000E+00         0.00000E+00         0.45667E-07
 
    0.17914E+06         0.15405E+06         0.00000E+00
    0.15405E+06        -0.47999E+08         0.00000E+00
    0.00000E+00         0.00000E+00        -0.50741E-08
 
    0.18793E+06         0.16231E+06         0.00000E+00
    0.16231E+06        -0.48025E+08         0.00000E+00
    0.00000E+00         0.00000E+00        -0.55815E-07
 
    0.19711E+06         0.17093E+06         0.00000E+00
    0.17093E+06        -0.48053E+08         0.00000E+00
    0.00000E+00         0.00000E+00         0.30444E-07
 
    0.20670E+06         0.17994E+06         0.00000E+00
    0.17994E+06        -0.48083E+08         0.00000E+00
    0.00000E+00         0.00000E+00         0.76111E-07
 
    0.21669E+06         0.18935E+06         0.00000E+00
    0.18935E+06        -0.48115E+08         0.00000E+00
    0.00000E+00         0.00000E+00        -0.76111E-07
 
    0.22707E+06         0.19917E+06         0.00000E+00
    0.19917E+06        -0.48148E+08         0.00000E+00
    0.00000E+00         0.00000E+00        -0.20296E-07
 
    0.23786E+06         0.20942E+06         0.00000E+00
    0.20942E+06        -0.48184E+08         0.00000E+00
    0.00000E+00         0.00000E+00         0.00000E+00
 
    0.24903E+06         0.22012E+06         0.00000E+00
    0.22012E+06        -0.48221E+08         0.00000E+00
    0.00000E+00         0.00000E+00        -0.50741E-08
 
    0.26060E+06         0.23128E+06         0.00000E+00
    0.23128E+06        -0.48260E+08         0.00000E+00
    0.00000E+00         0.00000E+00        -0.25370E-07
 
    0.27256E+06         0.24291E+06         0.00000E+00
    0.24291E+06        -0.48302E+08         0.00000E+00
    0.00000E+00         0.00000E+00         0.50741E-08
 
    0.28490E+06         0.25503E+06         0.00000E+00
    0.25503E+06        -0.48346E+08         0.00000E+00
    0.00000E+00         0.00000E+00         0.25370E-07
 
    0.29760E+06         0.26764E+06         0.00000E+00
    0.26764E+06        -0.48393E+08         0.00000E+00
    0.00000E+00         0.00000E+00        -0.50741E-08
 
    0.31067E+06         0.28077E+06         0.00000E+00
    0.28077E+06        -0.48442E+08         0.00000E+00
    0.00000E+00         0.00000E+00         0.60889E-07
 
    0.32409E+06         0.29441E+06         0.00000E+00
    0.29441E+06        -0.48494E+08         0.00000E+00
    0.00000E+00         0.00000E+00        -0.15222E-07
 
    0.33785E+06         0.30858E+06         0.00000E+00
    0.30858E+06        -0.48549E+08         0.00000E+00
    0.00000E+00         0.00000E+00        -0.15222E-07
 
    0.35192E+06         0.32328E+06         0.00000E+00
    0.32328E+06        -0.48607E+08         0.00000E+00
    0.00000E+00         0.00000E+00         0.35518E-07
 
    0.36628E+06         0.33853E+06         0.00000E+00
    0.33853E+06        -0.48668E+08         0.00000E+00
    0.00000E+00         0.00000E+00         0.25370E-07
 
    0.38092E+06         0.35432E+06         0.00000E+00
    0.35432E+06        -0.48732E+08         0.00000E+00
    0.00000E+00         0.00000E+00        -0.71037E-07
 
    0.39580E+06         0.37066E+06         0.00000E+00
    0.37066E+06        -0.48801E+08         0.00000E+00
    0.00000E+00         0.00000E+00        -0.10148E-07
 
    0.41089E+06         0.38755E+06         0.00000E+00
    0.38755E+06        -0.48872E+08         0.00000E+00
    0.00000E+00         0.00000E+00        -0.15222E-07
 
    0.42615E+06         0.40499E+06         0.00000E+00
    0.40499E+06        -0.48948E+08         0.00000E+00
    0.00000E+00         0.00000E+00         0.25370E-07
 
    0.44153E+06         0.42297E+06         0.00000E+00
    0.42297E+06        -0.49028E+08         0.00000E+00
    0.00000E+00         0.00000E+00         0.15222E-07
 
    0.45700E+06         0.44149E+06         0.00000E+00
    0.44149E+06        -0.49113E+08         0.00000E+00
    0.00000E+00         0.00000E+00        -0.10148E-07
 
    0.47248E+06         0.46053E+06         0.00000E+00
    0.46053E+06        -0.49201E+08         0.00000E+00
    0.00000E+00         0.00000E+00        -0.15222E-07
 
    0.48793E+06         0.48009E+06         0.00000E+00
    0.48009E+06        -0.49295E+08         0.00000E+00
    0.00000E+00         0.00000E+00         0.25370E-07
 
    0.50326E+06         0.50014E+06         0.00000E+00
    0.50014E+06        -0.49393E+08         0.00000E+00
    0.00000E+00         0.00000E+00         0.25370E-07
 
    0.51840E+06         0.52066E+06         0.00000E+00
    0.52066E+06        -0.49497E+08         0.00000E+00
    0.00000E+00         0.00000E+00        -0.20296E-07
 
    0.53326E+06         0.54162E+06         0.00000E+00
    0.54162E+06        -0.49606E+08         0.00000E+00
    0.00000E+00         0.00000E+00         0.35518E-07
 
    0.54774E+06         0.56300E+06         0.00000E+00
    0.56300E+06        -0.49720E+08         0.00000E+00
    0.00000E+00         0.00000E+00         0.50741E-07
 
    0.56173E+06         0.58476E+06         0.00000E+00
    0.58476E+06        -0.49841E+08         0.00000E+00
    0.00000E+00         0.00000E+00         0.35518E-07
 
    0.57512E+06         0.60684E+06         0.00000E+00
    0.60684E+06        -0.49967E+08         0.00000E+00
    0.00000E+00         0.00000E+00         0.76111E-07
 
    0.58776E+06         0.62920E+06         0.00000E+00
    0.62920E+06        -0.50100E+08         0.00000E+00
    0.00000E+00         0.00000E+00         0.25370E-07
 
    0.59952E+06         0.65179E+06         0.00000E+00
    0.65179E+06        -0.50240E+08         0.00000E+00
    0.00000E+00         0.00000E+00        -0.45667E-07
 
    0.61022E+06         0.67452E+06         0.00000E+00
    0.67452E+06        -0.50386E+08         0.00000E+00
    0.00000E+00         0.00000E+00         0.50741E-08
 
    0.61970E+06         0.69732E+06         0.00000E+00
    0.69732E+06        -0.50539E+08         0.00000E+00
    0.00000E+00         0.00000E+00         0.10148E-07
 
    0.62774E+06         0.72011E+06         0.00000E+00
    0.72011E+06        -0.50700E+08         0.00000E+00
    0.00000E+00         0.00000E+00         0.55815E-07
 
    0.63415E+06         0.74279E+06         0.00000E+00
    0.74279E+06        -0.50869E+08         0.00000E+00
    0.00000E+00         0.00000E+00        -0.20296E-07
 
    0.63868E+06         0.76523E+06         0.00000E+00
    0.76523E+06        -0.51045E+08         0.00000E+00
    0.00000E+00         0.00000E+00         0.20296E-07
 
    0.64107E+06         0.78732E+06         0.00000E+00
    0.78732E+06        -0.51229E+08         0.00000E+00
    0.00000E+00         0.00000E+00         0.30444E-07
 
    0.64105E+06         0.80891E+06         0.00000E+00
    0.80891E+06        -0.51422E+08         0.00000E+00
    0.00000E+00         0.00000E+00        -0.60888E-07
 
    0.63830E+06         0.82983E+06         0.00000E+00
    0.82983E+06        -0.51624E+08         0.00000E+00
    0.00000E+00         0.00000E+00         0.45667E-07
 
    0.63249E+06         0.84992E+06         0.00000E+00
    0.84992E+06        -0.51834E+08         0.00000E+00
    0.00000E+00         0.00000E+00         0.25370E-07
 
    0.62325E+06         0.86896E+06         0.00000E+00
    0.86896E+06        -0.52054E+08         0.00000E+00
    0.00000E+00         0.00000E+00         0.00000E+00
 
    0.61019E+06         0.88674E+06         0.00000E+00
    0.88674E+06        -0.52284E+08         0.00000E+00
    0.00000E+00         0.00000E+00         0.15222E-07
 
    0.59288E+06         0.90299E+06         0.00000E+00
    0.90299E+06        -0.52523E+08         0.00000E+00
    0.00000E+00         0.00000E+00         0.50741E-08
 
    0.57084E+06         0.91744E+06         0.00000E+00
    0.91744E+06        -0.52772E+08         0.00000E+00
    0.00000E+00         0.00000E+00        -0.10148E-07
 
    0.54358E+06         0.92978E+06         0.00000E+00
    0.92978E+06        -0.53031E+08         0.00000E+00
    0.00000E+00         0.00000E+00         0.15222E-07
 
    0.51055E+06         0.93965E+06         0.00000E+00
    0.93965E+06        -0.53301E+08         0.00000E+00
    0.00000E+00         0.00000E+00         0.50741E-08
 
    0.47116E+06         0.94667E+06         0.00000E+00
    0.94667E+06        -0.53582E+08         0.00000E+00
    0.00000E+00         0.00000E+00        -0.20296E-07
 
    0.42480E+06         0.95042E+06         0.00000E+00
    0.95042E+06        -0.53873E+08         0.00000E+00
    0.00000E+00         0.00000E+00         0.00000E+00
 
    0.37078E+06         0.95042E+06         0.00000E+00
    0.95042E+06        -0.54176E+08         0.00000E+00
    0.00000E+00         0.00000E+00         0.50741E-08
 
    0.30841E+06         0.94617E+06         0.00000E+00
    0.94617E+06        -0.54490E+08         0.00000E+00
    0.00000E+00         0.00000E+00         0.00000E+00
 
    0.23695E+06         0.93711E+06         0.00000E+00
    0.93711E+06        -0.54816E+08         0.00000E+00
    0.00000E+00         0.00000E+00         0.91331E-07
 
    0.15561E+06         0.92266E+06         0.00000E+00
    0.92266E+06        -0.55153E+08         0.00000E+00
    0.00000E+00         0.00000E+00         0.25371E-07
 
    0.63587E+05         0.90217E+06         0.00000E+00
    0.90217E+06        -0.55502E+08         0.00000E+00
    0.00000E+00         0.00000E+00        -0.50739E-07
 
   -0.39940E+05         0.87503E+06         0.00000E+00
    0.87503E+06        -0.55862E+08         0.00000E+00
    0.00000E+00         0.00000E+00        -0.20294E-07
 
   -0.15581E+06         0.84057E+06         0.00000E+00
    0.84057E+06        -0.56234E+08         0.00000E+00
    0.00000E+00         0.00000E+00        -0.13700E-06
 
   -0.28485E+06         0.79818E+06         0.00000E+00
    0.79818E+06        -0.56617E+08         0.00000E+00
    0.00000E+00         0.00000E+00         0.50732E-08
 
   -0.42787E+06         0.74732E+06         0.00000E+00
    0.74732E+06        -0.57011E+08         0.00000E+00
    0.00000E+00         0.00000E+00         0.25369E-07
 
   -0.58564E+06         0.68758E+06         0.00000E+00
    0.68758E+06        -0.57416E+08         0.00000E+00
    0.00000E+00         0.00000E+00         0.20298E-07
 
   -0.75886E+06         0.61876E+06         0.00000E+00
    0.61876E+06        -0.57829E+08         0.00000E+00
    0.00000E+00         0.00000E+00        -0.20296E-07
 
   -0.94813E+06         0.54100E+06         0.00000E+00
    0.54100E+06        -0.58251E+08         0.00000E+00
    0.00000E+00         0.00000E+00        -0.50732E-08
 
   -0.11539E+07         0.45494E+06         0.00000E+00
    0.45494E+06        -0.58679E+08         0.00000E+00
    0.00000E+00         0.00000E+00        -0.25371E-07
 
   -0.13765E+07         0.36192E+06         0.00000E+00
    0.36192E+06        -0.59112E+08         0.00000E+00
    0.00000E+00         0.00000E+00        -0.10148E-07
 
   -0.16160E+07         0.26431E+06         0.00000E+00
    0.26431E+06        -0.59544E+08         0.00000E+00
    0.00000E+00         0.00000E+00        -0.30444E-07
 
   -0.18722E+07         0.16587E+06         0.00000E+00
    0.16587E+06        -0.59973E+08         0.00000E+00
    0.00000E+00         0.00000E+00         0.50741E-07
 
   -0.21448E+07         0.72238E+05         0.00000E+00
    0.72238E+05        -0.60393E+08         0.00000E+00
    0.00000E+00         0.00000E+00        -0.30444E-07
 
   -0.24337E+07        -0.86739E+04         0.00000E+00
   -0.86739E+04        -0.60793E+08         0.00000E+00
    0.00000E+00         0.00000E+00        -0.71037E-07
 
   -0.27399E+07        -0.66765E+05         0.00000E+00
   -0.66765E+05        -0.61162E+08         0.00000E+00
    0.00000E+00         0.00000E+00         0.50741E-08
 
   -0.30674E+07        -0.91627E+05         0.00000E+00
   -0.91627E+05        -0.61479E+08         0.00000E+00
    0.00000E+00         0.00000E+00        -0.45666E-07
 
   -0.34249E+07        -0.77528E+05         0.00000E+00
   -0.77528E+05        -0.61717E+08         0.00000E+00
    0.00000E+00         0.00000E+00        -0.20297E-07
 
   -0.38242E+07        -0.30263E+05         0.00000E+00
   -0.30263E+05        -0.61846E+08         0.00000E+00
    0.00000E+00         0.00000E+00        -0.10148E-07
 
    0.13279E+06         0.77055E+03         0.00000E+00
    0.77055E+03        -0.47609E+08         0.00000E+00
    0.00000E+00         0.00000E+00        -0.14211E-13
 
    0.12521E+06         0.26057E+04         0.00000E+00
    0.26057E+04        -0.47612E+08         0.00000E+00
    0.00000E+00         0.00000E+00        -0.40593E-07
 
    0.11897E+06         0.51693E+04         0.00000E+00
    0.51693E+04        -0.47617E+08         0.00000E+00
    0.00000E+00         0.00000E+00         0.15222E-07
 
    0.11376E+06         0.85769E+04         0.00000E+00
    0.85769E+04        -0.47624E+08         0.00000E+00
    0.00000E+00         0.00000E+00         0.30444E-07
 
    0.10939E+06         0.12698E+05         0.00000E+00
    0.12698E+05        -0.47632E+08         0.00000E+00
    0.00000E+00         0.00000E+00         0.20296E-07
 
    0.10575E+06         0.17316E+05         0.00000E+00
    0.17316E+05        -0.47641E+08         0.00000E+00
    0.00000E+00         0.00000E+00        -0.20296E-07
 
    0.10281E+06         0.22234E+05         0.00000E+00
    0.22234E+05        -0.47650E+08         0.00000E+00
    0.00000E+00         0.00000E+00        -0.40593E-07
 
    0.10057E+06         0.27307E+05         0.00000E+00
    0.27307E+05        -0.47660E+08         0.00000E+00
    0.00000E+00         0.00000E+00        -0.50741E-08
 
    0.99005E+05         0.32439E+05         0.00000E+00
    0.32439E+05        -0.47670E+08         0.00000E+00
    0.00000E+00         0.00000E+00        -0.10148E-07
 
    0.98114E+05         0.37574E+05         0.00000E+00
    0.37574E+05        -0.47681E+08         0.00000E+00
    0.00000E+00         0.00000E+00        -0.45667E-07
 
    0.97876E+05         0.42682E+05         0.00000E+00
    0.42682E+05        -0.47692E+08         0.00000E+00
    0.00000E+00         0.00000E+00        -0.50741E-08
 
    0.98271E+05         0.47755E+05         0.00000E+00
    0.47755E+05        -0.47704E+08         0.00000E+00
    0.00000E+00         0.00000E+00         0.50741E-08
 
    0.99277E+05         0.52797E+05         0.00000E+00
    0.52797E+05        -0.47716E+08         0.00000E+00
    0.00000E+00         0.00000E+00        -0.10148E-07
 
    0.10087E+06         0.57821E+05         0.00000E+00
    0.57821E+05        -0.47728E+08         0.00000E+00
    0.00000E+00         0.00000E+00         0.20296E-07
 
    0.10303E+06         0.62847E+05         0.00000E+00
    0.62847E+05        -0.47741E+08         0.00000E+00
    0.00000E+00         0.00000E+00         0.50741E-08
 
    0.10574E+06         0.67899E+05         0.00000E+00
    0.67899E+05        -0.47754E+08         0.00000E+00
    0.00000E+00         0.00000E+00        -0.50741E-08
 
    0.10898E+06         0.73000E+05         0.00000E+00
    0.73000E+05        -0.47768E+08         0.00000E+00
    0.00000E+00         0.00000E+00        -0.50740E-08
 
    0.11272E+06         0.78177E+05         0.00000E+00
    0.78177E+05        -0.47783E+08         0.00000E+00
    0.00000E+00         0.00000E+00        -0.15222E-07
 
    0.11695E+06         0.83456E+05         0.00000E+00
    0.83456E+05        -0.47798E+08         0.00000E+00
    0.00000E+00         0.00000E+00        -0.10148E-07
 
    0.12166E+06         0.88861E+05         0.00000E+00
    0.88861E+05        -0.47814E+08         0.00000E+00
    0.00000E+00         0.00000E+00         0.50741E-08
 
    0.12683E+06         0.94418E+05         0.00000E+00
    0.94418E+05        -0.47831E+08         0.00000E+00
    0.00000E+00         0.00000E+00        -0.10148E-07
 
    0.13246E+06         0.10015E+06         0.00000E+00
    0.10015E+06        -0.47848E+08         0.00000E+00
    0.00000E+00         0.00000E+00         0.35518E-07
 
    0.13853E+06         0.10608E+06         0.00000E+00
    0.10608E+06        -0.47867E+08         0.00000E+00
    0.00000E+00         0.00000E+00        -0.15222E-07
 
    0.14503E+06         0.11223E+06         0.00000E+00
    0.11223E+06        -0.47886E+08         0.00000E+00
    0.00000E+00         0.00000E+00        -0.10148E-07
 
    0.15197E+06         0.11862E+06         0.00000E+00
    0.11862E+06        -0.47906E+08         0.00000E+00
    0.00000E+00         0.00000E+00         0.00000E+00
 
    0.15933E+06         0.12527E+06         0.00000E+00
    0.12527E+06        -0.47928E+08         0.00000E+00
    0.00000E+00         0.00000E+00         0.10148E-07
 
    0.16711E+06         0.13220E+06         0.00000E+00
    0.13220E+06        -0.47951E+08         0.00000E+00
    0.00000E+00         0.00000E+00         0.50740E-08
 
    0.17531E+06         0.13942E+06         0.00000E+00
    0.13942E+06        -0.47975E+08         0.00000E+00
    0.00000E+00         0.00000E+00         0.20296E-07
 
    0.18392E+06         0.14696E+06         0.00000E+00
    0.14696E+06        -0.48000E+08         0.00000E+00
    0.00000E+00         0.00000E+00        -0.15222E-07
 
    0.19295E+06         0.15484E+06         0.00000E+00
    0.15484E+06        -0.48027E+08         0.00000E+00
    0.00000E+00         0.00000E+00        -0.15222E-07
 
    0.20240E+06         0.16306E+06         0.00000E+00
    0.16306E+06        -0.48055E+08         0.00000E+00
    0.00000E+00         0.00000E+00         0.60889E-07
 
    0.21226E+06         0.17165E+06         0.00000E+00
    0.17165E+06        -0.48085E+08         0.00000E+00
    0.00000E+00         0.00000E+00        -0.35518E-07
 
    0.22252E+06         0.18062E+06         0.00000E+00
    0.18062E+06        -0.48117E+08         0.00000E+00
    0.00000E+00         0.00000E+00         0.15222E-07
 
    0.23320E+06         0.18999E+06         0.00000E+00
    0.18999E+06        -0.48150E+08         0.00000E+00
    0.00000E+00         0.00000E+00         0.00000E+00
 
    0.24429E+06         0.19976E+06         0.00000E+00
    0.19976E+06        -0.48186E+08         0.00000E+00
    0.00000E+00         0.00000E+00        -0.50741E-08
 
    0.25579E+06         0.20996E+06         0.00000E+00
    0.20996E+06        -0.48223E+08         0.00000E+00
    0.00000E+00         0.00000E+00        -0.40593E-07
 
    0.26768E+06         0.22059E+06         0.00000E+00
    0.22059E+06        -0.48262E+08         0.00000E+00
    0.00000E+00         0.00000E+00         0.50741E-07
 
    0.27998E+06         0.23168E+06         0.00000E+00
    0.23168E+06        -0.48304E+08         0.00000E+00
    0.00000E+00         0.00000E+00         0.00000E+00
 
    0.29266E+06         0.24323E+06         0.00000E+00
    0.24323E+06        -0.48348E+08         0.00000E+00
    0.00000E+00         0.00000E+00        -0.55815E-07
 
    0.30573E+06         0.25525E+06         0.00000E+00
    0.25525E+06        -0.48395E+08         0.00000E+00
    0.00000E+00         0.00000E+00         0.15222E-07
 
    0.31918E+06         0.26776E+06         0.00000E+00
    0.26776E+06        -0.48444E+08         0.00000E+00
    0.00000E+00         0.00000E+00         0.30444E-07
 
    0.33298E+06         0.28075E+06         0.00000E+00
    0.28075E+06        -0.48496E+08         0.00000E+00
    0.00000E+00         0.00000E+00        -0.15222E-07
 
    0.34713E+06         0.29426E+06         0.00000E+00
    0.29426E+06        -0.48551E+08         0.00000E+00
    0.00000E+00         0.00000E+00         0.25370E-07
 
    0.36161E+06         0.30826E+06         0.00000E+00
    0.30826E+06        -0.48609E+08         0.00000E+00
    0.00000E+00         0.00000E+00         0.10148E-07
 
    0.37639E+06         0.32279E+06         0.00000E+00
    0.32279E+06        -0.48671E+08         0.00000E+00
    0.00000E+00         0.00000E+00        -0.25370E-07
 
    0.39145E+06         0.33783E+06         0.00000E+00
    0.33783E+06        -0.48736E+08         0.00000E+00
    0.00000E+00         0.00000E+00        -0.25370E-07
 
    0.40677E+06         0.35339E+06         0.00000E+00
    0.35339E+06        -0.48804E+08         0.00000E+00
    0.00000E+00         0.00000E+00        -0.30444E-07
 
    0.42230E+06         0.36948E+06         0.00000E+00
    0.36948E+06        -0.48876E+08         0.00000E+00
    0.00000E+00         0.00000E+00        -0.50741E-08
 
    0.43801E+06         0.38609E+06         0.00000E+00
    0.38609E+06        -0.48952E+08         0.00000E+00
    0.00000E+00         0.00000E+00         0.35518E-07
 
    0.45386E+06         0.40321E+06         0.00000E+00
    0.40321E+06        -0.49032E+08         0.00000E+00
    0.00000E+00         0.00000E+00         0.15222E-07
 
    0.46979E+06         0.42084E+06         0.00000E+00
    0.42084E+06        -0.49116E+08         0.00000E+00
    0.00000E+00         0.00000E+00        -0.10148E-07
 
    0.48574E+06         0.43896E+06         0.00000E+00
    0.43896E+06        -0.49205E+08         0.00000E+00
    0.00000E+00         0.00000E+00         0.50741E-08
 
    0.50166E+06         0.45758E+06         0.00000E+00
    0.45758E+06        -0.49299E+08         0.00000E+00
    0.00000E+00         0.00000E+00        -0.35518E-07
 
    0.51746E+06         0.47666E+06         0.00000E+00
    0.47666E+06        -0.49397E+08         0.00000E+00
    0.00000E+00         0.00000E+00         0.15222E-07
 
    0.53307E+06         0.49618E+06         0.00000E+00
    0.49618E+06        -0.49501E+08         0.00000E+00
    0.00000E+00         0.00000E+00         0.20296E-07
 
    0.54841E+06         0.51613E+06         0.00000E+00
    0.51613E+06        -0.49610E+08         0.00000E+00
    0.00000E+00         0.00000E+00        -0.25370E-07
 
    0.56335E+06         0.53647E+06         0.00000E+00
    0.53647E+06        -0.49725E+08         0.00000E+00
    0.00000E+00         0.00000E+00        -0.25370E-07
 
    0.57781E+06         0.55716E+06         0.00000E+00
    0.55716E+06        -0.49845E+08         0.00000E+00
    0.00000E+00         0.00000E+00        -0.30444E-07
 
    0.59165E+06         0.57816E+06         0.00000E+00
    0.57816E+06        -0.49972E+08         0.00000E+00
    0.00000E+00         0.00000E+00        -0.10148E-07
 
    0.60473E+06         0.59942E+06         0.00000E+00
    0.59942E+06        -0.50105E+08         0.00000E+00
    0.00000E+00         0.00000E+00         0.20296E-07
 
    0.61691E+06         0.62088E+06         0.00000E+00
    0.62088E+06        -0.50244E+08         0.00000E+00
    0.00000E+00         0.00000E+00         0.35518E-07
 
    0.62801E+06         0.64248E+06         0.00000E+00
    0.64248E+06        -0.50390E+08         0.00000E+00
    0.00000E+00         0.00000E+00         0.00000E+00
 
    0.63786E+06         0.66415E+06         0.00000E+00
    0.66415E+06        -0.50544E+08         0.00000E+00
    0.00000E+00         0.00000E+00         0.15222E-07
 
    0.64626E+06         0.68579E+06         0.00000E+00
    0.68579E+06        -0.50705E+08         0.00000E+00
    0.00000E+00         0.00000E+00         0.10148E-07
 
    0.65298E+06         0.70731E+06         0.00000E+00
    0.70731E+06        -0.50873E+08         0.00000E+00
    0.00000E+00         0.00000E+00         0.50741E-08
 
    0.65779E+06         0.72861E+06         0.00000E+00
    0.72861E+06        -0.51049E+08         0.00000E+00
    0.00000E+00         0.00000E+00        -0.45667E-07
 
    0.66041E+06         0.74955E+06         0.00000E+00
    0.74955E+06        -0.51234E+08         0.00000E+00
    0.00000E+00         0.00000E+00        -0.60889E-07
 
    0.66057E+06         0.77001E+06         0.00000E+00
    0.77001E+06        -0.51426E+08         0.00000E+00
    0.00000E+00         0.00000E+00         0.50741E-08
 
    0.65793E+06         0.78984E+06         0.00000E+00
    0.78984E+06        -0.51628E+08         0.00000E+00
    0.00000E+00         0.00000E+00        -0.40593E-07
 
    0.65217E+06         0.80884E+06         0.00000E+00
    0.80884E+06        -0.51838E+08         0.00000E+00
    0.00000E+00         0.00000E+00         0.35518E-07
 
    0.64291E+06         0.82684E+06         0.00000E+00
    0.82684E+06        -0.52058E+08         0.00000E+00
    0.00000E+00         0.00000E+00         0.10148E-07
 
    0.62973E+06         0.84362E+06         0.00000E+00
    0.84362E+06        -0.52287E+08         0.00000E+00
    0.00000E+00         0.00000E+00        -0.30444E-07
 
    0.61219E+06         0.85892E+06         0.00000E+00
    0.85892E+06        -0.52526E+08         0.00000E+00
    0.00000E+00         0.00000E+00        -0.40593E-07
 
    0.58982E+06         0.87249E+06         0.00000E+00
    0.87249E+06        -0.52774E+08         0.00000E+00
    0.00000E+00         0.00000E+00        -0.50741E-07
 
    0.56209E+06         0.88402E+06         0.00000E+00
    0.88402E+06        -0.53033E+08         0.00000E+00
    0.00000E+00         0.00000E+00        -0.10148E-07
 
    0.52843E+06         0.89317E+06         0.00000E+00
    0.89317E+06        -0.53303E+08         0.00000E+00
    0.00000E+00         0.00000E+00        -0.91333E-07
 
    0.48825E+06         0.89957E+06         0.00000E+00
    0.89957E+06        -0.53583E+08         0.00000E+00
    0.00000E+00         0.00000E+00         0.00000E+00
 
    0.44090E+06         0.90281E+06         0.00000E+00
    0.90281E+06        -0.53874E+08         0.00000E+00
    0.00000E+00         0.00000E+00         0.00000E+00
 
    0.38567E+06         0.90243E+06         0.00000E+00
    0.90243E+06        -0.54176E+08         0.00000E+00
    0.00000E+00         0.00000E+00         0.00000E+00
 
    0.32183E+06         0.89794E+06         0.00000E+00
    0.89794E+06        -0.54489E+08         0.00000E+00
    0.00000E+00         0.00000E+00         0.00000E+00
 
    0.24859E+06         0.88879E+06         0.00000E+00
    0.88879E+06        -0.54813E+08         0.00000E+00
    0.00000E+00         0.00000E+00        -0.50750E-08
 
    0.16514E+06         0.87442E+06         0.00000E+00
    0.87442E+06        -0.55149E+08         0.00000E+00
    0.00000E+00         0.00000E+00        -0.76110E-07
 
    0.70628E+05         0.85420E+06         0.00000E+00
    0.85420E+06        -0.55497E+08         0.00000E+00
    0.00000E+00         0.00000E+00        -0.40593E-07
 
   -0.35840E+05         0.82750E+06         0.00000E+00
    0.82750E+06        -0.55856E+08         0.00000E+00
    0.00000E+00         0.00000E+00        -0.25369E-07
 
   -0.15515E+06         0.79370E+06         0.00000E+00
    0.79370E+06        -0.56226E+08         0.00000E+00
    0.00000E+00         0.00000E+00        -0.76112E-07
 
   -0.28822E+06         0.75219E+06         0.00000E+00
    0.75219E+06        -0.56608E+08         0.00000E+00
    0.00000E+00         0.00000E+00        -0.10148E-07
 
   -0.43590E+06         0.70241E+06         0.00000E+00
    0.70241E+06        -0.57000E+08         0.00000E+00
    0.00000E+00         0.00000E+00        -0.60889E-07
 
   -0.59906E+06         0.64397E+06         0.00000E+00
    0.64397E+06        -0.57403E+08         0.00000E+00
    0.00000E+00         0.00000E+00         0.45666E-07
 
   -0.77846E+06         0.57666E+06         0.00000E+00
    0.57666E+06        -0.57815E+08         0.00000E+00
    0.00000E+00         0.00000E+00         0.00000E+00
 
   -0.97475E+06         0.50060E+06         0.00000E+00
    0.50060E+06        -0.58235E+08         0.00000E+00
    0.00000E+00         0.00000E+00        -0.86256E-07
 
   -0.11884E+07         0.41641E+06         0.00000E+00
    0.41641E+06        -0.58662E+08         0.00000E+00
    0.00000E+00         0.00000E+00        -0.60889E-07
 
   -0.14198E+07         0.32540E+06         0.00000E+00
    0.32540E+06        -0.59093E+08         0.00000E+00
    0.00000E+00         0.00000E+00         0.00000E+00
 
   -0.16689E+07         0.22989E+06         0.00000E+00
    0.22989E+06        -0.59525E+08         0.00000E+00
    0.00000E+00         0.00000E+00         0.60889E-07
 
   -0.19352E+07         0.13360E+06         0.00000E+00
    0.13360E+06        -0.59954E+08         0.00000E+00
    0.00000E+00         0.00000E+00         0.81185E-07
 
   -0.22181E+07         0.42116E+05         0.00000E+00
    0.42116E+05        -0.60375E+08         0.00000E+00
    0.00000E+00         0.00000E+00        -0.50732E-08
 
   -0.25168E+07        -0.36546E+05         0.00000E+00
   -0.36546E+05        -0.60779E+08         0.00000E+00
    0.00000E+00         0.00000E+00        -0.10148E-07
 
   -0.28313E+07        -0.91915E+05         0.00000E+00
   -0.91915E+05        -0.61154E+08         0.00000E+00
    0.00000E+00         0.00000E+00        -0.50732E-08
 
   -0.31648E+07        -0.11271E+06         0.00000E+00
   -0.11271E+06        -0.61479E+08         0.00000E+00
    0.00000E+00         0.00000E+00        -0.20296E-07
 
   -0.35254E+07        -0.92083E+05         0.00000E+00
   -0.92083E+05        -0.61725E+08         0.00000E+00
    0.00000E+00         0.00000E+00        -0.16237E-06
 
   -0.39259E+07        -0.35534E+05         0.00000E+00
   -0.35534E+05        -0.61859E+08         0.00000E+00
    0.00000E+00         0.00000E+00         0.30444E-07
 
    0.13609E+06         0.60445E+03         0.00000E+00
    0.60445E+03        -0.47609E+08         0.00000E+00
    0.00000E+00         0.00000E+00         0.10148E-07
 
    0.12851E+06         0.21353E+04         0.00000E+00
    0.21353E+04        -0.47612E+08         0.00000E+00
    0.00000E+00         0.00000E+00         0.50741E-08
 
    0.12222E+06         0.44535E+04         0.00000E+00
    0.44535E+04        -0.47617E+08         0.00000E+00
    0.00000E+00         0.00000E+00         0.15222E-07
 
    0.11693E+06         0.76634E+04         0.00000E+00
    0.76634E+04        -0.47624E+08         0.00000E+00
    0.00000E+00         0.00000E+00        -0.40593E-07
 
    0.11243E+06         0.11607E+05         0.00000E+00
    0.11607E+05        -0.47633E+08         0.00000E+00
    0.00000E+00         0.00000E+00         0.25370E-07
 
    0.10865E+06         0.16048E+05         0.00000E+00
    0.16048E+05        -0.47642E+08         0.00000E+00
    0.00000E+00         0.00000E+00         0.25370E-07
 
    0.10558E+06         0.20783E+05         0.00000E+00
    0.20783E+05        -0.47651E+08         0.00000E+00
    0.00000E+00         0.00000E+00         0.81185E-07
 
    0.10321E+06         0.25665E+05         0.00000E+00
    0.25665E+05        -0.47661E+08         0.00000E+00
    0.00000E+00         0.00000E+00         0.50741E-07
 
    0.10156E+06         0.30601E+05         0.00000E+00
    0.30601E+05        -0.47671E+08         0.00000E+00
    0.00000E+00         0.00000E+00        -0.50741E-08
 
    0.10059E+06         0.35535E+05         0.00000E+00
    0.35535E+05        -0.47682E+08         0.00000E+00
    0.00000E+00         0.00000E+00         0.00000E+00
 
    0.10031E+06         0.40437E+05         0.00000E+00
    0.40437E+05        -0.47693E+08         0.00000E+00
    0.00000E+00         0.00000E+00        -0.10148E-07
 
    0.10068E+06         0.45300E+05         0.00000E+00
    0.45300E+05        -0.47705E+08         0.00000E+00
    0.00000E+00         0.00000E+00        -0.45667E-07
 
    0.10169E+06         0.50128E+05         0.00000E+00
    0.50128E+05        -0.47717E+08         0.00000E+00
    0.00000E+00         0.00000E+00        -0.15222E-07
 
    0.10332E+06         0.54935E+05         0.00000E+00
    0.54935E+05        -0.47729E+08         0.00000E+00
    0.00000E+00         0.00000E+00         0.50741E-07
 
    0.10553E+06         0.59738E+05         0.00000E+00
    0.59738E+05        -0.47742E+08         0.00000E+00
    0.00000E+00         0.00000E+00         0.50741E-08
 
    0.10830E+06         0.64562E+05         0.00000E+00
    0.64562E+05        -0.47755E+08         0.00000E+00
    0.00000E+00         0.00000E+00         0.81185E-07
 
    0.11162E+06         0.69429E+05         0.00000E+00
    0.69429E+05        -0.47769E+08         0.00000E+00
    0.00000E+00         0.00000E+00         0.20296E-07
 
    0.11546E+06         0.74366E+05         0.00000E+00
    0.74366E+05        -0.47784E+08         0.00000E+00
    0.00000E+00         0.00000E+00        -0.10148E-07
 
    0.11981E+06         0.79396E+05         0.00000E+00
    0.79396E+05        -0.47799E+08         0.00000E+00
    0.00000E+00         0.00000E+00        -0.10148E-07
 
    0.12465E+06         0.84546E+05         0.00000E+00
    0.84546E+05        -0.47815E+08         0.00000E+00
    0.00000E+00         0.00000E+00        -0.10148E-07
 
    0.12997E+06         0.89837E+05         0.00000E+00
    0.89837E+05        -0.47832E+08         0.00000E+00
    0.00000E+00         0.00000E+00        -0.40593E-07
 
    0.13575E+06         0.95294E+05         0.00000E+00
    0.95294E+05        -0.47849E+08         0.00000E+00
    0.00000E+00         0.00000E+00        -0.20296E-07
 
    0.14198E+06         0.10094E+06         0.00000E+00
    0.10094E+06        -0.47868E+08         0.00000E+00
    0.00000E+00         0.00000E+00         0.25370E-07
 
    0.14867E+06         0.10679E+06         0.00000E+00
    0.10679E+06        -0.47887E+08         0.00000E+00
    0.00000E+00         0.00000E+00         0.00000E+00
 
    0.15579E+06         0.11287E+06         0.00000E+00
    0.11287E+06        -0.47908E+08         0.00000E+00
    0.00000E+00         0.00000E+00        -0.40592E-07
 
    0.16335E+06         0.11919E+06         0.00000E+00
    0.11919E+06        -0.47929E+08         0.00000E+00
    0.00000E+00         0.00000E+00         0.00000E+00
 
    0.17134E+06         0.12579E+06         0.00000E+00
    0.12579E+06        -0.47952E+08         0.00000E+00
    0.00000E+00         0.00000E+00         0.40593E-07
 
    0.17976E+06         0.13266E+06         0.00000E+00
    0.13266E+06        -0.47976E+08         0.00000E+00
    0.00000E+00         0.00000E+00         0.40593E-07
 
    0.18861E+06         0.13983E+06         0.00000E+00
    0.13983E+06        -0.48002E+08         0.00000E+00
    0.00000E+00         0.00000E+00        -0.25370E-07
 
    0.19789E+06         0.14732E+06         0.00000E+00
    0.14732E+06        -0.48028E+08         0.00000E+00
    0.00000E+00         0.00000E+00        -0.25370E-07
 
    0.20759E+06         0.15514E+06         0.00000E+00
    0.15514E+06        -0.48057E+08         0.00000E+00
    0.00000E+00         0.00000E+00        -0.65963E-07
 
    0.21771E+06         0.16331E+06         0.00000E+00
    0.16331E+06        -0.48087E+08         0.00000E+00
    0.00000E+00         0.00000E+00         0.11670E-06
 
    0.22826E+06         0.17184E+06         0.00000E+00
    0.17184E+06        -0.48119E+08         0.00000E+00
    0.00000E+00         0.00000E+00        -0.60889E-07
 
    0.23922E+06         0.18074E+06         0.00000E+00
    0.18074E+06        -0.48152E+08         0.00000E+00
    0.00000E+00         0.00000E+00        -0.45667E-07
 
    0.25061E+06         0.19003E+06         0.00000E+00
    0.19003E+06        -0.48188E+08         0.00000E+00
    0.00000E+00         0.00000E+00        -0.55815E-07
 
    0.26242E+06         0.19973E+06         0.00000E+00
    0.19973E+06        -0.48225E+08         0.00000E+00
    0.00000E+00         0.00000E+00         0.20296E-07
 
    0.27464E+06         0.20984E+06         0.00000E+00
    0.20984E+06        -0.48265E+08         0.00000E+00
    0.00000E+00         0.00000E+00        -0.10148E-07
 
    0.28727E+06         0.22038E+06         0.00000E+00
    0.22038E+06        -0.48306E+08         0.00000E+00
    0.00000E+00         0.00000E+00        -0.50741E-08
 
    0.30030E+06         0.23136E+06         0.00000E+00
    0.23136E+06        -0.48351E+08         0.00000E+00
    0.00000E+00         0.00000E+00         0.00000E+00
 
    0.31373E+06         0.24278E+06         0.00000E+00
    0.24278E+06        -0.48397E+08         0.00000E+00
    0.00000E+00         0.00000E+00        -0.65963E-07
 
    0.32754E+06         0.25467E+06         0.00000E+00
    0.25467E+06        -0.48447E+08         0.00000E+00
    0.00000E+00         0.00000E+00         0.15222E-07
 
    0.34172E+06         0.26702E+06         0.00000E+00
    0.26702E+06        -0.48499E+08         0.00000E+00
    0.00000E+00         0.00000E+00         0.50740E-07
 
    0.35626E+06         0.27985E+06         0.00000E+00
    0.27985E+06        -0.48554E+08         0.00000E+00
    0.00000E+00         0.00000E+00         0.50741E-07
 
    0.37114E+06         0.29316E+06         0.00000E+00
    0.29316E+06        -0.48612E+08         0.00000E+00
    0.00000E+00         0.00000E+00         0.30444E-07
 
    0.38634E+06         0.30696E+06         0.00000E+00
    0.30696E+06        -0.48674E+08         0.00000E+00
    0.00000E+00         0.00000E+00         0.00000E+00
 
    0.40182E+06         0.32125E+06         0.00000E+00
    0.32125E+06        -0.48739E+08         0.00000E+00
    0.00000E+00         0.00000E+00        -0.25370E-07
 
    0.41757E+06         0.33604E+06         0.00000E+00
    0.33604E+06        -0.48807E+08         0.00000E+00
    0.00000E+00         0.00000E+00        -0.25370E-07
 
    0.43354E+06         0.35132E+06         0.00000E+00
    0.35132E+06        -0.48879E+08         0.00000E+00
    0.00000E+00         0.00000E+00        -0.25370E-07
 
    0.44970E+06         0.36709E+06         0.00000E+00
    0.36709E+06        -0.48955E+08         0.00000E+00
    0.00000E+00         0.00000E+00         0.45667E-07
 
    0.46600E+06         0.38335E+06         0.00000E+00
    0.38335E+06        -0.49035E+08         0.00000E+00
    0.00000E+00         0.00000E+00         0.20296E-07
 
    0.48239E+06         0.40009E+06         0.00000E+00
    0.40009E+06        -0.49120E+08         0.00000E+00
    0.00000E+00         0.00000E+00        -0.15222E-07
 
    0.49881E+06         0.41730E+06         0.00000E+00
    0.41730E+06        -0.49209E+08         0.00000E+00
    0.00000E+00         0.00000E+00        -0.25370E-07
 
    0.51520E+06         0.43497E+06         0.00000E+00
    0.43497E+06        -0.49302E+08         0.00000E+00
    0.00000E+00         0.00000E+00         0.35518E-07
 
    0.53148E+06         0.45308E+06         0.00000E+00
    0.45308E+06        -0.49401E+08         0.00000E+00
    0.00000E+00         0.00000E+00         0.35518E-07
 
    0.54756E+06         0.47162E+06         0.00000E+00
    0.47162E+06        -0.49505E+08         0.00000E+00
    0.00000E+00         0.00000E+00        -0.50741E-08
 
    0.56337E+06         0.49055E+06         0.00000E+00
    0.49055E+06        -0.49614E+08         0.00000E+00
    0.00000E+00         0.00000E+00        -0.12178E-06
 
    0.57878E+06         0.50984E+06         0.00000E+00
    0.50984E+06        -0.49729E+08         0.00000E+00
    0.00000E+00         0.00000E+00        -0.15222E-07
 
    0.59370E+06         0.52947E+06         0.00000E+00
    0.52947E+06        -0.49849E+08         0.00000E+00
    0.00000E+00         0.00000E+00         0.55814E-07
 
    0.60799E+06         0.54939E+06         0.00000E+00
    0.54939E+06        -0.49976E+08         0.00000E+00
    0.00000E+00         0.00000E+00        -0.55814E-07
 
    0.62151E+06         0.56955E+06         0.00000E+00
    0.56955E+06        -0.50109E+08         0.00000E+00
    0.00000E+00         0.00000E+00         0.50741E-08
 
    0.63412E+06         0.58989E+06         0.00000E+00
    0.58989E+06        -0.50248E+08         0.00000E+00
    0.00000E+00         0.00000E+00        -0.10148E-07
 
    0.64563E+06         0.61037E+06         0.00000E+00
    0.61037E+06        -0.50395E+08         0.00000E+00
    0.00000E+00         0.00000E+00        -0.15222E-07
 
    0.65587E+06         0.63089E+06         0.00000E+00
    0.63089E+06        -0.50548E+08         0.00000E+00
    0.00000E+00         0.00000E+00        -0.15222E-07
 
    0.66462E+06         0.65139E+06         0.00000E+00
    0.65139E+06        -0.50709E+08         0.00000E+00
    0.00000E+00         0.00000E+00        -0.65963E-07
 
    0.67167E+06         0.67177E+06         0.00000E+00
    0.67177E+06        -0.50877E+08         0.00000E+00
    0.00000E+00         0.00000E+00        -0.40593E-07
 
    0.67677E+06         0.69193E+06         0.00000E+00
    0.69193E+06        -0.51053E+08         0.00000E+00
    0.00000E+00         0.00000E+00         0.25370E-07
 
    0.67964E+06         0.71175E+06         0.00000E+00
    0.71175E+06        -0.51238E+08         0.00000E+00
    0.00000E+00         0.00000E+00         0.55815E-07
 
    0.67999E+06         0.73109E+06         0.00000E+00
    0.73109E+06        -0.51430E+08         0.00000E+00
    0.00000E+00         0.00000E+00         0.00000E+00
 
    0.67749E+06         0.74982E+06         0.00000E+00
    0.74982E+06        -0.51632E+08         0.00000E+00
    0.00000E+00         0.00000E+00         0.35518E-07
 
    0.67181E+06         0.76776E+06         0.00000E+00
    0.76776E+06        -0.51842E+08         0.00000E+00
    0.00000E+00         0.00000E+00         0.60889E-07
 
    0.66254E+06         0.78473E+06         0.00000E+00
    0.78473E+06        -0.52061E+08         0.00000E+00
    0.00000E+00         0.00000E+00         0.50741E-07
 
    0.64927E+06         0.80053E+06         0.00000E+00
    0.80053E+06        -0.52290E+08         0.00000E+00
    0.00000E+00         0.00000E+00        -0.30444E-07
 
    0.63154E+06         0.81491E+06         0.00000E+00
    0.81491E+06        -0.52528E+08         0.00000E+00
    0.00000E+00         0.00000E+00        -0.60889E-07
 
    0.60887E+06         0.82762E+06         0.00000E+00
    0.82762E+06        -0.52777E+08         0.00000E+00
    0.00000E+00         0.00000E+00        -0.71036E-07
 
    0.58071E+06         0.83837E+06         0.00000E+00
    0.83837E+06        -0.53035E+08         0.00000E+00
    0.00000E+00         0.00000E+00         0.20296E-07
 
    0.54648E+06         0.84683E+06         0.00000E+00
    0.84683E+06        -0.53304E+08         0.00000E+00
    0.00000E+00         0.00000E+00        -0.55815E-07
 
    0.50556E+06         0.85264E+06         0.00000E+00
    0.85264E+06        -0.53584E+08         0.00000E+00
    0.00000E+00         0.00000E+00        -0.35518E-07
 
    0.45727E+06         0.85542E+06         0.00000E+00
    0.85542E+06        -0.53874E+08         0.00000E+00
    0.00000E+00         0.00000E+00        -0.30444E-07
 
    0.40088E+06         0.85470E+06         0.00000E+00
    0.85470E+06        -0.54175E+08         0.00000E+00
    0.00000E+00         0.00000E+00         0.00000E+00
 
    0.33564E+06         0.85002E+06         0.00000E+00
    0.85002E+06        -0.54487E+08         0.00000E+00
    0.00000E+00         0.00000E+00        -0.10148E-07
 
    0.26070E+06         0.84085E+06         0.00000E+00
    0.84085E+06        -0.54811E+08         0.00000E+00
    0.00000E+00         0.00000E+00        -0.65962E-07
 
    0.17522E+06         0.82663E+06         0.00000E+00
    0.82663E+06        -0.55146E+08         0.00000E+00
    0.00000E+00         0.00000E+00         0.15223E-07
 
    0.78289E+05         0.80675E+06         0.00000E+00
    0.80675E+06        -0.55492E+08         0.00000E+00
    0.00000E+00         0.00000E+00        -0.45668E-07
 
   -0.31040E+05         0.78061E+06         0.00000E+00
    0.78061E+06        -0.55850E+08         0.00000E+00
    0.00000E+00         0.00000E+00         0.45666E-07
 
   -0.15372E+06         0.74758E+06         0.00000E+00
    0.74758E+06        -0.56219E+08         0.00000E+00
    0.00000E+00         0.00000E+00        -0.65962E-07
 
   -0.29073E+06         0.70705E+06         0.00000E+00
    0.70705E+06        -0.56599E+08         0.00000E+00
    0.00000E+00         0.00000E+00        -0.10148E-07
 
   -0.44302E+06         0.65850E+06         0.00000E+00
    0.65850E+06        -0.56990E+08         0.00000E+00
    0.00000E+00         0.00000E+00         0.25371E-07
 
   -0.61151E+06         0.60151E+06         0.00000E+00
    0.60151E+06        -0.57390E+08         0.00000E+00
    0.00000E+00         0.00000E+00        -0.86258E-07
 
   -0.79704E+06         0.53587E+06         0.00000E+00
    0.53587E+06        -0.57801E+08         0.00000E+00
    0.00000E+00         0.00000E+00         0.10146E-07
 
   -0.10004E+07         0.46169E+06         0.00000E+00
    0.46169E+06        -0.58219E+08         0.00000E+00
    0.00000E+00         0.00000E+00         0.30444E-07
 
   -0.12220E+07         0.37955E+06         0.00000E+00
    0.37955E+06        -0.58644E+08         0.00000E+00
    0.00000E+00         0.00000E+00        -0.45666E-07
 
   -0.14622E+07         0.29072E+06         0.00000E+00
    0.29072E+06        -0.59074E+08         0.00000E+00
    0.00000E+00         0.00000E+00        -0.15223E-07
 
   -0.17210E+07         0.19747E+06         0.00000E+00
    0.19747E+06        -0.59506E+08         0.00000E+00
    0.00000E+00         0.00000E+00        -0.10655E-06
 
   -0.19977E+07         0.10341E+06         0.00000E+00
    0.10341E+06        -0.59935E+08         0.00000E+00
    0.00000E+00         0.00000E+00         0.30444E-07
 
   -0.22912E+07         0.14075E+05         0.00000E+00
    0.14075E+05        -0.60358E+08         0.00000E+00
    0.00000E+00         0.00000E+00        -0.30444E-07
 
   -0.26001E+07        -0.62518E+05         0.00000E+00
   -0.62518E+05        -0.60766E+08         0.00000E+00
    0.00000E+00         0.00000E+00        -0.10148E-07
 
   -0.29235E+07        -0.11557E+06         0.00000E+00
   -0.11557E+06        -0.61146E+08         0.00000E+00
    0.00000E+00         0.00000E+00        -0.40593E-07
 
   -0.32633E+07        -0.13287E+06         0.00000E+00
   -0.13287E+06        -0.61479E+08         0.00000E+00
    0.00000E+00         0.00000E+00         0.30444E-07
 
   -0.36275E+07        -0.10626E+06         0.00000E+00
   -0.10626E+06        -0.61734E+08         0.00000E+00
    0.00000E+00         0.00000E+00         0.20296E-07
 
   -0.40291E+07        -0.40730E+05         0.00000E+00
   -0.40730E+05        -0.61874E+08         0.00000E+00
    0.00000E+00         0.00000E+00        -0.40592E-07
 
    0.13939E+06         0.43842E+03         0.00000E+00
    0.43842E+03        -0.47609E+08         0.00000E+00
    0.00000E+00         0.00000E+00         0.14211E-13
 
    0.13179E+06         0.16688E+04         0.00000E+00
    0.16688E+04        -0.47612E+08         0.00000E+00
    0.00000E+00         0.00000E+00         0.50741E-08
 
    0.12546E+06         0.37509E+04         0.00000E+00
    0.37509E+04        -0.47618E+08         0.00000E+00
    0.00000E+00         0.00000E+00        -0.35518E-07
 
    0.12007E+06         0.67728E+04         0.00000E+00
    0.67728E+04        -0.47625E+08         0.00000E+00
    0.00000E+00         0.00000E+00        -0.10148E-07
 
    0.11544E+06         0.10544E+05         0.00000E+00
    0.10544E+05        -0.47633E+08         0.00000E+00
    0.00000E+00         0.00000E+00        -0.10148E-07
 
    0.11151E+06         0.14809E+05         0.00000E+00
    0.14809E+05        -0.47642E+08         0.00000E+00
    0.00000E+00         0.00000E+00         0.10148E-07
 
    0.10829E+06         0.19359E+05         0.00000E+00
    0.19359E+05        -0.47652E+08         0.00000E+00
    0.00000E+00         0.00000E+00        -0.60889E-07
 
    0.10580E+06         0.24047E+05         0.00000E+00
    0.24047E+05        -0.47662E+08         0.00000E+00
    0.00000E+00         0.00000E+00        -0.65963E-07
 
    0.10404E+06         0.28781E+05         0.00000E+00
    0.28781E+05        -0.47672E+08         0.00000E+00
    0.00000E+00         0.00000E+00        -0.10148E-07
 
    0.10300E+06         0.33508E+05         0.00000E+00
    0.33508E+05        -0.47683E+08         0.00000E+00
    0.00000E+00         0.00000E+00        -0.15222E-07
 
    0.10267E+06         0.38199E+05         0.00000E+00
    0.38199E+05        -0.47694E+08         0.00000E+00
    0.00000E+00         0.00000E+00        -0.60889E-07
 
    0.10303E+06         0.42847E+05         0.00000E+00
    0.42847E+05        -0.47706E+08         0.00000E+00
    0.00000E+00         0.00000E+00         0.50741E-08
 
    0.10404E+06         0.47457E+05         0.00000E+00
    0.47457E+05        -0.47718E+08         0.00000E+00
    0.00000E+00         0.00000E+00        -0.10148E-07
 
    0.10569E+06         0.52041E+05         0.00000E+00
    0.52041E+05        -0.47730E+08         0.00000E+00
    0.00000E+00         0.00000E+00         0.30444E-07
 
    0.10795E+06         0.56618E+05         0.00000E+00
    0.56618E+05        -0.47743E+08         0.00000E+00
    0.00000E+00         0.00000E+00         0.25370E-07
 
    0.11079E+06         0.61209E+05         0.00000E+00
    0.61209E+05        -0.47756E+08         0.00000E+00
    0.00000E+00         0.00000E+00        -0.20296E-07
 
    0.11419E+06         0.65840E+05         0.00000E+00
    0.65840E+05        -0.47770E+08         0.00000E+00
    0.00000E+00         0.00000E+00         0.25370E-07
 
    0.11814E+06         0.70533E+05         0.00000E+00
    0.70533E+05        -0.47785E+08         0.00000E+00
    0.00000E+00         0.00000E+00         0.45667E-07
 
    0.12260E+06         0.75313E+05         0.00000E+00
    0.75313E+05        -0.47800E+08         0.00000E+00
    0.00000E+00         0.00000E+00         0.30444E-07
 
    0.12757E+06         0.80203E+05         0.00000E+00
    0.80203E+05        -0.47816E+08         0.00000E+00
    0.00000E+00         0.00000E+00         0.35518E-07
 
    0.13302E+06         0.85227E+05         0.00000E+00
    0.85227E+05        -0.47833E+08         0.00000E+00
    0.00000E+00         0.00000E+00        -0.30444E-07
 
    0.13896E+06         0.90406E+05         0.00000E+00
    0.90406E+05        -0.47850E+08         0.00000E+00
    0.00000E+00         0.00000E+00         0.00000E+00
 
    0.14536E+06         0.95762E+05         0.00000E+00
    0.95762E+05        -0.47869E+08         0.00000E+00
    0.00000E+00         0.00000E+00        -0.50741E-08
 
    0.15222E+06         0.10131E+06         0.00000E+00
    0.10131E+06        -0.47888E+08         0.00000E+00
    0.00000E+00         0.00000E+00         0.50741E-08
 
    0.15953E+06         0.10708E+06         0.00000E+00
    0.10708E+06        -0.47909E+08         0.00000E+00
    0.00000E+00         0.00000E+00         0.00000E+00
 
    0.16729E+06         0.11308E+06         0.00000E+00
    0.11308E+06        -0.47931E+08         0.00000E+00
    0.00000E+00         0.00000E+00        -0.25370E-07
 
    0.17549E+06         0.11933E+06         0.00000E+00
    0.11933E+06        -0.47953E+08         0.00000E+00
    0.00000E+00         0.00000E+00        -0.10148E-07
 
    0.18413E+06         0.12585E+06         0.00000E+00
    0.12585E+06        -0.47978E+08         0.00000E+00
    0.00000E+00         0.00000E+00         0.50741E-08
 
    0.19321E+06         0.13265E+06         0.00000E+00
    0.13265E+06        -0.48003E+08         0.00000E+00
    0.00000E+00         0.00000E+00         0.10148E-07
 
    0.20272E+06         0.13975E+06         0.00000E+00
    0.13975E+06        -0.48030E+08         0.00000E+00
    0.00000E+00         0.00000E+00        -0.55815E-07
 
    0.21267E+06         0.14717E+06         0.00000E+00
    0.14717E+06        -0.48058E+08         0.00000E+00
    0.00000E+00         0.00000E+00         0.10148E-07
 
    0.22306E+06         0.15491E+06         0.00000E+00
    0.15491E+06        -0.48088E+08         0.00000E+00
    0.00000E+00         0.00000E+00         0.10148E-07
 
    0.23388E+06         0.16300E+06         0.00000E+00
    0.16300E+06        -0.48120E+08         0.00000E+00
    0.00000E+00         0.00000E+00         0.10656E-06
 
    0.24513E+06         0.17144E+06         0.00000E+00
    0.17144E+06        -0.48154E+08         0.00000E+00
    0.00000E+00         0.00000E+00        -0.20296E-07
 
    0.25682E+06         0.18025E+06         0.00000E+00
    0.18025E+06        -0.48189E+08         0.00000E+00
    0.00000E+00         0.00000E+00         0.86259E-07
 
    0.26893E+06         0.18944E+06         0.00000E+00
    0.18944E+06        -0.48227E+08         0.00000E+00
    0.00000E+00         0.00000E+00        -0.55815E-07
 
    0.28147E+06         0.19902E+06         0.00000E+00
    0.19902E+06        -0.48267E+08         0.00000E+00
    0.00000E+00         0.00000E+00        -0.40593E-07
 
    0.29443E+06         0.20901E+06         0.00000E+00
    0.20901E+06        -0.48309E+08         0.00000E+00
    0.00000E+00         0.00000E+00         0.00000E+00
 
    0.30780E+06         0.21942E+06         0.00000E+00
    0.21942E+06        -0.48353E+08         0.00000E+00
    0.00000E+00         0.00000E+00        -0.10148E-07
 
    0.32158E+06         0.23024E+06         0.00000E+00
    0.23024E+06        -0.48400E+08         0.00000E+00
    0.00000E+00         0.00000E+00         0.10148E-07
 
    0.33576E+06         0.24151E+06         0.00000E+00
    0.24151E+06        -0.48449E+08         0.00000E+00
    0.00000E+00         0.00000E+00        -0.35518E-07
 
    0.35032E+06         0.25321E+06         0.00000E+00
    0.25321E+06        -0.48501E+08         0.00000E+00
    0.00000E+00         0.00000E+00         0.00000E+00
 
    0.36524E+06         0.26537E+06         0.00000E+00
    0.26537E+06        -0.48557E+08         0.00000E+00
    0.00000E+00         0.00000E+00         0.45666E-07
 
    0.38052E+06         0.27798E+06         0.00000E+00
    0.27798E+06        -0.48615E+08         0.00000E+00
    0.00000E+00         0.00000E+00         0.40593E-07
 
    0.39612E+06         0.29105E+06         0.00000E+00
    0.29105E+06        -0.48676E+08         0.00000E+00
    0.00000E+00         0.00000E+00        -0.10148E-07
 
    0.41203E+06         0.30459E+06         0.00000E+00
    0.30459E+06        -0.48741E+08         0.00000E+00
    0.00000E+00         0.00000E+00         0.50741E-08
 
    0.42820E+06         0.31860E+06         0.00000E+00
    0.31860E+06        -0.48810E+08         0.00000E+00
    0.00000E+00         0.00000E+00        -0.20296E-07
 
    0.44461E+06         0.33307E+06         0.00000E+00
    0.33307E+06        -0.48882E+08         0.00000E+00
    0.00000E+00         0.00000E+00         0.25370E-07
 
    0.46122E+06         0.34800E+06         0.00000E+00
    0.34800E+06        -0.48958E+08         0.00000E+00
    0.00000E+00         0.00000E+00         0.40593E-07
 
    0.47797E+06         0.36340E+06         0.00000E+00
    0.36340E+06        -0.49038E+08         0.00000E+00
    0.00000E+00         0.00000E+00        -0.50741E-08
 
    0.49482E+06         0.37925E+06         0.00000E+00
    0.37925E+06        -0.49123E+08         0.00000E+00
    0.00000E+00         0.00000E+00         0.50741E-08
 
    0.51170E+06         0.39554E+06         0.00000E+00
    0.39554E+06        -0.49212E+08         0.00000E+00
    0.00000E+00         0.00000E+00         0.45667E-07
 
    0.52856E+06         0.41227E+06         0.00000E+00
    0.41227E+06        -0.49306E+08         0.00000E+00
    0.00000E+00         0.00000E+00         0.40593E-07
 
    0.54531E+06         0.42941E+06         0.00000E+00
    0.42941E+06        -0.49405E+08         0.00000E+00
    0.00000E+00         0.00000E+00        -0.10148E-07
 
    0.56186E+06         0.44695E+06         0.00000E+00
    0.44695E+06        -0.49508E+08         0.00000E+00
    0.00000E+00         0.00000E+00        -0.10148E-07
 
    0.57814E+06         0.46486E+06         0.00000E+00
    0.46486E+06        -0.49618E+08         0.00000E+00
    0.00000E+00         0.00000E+00        -0.30444E-07
 
    0.59402E+06         0.48312E+06         0.00000E+00
    0.48312E+06        -0.49732E+08         0.00000E+00
    0.00000E+00         0.00000E+00        -0.20296E-07
 
    0.60940E+06         0.50169E+06         0.00000E+00
    0.50169E+06        -0.49853E+08         0.00000E+00
    0.00000E+00         0.00000E+00         0.60889E-07
 
    0.62415E+06         0.52052E+06         0.00000E+00
    0.52052E+06        -0.49980E+08         0.00000E+00
    0.00000E+00         0.00000E+00         0.50741E-07
 
    0.63812E+06         0.53959E+06         0.00000E+00
    0.53959E+06        -0.50113E+08         0.00000E+00
    0.00000E+00         0.00000E+00        -0.13193E-06
 
    0.65115E+06         0.55882E+06         0.00000E+00
    0.55882E+06        -0.50252E+08         0.00000E+00
    0.00000E+00         0.00000E+00        -0.81185E-07
 
    0.66308E+06         0.57817E+06         0.00000E+00
    0.57817E+06        -0.50399E+08         0.00000E+00
    0.00000E+00         0.00000E+00         0.00000E+00
 
    0.67371E+06         0.59757E+06         0.00000E+00
    0.59757E+06        -0.50552E+08         0.00000E+00
    0.00000E+00         0.00000E+00        -0.50741E-08
 
    0.68284E+06         0.61693E+06         0.00000E+00
    0.61693E+06        -0.50713E+08         0.00000E+00
    0.00000E+00         0.00000E+00         0.35518E-07
 
    0.69022E+06         0.63617E+06         0.00000E+00
    0.63617E+06        -0.50881E+08         0.00000E+00
    0.00000E+00         0.00000E+00        -0.10148E-07
 
    0.69562E+06         0.65520E+06         0.00000E+00
    0.65520E+06        -0.51057E+08         0.00000E+00
    0.00000E+00         0.00000E+00         0.50741E-08
 
    0.69875E+06         0.67389E+06         0.00000E+00
    0.67389E+06        -0.51241E+08         0.00000E+00
    0.00000E+00         0.00000E+00         0.76111E-07
 
    0.69931E+06         0.69213E+06         0.00000E+00
    0.69213E+06        -0.51434E+08         0.00000E+00
    0.00000E+00         0.00000E+00         0.60889E-07
 
    0.69698E+06         0.70978E+06         0.00000E+00
    0.70978E+06        -0.51635E+08         0.00000E+00
    0.00000E+00         0.00000E+00         0.10148E-07
 
    0.69139E+06         0.72667E+06         0.00000E+00
    0.72667E+06        -0.51845E+08         0.00000E+00
    0.00000E+00         0.00000E+00        -0.20296E-07
 
    0.68214E+06         0.74263E+06         0.00000E+00
    0.74263E+06        -0.52064E+08         0.00000E+00
    0.00000E+00         0.00000E+00        -0.50741E-08
 
    0.66881E+06         0.75746E+06         0.00000E+00
    0.75746E+06        -0.52293E+08         0.00000E+00
    0.00000E+00         0.00000E+00         0.40593E-07
 
    0.65094E+06         0.77094E+06         0.00000E+00
    0.77094E+06        -0.52531E+08         0.00000E+00
    0.00000E+00         0.00000E+00        -0.65963E-07
 
    0.62800E+06         0.78281E+06         0.00000E+00
    0.78281E+06        -0.52779E+08         0.00000E+00
    0.00000E+00         0.00000E+00         0.50741E-08
 
    0.59946E+06         0.79281E+06         0.00000E+00
    0.79281E+06        -0.53037E+08         0.00000E+00
    0.00000E+00         0.00000E+00         0.91333E-07
 
    0.56470E+06         0.80061E+06         0.00000E+00
    0.80061E+06        -0.53306E+08         0.00000E+00
    0.00000E+00         0.00000E+00        -0.91333E-07
 
    0.52309E+06         0.80588E+06         0.00000E+00
    0.80588E+06        -0.53585E+08         0.00000E+00
    0.00000E+00         0.00000E+00        -0.25370E-07
 
    0.47393E+06         0.80822E+06         0.00000E+00
    0.80822E+06        -0.53874E+08         0.00000E+00
    0.00000E+00         0.00000E+00        -0.35518E-07
 
    0.41645E+06         0.80722E+06         0.00000E+00
    0.80722E+06        -0.54175E+08         0.00000E+00
    0.00000E+00         0.00000E+00         0.00000E+00
 
    0.34987E+06         0.80241E+06         0.00000E+00
    0.80241E+06        -0.54486E+08         0.00000E+00
    0.00000E+00         0.00000E+00         0.00000E+00
 
    0.27331E+06         0.79327E+06         0.00000E+00
    0.79327E+06        -0.54809E+08         0.00000E+00
    0.00000E+00         0.00000E+00         0.10148E-07
 
    0.18587E+06         0.77927E+06         0.00000E+00
    0.77927E+06        -0.55143E+08         0.00000E+00
    0.00000E+00         0.00000E+00        -0.55816E-07
 
    0.86601E+05         0.75983E+06         0.00000E+00
    0.75983E+06        -0.55488E+08         0.00000E+00
    0.00000E+00         0.00000E+00         0.25369E-07
 
   -0.25506E+05         0.73433E+06         0.00000E+00
    0.73433E+06        -0.55844E+08         0.00000E+00
    0.00000E+00         0.00000E+00        -0.40593E-07
 
   -0.15147E+06         0.70217E+06         0.00000E+00
    0.70217E+06        -0.56212E+08         0.00000E+00
    0.00000E+00         0.00000E+00        -0.10148E-07
 
   -0.29235E+06         0.66276E+06         0.00000E+00
    0.66276E+06        -0.56590E+08         0.00000E+00
    0.00000E+00         0.00000E+00         0.15221E-07
 
   -0.44916E+06         0.61557E+06         0.00000E+00
    0.61557E+06        -0.56979E+08         0.00000E+00
    0.00000E+00         0.00000E+00         0.40593E-07
 
   -0.62292E+06         0.56019E+06         0.00000E+00
    0.56019E+06        -0.57378E+08         0.00000E+00
    0.00000E+00         0.00000E+00        -0.20296E-07
 
   -0.81455E+06         0.49639E+06         0.00000E+00
    0.49639E+06        -0.57787E+08         0.00000E+00
    0.00000E+00         0.00000E+00         0.60889E-07
 
   -0.10248E+07         0.42427E+06         0.00000E+00
    0.42427E+06        -0.58204E+08         0.00000E+00
    0.00000E+00         0.00000E+00        -0.50741E-07
 
   -0.12544E+07         0.34438E+06         0.00000E+00
    0.34438E+06        -0.58627E+08         0.00000E+00
    0.00000E+00         0.00000E+00         0.10148E-07
 
   -0.15036E+07         0.25792E+06         0.00000E+00
    0.25792E+06        -0.59056E+08         0.00000E+00
    0.00000E+00         0.00000E+00         0.10148E-07
 
   -0.17722E+07         0.16708E+06         0.00000E+00
    0.16708E+06        -0.59487E+08         0.00000E+00
    0.00000E+00         0.00000E+00         0.20296E-07
 
   -0.20595E+07         0.75375E+05         0.00000E+00
    0.75375E+05        -0.59917E+08         0.00000E+00
    0.00000E+00         0.00000E+00        -0.10148E-07
 
   -0.23641E+07        -0.11801E+05         0.00000E+00
   -0.11801E+05        -0.60341E+08         0.00000E+00
    0.00000E+00         0.00000E+00         0.20296E-07
 
   -0.26837E+07        -0.86482E+05         0.00000E+00
   -0.86482E+05        -0.60752E+08         0.00000E+00
    0.00000E+00         0.00000E+00         0.50741E-07
 
   -0.30165E+07        -0.13761E+06         0.00000E+00
   -0.13761E+06        -0.61139E+08         0.00000E+00
    0.00000E+00         0.00000E+00        -0.81185E-07
 
   -0.33633E+07        -0.15203E+06         0.00000E+00
   -0.15203E+06        -0.61480E+08         0.00000E+00
    0.00000E+00         0.00000E+00        -0.20296E-07
 
   -0.37312E+07        -0.12003E+06         0.00000E+00
   -0.12003E+06        -0.61744E+08         0.00000E+00
    0.00000E+00         0.00000E+00        -0.71037E-07
 
   -0.41341E+07        -0.45851E+05         0.00000E+00
   -0.45851E+05        -0.61891E+08         0.00000E+00
    0.00000E+00         0.00000E+00        -0.50741E-07
 
    0.14268E+06         0.27248E+03         0.00000E+00
    0.27248E+03        -0.47609E+08         0.00000E+00
    0.00000E+00         0.00000E+00         0.00000E+00
 
    0.13507E+06         0.12069E+04         0.00000E+00
    0.12069E+04        -0.47613E+08         0.00000E+00
    0.00000E+00         0.00000E+00        -0.10148E-07
 
    0.12869E+06         0.30636E+04         0.00000E+00
    0.30636E+04        -0.47618E+08         0.00000E+00
    0.00000E+00         0.00000E+00         0.15222E-07
 
    0.12319E+06         0.59078E+04         0.00000E+00
    0.59078E+04        -0.47626E+08         0.00000E+00
    0.00000E+00         0.00000E+00        -0.45667E-07
 
    0.11840E+06         0.95121E+04         0.00000E+00
    0.95121E+04        -0.47634E+08         0.00000E+00
    0.00000E+00         0.00000E+00        -0.15222E-07
 
    0.11431E+06         0.13602E+05         0.00000E+00
    0.13602E+05        -0.47643E+08         0.00000E+00
    0.00000E+00         0.00000E+00        -0.15222E-07
 
    0.11094E+06         0.17962E+05         0.00000E+00
    0.17962E+05        -0.47653E+08         0.00000E+00
    0.00000E+00         0.00000E+00        -0.35518E-07
 
    0.10832E+06         0.22451E+05         0.00000E+00
    0.22451E+05        -0.47663E+08         0.00000E+00
    0.00000E+00         0.00000E+00         0.50741E-08
 
    0.10646E+06         0.26979E+05         0.00000E+00
    0.26979E+05        -0.47673E+08         0.00000E+00
    0.00000E+00         0.00000E+00         0.15222E-07
 
    0.10534E+06         0.31493E+05         0.00000E+00
    0.31493E+05        -0.47684E+08         0.00000E+00
    0.00000E+00         0.00000E+00        -0.15222E-07
 
    0.10497E+06         0.35968E+05         0.00000E+00
    0.35968E+05        -0.47695E+08         0.00000E+00
    0.00000E+00         0.00000E+00        -0.20296E-07
 
    0.10530E+06         0.40396E+05         0.00000E+00
    0.40396E+05        -0.47707E+08         0.00000E+00
    0.00000E+00         0.00000E+00         0.15222E-07
 
    0.10632E+06         0.44782E+05         0.00000E+00
    0.44782E+05        -0.47719E+08         0.00000E+00
    0.00000E+00         0.00000E+00         0.25370E-07
 
    0.10799E+06         0.49139E+05         0.00000E+00
    0.49139E+05        -0.47731E+08         0.00000E+00
    0.00000E+00         0.00000E+00        -0.15222E-07
 
    0.11030E+06         0.53485E+05         0.00000E+00
    0.53485E+05        -0.47744E+08         0.00000E+00
    0.00000E+00         0.00000E+00        -0.40593E-07
 
    0.11321E+06         0.57842E+05         0.00000E+00
    0.57842E+05        -0.47757E+08         0.00000E+00
    0.00000E+00         0.00000E+00        -0.30444E-07
 
    0.11670E+06         0.62232E+05         0.00000E+00
    0.62232E+05        -0.47771E+08         0.00000E+00
    0.00000E+00         0.00000E+00         0.30444E-07
 
    0.12074E+06         0.66678E+05         0.00000E+00
    0.66678E+05        -0.47786E+08         0.00000E+00
    0.00000E+00         0.00000E+00         0.00000E+00
 
    0.12531E+06         0.71205E+05         0.00000E+00
    0.71205E+05        -0.47801E+08         0.00000E+00
    0.00000E+00         0.00000E+00         0.50741E-08
 
    0.13041E+06         0.75834E+05         0.00000E+00
    0.75834E+05        -0.47817E+08         0.00000E+00
    0.00000E+00         0.00000E+00         0.20296E-07
 
    0.13601E+06         0.80588E+05         0.00000E+00
    0.80588E+05        -0.47834E+08         0.00000E+00
    0.00000E+00         0.00000E+00         0.15222E-07
 
    0.14209E+06         0.85487E+05         0.00000E+00
    0.85487E+05        -0.47851E+08         0.00000E+00
    0.00000E+00         0.00000E+00         0.20296E-07
 
    0.14866E+06         0.90552E+05         0.00000E+00
    0.90552E+05        -0.47870E+08         0.00000E+00
    0.00000E+00         0.00000E+00        -0.65963E-07
 
    0.15569E+06         0.95802E+05         0.00000E+00
    0.95802E+05        -0.47889E+08         0.00000E+00
    0.00000E+00         0.00000E+00         0.40593E-07
 
    0.16319E+06         0.10125E+06         0.00000E+00
    0.10125E+06        -0.47910E+08         0.00000E+00
    0.00000E+00         0.00000E+00        -0.50741E-08
 
    0.17114E+06         0.10693E+06         0.00000E+00
    0.10693E+06        -0.47932E+08         0.00000E+00
    0.00000E+00         0.00000E+00         0.35518E-07
 
    0.17955E+06         0.11284E+06         0.00000E+00
    0.11284E+06        -0.47955E+08         0.00000E+00
    0.00000E+00         0.00000E+00         0.15222E-07
 
    0.18840E+06         0.11900E+06         0.00000E+00
    0.11900E+06        -0.47979E+08         0.00000E+00
    0.00000E+00         0.00000E+00        -0.15222E-07
 
    0.19771E+06         0.12543E+06         0.00000E+00
    0.12543E+06        -0.48004E+08         0.00000E+00
    0.00000E+00         0.00000E+00        -0.35518E-07
 
    0.20746E+06         0.13214E+06         0.00000E+00
    0.13214E+06        -0.48031E+08         0.00000E+00
    0.00000E+00         0.00000E+00        -0.25370E-07
 
    0.21766E+06         0.13915E+06         0.00000E+00
    0.13915E+06        -0.48060E+08         0.00000E+00
    0.00000E+00         0.00000E+00         0.25370E-07
 
    0.22830E+06         0.14646E+06         0.00000E+00
    0.14646E+06        -0.48090E+08         0.00000E+00
    0.00000E+00         0.00000E+00         0.10656E-06
 
    0.23939E+06         0.15410E+06         0.00000E+00
    0.15410E+06        -0.48122E+08         0.00000E+00
    0.00000E+00         0.00000E+00        -0.86259E-07
 
    0.25093E+06         0.16208E+06         0.00000E+00
    0.16208E+06        -0.48156E+08         0.00000E+00
    0.00000E+00         0.00000E+00         0.30444E-07
 
    0.26290E+06         0.17040E+06         0.00000E+00
    0.17040E+06        -0.48191E+08         0.00000E+00
    0.00000E+00         0.00000E+00         0.20296E-07
 
    0.27532E+06         0.17909E+06         0.00000E+00
    0.17909E+06        -0.48229E+08         0.00000E+00
    0.00000E+00         0.00000E+00        -0.10148E-07
 
    0.28817E+06         0.18814E+06         0.00000E+00
    0.18814E+06        -0.48268E+08         0.00000E+00
    0.00000E+00         0.00000E+00        -0.15222E-07
 
    0.30146E+06         0.19758E+06         0.00000E+00
    0.19758E+06        -0.48311E+08         0.00000E+00
    0.00000E+00         0.00000E+00         0.00000E+00
 
    0.31517E+06         0.20740E+06         0.00000E+00
    0.20740E+06        -0.48355E+08         0.00000E+00
    0.00000E+00         0.00000E+00        -0.20296E-07
 
    0.32930E+06         0.21763E+06         0.00000E+00
    0.21763E+06        -0.48402E+08         0.00000E+00
    0.00000E+00         0.00000E+00        -0.10148E-07
 
    0.34383E+06         0.22827E+06         0.00000E+00
    0.22827E+06        -0.48451E+08         0.00000E+00
    0.00000E+00         0.00000E+00        -0.11163E-06
 
    0.35876E+06         0.23933E+06         0.00000E+00
    0.23933E+06        -0.48504E+08         0.00000E+00
    0.00000E+00         0.00000E+00        -0.35518E-07
 
    0.37407E+06         0.25081E+06         0.00000E+00
    0.25081E+06        -0.48559E+08         0.00000E+00
    0.00000E+00         0.00000E+00        -0.25370E-07
 
    0.38974E+06         0.26272E+06         0.00000E+00
    0.26272E+06        -0.48617E+08         0.00000E+00
    0.00000E+00         0.00000E+00         0.15222E-07
 
    0.40575E+06         0.27506E+06         0.00000E+00
    0.27506E+06        -0.48679E+08         0.00000E+00
    0.00000E+00         0.00000E+00         0.10148E-07
 
    0.42207E+06         0.28784E+06         0.00000E+00
    0.28784E+06        -0.48744E+08         0.00000E+00
    0.00000E+00         0.00000E+00        -0.50740E-07
 
    0.43867E+06         0.30107E+06         0.00000E+00
    0.30107E+06        -0.48813E+08         0.00000E+00
    0.00000E+00         0.00000E+00         0.00000E+00
 
    0.45551E+06         0.31473E+06         0.00000E+00
    0.31473E+06        -0.48885E+08         0.00000E+00
    0.00000E+00         0.00000E+00        -0.15222E-07
 
    0.47255E+06         0.32883E+06         0.00000E+00
    0.32883E+06        -0.48961E+08         0.00000E+00
    0.00000E+00         0.00000E+00        -0.65963E-07
 
    0.48976E+06         0.34336E+06         0.00000E+00
    0.34336E+06        -0.49041E+08         0.00000E+00
    0.00000E+00         0.00000E+00         0.60889E-07
 
    0.50706E+06         0.35832E+06         0.00000E+00
    0.35832E+06        -0.49126E+08         0.00000E+00
    0.00000E+00         0.00000E+00        -0.50741E-07
 
    0.52441E+06         0.37370E+06         0.00000E+00
    0.37370E+06        -0.49215E+08         0.00000E+00
    0.00000E+00         0.00000E+00        -0.55815E-07
 
    0.54173E+06         0.38948E+06         0.00000E+00
    0.38948E+06        -0.49309E+08         0.00000E+00
    0.00000E+00         0.00000E+00        -0.20296E-07
 
    0.55895E+06         0.40565E+06         0.00000E+00
    0.40565E+06        -0.49408E+08         0.00000E+00
    0.00000E+00         0.00000E+00        -0.76111E-07
 
    0.57598E+06         0.42220E+06         0.00000E+00
    0.42220E+06        -0.49512E+08         0.00000E+00
    0.00000E+00         0.00000E+00         0.00000E+00
 
    0.59272E+06         0.43909E+06         0.00000E+00
    0.43909E+06        -0.49621E+08         0.00000E+00
    0.00000E+00         0.00000E+00         0.30444E-07
 
    0.60908E+06         0.45631E+06         0.00000E+00
    0.45631E+06        -0.49736E+08         0.00000E+00
    0.00000E+00         0.00000E+00        -0.20296E-07
 
    0.62492E+06         0.47381E+06         0.00000E+00
    0.47381E+06        -0.49857E+08         0.00000E+00
    0.00000E+00         0.00000E+00        -0.50741E-07
 
    0.64012E+06         0.49157E+06         0.00000E+00
    0.49157E+06        -0.49983E+08         0.00000E+00
    0.00000E+00         0.00000E+00         0.10149E-07
 
    0.65454E+06         0.50954E+06         0.00000E+00
    0.50954E+06        -0.50116E+08         0.00000E+00
    0.00000E+00         0.00000E+00         0.35518E-07
 
    0.66801E+06         0.52766E+06         0.00000E+00
    0.52766E+06        -0.50256E+08         0.00000E+00
    0.00000E+00         0.00000E+00         0.45667E-07
 
    0.68036E+06         0.54589E+06         0.00000E+00
    0.54589E+06        -0.50402E+08         0.00000E+00
    0.00000E+00         0.00000E+00         0.10148E-07
 
    0.69140E+06         0.56416E+06         0.00000E+00
    0.56416E+06        -0.50556E+08         0.00000E+00
    0.00000E+00         0.00000E+00         0.40593E-07
 
    0.70090E+06         0.58239E+06         0.00000E+00
    0.58239E+06        -0.50716E+08         0.00000E+00
    0.00000E+00         0.00000E+00        -0.35518E-07
 
    0.70863E+06         0.60051E+06         0.00000E+00
    0.60051E+06        -0.50885E+08         0.00000E+00
    0.00000E+00         0.00000E+00         0.50741E-08
 
    0.71435E+06         0.61841E+06         0.00000E+00
    0.61841E+06        -0.51061E+08         0.00000E+00
    0.00000E+00         0.00000E+00        -0.50741E-08
 
    0.71775E+06         0.63599E+06         0.00000E+00
    0.63599E+06        -0.51245E+08         0.00000E+00
    0.00000E+00         0.00000E+00        -0.20296E-07
 
    0.71855E+06         0.65314E+06         0.00000E+00
    0.65314E+06        -0.51437E+08         0.00000E+00
    0.00000E+00         0.00000E+00        -0.13192E-06
 
    0.71640E+06         0.66971E+06         0.00000E+00
    0.66971E+06        -0.51639E+08         0.00000E+00
    0.00000E+00         0.00000E+00         0.50741E-08
 
    0.71092E+06         0.68557E+06         0.00000E+00
    0.68557E+06        -0.51848E+08         0.00000E+00
    0.00000E+00         0.00000E+00         0.40593E-07
 
    0.70173E+06         0.70053E+06         0.00000E+00
    0.70053E+06        -0.52067E+08         0.00000E+00
    0.00000E+00         0.00000E+00        -0.35518E-07
 
    0.68838E+06         0.71441E+06         0.00000E+00
    0.71441E+06        -0.52296E+08         0.00000E+00
    0.00000E+00         0.00000E+00         0.60889E-07
 
    0.67038E+06         0.72700E+06         0.00000E+00
    0.72700E+06        -0.52534E+08         0.00000E+00
    0.00000E+00         0.00000E+00         0.20296E-07
 
    0.64722E+06         0.73807E+06         0.00000E+00
    0.73807E+06        -0.52781E+08         0.00000E+00
    0.00000E+00         0.00000E+00        -0.15222E-07
 
    0.61834E+06         0.74733E+06         0.00000E+00
    0.74733E+06        -0.53039E+08         0.00000E+00
    0.00000E+00         0.00000E+00         0.40593E-07
 
    0.58311E+06         0.75451E+06         0.00000E+00
    0.75451E+06        -0.53307E+08         0.00000E+00
    0.00000E+00         0.00000E+00        -0.25370E-07
 
    0.54086E+06         0.75926E+06         0.00000E+00
    0.75926E+06        -0.53585E+08         0.00000E+00
    0.00000E+00         0.00000E+00        -0.20296E-07
 
    0.49088E+06         0.76122E+06         0.00000E+00
    0.76122E+06        -0.53874E+08         0.00000E+00
    0.00000E+00         0.00000E+00         0.10148E-07
 
    0.43238E+06         0.75997E+06         0.00000E+00
    0.75997E+06        -0.54174E+08         0.00000E+00
    0.00000E+00         0.00000E+00        -0.15222E-07
 
    0.36453E+06         0.75508E+06         0.00000E+00
    0.75508E+06        -0.54485E+08         0.00000E+00
    0.00000E+00         0.00000E+00         0.00000E+00
 
    0.28643E+06         0.74604E+06         0.00000E+00
    0.74604E+06        -0.54806E+08         0.00000E+00
    0.00000E+00         0.00000E+00         0.20294E-07
 
    0.19712E+06         0.73234E+06         0.00000E+00
    0.73234E+06        -0.55139E+08         0.00000E+00
    0.00000E+00         0.00000E+00        -0.10148E-07
 
    0.95595E+05         0.71340E+06         0.00000E+00
    0.71340E+06        -0.55483E+08         0.00000E+00
    0.00000E+00         0.00000E+00         0.15223E-07
 
   -0.19201E+05         0.68865E+06         0.00000E+00
    0.68865E+06        -0.55838E+08         0.00000E+00
    0.00000E+00         0.00000E+00         0.00000E+00
 
   -0.14836E+06         0.65747E+06         0.00000E+00
    0.65747E+06        -0.56205E+08         0.00000E+00
    0.00000E+00         0.00000E+00         0.00000E+00
 
   -0.29301E+06         0.61930E+06         0.00000E+00
    0.61930E+06        -0.56582E+08         0.00000E+00
    0.00000E+00         0.00000E+00        -0.50741E-07
 
   -0.45427E+06         0.57361E+06         0.00000E+00
    0.57361E+06        -0.56969E+08         0.00000E+00
    0.00000E+00         0.00000E+00         0.20296E-07
 
   -0.63322E+06         0.51999E+06         0.00000E+00
    0.51999E+06        -0.57367E+08         0.00000E+00
    0.00000E+00         0.00000E+00         0.10148E-07
 
   -0.83089E+06         0.45821E+06         0.00000E+00
    0.45821E+06        -0.57773E+08         0.00000E+00
    0.00000E+00         0.00000E+00        -0.71037E-07
 
   -0.10482E+07         0.38834E+06         0.00000E+00
    0.38834E+06        -0.58189E+08         0.00000E+00
    0.00000E+00         0.00000E+00         0.20296E-07
 
   -0.12857E+07         0.31089E+06         0.00000E+00
    0.31089E+06        -0.58611E+08         0.00000E+00
    0.00000E+00         0.00000E+00         0.71037E-07
 
   -0.15438E+07         0.22701E+06         0.00000E+00
    0.22701E+06        -0.59038E+08         0.00000E+00
    0.00000E+00         0.00000E+00         0.71037E-07
 
   -0.18224E+07         0.13877E+06         0.00000E+00
    0.13877E+06        -0.59469E+08         0.00000E+00
    0.00000E+00         0.00000E+00        -0.20296E-07
 
   -0.21206E+07         0.49552E+05         0.00000E+00
    0.49552E+05        -0.59899E+08         0.00000E+00
    0.00000E+00         0.00000E+00         0.00000E+00
 
   -0.24365E+07        -0.35421E+05         0.00000E+00
   -0.35421E+05        -0.60325E+08         0.00000E+00
    0.00000E+00         0.00000E+00        -0.50741E-07
 
   -0.27675E+07        -0.10831E+06         0.00000E+00
   -0.10831E+06        -0.60739E+08         0.00000E+00
    0.00000E+00         0.00000E+00        -0.10148E-07
 
   -0.31105E+07        -0.15790E+06         0.00000E+00
   -0.15790E+06        -0.61132E+08         0.00000E+00
    0.00000E+00         0.00000E+00        -0.71037E-07
 
   -0.34649E+07        -0.17009E+06         0.00000E+00
   -0.17009E+06        -0.61482E+08         0.00000E+00
    0.00000E+00         0.00000E+00         0.40593E-07
 
   -0.38370E+07        -0.13337E+06         0.00000E+00
   -0.13337E+06        -0.61756E+08         0.00000E+00
    0.00000E+00         0.00000E+00         0.71037E-07
 
   -0.42413E+07        -0.50896E+05         0.00000E+00
   -0.50896E+05        -0.61910E+08         0.00000E+00
    0.00000E+00         0.00000E+00        -0.40592E-07
 
    0.14598E+06         0.10671E+03         0.00000E+00
    0.10671E+03        -0.47609E+08         0.00000E+00
    0.00000E+00         0.00000E+00         0.00000E+00
 
    0.13836E+06         0.75060E+03         0.00000E+00
    0.75060E+03        -0.47613E+08         0.00000E+00
    0.00000E+00         0.00000E+00         0.20296E-07
 
    0.13190E+06         0.23940E+04         0.00000E+00
    0.23940E+04        -0.47619E+08         0.00000E+00
    0.00000E+00         0.00000E+00         0.00000E+00
 
    0.12627E+06         0.50714E+04         0.00000E+00
    0.50714E+04        -0.47626E+08         0.00000E+00
    0.00000E+00         0.00000E+00        -0.25370E-07
 
    0.12132E+06         0.85137E+04         0.00000E+00
    0.85137E+04        -0.47635E+08         0.00000E+00
    0.00000E+00         0.00000E+00        -0.10148E-07
 
    0.11706E+06         0.12427E+05         0.00000E+00
    0.12427E+05        -0.47644E+08         0.00000E+00
    0.00000E+00         0.00000E+00         0.15222E-07
 
    0.11353E+06         0.16595E+05         0.00000E+00
    0.16595E+05        -0.47654E+08         0.00000E+00
    0.00000E+00         0.00000E+00         0.60889E-07
 
    0.11077E+06         0.20880E+05         0.00000E+00
    0.20880E+05        -0.47664E+08         0.00000E+00
    0.00000E+00         0.00000E+00        -0.65963E-07
 
    0.10880E+06         0.25195E+05         0.00000E+00
    0.25195E+05        -0.47674E+08         0.00000E+00
    0.00000E+00         0.00000E+00        -0.25370E-07
 
    0.10761E+06         0.29490E+05         0.00000E+00
    0.29490E+05        -0.47685E+08         0.00000E+00
    0.00000E+00         0.00000E+00         0.30444E-07
 
    0.10719E+06         0.33743E+05         0.00000E+00
    0.33743E+05        -0.47696E+08         0.00000E+00
    0.00000E+00         0.00000E+00         0.25370E-07
 
    0.10750E+06         0.37946E+05         0.00000E+00
    0.37946E+05        -0.47708E+08         0.00000E+00
    0.00000E+00         0.00000E+00         0.20296E-07
 
    0.10852E+06         0.42104E+05         0.00000E+00
    0.42104E+05        -0.47719E+08         0.00000E+00
    0.00000E+00         0.00000E+00         0.30444E-07
 
    0.11022E+06         0.46230E+05         0.00000E+00
    0.46230E+05        -0.47732E+08         0.00000E+00
    0.00000E+00         0.00000E+00        -0.15222E-07
 
    0.11258E+06         0.50342E+05         0.00000E+00
    0.50342E+05        -0.47745E+08         0.00000E+00
    0.00000E+00         0.00000E+00         0.35518E-07
 
    0.11555E+06         0.54459E+05         0.00000E+00
    0.54459E+05        -0.47758E+08         0.00000E+00
    0.00000E+00         0.00000E+00        -0.15222E-07
 
    0.11912E+06         0.58605E+05         0.00000E+00
    0.58605E+05        -0.47772E+08         0.00000E+00
    0.00000E+00         0.00000E+00        -0.50740E-08
 
    0.12327E+06         0.62802E+05         0.00000E+00
    0.62802E+05        -0.47787E+08         0.00000E+00
    0.00000E+00         0.00000E+00         0.10148E-07
 
    0.12796E+06         0.67073E+05         0.00000E+00
    0.67073E+05        -0.47802E+08         0.00000E+00
    0.00000E+00         0.00000E+00         0.45667E-07
 
    0.13318E+06         0.71438E+05         0.00000E+00
    0.71438E+05        -0.47818E+08         0.00000E+00
    0.00000E+00         0.00000E+00         0.35518E-07
 
    0.13891E+06         0.75919E+05         0.00000E+00
    0.75919E+05        -0.47835E+08         0.00000E+00
    0.00000E+00         0.00000E+00         0.50741E-08
 
    0.14515E+06         0.80536E+05         0.00000E+00
    0.80536E+05        -0.47852E+08         0.00000E+00
    0.00000E+00         0.00000E+00         0.00000E+00
 
    0.15187E+06         0.85309E+05         0.00000E+00
    0.85309E+05        -0.47871E+08         0.00000E+00
    0.00000E+00         0.00000E+00        -0.45667E-07
 
    0.15908E+06         0.90254E+05         0.00000E+00
    0.90254E+05        -0.47890E+08         0.00000E+00
    0.00000E+00         0.00000E+00        -0.50741E-08
 
    0.16676E+06         0.95390E+05         0.00000E+00
    0.95390E+05        -0.47911E+08         0.00000E+00
    0.00000E+00         0.00000E+00        -0.40593E-07
 
    0.17490E+06         0.10073E+06         0.00000E+00
    0.10073E+06        -0.47933E+08         0.00000E+00
    0.00000E+00         0.00000E+00         0.10148E-07
 
    0.18351E+06         0.10630E+06         0.00000E+00
    0.10630E+06        -0.47956E+08         0.00000E+00
    0.00000E+00         0.00000E+00         0.35518E-07
 
    0.19258E+06         0.11210E+06         0.00000E+00
    0.11210E+06        -0.47980E+08         0.00000E+00
    0.00000E+00         0.00000E+00        -0.15222E-07
 
    0.20211E+06         0.11815E+06         0.00000E+00
    0.11815E+06        -0.48006E+08         0.00000E+00
    0.00000E+00         0.00000E+00         0.20296E-07
 
    0.21210E+06         0.12447E+06         0.00000E+00
    0.12447E+06        -0.48033E+08         0.00000E+00
    0.00000E+00         0.00000E+00        -0.96407E-07
 
    0.22254E+06         0.13107E+06         0.00000E+00
    0.13107E+06        -0.48061E+08         0.00000E+00
    0.00000E+00         0.00000E+00        -0.50741E-08
 
    0.23344E+06         0.13796E+06         0.00000E+00
    0.13796E+06        -0.48091E+08         0.00000E+00
    0.00000E+00         0.00000E+00         0.65963E-07
 
    0.24480E+06         0.14515E+06         0.00000E+00
    0.14515E+06        -0.48123E+08         0.00000E+00
    0.00000E+00         0.00000E+00         0.40593E-07
 
    0.25661E+06         0.15266E+06         0.00000E+00
    0.15266E+06        -0.48157E+08         0.00000E+00
    0.00000E+00         0.00000E+00        -0.50741E-08
 
    0.26887E+06         0.16050E+06         0.00000E+00
    0.16050E+06        -0.48193E+08         0.00000E+00
    0.00000E+00         0.00000E+00        -0.50741E-08
 
    0.28159E+06         0.16867E+06         0.00000E+00
    0.16867E+06        -0.48230E+08         0.00000E+00
    0.00000E+00         0.00000E+00         0.35518E-07
 
    0.29475E+06         0.17719E+06         0.00000E+00
    0.17719E+06        -0.48270E+08         0.00000E+00
    0.00000E+00         0.00000E+00        -0.20296E-07
 
    0.30836E+06         0.18608E+06         0.00000E+00
    0.18608E+06        -0.48312E+08         0.00000E+00
    0.00000E+00         0.00000E+00        -0.50738E-08
 
    0.32240E+06         0.19533E+06         0.00000E+00
    0.19533E+06        -0.48357E+08         0.00000E+00
    0.00000E+00         0.00000E+00         0.10148E-07
 
    0.33687E+06         0.20495E+06         0.00000E+00
    0.20495E+06        -0.48404E+08         0.00000E+00
    0.00000E+00         0.00000E+00         0.20296E-07
 
    0.35177E+06         0.21496E+06         0.00000E+00
    0.21496E+06        -0.48454E+08         0.00000E+00
    0.00000E+00         0.00000E+00        -0.15222E-07
 
    0.36706E+06         0.22537E+06         0.00000E+00
    0.22537E+06        -0.48506E+08         0.00000E+00
    0.00000E+00         0.00000E+00        -0.50741E-08
 
    0.38275E+06         0.23617E+06         0.00000E+00
    0.23617E+06        -0.48561E+08         0.00000E+00
    0.00000E+00         0.00000E+00         0.00000E+00
 
    0.39881E+06         0.24738E+06         0.00000E+00
    0.24738E+06        -0.48620E+08         0.00000E+00
    0.00000E+00         0.00000E+00        -0.10148E-07
 
    0.41522E+06         0.25899E+06         0.00000E+00
    0.25899E+06        -0.48681E+08         0.00000E+00
    0.00000E+00         0.00000E+00        -0.30444E-07
 
    0.43194E+06         0.27101E+06         0.00000E+00
    0.27101E+06        -0.48747E+08         0.00000E+00
    0.00000E+00         0.00000E+00         0.00000E+00
 
    0.44896E+06         0.28345E+06         0.00000E+00
    0.28345E+06        -0.48815E+08         0.00000E+00
    0.00000E+00         0.00000E+00        -0.55815E-07
 
    0.46623E+06         0.29630E+06         0.00000E+00
    0.29630E+06        -0.48888E+08         0.00000E+00
    0.00000E+00         0.00000E+00         0.15222E-07
 
    0.48372E+06         0.30956E+06         0.00000E+00
    0.30956E+06        -0.48964E+08         0.00000E+00
    0.00000E+00         0.00000E+00         0.35518E-07
 
    0.50136E+06         0.32323E+06         0.00000E+00
    0.32323E+06        -0.49044E+08         0.00000E+00
    0.00000E+00         0.00000E+00         0.60889E-07
 
    0.51912E+06         0.33730E+06         0.00000E+00
    0.33730E+06        -0.49129E+08         0.00000E+00
    0.00000E+00         0.00000E+00        -0.40593E-07
 
    0.53693E+06         0.35175E+06         0.00000E+00
    0.35175E+06        -0.49218E+08         0.00000E+00
    0.00000E+00         0.00000E+00         0.10148E-07
 
    0.55471E+06         0.36659E+06         0.00000E+00
    0.36659E+06        -0.49312E+08         0.00000E+00
    0.00000E+00         0.00000E+00         0.50741E-08
 
    0.57240E+06         0.38179E+06         0.00000E+00
    0.38179E+06        -0.49411E+08         0.00000E+00
    0.00000E+00         0.00000E+00         0.50741E-08
 
    0.58990E+06         0.39735E+06         0.00000E+00
    0.39735E+06        -0.49515E+08         0.00000E+00
    0.00000E+00         0.00000E+00         0.00000E+00
 
    0.60712E+06         0.41322E+06         0.00000E+00
    0.41322E+06        -0.49624E+08         0.00000E+00
    0.00000E+00         0.00000E+00        -0.60889E-07
 
    0.62394E+06         0.42940E+06         0.00000E+00
    0.42940E+06        -0.49739E+08         0.00000E+00
    0.00000E+00         0.00000E+00         0.00000E+00
 
    0.64025E+06         0.44584E+06         0.00000E+00
    0.44584E+06        -0.49860E+08         0.00000E+00
    0.00000E+00         0.00000E+00        -0.60889E-07
 
    0.65592E+06         0.46253E+06         0.00000E+00
    0.46253E+06        -0.49987E+08         0.00000E+00
    0.00000E+00         0.00000E+00         0.00000E+00
 
    0.67079E+06         0.47940E+06         0.00000E+00
    0.47940E+06        -0.50120E+08         0.00000E+00
    0.00000E+00         0.00000E+00        -0.40593E-07
 
    0.68470E+06         0.49642E+06         0.00000E+00
    0.49642E+06        -0.50260E+08         0.00000E+00
    0.00000E+00         0.00000E+00        -0.96407E-07
 
    0.69748E+06         0.51353E+06         0.00000E+00
    0.51353E+06        -0.50406E+08         0.00000E+00
    0.00000E+00         0.00000E+00        -0.50741E-08
 
    0.70892E+06         0.53068E+06         0.00000E+00
    0.53068E+06        -0.50559E+08         0.00000E+00
    0.00000E+00         0.00000E+00        -0.50741E-08
 
    0.71881E+06         0.54778E+06         0.00000E+00
    0.54778E+06        -0.50720E+08         0.00000E+00
    0.00000E+00         0.00000E+00         0.20296E-07
 
    0.72690E+06         0.56477E+06         0.00000E+00
    0.56477E+06        -0.50888E+08         0.00000E+00
    0.00000E+00         0.00000E+00         0.50732E-08
 
    0.73295E+06         0.58156E+06         0.00000E+00
    0.58156E+06        -0.51064E+08         0.00000E+00
    0.00000E+00         0.00000E+00         0.35518E-07
 
    0.73665E+06         0.59803E+06         0.00000E+00
    0.59803E+06        -0.51248E+08         0.00000E+00
    0.00000E+00         0.00000E+00        -0.15222E-07
 
    0.73770E+06         0.61410E+06         0.00000E+00
    0.61410E+06        -0.51441E+08         0.00000E+00
    0.00000E+00         0.00000E+00         0.10148E-07
 
    0.73575E+06         0.62961E+06         0.00000E+00
    0.62961E+06        -0.51642E+08         0.00000E+00
    0.00000E+00         0.00000E+00        -0.76111E-07
 
    0.73042E+06         0.64444E+06         0.00000E+00
    0.64444E+06        -0.51851E+08         0.00000E+00
    0.00000E+00         0.00000E+00         0.50741E-08
 
    0.72131E+06         0.65842E+06         0.00000E+00
    0.65842E+06        -0.52070E+08         0.00000E+00
    0.00000E+00         0.00000E+00        -0.71037E-07
 
    0.70796E+06         0.67137E+06         0.00000E+00
    0.67137E+06        -0.52298E+08         0.00000E+00
    0.00000E+00         0.00000E+00         0.76111E-07
 
    0.68988E+06         0.68310E+06         0.00000E+00
    0.68310E+06        -0.52536E+08         0.00000E+00
    0.00000E+00         0.00000E+00         0.45667E-07
 
    0.66654E+06         0.69337E+06         0.00000E+00
    0.69337E+06        -0.52783E+08         0.00000E+00
    0.00000E+00         0.00000E+00         0.50741E-07
 
    0.63736E+06         0.70194E+06         0.00000E+00
    0.70194E+06        -0.53041E+08         0.00000E+00
    0.00000E+00         0.00000E+00         0.35518E-07
 
    0.60171E+06         0.70851E+06         0.00000E+00
    0.70851E+06        -0.53308E+08         0.00000E+00
    0.00000E+00         0.00000E+00         0.20296E-07
 
    0.55888E+06         0.71278E+06         0.00000E+00
    0.71278E+06        -0.53586E+08         0.00000E+00
    0.00000E+00         0.00000E+00        -0.15222E-07
 
    0.50815E+06         0.71439E+06         0.00000E+00
    0.71439E+06        -0.53874E+08         0.00000E+00
    0.00000E+00         0.00000E+00        -0.40593E-07
 
    0.44870E+06         0.71294E+06         0.00000E+00
    0.71294E+06        -0.54173E+08         0.00000E+00
    0.00000E+00         0.00000E+00         0.45667E-07
 
    0.37965E+06         0.70802E+06         0.00000E+00
    0.70802E+06        -0.54483E+08         0.00000E+00
    0.00000E+00         0.00000E+00        -0.15222E-07
 
    0.30008E+06         0.69915E+06         0.00000E+00
    0.69915E+06        -0.54804E+08         0.00000E+00
    0.00000E+00         0.00000E+00        -0.86259E-07
 
    0.20899E+06         0.68581E+06         0.00000E+00
    0.68581E+06        -0.55136E+08         0.00000E+00
    0.00000E+00         0.00000E+00         0.50741E-07
 
    0.10530E+06         0.66746E+06         0.00000E+00
    0.66746E+06        -0.55479E+08         0.00000E+00
    0.00000E+00         0.00000E+00        -0.30444E-07
 
   -0.12091E+05         0.64354E+06         0.00000E+00
    0.64354E+06        -0.55833E+08         0.00000E+00
    0.00000E+00         0.00000E+00         0.60889E-07
 
   -0.14435E+06         0.61345E+06         0.00000E+00
    0.61345E+06        -0.56198E+08         0.00000E+00
    0.00000E+00         0.00000E+00         0.10148E-07
 
   -0.29269E+06         0.57665E+06         0.00000E+00
    0.57665E+06        -0.56573E+08         0.00000E+00
    0.00000E+00         0.00000E+00        -0.40593E-07
 
   -0.45829E+06         0.53260E+06         0.00000E+00
    0.53260E+06        -0.56959E+08         0.00000E+00
    0.00000E+00         0.00000E+00         0.00000E+00
 
   -0.64236E+06         0.48091E+06         0.00000E+00
    0.48091E+06        -0.57355E+08         0.00000E+00
    0.00000E+00         0.00000E+00         0.30444E-07
 
   -0.84601E+06         0.42133E+06         0.00000E+00
    0.42133E+06        -0.57761E+08         0.00000E+00
    0.00000E+00         0.00000E+00        -0.10148E-07
 
   -0.10702E+07         0.35391E+06         0.00000E+00
    0.35391E+06        -0.58174E+08         0.00000E+00
    0.00000E+00         0.00000E+00        -0.40593E-07
 
   -0.13157E+07         0.27911E+06         0.00000E+00
    0.27911E+06        -0.58595E+08         0.00000E+00
    0.00000E+00         0.00000E+00        -0.50741E-07
 
   -0.15829E+07         0.19802E+06         0.00000E+00
    0.19802E+06        -0.59021E+08         0.00000E+00
    0.00000E+00         0.00000E+00         0.30444E-07
 
   -0.18716E+07         0.11258E+06         0.00000E+00
    0.11258E+06        -0.59451E+08         0.00000E+00
    0.00000E+00         0.00000E+00         0.00000E+00
 
   -0.21809E+07         0.26005E+05         0.00000E+00
    0.26005E+05        -0.59882E+08         0.00000E+00
    0.00000E+00         0.00000E+00         0.71037E-07
 
   -0.25086E+07        -0.56683E+05         0.00000E+00
   -0.56683E+05        -0.60309E+08         0.00000E+00
    0.00000E+00         0.00000E+00        -0.30444E-07
 
   -0.28516E+07        -0.12787E+06         0.00000E+00
   -0.12787E+06        -0.60727E+08         0.00000E+00
    0.00000E+00         0.00000E+00         0.00000E+00
 
   -0.32055E+07        -0.17628E+06         0.00000E+00
   -0.17628E+06        -0.61125E+08         0.00000E+00
    0.00000E+00         0.00000E+00         0.71037E-07
 
   -0.35684E+07        -0.18691E+06         0.00000E+00
   -0.18691E+06        -0.61484E+08         0.00000E+00
    0.00000E+00         0.00000E+00         0.00000E+00
 
   -0.39452E+07        -0.14621E+06         0.00000E+00
   -0.14621E+06        -0.61769E+08         0.00000E+00
    0.00000E+00         0.00000E+00         0.15222E-06
 
   -0.43512E+07        -0.55860E+05         0.00000E+00
   -0.55860E+05        -0.61931E+08         0.00000E+00
    0.00000E+00         0.00000E+00        -0.40593E-07
 
    0.14929E+06        -0.58771E+02         0.00000E+00
   -0.58771E+02        -0.47610E+08         0.00000E+00
    0.00000E+00         0.00000E+00         0.00000E+00
 
    0.14165E+06         0.30134E+03         0.00000E+00
    0.30134E+03        -0.47613E+08         0.00000E+00
    0.00000E+00         0.00000E+00        -0.55815E-07
 
    0.13511E+06         0.17454E+04         0.00000E+00
    0.17454E+04        -0.47619E+08         0.00000E+00
    0.00000E+00         0.00000E+00        -0.25370E-07
 
    0.12933E+06         0.42676E+04         0.00000E+00
    0.42676E+04        -0.47627E+08         0.00000E+00
    0.00000E+00         0.00000E+00         0.30444E-07
 
    0.12420E+06         0.75519E+04         0.00000E+00
    0.75519E+04        -0.47636E+08         0.00000E+00
    0.00000E+00         0.00000E+00        -0.45667E-07
 
    0.11975E+06         0.11287E+05         0.00000E+00
    0.11287E+05        -0.47645E+08         0.00000E+00
    0.00000E+00         0.00000E+00        -0.50741E-08
 
    0.11605E+06         0.15259E+05         0.00000E+00
    0.15259E+05        -0.47655E+08         0.00000E+00
    0.00000E+00         0.00000E+00        -0.35518E-07
 
    0.11315E+06         0.19333E+05         0.00000E+00
    0.19333E+05        -0.47665E+08         0.00000E+00
    0.00000E+00         0.00000E+00        -0.35518E-07
 
    0.11107E+06         0.23429E+05         0.00000E+00
    0.23429E+05        -0.47675E+08         0.00000E+00
    0.00000E+00         0.00000E+00         0.15730E-06
 
    0.10980E+06         0.27501E+05         0.00000E+00
    0.27501E+05        -0.47686E+08         0.00000E+00
    0.00000E+00         0.00000E+00        -0.45667E-07
 
    0.10933E+06         0.31525E+05         0.00000E+00
    0.31525E+05        -0.47697E+08         0.00000E+00
    0.00000E+00         0.00000E+00        -0.15222E-07
 
    0.10962E+06         0.35498E+05         0.00000E+00
    0.35498E+05        -0.47708E+08         0.00000E+00
    0.00000E+00         0.00000E+00         0.00000E+00
 
    0.11065E+06         0.39423E+05         0.00000E+00
    0.39423E+05        -0.47720E+08         0.00000E+00
    0.00000E+00         0.00000E+00        -0.10148E-06
 
    0.11238E+06         0.43313E+05         0.00000E+00
    0.43313E+05        -0.47733E+08         0.00000E+00
    0.00000E+00         0.00000E+00        -0.50741E-08
 
    0.11478E+06         0.47186E+05         0.00000E+00
    0.47186E+05        -0.47745E+08         0.00000E+00
    0.00000E+00         0.00000E+00        -0.45667E-07
 
    0.11782E+06         0.51062E+05         0.00000E+00
    0.51062E+05        -0.47759E+08         0.00000E+00
    0.00000E+00         0.00000E+00         0.20296E-07
 
    0.12148E+06         0.54961E+05         0.00000E+00
    0.54961E+05        -0.47773E+08         0.00000E+00
    0.00000E+00         0.00000E+00        -0.35518E-07
 
    0.12572E+06         0.58905E+05         0.00000E+00
    0.58905E+05        -0.47787E+08         0.00000E+00
    0.00000E+00         0.00000E+00        -0.50741E-07
 
    0.13052E+06         0.62917E+05         0.00000E+00
    0.62917E+05        -0.47803E+08         0.00000E+00
    0.00000E+00         0.00000E+00         0.40593E-07
 
    0.13587E+06         0.67015E+05         0.00000E+00
    0.67015E+05        -0.47819E+08         0.00000E+00
    0.00000E+00         0.00000E+00         0.20296E-07
 
    0.14174E+06         0.71222E+05         0.00000E+00
    0.71222E+05        -0.47836E+08         0.00000E+00
    0.00000E+00         0.00000E+00        -0.40593E-07
 
    0.14813E+06         0.75555E+05         0.00000E+00
    0.75555E+05        -0.47853E+08         0.00000E+00
    0.00000E+00         0.00000E+00         0.00000E+00
 
    0.15501E+06         0.80032E+05         0.00000E+00
    0.80032E+05        -0.47872E+08         0.00000E+00
    0.00000E+00         0.00000E+00         0.20296E-07
 
    0.16239E+06         0.84671E+05         0.00000E+00
    0.84671E+05        -0.47891E+08         0.00000E+00
    0.00000E+00         0.00000E+00        -0.55815E-07
 
    0.17025E+06         0.89489E+05         0.00000E+00
    0.89489E+05        -0.47912E+08         0.00000E+00
    0.00000E+00         0.00000E+00         0.12178E-06
 
    0.17858E+06         0.94499E+05         0.00000E+00
    0.94499E+05        -0.47934E+08         0.00000E+00
    0.00000E+00         0.00000E+00        -0.15222E-07
 
    0.18739E+06         0.99718E+05         0.00000E+00
    0.99718E+05        -0.47957E+08         0.00000E+00
    0.00000E+00         0.00000E+00        -0.40592E-07
 
    0.19667E+06         0.10516E+06         0.00000E+00
    0.10516E+06        -0.47981E+08         0.00000E+00
    0.00000E+00         0.00000E+00         0.50741E-08
 
    0.20642E+06         0.11084E+06         0.00000E+00
    0.11084E+06        -0.48007E+08         0.00000E+00
    0.00000E+00         0.00000E+00         0.45667E-07
 
    0.21664E+06         0.11676E+06         0.00000E+00
    0.11676E+06        -0.48034E+08         0.00000E+00
    0.00000E+00         0.00000E+00        -0.86259E-07
 
    0.22732E+06         0.12295E+06         0.00000E+00
    0.12295E+06        -0.48063E+08         0.00000E+00
    0.00000E+00         0.00000E+00        -0.15222E-07
 
    0.23847E+06         0.12941E+06         0.00000E+00
    0.12941E+06        -0.48093E+08         0.00000E+00
    0.00000E+00         0.00000E+00        -0.11670E-06
 
    0.25009E+06         0.13615E+06         0.00000E+00
    0.13615E+06        -0.48125E+08         0.00000E+00
    0.00000E+00         0.00000E+00         0.40593E-07
 
    0.26218E+06         0.14319E+06         0.00000E+00
    0.14319E+06        -0.48159E+08         0.00000E+00
    0.00000E+00         0.00000E+00         0.40593E-07
 
    0.27472E+06         0.15053E+06         0.00000E+00
    0.15053E+06        -0.48194E+08         0.00000E+00
    0.00000E+00         0.00000E+00         0.86259E-07
 
    0.28773E+06         0.15820E+06         0.00000E+00
    0.15820E+06        -0.48232E+08         0.00000E+00
    0.00000E+00         0.00000E+00         0.50741E-08
 
    0.30120E+06         0.16619E+06         0.00000E+00
    0.16619E+06        -0.48272E+08         0.00000E+00
    0.00000E+00         0.00000E+00        -0.15222E-07
 
    0.31513E+06         0.17451E+06         0.00000E+00
    0.17451E+06        -0.48314E+08         0.00000E+00
    0.00000E+00         0.00000E+00         0.30444E-07
 
    0.32950E+06         0.18318E+06         0.00000E+00
    0.18318E+06        -0.48359E+08         0.00000E+00
    0.00000E+00         0.00000E+00        -0.25370E-07
 
    0.34431E+06         0.19220E+06         0.00000E+00
    0.19220E+06        -0.48406E+08         0.00000E+00
    0.00000E+00         0.00000E+00         0.45667E-07
 
    0.35955E+06         0.20158E+06         0.00000E+00
    0.20158E+06        -0.48455E+08         0.00000E+00
    0.00000E+00         0.00000E+00        -0.10148E-07
 
    0.37521E+06         0.21133E+06         0.00000E+00
    0.21133E+06        -0.48508E+08         0.00000E+00
    0.00000E+00         0.00000E+00         0.35518E-07
 
    0.39127E+06         0.22145E+06         0.00000E+00
    0.22145E+06        -0.48563E+08         0.00000E+00
    0.00000E+00         0.00000E+00         0.00000E+00
 
    0.40772E+06         0.23195E+06         0.00000E+00
    0.23195E+06        -0.48622E+08         0.00000E+00
    0.00000E+00         0.00000E+00         0.35518E-07
 
    0.42452E+06         0.24284E+06         0.00000E+00
    0.24284E+06        -0.48684E+08         0.00000E+00
    0.00000E+00         0.00000E+00        -0.35518E-07
 
    0.44165E+06         0.25410E+06         0.00000E+00
    0.25410E+06        -0.48749E+08         0.00000E+00
    0.00000E+00         0.00000E+00        -0.45667E-07
 
    0.45909E+06         0.26575E+06         0.00000E+00
    0.26575E+06        -0.48818E+08         0.00000E+00
    0.00000E+00         0.00000E+00         0.40593E-07
 
    0.47678E+06         0.27779E+06         0.00000E+00
    0.27779E+06        -0.48890E+08         0.00000E+00
    0.00000E+00         0.00000E+00         0.40593E-07
 
    0.49470E+06         0.29021E+06         0.00000E+00
    0.29021E+06        -0.48967E+08         0.00000E+00
    0.00000E+00         0.00000E+00        -0.55815E-07
 
    0.51279E+06         0.30301E+06         0.00000E+00
    0.30301E+06        -0.49047E+08         0.00000E+00
    0.00000E+00         0.00000E+00         0.50741E-08
 
    0.53100E+06         0.31618E+06         0.00000E+00
    0.31618E+06        -0.49132E+08         0.00000E+00
    0.00000E+00         0.00000E+00         0.91333E-07
 
    0.54926E+06         0.32972E+06         0.00000E+00
    0.32972E+06        -0.49221E+08         0.00000E+00
    0.00000E+00         0.00000E+00         0.30444E-07
 
    0.56751E+06         0.34361E+06         0.00000E+00
    0.34361E+06        -0.49315E+08         0.00000E+00
    0.00000E+00         0.00000E+00        -0.81185E-07
 
    0.58567E+06         0.35784E+06         0.00000E+00
    0.35784E+06        -0.49414E+08         0.00000E+00
    0.00000E+00         0.00000E+00        -0.45667E-07
 
    0.60364E+06         0.37240E+06         0.00000E+00
    0.37240E+06        -0.49518E+08         0.00000E+00
    0.00000E+00         0.00000E+00        -0.50741E-08
 
    0.62132E+06         0.38726E+06         0.00000E+00
    0.38726E+06        -0.49628E+08         0.00000E+00
    0.00000E+00         0.00000E+00        -0.10148E-07
 
    0.63862E+06         0.40240E+06         0.00000E+00
    0.40240E+06        -0.49743E+08         0.00000E+00
    0.00000E+00         0.00000E+00        -0.20296E-07
 
    0.65540E+06         0.41778E+06         0.00000E+00
    0.41778E+06        -0.49863E+08         0.00000E+00
    0.00000E+00         0.00000E+00         0.55815E-07
 
    0.67153E+06         0.43339E+06         0.00000E+00
    0.43339E+06        -0.49990E+08         0.00000E+00
    0.00000E+00         0.00000E+00        -0.15222E-07
 
    0.68686E+06         0.44917E+06         0.00000E+00
    0.44917E+06        -0.50123E+08         0.00000E+00
    0.00000E+00         0.00000E+00        -0.15222E-07
 
    0.70122E+06         0.46509E+06         0.00000E+00
    0.46509E+06        -0.50263E+08         0.00000E+00
    0.00000E+00         0.00000E+00         0.25370E-07
 
    0.71443E+06         0.48109E+06         0.00000E+00
    0.48109E+06        -0.50409E+08         0.00000E+00
    0.00000E+00         0.00000E+00        -0.10148E-07
 
    0.72628E+06         0.49711E+06         0.00000E+00
    0.49711E+06        -0.50563E+08         0.00000E+00
    0.00000E+00         0.00000E+00         0.10148E-07
 
    0.73657E+06         0.51310E+06         0.00000E+00
    0.51310E+06        -0.50723E+08         0.00000E+00
    0.00000E+00         0.00000E+00        -0.50741E-08
 
    0.74504E+06         0.52897E+06         0.00000E+00
    0.52897E+06        -0.50892E+08         0.00000E+00
    0.00000E+00         0.00000E+00         0.15222E-07
 
    0.75143E+06         0.54464E+06         0.00000E+00
    0.54464E+06        -0.51067E+08         0.00000E+00
    0.00000E+00         0.00000E+00         0.25370E-07
 
    0.75544E+06         0.56002E+06         0.00000E+00
    0.56002E+06        -0.51251E+08         0.00000E+00
    0.00000E+00         0.00000E+00        -0.15222E-07
 
    0.75676E+06         0.57501E+06         0.00000E+00
    0.57501E+06        -0.51444E+08         0.00000E+00
    0.00000E+00         0.00000E+00        -0.35518E-07
 
    0.75503E+06         0.58947E+06         0.00000E+00
    0.58947E+06        -0.51645E+08         0.00000E+00
    0.00000E+00         0.00000E+00         0.35518E-07
 
    0.74988E+06         0.60329E+06         0.00000E+00
    0.60329E+06        -0.51854E+08         0.00000E+00
    0.00000E+00         0.00000E+00        -0.50741E-08
 
    0.74087E+06         0.61630E+06         0.00000E+00
    0.61630E+06        -0.52073E+08         0.00000E+00
    0.00000E+00         0.00000E+00         0.10148E-07
 
    0.72756E+06         0.62834E+06         0.00000E+00
    0.62834E+06        -0.52301E+08         0.00000E+00
    0.00000E+00         0.00000E+00         0.10656E-06
 
    0.70944E+06         0.63922E+06         0.00000E+00
    0.63922E+06        -0.52538E+08         0.00000E+00
    0.00000E+00         0.00000E+00        -0.45667E-07
 
    0.68596E+06         0.64872E+06         0.00000E+00
    0.64872E+06        -0.52785E+08         0.00000E+00
    0.00000E+00         0.00000E+00         0.60889E-07
 
    0.65654E+06         0.65661E+06         0.00000E+00
    0.65661E+06        -0.53042E+08         0.00000E+00
    0.00000E+00         0.00000E+00         0.60889E-07
 
    0.62051E+06         0.66261E+06         0.00000E+00
    0.66261E+06        -0.53309E+08         0.00000E+00
    0.00000E+00         0.00000E+00        -0.65963E-07
 
    0.57717E+06         0.66643E+06         0.00000E+00
    0.66643E+06        -0.53586E+08         0.00000E+00
    0.00000E+00         0.00000E+00         0.55815E-07
 
    0.52574E+06         0.66772E+06         0.00000E+00
    0.66772E+06        -0.53874E+08         0.00000E+00
    0.00000E+00         0.00000E+00        -0.10148E-07
 
    0.46540E+06         0.66612E+06         0.00000E+00
    0.66612E+06        -0.54173E+08         0.00000E+00
    0.00000E+00         0.00000E+00         0.10148E-07
 
    0.39525E+06         0.66122E+06         0.00000E+00
    0.66122E+06        -0.54482E+08         0.00000E+00
    0.00000E+00         0.00000E+00         0.30444E-07
 
    0.31429E+06         0.65256E+06         0.00000E+00
    0.65256E+06        -0.54802E+08         0.00000E+00
    0.00000E+00         0.00000E+00        -0.71036E-07
 
    0.22150E+06         0.63966E+06         0.00000E+00
    0.63966E+06        -0.55133E+08         0.00000E+00
    0.00000E+00         0.00000E+00        -0.71037E-07
 
    0.11575E+06         0.62198E+06         0.00000E+00
    0.62198E+06        -0.55475E+08         0.00000E+00
    0.00000E+00         0.00000E+00        -0.20296E-07
 
   -0.41390E+04         0.59899E+06         0.00000E+00
    0.59899E+06        -0.55828E+08         0.00000E+00
    0.00000E+00         0.00000E+00        -0.50741E-07
 
   -0.13940E+06         0.57010E+06         0.00000E+00
    0.57010E+06        -0.56191E+08         0.00000E+00
    0.00000E+00         0.00000E+00         0.20296E-07
 
   -0.29131E+06         0.53479E+06         0.00000E+00
    0.53479E+06        -0.56565E+08         0.00000E+00
    0.00000E+00         0.00000E+00        -0.40593E-07
 
   -0.46117E+06         0.49253E+06         0.00000E+00
    0.49253E+06        -0.56950E+08         0.00000E+00
    0.00000E+00         0.00000E+00         0.20296E-07
 
   -0.65027E+06         0.44293E+06         0.00000E+00
    0.44293E+06        -0.57344E+08         0.00000E+00
    0.00000E+00         0.00000E+00         0.10148E-07
 
   -0.85981E+06         0.38573E+06         0.00000E+00
    0.38573E+06        -0.57748E+08         0.00000E+00
    0.00000E+00         0.00000E+00        -0.71037E-07
 
   -0.10909E+07         0.32096E+06         0.00000E+00
    0.32096E+06        -0.58160E+08         0.00000E+00
    0.00000E+00         0.00000E+00        -0.20296E-07
 
   -0.13443E+07         0.24903E+06         0.00000E+00
    0.24903E+06        -0.58580E+08         0.00000E+00
    0.00000E+00         0.00000E+00         0.10148E-06
 
   -0.16206E+07         0.17095E+06         0.00000E+00
    0.17095E+06        -0.59005E+08         0.00000E+00
    0.00000E+00         0.00000E+00        -0.10148E-06
 
   -0.19196E+07         0.88529E+05         0.00000E+00
    0.88529E+05        -0.59434E+08         0.00000E+00
    0.00000E+00         0.00000E+00         0.10148E-07
 
   -0.22402E+07         0.48009E+04         0.00000E+00
    0.48009E+04        -0.59865E+08         0.00000E+00
    0.00000E+00         0.00000E+00         0.20294E-07
 
   -0.25802E+07        -0.75483E+05         0.00000E+00
   -0.75483E+05        -0.60293E+08         0.00000E+00
    0.00000E+00         0.00000E+00         0.71037E-07
 
   -0.29358E+07        -0.14500E+06         0.00000E+00
   -0.14500E+06        -0.60715E+08         0.00000E+00
    0.00000E+00         0.00000E+00         0.00000E+00
 
   -0.33017E+07        -0.19256E+06         0.00000E+00
   -0.19256E+06        -0.61119E+08         0.00000E+00
    0.00000E+00         0.00000E+00         0.12178E-06
 
   -0.36739E+07        -0.20233E+06         0.00000E+00
   -0.20233E+06        -0.61487E+08         0.00000E+00
    0.00000E+00         0.00000E+00        -0.60889E-07
 
   -0.40562E+07        -0.15848E+06         0.00000E+00
   -0.15848E+06        -0.61783E+08         0.00000E+00
    0.00000E+00         0.00000E+00         0.45475E-12
 
   -0.44640E+07        -0.60735E+05         0.00000E+00
   -0.60735E+05        -0.61953E+08         0.00000E+00
    0.00000E+00         0.00000E+00        -0.20296E-07
 
    0.15263E+06        -0.22375E+03         0.00000E+00
   -0.22375E+03        -0.47609E+08         0.00000E+00
    0.00000E+00         0.00000E+00         0.00000E+00
 
    0.14495E+06        -0.13903E+03         0.00000E+00
   -0.13903E+03        -0.47613E+08         0.00000E+00
    0.00000E+00         0.00000E+00         0.10148E-07
 
    0.13832E+06         0.11218E+04         0.00000E+00
    0.11218E+04        -0.47620E+08         0.00000E+00
    0.00000E+00         0.00000E+00        -0.50741E-08
 
    0.13237E+06         0.35006E+04         0.00000E+00
    0.35006E+04        -0.47628E+08         0.00000E+00
    0.00000E+00         0.00000E+00        -0.40593E-07
 
    0.12703E+06         0.66299E+04         0.00000E+00
    0.66299E+04        -0.47636E+08         0.00000E+00
    0.00000E+00         0.00000E+00        -0.55815E-07
 
    0.12238E+06         0.10184E+05         0.00000E+00
    0.10184E+05        -0.47646E+08         0.00000E+00
    0.00000E+00         0.00000E+00         0.20296E-07
 
    0.11851E+06         0.13954E+05         0.00000E+00
    0.13954E+05        -0.47655E+08         0.00000E+00
    0.00000E+00         0.00000E+00        -0.25370E-07
 
    0.11546E+06         0.17812E+05         0.00000E+00
    0.17812E+05        -0.47665E+08         0.00000E+00
    0.00000E+00         0.00000E+00        -0.76111E-07
 
    0.11327E+06         0.21683E+05         0.00000E+00
    0.21683E+05        -0.47676E+08         0.00000E+00
    0.00000E+00         0.00000E+00        -0.30444E-07
 
    0.11192E+06         0.25524E+05         0.00000E+00
    0.25524E+05        -0.47687E+08         0.00000E+00
    0.00000E+00         0.00000E+00        -0.76111E-07
 
    0.11140E+06         0.29315E+05         0.00000E+00
    0.29315E+05        -0.47698E+08         0.00000E+00
    0.00000E+00         0.00000E+00        -0.45667E-07
 
    0.11167E+06         0.33051E+05         0.00000E+00
    0.33051E+05        -0.47709E+08         0.00000E+00
    0.00000E+00         0.00000E+00         0.50741E-08
 
    0.11270E+06         0.36738E+05         0.00000E+00
    0.36738E+05        -0.47721E+08         0.00000E+00
    0.00000E+00         0.00000E+00        -0.76111E-07
 
    0.11446E+06         0.40389E+05         0.00000E+00
    0.40389E+05        -0.47733E+08         0.00000E+00
    0.00000E+00         0.00000E+00        -0.81185E-07
 
    0.11691E+06         0.44019E+05         0.00000E+00
    0.44019E+05        -0.47746E+08         0.00000E+00
    0.00000E+00         0.00000E+00         0.35518E-07
 
    0.12002E+06         0.47649E+05         0.00000E+00
    0.47649E+05        -0.47760E+08         0.00000E+00
    0.00000E+00         0.00000E+00        -0.55815E-07
 
    0.12376E+06         0.51298E+05         0.00000E+00
    0.51298E+05        -0.47774E+08         0.00000E+00
    0.00000E+00         0.00000E+00        -0.50741E-07
 
    0.12810E+06         0.54987E+05         0.00000E+00
    0.54987E+05        -0.47788E+08         0.00000E+00
    0.00000E+00         0.00000E+00         0.25370E-07
 
    0.13301E+06         0.58737E+05         0.00000E+00
    0.58737E+05        -0.47803E+08         0.00000E+00
    0.00000E+00         0.00000E+00        -0.30444E-07
 
    0.13848E+06         0.62567E+05         0.00000E+00
    0.62567E+05        -0.47820E+08         0.00000E+00
    0.00000E+00         0.00000E+00        -0.40593E-07
 
    0.14449E+06         0.66496E+05         0.00000E+00
    0.66496E+05        -0.47836E+08         0.00000E+00
    0.00000E+00         0.00000E+00         0.15222E-07
 
    0.15102E+06         0.70542E+05         0.00000E+00
    0.70542E+05        -0.47854E+08         0.00000E+00
    0.00000E+00         0.00000E+00         0.00000E+00
 
    0.15807E+06         0.74723E+05         0.00000E+00
    0.74723E+05        -0.47873E+08         0.00000E+00
    0.00000E+00         0.00000E+00         0.00000E+00
 
    0.16561E+06         0.79054E+05         0.00000E+00
    0.79054E+05        -0.47892E+08         0.00000E+00
    0.00000E+00         0.00000E+00        -0.35518E-07
 
    0.17365E+06         0.83551E+05         0.00000E+00
    0.83551E+05        -0.47913E+08         0.00000E+00
    0.00000E+00         0.00000E+00        -0.35518E-07
 
    0.18217E+06         0.88227E+05         0.00000E+00
    0.88227E+05        -0.47935E+08         0.00000E+00
    0.00000E+00         0.00000E+00         0.10148E-07
 
    0.19118E+06         0.93098E+05         0.00000E+00
    0.93098E+05        -0.47958E+08         0.00000E+00
    0.00000E+00         0.00000E+00        -0.50741E-08
 
    0.20067E+06         0.98176E+05         0.00000E+00
    0.98176E+05        -0.47982E+08         0.00000E+00
    0.00000E+00         0.00000E+00        -0.50741E-08
 
    0.21063E+06         0.10347E+06         0.00000E+00
    0.10347E+06        -0.48008E+08         0.00000E+00
    0.00000E+00         0.00000E+00         0.45667E-07
 
    0.22108E+06         0.10900E+06         0.00000E+00
    0.10900E+06        -0.48035E+08         0.00000E+00
    0.00000E+00         0.00000E+00        -0.45667E-07
 
    0.23200E+06         0.11477E+06         0.00000E+00
    0.11477E+06        -0.48064E+08         0.00000E+00
    0.00000E+00         0.00000E+00        -0.10148E-07
 
    0.24340E+06         0.12080E+06         0.00000E+00
    0.12080E+06        -0.48094E+08         0.00000E+00
    0.00000E+00         0.00000E+00        -0.10148E-07
 
    0.25527E+06         0.12709E+06         0.00000E+00
    0.12709E+06        -0.48126E+08         0.00000E+00
    0.00000E+00         0.00000E+00        -0.30444E-07
 
    0.26763E+06         0.13366E+06         0.00000E+00
    0.13366E+06        -0.48160E+08         0.00000E+00
    0.00000E+00         0.00000E+00        -0.60889E-07
 
    0.28045E+06         0.14051E+06         0.00000E+00
    0.14051E+06        -0.48196E+08         0.00000E+00
    0.00000E+00         0.00000E+00         0.45667E-07
 
    0.29375E+06         0.14766E+06         0.00000E+00
    0.14766E+06        -0.48234E+08         0.00000E+00
    0.00000E+00         0.00000E+00         0.60889E-07
 
    0.30752E+06         0.15511E+06         0.00000E+00
    0.15511E+06        -0.48274E+08         0.00000E+00
    0.00000E+00         0.00000E+00         0.10148E-07
 
    0.32176E+06         0.16288E+06         0.00000E+00
    0.16288E+06        -0.48316E+08         0.00000E+00
    0.00000E+00         0.00000E+00        -0.55815E-07
 
    0.33646E+06         0.17097E+06         0.00000E+00
    0.17097E+06        -0.48360E+08         0.00000E+00
    0.00000E+00         0.00000E+00         0.25370E-07
 
    0.35161E+06         0.17938E+06         0.00000E+00
    0.17938E+06        -0.48408E+08         0.00000E+00
    0.00000E+00         0.00000E+00         0.50741E-07
 
    0.36720E+06         0.18813E+06         0.00000E+00
    0.18813E+06        -0.48457E+08         0.00000E+00
    0.00000E+00         0.00000E+00         0.30444E-07
 
    0.38321E+06         0.19723E+06         0.00000E+00
    0.19723E+06        -0.48510E+08         0.00000E+00
    0.00000E+00         0.00000E+00         0.50741E-08
 
    0.39964E+06         0.20666E+06         0.00000E+00
    0.20666E+06        -0.48565E+08         0.00000E+00
    0.00000E+00         0.00000E+00         0.50741E-08
 
    0.41647E+06         0.21646E+06         0.00000E+00
    0.21646E+06        -0.48624E+08         0.00000E+00
    0.00000E+00         0.00000E+00        -0.86259E-07
 
    0.43366E+06         0.22660E+06         0.00000E+00
    0.22660E+06        -0.48686E+08         0.00000E+00
    0.00000E+00         0.00000E+00        -0.20296E-07
 
    0.45120E+06         0.23711E+06         0.00000E+00
    0.23711E+06        -0.48751E+08         0.00000E+00
    0.00000E+00         0.00000E+00         0.50741E-07
 
    0.46904E+06         0.24797E+06         0.00000E+00
    0.24797E+06        -0.48820E+08         0.00000E+00
    0.00000E+00         0.00000E+00         0.10148E-06
 
    0.48716E+06         0.25919E+06         0.00000E+00
    0.25919E+06        -0.48892E+08         0.00000E+00
    0.00000E+00         0.00000E+00         0.00000E+00
 
    0.50551E+06         0.27077E+06         0.00000E+00
    0.27077E+06        -0.48969E+08         0.00000E+00
    0.00000E+00         0.00000E+00        -0.10148E-07
 
    0.52404E+06         0.28270E+06         0.00000E+00
    0.28270E+06        -0.49050E+08         0.00000E+00
    0.00000E+00         0.00000E+00         0.11163E-06
 
    0.54270E+06         0.29498E+06         0.00000E+00
    0.29498E+06        -0.49134E+08         0.00000E+00
    0.00000E+00         0.00000E+00        -0.50741E-08
 
    0.56142E+06         0.30759E+06         0.00000E+00
    0.30759E+06        -0.49224E+08         0.00000E+00
    0.00000E+00         0.00000E+00        -0.10148E-07
 
    0.58012E+06         0.32054E+06         0.00000E+00
    0.32054E+06        -0.49318E+08         0.00000E+00
    0.00000E+00         0.00000E+00         0.30444E-07
 
    0.59874E+06         0.33380E+06         0.00000E+00
    0.33380E+06        -0.49417E+08         0.00000E+00
    0.00000E+00         0.00000E+00        -0.25370E-07
 
    0.61718E+06         0.34736E+06         0.00000E+00
    0.34736E+06        -0.49521E+08         0.00000E+00
    0.00000E+00         0.00000E+00        -0.50741E-08
 
    0.63534E+06         0.36120E+06         0.00000E+00
    0.36120E+06        -0.49630E+08         0.00000E+00
    0.00000E+00         0.00000E+00         0.40593E-07
 
    0.65311E+06         0.37530E+06         0.00000E+00
    0.37530E+06        -0.49745E+08         0.00000E+00
    0.00000E+00         0.00000E+00         0.30444E-07
 
    0.67036E+06         0.38963E+06         0.00000E+00
    0.38963E+06        -0.49866E+08         0.00000E+00
    0.00000E+00         0.00000E+00        -0.40593E-07
 
    0.68696E+06         0.40416E+06         0.00000E+00
    0.40416E+06        -0.49993E+08         0.00000E+00
    0.00000E+00         0.00000E+00         0.11163E-06
 
    0.70275E+06         0.41885E+06         0.00000E+00
    0.41885E+06        -0.50126E+08         0.00000E+00
    0.00000E+00         0.00000E+00        -0.50741E-08
 
    0.71756E+06         0.43367E+06         0.00000E+00
    0.43367E+06        -0.50266E+08         0.00000E+00
    0.00000E+00         0.00000E+00        -0.65962E-07
 
    0.73121E+06         0.44856E+06         0.00000E+00
    0.44856E+06        -0.50412E+08         0.00000E+00
    0.00000E+00         0.00000E+00        -0.71037E-07
 
    0.74349E+06         0.46346E+06         0.00000E+00
    0.46346E+06        -0.50566E+08         0.00000E+00
    0.00000E+00         0.00000E+00        -0.20296E-07
 
    0.75419E+06         0.47833E+06         0.00000E+00
    0.47833E+06        -0.50726E+08         0.00000E+00
    0.00000E+00         0.00000E+00        -0.20296E-07
 
    0.76304E+06         0.49309E+06         0.00000E+00
    0.49309E+06        -0.50895E+08         0.00000E+00
    0.00000E+00         0.00000E+00        -0.20296E-07
 
    0.76979E+06         0.50766E+06         0.00000E+00
    0.50766E+06        -0.51070E+08         0.00000E+00
    0.00000E+00         0.00000E+00        -0.45667E-07
 
    0.77413E+06         0.52195E+06         0.00000E+00
    0.52195E+06        -0.51254E+08         0.00000E+00
    0.00000E+00         0.00000E+00        -0.25370E-07
 
    0.77574E+06         0.53587E+06         0.00000E+00
    0.53587E+06        -0.51447E+08         0.00000E+00
    0.00000E+00         0.00000E+00        -0.10148E-06
 
    0.77426E+06         0.54929E+06         0.00000E+00
    0.54929E+06        -0.51647E+08         0.00000E+00
    0.00000E+00         0.00000E+00        -0.30444E-07
 
    0.76930E+06         0.56210E+06         0.00000E+00
    0.56210E+06        -0.51857E+08         0.00000E+00
    0.00000E+00         0.00000E+00         0.65961E-07
 
    0.76043E+06         0.57416E+06         0.00000E+00
    0.57416E+06        -0.52075E+08         0.00000E+00
    0.00000E+00         0.00000E+00         0.50741E-08
 
    0.74719E+06         0.58530E+06         0.00000E+00
    0.58530E+06        -0.52303E+08         0.00000E+00
    0.00000E+00         0.00000E+00         0.91333E-07
 
    0.72907E+06         0.59535E+06         0.00000E+00
    0.59535E+06        -0.52540E+08         0.00000E+00
    0.00000E+00         0.00000E+00         0.10148E-07
 
    0.70549E+06         0.60410E+06         0.00000E+00
    0.60410E+06        -0.52787E+08         0.00000E+00
    0.00000E+00         0.00000E+00        -0.10148E-07
 
    0.67587E+06         0.61133E+06         0.00000E+00
    0.61133E+06        -0.53043E+08         0.00000E+00
    0.00000E+00         0.00000E+00        -0.30444E-07
 
    0.63952E+06         0.61679E+06         0.00000E+00
    0.61679E+06        -0.53310E+08         0.00000E+00
    0.00000E+00         0.00000E+00         0.20296E-07
 
    0.59572E+06         0.62019E+06         0.00000E+00
    0.62019E+06        -0.53587E+08         0.00000E+00
    0.00000E+00         0.00000E+00         0.20296E-07
 
    0.54367E+06         0.62120E+06         0.00000E+00
    0.62120E+06        -0.53874E+08         0.00000E+00
    0.00000E+00         0.00000E+00        -0.10148E-07
 
    0.48252E+06         0.61949E+06         0.00000E+00
    0.61949E+06        -0.54172E+08         0.00000E+00
    0.00000E+00         0.00000E+00        -0.12178E-06
 
    0.41133E+06         0.61466E+06         0.00000E+00
    0.61466E+06        -0.54481E+08         0.00000E+00
    0.00000E+00         0.00000E+00         0.40593E-07
 
    0.32908E+06         0.60628E+06         0.00000E+00
    0.60628E+06        -0.54800E+08         0.00000E+00
    0.00000E+00         0.00000E+00         0.71037E-07
 
    0.23468E+06         0.59387E+06         0.00000E+00
    0.59387E+06        -0.55130E+08         0.00000E+00
    0.00000E+00         0.00000E+00         0.00000E+00
 
    0.12697E+06         0.57695E+06         0.00000E+00
    0.57695E+06        -0.55471E+08         0.00000E+00
    0.00000E+00         0.00000E+00         0.00000E+00
 
    0.46890E+04         0.55497E+06         0.00000E+00
    0.55497E+06        -0.55823E+08         0.00000E+00
    0.00000E+00         0.00000E+00        -0.30444E-07
 
   -0.13346E+06         0.52740E+06         0.00000E+00
    0.52740E+06        -0.56185E+08         0.00000E+00
    0.00000E+00         0.00000E+00        -0.20296E-07
 
   -0.28884E+06         0.49370E+06         0.00000E+00
    0.49370E+06        -0.56558E+08         0.00000E+00
    0.00000E+00         0.00000E+00        -0.50741E-07
 
   -0.46285E+06         0.45337E+06         0.00000E+00
    0.45337E+06        -0.56941E+08         0.00000E+00
    0.00000E+00         0.00000E+00         0.00000E+00
 
   -0.65687E+06         0.40602E+06         0.00000E+00
    0.40602E+06        -0.57334E+08         0.00000E+00
    0.00000E+00         0.00000E+00         0.30444E-07
 
   -0.87223E+06         0.35140E+06         0.00000E+00
    0.35140E+06        -0.57736E+08         0.00000E+00
    0.00000E+00         0.00000E+00        -0.91333E-07
 
   -0.11101E+07         0.28949E+06         0.00000E+00
    0.28949E+06        -0.58147E+08         0.00000E+00
    0.00000E+00         0.00000E+00         0.50741E-07
 
   -0.13715E+07         0.22066E+06         0.00000E+00
    0.22066E+06        -0.58565E+08         0.00000E+00
    0.00000E+00         0.00000E+00        -0.50741E-07
 
   -0.16569E+07         0.14582E+06         0.00000E+00
    0.14582E+06        -0.58989E+08         0.00000E+00
    0.00000E+00         0.00000E+00         0.40593E-07
 
   -0.19663E+07         0.66669E+05         0.00000E+00
    0.66669E+05        -0.59418E+08         0.00000E+00
    0.00000E+00         0.00000E+00         0.10148E-06
 
   -0.22985E+07        -0.13993E+05         0.00000E+00
   -0.13993E+05        -0.59848E+08         0.00000E+00
    0.00000E+00         0.00000E+00        -0.10148E-07
 
   -0.26512E+07        -0.91709E+05         0.00000E+00
   -0.91709E+05        -0.60278E+08         0.00000E+00
    0.00000E+00         0.00000E+00        -0.60889E-07
 
   -0.30201E+07        -0.15953E+06         0.00000E+00
   -0.15953E+06        -0.60702E+08         0.00000E+00
    0.00000E+00         0.00000E+00        -0.50741E-07
 
   -0.33989E+07        -0.20652E+06         0.00000E+00
   -0.20652E+06        -0.61112E+08         0.00000E+00
    0.00000E+00         0.00000E+00         0.11163E-06
 
   -0.37818E+07        -0.21615E+06         0.00000E+00
   -0.21615E+06        -0.61490E+08         0.00000E+00
    0.00000E+00         0.00000E+00         0.50741E-07
 
   -0.41705E+07        -0.17009E+06         0.00000E+00
   -0.17009E+06        -0.61798E+08         0.00000E+00
    0.00000E+00         0.00000E+00         0.00000E+00
 
   -0.45804E+07        -0.65511E+05         0.00000E+00
   -0.65511E+05        -0.61978E+08         0.00000E+00
    0.00000E+00         0.00000E+00        -0.50741E-07
 
    0.15599E+06        -0.38793E+03         0.00000E+00
   -0.38793E+03        -0.47609E+08         0.00000E+00
    0.00000E+00         0.00000E+00         0.00000E+00
 
    0.14827E+06        -0.56805E+03         0.00000E+00
   -0.56805E+03        -0.47613E+08         0.00000E+00
    0.00000E+00         0.00000E+00        -0.60889E-07
 
    0.14152E+06         0.52815E+03         0.00000E+00
    0.52815E+03        -0.47620E+08         0.00000E+00
    0.00000E+00         0.00000E+00         0.45667E-07
 
    0.13538E+06         0.27755E+04         0.00000E+00
    0.27755E+04        -0.47628E+08         0.00000E+00
    0.00000E+00         0.00000E+00        -0.10148E-07
 
    0.12981E+06         0.57515E+04         0.00000E+00
    0.57515E+04        -0.47637E+08         0.00000E+00
    0.00000E+00         0.00000E+00         0.50741E-08
 
    0.12495E+06         0.91208E+04         0.00000E+00
    0.91208E+04        -0.47646E+08         0.00000E+00
    0.00000E+00         0.00000E+00        -0.60889E-07
 
    0.12089E+06         0.12682E+05         0.00000E+00
    0.12682E+05        -0.47656E+08         0.00000E+00
    0.00000E+00         0.00000E+00         0.55815E-07
 
    0.11769E+06         0.16317E+05         0.00000E+00
    0.16317E+05        -0.47666E+08         0.00000E+00
    0.00000E+00         0.00000E+00         0.25370E-07
 
    0.11539E+06         0.19956E+05         0.00000E+00
    0.19956E+05        -0.47677E+08         0.00000E+00
    0.00000E+00         0.00000E+00         0.20296E-07
 
    0.11396E+06         0.23560E+05         0.00000E+00
    0.23560E+05        -0.47687E+08         0.00000E+00
    0.00000E+00         0.00000E+00        -0.96407E-07
 
    0.11338E+06         0.27111E+05         0.00000E+00
    0.27111E+05        -0.47698E+08         0.00000E+00
    0.00000E+00         0.00000E+00        -0.20296E-07
 
    0.11363E+06         0.30606E+05         0.00000E+00
    0.30606E+05        -0.47710E+08         0.00000E+00
    0.00000E+00         0.00000E+00         0.00000E+00
 
    0.11467E+06         0.34050E+05         0.00000E+00
    0.34050E+05        -0.47722E+08         0.00000E+00
    0.00000E+00         0.00000E+00         0.25370E-07
 
    0.11646E+06         0.37457E+05         0.00000E+00
    0.37457E+05        -0.47734E+08         0.00000E+00
    0.00000E+00         0.00000E+00        -0.65963E-07
 
    0.11896E+06         0.40841E+05         0.00000E+00
    0.40841E+05        -0.47747E+08         0.00000E+00
    0.00000E+00         0.00000E+00         0.00000E+00
 
    0.12214E+06         0.44221E+05         0.00000E+00
    0.44221E+05        -0.47760E+08         0.00000E+00
    0.00000E+00         0.00000E+00        -0.50741E-07
 
    0.12596E+06         0.47617E+05         0.00000E+00
    0.47617E+05        -0.47774E+08         0.00000E+00
    0.00000E+00         0.00000E+00        -0.30444E-07
 
    0.13040E+06         0.51048E+05         0.00000E+00
    0.51048E+05        -0.47789E+08         0.00000E+00
    0.00000E+00         0.00000E+00         0.00000E+00
 
    0.13543E+06         0.54533E+05         0.00000E+00
    0.54533E+05        -0.47804E+08         0.00000E+00
    0.00000E+00         0.00000E+00         0.00000E+00
 
    0.14102E+06         0.58092E+05         0.00000E+00
    0.58092E+05        -0.47820E+08         0.00000E+00
    0.00000E+00         0.00000E+00        -0.40593E-07
 
    0.14717E+06         0.61742E+05         0.00000E+00
    0.61742E+05        -0.47837E+08         0.00000E+00
    0.00000E+00         0.00000E+00        -0.10148E-07
 
    0.15384E+06         0.65500E+05         0.00000E+00
    0.65500E+05        -0.47855E+08         0.00000E+00
    0.00000E+00         0.00000E+00        -0.50741E-08
 
    0.16104E+06         0.69381E+05         0.00000E+00
    0.69381E+05        -0.47874E+08         0.00000E+00
    0.00000E+00         0.00000E+00        -0.10148E-07
 
    0.16875E+06         0.73402E+05         0.00000E+00
    0.73402E+05        -0.47893E+08         0.00000E+00
    0.00000E+00         0.00000E+00         0.00000E+00
 
    0.17696E+06         0.77576E+05         0.00000E+00
    0.77576E+05        -0.47914E+08         0.00000E+00
    0.00000E+00         0.00000E+00        -0.10148E-07
 
    0.18567E+06         0.81917E+05         0.00000E+00
    0.81917E+05        -0.47936E+08         0.00000E+00
    0.00000E+00         0.00000E+00         0.50741E-08
 
    0.19488E+06         0.86438E+05         0.00000E+00
    0.86438E+05        -0.47959E+08         0.00000E+00
    0.00000E+00         0.00000E+00        -0.15222E-07
 
    0.20457E+06         0.91150E+05         0.00000E+00
    0.91150E+05        -0.47983E+08         0.00000E+00
    0.00000E+00         0.00000E+00        -0.10148E-07
 
    0.21475E+06         0.96066E+05         0.00000E+00
    0.96066E+05        -0.48009E+08         0.00000E+00
    0.00000E+00         0.00000E+00         0.00000E+00
 
    0.22542E+06         0.10120E+06         0.00000E+00
    0.10120E+06        -0.48036E+08         0.00000E+00
    0.00000E+00         0.00000E+00        -0.50741E-08
 
    0.23657E+06         0.10655E+06         0.00000E+00
    0.10655E+06        -0.48065E+08         0.00000E+00
    0.00000E+00         0.00000E+00        -0.10148E-07
 
    0.24822E+06         0.11215E+06         0.00000E+00
    0.11215E+06        -0.48095E+08         0.00000E+00
    0.00000E+00         0.00000E+00         0.25370E-07
 
    0.26035E+06         0.11798E+06         0.00000E+00
    0.11798E+06        -0.48127E+08         0.00000E+00
    0.00000E+00         0.00000E+00        -0.35518E-07
 
    0.27296E+06         0.12408E+06         0.00000E+00
    0.12408E+06        -0.48161E+08         0.00000E+00
    0.00000E+00         0.00000E+00         0.50741E-08
 
    0.28606E+06         0.13044E+06         0.00000E+00
    0.13044E+06        -0.48197E+08         0.00000E+00
    0.00000E+00         0.00000E+00        -0.45667E-07
 
    0.29965E+06         0.13707E+06         0.00000E+00
    0.13707E+06        -0.48235E+08         0.00000E+00
    0.00000E+00         0.00000E+00        -0.15222E-07
 
    0.31372E+06         0.14398E+06         0.00000E+00
    0.14398E+06        -0.48275E+08         0.00000E+00
    0.00000E+00         0.00000E+00        -0.71037E-07
 
    0.32826E+06         0.15119E+06         0.00000E+00
    0.15119E+06        -0.48317E+08         0.00000E+00
    0.00000E+00         0.00000E+00         0.10148E-06
 
    0.34328E+06         0.15869E+06         0.00000E+00
    0.15869E+06        -0.48362E+08         0.00000E+00
    0.00000E+00         0.00000E+00         0.76111E-07
 
    0.35876E+06         0.16649E+06         0.00000E+00
    0.16649E+06        -0.48409E+08         0.00000E+00
    0.00000E+00         0.00000E+00        -0.15222E-07
 
    0.37469E+06         0.17461E+06         0.00000E+00
    0.17461E+06        -0.48459E+08         0.00000E+00
    0.00000E+00         0.00000E+00        -0.71037E-07
 
    0.39106E+06         0.18305E+06         0.00000E+00
    0.18305E+06        -0.48512E+08         0.00000E+00
    0.00000E+00         0.00000E+00        -0.30444E-07
 
    0.40786E+06         0.19180E+06         0.00000E+00
    0.19180E+06        -0.48567E+08         0.00000E+00
    0.00000E+00         0.00000E+00        -0.15222E-07
 
    0.42506E+06         0.20088E+06         0.00000E+00
    0.20088E+06        -0.48626E+08         0.00000E+00
    0.00000E+00         0.00000E+00         0.30444E-07
 
    0.44264E+06         0.21029E+06         0.00000E+00
    0.21029E+06        -0.48688E+08         0.00000E+00
    0.00000E+00         0.00000E+00         0.60889E-07
 
    0.46057E+06         0.22003E+06         0.00000E+00
    0.22003E+06        -0.48753E+08         0.00000E+00
    0.00000E+00         0.00000E+00        -0.10148E-07
 
    0.47882E+06         0.23010E+06         0.00000E+00
    0.23010E+06        -0.48822E+08         0.00000E+00
    0.00000E+00         0.00000E+00         0.20296E-07
 
    0.49736E+06         0.24051E+06         0.00000E+00
    0.24051E+06        -0.48895E+08         0.00000E+00
    0.00000E+00         0.00000E+00        -0.65963E-07
 
    0.51614E+06         0.25124E+06         0.00000E+00
    0.25124E+06        -0.48971E+08         0.00000E+00
    0.00000E+00         0.00000E+00         0.00000E+00
 
    0.53511E+06         0.26230E+06         0.00000E+00
    0.26230E+06        -0.49052E+08         0.00000E+00
    0.00000E+00         0.00000E+00         0.40593E-07
 
    0.55421E+06         0.27368E+06         0.00000E+00
    0.27368E+06        -0.49137E+08         0.00000E+00
    0.00000E+00         0.00000E+00        -0.20296E-07
 
    0.57338E+06         0.28538E+06         0.00000E+00
    0.28538E+06        -0.49226E+08         0.00000E+00
    0.00000E+00         0.00000E+00        -0.45667E-07
 
    0.59255E+06         0.29737E+06         0.00000E+00
    0.29737E+06        -0.49320E+08         0.00000E+00
    0.00000E+00         0.00000E+00         0.00000E+00
 
    0.61163E+06         0.30966E+06         0.00000E+00
    0.30966E+06        -0.49419E+08         0.00000E+00
    0.00000E+00         0.00000E+00        -0.50741E-08
 
    0.63054E+06         0.32223E+06         0.00000E+00
    0.32223E+06        -0.49524E+08         0.00000E+00
    0.00000E+00         0.00000E+00         0.00000E+00
 
    0.64917E+06         0.33505E+06         0.00000E+00
    0.33505E+06        -0.49633E+08         0.00000E+00
    0.00000E+00         0.00000E+00        -0.40593E-07
 
    0.66741E+06         0.34811E+06         0.00000E+00
    0.34811E+06        -0.49748E+08         0.00000E+00
    0.00000E+00         0.00000E+00        -0.12178E-06
 
    0.68514E+06         0.36138E+06         0.00000E+00
    0.36138E+06        -0.49869E+08         0.00000E+00
    0.00000E+00         0.00000E+00         0.45667E-07
 
    0.70220E+06         0.37484E+06         0.00000E+00
    0.37484E+06        -0.49996E+08         0.00000E+00
    0.00000E+00         0.00000E+00        -0.10148E-07
 
    0.71846E+06         0.38844E+06         0.00000E+00
    0.38844E+06        -0.50129E+08         0.00000E+00
    0.00000E+00         0.00000E+00         0.35518E-07
 
    0.73373E+06         0.40216E+06         0.00000E+00
    0.40216E+06        -0.50269E+08         0.00000E+00
    0.00000E+00         0.00000E+00         0.10148E-07
 
    0.74783E+06         0.41594E+06         0.00000E+00
    0.41594E+06        -0.50415E+08         0.00000E+00
    0.00000E+00         0.00000E+00         0.15222E-07
 
    0.76055E+06         0.42973E+06         0.00000E+00
    0.42973E+06        -0.50569E+08         0.00000E+00
    0.00000E+00         0.00000E+00         0.50741E-08
 
    0.77166E+06         0.44349E+06         0.00000E+00
    0.44349E+06        -0.50729E+08         0.00000E+00
    0.00000E+00         0.00000E+00         0.00000E+00
 
    0.78091E+06         0.45714E+06         0.00000E+00
    0.45714E+06        -0.50897E+08         0.00000E+00
    0.00000E+00         0.00000E+00         0.20296E-07
 
    0.78803E+06         0.47061E+06         0.00000E+00
    0.47061E+06        -0.51073E+08         0.00000E+00
    0.00000E+00         0.00000E+00         0.40593E-07
 
    0.79272E+06         0.48381E+06         0.00000E+00
    0.48381E+06        -0.51257E+08         0.00000E+00
    0.00000E+00         0.00000E+00        -0.30444E-07
 
    0.79464E+06         0.49667E+06         0.00000E+00
    0.49667E+06        -0.51449E+08         0.00000E+00
    0.00000E+00         0.00000E+00         0.40593E-07
 
    0.79343E+06         0.50906E+06         0.00000E+00
    0.50906E+06        -0.51650E+08         0.00000E+00
    0.00000E+00         0.00000E+00         0.10148E-07
 
    0.78869E+06         0.52089E+06         0.00000E+00
    0.52089E+06        -0.51859E+08         0.00000E+00
    0.00000E+00         0.00000E+00         0.10148E-07
 
    0.77999E+06         0.53200E+06         0.00000E+00
    0.53200E+06        -0.52077E+08         0.00000E+00
    0.00000E+00         0.00000E+00         0.30444E-07
 
    0.76686E+06         0.54225E+06         0.00000E+00
    0.54225E+06        -0.52305E+08         0.00000E+00
    0.00000E+00         0.00000E+00         0.30444E-07
 
    0.74876E+06         0.55149E+06         0.00000E+00
    0.55149E+06        -0.52542E+08         0.00000E+00
    0.00000E+00         0.00000E+00         0.10148E-07
 
    0.72514E+06         0.55951E+06         0.00000E+00
    0.55951E+06        -0.52788E+08         0.00000E+00
    0.00000E+00         0.00000E+00         0.30444E-07
 
    0.69536E+06         0.56610E+06         0.00000E+00
    0.56610E+06        -0.53045E+08         0.00000E+00
    0.00000E+00         0.00000E+00         0.00000E+00
 
    0.65875E+06         0.57104E+06         0.00000E+00
    0.57104E+06        -0.53311E+08         0.00000E+00
    0.00000E+00         0.00000E+00        -0.40593E-07
 
    0.61455E+06         0.57405E+06         0.00000E+00
    0.57405E+06        -0.53587E+08         0.00000E+00
    0.00000E+00         0.00000E+00         0.10148E-07
 
    0.56195E+06         0.57482E+06         0.00000E+00
    0.57482E+06        -0.53874E+08         0.00000E+00
    0.00000E+00         0.00000E+00        -0.40593E-07
 
    0.50007E+06         0.57304E+06         0.00000E+00
    0.57304E+06        -0.54172E+08         0.00000E+00
    0.00000E+00         0.00000E+00         0.20296E-07
 
    0.42792E+06         0.56833E+06         0.00000E+00
    0.56833E+06        -0.54479E+08         0.00000E+00
    0.00000E+00         0.00000E+00        -0.20296E-07
 
    0.34446E+06         0.56027E+06         0.00000E+00
    0.56027E+06        -0.54798E+08         0.00000E+00
    0.00000E+00         0.00000E+00        -0.40593E-07
 
    0.24856E+06         0.54844E+06         0.00000E+00
    0.54844E+06        -0.55127E+08         0.00000E+00
    0.00000E+00         0.00000E+00        -0.50741E-07
 
    0.13898E+06         0.53234E+06         0.00000E+00
    0.53234E+06        -0.55467E+08         0.00000E+00
    0.00000E+00         0.00000E+00        -0.30444E-07
 
    0.14429E+05         0.51147E+06         0.00000E+00
    0.51147E+06        -0.55818E+08         0.00000E+00
    0.00000E+00         0.00000E+00         0.60889E-07
 
   -0.12649E+06         0.48531E+06         0.00000E+00
    0.48531E+06        -0.56179E+08         0.00000E+00
    0.00000E+00         0.00000E+00        -0.50741E-07
 
   -0.28522E+06         0.45335E+06         0.00000E+00
    0.45335E+06        -0.56551E+08         0.00000E+00
    0.00000E+00         0.00000E+00         0.20296E-07
 
   -0.46326E+06         0.41511E+06         0.00000E+00
    0.41511E+06        -0.56933E+08         0.00000E+00
    0.00000E+00         0.00000E+00         0.30444E-07
 
   -0.66210E+06         0.37018E+06         0.00000E+00
    0.37018E+06        -0.57324E+08         0.00000E+00
    0.00000E+00         0.00000E+00        -0.71037E-07
 
   -0.88318E+06         0.31832E+06         0.00000E+00
    0.31832E+06        -0.57725E+08         0.00000E+00
    0.00000E+00         0.00000E+00        -0.50741E-07
 
   -0.11278E+07         0.25948E+06         0.00000E+00
    0.25948E+06        -0.58134E+08         0.00000E+00
    0.00000E+00         0.00000E+00         0.50741E-07
 
   -0.13971E+07         0.19399E+06         0.00000E+00
    0.19399E+06        -0.58551E+08         0.00000E+00
    0.00000E+00         0.00000E+00        -0.10148E-07
 
   -0.16916E+07         0.12266E+06         0.00000E+00
    0.12266E+06        -0.58974E+08         0.00000E+00
    0.00000E+00         0.00000E+00         0.71037E-07
 
   -0.20115E+07         0.47031E+05         0.00000E+00
    0.47031E+05        -0.59402E+08         0.00000E+00
    0.00000E+00         0.00000E+00        -0.60889E-07
 
   -0.23556E+07        -0.30309E+05         0.00000E+00
   -0.30309E+05        -0.59833E+08         0.00000E+00
    0.00000E+00         0.00000E+00        -0.20296E-07
 
   -0.27215E+07        -0.10524E+06         0.00000E+00
   -0.10524E+06        -0.60264E+08         0.00000E+00
    0.00000E+00         0.00000E+00        -0.71037E-07
 
   -0.31045E+07        -0.17128E+06         0.00000E+00
   -0.17128E+06        -0.60690E+08         0.00000E+00
    0.00000E+00         0.00000E+00         0.10148E-07
 
   -0.34974E+07        -0.21790E+06         0.00000E+00
   -0.21790E+06        -0.61106E+08         0.00000E+00
    0.00000E+00         0.00000E+00         0.20296E-07
 
   -0.38923E+07        -0.22812E+06         0.00000E+00
   -0.22812E+06        -0.61493E+08         0.00000E+00
    0.00000E+00         0.00000E+00         0.91333E-07
 
   -0.42883E+07        -0.18090E+06         0.00000E+00
   -0.18090E+06        -0.61814E+08         0.00000E+00
    0.00000E+00         0.00000E+00         0.45475E-12
 
   -0.47009E+07        -0.70170E+05         0.00000E+00
   -0.70170E+05        -0.62004E+08         0.00000E+00
    0.00000E+00         0.00000E+00        -0.50740E-07
 
    0.15940E+06        -0.55086E+03         0.00000E+00
   -0.55086E+03        -0.47609E+08         0.00000E+00
    0.00000E+00         0.00000E+00         0.00000E+00
 
    0.15163E+06        -0.98243E+03         0.00000E+00
   -0.98243E+03        -0.47613E+08         0.00000E+00
    0.00000E+00         0.00000E+00         0.50741E-08
 
    0.14473E+06        -0.29585E+02         0.00000E+00
   -0.29585E+02        -0.47620E+08         0.00000E+00
    0.00000E+00         0.00000E+00        -0.10148E-07
 
    0.13836E+06         0.20979E+04         0.00000E+00
    0.20979E+04        -0.47629E+08         0.00000E+00
    0.00000E+00         0.00000E+00         0.10148E-07
 
    0.13254E+06         0.49203E+04         0.00000E+00
    0.49203E+04        -0.47638E+08         0.00000E+00
    0.00000E+00         0.00000E+00         0.15222E-07
 
    0.12745E+06         0.80991E+04         0.00000E+00
    0.80991E+04        -0.47647E+08         0.00000E+00
    0.00000E+00         0.00000E+00         0.60889E-07
 
    0.12319E+06         0.11445E+05         0.00000E+00
    0.11445E+05        -0.47657E+08         0.00000E+00
    0.00000E+00         0.00000E+00        -0.45667E-07
 
    0.11984E+06         0.14849E+05         0.00000E+00
    0.14849E+05        -0.47667E+08         0.00000E+00
    0.00000E+00         0.00000E+00        -0.30444E-07
 
    0.11742E+06         0.18248E+05         0.00000E+00
    0.18248E+05        -0.47677E+08         0.00000E+00
    0.00000E+00         0.00000E+00        -0.86259E-07
 
    0.11591E+06         0.21608E+05         0.00000E+00
    0.21608E+05        -0.47688E+08         0.00000E+00
    0.00000E+00         0.00000E+00        -0.15222E-07
 
    0.11529E+06         0.24914E+05         0.00000E+00
    0.24914E+05        -0.47699E+08         0.00000E+00
    0.00000E+00         0.00000E+00        -0.10148E-07
 
    0.11552E+06         0.28162E+05         0.00000E+00
    0.28162E+05        -0.47711E+08         0.00000E+00
    0.00000E+00         0.00000E+00        -0.65963E-07
 
    0.11657E+06         0.31359E+05         0.00000E+00
    0.31359E+05        -0.47722E+08         0.00000E+00
    0.00000E+00         0.00000E+00        -0.81185E-07
 
    0.11839E+06         0.34516E+05         0.00000E+00
    0.34516E+05        -0.47735E+08         0.00000E+00
    0.00000E+00         0.00000E+00         0.25370E-07
 
    0.12094E+06         0.37650E+05         0.00000E+00
    0.37650E+05        -0.47748E+08         0.00000E+00
    0.00000E+00         0.00000E+00        -0.15222E-07
 
    0.12418E+06         0.40778E+05         0.00000E+00
    0.40778E+05        -0.47761E+08         0.00000E+00
    0.00000E+00         0.00000E+00         0.60889E-07
 
    0.12809E+06         0.43917E+05         0.00000E+00
    0.43917E+05        -0.47775E+08         0.00000E+00
    0.00000E+00         0.00000E+00         0.50741E-08
 
    0.13262E+06         0.47087E+05         0.00000E+00
    0.47087E+05        -0.47790E+08         0.00000E+00
    0.00000E+00         0.00000E+00        -0.11670E-06
 
    0.13776E+06         0.50306E+05         0.00000E+00
    0.50306E+05        -0.47805E+08         0.00000E+00
    0.00000E+00         0.00000E+00        -0.25370E-07
 
    0.14348E+06         0.53592E+05         0.00000E+00
    0.53592E+05        -0.47821E+08         0.00000E+00
    0.00000E+00         0.00000E+00         0.10148E-07
 
    0.14976E+06         0.56960E+05         0.00000E+00
    0.56960E+05        -0.47838E+08         0.00000E+00
    0.00000E+00         0.00000E+00        -0.15222E-07
 
    0.15658E+06         0.60427E+05         0.00000E+00
    0.60427E+05        -0.47856E+08         0.00000E+00
    0.00000E+00         0.00000E+00         0.25370E-07
 
    0.16394E+06         0.64008E+05         0.00000E+00
    0.64008E+05        -0.47874E+08         0.00000E+00
    0.00000E+00         0.00000E+00        -0.71037E-07
 
    0.17181E+06         0.67716E+05         0.00000E+00
    0.67716E+05        -0.47894E+08         0.00000E+00
    0.00000E+00         0.00000E+00         0.13700E-06
 
    0.18019E+06         0.71566E+05         0.00000E+00
    0.71566E+05        -0.47915E+08         0.00000E+00
    0.00000E+00         0.00000E+00        -0.35518E-07
 
    0.18909E+06         0.75569E+05         0.00000E+00
    0.75569E+05        -0.47937E+08         0.00000E+00
    0.00000E+00         0.00000E+00        -0.10148E-07
 
    0.19848E+06         0.79737E+05         0.00000E+00
    0.79737E+05        -0.47960E+08         0.00000E+00
    0.00000E+00         0.00000E+00        -0.15222E-07
 
    0.20837E+06         0.84083E+05         0.00000E+00
    0.84083E+05        -0.47984E+08         0.00000E+00
    0.00000E+00         0.00000E+00         0.00000E+00
 
    0.21876E+06         0.88616E+05         0.00000E+00
    0.88616E+05        -0.48010E+08         0.00000E+00
    0.00000E+00         0.00000E+00         0.55815E-07
 
    0.22965E+06         0.93347E+05         0.00000E+00
    0.93347E+05        -0.48037E+08         0.00000E+00
    0.00000E+00         0.00000E+00         0.81185E-07
 
    0.24104E+06         0.98285E+05         0.00000E+00
    0.98285E+05        -0.48066E+08         0.00000E+00
    0.00000E+00         0.00000E+00        -0.55815E-07
 
    0.25292E+06         0.10344E+06         0.00000E+00
    0.10344E+06        -0.48096E+08         0.00000E+00
    0.00000E+00         0.00000E+00         0.00000E+00
 
    0.26530E+06         0.10882E+06         0.00000E+00
    0.10882E+06        -0.48129E+08         0.00000E+00
    0.00000E+00         0.00000E+00        -0.45667E-07
 
    0.27818E+06         0.11444E+06         0.00000E+00
    0.11444E+06        -0.48162E+08         0.00000E+00
    0.00000E+00         0.00000E+00        -0.30444E-07
 
    0.29155E+06         0.12030E+06         0.00000E+00
    0.12030E+06        -0.48198E+08         0.00000E+00
    0.00000E+00         0.00000E+00         0.81185E-07
 
    0.30542E+06         0.12642E+06         0.00000E+00
    0.12642E+06        -0.48236E+08         0.00000E+00
    0.00000E+00         0.00000E+00         0.15222E-07
 
    0.31978E+06         0.13279E+06         0.00000E+00
    0.13279E+06        -0.48276E+08         0.00000E+00
    0.00000E+00         0.00000E+00         0.00000E+00
 
    0.33463E+06         0.13943E+06         0.00000E+00
    0.13943E+06        -0.48319E+08         0.00000E+00
    0.00000E+00         0.00000E+00        -0.35518E-07
 
    0.34996E+06         0.14635E+06         0.00000E+00
    0.14635E+06        -0.48363E+08         0.00000E+00
    0.00000E+00         0.00000E+00        -0.10148E-07
 
    0.36577E+06         0.15354E+06         0.00000E+00
    0.15354E+06        -0.48411E+08         0.00000E+00
    0.00000E+00         0.00000E+00         0.40593E-07
 
    0.38204E+06         0.16102E+06         0.00000E+00
    0.16102E+06        -0.48461E+08         0.00000E+00
    0.00000E+00         0.00000E+00         0.20296E-07
 
    0.39876E+06         0.16879E+06         0.00000E+00
    0.16879E+06        -0.48513E+08         0.00000E+00
    0.00000E+00         0.00000E+00         0.50741E-08
 
    0.41592E+06         0.17686E+06         0.00000E+00
    0.17686E+06        -0.48569E+08         0.00000E+00
    0.00000E+00         0.00000E+00         0.50741E-08
 
    0.43349E+06         0.18523E+06         0.00000E+00
    0.18523E+06        -0.48628E+08         0.00000E+00
    0.00000E+00         0.00000E+00        -0.15222E-07
 
    0.45145E+06         0.19390E+06         0.00000E+00
    0.19390E+06        -0.48690E+08         0.00000E+00
    0.00000E+00         0.00000E+00         0.00000E+00
 
    0.46978E+06         0.20288E+06         0.00000E+00
    0.20288E+06        -0.48755E+08         0.00000E+00
    0.00000E+00         0.00000E+00         0.60889E-07
 
    0.48844E+06         0.21216E+06         0.00000E+00
    0.21216E+06        -0.48824E+08         0.00000E+00
    0.00000E+00         0.00000E+00        -0.50741E-07
 
    0.50739E+06         0.22174E+06         0.00000E+00
    0.22174E+06        -0.48897E+08         0.00000E+00
    0.00000E+00         0.00000E+00         0.35518E-07
 
    0.52659E+06         0.23163E+06         0.00000E+00
    0.23163E+06        -0.48973E+08         0.00000E+00
    0.00000E+00         0.00000E+00         0.30444E-07
 
    0.54599E+06         0.24182E+06         0.00000E+00
    0.24182E+06        -0.49054E+08         0.00000E+00
    0.00000E+00         0.00000E+00         0.10148E-07
 
    0.56554E+06         0.25230E+06         0.00000E+00
    0.25230E+06        -0.49139E+08         0.00000E+00
    0.00000E+00         0.00000E+00         0.12178E-06
 
    0.58516E+06         0.26307E+06         0.00000E+00
    0.26307E+06        -0.49229E+08         0.00000E+00
    0.00000E+00         0.00000E+00         0.60889E-07
 
    0.60479E+06         0.27412E+06         0.00000E+00
    0.27412E+06        -0.49323E+08         0.00000E+00
    0.00000E+00         0.00000E+00         0.10148E-07
 
    0.62433E+06         0.28543E+06         0.00000E+00
    0.28543E+06        -0.49422E+08         0.00000E+00
    0.00000E+00         0.00000E+00        -0.50741E-07
 
    0.64371E+06         0.29700E+06         0.00000E+00
    0.29700E+06        -0.49526E+08         0.00000E+00
    0.00000E+00         0.00000E+00         0.00000E+00
 
    0.66282E+06         0.30880E+06         0.00000E+00
    0.30880E+06        -0.49636E+08         0.00000E+00
    0.00000E+00         0.00000E+00        -0.20296E-07
 
    0.68153E+06         0.32083E+06         0.00000E+00
    0.32083E+06        -0.49751E+08         0.00000E+00
    0.00000E+00         0.00000E+00        -0.10148E-07
 
    0.69973E+06         0.33304E+06         0.00000E+00
    0.33304E+06        -0.49872E+08         0.00000E+00
    0.00000E+00         0.00000E+00        -0.50741E-07
 
    0.71727E+06         0.34542E+06         0.00000E+00
    0.34542E+06        -0.49999E+08         0.00000E+00
    0.00000E+00         0.00000E+00        -0.71037E-07
 
    0.73399E+06         0.35794E+06         0.00000E+00
    0.35794E+06        -0.50132E+08         0.00000E+00
    0.00000E+00         0.00000E+00         0.10148E-07
 
    0.74973E+06         0.37055E+06         0.00000E+00
    0.37055E+06        -0.50271E+08         0.00000E+00
    0.00000E+00         0.00000E+00         0.20296E-07
 
    0.76428E+06         0.38323E+06         0.00000E+00
    0.38323E+06        -0.50418E+08         0.00000E+00
    0.00000E+00         0.00000E+00         0.00000E+00
 
    0.77744E+06         0.39591E+06         0.00000E+00
    0.39591E+06        -0.50571E+08         0.00000E+00
    0.00000E+00         0.00000E+00         0.10148E-07
 
    0.78899E+06         0.40856E+06         0.00000E+00
    0.40856E+06        -0.50732E+08         0.00000E+00
    0.00000E+00         0.00000E+00        -0.50741E-07
 
    0.79865E+06         0.42110E+06         0.00000E+00
    0.42110E+06        -0.50900E+08         0.00000E+00
    0.00000E+00         0.00000E+00        -0.20296E-07
 
    0.80616E+06         0.43348E+06         0.00000E+00
    0.43348E+06        -0.51076E+08         0.00000E+00
    0.00000E+00         0.00000E+00         0.00000E+00
 
    0.81121E+06         0.44561E+06         0.00000E+00
    0.44561E+06        -0.51260E+08         0.00000E+00
    0.00000E+00         0.00000E+00        -0.30444E-07
 
    0.81346E+06         0.45741E+06         0.00000E+00
    0.45741E+06        -0.51452E+08         0.00000E+00
    0.00000E+00         0.00000E+00        -0.10148E-07
 
    0.81254E+06         0.46879E+06         0.00000E+00
    0.46879E+06        -0.51652E+08         0.00000E+00
    0.00000E+00         0.00000E+00        -0.20296E-07
 
    0.80806E+06         0.47962E+06         0.00000E+00
    0.47962E+06        -0.51861E+08         0.00000E+00
    0.00000E+00         0.00000E+00         0.60889E-07
 
    0.79956E+06         0.48980E+06         0.00000E+00
    0.48980E+06        -0.52080E+08         0.00000E+00
    0.00000E+00         0.00000E+00        -0.30444E-07
 
    0.78656E+06         0.49919E+06         0.00000E+00
    0.49919E+06        -0.52307E+08         0.00000E+00
    0.00000E+00         0.00000E+00        -0.81185E-07
 
    0.76854E+06         0.50762E+06         0.00000E+00
    0.50762E+06        -0.52543E+08         0.00000E+00
    0.00000E+00         0.00000E+00         0.00000E+00
 
    0.74491E+06         0.51493E+06         0.00000E+00
    0.51493E+06        -0.52790E+08         0.00000E+00
    0.00000E+00         0.00000E+00         0.40593E-07
 
    0.71503E+06         0.52091E+06         0.00000E+00
    0.52091E+06        -0.53046E+08         0.00000E+00
    0.00000E+00         0.00000E+00        -0.40593E-07
 
    0.67821E+06         0.52535E+06         0.00000E+00
    0.52535E+06        -0.53312E+08         0.00000E+00
    0.00000E+00         0.00000E+00         0.10148E-07
 
    0.63368E+06         0.52799E+06         0.00000E+00
    0.52799E+06        -0.53588E+08         0.00000E+00
    0.00000E+00         0.00000E+00         0.20296E-07
 
    0.58060E+06         0.52856E+06         0.00000E+00
    0.52856E+06        -0.53874E+08         0.00000E+00
    0.00000E+00         0.00000E+00         0.00000E+00
 
    0.51805E+06         0.52675E+06         0.00000E+00
    0.52675E+06        -0.54171E+08         0.00000E+00
    0.00000E+00         0.00000E+00         0.00000E+00
 
    0.44504E+06         0.52219E+06         0.00000E+00
    0.52219E+06        -0.54478E+08         0.00000E+00
    0.00000E+00         0.00000E+00         0.20296E-07
 
    0.36047E+06         0.51453E+06         0.00000E+00
    0.51453E+06        -0.54796E+08         0.00000E+00
    0.00000E+00         0.00000E+00        -0.50741E-07
 
    0.26316E+06         0.50332E+06         0.00000E+00
    0.50332E+06        -0.55125E+08         0.00000E+00
    0.00000E+00         0.00000E+00        -0.60889E-07
 
    0.15183E+06         0.48812E+06         0.00000E+00
    0.48812E+06        -0.55464E+08         0.00000E+00
    0.00000E+00         0.00000E+00        -0.30444E-07
 
    0.25116E+05         0.46846E+06         0.00000E+00
    0.46846E+06        -0.55813E+08         0.00000E+00
    0.00000E+00         0.00000E+00         0.50741E-07
 
   -0.11845E+06         0.44382E+06         0.00000E+00
    0.44382E+06        -0.56173E+08         0.00000E+00
    0.00000E+00         0.00000E+00         0.50741E-07
 
   -0.28041E+06         0.41373E+06         0.00000E+00
    0.41373E+06        -0.56544E+08         0.00000E+00
    0.00000E+00         0.00000E+00        -0.50741E-07
 
   -0.46235E+06         0.37771E+06         0.00000E+00
    0.37771E+06        -0.56924E+08         0.00000E+00
    0.00000E+00         0.00000E+00         0.81185E-07
 
   -0.66588E+06         0.33538E+06         0.00000E+00
    0.33538E+06        -0.57315E+08         0.00000E+00
    0.00000E+00         0.00000E+00         0.40593E-07
 
   -0.89257E+06         0.28647E+06         0.00000E+00
    0.28647E+06        -0.57714E+08         0.00000E+00
    0.00000E+00         0.00000E+00        -0.60889E-07
 
   -0.11439E+07         0.23093E+06         0.00000E+00
    0.23093E+06        -0.58122E+08         0.00000E+00
    0.00000E+00         0.00000E+00        -0.12178E-06
 
   -0.14210E+07         0.16902E+06         0.00000E+00
    0.16902E+06        -0.58537E+08         0.00000E+00
    0.00000E+00         0.00000E+00        -0.71037E-07
 
   -0.17247E+07         0.10146E+06         0.00000E+00
    0.10146E+06        -0.58960E+08         0.00000E+00
    0.00000E+00         0.00000E+00        -0.60889E-07
 
   -0.20552E+07         0.29650E+05         0.00000E+00
    0.29650E+05        -0.59387E+08         0.00000E+00
    0.00000E+00         0.00000E+00        -0.20296E-07
 
   -0.24114E+07        -0.44078E+05         0.00000E+00
   -0.44078E+05        -0.59818E+08         0.00000E+00
    0.00000E+00         0.00000E+00         0.60889E-07
 
   -0.27909E+07        -0.11597E+06         0.00000E+00
   -0.11597E+06        -0.60249E+08         0.00000E+00
    0.00000E+00         0.00000E+00         0.13193E-06
 
   -0.31887E+07        -0.18005E+06         0.00000E+00
   -0.18005E+06        -0.60679E+08         0.00000E+00
    0.00000E+00         0.00000E+00         0.81185E-07
 
   -0.35970E+07        -0.22641E+06         0.00000E+00
   -0.22641E+06        -0.61099E+08         0.00000E+00
    0.00000E+00         0.00000E+00        -0.20296E-07
 
   -0.40055E+07        -0.23793E+06         0.00000E+00
   -0.23793E+06        -0.61496E+08         0.00000E+00
    0.00000E+00         0.00000E+00         0.50741E-07
 
   -0.44104E+07        -0.19077E+06         0.00000E+00
   -0.19077E+06        -0.61831E+08         0.00000E+00
    0.00000E+00         0.00000E+00        -0.60889E-07
 
   -0.48262E+07        -0.74689E+05         0.00000E+00
   -0.74689E+05        -0.62032E+08         0.00000E+00
    0.00000E+00         0.00000E+00         0.60888E-07
 
    0.16286E+06        -0.71195E+03         0.00000E+00
   -0.71195E+03        -0.47609E+08         0.00000E+00
    0.00000E+00         0.00000E+00         0.00000E+00
 
    0.15503E+06        -0.13778E+04         0.00000E+00
   -0.13778E+04        -0.47613E+08         0.00000E+00
    0.00000E+00         0.00000E+00         0.30444E-07
 
    0.14795E+06        -0.54401E+03         0.00000E+00
   -0.54401E+03        -0.47621E+08         0.00000E+00
    0.00000E+00         0.00000E+00         0.20296E-07
 
    0.14131E+06         0.14740E+04         0.00000E+00
    0.14740E+04        -0.47629E+08         0.00000E+00
    0.00000E+00         0.00000E+00         0.91333E-07
 
    0.13521E+06         0.41403E+04         0.00000E+00
    0.41403E+04        -0.47638E+08         0.00000E+00
    0.00000E+00         0.00000E+00         0.50741E-07
 
    0.12987E+06         0.71212E+04         0.00000E+00
    0.71212E+04        -0.47648E+08         0.00000E+00
    0.00000E+00         0.00000E+00        -0.10148E-07
 
    0.12542E+06         0.10243E+05         0.00000E+00
    0.10243E+05        -0.47658E+08         0.00000E+00
    0.00000E+00         0.00000E+00         0.20296E-07
 
    0.12191E+06         0.13408E+05         0.00000E+00
    0.13408E+05        -0.47668E+08         0.00000E+00
    0.00000E+00         0.00000E+00        -0.10148E-07
 
    0.11937E+06         0.16560E+05         0.00000E+00
    0.16560E+05        -0.47678E+08         0.00000E+00
    0.00000E+00         0.00000E+00        -0.20296E-07
 
    0.11778E+06         0.19670E+05         0.00000E+00
    0.19670E+05        -0.47689E+08         0.00000E+00
    0.00000E+00         0.00000E+00        -0.30444E-07
 
    0.11711E+06         0.22723E+05         0.00000E+00
    0.22723E+05        -0.47700E+08         0.00000E+00
    0.00000E+00         0.00000E+00        -0.20296E-07
 
    0.11732E+06         0.25719E+05         0.00000E+00
    0.25719E+05        -0.47711E+08         0.00000E+00
    0.00000E+00         0.00000E+00         0.00000E+00
 
    0.11838E+06         0.28663E+05         0.00000E+00
    0.28663E+05        -0.47723E+08         0.00000E+00
    0.00000E+00         0.00000E+00        -0.20296E-07
 
    0.12023E+06         0.31568E+05         0.00000E+00
    0.31568E+05        -0.47735E+08         0.00000E+00
    0.00000E+00         0.00000E+00         0.20296E-07
 
    0.12283E+06         0.34448E+05         0.00000E+00
    0.34448E+05        -0.47748E+08         0.00000E+00
    0.00000E+00         0.00000E+00         0.00000E+00
 
    0.12614E+06         0.37319E+05         0.00000E+00
    0.37319E+05        -0.47762E+08         0.00000E+00
    0.00000E+00         0.00000E+00         0.10148E-07
 
    0.13014E+06         0.40199E+05         0.00000E+00
    0.40199E+05        -0.47776E+08         0.00000E+00
    0.00000E+00         0.00000E+00         0.20296E-07
 
    0.13477E+06         0.43106E+05         0.00000E+00
    0.43106E+05        -0.47790E+08         0.00000E+00
    0.00000E+00         0.00000E+00        -0.30444E-07
 
    0.14002E+06         0.46056E+05         0.00000E+00
    0.46056E+05        -0.47805E+08         0.00000E+00
    0.00000E+00         0.00000E+00         0.10148E-07
 
    0.14586E+06         0.49065E+05         0.00000E+00
    0.49065E+05        -0.47822E+08         0.00000E+00
    0.00000E+00         0.00000E+00         0.20296E-07
 
    0.15227E+06         0.52150E+05         0.00000E+00
    0.52150E+05        -0.47838E+08         0.00000E+00
    0.00000E+00         0.00000E+00        -0.60889E-07
 
    0.15924E+06         0.55324E+05         0.00000E+00
    0.55324E+05        -0.47856E+08         0.00000E+00
    0.00000E+00         0.00000E+00        -0.81185E-07
 
    0.16674E+06         0.58602E+05         0.00000E+00
    0.58602E+05        -0.47875E+08         0.00000E+00
    0.00000E+00         0.00000E+00         0.20296E-07
 
    0.17478E+06         0.61997E+05         0.00000E+00
    0.61997E+05        -0.47895E+08         0.00000E+00
    0.00000E+00         0.00000E+00        -0.20296E-07
 
    0.18334E+06         0.65520E+05         0.00000E+00
    0.65520E+05        -0.47916E+08         0.00000E+00
    0.00000E+00         0.00000E+00        -0.40592E-07
 
    0.19241E+06         0.69184E+05         0.00000E+00
    0.69184E+05        -0.47937E+08         0.00000E+00
    0.00000E+00         0.00000E+00        -0.10148E-07
 
    0.20199E+06         0.72998E+05         0.00000E+00
    0.72998E+05        -0.47961E+08         0.00000E+00
    0.00000E+00         0.00000E+00         0.00000E+00
 
    0.21208E+06         0.76975E+05         0.00000E+00
    0.76975E+05        -0.47985E+08         0.00000E+00
    0.00000E+00         0.00000E+00         0.60889E-07
 
    0.22268E+06         0.81123E+05         0.00000E+00
    0.81123E+05        -0.48011E+08         0.00000E+00
    0.00000E+00         0.00000E+00         0.40592E-07
 
    0.23379E+06         0.85452E+05         0.00000E+00
    0.85452E+05        -0.48038E+08         0.00000E+00
    0.00000E+00         0.00000E+00         0.10148E-07
 
    0.24540E+06         0.89970E+05         0.00000E+00
    0.89970E+05        -0.48067E+08         0.00000E+00
    0.00000E+00         0.00000E+00         0.71037E-07
 
    0.25752E+06         0.94688E+05         0.00000E+00
    0.94688E+05        -0.48097E+08         0.00000E+00
    0.00000E+00         0.00000E+00         0.71037E-07
 
    0.27015E+06         0.99613E+05         0.00000E+00
    0.99613E+05        -0.48130E+08         0.00000E+00
    0.00000E+00         0.00000E+00        -0.10148E-07
 
    0.28328E+06         0.10475E+06         0.00000E+00
    0.10475E+06        -0.48164E+08         0.00000E+00
    0.00000E+00         0.00000E+00        -0.10148E-07
 
    0.29692E+06         0.11012E+06         0.00000E+00
    0.11012E+06        -0.48200E+08         0.00000E+00
    0.00000E+00         0.00000E+00         0.40593E-07
 
    0.31107E+06         0.11571E+06         0.00000E+00
    0.11571E+06        -0.48237E+08         0.00000E+00
    0.00000E+00         0.00000E+00        -0.60889E-07
 
    0.32572E+06         0.12154E+06         0.00000E+00
    0.12154E+06        -0.48278E+08         0.00000E+00
    0.00000E+00         0.00000E+00         0.10148E-07
 
    0.34087E+06         0.12761E+06         0.00000E+00
    0.12761E+06        -0.48320E+08         0.00000E+00
    0.00000E+00         0.00000E+00         0.20296E-07
 
    0.35651E+06         0.13394E+06         0.00000E+00
    0.13394E+06        -0.48365E+08         0.00000E+00
    0.00000E+00         0.00000E+00         0.50741E-07
 
    0.37264E+06         0.14052E+06         0.00000E+00
    0.14052E+06        -0.48412E+08         0.00000E+00
    0.00000E+00         0.00000E+00        -0.10148E-06
 
    0.38924E+06         0.14736E+06         0.00000E+00
    0.14736E+06        -0.48462E+08         0.00000E+00
    0.00000E+00         0.00000E+00         0.00000E+00
 
    0.40630E+06         0.15447E+06         0.00000E+00
    0.15447E+06        -0.48515E+08         0.00000E+00
    0.00000E+00         0.00000E+00         0.10148E-07
 
    0.42382E+06         0.16185E+06         0.00000E+00
    0.16185E+06        -0.48571E+08         0.00000E+00
    0.00000E+00         0.00000E+00        -0.30444E-07
 
    0.44175E+06         0.16950E+06         0.00000E+00
    0.16950E+06        -0.48629E+08         0.00000E+00
    0.00000E+00         0.00000E+00        -0.60889E-07
 
    0.46010E+06         0.17743E+06         0.00000E+00
    0.17743E+06        -0.48691E+08         0.00000E+00
    0.00000E+00         0.00000E+00        -0.30444E-07
 
    0.47881E+06         0.18564E+06         0.00000E+00
    0.18564E+06        -0.48757E+08         0.00000E+00
    0.00000E+00         0.00000E+00         0.10148E-07
 
    0.49787E+06         0.19413E+06         0.00000E+00
    0.19413E+06        -0.48826E+08         0.00000E+00
    0.00000E+00         0.00000E+00         0.81185E-07
 
    0.51724E+06         0.20289E+06         0.00000E+00
    0.20289E+06        -0.48899E+08         0.00000E+00
    0.00000E+00         0.00000E+00         0.20296E-07
 
    0.53686E+06         0.21193E+06         0.00000E+00
    0.21193E+06        -0.48975E+08         0.00000E+00
    0.00000E+00         0.00000E+00         0.60889E-07
 
    0.55669E+06         0.22124E+06         0.00000E+00
    0.22124E+06        -0.49056E+08         0.00000E+00
    0.00000E+00         0.00000E+00        -0.30444E-07
 
    0.57668E+06         0.23083E+06         0.00000E+00
    0.23083E+06        -0.49141E+08         0.00000E+00
    0.00000E+00         0.00000E+00        -0.50741E-07
 
    0.59675E+06         0.24067E+06         0.00000E+00
    0.24067E+06        -0.49231E+08         0.00000E+00
    0.00000E+00         0.00000E+00        -0.60889E-07
 
    0.61683E+06         0.25077E+06         0.00000E+00
    0.25077E+06        -0.49325E+08         0.00000E+00
    0.00000E+00         0.00000E+00         0.10148E-07
 
    0.63684E+06         0.26111E+06         0.00000E+00
    0.26111E+06        -0.49424E+08         0.00000E+00
    0.00000E+00         0.00000E+00         0.71037E-07
 
    0.65669E+06         0.27168E+06         0.00000E+00
    0.27168E+06        -0.49528E+08         0.00000E+00
    0.00000E+00         0.00000E+00         0.00000E+00
 
    0.67627E+06         0.28246E+06         0.00000E+00
    0.28246E+06        -0.49638E+08         0.00000E+00
    0.00000E+00         0.00000E+00        -0.60889E-07
 
    0.69546E+06         0.29345E+06         0.00000E+00
    0.29345E+06        -0.49753E+08         0.00000E+00
    0.00000E+00         0.00000E+00        -0.71037E-07
 
    0.71413E+06         0.30460E+06         0.00000E+00
    0.30460E+06        -0.49874E+08         0.00000E+00
    0.00000E+00         0.00000E+00         0.20296E-07
 
    0.73215E+06         0.31591E+06         0.00000E+00
    0.31591E+06        -0.50001E+08         0.00000E+00
    0.00000E+00         0.00000E+00         0.20296E-07
 
    0.74935E+06         0.32734E+06         0.00000E+00
    0.32734E+06        -0.50134E+08         0.00000E+00
    0.00000E+00         0.00000E+00        -0.71037E-07
 
    0.76555E+06         0.33886E+06         0.00000E+00
    0.33886E+06        -0.50274E+08         0.00000E+00
    0.00000E+00         0.00000E+00         0.00000E+00
 
    0.78057E+06         0.35043E+06         0.00000E+00
    0.35043E+06        -0.50420E+08         0.00000E+00
    0.00000E+00         0.00000E+00         0.10148E-07
 
    0.79419E+06         0.36201E+06         0.00000E+00
    0.36201E+06        -0.50574E+08         0.00000E+00
    0.00000E+00         0.00000E+00         0.30444E-07
 
    0.80617E+06         0.37355E+06         0.00000E+00
    0.37355E+06        -0.50734E+08         0.00000E+00
    0.00000E+00         0.00000E+00         0.10148E-07
 
    0.81626E+06         0.38499E+06         0.00000E+00
    0.38499E+06        -0.50902E+08         0.00000E+00
    0.00000E+00         0.00000E+00         0.30444E-07
 
    0.82417E+06         0.39628E+06         0.00000E+00
    0.39628E+06        -0.51078E+08         0.00000E+00
    0.00000E+00         0.00000E+00         0.10148E-07
 
    0.82960E+06         0.40734E+06         0.00000E+00
    0.40734E+06        -0.51262E+08         0.00000E+00
    0.00000E+00         0.00000E+00         0.00000E+00
 
    0.83220E+06         0.41809E+06         0.00000E+00
    0.41809E+06        -0.51454E+08         0.00000E+00
    0.00000E+00         0.00000E+00         0.10148E-07
 
    0.83160E+06         0.42845E+06         0.00000E+00
    0.42845E+06        -0.51654E+08         0.00000E+00
    0.00000E+00         0.00000E+00        -0.30444E-07
 
    0.82739E+06         0.43831E+06         0.00000E+00
    0.43831E+06        -0.51863E+08         0.00000E+00
    0.00000E+00         0.00000E+00        -0.60889E-07
 
    0.81913E+06         0.44757E+06         0.00000E+00
    0.44757E+06        -0.52081E+08         0.00000E+00
    0.00000E+00         0.00000E+00         0.40593E-07
 
    0.80631E+06         0.45610E+06         0.00000E+00
    0.45610E+06        -0.52308E+08         0.00000E+00
    0.00000E+00         0.00000E+00        -0.71037E-07
 
    0.78840E+06         0.46375E+06         0.00000E+00
    0.46375E+06        -0.52545E+08         0.00000E+00
    0.00000E+00         0.00000E+00         0.10148E-07
 
    0.76481E+06         0.47035E+06         0.00000E+00
    0.47035E+06        -0.52791E+08         0.00000E+00
    0.00000E+00         0.00000E+00         0.20296E-07
 
    0.73488E+06         0.47574E+06         0.00000E+00
    0.47574E+06        -0.53047E+08         0.00000E+00
    0.00000E+00         0.00000E+00        -0.50741E-07
 
    0.69791E+06         0.47971E+06         0.00000E+00
    0.47971E+06        -0.53312E+08         0.00000E+00
    0.00000E+00         0.00000E+00        -0.60889E-07
 
    0.65310E+06         0.48202E+06         0.00000E+00
    0.48202E+06        -0.53588E+08         0.00000E+00
    0.00000E+00         0.00000E+00        -0.40593E-07
 
    0.59961E+06         0.48241E+06         0.00000E+00
    0.48241E+06        -0.53874E+08         0.00000E+00
    0.00000E+00         0.00000E+00         0.00000E+00
 
    0.53648E+06         0.48059E+06         0.00000E+00
    0.48059E+06        -0.54170E+08         0.00000E+00
    0.00000E+00         0.00000E+00        -0.14207E-06
 
    0.46269E+06         0.47625E+06         0.00000E+00
    0.47625E+06        -0.54477E+08         0.00000E+00
    0.00000E+00         0.00000E+00         0.10148E-07
 
    0.37711E+06         0.46902E+06         0.00000E+00
    0.46902E+06        -0.54794E+08         0.00000E+00
    0.00000E+00         0.00000E+00         0.20296E-07
 
    0.27850E+06         0.45851E+06         0.00000E+00
    0.45851E+06        -0.55122E+08         0.00000E+00
    0.00000E+00         0.00000E+00        -0.30444E-07
 
    0.16554E+06         0.44429E+06         0.00000E+00
    0.44429E+06        -0.55460E+08         0.00000E+00
    0.00000E+00         0.00000E+00        -0.20296E-07
 
    0.36784E+05         0.42591E+06         0.00000E+00
    0.42591E+06        -0.55809E+08         0.00000E+00
    0.00000E+00         0.00000E+00         0.10148E-07
 
   -0.10930E+06         0.40290E+06         0.00000E+00
    0.40290E+06        -0.56168E+08         0.00000E+00
    0.00000E+00         0.00000E+00        -0.12178E-06
 
   -0.27435E+06         0.37480E+06         0.00000E+00
    0.37480E+06        -0.56538E+08         0.00000E+00
    0.00000E+00         0.00000E+00         0.50741E-07
 
   -0.46006E+06         0.34116E+06         0.00000E+00
    0.34116E+06        -0.56917E+08         0.00000E+00
    0.00000E+00         0.00000E+00         0.20296E-07
 
   -0.66814E+06         0.30159E+06         0.00000E+00
    0.30159E+06        -0.57306E+08         0.00000E+00
    0.00000E+00         0.00000E+00         0.00000E+00
 
   -0.90032E+06         0.25583E+06         0.00000E+00
    0.25583E+06        -0.57704E+08         0.00000E+00
    0.00000E+00         0.00000E+00        -0.60889E-07
 
   -0.11582E+07         0.20381E+06         0.00000E+00
    0.20381E+06        -0.58111E+08         0.00000E+00
    0.00000E+00         0.00000E+00         0.60889E-07
 
   -0.14431E+07         0.14574E+06         0.00000E+00
    0.14574E+06        -0.58525E+08         0.00000E+00
    0.00000E+00         0.00000E+00         0.40593E-07
 
   -0.17560E+07         0.82245E+05         0.00000E+00
    0.82245E+05        -0.58946E+08         0.00000E+00
    0.00000E+00         0.00000E+00        -0.10148E-07
 
   -0.20971E+07         0.14557E+05         0.00000E+00
    0.14557E+05        -0.59373E+08         0.00000E+00
    0.00000E+00         0.00000E+00        -0.20296E-07
 
   -0.24657E+07        -0.55237E+05         0.00000E+00
   -0.55237E+05        -0.59803E+08         0.00000E+00
    0.00000E+00         0.00000E+00        -0.40593E-07
 
   -0.28592E+07        -0.12377E+06         0.00000E+00
   -0.12377E+06        -0.60236E+08         0.00000E+00
    0.00000E+00         0.00000E+00         0.00000E+00
 
   -0.32727E+07        -0.18564E+06         0.00000E+00
   -0.18564E+06        -0.60667E+08         0.00000E+00
    0.00000E+00         0.00000E+00        -0.10148E-07
 
   -0.36977E+07        -0.23174E+06         0.00000E+00
   -0.23174E+06        -0.61093E+08         0.00000E+00
    0.00000E+00         0.00000E+00        -0.20296E-07
 
   -0.41217E+07        -0.24522E+06         0.00000E+00
   -0.24522E+06        -0.61498E+08         0.00000E+00
    0.00000E+00         0.00000E+00        -0.91333E-07
 
   -0.45372E+07        -0.19946E+06         0.00000E+00
   -0.19946E+06        -0.61847E+08         0.00000E+00
    0.00000E+00         0.00000E+00         0.20296E-07
 
   -0.49570E+07        -0.79035E+05         0.00000E+00
   -0.79035E+05        -0.62062E+08         0.00000E+00
    0.00000E+00         0.00000E+00        -0.20297E-07
 
    0.16640E+06        -0.87033E+03         0.00000E+00
   -0.87033E+03        -0.47609E+08         0.00000E+00
    0.00000E+00         0.00000E+00        -0.10148E-07
 
    0.15848E+06        -0.17484E+04         0.00000E+00
   -0.17484E+04        -0.47613E+08         0.00000E+00
    0.00000E+00         0.00000E+00         0.11163E-06
 
    0.15118E+06        -0.10062E+04         0.00000E+00
   -0.10062E+04        -0.47621E+08         0.00000E+00
    0.00000E+00         0.00000E+00         0.10148E-07
 
    0.14422E+06         0.91080E+03         0.00000E+00
    0.91080E+03        -0.47630E+08         0.00000E+00
    0.00000E+00         0.00000E+00        -0.50741E-07
 
    0.13783E+06         0.34153E+04         0.00000E+00
    0.34153E+04        -0.47639E+08         0.00000E+00
    0.00000E+00         0.00000E+00        -0.81185E-07
 
    0.13223E+06         0.61894E+04         0.00000E+00
    0.61894E+04        -0.47648E+08         0.00000E+00
    0.00000E+00         0.00000E+00        -0.30444E-07
 
    0.12756E+06         0.90779E+04         0.00000E+00
    0.90779E+04        -0.47658E+08         0.00000E+00
    0.00000E+00         0.00000E+00        -0.40593E-07
 
    0.12389E+06         0.11995E+05         0.00000E+00
    0.11995E+05        -0.47668E+08         0.00000E+00
    0.00000E+00         0.00000E+00        -0.20296E-07
 
    0.12123E+06         0.14892E+05         0.00000E+00
    0.14892E+05        -0.47679E+08         0.00000E+00
    0.00000E+00         0.00000E+00         0.30444E-07
 
    0.11956E+06         0.17744E+05         0.00000E+00
    0.17744E+05        -0.47689E+08         0.00000E+00
    0.00000E+00         0.00000E+00         0.91333E-07
 
    0.11884E+06         0.20539E+05         0.00000E+00
    0.20539E+05        -0.47700E+08         0.00000E+00
    0.00000E+00         0.00000E+00         0.00000E+00
 
    0.11904E+06         0.23276E+05         0.00000E+00
    0.23276E+05        -0.47712E+08         0.00000E+00
    0.00000E+00         0.00000E+00         0.00000E+00
 
    0.12011E+06         0.25963E+05         0.00000E+00
    0.25963E+05        -0.47724E+08         0.00000E+00
    0.00000E+00         0.00000E+00        -0.50741E-07
 
    0.12199E+06         0.28611E+05         0.00000E+00
    0.28611E+05        -0.47736E+08         0.00000E+00
    0.00000E+00         0.00000E+00        -0.30444E-07
 
    0.12464E+06         0.31233E+05         0.00000E+00
    0.31233E+05        -0.47749E+08         0.00000E+00
    0.00000E+00         0.00000E+00         0.00000E+00
 
    0.12803E+06         0.33845E+05         0.00000E+00
    0.33845E+05        -0.47762E+08         0.00000E+00
    0.00000E+00         0.00000E+00        -0.10148E-07
 
    0.13210E+06         0.36463E+05         0.00000E+00
    0.36463E+05        -0.47776E+08         0.00000E+00
    0.00000E+00         0.00000E+00         0.00000E+00
 
    0.13684E+06         0.39103E+05         0.00000E+00
    0.39103E+05        -0.47791E+08         0.00000E+00
    0.00000E+00         0.00000E+00         0.40593E-07
 
    0.14220E+06         0.41782E+05         0.00000E+00
    0.41782E+05        -0.47806E+08         0.00000E+00
    0.00000E+00         0.00000E+00         0.20296E-07
 
    0.14816E+06         0.44514E+05         0.00000E+00
    0.44514E+05        -0.47822E+08         0.00000E+00
    0.00000E+00         0.00000E+00        -0.10148E-07
 
    0.15471E+06         0.47313E+05         0.00000E+00
    0.47313E+05        -0.47839E+08         0.00000E+00
    0.00000E+00         0.00000E+00        -0.10148E-07
 
    0.16181E+06         0.50192E+05         0.00000E+00
    0.50192E+05        -0.47857E+08         0.00000E+00
    0.00000E+00         0.00000E+00         0.30444E-07
 
    0.16947E+06         0.53166E+05         0.00000E+00
    0.53166E+05        -0.47876E+08         0.00000E+00
    0.00000E+00         0.00000E+00        -0.10148E-07
 
    0.17767E+06         0.56244E+05         0.00000E+00
    0.56244E+05        -0.47895E+08         0.00000E+00
    0.00000E+00         0.00000E+00        -0.91333E-07
 
    0.18639E+06         0.59439E+05         0.00000E+00
    0.59439E+05        -0.47916E+08         0.00000E+00
    0.00000E+00         0.00000E+00        -0.20296E-07
 
    0.19564E+06         0.62762E+05         0.00000E+00
    0.62762E+05        -0.47938E+08         0.00000E+00
    0.00000E+00         0.00000E+00         0.00000E+00
 
    0.20541E+06         0.66221E+05         0.00000E+00
    0.66221E+05        -0.47961E+08         0.00000E+00
    0.00000E+00         0.00000E+00         0.00000E+00
 
    0.21570E+06         0.69826E+05         0.00000E+00
    0.69826E+05        -0.47986E+08         0.00000E+00
    0.00000E+00         0.00000E+00        -0.71037E-07
 
    0.22650E+06         0.73587E+05         0.00000E+00
    0.73587E+05        -0.48012E+08         0.00000E+00
    0.00000E+00         0.00000E+00         0.00000E+00
 
    0.23782E+06         0.77512E+05         0.00000E+00
    0.77512E+05        -0.48039E+08         0.00000E+00
    0.00000E+00         0.00000E+00        -0.10148E-07
 
    0.24966E+06         0.81610E+05         0.00000E+00
    0.81610E+05        -0.48068E+08         0.00000E+00
    0.00000E+00         0.00000E+00        -0.71037E-07
 
    0.26201E+06         0.85887E+05         0.00000E+00
    0.85887E+05        -0.48098E+08         0.00000E+00
    0.00000E+00         0.00000E+00         0.20296E-07
 
    0.27488E+06         0.90352E+05         0.00000E+00
    0.90352E+05        -0.48131E+08         0.00000E+00
    0.00000E+00         0.00000E+00        -0.10148E-07
 
    0.28826E+06         0.95012E+05         0.00000E+00
    0.95012E+05        -0.48165E+08         0.00000E+00
    0.00000E+00         0.00000E+00         0.20296E-07
 
    0.30217E+06         0.99874E+05         0.00000E+00
    0.99874E+05        -0.48201E+08         0.00000E+00
    0.00000E+00         0.00000E+00        -0.20296E-07
 
    0.31659E+06         0.10494E+06         0.00000E+00
    0.10494E+06        -0.48239E+08         0.00000E+00
    0.00000E+00         0.00000E+00        -0.50741E-07
 
    0.33152E+06         0.11023E+06         0.00000E+00
    0.11023E+06        -0.48279E+08         0.00000E+00
    0.00000E+00         0.00000E+00         0.10148E-07
 
    0.34696E+06         0.11574E+06         0.00000E+00
    0.11574E+06        -0.48321E+08         0.00000E+00
    0.00000E+00         0.00000E+00        -0.10148E-07
 
    0.36291E+06         0.12147E+06         0.00000E+00
    0.12147E+06        -0.48366E+08         0.00000E+00
    0.00000E+00         0.00000E+00         0.30444E-07
 
    0.37936E+06         0.12744E+06         0.00000E+00
    0.12744E+06        -0.48413E+08         0.00000E+00
    0.00000E+00         0.00000E+00         0.40593E-07
 
    0.39629E+06         0.13364E+06         0.00000E+00
    0.13364E+06        -0.48463E+08         0.00000E+00
    0.00000E+00         0.00000E+00         0.10148E-07
 
    0.41370E+06         0.14008E+06         0.00000E+00
    0.14008E+06        -0.48516E+08         0.00000E+00
    0.00000E+00         0.00000E+00         0.20296E-07
 
    0.43156E+06         0.14677E+06         0.00000E+00
    0.14677E+06        -0.48572E+08         0.00000E+00
    0.00000E+00         0.00000E+00        -0.30444E-07
 
    0.44986E+06         0.15370E+06         0.00000E+00
    0.15370E+06        -0.48631E+08         0.00000E+00
    0.00000E+00         0.00000E+00         0.40593E-07
 
    0.46858E+06         0.16089E+06         0.00000E+00
    0.16089E+06        -0.48693E+08         0.00000E+00
    0.00000E+00         0.00000E+00        -0.81185E-07
 
    0.48768E+06         0.16833E+06         0.00000E+00
    0.16833E+06        -0.48758E+08         0.00000E+00
    0.00000E+00         0.00000E+00         0.10148E-07
 
    0.50714E+06         0.17602E+06         0.00000E+00
    0.17602E+06        -0.48827E+08         0.00000E+00
    0.00000E+00         0.00000E+00        -0.10148E-07
 
    0.52691E+06         0.18396E+06         0.00000E+00
    0.18396E+06        -0.48900E+08         0.00000E+00
    0.00000E+00         0.00000E+00         0.00000E+00
 
    0.54695E+06         0.19215E+06         0.00000E+00
    0.19215E+06        -0.48977E+08         0.00000E+00
    0.00000E+00         0.00000E+00         0.20296E-07
 
    0.56721E+06         0.20058E+06         0.00000E+00
    0.20058E+06        -0.49058E+08         0.00000E+00
    0.00000E+00         0.00000E+00         0.00000E+00
 
    0.58763E+06         0.20926E+06         0.00000E+00
    0.20926E+06        -0.49143E+08         0.00000E+00
    0.00000E+00         0.00000E+00         0.40593E-07
 
    0.60815E+06         0.21818E+06         0.00000E+00
    0.21818E+06        -0.49233E+08         0.00000E+00
    0.00000E+00         0.00000E+00         0.10148E-07
 
    0.62869E+06         0.22732E+06         0.00000E+00
    0.22732E+06        -0.49327E+08         0.00000E+00
    0.00000E+00         0.00000E+00        -0.20296E-07
 
    0.64916E+06         0.23669E+06         0.00000E+00
    0.23669E+06        -0.49426E+08         0.00000E+00
    0.00000E+00         0.00000E+00        -0.30444E-07
 
    0.66948E+06         0.24626E+06         0.00000E+00
    0.24626E+06        -0.49530E+08         0.00000E+00
    0.00000E+00         0.00000E+00         0.00000E+00
 
    0.68953E+06         0.25603E+06         0.00000E+00
    0.25603E+06        -0.49640E+08         0.00000E+00
    0.00000E+00         0.00000E+00        -0.10148E-07
 
    0.70920E+06         0.26597E+06         0.00000E+00
    0.26597E+06        -0.49755E+08         0.00000E+00
    0.00000E+00         0.00000E+00         0.00000E+00
 
    0.72835E+06         0.27607E+06         0.00000E+00
    0.27607E+06        -0.49876E+08         0.00000E+00
    0.00000E+00         0.00000E+00        -0.30444E-07
 
    0.74685E+06         0.28631E+06         0.00000E+00
    0.28631E+06        -0.50003E+08         0.00000E+00
    0.00000E+00         0.00000E+00        -0.60889E-07
 
    0.76453E+06         0.29665E+06         0.00000E+00
    0.29665E+06        -0.50136E+08         0.00000E+00
    0.00000E+00         0.00000E+00        -0.10148E-07
 
    0.78121E+06         0.30707E+06         0.00000E+00
    0.30707E+06        -0.50276E+08         0.00000E+00
    0.00000E+00         0.00000E+00        -0.91333E-07
 
    0.79670E+06         0.31754E+06         0.00000E+00
    0.31754E+06        -0.50422E+08         0.00000E+00
    0.00000E+00         0.00000E+00         0.60888E-07
 
    0.81078E+06         0.32801E+06         0.00000E+00
    0.32801E+06        -0.50576E+08         0.00000E+00
    0.00000E+00         0.00000E+00        -0.10148E-07
 
    0.82321E+06         0.33845E+06         0.00000E+00
    0.33845E+06        -0.50736E+08         0.00000E+00
    0.00000E+00         0.00000E+00        -0.10148E-07
 
    0.83374E+06         0.34879E+06         0.00000E+00
    0.34879E+06        -0.50905E+08         0.00000E+00
    0.00000E+00         0.00000E+00         0.10147E-07
 
    0.84207E+06         0.35899E+06         0.00000E+00
    0.35899E+06        -0.51080E+08         0.00000E+00
    0.00000E+00         0.00000E+00        -0.10148E-07
 
    0.84790E+06         0.36898E+06         0.00000E+00
    0.36898E+06        -0.51264E+08         0.00000E+00
    0.00000E+00         0.00000E+00        -0.10148E-07
 
    0.85087E+06         0.37870E+06         0.00000E+00
    0.37870E+06        -0.51456E+08         0.00000E+00
    0.00000E+00         0.00000E+00         0.60889E-07
 
    0.85062E+06         0.38805E+06         0.00000E+00
    0.38805E+06        -0.51656E+08         0.00000E+00
    0.00000E+00         0.00000E+00         0.40593E-07
 
    0.84671E+06         0.39695E+06         0.00000E+00
    0.39695E+06        -0.51865E+08         0.00000E+00
    0.00000E+00         0.00000E+00        -0.50741E-07
 
    0.83871E+06         0.40530E+06         0.00000E+00
    0.40530E+06        -0.52083E+08         0.00000E+00
    0.00000E+00         0.00000E+00        -0.30444E-07
 
    0.82610E+06         0.41297E+06         0.00000E+00
    0.41297E+06        -0.52310E+08         0.00000E+00
    0.00000E+00         0.00000E+00        -0.50741E-07
 
    0.80835E+06         0.41985E+06         0.00000E+00
    0.41985E+06        -0.52546E+08         0.00000E+00
    0.00000E+00         0.00000E+00        -0.20296E-07
 
    0.78484E+06         0.42578E+06         0.00000E+00
    0.42578E+06        -0.52792E+08         0.00000E+00
    0.00000E+00         0.00000E+00         0.50741E-07
 
    0.75492E+06         0.43059E+06         0.00000E+00
    0.43059E+06        -0.53048E+08         0.00000E+00
    0.00000E+00         0.00000E+00         0.81185E-07
 
    0.71785E+06         0.43410E+06         0.00000E+00
    0.43410E+06        -0.53313E+08         0.00000E+00
    0.00000E+00         0.00000E+00         0.20296E-07
 
    0.67284E+06         0.43610E+06         0.00000E+00
    0.43610E+06        -0.53588E+08         0.00000E+00
    0.00000E+00         0.00000E+00         0.00000E+00
 
    0.61901E+06         0.43634E+06         0.00000E+00
    0.43634E+06        -0.53874E+08         0.00000E+00
    0.00000E+00         0.00000E+00         0.00000E+00
 
    0.55538E+06         0.43457E+06         0.00000E+00
    0.43457E+06        -0.54170E+08         0.00000E+00
    0.00000E+00         0.00000E+00        -0.10148E-07
 
    0.48090E+06         0.43048E+06         0.00000E+00
    0.43048E+06        -0.54476E+08         0.00000E+00
    0.00000E+00         0.00000E+00         0.10148E-07
 
    0.39440E+06         0.42373E+06         0.00000E+00
    0.42373E+06        -0.54793E+08         0.00000E+00
    0.00000E+00         0.00000E+00        -0.40593E-07
 
    0.29461E+06         0.41397E+06         0.00000E+00
    0.41397E+06        -0.55120E+08         0.00000E+00
    0.00000E+00         0.00000E+00        -0.20296E-07
 
    0.18013E+06         0.40081E+06         0.00000E+00
    0.40081E+06        -0.55457E+08         0.00000E+00
    0.00000E+00         0.00000E+00         0.20296E-07
 
    0.49468E+05         0.38380E+06         0.00000E+00
    0.38380E+06        -0.55805E+08         0.00000E+00
    0.00000E+00         0.00000E+00         0.60889E-07
 
   -0.99001E+05         0.36253E+06         0.00000E+00
    0.36253E+06        -0.56163E+08         0.00000E+00
    0.00000E+00         0.00000E+00        -0.30444E-07
 
   -0.26699E+06         0.33654E+06         0.00000E+00
    0.33654E+06        -0.56532E+08         0.00000E+00
    0.00000E+00         0.00000E+00         0.20296E-07
 
   -0.45632E+06         0.30541E+06         0.00000E+00
    0.30541E+06        -0.56910E+08         0.00000E+00
    0.00000E+00         0.00000E+00         0.20296E-07
 
   -0.66882E+06         0.26878E+06         0.00000E+00
    0.26878E+06        -0.57298E+08         0.00000E+00
    0.00000E+00         0.00000E+00        -0.40593E-07
 
   -0.90634E+06         0.22638E+06         0.00000E+00
    0.22638E+06        -0.57694E+08         0.00000E+00
    0.00000E+00         0.00000E+00        -0.10148E-07
 
   -0.11706E+07         0.17812E+06         0.00000E+00
    0.17812E+06        -0.58100E+08         0.00000E+00
    0.00000E+00         0.00000E+00         0.00000E+00
 
   -0.14632E+07         0.12415E+06         0.00000E+00
    0.12415E+06        -0.58513E+08         0.00000E+00
    0.00000E+00         0.00000E+00        -0.30444E-07
 
   -0.17853E+07         0.65012E+05         0.00000E+00
    0.65012E+05        -0.58933E+08         0.00000E+00
    0.00000E+00         0.00000E+00        -0.71037E-07
 
   -0.21372E+07         0.17786E+04         0.00000E+00
    0.17786E+04        -0.59359E+08         0.00000E+00
    0.00000E+00         0.00000E+00        -0.13193E-06
 
   -0.25183E+07        -0.63722E+05         0.00000E+00
   -0.63722E+05        -0.59790E+08         0.00000E+00
    0.00000E+00         0.00000E+00        -0.60889E-07
 
   -0.29263E+07        -0.12853E+06         0.00000E+00
   -0.12853E+06        -0.60223E+08         0.00000E+00
    0.00000E+00         0.00000E+00         0.40593E-07
 
   -0.33563E+07        -0.18785E+06         0.00000E+00
   -0.18785E+06        -0.60656E+08         0.00000E+00
    0.00000E+00         0.00000E+00        -0.20296E-07
 
   -0.37993E+07        -0.23354E+06         0.00000E+00
   -0.23354E+06        -0.61086E+08         0.00000E+00
    0.00000E+00         0.00000E+00        -0.13192E-06
 
   -0.42410E+07        -0.24952E+06         0.00000E+00
   -0.24952E+06        -0.61500E+08         0.00000E+00
    0.00000E+00         0.00000E+00         0.60889E-07
 
   -0.46693E+07        -0.20667E+06         0.00000E+00
   -0.20667E+06        -0.61864E+08         0.00000E+00
    0.00000E+00         0.00000E+00         0.91333E-07
 
   -0.50943E+07        -0.83164E+05         0.00000E+00
   -0.83164E+05        -0.62093E+08         0.00000E+00
    0.00000E+00         0.00000E+00         0.20296E-07
 
    0.17003E+06        -0.10248E+04         0.00000E+00
   -0.10248E+04        -0.47608E+08         0.00000E+00
    0.00000E+00         0.00000E+00         0.71037E-07
 
    0.16200E+06        -0.20864E+04         0.00000E+00
   -0.20864E+04        -0.47613E+08         0.00000E+00
    0.00000E+00         0.00000E+00        -0.20296E-07
 
    0.15441E+06        -0.14053E+04         0.00000E+00
   -0.14053E+04        -0.47621E+08         0.00000E+00
    0.00000E+00         0.00000E+00        -0.10148E-07
 
    0.14710E+06         0.41557E+03         0.00000E+00
    0.41557E+03        -0.47630E+08         0.00000E+00
    0.00000E+00         0.00000E+00         0.10148E-07
 
    0.14037E+06         0.27494E+04         0.00000E+00
    0.27494E+04        -0.47639E+08         0.00000E+00
    0.00000E+00         0.00000E+00        -0.40593E-07
 
    0.13450E+06         0.53056E+04         0.00000E+00
    0.53056E+04        -0.47649E+08         0.00000E+00
    0.00000E+00         0.00000E+00        -0.30444E-07
 
    0.12962E+06         0.79506E+04         0.00000E+00
    0.79506E+04        -0.47659E+08         0.00000E+00
    0.00000E+00         0.00000E+00        -0.20296E-07
 
    0.12578E+06         0.10611E+05         0.00000E+00
    0.10611E+05        -0.47669E+08         0.00000E+00
    0.00000E+00         0.00000E+00         0.20296E-07
 
    0.12300E+06         0.13244E+05         0.00000E+00
    0.13244E+05        -0.47679E+08         0.00000E+00
    0.00000E+00         0.00000E+00        -0.71037E-07
 
    0.12125E+06         0.15830E+05         0.00000E+00
    0.15830E+05        -0.47690E+08         0.00000E+00
    0.00000E+00         0.00000E+00        -0.10148E-07
 
    0.12049E+06         0.18360E+05         0.00000E+00
    0.18360E+05        -0.47701E+08         0.00000E+00
    0.00000E+00         0.00000E+00        -0.10148E-07
 
    0.12067E+06         0.20834E+05         0.00000E+00
    0.20834E+05        -0.47712E+08         0.00000E+00
    0.00000E+00         0.00000E+00         0.40593E-07
 
    0.12175E+06         0.23259E+05         0.00000E+00
    0.23259E+05        -0.47724E+08         0.00000E+00
    0.00000E+00         0.00000E+00        -0.20296E-07
 
    0.12367E+06         0.25645E+05         0.00000E+00
    0.25645E+05        -0.47736E+08         0.00000E+00
    0.00000E+00         0.00000E+00         0.30444E-07
 
    0.12638E+06         0.28005E+05         0.00000E+00
    0.28005E+05        -0.47749E+08         0.00000E+00
    0.00000E+00         0.00000E+00        -0.91333E-07
 
    0.12983E+06         0.30355E+05         0.00000E+00
    0.30355E+05        -0.47763E+08         0.00000E+00
    0.00000E+00         0.00000E+00         0.60889E-07
 
    0.13399E+06         0.32708E+05         0.00000E+00
    0.32708E+05        -0.47777E+08         0.00000E+00
    0.00000E+00         0.00000E+00         0.30444E-07
 
    0.13883E+06         0.35080E+05         0.00000E+00
    0.35080E+05        -0.47791E+08         0.00000E+00
    0.00000E+00         0.00000E+00         0.40593E-07
 
    0.14430E+06         0.37485E+05         0.00000E+00
    0.37485E+05        -0.47807E+08         0.00000E+00
    0.00000E+00         0.00000E+00         0.00000E+00
 
    0.15038E+06         0.39936E+05         0.00000E+00
    0.39936E+05        -0.47823E+08         0.00000E+00
    0.00000E+00         0.00000E+00         0.30444E-07
 
    0.15706E+06         0.42448E+05         0.00000E+00
    0.42448E+05        -0.47840E+08         0.00000E+00
    0.00000E+00         0.00000E+00         0.10148E-07
 
    0.16431E+06         0.45031E+05         0.00000E+00
    0.45031E+05        -0.47857E+08         0.00000E+00
    0.00000E+00         0.00000E+00        -0.71037E-07
 
    0.17211E+06         0.47698E+05         0.00000E+00
    0.47698E+05        -0.47876E+08         0.00000E+00
    0.00000E+00         0.00000E+00         0.10148E-07
 
    0.18047E+06         0.50459E+05         0.00000E+00
    0.50459E+05        -0.47896E+08         0.00000E+00
    0.00000E+00         0.00000E+00        -0.81185E-07
 
    0.18936E+06         0.53325E+05         0.00000E+00
    0.53325E+05        -0.47917E+08         0.00000E+00
    0.00000E+00         0.00000E+00         0.71037E-07
 
    0.19878E+06         0.56304E+05         0.00000E+00
    0.56304E+05        -0.47939E+08         0.00000E+00
    0.00000E+00         0.00000E+00        -0.20296E-07
 
    0.20874E+06         0.59405E+05         0.00000E+00
    0.59405E+05        -0.47962E+08         0.00000E+00
    0.00000E+00         0.00000E+00        -0.10148E-07
 
    0.21921E+06         0.62639E+05         0.00000E+00
    0.62639E+05        -0.47987E+08         0.00000E+00
    0.00000E+00         0.00000E+00        -0.10148E-07
 
    0.23022E+06         0.66011E+05         0.00000E+00
    0.66011E+05        -0.48012E+08         0.00000E+00
    0.00000E+00         0.00000E+00         0.30444E-07
 
    0.24175E+06         0.69530E+05         0.00000E+00
    0.69530E+05        -0.48040E+08         0.00000E+00
    0.00000E+00         0.00000E+00         0.40593E-07
 
    0.25380E+06         0.73204E+05         0.00000E+00
    0.73204E+05        -0.48069E+08         0.00000E+00
    0.00000E+00         0.00000E+00         0.20296E-07
 
    0.26638E+06         0.77039E+05         0.00000E+00
    0.77039E+05        -0.48099E+08         0.00000E+00
    0.00000E+00         0.00000E+00        -0.60889E-07
 
    0.27949E+06         0.81042E+05         0.00000E+00
    0.81042E+05        -0.48131E+08         0.00000E+00
    0.00000E+00         0.00000E+00        -0.20296E-07
 
    0.29313E+06         0.85220E+05         0.00000E+00
    0.85220E+05        -0.48165E+08         0.00000E+00
    0.00000E+00         0.00000E+00         0.60889E-07
 
    0.30729E+06         0.89579E+05         0.00000E+00
    0.89579E+05        -0.48201E+08         0.00000E+00
    0.00000E+00         0.00000E+00         0.30444E-07
 
    0.32198E+06         0.94125E+05         0.00000E+00
    0.94125E+05        -0.48240E+08         0.00000E+00
    0.00000E+00         0.00000E+00         0.60889E-07
 
    0.33719E+06         0.98863E+05         0.00000E+00
    0.98863E+05        -0.48280E+08         0.00000E+00
    0.00000E+00         0.00000E+00        -0.20296E-07
 
    0.35293E+06         0.10380E+06         0.00000E+00
    0.10380E+06        -0.48322E+08         0.00000E+00
    0.00000E+00         0.00000E+00         0.30444E-07
 
    0.36918E+06         0.10894E+06         0.00000E+00
    0.10894E+06        -0.48367E+08         0.00000E+00
    0.00000E+00         0.00000E+00        -0.20296E-07
 
    0.38593E+06         0.11429E+06         0.00000E+00
    0.11429E+06        -0.48415E+08         0.00000E+00
    0.00000E+00         0.00000E+00         0.50741E-07
 
    0.40319E+06         0.11985E+06         0.00000E+00
    0.11985E+06        -0.48465E+08         0.00000E+00
    0.00000E+00         0.00000E+00        -0.30444E-07
 
    0.42093E+06         0.12562E+06         0.00000E+00
    0.12562E+06        -0.48518E+08         0.00000E+00
    0.00000E+00         0.00000E+00        -0.40593E-07
 
    0.43914E+06         0.13162E+06         0.00000E+00
    0.13162E+06        -0.48573E+08         0.00000E+00
    0.00000E+00         0.00000E+00         0.13193E-06
 
    0.45780E+06         0.13783E+06         0.00000E+00
    0.13783E+06        -0.48632E+08         0.00000E+00
    0.00000E+00         0.00000E+00        -0.81185E-07
 
    0.47689E+06         0.14427E+06         0.00000E+00
    0.14427E+06        -0.48694E+08         0.00000E+00
    0.00000E+00         0.00000E+00         0.30444E-07
 
    0.49638E+06         0.15094E+06         0.00000E+00
    0.15094E+06        -0.48760E+08         0.00000E+00
    0.00000E+00         0.00000E+00         0.00000E+00
 
    0.51623E+06         0.15783E+06         0.00000E+00
    0.15783E+06        -0.48829E+08         0.00000E+00
    0.00000E+00         0.00000E+00        -0.11163E-06
 
    0.53640E+06         0.16494E+06         0.00000E+00
    0.16494E+06        -0.48902E+08         0.00000E+00
    0.00000E+00         0.00000E+00        -0.81185E-07
 
    0.55686E+06         0.17228E+06         0.00000E+00
    0.17228E+06        -0.48979E+08         0.00000E+00
    0.00000E+00         0.00000E+00         0.40592E-07
 
    0.57755E+06         0.17984E+06         0.00000E+00
    0.17984E+06        -0.49059E+08         0.00000E+00
    0.00000E+00         0.00000E+00         0.50741E-07
 
    0.59840E+06         0.18761E+06         0.00000E+00
    0.18761E+06        -0.49145E+08         0.00000E+00
    0.00000E+00         0.00000E+00         0.30444E-07
 
    0.61937E+06         0.19560E+06         0.00000E+00
    0.19560E+06        -0.49234E+08         0.00000E+00
    0.00000E+00         0.00000E+00        -0.91333E-07
 
    0.64036E+06         0.20379E+06         0.00000E+00
    0.20379E+06        -0.49329E+08         0.00000E+00
    0.00000E+00         0.00000E+00         0.10148E-07
 
    0.66129E+06         0.21218E+06         0.00000E+00
    0.21218E+06        -0.49428E+08         0.00000E+00
    0.00000E+00         0.00000E+00        -0.10148E-07
 
    0.68208E+06         0.22075E+06         0.00000E+00
    0.22075E+06        -0.49532E+08         0.00000E+00
    0.00000E+00         0.00000E+00        -0.20296E-07
 
    0.70260E+06         0.22950E+06         0.00000E+00
    0.22950E+06        -0.49642E+08         0.00000E+00
    0.00000E+00         0.00000E+00         0.71037E-07
 
    0.72275E+06         0.23840E+06         0.00000E+00
    0.23840E+06        -0.49757E+08         0.00000E+00
    0.00000E+00         0.00000E+00         0.10148E-07
 
    0.74239E+06         0.24744E+06         0.00000E+00
    0.24744E+06        -0.49878E+08         0.00000E+00
    0.00000E+00         0.00000E+00        -0.40593E-07
 
    0.76137E+06         0.25660E+06         0.00000E+00
    0.25660E+06        -0.50005E+08         0.00000E+00
    0.00000E+00         0.00000E+00        -0.10148E-07
 
    0.77953E+06         0.26586E+06         0.00000E+00
    0.26586E+06        -0.50138E+08         0.00000E+00
    0.00000E+00         0.00000E+00         0.30444E-07
 
    0.79669E+06         0.27519E+06         0.00000E+00
    0.27519E+06        -0.50278E+08         0.00000E+00
    0.00000E+00         0.00000E+00         0.20296E-07
 
    0.81266E+06         0.28455E+06         0.00000E+00
    0.28455E+06        -0.50424E+08         0.00000E+00
    0.00000E+00         0.00000E+00        -0.14207E-06
 
    0.82721E+06         0.29392E+06         0.00000E+00
    0.29392E+06        -0.50578E+08         0.00000E+00
    0.00000E+00         0.00000E+00         0.60889E-07
 
    0.84011E+06         0.30325E+06         0.00000E+00
    0.30325E+06        -0.50738E+08         0.00000E+00
    0.00000E+00         0.00000E+00         0.60888E-07
 
    0.85109E+06         0.31250E+06         0.00000E+00
    0.31250E+06        -0.50906E+08         0.00000E+00
    0.00000E+00         0.00000E+00        -0.10148E-07
 
    0.85986E+06         0.32162E+06         0.00000E+00
    0.32162E+06        -0.51082E+08         0.00000E+00
    0.00000E+00         0.00000E+00         0.71037E-07
 
    0.86610E+06         0.33055E+06         0.00000E+00
    0.33055E+06        -0.51266E+08         0.00000E+00
    0.00000E+00         0.00000E+00         0.10148E-07
 
    0.86947E+06         0.33923E+06         0.00000E+00
    0.33923E+06        -0.51458E+08         0.00000E+00
    0.00000E+00         0.00000E+00        -0.10148E-07
 
    0.86958E+06         0.34758E+06         0.00000E+00
    0.34758E+06        -0.51658E+08         0.00000E+00
    0.00000E+00         0.00000E+00         0.50741E-07
 
    0.86601E+06         0.35553E+06         0.00000E+00
    0.35553E+06        -0.51867E+08         0.00000E+00
    0.00000E+00         0.00000E+00         0.13193E-06
 
    0.85830E+06         0.36297E+06         0.00000E+00
    0.36297E+06        -0.52085E+08         0.00000E+00
    0.00000E+00         0.00000E+00        -0.50741E-07
 
    0.84594E+06         0.36981E+06         0.00000E+00
    0.36981E+06        -0.52311E+08         0.00000E+00
    0.00000E+00         0.00000E+00         0.40593E-07
 
    0.82838E+06         0.37592E+06         0.00000E+00
    0.37592E+06        -0.52548E+08         0.00000E+00
    0.00000E+00         0.00000E+00        -0.20296E-07
 
    0.80501E+06         0.38118E+06         0.00000E+00
    0.38118E+06        -0.52793E+08         0.00000E+00
    0.00000E+00         0.00000E+00        -0.60889E-07
 
    0.77514E+06         0.38544E+06         0.00000E+00
    0.38544E+06        -0.53048E+08         0.00000E+00
    0.00000E+00         0.00000E+00        -0.60889E-07
 
    0.73804E+06         0.38852E+06         0.00000E+00
    0.38852E+06        -0.53313E+08         0.00000E+00
    0.00000E+00         0.00000E+00         0.71037E-07
 
    0.69289E+06         0.39023E+06         0.00000E+00
    0.39023E+06        -0.53589E+08         0.00000E+00
    0.00000E+00         0.00000E+00         0.50741E-07
 
    0.63880E+06         0.39035E+06         0.00000E+00
    0.39035E+06        -0.53874E+08         0.00000E+00
    0.00000E+00         0.00000E+00        -0.10148E-06
 
    0.57476E+06         0.38865E+06         0.00000E+00
    0.38865E+06        -0.54169E+08         0.00000E+00
    0.00000E+00         0.00000E+00         0.10148E-07
 
    0.49969E+06         0.38485E+06         0.00000E+00
    0.38485E+06        -0.54475E+08         0.00000E+00
    0.00000E+00         0.00000E+00        -0.10148E-07
 
    0.41237E+06         0.37864E+06         0.00000E+00
    0.37864E+06        -0.54791E+08         0.00000E+00
    0.00000E+00         0.00000E+00         0.20296E-07
 
    0.31151E+06         0.36970E+06         0.00000E+00
    0.36970E+06        -0.55117E+08         0.00000E+00
    0.00000E+00         0.00000E+00         0.10148E-06
 
    0.19564E+06         0.35765E+06         0.00000E+00
    0.35765E+06        -0.55454E+08         0.00000E+00
    0.00000E+00         0.00000E+00        -0.71037E-07
 
    0.63202E+05         0.34211E+06         0.00000E+00
    0.34211E+06        -0.55801E+08         0.00000E+00
    0.00000E+00         0.00000E+00        -0.20296E-07
 
   -0.87503E+05         0.32267E+06         0.00000E+00
    0.32267E+06        -0.56159E+08         0.00000E+00
    0.00000E+00         0.00000E+00         0.20296E-07
 
   -0.25829E+06         0.29892E+06         0.00000E+00
    0.29892E+06        -0.56526E+08         0.00000E+00
    0.00000E+00         0.00000E+00         0.14207E-06
 
   -0.45107E+06         0.27046E+06         0.00000E+00
    0.27046E+06        -0.56903E+08         0.00000E+00
    0.00000E+00         0.00000E+00        -0.81185E-07
 
   -0.66783E+06         0.23693E+06         0.00000E+00
    0.23693E+06        -0.57290E+08         0.00000E+00
    0.00000E+00         0.00000E+00        -0.60889E-07
 
   -0.91056E+06         0.19809E+06         0.00000E+00
    0.19809E+06        -0.57686E+08         0.00000E+00
    0.00000E+00         0.00000E+00         0.11163E-06
 
   -0.11812E+07         0.15382E+06         0.00000E+00
    0.15382E+06        -0.58090E+08         0.00000E+00
    0.00000E+00         0.00000E+00        -0.12178E-06
 
   -0.14814E+07         0.10423E+06         0.00000E+00
    0.10423E+06        -0.58502E+08         0.00000E+00
    0.00000E+00         0.00000E+00        -0.30444E-07
 
   -0.18125E+07         0.49763E+05         0.00000E+00
    0.49763E+05        -0.58921E+08         0.00000E+00
    0.00000E+00         0.00000E+00        -0.50741E-07
 
   -0.21752E+07        -0.86616E+04         0.00000E+00
   -0.86616E+04        -0.59347E+08         0.00000E+00
    0.00000E+00         0.00000E+00         0.60889E-07
 
   -0.25691E+07        -0.69474E+05         0.00000E+00
   -0.69474E+05        -0.59777E+08         0.00000E+00
    0.00000E+00         0.00000E+00        -0.71037E-07
 
   -0.29920E+07        -0.13012E+06         0.00000E+00
   -0.13012E+06        -0.60211E+08         0.00000E+00
    0.00000E+00         0.00000E+00         0.81185E-07
 
   -0.34392E+07        -0.18646E+06         0.00000E+00
   -0.18646E+06        -0.60646E+08         0.00000E+00
    0.00000E+00         0.00000E+00        -0.20296E-07
 
   -0.39017E+07        -0.23142E+06         0.00000E+00
   -0.23142E+06        -0.61079E+08         0.00000E+00
    0.00000E+00         0.00000E+00        -0.71037E-07
 
   -0.43636E+07        -0.25030E+06         0.00000E+00
   -0.25030E+06        -0.61501E+08         0.00000E+00
    0.00000E+00         0.00000E+00         0.10148E-07
 
   -0.48074E+07        -0.21202E+06         0.00000E+00
   -0.21202E+06        -0.61880E+08         0.00000E+00
    0.00000E+00         0.00000E+00         0.60889E-07
 
   -0.52391E+07        -0.87012E+05         0.00000E+00
   -0.87012E+05        -0.62126E+08         0.00000E+00
    0.00000E+00         0.00000E+00        -0.50741E-07
 
    0.17379E+06        -0.11735E+04         0.00000E+00
   -0.11735E+04        -0.47608E+08         0.00000E+00
    0.00000E+00         0.00000E+00         0.00000E+00
 
    0.16559E+06        -0.23810E+04         0.00000E+00
   -0.23810E+04        -0.47613E+08         0.00000E+00
    0.00000E+00         0.00000E+00        -0.56843E-13
 
    0.15765E+06        -0.17284E+04         0.00000E+00
   -0.17284E+04        -0.47621E+08         0.00000E+00
    0.00000E+00         0.00000E+00         0.00000E+00
 
    0.14993E+06        -0.40257E+01         0.00000E+00
   -0.40257E+01        -0.47631E+08         0.00000E+00
    0.00000E+00         0.00000E+00        -0.40593E-07
 
    0.14285E+06         0.21463E+04         0.00000E+00
    0.21463E+04        -0.47640E+08         0.00000E+00
    0.00000E+00         0.00000E+00        -0.10148E-07
 
    0.13668E+06         0.44719E+04         0.00000E+00
    0.44719E+04        -0.47649E+08         0.00000E+00
    0.00000E+00         0.00000E+00        -0.60889E-07
 
    0.13158E+06         0.68618E+04         0.00000E+00
    0.68618E+04        -0.47659E+08         0.00000E+00
    0.00000E+00         0.00000E+00         0.00000E+00
 
    0.12757E+06         0.92544E+04         0.00000E+00
    0.92544E+04        -0.47669E+08         0.00000E+00
    0.00000E+00         0.00000E+00        -0.10148E-07
 
    0.12467E+06         0.11616E+05         0.00000E+00
    0.11616E+05        -0.47680E+08         0.00000E+00
    0.00000E+00         0.00000E+00        -0.30444E-07
 
    0.12284E+06         0.13929E+05         0.00000E+00
    0.13929E+05        -0.47690E+08         0.00000E+00
    0.00000E+00         0.00000E+00        -0.30444E-07
 
    0.12204E+06         0.16187E+05         0.00000E+00
    0.16187E+05        -0.47701E+08         0.00000E+00
    0.00000E+00         0.00000E+00         0.71037E-07
 
    0.12221E+06         0.18392E+05         0.00000E+00
    0.18392E+05        -0.47713E+08         0.00000E+00
    0.00000E+00         0.00000E+00         0.00000E+00
 
    0.12330E+06         0.20549E+05         0.00000E+00
    0.20549E+05        -0.47725E+08         0.00000E+00
    0.00000E+00         0.00000E+00         0.30444E-07
 
    0.12526E+06         0.22670E+05         0.00000E+00
    0.22670E+05        -0.47737E+08         0.00000E+00
    0.00000E+00         0.00000E+00        -0.40593E-07
 
    0.12802E+06         0.24765E+05         0.00000E+00
    0.24765E+05        -0.47750E+08         0.00000E+00
    0.00000E+00         0.00000E+00        -0.10148E-07
 
    0.13155E+06         0.26849E+05         0.00000E+00
    0.26849E+05        -0.47763E+08         0.00000E+00
    0.00000E+00         0.00000E+00        -0.60889E-07
 
    0.13580E+06         0.28935E+05         0.00000E+00
    0.28935E+05        -0.47777E+08         0.00000E+00
    0.00000E+00         0.00000E+00        -0.30444E-07
 
    0.14073E+06         0.31035E+05         0.00000E+00
    0.31035E+05        -0.47792E+08         0.00000E+00
    0.00000E+00         0.00000E+00         0.10148E-07
 
    0.14632E+06         0.33164E+05         0.00000E+00
    0.33164E+05        -0.47807E+08         0.00000E+00
    0.00000E+00         0.00000E+00         0.20296E-07
 
    0.15252E+06         0.35334E+05         0.00000E+00
    0.35334E+05        -0.47823E+08         0.00000E+00
    0.00000E+00         0.00000E+00         0.50741E-07
 
    0.15933E+06         0.37556E+05         0.00000E+00
    0.37556E+05        -0.47840E+08         0.00000E+00
    0.00000E+00         0.00000E+00        -0.91333E-07
 
    0.16672E+06         0.39841E+05         0.00000E+00
    0.39841E+05        -0.47858E+08         0.00000E+00
    0.00000E+00         0.00000E+00         0.10148E-07
 
    0.17467E+06         0.42200E+05         0.00000E+00
    0.42200E+05        -0.47877E+08         0.00000E+00
    0.00000E+00         0.00000E+00         0.10148E-07
 
    0.18318E+06         0.44642E+05         0.00000E+00
    0.44642E+05        -0.47897E+08         0.00000E+00
    0.00000E+00         0.00000E+00         0.91333E-07
 
    0.19224E+06         0.47176E+05         0.00000E+00
    0.47176E+05        -0.47917E+08         0.00000E+00
    0.00000E+00         0.00000E+00        -0.20296E-07
 
    0.20183E+06         0.49810E+05         0.00000E+00
    0.49810E+05        -0.47939E+08         0.00000E+00
    0.00000E+00         0.00000E+00         0.10148E-07
 
    0.21197E+06         0.52553E+05         0.00000E+00
    0.52553E+05        -0.47963E+08         0.00000E+00
    0.00000E+00         0.00000E+00         0.60889E-07
 
    0.22263E+06         0.55412E+05         0.00000E+00
    0.55412E+05        -0.47987E+08         0.00000E+00
    0.00000E+00         0.00000E+00        -0.20296E-07
 
    0.23384E+06         0.58393E+05         0.00000E+00
    0.58393E+05        -0.48013E+08         0.00000E+00
    0.00000E+00         0.00000E+00         0.11369E-12
 
    0.24557E+06         0.61505E+05         0.00000E+00
    0.61505E+05        -0.48040E+08         0.00000E+00
    0.00000E+00         0.00000E+00        -0.30444E-07
 
    0.25784E+06         0.64753E+05         0.00000E+00
    0.64753E+05        -0.48069E+08         0.00000E+00
    0.00000E+00         0.00000E+00        -0.10148E-07
 
    0.27065E+06         0.68144E+05         0.00000E+00
    0.68144E+05        -0.48100E+08         0.00000E+00
    0.00000E+00         0.00000E+00         0.10148E-06
 
    0.28399E+06         0.71683E+05         0.00000E+00
    0.71683E+05        -0.48132E+08         0.00000E+00
    0.00000E+00         0.00000E+00        -0.11163E-06
 
    0.29787E+06         0.75377E+05         0.00000E+00
    0.75377E+05        -0.48166E+08         0.00000E+00
    0.00000E+00         0.00000E+00         0.00000E+00
 
    0.31229E+06         0.79231E+05         0.00000E+00
    0.79231E+05        -0.48202E+08         0.00000E+00
    0.00000E+00         0.00000E+00         0.40592E-07
 
    0.32724E+06         0.83250E+05         0.00000E+00
    0.83250E+05        -0.48240E+08         0.00000E+00
    0.00000E+00         0.00000E+00        -0.40593E-07
 
    0.34273E+06         0.87439E+05         0.00000E+00
    0.87439E+05        -0.48281E+08         0.00000E+00
    0.00000E+00         0.00000E+00         0.00000E+00
 
    0.35875E+06         0.91804E+05         0.00000E+00
    0.91804E+05        -0.48323E+08         0.00000E+00
    0.00000E+00         0.00000E+00         0.20296E-07
 
    0.37530E+06         0.96347E+05         0.00000E+00
    0.96347E+05        -0.48368E+08         0.00000E+00
    0.00000E+00         0.00000E+00         0.50741E-07
 
    0.39236E+06         0.10107E+06         0.00000E+00
    0.10107E+06        -0.48416E+08         0.00000E+00
    0.00000E+00         0.00000E+00         0.50741E-07
 
    0.40994E+06         0.10599E+06         0.00000E+00
    0.10599E+06        -0.48466E+08         0.00000E+00
    0.00000E+00         0.00000E+00        -0.20296E-07
 
    0.42801E+06         0.11109E+06         0.00000E+00
    0.11109E+06        -0.48519E+08         0.00000E+00
    0.00000E+00         0.00000E+00         0.10148E-07
 
    0.44657E+06         0.11639E+06         0.00000E+00
    0.11639E+06        -0.48574E+08         0.00000E+00
    0.00000E+00         0.00000E+00         0.30444E-07
 
    0.46558E+06         0.12189E+06         0.00000E+00
    0.12189E+06        -0.48633E+08         0.00000E+00
    0.00000E+00         0.00000E+00         0.10148E-07
 
    0.48504E+06         0.12758E+06         0.00000E+00
    0.12758E+06        -0.48696E+08         0.00000E+00
    0.00000E+00         0.00000E+00        -0.30444E-07
 
    0.50490E+06         0.13347E+06         0.00000E+00
    0.13347E+06        -0.48761E+08         0.00000E+00
    0.00000E+00         0.00000E+00        -0.91333E-07
 
    0.52514E+06         0.13956E+06         0.00000E+00
    0.13956E+06        -0.48830E+08         0.00000E+00
    0.00000E+00         0.00000E+00        -0.30444E-07
 
    0.54572E+06         0.14584E+06         0.00000E+00
    0.14584E+06        -0.48903E+08         0.00000E+00
    0.00000E+00         0.00000E+00         0.40593E-07
 
    0.56658E+06         0.15233E+06         0.00000E+00
    0.15233E+06        -0.48980E+08         0.00000E+00
    0.00000E+00         0.00000E+00         0.60889E-07
 
    0.58769E+06         0.15901E+06         0.00000E+00
    0.15901E+06        -0.49061E+08         0.00000E+00
    0.00000E+00         0.00000E+00        -0.81185E-07
 
    0.60899E+06         0.16587E+06         0.00000E+00
    0.16587E+06        -0.49146E+08         0.00000E+00
    0.00000E+00         0.00000E+00         0.50741E-07
 
    0.63039E+06         0.17293E+06         0.00000E+00
    0.17293E+06        -0.49236E+08         0.00000E+00
    0.00000E+00         0.00000E+00         0.20296E-07
 
    0.65183E+06         0.18017E+06         0.00000E+00
    0.18017E+06        -0.49330E+08         0.00000E+00
    0.00000E+00         0.00000E+00         0.60889E-07
 
    0.67323E+06         0.18757E+06         0.00000E+00
    0.18757E+06        -0.49429E+08         0.00000E+00
    0.00000E+00         0.00000E+00         0.71037E-07
 
    0.69448E+06         0.19515E+06         0.00000E+00
    0.19515E+06        -0.49534E+08         0.00000E+00
    0.00000E+00         0.00000E+00         0.30444E-07
 
    0.71548E+06         0.20287E+06         0.00000E+00
    0.20287E+06        -0.49643E+08         0.00000E+00
    0.00000E+00         0.00000E+00        -0.60889E-07
 
    0.73611E+06         0.21073E+06         0.00000E+00
    0.21073E+06        -0.49759E+08         0.00000E+00
    0.00000E+00         0.00000E+00         0.30444E-07
 
    0.75623E+06         0.21871E+06         0.00000E+00
    0.21871E+06        -0.49880E+08         0.00000E+00
    0.00000E+00         0.00000E+00        -0.20296E-07
 
    0.77570E+06         0.22680E+06         0.00000E+00
    0.22680E+06        -0.50007E+08         0.00000E+00
    0.00000E+00         0.00000E+00        -0.50741E-07
 
    0.79435E+06         0.23497E+06         0.00000E+00
    0.23497E+06        -0.50140E+08         0.00000E+00
    0.00000E+00         0.00000E+00         0.10148E-07
 
    0.81200E+06         0.24321E+06         0.00000E+00
    0.24321E+06        -0.50280E+08         0.00000E+00
    0.00000E+00         0.00000E+00         0.00000E+00
 
    0.82846E+06         0.25147E+06         0.00000E+00
    0.25147E+06        -0.50426E+08         0.00000E+00
    0.00000E+00         0.00000E+00         0.11163E-06
 
    0.84349E+06         0.25974E+06         0.00000E+00
    0.25974E+06        -0.50580E+08         0.00000E+00
    0.00000E+00         0.00000E+00        -0.20296E-07
 
    0.85687E+06         0.26797E+06         0.00000E+00
    0.26797E+06        -0.50740E+08         0.00000E+00
    0.00000E+00         0.00000E+00        -0.50741E-07
 
    0.86831E+06         0.27613E+06         0.00000E+00
    0.27613E+06        -0.50908E+08         0.00000E+00
    0.00000E+00         0.00000E+00        -0.71037E-07
 
    0.87753E+06         0.28417E+06         0.00000E+00
    0.28417E+06        -0.51084E+08         0.00000E+00
    0.00000E+00         0.00000E+00         0.20296E-07
 
    0.88421E+06         0.29204E+06         0.00000E+00
    0.29204E+06        -0.51268E+08         0.00000E+00
    0.00000E+00         0.00000E+00        -0.10148E-07
 
    0.88800E+06         0.29969E+06         0.00000E+00
    0.29969E+06        -0.51459E+08         0.00000E+00
    0.00000E+00         0.00000E+00        -0.10148E-07
 
    0.88850E+06         0.30704E+06         0.00000E+00
    0.30704E+06        -0.51659E+08         0.00000E+00
    0.00000E+00         0.00000E+00         0.60889E-07
 
    0.88529E+06         0.31404E+06         0.00000E+00
    0.31404E+06        -0.51868E+08         0.00000E+00
    0.00000E+00         0.00000E+00        -0.10148E-06
 
    0.87791E+06         0.32058E+06         0.00000E+00
    0.32058E+06        -0.52086E+08         0.00000E+00
    0.00000E+00         0.00000E+00         0.00000E+00
 
    0.86584E+06         0.32659E+06         0.00000E+00
    0.32659E+06        -0.52313E+08         0.00000E+00
    0.00000E+00         0.00000E+00        -0.71037E-07
 
    0.84852E+06         0.33196E+06         0.00000E+00
    0.33196E+06        -0.52549E+08         0.00000E+00
    0.00000E+00         0.00000E+00        -0.30444E-07
 
    0.82532E+06         0.33657E+06         0.00000E+00
    0.33657E+06        -0.52794E+08         0.00000E+00
    0.00000E+00         0.00000E+00        -0.40593E-07
 
    0.79556E+06         0.34028E+06         0.00000E+00
    0.34028E+06        -0.53049E+08         0.00000E+00
    0.00000E+00         0.00000E+00         0.50741E-07
 
    0.75849E+06         0.34294E+06         0.00000E+00
    0.34294E+06        -0.53314E+08         0.00000E+00
    0.00000E+00         0.00000E+00         0.30444E-07
 
    0.71328E+06         0.34439E+06         0.00000E+00
    0.34439E+06        -0.53589E+08         0.00000E+00
    0.00000E+00         0.00000E+00        -0.20296E-07
 
    0.65899E+06         0.34442E+06         0.00000E+00
    0.34442E+06        -0.53874E+08         0.00000E+00
    0.00000E+00         0.00000E+00        -0.10148E-06
 
    0.59463E+06         0.34283E+06         0.00000E+00
    0.34283E+06        -0.54169E+08         0.00000E+00
    0.00000E+00         0.00000E+00        -0.13193E-06
 
    0.51905E+06         0.33935E+06         0.00000E+00
    0.33935E+06        -0.54474E+08         0.00000E+00
    0.00000E+00         0.00000E+00        -0.40593E-07
 
    0.43104E+06         0.33373E+06         0.00000E+00
    0.33373E+06        -0.54790E+08         0.00000E+00
    0.00000E+00         0.00000E+00        -0.71037E-07
 
    0.32922E+06         0.32565E+06         0.00000E+00
    0.32565E+06        -0.55115E+08         0.00000E+00
    0.00000E+00         0.00000E+00        -0.20296E-07
 
    0.21209E+06         0.31480E+06         0.00000E+00
    0.31480E+06        -0.55452E+08         0.00000E+00
    0.00000E+00         0.00000E+00         0.40593E-07
 
    0.78018E+05         0.30080E+06         0.00000E+00
    0.30080E+06        -0.55798E+08         0.00000E+00
    0.00000E+00         0.00000E+00         0.13193E-06
 
   -0.74770E+05         0.28329E+06         0.00000E+00
    0.28329E+06        -0.56155E+08         0.00000E+00
    0.00000E+00         0.00000E+00         0.30444E-07
 
   -0.24819E+06         0.26190E+06         0.00000E+00
    0.26190E+06        -0.56521E+08         0.00000E+00
    0.00000E+00         0.00000E+00        -0.10148E-06
 
   -0.44426E+06         0.23625E+06         0.00000E+00
    0.23625E+06        -0.56897E+08         0.00000E+00
    0.00000E+00         0.00000E+00         0.60887E-07
 
   -0.66511E+06         0.20601E+06         0.00000E+00
    0.20601E+06        -0.57283E+08         0.00000E+00
    0.00000E+00         0.00000E+00         0.11163E-06
 
   -0.91287E+06         0.17093E+06         0.00000E+00
    0.17093E+06        -0.57678E+08         0.00000E+00
    0.00000E+00         0.00000E+00        -0.20296E-07
 
   -0.11896E+07         0.13089E+06         0.00000E+00
    0.13089E+06        -0.58081E+08         0.00000E+00
    0.00000E+00         0.00000E+00         0.30444E-07
 
   -0.14973E+07         0.85961E+05         0.00000E+00
    0.85961E+05        -0.58492E+08         0.00000E+00
    0.00000E+00         0.00000E+00         0.50741E-07
 
   -0.18375E+07         0.36495E+05         0.00000E+00
    0.36495E+05        -0.58911E+08         0.00000E+00
    0.00000E+00         0.00000E+00        -0.20296E-07
 
   -0.22110E+07        -0.16745E+05         0.00000E+00
   -0.16745E+05        -0.59335E+08         0.00000E+00
    0.00000E+00         0.00000E+00        -0.10148E-07
 
   -0.26178E+07        -0.72440E+05         0.00000E+00
   -0.72440E+05        -0.59765E+08         0.00000E+00
    0.00000E+00         0.00000E+00         0.50741E-07
 
   -0.30560E+07        -0.12845E+06         0.00000E+00
   -0.12845E+06        -0.60199E+08         0.00000E+00
    0.00000E+00         0.00000E+00        -0.91333E-07
 
   -0.35212E+07        -0.18128E+06         0.00000E+00
   -0.18128E+06        -0.60635E+08         0.00000E+00
    0.00000E+00         0.00000E+00        -0.50741E-07
 
   -0.40046E+07        -0.22500E+06         0.00000E+00
   -0.22500E+06        -0.61071E+08         0.00000E+00
    0.00000E+00         0.00000E+00        -0.10148E-06
 
   -0.44893E+07        -0.24690E+06         0.00000E+00
   -0.24690E+06        -0.61501E+08         0.00000E+00
    0.00000E+00         0.00000E+00         0.50741E-07
 
   -0.49522E+07        -0.21496E+06         0.00000E+00
   -0.21496E+06        -0.61896E+08         0.00000E+00
    0.00000E+00         0.00000E+00         0.91332E-07
 
   -0.53927E+07        -0.90486E+05         0.00000E+00
   -0.90486E+05        -0.62160E+08         0.00000E+00
    0.00000E+00         0.00000E+00        -0.71037E-07
 
    0.17769E+06        -0.13139E+04         0.00000E+00
   -0.13139E+04        -0.47607E+08         0.00000E+00
    0.00000E+00         0.00000E+00         0.40593E-07
 
    0.16928E+06        -0.26177E+04         0.00000E+00
   -0.26177E+04        -0.47613E+08         0.00000E+00
    0.00000E+00         0.00000E+00         0.00000E+00
 
    0.16090E+06        -0.19604E+04         0.00000E+00
   -0.19604E+04        -0.47622E+08         0.00000E+00
    0.00000E+00         0.00000E+00         0.50741E-07
 
    0.15271E+06        -0.34043E+03         0.00000E+00
   -0.34043E+03        -0.47631E+08         0.00000E+00
    0.00000E+00         0.00000E+00         0.00000E+00
 
    0.14524E+06         0.16095E+04         0.00000E+00
    0.16095E+04        -0.47640E+08         0.00000E+00
    0.00000E+00         0.00000E+00        -0.10148E-07
 
    0.13878E+06         0.36901E+04         0.00000E+00
    0.36901E+04        -0.47650E+08         0.00000E+00
    0.00000E+00         0.00000E+00        -0.30444E-07
 
    0.13344E+06         0.58123E+04         0.00000E+00
    0.58123E+04        -0.47660E+08         0.00000E+00
    0.00000E+00         0.00000E+00         0.10148E-07
 
    0.12927E+06         0.79268E+04         0.00000E+00
    0.79268E+04        -0.47670E+08         0.00000E+00
    0.00000E+00         0.00000E+00         0.30444E-07
 
    0.12625E+06         0.10007E+05         0.00000E+00
    0.10007E+05        -0.47680E+08         0.00000E+00
    0.00000E+00         0.00000E+00         0.81185E-07
 
    0.12434E+06         0.12039E+05         0.00000E+00
    0.12039E+05        -0.47691E+08         0.00000E+00
    0.00000E+00         0.00000E+00        -0.20296E-07
 
    0.12350E+06         0.14019E+05         0.00000E+00
    0.14019E+05        -0.47702E+08         0.00000E+00
    0.00000E+00         0.00000E+00        -0.71037E-07
 
    0.12366E+06         0.15949E+05         0.00000E+00
    0.15949E+05        -0.47713E+08         0.00000E+00
    0.00000E+00         0.00000E+00         0.00000E+00
 
    0.12477E+06         0.17834E+05         0.00000E+00
    0.17834E+05        -0.47725E+08         0.00000E+00
    0.00000E+00         0.00000E+00        -0.10148E-07
 
    0.12676E+06         0.19685E+05         0.00000E+00
    0.19685E+05        -0.47737E+08         0.00000E+00
    0.00000E+00         0.00000E+00         0.40593E-07
 
    0.12959E+06         0.21512E+05         0.00000E+00
    0.21512E+05        -0.47750E+08         0.00000E+00
    0.00000E+00         0.00000E+00        -0.10148E-07
 
    0.13319E+06         0.23327E+05         0.00000E+00
    0.23327E+05        -0.47763E+08         0.00000E+00
    0.00000E+00         0.00000E+00        -0.20296E-07
 
    0.13753E+06         0.25142E+05         0.00000E+00
    0.25142E+05        -0.47777E+08         0.00000E+00
    0.00000E+00         0.00000E+00         0.20296E-07
 
    0.14256E+06         0.26970E+05         0.00000E+00
    0.26970E+05        -0.47792E+08         0.00000E+00
    0.00000E+00         0.00000E+00        -0.81185E-07
 
    0.14826E+06         0.28821E+05         0.00000E+00
    0.28821E+05        -0.47807E+08         0.00000E+00
    0.00000E+00         0.00000E+00        -0.50741E-07
 
    0.15458E+06         0.30707E+05         0.00000E+00
    0.30707E+05        -0.47824E+08         0.00000E+00
    0.00000E+00         0.00000E+00         0.40593E-07
 
    0.16152E+06         0.32637E+05         0.00000E+00
    0.32637E+05        -0.47841E+08         0.00000E+00
    0.00000E+00         0.00000E+00        -0.91333E-07
 
    0.16904E+06         0.34623E+05         0.00000E+00
    0.34623E+05        -0.47858E+08         0.00000E+00
    0.00000E+00         0.00000E+00         0.00000E+00
 
    0.17714E+06         0.36672E+05         0.00000E+00
    0.36672E+05        -0.47877E+08         0.00000E+00
    0.00000E+00         0.00000E+00         0.00000E+00
 
    0.18581E+06         0.38793E+05         0.00000E+00
    0.38793E+05        -0.47897E+08         0.00000E+00
    0.00000E+00         0.00000E+00        -0.81185E-07
 
    0.19502E+06         0.40993E+05         0.00000E+00
    0.40993E+05        -0.47918E+08         0.00000E+00
    0.00000E+00         0.00000E+00        -0.40593E-07
 
    0.20479E+06         0.43281E+05         0.00000E+00
    0.43281E+05        -0.47940E+08         0.00000E+00
    0.00000E+00         0.00000E+00         0.00000E+00
 
    0.21510E+06         0.45664E+05         0.00000E+00
    0.45664E+05        -0.47963E+08         0.00000E+00
    0.00000E+00         0.00000E+00        -0.30444E-07
 
    0.22596E+06         0.48146E+05         0.00000E+00
    0.48146E+05        -0.47988E+08         0.00000E+00
    0.00000E+00         0.00000E+00         0.20296E-07
 
    0.23735E+06         0.50736E+05         0.00000E+00
    0.50736E+05        -0.48014E+08         0.00000E+00
    0.00000E+00         0.00000E+00         0.30444E-07
 
    0.24929E+06         0.53438E+05         0.00000E+00
    0.53438E+05        -0.48041E+08         0.00000E+00
    0.00000E+00         0.00000E+00         0.00000E+00
 
    0.26177E+06         0.56259E+05         0.00000E+00
    0.56259E+05        -0.48070E+08         0.00000E+00
    0.00000E+00         0.00000E+00         0.00000E+00
 
    0.27480E+06         0.59204E+05         0.00000E+00
    0.59204E+05        -0.48101E+08         0.00000E+00
    0.00000E+00         0.00000E+00         0.10148E-07
 
    0.28837E+06         0.62278E+05         0.00000E+00
    0.62278E+05        -0.48133E+08         0.00000E+00
    0.00000E+00         0.00000E+00         0.30444E-07
 
    0.30249E+06         0.65486E+05         0.00000E+00
    0.65486E+05        -0.48167E+08         0.00000E+00
    0.00000E+00         0.00000E+00         0.00000E+00
 
    0.31716E+06         0.68832E+05         0.00000E+00
    0.68832E+05        -0.48203E+08         0.00000E+00
    0.00000E+00         0.00000E+00         0.00000E+00
 
    0.33237E+06         0.72322E+05         0.00000E+00
    0.72322E+05        -0.48241E+08         0.00000E+00
    0.00000E+00         0.00000E+00        -0.60889E-07
 
    0.34813E+06         0.75960E+05         0.00000E+00
    0.75960E+05        -0.48281E+08         0.00000E+00
    0.00000E+00         0.00000E+00         0.71037E-07
 
    0.36444E+06         0.79750E+05         0.00000E+00
    0.79750E+05        -0.48324E+08         0.00000E+00
    0.00000E+00         0.00000E+00         0.30444E-07
 
    0.38128E+06         0.83695E+05         0.00000E+00
    0.83695E+05        -0.48369E+08         0.00000E+00
    0.00000E+00         0.00000E+00         0.30444E-07
 
    0.39865E+06         0.87799E+05         0.00000E+00
    0.87799E+05        -0.48416E+08         0.00000E+00
    0.00000E+00         0.00000E+00         0.10148E-07
 
    0.41654E+06         0.92066E+05         0.00000E+00
    0.92066E+05        -0.48467E+08         0.00000E+00
    0.00000E+00         0.00000E+00        -0.20296E-07
 
    0.43494E+06         0.96498E+05         0.00000E+00
    0.96498E+05        -0.48520E+08         0.00000E+00
    0.00000E+00         0.00000E+00         0.30444E-07
 
    0.45383E+06         0.10110E+06         0.00000E+00
    0.10110E+06        -0.48575E+08         0.00000E+00
    0.00000E+00         0.00000E+00         0.30444E-07
 
    0.47320E+06         0.10587E+06         0.00000E+00
    0.10587E+06        -0.48634E+08         0.00000E+00
    0.00000E+00         0.00000E+00        -0.40593E-07
 
    0.49301E+06         0.11081E+06         0.00000E+00
    0.11081E+06        -0.48697E+08         0.00000E+00
    0.00000E+00         0.00000E+00        -0.10148E-07
 
    0.51325E+06         0.11592E+06         0.00000E+00
    0.11592E+06        -0.48762E+08         0.00000E+00
    0.00000E+00         0.00000E+00         0.20296E-07
 
    0.53388E+06         0.12121E+06         0.00000E+00
    0.12121E+06        -0.48831E+08         0.00000E+00
    0.00000E+00         0.00000E+00        -0.71037E-07
 
    0.55485E+06         0.12666E+06         0.00000E+00
    0.12666E+06        -0.48904E+08         0.00000E+00
    0.00000E+00         0.00000E+00         0.20296E-07
 
    0.57613E+06         0.13229E+06         0.00000E+00
    0.13229E+06        -0.48981E+08         0.00000E+00
    0.00000E+00         0.00000E+00        -0.20296E-07
 
    0.59766E+06         0.13809E+06         0.00000E+00
    0.13809E+06        -0.49062E+08         0.00000E+00
    0.00000E+00         0.00000E+00        -0.10148E-07
 
    0.61938E+06         0.14405E+06         0.00000E+00
    0.14405E+06        -0.49147E+08         0.00000E+00
    0.00000E+00         0.00000E+00        -0.60889E-07
 
    0.64123E+06         0.15017E+06         0.00000E+00
    0.15017E+06        -0.49237E+08         0.00000E+00
    0.00000E+00         0.00000E+00         0.00000E+00
 
    0.66312E+06         0.15645E+06         0.00000E+00
    0.15645E+06        -0.49332E+08         0.00000E+00
    0.00000E+00         0.00000E+00        -0.16237E-06
 
    0.68498E+06         0.16288E+06         0.00000E+00
    0.16288E+06        -0.49431E+08         0.00000E+00
    0.00000E+00         0.00000E+00         0.11163E-06
 
    0.70670E+06         0.16945E+06         0.00000E+00
    0.16945E+06        -0.49535E+08         0.00000E+00
    0.00000E+00         0.00000E+00         0.00000E+00
 
    0.72817E+06         0.17615E+06         0.00000E+00
    0.17615E+06        -0.49645E+08         0.00000E+00
    0.00000E+00         0.00000E+00        -0.20296E-07
 
    0.74928E+06         0.18296E+06         0.00000E+00
    0.18296E+06        -0.49760E+08         0.00000E+00
    0.00000E+00         0.00000E+00         0.60889E-07
 
    0.76989E+06         0.18989E+06         0.00000E+00
    0.18989E+06        -0.49881E+08         0.00000E+00
    0.00000E+00         0.00000E+00        -0.20296E-07
 
    0.78985E+06         0.19690E+06         0.00000E+00
    0.19690E+06        -0.50008E+08         0.00000E+00
    0.00000E+00         0.00000E+00         0.91333E-07
 
    0.80900E+06         0.20399E+06         0.00000E+00
    0.20399E+06        -0.50142E+08         0.00000E+00
    0.00000E+00         0.00000E+00         0.00000E+00
 
    0.82715E+06         0.21113E+06         0.00000E+00
    0.21113E+06        -0.50281E+08         0.00000E+00
    0.00000E+00         0.00000E+00         0.20296E-07
 
    0.84410E+06         0.21829E+06         0.00000E+00
    0.21829E+06        -0.50428E+08         0.00000E+00
    0.00000E+00         0.00000E+00         0.30444E-07
 
    0.85962E+06         0.22546E+06         0.00000E+00
    0.22546E+06        -0.50581E+08         0.00000E+00
    0.00000E+00         0.00000E+00        -0.10148E-07
 
    0.87348E+06         0.23259E+06         0.00000E+00
    0.23259E+06        -0.50742E+08         0.00000E+00
    0.00000E+00         0.00000E+00         0.20296E-07
 
    0.88540E+06         0.23966E+06         0.00000E+00
    0.23966E+06        -0.50910E+08         0.00000E+00
    0.00000E+00         0.00000E+00        -0.40593E-07
 
    0.89510E+06         0.24662E+06         0.00000E+00
    0.24662E+06        -0.51085E+08         0.00000E+00
    0.00000E+00         0.00000E+00        -0.10148E-07
 
    0.90223E+06         0.25344E+06         0.00000E+00
    0.25344E+06        -0.51269E+08         0.00000E+00
    0.00000E+00         0.00000E+00        -0.60889E-07
 
    0.90645E+06         0.26006E+06         0.00000E+00
    0.26006E+06        -0.51461E+08         0.00000E+00
    0.00000E+00         0.00000E+00         0.00000E+00
 
    0.90737E+06         0.26643E+06         0.00000E+00
    0.26643E+06        -0.51661E+08         0.00000E+00
    0.00000E+00         0.00000E+00         0.71037E-07
 
    0.90456E+06         0.27247E+06         0.00000E+00
    0.27247E+06        -0.51870E+08         0.00000E+00
    0.00000E+00         0.00000E+00        -0.10148E-07
 
    0.89754E+06         0.27813E+06         0.00000E+00
    0.27813E+06        -0.52087E+08         0.00000E+00
    0.00000E+00         0.00000E+00         0.00000E+00
 
    0.88579E+06         0.28332E+06         0.00000E+00
    0.28332E+06        -0.52314E+08         0.00000E+00
    0.00000E+00         0.00000E+00        -0.60889E-07
 
    0.86875E+06         0.28795E+06         0.00000E+00
    0.28795E+06        -0.52550E+08         0.00000E+00
    0.00000E+00         0.00000E+00         0.20296E-07
 
    0.84578E+06         0.29192E+06         0.00000E+00
    0.29192E+06        -0.52795E+08         0.00000E+00
    0.00000E+00         0.00000E+00        -0.10148E-07
 
    0.81619E+06         0.29510E+06         0.00000E+00
    0.29510E+06        -0.53050E+08         0.00000E+00
    0.00000E+00         0.00000E+00        -0.40593E-07
 
    0.77921E+06         0.29737E+06         0.00000E+00
    0.29737E+06        -0.53314E+08         0.00000E+00
    0.00000E+00         0.00000E+00        -0.30444E-07
 
    0.73399E+06         0.29857E+06         0.00000E+00
    0.29857E+06        -0.53589E+08         0.00000E+00
    0.00000E+00         0.00000E+00         0.71037E-07
 
    0.67960E+06         0.29854E+06         0.00000E+00
    0.29854E+06        -0.53873E+08         0.00000E+00
    0.00000E+00         0.00000E+00         0.50741E-07
 
    0.61499E+06         0.29707E+06         0.00000E+00
    0.29707E+06        -0.54168E+08         0.00000E+00
    0.00000E+00         0.00000E+00        -0.60889E-07
 
    0.53902E+06         0.29396E+06         0.00000E+00
    0.29396E+06        -0.54473E+08         0.00000E+00
    0.00000E+00         0.00000E+00        -0.20296E-07
 
    0.45041E+06         0.28897E+06         0.00000E+00
    0.28897E+06        -0.54788E+08         0.00000E+00
    0.00000E+00         0.00000E+00        -0.20296E-07
 
    0.34776E+06         0.28182E+06         0.00000E+00
    0.28182E+06        -0.55114E+08         0.00000E+00
    0.00000E+00         0.00000E+00        -0.20296E-07
 
    0.22950E+06         0.27221E+06         0.00000E+00
    0.27221E+06        -0.55449E+08         0.00000E+00
    0.00000E+00         0.00000E+00        -0.20296E-07
 
    0.93951E+05         0.25984E+06         0.00000E+00
    0.25984E+06        -0.55795E+08         0.00000E+00
    0.00000E+00         0.00000E+00        -0.13193E-06
 
   -0.60761E+05         0.24437E+06         0.00000E+00
    0.24437E+06        -0.56151E+08         0.00000E+00
    0.00000E+00         0.00000E+00         0.17252E-06
 
   -0.23664E+06         0.22545E+06         0.00000E+00
    0.22545E+06        -0.56517E+08         0.00000E+00
    0.00000E+00         0.00000E+00        -0.50741E-07
 
   -0.43583E+06         0.20276E+06         0.00000E+00
    0.20276E+06        -0.56892E+08         0.00000E+00
    0.00000E+00         0.00000E+00        -0.30444E-07
 
   -0.66058E+06         0.17597E+06         0.00000E+00
    0.17597E+06        -0.57277E+08         0.00000E+00
    0.00000E+00         0.00000E+00         0.10148E-06
 
   -0.91320E+06         0.14487E+06         0.00000E+00
    0.14487E+06        -0.57671E+08         0.00000E+00
    0.00000E+00         0.00000E+00         0.00000E+00
 
   -0.11960E+07         0.10931E+06         0.00000E+00
    0.10931E+06        -0.58073E+08         0.00000E+00
    0.00000E+00         0.00000E+00         0.60889E-07
 
   -0.15110E+07         0.69328E+05         0.00000E+00
    0.69328E+05        -0.58483E+08         0.00000E+00
    0.00000E+00         0.00000E+00        -0.81185E-07
 
   -0.18601E+07         0.25201E+05         0.00000E+00
    0.25201E+05        -0.58901E+08         0.00000E+00
    0.00000E+00         0.00000E+00        -0.30444E-07
 
   -0.22444E+07        -0.22460E+05         0.00000E+00
   -0.22460E+05        -0.59325E+08         0.00000E+00
    0.00000E+00         0.00000E+00         0.20296E-07
 
   -0.26642E+07        -0.72576E+05         0.00000E+00
   -0.72576E+05        -0.59755E+08         0.00000E+00
    0.00000E+00         0.00000E+00         0.00000E+00
 
   -0.31181E+07        -0.12341E+06         0.00000E+00
   -0.12341E+06        -0.60189E+08         0.00000E+00
    0.00000E+00         0.00000E+00         0.11163E-06
 
   -0.36020E+07        -0.17211E+06         0.00000E+00
   -0.17211E+06        -0.60626E+08         0.00000E+00
    0.00000E+00         0.00000E+00         0.00000E+00
 
   -0.41077E+07        -0.21388E+06         0.00000E+00
   -0.21388E+06        -0.61064E+08         0.00000E+00
    0.00000E+00         0.00000E+00         0.14207E-06
 
   -0.46181E+07        -0.23856E+06         0.00000E+00
   -0.23856E+06        -0.61499E+08         0.00000E+00
    0.00000E+00         0.00000E+00        -0.91333E-07
 
   -0.51044E+07        -0.21477E+06         0.00000E+00
   -0.21477E+06        -0.61910E+08         0.00000E+00
    0.00000E+00         0.00000E+00        -0.10148E-07
 
   -0.55566E+07        -0.93454E+05         0.00000E+00
   -0.93454E+05        -0.62194E+08         0.00000E+00
    0.00000E+00         0.00000E+00        -0.10148E-07
 
    0.18178E+06        -0.14420E+04         0.00000E+00
   -0.14420E+04        -0.47607E+08         0.00000E+00
    0.00000E+00         0.00000E+00        -0.10148E-07
 
    0.17306E+06        -0.27761E+04         0.00000E+00
   -0.27761E+04        -0.47613E+08         0.00000E+00
    0.00000E+00         0.00000E+00        -0.10148E-07
 
    0.16414E+06        -0.20840E+04         0.00000E+00
   -0.20840E+04        -0.47622E+08         0.00000E+00
    0.00000E+00         0.00000E+00        -0.71037E-07
 
    0.15543E+06        -0.58660E+03         0.00000E+00
   -0.58660E+03        -0.47631E+08         0.00000E+00
    0.00000E+00         0.00000E+00        -0.20296E-07
 
    0.14755E+06         0.11423E+04         0.00000E+00
    0.11423E+04        -0.47641E+08         0.00000E+00
    0.00000E+00         0.00000E+00         0.91333E-07
 
    0.14077E+06         0.29617E+04         0.00000E+00
    0.29617E+04        -0.47650E+08         0.00000E+00
    0.00000E+00         0.00000E+00         0.50741E-07
 
    0.13520E+06         0.48026E+04         0.00000E+00
    0.48026E+04        -0.47660E+08         0.00000E+00
    0.00000E+00         0.00000E+00        -0.60889E-07
 
    0.13086E+06         0.66279E+04         0.00000E+00
    0.66279E+04        -0.47670E+08         0.00000E+00
    0.00000E+00         0.00000E+00         0.10148E-07
 
    0.12772E+06         0.84172E+04         0.00000E+00
    0.84172E+04        -0.47680E+08         0.00000E+00
    0.00000E+00         0.00000E+00         0.10148E-07
 
    0.12574E+06         0.10161E+05         0.00000E+00
    0.10161E+05        -0.47691E+08         0.00000E+00
    0.00000E+00         0.00000E+00         0.00000E+00
 
    0.12486E+06         0.11856E+05         0.00000E+00
    0.11856E+05        -0.47702E+08         0.00000E+00
    0.00000E+00         0.00000E+00        -0.10148E-07
 
    0.12502E+06         0.13505E+05         0.00000E+00
    0.13505E+05        -0.47713E+08         0.00000E+00
    0.00000E+00         0.00000E+00         0.00000E+00
 
    0.12615E+06         0.15113E+05         0.00000E+00
    0.15113E+05        -0.47725E+08         0.00000E+00
    0.00000E+00         0.00000E+00         0.40593E-07
 
    0.12818E+06         0.16690E+05         0.00000E+00
    0.16690E+05        -0.47738E+08         0.00000E+00
    0.00000E+00         0.00000E+00        -0.20296E-07
 
    0.13107E+06         0.18245E+05         0.00000E+00
    0.18245E+05        -0.47750E+08         0.00000E+00
    0.00000E+00         0.00000E+00        -0.40593E-07
 
    0.13475E+06         0.19789E+05         0.00000E+00
    0.19789E+05        -0.47764E+08         0.00000E+00
    0.00000E+00         0.00000E+00         0.81185E-07
 
    0.13917E+06         0.21331E+05         0.00000E+00
    0.21331E+05        -0.47778E+08         0.00000E+00
    0.00000E+00         0.00000E+00         0.20296E-07
 
    0.14431E+06         0.22883E+05         0.00000E+00
    0.22883E+05        -0.47792E+08         0.00000E+00
    0.00000E+00         0.00000E+00        -0.71037E-07
 
    0.15011E+06         0.24454E+05         0.00000E+00
    0.24454E+05        -0.47808E+08         0.00000E+00
    0.00000E+00         0.00000E+00        -0.30444E-07
 
    0.15656E+06         0.26054E+05         0.00000E+00
    0.26054E+05        -0.47824E+08         0.00000E+00
    0.00000E+00         0.00000E+00         0.40593E-07
 
    0.16362E+06         0.27692E+05         0.00000E+00
    0.27692E+05        -0.47841E+08         0.00000E+00
    0.00000E+00         0.00000E+00         0.20296E-07
 
    0.17128E+06         0.29376E+05         0.00000E+00
    0.29376E+05        -0.47859E+08         0.00000E+00
    0.00000E+00         0.00000E+00        -0.81185E-07
 
    0.17953E+06         0.31114E+05         0.00000E+00
    0.31114E+05        -0.47878E+08         0.00000E+00
    0.00000E+00         0.00000E+00         0.40592E-07
 
    0.18834E+06         0.32912E+05         0.00000E+00
    0.32912E+05        -0.47897E+08         0.00000E+00
    0.00000E+00         0.00000E+00         0.30444E-07
 
    0.19772E+06         0.34778E+05         0.00000E+00
    0.34778E+05        -0.47918E+08         0.00000E+00
    0.00000E+00         0.00000E+00         0.81185E-07
 
    0.20765E+06         0.36718E+05         0.00000E+00
    0.36718E+05        -0.47940E+08         0.00000E+00
    0.00000E+00         0.00000E+00         0.00000E+00
 
    0.21814E+06         0.38738E+05         0.00000E+00
    0.38738E+05        -0.47964E+08         0.00000E+00
    0.00000E+00         0.00000E+00         0.00000E+00
 
    0.22918E+06         0.40843E+05         0.00000E+00
    0.40843E+05        -0.47988E+08         0.00000E+00
    0.00000E+00         0.00000E+00         0.91333E-07
 
    0.24077E+06         0.43039E+05         0.00000E+00
    0.43039E+05        -0.48014E+08         0.00000E+00
    0.00000E+00         0.00000E+00         0.10148E-07
 
    0.25290E+06         0.45330E+05         0.00000E+00
    0.45330E+05        -0.48042E+08         0.00000E+00
    0.00000E+00         0.00000E+00        -0.10148E-07
 
    0.26559E+06         0.47722E+05         0.00000E+00
    0.47722E+05        -0.48070E+08         0.00000E+00
    0.00000E+00         0.00000E+00        -0.10148E-07
 
    0.27884E+06         0.50219E+05         0.00000E+00
    0.50219E+05        -0.48101E+08         0.00000E+00
    0.00000E+00         0.00000E+00        -0.10148E-07
 
    0.29264E+06         0.52825E+05         0.00000E+00
    0.52825E+05        -0.48133E+08         0.00000E+00
    0.00000E+00         0.00000E+00        -0.81185E-07
 
    0.30699E+06         0.55545E+05         0.00000E+00
    0.55545E+05        -0.48168E+08         0.00000E+00
    0.00000E+00         0.00000E+00         0.20296E-07
 
    0.32190E+06         0.58383E+05         0.00000E+00
    0.58383E+05        -0.48204E+08         0.00000E+00
    0.00000E+00         0.00000E+00        -0.40592E-07
 
    0.33738E+06         0.61342E+05         0.00000E+00
    0.61342E+05        -0.48242E+08         0.00000E+00
    0.00000E+00         0.00000E+00        -0.30444E-07
 
    0.35340E+06         0.64426E+05         0.00000E+00
    0.64426E+05        -0.48282E+08         0.00000E+00
    0.00000E+00         0.00000E+00         0.30444E-07
 
    0.36998E+06         0.67639E+05         0.00000E+00
    0.67639E+05        -0.48325E+08         0.00000E+00
    0.00000E+00         0.00000E+00         0.00000E+00
 
    0.38711E+06         0.70983E+05         0.00000E+00
    0.70983E+05        -0.48370E+08         0.00000E+00
    0.00000E+00         0.00000E+00         0.20296E-07
 
    0.40478E+06         0.74463E+05         0.00000E+00
    0.74463E+05        -0.48417E+08         0.00000E+00
    0.00000E+00         0.00000E+00         0.30444E-07
 
    0.42298E+06         0.78080E+05         0.00000E+00
    0.78080E+05        -0.48467E+08         0.00000E+00
    0.00000E+00         0.00000E+00         0.20296E-07
 
    0.44171E+06         0.81837E+05         0.00000E+00
    0.81837E+05        -0.48520E+08         0.00000E+00
    0.00000E+00         0.00000E+00        -0.14207E-06
 
    0.46093E+06         0.85736E+05         0.00000E+00
    0.85736E+05        -0.48576E+08         0.00000E+00
    0.00000E+00         0.00000E+00         0.10148E-06
 
    0.48065E+06         0.89779E+05         0.00000E+00
    0.89779E+05        -0.48635E+08         0.00000E+00
    0.00000E+00         0.00000E+00        -0.60889E-07
 
    0.50082E+06         0.93967E+05         0.00000E+00
    0.93967E+05        -0.48698E+08         0.00000E+00
    0.00000E+00         0.00000E+00         0.10148E-07
 
    0.52143E+06         0.98301E+05         0.00000E+00
    0.98301E+05        -0.48763E+08         0.00000E+00
    0.00000E+00         0.00000E+00        -0.20296E-07
 
    0.54243E+06         0.10278E+06         0.00000E+00
    0.10278E+06        -0.48832E+08         0.00000E+00
    0.00000E+00         0.00000E+00        -0.81185E-07
 
    0.56380E+06         0.10740E+06         0.00000E+00
    0.10740E+06        -0.48905E+08         0.00000E+00
    0.00000E+00         0.00000E+00        -0.10148E-07
 
    0.58549E+06         0.11217E+06         0.00000E+00
    0.11217E+06        -0.48982E+08         0.00000E+00
    0.00000E+00         0.00000E+00        -0.30444E-07
 
    0.60743E+06         0.11709E+06         0.00000E+00
    0.11709E+06        -0.49063E+08         0.00000E+00
    0.00000E+00         0.00000E+00         0.00000E+00
 
    0.62958E+06         0.12214E+06         0.00000E+00
    0.12214E+06        -0.49148E+08         0.00000E+00
    0.00000E+00         0.00000E+00         0.15222E-06
 
    0.65187E+06         0.12732E+06         0.00000E+00
    0.12732E+06        -0.49238E+08         0.00000E+00
    0.00000E+00         0.00000E+00        -0.40593E-07
 
    0.67421E+06         0.13264E+06         0.00000E+00
    0.13264E+06        -0.49333E+08         0.00000E+00
    0.00000E+00         0.00000E+00         0.20296E-07
 
    0.69653E+06         0.13809E+06         0.00000E+00
    0.13809E+06        -0.49432E+08         0.00000E+00
    0.00000E+00         0.00000E+00         0.00000E+00
 
    0.71872E+06         0.14365E+06         0.00000E+00
    0.14365E+06        -0.49536E+08         0.00000E+00
    0.00000E+00         0.00000E+00         0.50741E-07
 
    0.74067E+06         0.14933E+06         0.00000E+00
    0.14933E+06        -0.49646E+08         0.00000E+00
    0.00000E+00         0.00000E+00        -0.13193E-06
 
    0.76226E+06         0.15510E+06         0.00000E+00
    0.15510E+06        -0.49761E+08         0.00000E+00
    0.00000E+00         0.00000E+00         0.40593E-07
 
    0.78336E+06         0.16097E+06         0.00000E+00
    0.16097E+06        -0.49883E+08         0.00000E+00
    0.00000E+00         0.00000E+00        -0.30444E-07
 
    0.80382E+06         0.16691E+06         0.00000E+00
    0.16691E+06        -0.50010E+08         0.00000E+00
    0.00000E+00         0.00000E+00         0.30444E-07
 
    0.82347E+06         0.17291E+06         0.00000E+00
    0.17291E+06        -0.50143E+08         0.00000E+00
    0.00000E+00         0.00000E+00        -0.30444E-07
 
    0.84212E+06         0.17895E+06         0.00000E+00
    0.17895E+06        -0.50283E+08         0.00000E+00
    0.00000E+00         0.00000E+00        -0.30444E-07
 
    0.85957E+06         0.18501E+06         0.00000E+00
    0.18501E+06        -0.50429E+08         0.00000E+00
    0.00000E+00         0.00000E+00        -0.10148E-07
 
    0.87560E+06         0.19107E+06         0.00000E+00
    0.19107E+06        -0.50582E+08         0.00000E+00
    0.00000E+00         0.00000E+00         0.10148E-07
 
    0.88996E+06         0.19711E+06         0.00000E+00
    0.19711E+06        -0.50743E+08         0.00000E+00
    0.00000E+00         0.00000E+00         0.20296E-07
 
    0.90237E+06         0.20309E+06         0.00000E+00
    0.20309E+06        -0.50911E+08         0.00000E+00
    0.00000E+00         0.00000E+00         0.11163E-06
 
    0.91255E+06         0.20898E+06         0.00000E+00
    0.20898E+06        -0.51087E+08         0.00000E+00
    0.00000E+00         0.00000E+00         0.00000E+00
 
    0.92016E+06         0.21475E+06         0.00000E+00
    0.21475E+06        -0.51270E+08         0.00000E+00
    0.00000E+00         0.00000E+00         0.50741E-07
 
    0.92484E+06         0.22034E+06         0.00000E+00
    0.22034E+06        -0.51462E+08         0.00000E+00
    0.00000E+00         0.00000E+00        -0.30444E-07
 
    0.92621E+06         0.22572E+06         0.00000E+00
    0.22572E+06        -0.51662E+08         0.00000E+00
    0.00000E+00         0.00000E+00         0.60889E-07
 
    0.92381E+06         0.23083E+06         0.00000E+00
    0.23083E+06        -0.51871E+08         0.00000E+00
    0.00000E+00         0.00000E+00         0.81185E-07
 
    0.91718E+06         0.23561E+06         0.00000E+00
    0.23561E+06        -0.52088E+08         0.00000E+00
    0.00000E+00         0.00000E+00         0.00000E+00
 
    0.90580E+06         0.23999E+06         0.00000E+00
    0.23999E+06        -0.52315E+08         0.00000E+00
    0.00000E+00         0.00000E+00         0.20296E-07
 
    0.88908E+06         0.24389E+06         0.00000E+00
    0.24389E+06        -0.52550E+08         0.00000E+00
    0.00000E+00         0.00000E+00         0.20296E-07
 
    0.86639E+06         0.24722E+06         0.00000E+00
    0.24722E+06        -0.52795E+08         0.00000E+00
    0.00000E+00         0.00000E+00        -0.10148E-07
 
    0.83702E+06         0.24989E+06         0.00000E+00
    0.24989E+06        -0.53050E+08         0.00000E+00
    0.00000E+00         0.00000E+00         0.11163E-06
 
    0.80019E+06         0.25177E+06         0.00000E+00
    0.25177E+06        -0.53315E+08         0.00000E+00
    0.00000E+00         0.00000E+00        -0.10148E-06
 
    0.75504E+06         0.25275E+06         0.00000E+00
    0.25275E+06        -0.53589E+08         0.00000E+00
    0.00000E+00         0.00000E+00         0.20296E-07
 
    0.70063E+06         0.25267E+06         0.00000E+00
    0.25267E+06        -0.53873E+08         0.00000E+00
    0.00000E+00         0.00000E+00        -0.20296E-07
 
    0.63587E+06         0.25137E+06         0.00000E+00
    0.25137E+06        -0.54168E+08         0.00000E+00
    0.00000E+00         0.00000E+00         0.10148E-07
 
    0.55960E+06         0.24866E+06         0.00000E+00
    0.24866E+06        -0.54472E+08         0.00000E+00
    0.00000E+00         0.00000E+00         0.00000E+00
 
    0.47051E+06         0.24433E+06         0.00000E+00
    0.24433E+06        -0.54787E+08         0.00000E+00
    0.00000E+00         0.00000E+00        -0.20296E-07
 
    0.36715E+06         0.23816E+06         0.00000E+00
    0.23816E+06        -0.55112E+08         0.00000E+00
    0.00000E+00         0.00000E+00         0.00000E+00
 
    0.24791E+06         0.22987E+06         0.00000E+00
    0.22987E+06        -0.55447E+08         0.00000E+00
    0.00000E+00         0.00000E+00         0.17252E-06
 
    0.11103E+06         0.21921E+06         0.00000E+00
    0.21921E+06        -0.55793E+08         0.00000E+00
    0.00000E+00         0.00000E+00        -0.20296E-07
 
   -0.45437E+05         0.20586E+06         0.00000E+00
    0.20586E+06        -0.56148E+08         0.00000E+00
    0.00000E+00         0.00000E+00        -0.30444E-07
 
   -0.22359E+06         0.18954E+06         0.00000E+00
    0.18954E+06        -0.56513E+08         0.00000E+00
    0.00000E+00         0.00000E+00        -0.50741E-07
 
   -0.42571E+06         0.16994E+06         0.00000E+00
    0.16994E+06        -0.56888E+08         0.00000E+00
    0.00000E+00         0.00000E+00        -0.60889E-07
 
   -0.65417E+06         0.14679E+06         0.00000E+00
    0.14679E+06        -0.57272E+08         0.00000E+00
    0.00000E+00         0.00000E+00        -0.20296E-07
 
   -0.91144E+06         0.11987E+06         0.00000E+00
    0.11987E+06        -0.57665E+08         0.00000E+00
    0.00000E+00         0.00000E+00        -0.91333E-07
 
   -0.12000E+07         0.89036E+05         0.00000E+00
    0.89036E+05        -0.58066E+08         0.00000E+00
    0.00000E+00         0.00000E+00        -0.10148E-06
 
   -0.15222E+07         0.54301E+05         0.00000E+00
    0.54301E+05        -0.58475E+08         0.00000E+00
    0.00000E+00         0.00000E+00        -0.40593E-07
 
   -0.18802E+07         0.15865E+05         0.00000E+00
    0.15865E+05        -0.58892E+08         0.00000E+00
    0.00000E+00         0.00000E+00         0.50741E-07
 
   -0.22753E+07        -0.25799E+05         0.00000E+00
   -0.25799E+05        -0.59316E+08         0.00000E+00
    0.00000E+00         0.00000E+00         0.60889E-07
 
   -0.27082E+07        -0.69842E+05         0.00000E+00
   -0.69842E+05        -0.59745E+08         0.00000E+00
    0.00000E+00         0.00000E+00        -0.20296E-07
 
   -0.31780E+07        -0.11490E+06         0.00000E+00
   -0.11490E+06        -0.60179E+08         0.00000E+00
    0.00000E+00         0.00000E+00         0.91333E-07
 
   -0.36812E+07        -0.15877E+06         0.00000E+00
   -0.15877E+06        -0.60617E+08         0.00000E+00
    0.00000E+00         0.00000E+00        -0.30444E-07
 
   -0.42104E+07        -0.19770E+06         0.00000E+00
   -0.19770E+06        -0.61057E+08         0.00000E+00
    0.00000E+00         0.00000E+00         0.10148E-07
 
   -0.47495E+07        -0.22440E+06         0.00000E+00
   -0.22440E+06        -0.61497E+08         0.00000E+00
    0.00000E+00         0.00000E+00         0.60889E-07
 
   -0.52647E+07        -0.21042E+06         0.00000E+00
   -0.21042E+06        -0.61922E+08         0.00000E+00
    0.00000E+00         0.00000E+00         0.40593E-07
 
   -0.57330E+07        -0.95711E+05         0.00000E+00
   -0.95711E+05        -0.62229E+08         0.00000E+00
    0.00000E+00         0.00000E+00        -0.10147E-07
 
    0.18611E+06        -0.15513E+04         0.00000E+00
   -0.15513E+04        -0.47606E+08         0.00000E+00
    0.00000E+00         0.00000E+00        -0.20296E-07
 
    0.17696E+06        -0.28279E+04         0.00000E+00
   -0.28279E+04        -0.47613E+08         0.00000E+00
    0.00000E+00         0.00000E+00        -0.10148E-07
 
    0.16736E+06        -0.20804E+04         0.00000E+00
   -0.20804E+04        -0.47622E+08         0.00000E+00
    0.00000E+00         0.00000E+00         0.20296E-07
 
    0.15807E+06        -0.73660E+03         0.00000E+00
   -0.73660E+03        -0.47632E+08         0.00000E+00
    0.00000E+00         0.00000E+00        -0.60889E-07
 
    0.14976E+06         0.74748E+03         0.00000E+00
    0.74748E+03        -0.47641E+08         0.00000E+00
    0.00000E+00         0.00000E+00        -0.40593E-07
 
    0.14267E+06         0.22879E+04         0.00000E+00
    0.22879E+04        -0.47651E+08         0.00000E+00
    0.00000E+00         0.00000E+00        -0.10148E-07
 
    0.13686E+06         0.38331E+04         0.00000E+00
    0.38331E+04        -0.47660E+08         0.00000E+00
    0.00000E+00         0.00000E+00         0.40592E-07
 
    0.13234E+06         0.53573E+04         0.00000E+00
    0.53573E+04        -0.47670E+08         0.00000E+00
    0.00000E+00         0.00000E+00         0.00000E+00
 
    0.12909E+06         0.68461E+04         0.00000E+00
    0.68461E+04        -0.47681E+08         0.00000E+00
    0.00000E+00         0.00000E+00        -0.71037E-07
 
    0.12704E+06         0.82929E+04         0.00000E+00
    0.82929E+04        -0.47691E+08         0.00000E+00
    0.00000E+00         0.00000E+00         0.20296E-07
 
    0.12613E+06         0.96962E+04         0.00000E+00
    0.96962E+04        -0.47702E+08         0.00000E+00
    0.00000E+00         0.00000E+00         0.56843E-13
 
    0.12628E+06         0.11059E+05         0.00000E+00
    0.11059E+05        -0.47714E+08         0.00000E+00
    0.00000E+00         0.00000E+00         0.20296E-07
 
    0.12743E+06         0.12386E+05         0.00000E+00
    0.12386E+05        -0.47726E+08         0.00000E+00
    0.00000E+00         0.00000E+00        -0.40593E-07
 
    0.12951E+06         0.13685E+05         0.00000E+00
    0.13685E+05        -0.47738E+08         0.00000E+00
    0.00000E+00         0.00000E+00        -0.10148E-07
 
    0.13246E+06         0.14965E+05         0.00000E+00
    0.14965E+05        -0.47751E+08         0.00000E+00
    0.00000E+00         0.00000E+00        -0.50741E-07
 
    0.13622E+06         0.16233E+05         0.00000E+00
    0.16233E+05        -0.47764E+08         0.00000E+00
    0.00000E+00         0.00000E+00         0.30444E-07
 
    0.14073E+06         0.17501E+05         0.00000E+00
    0.17501E+05        -0.47778E+08         0.00000E+00
    0.00000E+00         0.00000E+00        -0.20296E-07
 
    0.14597E+06         0.18775E+05         0.00000E+00
    0.18775E+05        -0.47793E+08         0.00000E+00
    0.00000E+00         0.00000E+00         0.20296E-07
 
    0.15188E+06         0.20064E+05         0.00000E+00
    0.20064E+05        -0.47808E+08         0.00000E+00
    0.00000E+00         0.00000E+00        -0.10148E-07
 
    0.15845E+06         0.21377E+05         0.00000E+00
    0.21377E+05        -0.47824E+08         0.00000E+00
    0.00000E+00         0.00000E+00        -0.60889E-07
 
    0.16564E+06         0.22720E+05         0.00000E+00
    0.22720E+05        -0.47841E+08         0.00000E+00
    0.00000E+00         0.00000E+00        -0.30444E-07
 
    0.17344E+06         0.24101E+05         0.00000E+00
    0.24101E+05        -0.47859E+08         0.00000E+00
    0.00000E+00         0.00000E+00         0.00000E+00
 
    0.18183E+06         0.25526E+05         0.00000E+00
    0.25526E+05        -0.47878E+08         0.00000E+00
    0.00000E+00         0.00000E+00        -0.30444E-07
 
    0.19079E+06         0.27001E+05         0.00000E+00
    0.27001E+05        -0.47898E+08         0.00000E+00
    0.00000E+00         0.00000E+00        -0.20296E-07
 
    0.20033E+06         0.28531E+05         0.00000E+00
    0.28531E+05        -0.47919E+08         0.00000E+00
    0.00000E+00         0.00000E+00        -0.20296E-07
 
    0.21043E+06         0.30121E+05         0.00000E+00
    0.30121E+05        -0.47941E+08         0.00000E+00
    0.00000E+00         0.00000E+00         0.50741E-07
 
    0.22108E+06         0.31777E+05         0.00000E+00
    0.31777E+05        -0.47964E+08         0.00000E+00
    0.00000E+00         0.00000E+00         0.20296E-07
 
    0.23230E+06         0.33503E+05         0.00000E+00
    0.33503E+05        -0.47989E+08         0.00000E+00
    0.00000E+00         0.00000E+00        -0.30444E-07
 
    0.24408E+06         0.35304E+05         0.00000E+00
    0.35304E+05        -0.48015E+08         0.00000E+00
    0.00000E+00         0.00000E+00         0.30444E-07
 
    0.25641E+06         0.37182E+05         0.00000E+00
    0.37182E+05        -0.48042E+08         0.00000E+00
    0.00000E+00         0.00000E+00         0.00000E+00
 
    0.26930E+06         0.39143E+05         0.00000E+00
    0.39143E+05        -0.48071E+08         0.00000E+00
    0.00000E+00         0.00000E+00         0.40593E-07
 
    0.28276E+06         0.41190E+05         0.00000E+00
    0.41190E+05        -0.48102E+08         0.00000E+00
    0.00000E+00         0.00000E+00        -0.10148E-06
 
    0.29678E+06         0.43327E+05         0.00000E+00
    0.43327E+05        -0.48134E+08         0.00000E+00
    0.00000E+00         0.00000E+00         0.81185E-07
 
    0.31137E+06         0.45557E+05         0.00000E+00
    0.45557E+05        -0.48168E+08         0.00000E+00
    0.00000E+00         0.00000E+00        -0.20296E-07
 
    0.32652E+06         0.47883E+05         0.00000E+00
    0.47883E+05        -0.48204E+08         0.00000E+00
    0.00000E+00         0.00000E+00         0.40593E-07
 
    0.34225E+06         0.50309E+05         0.00000E+00
    0.50309E+05        -0.48242E+08         0.00000E+00
    0.00000E+00         0.00000E+00        -0.10148E-07
 
    0.35854E+06         0.52838E+05         0.00000E+00
    0.52838E+05        -0.48283E+08         0.00000E+00
    0.00000E+00         0.00000E+00         0.40593E-07
 
    0.37539E+06         0.55472E+05         0.00000E+00
    0.55472E+05        -0.48325E+08         0.00000E+00
    0.00000E+00         0.00000E+00        -0.20296E-07
 
    0.39280E+06         0.58213E+05         0.00000E+00
    0.58213E+05        -0.48370E+08         0.00000E+00
    0.00000E+00         0.00000E+00         0.81185E-07
 
    0.41077E+06         0.61066E+05         0.00000E+00
    0.61066E+05        -0.48418E+08         0.00000E+00
    0.00000E+00         0.00000E+00         0.20296E-07
 
    0.42928E+06         0.64031E+05         0.00000E+00
    0.64031E+05        -0.48468E+08         0.00000E+00
    0.00000E+00         0.00000E+00         0.50741E-07
 
    0.44832E+06         0.67111E+05         0.00000E+00
    0.67111E+05        -0.48521E+08         0.00000E+00
    0.00000E+00         0.00000E+00        -0.10148E-07
 
    0.46787E+06         0.70307E+05         0.00000E+00
    0.70307E+05        -0.48577E+08         0.00000E+00
    0.00000E+00         0.00000E+00         0.00000E+00
 
    0.48793E+06         0.73621E+05         0.00000E+00
    0.73621E+05        -0.48636E+08         0.00000E+00
    0.00000E+00         0.00000E+00         0.20296E-07
 
    0.50846E+06         0.77053E+05         0.00000E+00
    0.77053E+05        -0.48698E+08         0.00000E+00
    0.00000E+00         0.00000E+00        -0.50741E-07
 
    0.52943E+06         0.80605E+05         0.00000E+00
    0.80605E+05        -0.48764E+08         0.00000E+00
    0.00000E+00         0.00000E+00        -0.91333E-07
 
    0.55082E+06         0.84276E+05         0.00000E+00
    0.84276E+05        -0.48833E+08         0.00000E+00
    0.00000E+00         0.00000E+00        -0.60889E-07
 
    0.57257E+06         0.88066E+05         0.00000E+00
    0.88066E+05        -0.48906E+08         0.00000E+00
    0.00000E+00         0.00000E+00         0.50741E-07
 
    0.59466E+06         0.91974E+05         0.00000E+00
    0.91974E+05        -0.48983E+08         0.00000E+00
    0.00000E+00         0.00000E+00         0.40593E-07
 
    0.61702E+06         0.95999E+05         0.00000E+00
    0.95999E+05        -0.49064E+08         0.00000E+00
    0.00000E+00         0.00000E+00         0.30444E-07
 
    0.63960E+06         0.10014E+06         0.00000E+00
    0.10014E+06        -0.49149E+08         0.00000E+00
    0.00000E+00         0.00000E+00        -0.10148E-07
 
    0.66232E+06         0.10439E+06         0.00000E+00
    0.10439E+06        -0.49239E+08         0.00000E+00
    0.00000E+00         0.00000E+00        -0.12178E-06
 
    0.68511E+06         0.10875E+06         0.00000E+00
    0.10875E+06        -0.49334E+08         0.00000E+00
    0.00000E+00         0.00000E+00        -0.20296E-07
 
    0.70789E+06         0.11321E+06         0.00000E+00
    0.11321E+06        -0.49433E+08         0.00000E+00
    0.00000E+00         0.00000E+00         0.91333E-07
 
    0.73054E+06         0.11776E+06         0.00000E+00
    0.11776E+06        -0.49537E+08         0.00000E+00
    0.00000E+00         0.00000E+00        -0.91333E-07
 
    0.75297E+06         0.12241E+06         0.00000E+00
    0.12241E+06        -0.49647E+08         0.00000E+00
    0.00000E+00         0.00000E+00        -0.10148E-07
 
    0.77505E+06         0.12714E+06         0.00000E+00
    0.12714E+06        -0.49763E+08         0.00000E+00
    0.00000E+00         0.00000E+00        -0.50741E-07
 
    0.79665E+06         0.13194E+06         0.00000E+00
    0.13194E+06        -0.49884E+08         0.00000E+00
    0.00000E+00         0.00000E+00         0.15222E-06
 
    0.81761E+06         0.13681E+06         0.00000E+00
    0.13681E+06        -0.50011E+08         0.00000E+00
    0.00000E+00         0.00000E+00         0.10148E-07
 
    0.83776E+06         0.14172E+06         0.00000E+00
    0.14172E+06        -0.50144E+08         0.00000E+00
    0.00000E+00         0.00000E+00        -0.10148E-07
 
    0.85692E+06         0.14667E+06         0.00000E+00
    0.14667E+06        -0.50284E+08         0.00000E+00
    0.00000E+00         0.00000E+00         0.10148E-07
 
    0.87488E+06         0.15163E+06         0.00000E+00
    0.15163E+06        -0.50430E+08         0.00000E+00
    0.00000E+00         0.00000E+00         0.20296E-07
 
    0.89142E+06         0.15659E+06         0.00000E+00
    0.15659E+06        -0.50584E+08         0.00000E+00
    0.00000E+00         0.00000E+00         0.00000E+00
 
    0.90629E+06         0.16153E+06         0.00000E+00
    0.16153E+06        -0.50744E+08         0.00000E+00
    0.00000E+00         0.00000E+00        -0.10148E-07
 
    0.91922E+06         0.16643E+06         0.00000E+00
    0.16643E+06        -0.50912E+08         0.00000E+00
    0.00000E+00         0.00000E+00        -0.30444E-07
 
    0.92990E+06         0.17125E+06         0.00000E+00
    0.17125E+06        -0.51088E+08         0.00000E+00
    0.00000E+00         0.00000E+00        -0.10148E-07
 
    0.93800E+06         0.17596E+06         0.00000E+00
    0.17596E+06        -0.51271E+08         0.00000E+00
    0.00000E+00         0.00000E+00        -0.12178E-06
 
    0.94317E+06         0.18054E+06         0.00000E+00
    0.18054E+06        -0.51463E+08         0.00000E+00
    0.00000E+00         0.00000E+00         0.20296E-07
 
    0.94500E+06         0.18493E+06         0.00000E+00
    0.18493E+06        -0.51663E+08         0.00000E+00
    0.00000E+00         0.00000E+00        -0.20296E-07
 
    0.94305E+06         0.18911E+06         0.00000E+00
    0.18911E+06        -0.51872E+08         0.00000E+00
    0.00000E+00         0.00000E+00        -0.60889E-07
 
    0.93685E+06         0.19301E+06         0.00000E+00
    0.19301E+06        -0.52089E+08         0.00000E+00
    0.00000E+00         0.00000E+00         0.20296E-07
 
    0.92587E+06         0.19658E+06         0.00000E+00
    0.19658E+06        -0.52315E+08         0.00000E+00
    0.00000E+00         0.00000E+00        -0.40593E-07
 
    0.90952E+06         0.19976E+06         0.00000E+00
    0.19976E+06        -0.52551E+08         0.00000E+00
    0.00000E+00         0.00000E+00         0.81185E-07
 
    0.88715E+06         0.20247E+06         0.00000E+00
    0.20247E+06        -0.52796E+08         0.00000E+00
    0.00000E+00         0.00000E+00        -0.50741E-07
 
    0.85806E+06         0.20463E+06         0.00000E+00
    0.20463E+06        -0.53051E+08         0.00000E+00
    0.00000E+00         0.00000E+00         0.40593E-07
 
    0.82145E+06         0.20615E+06         0.00000E+00
    0.20615E+06        -0.53315E+08         0.00000E+00
    0.00000E+00         0.00000E+00        -0.71037E-07
 
    0.77645E+06         0.20692E+06         0.00000E+00
    0.20692E+06        -0.53589E+08         0.00000E+00
    0.00000E+00         0.00000E+00         0.10148E-07
 
    0.72208E+06         0.20682E+06         0.00000E+00
    0.20682E+06        -0.53873E+08         0.00000E+00
    0.00000E+00         0.00000E+00         0.20296E-07
 
    0.65727E+06         0.20570E+06         0.00000E+00
    0.20570E+06        -0.54167E+08         0.00000E+00
    0.00000E+00         0.00000E+00        -0.14207E-06
 
    0.58081E+06         0.20343E+06         0.00000E+00
    0.20343E+06        -0.54472E+08         0.00000E+00
    0.00000E+00         0.00000E+00         0.00000E+00
 
    0.49136E+06         0.19981E+06         0.00000E+00
    0.19981E+06        -0.54786E+08         0.00000E+00
    0.00000E+00         0.00000E+00        -0.30444E-07
 
    0.38742E+06         0.19465E+06         0.00000E+00
    0.19465E+06        -0.55111E+08         0.00000E+00
    0.00000E+00         0.00000E+00        -0.20296E-07
 
    0.26734E+06         0.18775E+06         0.00000E+00
    0.18775E+06        -0.55446E+08         0.00000E+00
    0.00000E+00         0.00000E+00        -0.10148E-06
 
    0.12929E+06         0.17886E+06         0.00000E+00
    0.17886E+06        -0.55790E+08         0.00000E+00
    0.00000E+00         0.00000E+00        -0.30444E-07
 
   -0.28757E+05         0.16774E+06         0.00000E+00
    0.16774E+06        -0.56145E+08         0.00000E+00
    0.00000E+00         0.00000E+00         0.20296E-07
 
   -0.20900E+06         0.15413E+06         0.00000E+00
    0.15413E+06        -0.56510E+08         0.00000E+00
    0.00000E+00         0.00000E+00         0.10148E-07
 
   -0.41384E+06         0.13776E+06         0.00000E+00
    0.13776E+06        -0.56884E+08         0.00000E+00
    0.00000E+00         0.00000E+00         0.10148E-07
 
   -0.64579E+06         0.11842E+06         0.00000E+00
    0.11842E+06        -0.57267E+08         0.00000E+00
    0.00000E+00         0.00000E+00        -0.30444E-07
 
   -0.90752E+06         0.95883E+05         0.00000E+00
    0.95883E+05        -0.57659E+08         0.00000E+00
    0.00000E+00         0.00000E+00         0.10148E-06
 
   -0.12017E+07         0.70035E+05         0.00000E+00
    0.70035E+05        -0.58060E+08         0.00000E+00
    0.00000E+00         0.00000E+00        -0.81185E-07
 
   -0.15309E+07         0.40851E+05         0.00000E+00
    0.40851E+05        -0.58469E+08         0.00000E+00
    0.00000E+00         0.00000E+00         0.10148E-07
 
   -0.18975E+07         0.84688E+04         0.00000E+00
    0.84688E+04        -0.58885E+08         0.00000E+00
    0.00000E+00         0.00000E+00         0.50741E-07
 
   -0.23034E+07        -0.26763E+05         0.00000E+00
   -0.26763E+05        -0.59308E+08         0.00000E+00
    0.00000E+00         0.00000E+00        -0.20296E-07
 
   -0.27494E+07        -0.64210E+05         0.00000E+00
   -0.64210E+05        -0.59737E+08         0.00000E+00
    0.00000E+00         0.00000E+00         0.10148E-07
 
   -0.32353E+07        -0.10286E+06         0.00000E+00
   -0.10286E+06        -0.60171E+08         0.00000E+00
    0.00000E+00         0.00000E+00         0.10148E-07
 
   -0.37584E+07        -0.14111E+06         0.00000E+00
   -0.14111E+06        -0.60609E+08         0.00000E+00
    0.00000E+00         0.00000E+00         0.81185E-07
 
   -0.43123E+07        -0.17613E+06         0.00000E+00
   -0.17613E+06        -0.61050E+08         0.00000E+00
    0.00000E+00         0.00000E+00        -0.50741E-07
 
   -0.48828E+07        -0.20348E+06         0.00000E+00
   -0.20348E+06        -0.61493E+08         0.00000E+00
    0.00000E+00         0.00000E+00         0.10148E-07
 
   -0.54336E+07        -0.20050E+06         0.00000E+00
   -0.20050E+06        -0.61931E+08         0.00000E+00
    0.00000E+00         0.00000E+00         0.81184E-07
 
   -0.59244E+07        -0.96935E+05         0.00000E+00
   -0.96935E+05        -0.62265E+08         0.00000E+00
    0.00000E+00         0.00000E+00        -0.20296E-07
 
    0.19075E+06        -0.16311E+04         0.00000E+00
   -0.16311E+04        -0.47606E+08         0.00000E+00
    0.00000E+00         0.00000E+00         0.00000E+00
 
    0.18097E+06        -0.27327E+04         0.00000E+00
   -0.27327E+04        -0.47613E+08         0.00000E+00
    0.00000E+00         0.00000E+00         0.40593E-07
 
    0.17054E+06        -0.19309E+04         0.00000E+00
   -0.19309E+04        -0.47623E+08         0.00000E+00
    0.00000E+00         0.00000E+00         0.10148E-07
 
    0.16062E+06        -0.78598E+03         0.00000E+00
   -0.78598E+03        -0.47632E+08         0.00000E+00
    0.00000E+00         0.00000E+00        -0.71037E-07
 
    0.15187E+06         0.42786E+03         0.00000E+00
    0.42786E+03        -0.47641E+08         0.00000E+00
    0.00000E+00         0.00000E+00        -0.20296E-07
 
    0.14445E+06         0.16698E+04         0.00000E+00
    0.16698E+04        -0.47651E+08         0.00000E+00
    0.00000E+00         0.00000E+00         0.20296E-07
 
    0.13840E+06         0.29039E+04         0.00000E+00
    0.29039E+04        -0.47661E+08         0.00000E+00
    0.00000E+00         0.00000E+00         0.30444E-07
 
    0.13372E+06         0.41148E+04         0.00000E+00
    0.41148E+04        -0.47671E+08         0.00000E+00
    0.00000E+00         0.00000E+00         0.10148E-07
 
    0.13035E+06         0.52931E+04         0.00000E+00
    0.52931E+04        -0.47681E+08         0.00000E+00
    0.00000E+00         0.00000E+00         0.60889E-07
 
    0.12823E+06         0.64348E+04         0.00000E+00
    0.64348E+04        -0.47692E+08         0.00000E+00
    0.00000E+00         0.00000E+00        -0.50741E-07
 
    0.12729E+06         0.75395E+04         0.00000E+00
    0.75395E+04        -0.47703E+08         0.00000E+00
    0.00000E+00         0.00000E+00        -0.20296E-07
 
    0.12745E+06         0.86100E+04         0.00000E+00
    0.86100E+04        -0.47714E+08         0.00000E+00
    0.00000E+00         0.00000E+00        -0.40593E-07
 
    0.12862E+06         0.96510E+04         0.00000E+00
    0.96510E+04        -0.47726E+08         0.00000E+00
    0.00000E+00         0.00000E+00         0.10148E-07
 
    0.13075E+06         0.10669E+05         0.00000E+00
    0.10669E+05        -0.47738E+08         0.00000E+00
    0.00000E+00         0.00000E+00        -0.30444E-07
 
    0.13376E+06         0.11670E+05         0.00000E+00
    0.11670E+05        -0.47751E+08         0.00000E+00
    0.00000E+00         0.00000E+00         0.40593E-07
 
    0.13760E+06         0.12661E+05         0.00000E+00
    0.12661E+05        -0.47764E+08         0.00000E+00
    0.00000E+00         0.00000E+00         0.20296E-07
 
    0.14221E+06         0.13651E+05         0.00000E+00
    0.13651E+05        -0.47778E+08         0.00000E+00
    0.00000E+00         0.00000E+00         0.10148E-07
 
    0.14755E+06         0.14645E+05         0.00000E+00
    0.14645E+05        -0.47793E+08         0.00000E+00
    0.00000E+00         0.00000E+00        -0.20296E-07
 
    0.15357E+06         0.15651E+05         0.00000E+00
    0.15651E+05        -0.47808E+08         0.00000E+00
    0.00000E+00         0.00000E+00         0.60889E-07
 
    0.16026E+06         0.16675E+05         0.00000E+00
    0.16675E+05        -0.47824E+08         0.00000E+00
    0.00000E+00         0.00000E+00        -0.50741E-07
 
    0.16758E+06         0.17722E+05         0.00000E+00
    0.17722E+05        -0.47841E+08         0.00000E+00
    0.00000E+00         0.00000E+00        -0.10148E-07
 
    0.17551E+06         0.18799E+05         0.00000E+00
    0.18799E+05        -0.47859E+08         0.00000E+00
    0.00000E+00         0.00000E+00         0.30444E-07
 
    0.18404E+06         0.19909E+05         0.00000E+00
    0.19909E+05        -0.47878E+08         0.00000E+00
    0.00000E+00         0.00000E+00         0.71037E-07
 
    0.19315E+06         0.21059E+05         0.00000E+00
    0.21059E+05        -0.47898E+08         0.00000E+00
    0.00000E+00         0.00000E+00         0.00000E+00
 
    0.20284E+06         0.22251E+05         0.00000E+00
    0.22251E+05        -0.47919E+08         0.00000E+00
    0.00000E+00         0.00000E+00         0.60889E-07
 
    0.21310E+06         0.23491E+05         0.00000E+00
    0.23491E+05        -0.47941E+08         0.00000E+00
    0.00000E+00         0.00000E+00         0.00000E+00
 
    0.22393E+06         0.24782E+05         0.00000E+00
    0.24782E+05        -0.47964E+08         0.00000E+00
    0.00000E+00         0.00000E+00         0.20296E-07
 
    0.23532E+06         0.26127E+05         0.00000E+00
    0.26127E+05        -0.47989E+08         0.00000E+00
    0.00000E+00         0.00000E+00        -0.10148E-07
 
    0.24728E+06         0.27530E+05         0.00000E+00
    0.27530E+05        -0.48015E+08         0.00000E+00
    0.00000E+00         0.00000E+00         0.11163E-06
 
    0.25981E+06         0.28994E+05         0.00000E+00
    0.28994E+05        -0.48042E+08         0.00000E+00
    0.00000E+00         0.00000E+00         0.10148E-06
 
    0.27290E+06         0.30523E+05         0.00000E+00
    0.30523E+05        -0.48071E+08         0.00000E+00
    0.00000E+00         0.00000E+00         0.40592E-07
 
    0.28657E+06         0.32118E+05         0.00000E+00
    0.32118E+05        -0.48102E+08         0.00000E+00
    0.00000E+00         0.00000E+00        -0.30444E-07
 
    0.30081E+06         0.33784E+05         0.00000E+00
    0.33784E+05        -0.48134E+08         0.00000E+00
    0.00000E+00         0.00000E+00        -0.11163E-06
 
    0.31563E+06         0.35522E+05         0.00000E+00
    0.35522E+05        -0.48169E+08         0.00000E+00
    0.00000E+00         0.00000E+00         0.20296E-07
 
    0.33102E+06         0.37335E+05         0.00000E+00
    0.37335E+05        -0.48205E+08         0.00000E+00
    0.00000E+00         0.00000E+00        -0.40592E-07
 
    0.34699E+06         0.39226E+05         0.00000E+00
    0.39226E+05        -0.48243E+08         0.00000E+00
    0.00000E+00         0.00000E+00        -0.13193E-06
 
    0.36353E+06         0.41196E+05         0.00000E+00
    0.41196E+05        -0.48283E+08         0.00000E+00
    0.00000E+00         0.00000E+00        -0.71037E-07
 
    0.38065E+06         0.43249E+05         0.00000E+00
    0.43249E+05        -0.48326E+08         0.00000E+00
    0.00000E+00         0.00000E+00        -0.10148E-06
 
    0.39835E+06         0.45386E+05         0.00000E+00
    0.45386E+05        -0.48371E+08         0.00000E+00
    0.00000E+00         0.00000E+00        -0.11163E-06
 
    0.41660E+06         0.47609E+05         0.00000E+00
    0.47609E+05        -0.48418E+08         0.00000E+00
    0.00000E+00         0.00000E+00        -0.30444E-07
 
    0.43541E+06         0.49920E+05         0.00000E+00
    0.49920E+05        -0.48469E+08         0.00000E+00
    0.00000E+00         0.00000E+00        -0.20296E-07
 
    0.45477E+06         0.52320E+05         0.00000E+00
    0.52320E+05        -0.48522E+08         0.00000E+00
    0.00000E+00         0.00000E+00        -0.50741E-07
 
    0.47465E+06         0.54811E+05         0.00000E+00
    0.54811E+05        -0.48578E+08         0.00000E+00
    0.00000E+00         0.00000E+00         0.20296E-07
 
    0.49504E+06         0.57393E+05         0.00000E+00
    0.57393E+05        -0.48637E+08         0.00000E+00
    0.00000E+00         0.00000E+00         0.30444E-07
 
    0.51592E+06         0.60068E+05         0.00000E+00
    0.60068E+05        -0.48699E+08         0.00000E+00
    0.00000E+00         0.00000E+00         0.30444E-07
 
    0.53726E+06         0.62835E+05         0.00000E+00
    0.62835E+05        -0.48765E+08         0.00000E+00
    0.00000E+00         0.00000E+00         0.30444E-07
 
    0.55902E+06         0.65695E+05         0.00000E+00
    0.65695E+05        -0.48834E+08         0.00000E+00
    0.00000E+00         0.00000E+00         0.50741E-07
 
    0.58116E+06         0.68648E+05         0.00000E+00
    0.68648E+05        -0.48907E+08         0.00000E+00
    0.00000E+00         0.00000E+00         0.10148E-07
 
    0.60365E+06         0.71693E+05         0.00000E+00
    0.71693E+05        -0.48984E+08         0.00000E+00
    0.00000E+00         0.00000E+00         0.30444E-07
 
    0.62642E+06         0.74828E+05         0.00000E+00
    0.74828E+05        -0.49065E+08         0.00000E+00
    0.00000E+00         0.00000E+00         0.50741E-07
 
    0.64942E+06         0.78053E+05         0.00000E+00
    0.78053E+05        -0.49150E+08         0.00000E+00
    0.00000E+00         0.00000E+00        -0.20296E-07
 
    0.67258E+06         0.81364E+05         0.00000E+00
    0.81364E+05        -0.49240E+08         0.00000E+00
    0.00000E+00         0.00000E+00        -0.60889E-07
 
    0.69582E+06         0.84758E+05         0.00000E+00
    0.84758E+05        -0.49334E+08         0.00000E+00
    0.00000E+00         0.00000E+00         0.00000E+00
 
    0.71905E+06         0.88232E+05         0.00000E+00
    0.88232E+05        -0.49434E+08         0.00000E+00
    0.00000E+00         0.00000E+00         0.10148E-07
 
    0.74218E+06         0.91782E+05         0.00000E+00
    0.91782E+05        -0.49538E+08         0.00000E+00
    0.00000E+00         0.00000E+00         0.40593E-07
 
    0.76509E+06         0.95401E+05         0.00000E+00
    0.95401E+05        -0.49648E+08         0.00000E+00
    0.00000E+00         0.00000E+00        -0.40593E-07
 
    0.78765E+06         0.99084E+05         0.00000E+00
    0.99084E+05        -0.49763E+08         0.00000E+00
    0.00000E+00         0.00000E+00        -0.30444E-07
 
    0.80975E+06         0.10282E+06         0.00000E+00
    0.10282E+06        -0.49884E+08         0.00000E+00
    0.00000E+00         0.00000E+00         0.91333E-07
 
    0.83121E+06         0.10661E+06         0.00000E+00
    0.10661E+06        -0.50012E+08         0.00000E+00
    0.00000E+00         0.00000E+00        -0.40593E-07
 
    0.85187E+06         0.11043E+06         0.00000E+00
    0.11043E+06        -0.50145E+08         0.00000E+00
    0.00000E+00         0.00000E+00        -0.30444E-07
 
    0.87155E+06         0.11428E+06         0.00000E+00
    0.11428E+06        -0.50285E+08         0.00000E+00
    0.00000E+00         0.00000E+00         0.00000E+00
 
    0.89003E+06         0.11815E+06         0.00000E+00
    0.11815E+06        -0.50431E+08         0.00000E+00
    0.00000E+00         0.00000E+00        -0.60889E-07
 
    0.90709E+06         0.12201E+06         0.00000E+00
    0.12201E+06        -0.50584E+08         0.00000E+00
    0.00000E+00         0.00000E+00        -0.20296E-07
 
    0.92249E+06         0.12585E+06         0.00000E+00
    0.12585E+06        -0.50745E+08         0.00000E+00
    0.00000E+00         0.00000E+00        -0.71037E-07
 
    0.93593E+06         0.12966E+06         0.00000E+00
    0.12966E+06        -0.50913E+08         0.00000E+00
    0.00000E+00         0.00000E+00         0.16237E-06
 
    0.94713E+06         0.13341E+06         0.00000E+00
    0.13341E+06        -0.51089E+08         0.00000E+00
    0.00000E+00         0.00000E+00        -0.50741E-07
 
    0.95575E+06         0.13707E+06         0.00000E+00
    0.13707E+06        -0.51272E+08         0.00000E+00
    0.00000E+00         0.00000E+00        -0.30444E-07
 
    0.96142E+06         0.14063E+06         0.00000E+00
    0.14063E+06        -0.51464E+08         0.00000E+00
    0.00000E+00         0.00000E+00         0.20296E-07
 
    0.96375E+06         0.14405E+06         0.00000E+00
    0.14405E+06        -0.51664E+08         0.00000E+00
    0.00000E+00         0.00000E+00        -0.20296E-07
 
    0.96228E+06         0.14729E+06         0.00000E+00
    0.14729E+06        -0.51872E+08         0.00000E+00
    0.00000E+00         0.00000E+00        -0.40593E-07
 
    0.95655E+06         0.15032E+06         0.00000E+00
    0.15032E+06        -0.52090E+08         0.00000E+00
    0.00000E+00         0.00000E+00        -0.20296E-07
 
    0.94600E+06         0.15309E+06         0.00000E+00
    0.15309E+06        -0.52316E+08         0.00000E+00
    0.00000E+00         0.00000E+00         0.12178E-06
 
    0.93006E+06         0.15555E+06         0.00000E+00
    0.15555E+06        -0.52552E+08         0.00000E+00
    0.00000E+00         0.00000E+00        -0.60889E-07
 
    0.90807E+06         0.15765E+06         0.00000E+00
    0.15765E+06        -0.52796E+08         0.00000E+00
    0.00000E+00         0.00000E+00         0.30444E-07
 
    0.87931E+06         0.15932E+06         0.00000E+00
    0.15932E+06        -0.53051E+08         0.00000E+00
    0.00000E+00         0.00000E+00        -0.50741E-07
 
    0.84299E+06         0.16048E+06         0.00000E+00
    0.16048E+06        -0.53315E+08         0.00000E+00
    0.00000E+00         0.00000E+00         0.12178E-06
 
    0.79820E+06         0.16106E+06         0.00000E+00
    0.16106E+06        -0.53589E+08         0.00000E+00
    0.00000E+00         0.00000E+00        -0.10148E-07
 
    0.74398E+06         0.16095E+06         0.00000E+00
    0.16095E+06        -0.53873E+08         0.00000E+00
    0.00000E+00         0.00000E+00         0.15222E-06
 
    0.67920E+06         0.16005E+06         0.00000E+00
    0.16005E+06        -0.54167E+08         0.00000E+00
    0.00000E+00         0.00000E+00         0.11163E-06
 
    0.60266E+06         0.15823E+06         0.00000E+00
    0.15823E+06        -0.54471E+08         0.00000E+00
    0.00000E+00         0.00000E+00         0.12178E-06
 
    0.51296E+06         0.15536E+06         0.00000E+00
    0.15536E+06        -0.54785E+08         0.00000E+00
    0.00000E+00         0.00000E+00        -0.60889E-07
 
    0.40858E+06         0.15127E+06         0.00000E+00
    0.15127E+06        -0.55110E+08         0.00000E+00
    0.00000E+00         0.00000E+00         0.20296E-07
 
    0.28781E+06         0.14581E+06         0.00000E+00
    0.14581E+06        -0.55444E+08         0.00000E+00
    0.00000E+00         0.00000E+00        -0.20296E-07
 
    0.14876E+06         0.13877E+06         0.00000E+00
    0.13877E+06        -0.55789E+08         0.00000E+00
    0.00000E+00         0.00000E+00         0.10148E-07
 
   -0.10685E+05         0.12996E+06         0.00000E+00
    0.12996E+06        -0.56143E+08         0.00000E+00
    0.00000E+00         0.00000E+00         0.00000E+00
 
   -0.19282E+06         0.11917E+06         0.00000E+00
    0.11917E+06        -0.56507E+08         0.00000E+00
    0.00000E+00         0.00000E+00         0.50741E-07
 
   -0.40016E+06         0.10618E+06         0.00000E+00
    0.10618E+06        -0.56881E+08         0.00000E+00
    0.00000E+00         0.00000E+00        -0.20296E-07
 
   -0.63539E+06         0.90807E+05         0.00000E+00
    0.90807E+05        -0.57263E+08         0.00000E+00
    0.00000E+00         0.00000E+00        -0.60889E-07
 
   -0.90133E+06         0.72874E+05         0.00000E+00
    0.72874E+05        -0.57655E+08         0.00000E+00
    0.00000E+00         0.00000E+00         0.91331E-07
 
   -0.12009E+07         0.52264E+05         0.00000E+00
    0.52264E+05        -0.58055E+08         0.00000E+00
    0.00000E+00         0.00000E+00        -0.30444E-07
 
   -0.15369E+07         0.28941E+05         0.00000E+00
    0.28941E+05        -0.58463E+08         0.00000E+00
    0.00000E+00         0.00000E+00        -0.10148E-06
 
   -0.19120E+07         0.29865E+04         0.00000E+00
    0.29865E+04        -0.58879E+08         0.00000E+00
    0.00000E+00         0.00000E+00         0.40593E-07
 
   -0.23285E+07        -0.25361E+05         0.00000E+00
   -0.25361E+05        -0.59301E+08         0.00000E+00
    0.00000E+00         0.00000E+00        -0.20296E-07
 
   -0.27877E+07        -0.55663E+05         0.00000E+00
   -0.55663E+05        -0.59730E+08         0.00000E+00
    0.00000E+00         0.00000E+00         0.20296E-07
 
   -0.32899E+07        -0.87203E+05         0.00000E+00
   -0.87203E+05        -0.60164E+08         0.00000E+00
    0.00000E+00         0.00000E+00        -0.81185E-07
 
   -0.38334E+07        -0.11897E+06         0.00000E+00
   -0.11897E+06        -0.60602E+08         0.00000E+00
    0.00000E+00         0.00000E+00        -0.30444E-07
 
   -0.44128E+07        -0.14894E+06         0.00000E+00
   -0.14894E+06        -0.61044E+08         0.00000E+00
    0.00000E+00         0.00000E+00        -0.17252E-06
 
   -0.50172E+07        -0.17485E+06         0.00000E+00
   -0.17485E+06        -0.61488E+08         0.00000E+00
    0.00000E+00         0.00000E+00         0.00000E+00
 
   -0.56111E+07        -0.18301E+06         0.00000E+00
   -0.18301E+06        -0.61937E+08         0.00000E+00
    0.00000E+00         0.00000E+00        -0.40592E-07
 
   -0.61342E+07        -0.96589E+05         0.00000E+00
   -0.96589E+05        -0.62299E+08         0.00000E+00
    0.00000E+00         0.00000E+00         0.16237E-06
 
    0.19579E+06        -0.16624E+04         0.00000E+00
   -0.16624E+04        -0.47605E+08         0.00000E+00
    0.00000E+00         0.00000E+00        -0.20296E-07
 
    0.18507E+06        -0.24334E+04         0.00000E+00
   -0.24334E+04        -0.47613E+08         0.00000E+00
    0.00000E+00         0.00000E+00         0.40593E-07
 
    0.17364E+06        -0.16208E+04         0.00000E+00
   -0.16208E+04        -0.47623E+08         0.00000E+00
    0.00000E+00         0.00000E+00        -0.40593E-07
 
    0.16307E+06        -0.73174E+03         0.00000E+00
   -0.73174E+03        -0.47632E+08         0.00000E+00
    0.00000E+00         0.00000E+00         0.71037E-07
 
    0.15386E+06         0.18590E+03         0.00000E+00
    0.18590E+03        -0.47641E+08         0.00000E+00
    0.00000E+00         0.00000E+00         0.60889E-07
 
    0.14611E+06         0.11075E+04         0.00000E+00
    0.11075E+04        -0.47651E+08         0.00000E+00
    0.00000E+00         0.00000E+00        -0.20296E-07
 
    0.13982E+06         0.20147E+04         0.00000E+00
    0.20147E+04        -0.47661E+08         0.00000E+00
    0.00000E+00         0.00000E+00        -0.20296E-07
 
    0.13497E+06         0.28997E+04         0.00000E+00
    0.28997E+04        -0.47671E+08         0.00000E+00
    0.00000E+00         0.00000E+00         0.91333E-07
 
    0.13150E+06         0.37573E+04         0.00000E+00
    0.37573E+04        -0.47681E+08         0.00000E+00
    0.00000E+00         0.00000E+00         0.10148E-07
 
    0.12932E+06         0.45856E+04         0.00000E+00
    0.45856E+04        -0.47692E+08         0.00000E+00
    0.00000E+00         0.00000E+00         0.00000E+00
 
    0.12835E+06         0.53850E+04         0.00000E+00
    0.53850E+04        -0.47703E+08         0.00000E+00
    0.00000E+00         0.00000E+00        -0.10148E-07
 
    0.12851E+06         0.61580E+04         0.00000E+00
    0.61580E+04        -0.47714E+08         0.00000E+00
    0.00000E+00         0.00000E+00        -0.10148E-07
 
    0.12972E+06         0.69082E+04         0.00000E+00
    0.69082E+04        -0.47726E+08         0.00000E+00
    0.00000E+00         0.00000E+00         0.00000E+00
 
    0.13190E+06         0.76404E+04         0.00000E+00
    0.76404E+04        -0.47738E+08         0.00000E+00
    0.00000E+00         0.00000E+00        -0.10148E-07
 
    0.13498E+06         0.83597E+04         0.00000E+00
    0.83597E+04        -0.47751E+08         0.00000E+00
    0.00000E+00         0.00000E+00         0.10148E-07
 
    0.13890E+06         0.90715E+04         0.00000E+00
    0.90715E+04        -0.47764E+08         0.00000E+00
    0.00000E+00         0.00000E+00         0.60889E-07
 
    0.14360E+06         0.97813E+04         0.00000E+00
    0.97813E+04        -0.47778E+08         0.00000E+00
    0.00000E+00         0.00000E+00         0.50741E-07
 
    0.14904E+06         0.10494E+05         0.00000E+00
    0.10494E+05        -0.47793E+08         0.00000E+00
    0.00000E+00         0.00000E+00         0.00000E+00
 
    0.15518E+06         0.11215E+05         0.00000E+00
    0.11215E+05        -0.47808E+08         0.00000E+00
    0.00000E+00         0.00000E+00         0.00000E+00
 
    0.16199E+06         0.11948E+05         0.00000E+00
    0.11948E+05        -0.47825E+08         0.00000E+00
    0.00000E+00         0.00000E+00        -0.71037E-07
 
    0.16943E+06         0.12698E+05         0.00000E+00
    0.12698E+05        -0.47842E+08         0.00000E+00
    0.00000E+00         0.00000E+00        -0.56843E-13
 
    0.17750E+06         0.13469E+05         0.00000E+00
    0.13469E+05        -0.47859E+08         0.00000E+00
    0.00000E+00         0.00000E+00         0.40593E-07
 
    0.18617E+06         0.14264E+05         0.00000E+00
    0.14264E+05        -0.47878E+08         0.00000E+00
    0.00000E+00         0.00000E+00         0.40592E-07
 
    0.19543E+06         0.15087E+05         0.00000E+00
    0.15087E+05        -0.47898E+08         0.00000E+00
    0.00000E+00         0.00000E+00         0.40593E-07
 
    0.20527E+06         0.15940E+05         0.00000E+00
    0.15940E+05        -0.47919E+08         0.00000E+00
    0.00000E+00         0.00000E+00         0.10148E-07
 
    0.21569E+06         0.16828E+05         0.00000E+00
    0.16828E+05        -0.47941E+08         0.00000E+00
    0.00000E+00         0.00000E+00         0.00000E+00
 
    0.22668E+06         0.17752E+05         0.00000E+00
    0.17752E+05        -0.47964E+08         0.00000E+00
    0.00000E+00         0.00000E+00        -0.10148E-07
 
    0.23825E+06         0.18715E+05         0.00000E+00
    0.18715E+05        -0.47989E+08         0.00000E+00
    0.00000E+00         0.00000E+00        -0.30444E-07
 
    0.25039E+06         0.19719E+05         0.00000E+00
    0.19719E+05        -0.48015E+08         0.00000E+00
    0.00000E+00         0.00000E+00         0.20296E-07
 
    0.26310E+06         0.20767E+05         0.00000E+00
    0.20767E+05        -0.48043E+08         0.00000E+00
    0.00000E+00         0.00000E+00         0.71037E-07
 
    0.27639E+06         0.21862E+05         0.00000E+00
    0.21862E+05        -0.48072E+08         0.00000E+00
    0.00000E+00         0.00000E+00        -0.91333E-07
 
    0.29026E+06         0.23004E+05         0.00000E+00
    0.23004E+05        -0.48102E+08         0.00000E+00
    0.00000E+00         0.00000E+00         0.71037E-07
 
    0.30472E+06         0.24196E+05         0.00000E+00
    0.24196E+05        -0.48135E+08         0.00000E+00
    0.00000E+00         0.00000E+00         0.30444E-07
 
    0.31976E+06         0.25441E+05         0.00000E+00
    0.25441E+05        -0.48169E+08         0.00000E+00
    0.00000E+00         0.00000E+00         0.91333E-07
 
    0.33538E+06         0.26739E+05         0.00000E+00
    0.26739E+05        -0.48205E+08         0.00000E+00
    0.00000E+00         0.00000E+00         0.20296E-07
 
    0.35159E+06         0.28092E+05         0.00000E+00
    0.28092E+05        -0.48243E+08         0.00000E+00
    0.00000E+00         0.00000E+00        -0.10148E-07
 
    0.36839E+06         0.29503E+05         0.00000E+00
    0.29503E+05        -0.48284E+08         0.00000E+00
    0.00000E+00         0.00000E+00         0.00000E+00
 
    0.38578E+06         0.30973E+05         0.00000E+00
    0.30973E+05        -0.48326E+08         0.00000E+00
    0.00000E+00         0.00000E+00        -0.20296E-07
 
    0.40374E+06         0.32502E+05         0.00000E+00
    0.32502E+05        -0.48371E+08         0.00000E+00
    0.00000E+00         0.00000E+00         0.10148E-07
 
    0.42229E+06         0.34094E+05         0.00000E+00
    0.34094E+05        -0.48419E+08         0.00000E+00
    0.00000E+00         0.00000E+00         0.00000E+00
 
    0.44140E+06         0.35748E+05         0.00000E+00
    0.35748E+05        -0.48469E+08         0.00000E+00
    0.00000E+00         0.00000E+00         0.81185E-07
 
    0.46106E+06         0.37466E+05         0.00000E+00
    0.37466E+05        -0.48522E+08         0.00000E+00
    0.00000E+00         0.00000E+00        -0.20296E-07
 
    0.48126E+06         0.39249E+05         0.00000E+00
    0.39249E+05        -0.48578E+08         0.00000E+00
    0.00000E+00         0.00000E+00        -0.20296E-07
 
    0.50199E+06         0.41097E+05         0.00000E+00
    0.41097E+05        -0.48637E+08         0.00000E+00
    0.00000E+00         0.00000E+00         0.60889E-07
 
    0.52321E+06         0.43011E+05         0.00000E+00
    0.43011E+05        -0.48699E+08         0.00000E+00
    0.00000E+00         0.00000E+00         0.40592E-07
 
    0.54491E+06         0.44992E+05         0.00000E+00
    0.44992E+05        -0.48765E+08         0.00000E+00
    0.00000E+00         0.00000E+00         0.20296E-07
 
    0.56704E+06         0.47039E+05         0.00000E+00
    0.47039E+05        -0.48834E+08         0.00000E+00
    0.00000E+00         0.00000E+00        -0.10148E-07
 
    0.58957E+06         0.49152E+05         0.00000E+00
    0.49152E+05        -0.48907E+08         0.00000E+00
    0.00000E+00         0.00000E+00         0.50740E-07
 
    0.61245E+06         0.51331E+05         0.00000E+00
    0.51331E+05        -0.48984E+08         0.00000E+00
    0.00000E+00         0.00000E+00         0.20296E-07
 
    0.63563E+06         0.53575E+05         0.00000E+00
    0.53575E+05        -0.49065E+08         0.00000E+00
    0.00000E+00         0.00000E+00         0.20296E-07
 
    0.65905E+06         0.55882E+05         0.00000E+00
    0.55882E+05        -0.49151E+08         0.00000E+00
    0.00000E+00         0.00000E+00        -0.91333E-07
 
    0.68264E+06         0.58251E+05         0.00000E+00
    0.58251E+05        -0.49241E+08         0.00000E+00
    0.00000E+00         0.00000E+00        -0.10148E-06
 
    0.70633E+06         0.60679E+05         0.00000E+00
    0.60679E+05        -0.49335E+08         0.00000E+00
    0.00000E+00         0.00000E+00         0.20296E-07
 
    0.73002E+06         0.63165E+05         0.00000E+00
    0.63165E+05        -0.49434E+08         0.00000E+00
    0.00000E+00         0.00000E+00        -0.71037E-07
 
    0.75361E+06         0.65704E+05         0.00000E+00
    0.65704E+05        -0.49539E+08         0.00000E+00
    0.00000E+00         0.00000E+00        -0.20296E-07
 
    0.77700E+06         0.68292E+05         0.00000E+00
    0.68292E+05        -0.49649E+08         0.00000E+00
    0.00000E+00         0.00000E+00        -0.10148E-07
 
    0.80006E+06         0.70927E+05         0.00000E+00
    0.70927E+05        -0.49764E+08         0.00000E+00
    0.00000E+00         0.00000E+00        -0.10148E-07
 
    0.82265E+06         0.73600E+05         0.00000E+00
    0.73600E+05        -0.49885E+08         0.00000E+00
    0.00000E+00         0.00000E+00         0.40593E-07
 
    0.84462E+06         0.76308E+05         0.00000E+00
    0.76308E+05        -0.50012E+08         0.00000E+00
    0.00000E+00         0.00000E+00        -0.81185E-07
 
    0.86580E+06         0.79042E+05         0.00000E+00
    0.79042E+05        -0.50146E+08         0.00000E+00
    0.00000E+00         0.00000E+00        -0.50741E-07
 
    0.88600E+06         0.81795E+05         0.00000E+00
    0.81795E+05        -0.50285E+08         0.00000E+00
    0.00000E+00         0.00000E+00         0.81185E-07
 
    0.90501E+06         0.84556E+05         0.00000E+00
    0.84556E+05        -0.50432E+08         0.00000E+00
    0.00000E+00         0.00000E+00        -0.71037E-07
 
    0.92261E+06         0.87317E+05         0.00000E+00
    0.87317E+05        -0.50585E+08         0.00000E+00
    0.00000E+00         0.00000E+00        -0.13193E-06
 
    0.93854E+06         0.90063E+05         0.00000E+00
    0.90063E+05        -0.50746E+08         0.00000E+00
    0.00000E+00         0.00000E+00        -0.71037E-07
 
    0.95252E+06         0.92784E+05         0.00000E+00
    0.92784E+05        -0.50914E+08         0.00000E+00
    0.00000E+00         0.00000E+00         0.00000E+00
 
    0.96426E+06         0.95462E+05         0.00000E+00
    0.95462E+05        -0.51089E+08         0.00000E+00
    0.00000E+00         0.00000E+00        -0.14207E-06
 
    0.97341E+06         0.98080E+05         0.00000E+00
    0.98080E+05        -0.51273E+08         0.00000E+00
    0.00000E+00         0.00000E+00         0.10148E-07
 
    0.97961E+06         0.10062E+06         0.00000E+00
    0.10062E+06        -0.51464E+08         0.00000E+00
    0.00000E+00         0.00000E+00        -0.20296E-07
 
    0.98246E+06         0.10306E+06         0.00000E+00
    0.10306E+06        -0.51664E+08         0.00000E+00
    0.00000E+00         0.00000E+00        -0.12178E-06
 
    0.98150E+06         0.10537E+06         0.00000E+00
    0.10537E+06        -0.51873E+08         0.00000E+00
    0.00000E+00         0.00000E+00         0.13193E-06
 
    0.97626E+06         0.10754E+06         0.00000E+00
    0.10754E+06        -0.52090E+08         0.00000E+00
    0.00000E+00         0.00000E+00        -0.30444E-07
 
    0.96620E+06         0.10951E+06         0.00000E+00
    0.10951E+06        -0.52316E+08         0.00000E+00
    0.00000E+00         0.00000E+00         0.10148E-07
 
    0.95071E+06         0.11127E+06         0.00000E+00
    0.11127E+06        -0.52552E+08         0.00000E+00
    0.00000E+00         0.00000E+00        -0.71037E-07
 
    0.92915E+06         0.11276E+06         0.00000E+00
    0.11276E+06        -0.52797E+08         0.00000E+00
    0.00000E+00         0.00000E+00        -0.50741E-07
 
    0.90079E+06         0.11394E+06         0.00000E+00
    0.11394E+06        -0.53051E+08         0.00000E+00
    0.00000E+00         0.00000E+00         0.50741E-07
 
    0.86481E+06         0.11476E+06         0.00000E+00
    0.11476E+06        -0.53315E+08         0.00000E+00
    0.00000E+00         0.00000E+00        -0.10148E-07
 
    0.82032E+06         0.11516E+06         0.00000E+00
    0.11516E+06        -0.53589E+08         0.00000E+00
    0.00000E+00         0.00000E+00        -0.15222E-06
 
    0.76632E+06         0.11506E+06         0.00000E+00
    0.11506E+06        -0.53873E+08         0.00000E+00
    0.00000E+00         0.00000E+00        -0.30444E-07
 
    0.70168E+06         0.11439E+06         0.00000E+00
    0.11439E+06        -0.54167E+08         0.00000E+00
    0.00000E+00         0.00000E+00         0.10148E-07
 
    0.62515E+06         0.11306E+06         0.00000E+00
    0.11306E+06        -0.54471E+08         0.00000E+00
    0.00000E+00         0.00000E+00         0.00000E+00
 
    0.53533E+06         0.11097E+06         0.00000E+00
    0.11097E+06        -0.54785E+08         0.00000E+00
    0.00000E+00         0.00000E+00         0.20296E-07
 
    0.43065E+06         0.10799E+06         0.00000E+00
    0.10799E+06        -0.55109E+08         0.00000E+00
    0.00000E+00         0.00000E+00         0.00000E+00
 
    0.30935E+06         0.10402E+06         0.00000E+00
    0.10402E+06        -0.55443E+08         0.00000E+00
    0.00000E+00         0.00000E+00        -0.40593E-07
 
    0.16947E+06         0.98895E+05         0.00000E+00
    0.98895E+05        -0.55787E+08         0.00000E+00
    0.00000E+00         0.00000E+00         0.30444E-07
 
    0.88176E+04         0.92482E+05         0.00000E+00
    0.92482E+05        -0.56141E+08         0.00000E+00
    0.00000E+00         0.00000E+00        -0.50741E-07
 
   -0.17500E+06         0.84619E+05         0.00000E+00
    0.84619E+05        -0.56505E+08         0.00000E+00
    0.00000E+00         0.00000E+00         0.30444E-07
 
   -0.38462E+06         0.75148E+05         0.00000E+00
    0.75148E+05        -0.56878E+08         0.00000E+00
    0.00000E+00         0.00000E+00        -0.30444E-07
 
   -0.62288E+06         0.63917E+05         0.00000E+00
    0.63917E+05        -0.57260E+08         0.00000E+00
    0.00000E+00         0.00000E+00        -0.10148E-06
 
   -0.89279E+06         0.50793E+05         0.00000E+00
    0.50793E+05        -0.57652E+08         0.00000E+00
    0.00000E+00         0.00000E+00         0.00000E+00
 
   -0.11975E+07         0.35678E+05         0.00000E+00
    0.35678E+05        -0.58051E+08         0.00000E+00
    0.00000E+00         0.00000E+00        -0.20296E-07
 
   -0.15401E+07         0.18530E+05         0.00000E+00
    0.18530E+05        -0.58459E+08         0.00000E+00
    0.00000E+00         0.00000E+00         0.30444E-07
 
   -0.19235E+07        -0.61402E+03         0.00000E+00
   -0.61402E+03        -0.58874E+08         0.00000E+00
    0.00000E+00         0.00000E+00         0.60889E-07
 
   -0.23504E+07        -0.21610E+05         0.00000E+00
   -0.21610E+05        -0.59296E+08         0.00000E+00
    0.00000E+00         0.00000E+00         0.50741E-07
 
   -0.28227E+07        -0.44189E+05         0.00000E+00
   -0.44189E+05        -0.59724E+08         0.00000E+00
    0.00000E+00         0.00000E+00        -0.81183E-07
 
   -0.33414E+07        -0.67905E+05         0.00000E+00
   -0.67905E+05        -0.60158E+08         0.00000E+00
    0.00000E+00         0.00000E+00        -0.13192E-06
 
   -0.39055E+07        -0.92190E+05         0.00000E+00
   -0.92190E+05        -0.60597E+08         0.00000E+00
    0.00000E+00         0.00000E+00        -0.20296E-07
 
   -0.45114E+07        -0.11594E+06         0.00000E+00
   -0.11594E+06        -0.61039E+08         0.00000E+00
    0.00000E+00         0.00000E+00         0.50741E-07
 
   -0.51512E+07        -0.13775E+06         0.00000E+00
   -0.13775E+06        -0.61483E+08         0.00000E+00
    0.00000E+00         0.00000E+00        -0.71037E-07
 
   -0.57966E+07        -0.15509E+06         0.00000E+00
   -0.15509E+06        -0.61938E+08         0.00000E+00
    0.00000E+00         0.00000E+00         0.91334E-07
 
   -0.63671E+07        -0.93727E+05         0.00000E+00
   -0.93727E+05        -0.62331E+08         0.00000E+00
    0.00000E+00         0.00000E+00         0.30445E-07
 
    0.20136E+06        -0.16101E+04         0.00000E+00
   -0.16101E+04        -0.47605E+08         0.00000E+00
    0.00000E+00         0.00000E+00         0.00000E+00
 
    0.18921E+06        -0.18487E+04         0.00000E+00
   -0.18487E+04        -0.47614E+08         0.00000E+00
    0.00000E+00         0.00000E+00         0.20296E-07
 
    0.17665E+06        -0.11471E+04         0.00000E+00
   -0.11471E+04        -0.47623E+08         0.00000E+00
    0.00000E+00         0.00000E+00         0.60889E-07
 
    0.16541E+06        -0.57021E+03         0.00000E+00
   -0.57021E+03        -0.47632E+08         0.00000E+00
    0.00000E+00         0.00000E+00        -0.20296E-07
 
    0.15573E+06         0.23198E+02         0.00000E+00
    0.23198E+02        -0.47642E+08         0.00000E+00
    0.00000E+00         0.00000E+00        -0.40593E-07
 
    0.14764E+06         0.60123E+03         0.00000E+00
    0.60123E+03        -0.47651E+08         0.00000E+00
    0.00000E+00         0.00000E+00         0.00000E+00
 
    0.14112E+06         0.11653E+04         0.00000E+00
    0.11653E+04        -0.47661E+08         0.00000E+00
    0.00000E+00         0.00000E+00        -0.30444E-07
 
    0.13611E+06         0.17114E+04         0.00000E+00
    0.17114E+04        -0.47671E+08         0.00000E+00
    0.00000E+00         0.00000E+00        -0.10148E-07
 
    0.13253E+06         0.22379E+04         0.00000E+00
    0.22379E+04        -0.47681E+08         0.00000E+00
    0.00000E+00         0.00000E+00        -0.40593E-07
 
    0.13029E+06         0.27445E+04         0.00000E+00
    0.27445E+04        -0.47692E+08         0.00000E+00
    0.00000E+00         0.00000E+00         0.30444E-07
 
    0.12930E+06         0.32317E+04         0.00000E+00
    0.32317E+04        -0.47703E+08         0.00000E+00
    0.00000E+00         0.00000E+00        -0.10148E-06
 
    0.12948E+06         0.37016E+04         0.00000E+00
    0.37016E+04        -0.47714E+08         0.00000E+00
    0.00000E+00         0.00000E+00        -0.50741E-07
 
    0.13072E+06         0.41566E+04         0.00000E+00
    0.41566E+04        -0.47726E+08         0.00000E+00
    0.00000E+00         0.00000E+00        -0.20296E-07
 
    0.13295E+06         0.45997E+04         0.00000E+00
    0.45997E+04        -0.47738E+08         0.00000E+00
    0.00000E+00         0.00000E+00         0.50741E-07
 
    0.13611E+06         0.50344E+04         0.00000E+00
    0.50344E+04        -0.47751E+08         0.00000E+00
    0.00000E+00         0.00000E+00        -0.20296E-07
 
    0.14011E+06         0.54640E+04         0.00000E+00
    0.54640E+04        -0.47765E+08         0.00000E+00
    0.00000E+00         0.00000E+00        -0.30444E-07
 
    0.14491E+06         0.58919E+04         0.00000E+00
    0.58919E+04        -0.47779E+08         0.00000E+00
    0.00000E+00         0.00000E+00         0.91333E-07
 
    0.15045E+06         0.63213E+04         0.00000E+00
    0.63213E+04        -0.47793E+08         0.00000E+00
    0.00000E+00         0.00000E+00         0.60889E-07
 
    0.15670E+06         0.67553E+04         0.00000E+00
    0.67553E+04        -0.47809E+08         0.00000E+00
    0.00000E+00         0.00000E+00         0.60889E-07
 
    0.16363E+06         0.71966E+04         0.00000E+00
    0.71966E+04        -0.47825E+08         0.00000E+00
    0.00000E+00         0.00000E+00         0.30444E-07
 
    0.17120E+06         0.76479E+04         0.00000E+00
    0.76479E+04        -0.47842E+08         0.00000E+00
    0.00000E+00         0.00000E+00         0.00000E+00
 
    0.17940E+06         0.81116E+04         0.00000E+00
    0.81116E+04        -0.47860E+08         0.00000E+00
    0.00000E+00         0.00000E+00         0.20296E-07
 
    0.18820E+06         0.85899E+04         0.00000E+00
    0.85899E+04        -0.47878E+08         0.00000E+00
    0.00000E+00         0.00000E+00        -0.50741E-07
 
    0.19761E+06         0.90849E+04         0.00000E+00
    0.90849E+04        -0.47898E+08         0.00000E+00
    0.00000E+00         0.00000E+00         0.00000E+00
 
    0.20760E+06         0.95985E+04         0.00000E+00
    0.95985E+04        -0.47919E+08         0.00000E+00
    0.00000E+00         0.00000E+00         0.00000E+00
 
    0.21818E+06         0.10132E+05         0.00000E+00
    0.10132E+05        -0.47941E+08         0.00000E+00
    0.00000E+00         0.00000E+00         0.00000E+00
 
    0.22933E+06         0.10688E+05         0.00000E+00
    0.10688E+05        -0.47965E+08         0.00000E+00
    0.00000E+00         0.00000E+00         0.60889E-07
 
    0.24107E+06         0.11268E+05         0.00000E+00
    0.11268E+05        -0.47989E+08         0.00000E+00
    0.00000E+00         0.00000E+00        -0.40593E-07
 
    0.25339E+06         0.11872E+05         0.00000E+00
    0.11872E+05        -0.48015E+08         0.00000E+00
    0.00000E+00         0.00000E+00         0.00000E+00
 
    0.26629E+06         0.12503E+05         0.00000E+00
    0.12503E+05        -0.48043E+08         0.00000E+00
    0.00000E+00         0.00000E+00        -0.13193E-06
 
    0.27977E+06         0.13161E+05         0.00000E+00
    0.13161E+05        -0.48072E+08         0.00000E+00
    0.00000E+00         0.00000E+00         0.20296E-07
 
    0.29384E+06         0.13848E+05         0.00000E+00
    0.13848E+05        -0.48102E+08         0.00000E+00
    0.00000E+00         0.00000E+00        -0.91333E-07
 
    0.30851E+06         0.14566E+05         0.00000E+00
    0.14566E+05        -0.48135E+08         0.00000E+00
    0.00000E+00         0.00000E+00         0.00000E+00
 
    0.32376E+06         0.15314E+05         0.00000E+00
    0.15314E+05        -0.48169E+08         0.00000E+00
    0.00000E+00         0.00000E+00        -0.20296E-07
 
    0.33962E+06         0.16095E+05         0.00000E+00
    0.16095E+05        -0.48205E+08         0.00000E+00
    0.00000E+00         0.00000E+00        -0.71037E-07
 
    0.35607E+06         0.16910E+05         0.00000E+00
    0.16910E+05        -0.48243E+08         0.00000E+00
    0.00000E+00         0.00000E+00         0.00000E+00
 
    0.37312E+06         0.17758E+05         0.00000E+00
    0.17758E+05        -0.48284E+08         0.00000E+00
    0.00000E+00         0.00000E+00        -0.10148E-07
 
    0.39076E+06         0.18643E+05         0.00000E+00
    0.18643E+05        -0.48326E+08         0.00000E+00
    0.00000E+00         0.00000E+00        -0.30444E-07
 
    0.40900E+06         0.19563E+05         0.00000E+00
    0.19563E+05        -0.48371E+08         0.00000E+00
    0.00000E+00         0.00000E+00        -0.91333E-07
 
    0.42782E+06         0.20520E+05         0.00000E+00
    0.20520E+05        -0.48419E+08         0.00000E+00
    0.00000E+00         0.00000E+00         0.12178E-06
 
    0.44722E+06         0.21516E+05         0.00000E+00
    0.21516E+05        -0.48469E+08         0.00000E+00
    0.00000E+00         0.00000E+00        -0.10148E-07
 
    0.46719E+06         0.22549E+05         0.00000E+00
    0.22549E+05        -0.48522E+08         0.00000E+00
    0.00000E+00         0.00000E+00        -0.22737E-12
 
    0.48771E+06         0.23622E+05         0.00000E+00
    0.23622E+05        -0.48578E+08         0.00000E+00
    0.00000E+00         0.00000E+00        -0.40593E-07
 
    0.50876E+06         0.24733E+05         0.00000E+00
    0.24733E+05        -0.48637E+08         0.00000E+00
    0.00000E+00         0.00000E+00        -0.30444E-07
 
    0.53033E+06         0.25885E+05         0.00000E+00
    0.25885E+05        -0.48700E+08         0.00000E+00
    0.00000E+00         0.00000E+00        -0.40593E-07
 
    0.55238E+06         0.27076E+05         0.00000E+00
    0.27076E+05        -0.48765E+08         0.00000E+00
    0.00000E+00         0.00000E+00        -0.20296E-07
 
    0.57488E+06         0.28308E+05         0.00000E+00
    0.28308E+05        -0.48835E+08         0.00000E+00
    0.00000E+00         0.00000E+00        -0.71037E-07
 
    0.59778E+06         0.29579E+05         0.00000E+00
    0.29579E+05        -0.48908E+08         0.00000E+00
    0.00000E+00         0.00000E+00        -0.10148E-07
 
    0.62106E+06         0.30889E+05         0.00000E+00
    0.30889E+05        -0.48985E+08         0.00000E+00
    0.00000E+00         0.00000E+00        -0.50741E-07
 
    0.64465E+06         0.32238E+05         0.00000E+00
    0.32238E+05        -0.49066E+08         0.00000E+00
    0.00000E+00         0.00000E+00         0.00000E+00
 
    0.66849E+06         0.33625E+05         0.00000E+00
    0.33625E+05        -0.49151E+08         0.00000E+00
    0.00000E+00         0.00000E+00        -0.30444E-07
 
    0.69251E+06         0.35050E+05         0.00000E+00
    0.35050E+05        -0.49241E+08         0.00000E+00
    0.00000E+00         0.00000E+00        -0.60888E-07
 
    0.71664E+06         0.36510E+05         0.00000E+00
    0.36510E+05        -0.49335E+08         0.00000E+00
    0.00000E+00         0.00000E+00         0.00000E+00
 
    0.74079E+06         0.38004E+05         0.00000E+00
    0.38004E+05        -0.49435E+08         0.00000E+00
    0.00000E+00         0.00000E+00         0.10148E-06
 
    0.76485E+06         0.39531E+05         0.00000E+00
    0.39531E+05        -0.49539E+08         0.00000E+00
    0.00000E+00         0.00000E+00         0.91333E-07
 
    0.78872E+06         0.41087E+05         0.00000E+00
    0.41087E+05        -0.49649E+08         0.00000E+00
    0.00000E+00         0.00000E+00         0.20296E-07
 
    0.81228E+06         0.42670E+05         0.00000E+00
    0.42670E+05        -0.49764E+08         0.00000E+00
    0.00000E+00         0.00000E+00         0.60889E-07
 
    0.83537E+06         0.44277E+05         0.00000E+00
    0.44277E+05        -0.49886E+08         0.00000E+00
    0.00000E+00         0.00000E+00         0.00000E+00
 
    0.85785E+06         0.45904E+05         0.00000E+00
    0.45904E+05        -0.50013E+08         0.00000E+00
    0.00000E+00         0.00000E+00         0.91333E-07
 
    0.87956E+06         0.47547E+05         0.00000E+00
    0.47547E+05        -0.50146E+08         0.00000E+00
    0.00000E+00         0.00000E+00        -0.16237E-06
 
    0.90028E+06         0.49201E+05         0.00000E+00
    0.49201E+05        -0.50286E+08         0.00000E+00
    0.00000E+00         0.00000E+00        -0.60889E-07
 
    0.91983E+06         0.50859E+05         0.00000E+00
    0.50859E+05        -0.50432E+08         0.00000E+00
    0.00000E+00         0.00000E+00         0.20296E-07
 
    0.93797E+06         0.52517E+05         0.00000E+00
    0.52517E+05        -0.50586E+08         0.00000E+00
    0.00000E+00         0.00000E+00         0.20296E-07
 
    0.95445E+06         0.54167E+05         0.00000E+00
    0.54167E+05        -0.50746E+08         0.00000E+00
    0.00000E+00         0.00000E+00        -0.10148E-07
 
    0.96899E+06         0.55800E+05         0.00000E+00
    0.55800E+05        -0.50914E+08         0.00000E+00
    0.00000E+00         0.00000E+00        -0.40593E-07
 
    0.98128E+06         0.57408E+05         0.00000E+00
    0.57408E+05        -0.51090E+08         0.00000E+00
    0.00000E+00         0.00000E+00         0.30444E-07
 
    0.99098E+06         0.58980E+05         0.00000E+00
    0.58980E+05        -0.51273E+08         0.00000E+00
    0.00000E+00         0.00000E+00        -0.20296E-07
 
    0.99773E+06         0.60504E+05         0.00000E+00
    0.60504E+05        -0.51465E+08         0.00000E+00
    0.00000E+00         0.00000E+00        -0.20296E-07
 
    0.10011E+07         0.61967E+05         0.00000E+00
    0.61967E+05        -0.51665E+08         0.00000E+00
    0.00000E+00         0.00000E+00        -0.10148E-07
 
    0.10007E+07         0.63355E+05         0.00000E+00
    0.63355E+05        -0.51873E+08         0.00000E+00
    0.00000E+00         0.00000E+00         0.40593E-07
 
    0.99601E+06         0.64650E+05         0.00000E+00
    0.64650E+05        -0.52090E+08         0.00000E+00
    0.00000E+00         0.00000E+00         0.20296E-07
 
    0.98646E+06         0.65834E+05         0.00000E+00
    0.65834E+05        -0.52317E+08         0.00000E+00
    0.00000E+00         0.00000E+00        -0.50741E-07
 
    0.97148E+06         0.66884E+05         0.00000E+00
    0.66884E+05        -0.52552E+08         0.00000E+00
    0.00000E+00         0.00000E+00         0.50741E-07
 
    0.95040E+06         0.67775E+05         0.00000E+00
    0.67775E+05        -0.52797E+08         0.00000E+00
    0.00000E+00         0.00000E+00        -0.91333E-07
 
    0.92248E+06         0.68479E+05         0.00000E+00
    0.68479E+05        -0.53051E+08         0.00000E+00
    0.00000E+00         0.00000E+00         0.30444E-07
 
    0.88692E+06         0.68964E+05         0.00000E+00
    0.68964E+05        -0.53315E+08         0.00000E+00
    0.00000E+00         0.00000E+00         0.40593E-07
 
    0.84280E+06         0.69193E+05         0.00000E+00
    0.69193E+05        -0.53589E+08         0.00000E+00
    0.00000E+00         0.00000E+00         0.50741E-07
 
    0.78910E+06         0.69122E+05         0.00000E+00
    0.69122E+05        -0.53873E+08         0.00000E+00
    0.00000E+00         0.00000E+00         0.00000E+00
 
    0.72470E+06         0.68705E+05         0.00000E+00
    0.68705E+05        -0.54167E+08         0.00000E+00
    0.00000E+00         0.00000E+00         0.10148E-07
 
    0.64830E+06         0.67884E+05         0.00000E+00
    0.67884E+05        -0.54470E+08         0.00000E+00
    0.00000E+00         0.00000E+00        -0.71037E-07
 
    0.55849E+06         0.66599E+05         0.00000E+00
    0.66599E+05        -0.54784E+08         0.00000E+00
    0.00000E+00         0.00000E+00         0.11163E-06
 
    0.45365E+06         0.64777E+05         0.00000E+00
    0.64777E+05        -0.55108E+08         0.00000E+00
    0.00000E+00         0.00000E+00         0.14207E-06
 
    0.33197E+06         0.62341E+05         0.00000E+00
    0.62341E+05        -0.55442E+08         0.00000E+00
    0.00000E+00         0.00000E+00        -0.60889E-07
 
    0.19144E+06         0.59203E+05         0.00000E+00
    0.59203E+05        -0.55786E+08         0.00000E+00
    0.00000E+00         0.00000E+00        -0.50741E-07
 
    0.29787E+05         0.55270E+05         0.00000E+00
    0.55270E+05        -0.56140E+08         0.00000E+00
    0.00000E+00         0.00000E+00         0.30444E-07
 
   -0.15549E+06         0.50441E+05         0.00000E+00
    0.50441E+05        -0.56504E+08         0.00000E+00
    0.00000E+00         0.00000E+00         0.30444E-07
 
   -0.36715E+06         0.44615E+05         0.00000E+00
    0.44615E+05        -0.56876E+08         0.00000E+00
    0.00000E+00         0.00000E+00        -0.30444E-07
 
   -0.60819E+06         0.37694E+05         0.00000E+00
    0.37694E+05        -0.57258E+08         0.00000E+00
    0.00000E+00         0.00000E+00        -0.40593E-07
 
   -0.88181E+06         0.29587E+05         0.00000E+00
    0.29587E+05        -0.57649E+08         0.00000E+00
    0.00000E+00         0.00000E+00        -0.30444E-07
 
   -0.11914E+07         0.20225E+05         0.00000E+00
    0.20225E+05        -0.58049E+08         0.00000E+00
    0.00000E+00         0.00000E+00        -0.91333E-07
 
   -0.15402E+07         0.95701E+04         0.00000E+00
    0.95701E+04        -0.58456E+08         0.00000E+00
    0.00000E+00         0.00000E+00         0.60889E-07
 
   -0.19318E+07        -0.23716E+04         0.00000E+00
   -0.23716E+04        -0.58871E+08         0.00000E+00
    0.00000E+00         0.00000E+00         0.13193E-06
 
   -0.23690E+07        -0.15537E+05         0.00000E+00
   -0.15537E+05        -0.59292E+08         0.00000E+00
    0.00000E+00         0.00000E+00         0.40593E-07
 
   -0.28543E+07        -0.29789E+05         0.00000E+00
   -0.29789E+05        -0.59720E+08         0.00000E+00
    0.00000E+00         0.00000E+00        -0.10148E-07
 
   -0.33893E+07        -0.44943E+05         0.00000E+00
   -0.44943E+05        -0.60154E+08         0.00000E+00
    0.00000E+00         0.00000E+00         0.10148E-07
 
   -0.39744E+07        -0.60673E+05         0.00000E+00
   -0.60673E+05        -0.60592E+08         0.00000E+00
    0.00000E+00         0.00000E+00        -0.60889E-07
 
   -0.46075E+07        -0.76925E+05         0.00000E+00
   -0.76925E+05        -0.61035E+08         0.00000E+00
    0.00000E+00         0.00000E+00         0.10148E-07
 
   -0.52834E+07        -0.92002E+05         0.00000E+00
   -0.92002E+05        -0.61480E+08         0.00000E+00
    0.00000E+00         0.00000E+00        -0.50741E-07
 
   -0.59875E+07        -0.11273E+06         0.00000E+00
   -0.11273E+06        -0.61935E+08         0.00000E+00
    0.00000E+00         0.00000E+00         0.91333E-07
 
   -0.66300E+07        -0.86605E+05         0.00000E+00
   -0.86605E+05        -0.62360E+08         0.00000E+00
    0.00000E+00         0.00000E+00         0.40592E-07
 
    0.20768E+06        -0.14056E+04         0.00000E+00
   -0.14056E+04        -0.47604E+08         0.00000E+00
    0.00000E+00         0.00000E+00        -0.40593E-07
 
    0.19326E+06        -0.86441E+03         0.00000E+00
   -0.86441E+03        -0.47614E+08         0.00000E+00
    0.00000E+00         0.00000E+00         0.20296E-07
 
    0.17954E+06        -0.53251E+03         0.00000E+00
   -0.53251E+03        -0.47623E+08         0.00000E+00
    0.00000E+00         0.00000E+00         0.60889E-07
 
    0.16762E+06        -0.29052E+03         0.00000E+00
   -0.29052E+03        -0.47632E+08         0.00000E+00
    0.00000E+00         0.00000E+00         0.10148E-07
 
    0.15747E+06        -0.62274E+02         0.00000E+00
   -0.62274E+02        -0.47642E+08         0.00000E+00
    0.00000E+00         0.00000E+00        -0.40592E-07
 
    0.14904E+06         0.15135E+03         0.00000E+00
    0.15135E+03        -0.47651E+08         0.00000E+00
    0.00000E+00         0.00000E+00         0.00000E+00
 
    0.14229E+06         0.35483E+03         0.00000E+00
    0.35483E+03        -0.47661E+08         0.00000E+00
    0.00000E+00         0.00000E+00        -0.10148E-07
 
    0.13712E+06         0.54887E+03         0.00000E+00
    0.54887E+03        -0.47671E+08         0.00000E+00
    0.00000E+00         0.00000E+00        -0.60889E-07
 
    0.13344E+06         0.73384E+03         0.00000E+00
    0.73384E+03        -0.47681E+08         0.00000E+00
    0.00000E+00         0.00000E+00        -0.40593E-07
 
    0.13115E+06         0.91020E+03         0.00000E+00
    0.91020E+03        -0.47692E+08         0.00000E+00
    0.00000E+00         0.00000E+00        -0.71037E-07
 
    0.13015E+06         0.10786E+04         0.00000E+00
    0.10786E+04        -0.47703E+08         0.00000E+00
    0.00000E+00         0.00000E+00        -0.30444E-07
 
    0.13034E+06         0.12399E+04         0.00000E+00
    0.12399E+04        -0.47714E+08         0.00000E+00
    0.00000E+00         0.00000E+00         0.71037E-07
 
    0.13162E+06         0.13953E+04         0.00000E+00
    0.13953E+04        -0.47726E+08         0.00000E+00
    0.00000E+00         0.00000E+00         0.50741E-07
 
    0.13391E+06         0.15460E+04         0.00000E+00
    0.15460E+04        -0.47738E+08         0.00000E+00
    0.00000E+00         0.00000E+00        -0.20296E-07
 
    0.13714E+06         0.16932E+04         0.00000E+00
    0.16932E+04        -0.47751E+08         0.00000E+00
    0.00000E+00         0.00000E+00        -0.20296E-07
 
    0.14123E+06         0.18383E+04         0.00000E+00
    0.18383E+04        -0.47765E+08         0.00000E+00
    0.00000E+00         0.00000E+00         0.00000E+00
 
    0.14613E+06         0.19825E+04         0.00000E+00
    0.19825E+04        -0.47779E+08         0.00000E+00
    0.00000E+00         0.00000E+00         0.40593E-07
 
    0.15178E+06         0.21269E+04         0.00000E+00
    0.21269E+04        -0.47793E+08         0.00000E+00
    0.00000E+00         0.00000E+00         0.60889E-07
 
    0.15814E+06         0.22726E+04         0.00000E+00
    0.22726E+04        -0.47809E+08         0.00000E+00
    0.00000E+00         0.00000E+00         0.81185E-07
 
    0.16519E+06         0.24208E+04         0.00000E+00
    0.24208E+04        -0.47825E+08         0.00000E+00
    0.00000E+00         0.00000E+00         0.20296E-07
 
    0.17288E+06         0.25722E+04         0.00000E+00
    0.25722E+04        -0.47842E+08         0.00000E+00
    0.00000E+00         0.00000E+00         0.10148E-07
 
    0.18121E+06         0.27277E+04         0.00000E+00
    0.27277E+04        -0.47860E+08         0.00000E+00
    0.00000E+00         0.00000E+00         0.00000E+00
 
    0.19015E+06         0.28880E+04         0.00000E+00
    0.28880E+04        -0.47879E+08         0.00000E+00
    0.00000E+00         0.00000E+00         0.50741E-07
 
    0.19970E+06         0.30540E+04         0.00000E+00
    0.30540E+04        -0.47898E+08         0.00000E+00
    0.00000E+00         0.00000E+00        -0.30444E-07
 
    0.20984E+06         0.32262E+04         0.00000E+00
    0.32262E+04        -0.47919E+08         0.00000E+00
    0.00000E+00         0.00000E+00         0.50741E-07
 
    0.22057E+06         0.34052E+04         0.00000E+00
    0.34052E+04        -0.47941E+08         0.00000E+00
    0.00000E+00         0.00000E+00        -0.20296E-07
 
    0.23188E+06         0.35916E+04         0.00000E+00
    0.35916E+04        -0.47965E+08         0.00000E+00
    0.00000E+00         0.00000E+00         0.10148E-07
 
    0.24379E+06         0.37859E+04         0.00000E+00
    0.37859E+04        -0.47989E+08         0.00000E+00
    0.00000E+00         0.00000E+00        -0.10148E-07
 
    0.25628E+06         0.39886E+04         0.00000E+00
    0.39886E+04        -0.48015E+08         0.00000E+00
    0.00000E+00         0.00000E+00         0.00000E+00
 
    0.26936E+06         0.42002E+04         0.00000E+00
    0.42002E+04        -0.48043E+08         0.00000E+00
    0.00000E+00         0.00000E+00         0.30444E-07
 
    0.28303E+06         0.44211E+04         0.00000E+00
    0.44211E+04        -0.48072E+08         0.00000E+00
    0.00000E+00         0.00000E+00         0.60889E-07
 
    0.29730E+06         0.46516E+04         0.00000E+00
    0.46516E+04        -0.48102E+08         0.00000E+00
    0.00000E+00         0.00000E+00        -0.71037E-07
 
    0.31217E+06         0.48923E+04         0.00000E+00
    0.48923E+04        -0.48135E+08         0.00000E+00
    0.00000E+00         0.00000E+00         0.00000E+00
 
    0.32765E+06         0.51435E+04         0.00000E+00
    0.51435E+04        -0.48169E+08         0.00000E+00
    0.00000E+00         0.00000E+00         0.00000E+00
 
    0.34372E+06         0.54055E+04         0.00000E+00
    0.54055E+04        -0.48205E+08         0.00000E+00
    0.00000E+00         0.00000E+00        -0.20296E-07
 
    0.36041E+06         0.56788E+04         0.00000E+00
    0.56788E+04        -0.48244E+08         0.00000E+00
    0.00000E+00         0.00000E+00        -0.40593E-07
 
    0.37770E+06         0.59636E+04         0.00000E+00
    0.59636E+04        -0.48284E+08         0.00000E+00
    0.00000E+00         0.00000E+00        -0.40592E-07
 
    0.39560E+06         0.62602E+04         0.00000E+00
    0.62602E+04        -0.48327E+08         0.00000E+00
    0.00000E+00         0.00000E+00         0.20296E-07
 
    0.41410E+06         0.65690E+04         0.00000E+00
    0.65690E+04        -0.48372E+08         0.00000E+00
    0.00000E+00         0.00000E+00         0.10148E-07
 
    0.43320E+06         0.68902E+04         0.00000E+00
    0.68902E+04        -0.48419E+08         0.00000E+00
    0.00000E+00         0.00000E+00        -0.10148E-07
 
    0.45289E+06         0.72240E+04         0.00000E+00
    0.72240E+04        -0.48469E+08         0.00000E+00
    0.00000E+00         0.00000E+00         0.00000E+00
 
    0.47316E+06         0.75707E+04         0.00000E+00
    0.75707E+04        -0.48523E+08         0.00000E+00
    0.00000E+00         0.00000E+00         0.10148E-07
 
    0.49399E+06         0.79304E+04         0.00000E+00
    0.79304E+04        -0.48578E+08         0.00000E+00
    0.00000E+00         0.00000E+00         0.60889E-07
 
    0.51537E+06         0.83033E+04         0.00000E+00
    0.83033E+04        -0.48638E+08         0.00000E+00
    0.00000E+00         0.00000E+00        -0.13193E-06
 
    0.53727E+06         0.86895E+04         0.00000E+00
    0.86895E+04        -0.48700E+08         0.00000E+00
    0.00000E+00         0.00000E+00        -0.40593E-07
 
    0.55967E+06         0.90890E+04         0.00000E+00
    0.90890E+04        -0.48766E+08         0.00000E+00
    0.00000E+00         0.00000E+00         0.00000E+00
 
    0.58253E+06         0.95018E+04         0.00000E+00
    0.95018E+04        -0.48835E+08         0.00000E+00
    0.00000E+00         0.00000E+00        -0.91333E-07
 
    0.60582E+06         0.99279E+04         0.00000E+00
    0.99279E+04        -0.48908E+08         0.00000E+00
    0.00000E+00         0.00000E+00         0.10148E-07
 
    0.62948E+06         0.10367E+05         0.00000E+00
    0.10367E+05        -0.48985E+08         0.00000E+00
    0.00000E+00         0.00000E+00        -0.40593E-07
 
    0.65347E+06         0.10819E+05         0.00000E+00
    0.10819E+05        -0.49066E+08         0.00000E+00
    0.00000E+00         0.00000E+00        -0.81185E-07
 
    0.67773E+06         0.11284E+05         0.00000E+00
    0.11284E+05        -0.49151E+08         0.00000E+00
    0.00000E+00         0.00000E+00        -0.71037E-07
 
    0.70219E+06         0.11762E+05         0.00000E+00
    0.11762E+05        -0.49241E+08         0.00000E+00
    0.00000E+00         0.00000E+00        -0.50741E-07
 
    0.72676E+06         0.12251E+05         0.00000E+00
    0.12251E+05        -0.49336E+08         0.00000E+00
    0.00000E+00         0.00000E+00         0.00000E+00
 
    0.75136E+06         0.12751E+05         0.00000E+00
    0.12751E+05        -0.49435E+08         0.00000E+00
    0.00000E+00         0.00000E+00        -0.10148E-07
 
    0.77590E+06         0.13262E+05         0.00000E+00
    0.13262E+05        -0.49540E+08         0.00000E+00
    0.00000E+00         0.00000E+00         0.81185E-07
 
    0.80025E+06         0.13784E+05         0.00000E+00
    0.13784E+05        -0.49649E+08         0.00000E+00
    0.00000E+00         0.00000E+00        -0.60889E-07
 
    0.82430E+06         0.14314E+05         0.00000E+00
    0.14314E+05        -0.49765E+08         0.00000E+00
    0.00000E+00         0.00000E+00        -0.11163E-06
 
    0.84790E+06         0.14852E+05         0.00000E+00
    0.14852E+05        -0.49886E+08         0.00000E+00
    0.00000E+00         0.00000E+00         0.60889E-07
 
    0.87090E+06         0.15396E+05         0.00000E+00
    0.15396E+05        -0.50013E+08         0.00000E+00
    0.00000E+00         0.00000E+00         0.71037E-07
 
    0.89313E+06         0.15946E+05         0.00000E+00
    0.15946E+05        -0.50146E+08         0.00000E+00
    0.00000E+00         0.00000E+00        -0.10148E-06
 
    0.91439E+06         0.16499E+05         0.00000E+00
    0.16499E+05        -0.50286E+08         0.00000E+00
    0.00000E+00         0.00000E+00         0.10148E-07
 
    0.93449E+06         0.17053E+05         0.00000E+00
    0.17053E+05        -0.50432E+08         0.00000E+00
    0.00000E+00         0.00000E+00         0.10148E-07
 
    0.95318E+06         0.17608E+05         0.00000E+00
    0.17608E+05        -0.50586E+08         0.00000E+00
    0.00000E+00         0.00000E+00        -0.60889E-07
 
    0.97022E+06         0.18159E+05         0.00000E+00
    0.18159E+05        -0.50746E+08         0.00000E+00
    0.00000E+00         0.00000E+00        -0.30444E-07
 
    0.98533E+06         0.18705E+05         0.00000E+00
    0.18705E+05        -0.50914E+08         0.00000E+00
    0.00000E+00         0.00000E+00        -0.50741E-07
 
    0.99818E+06         0.19242E+05         0.00000E+00
    0.19242E+05        -0.51090E+08         0.00000E+00
    0.00000E+00         0.00000E+00        -0.60889E-07
 
    0.10085E+07         0.19766E+05         0.00000E+00
    0.19766E+05        -0.51273E+08         0.00000E+00
    0.00000E+00         0.00000E+00         0.50741E-07
 
    0.10158E+07         0.20275E+05         0.00000E+00
    0.20275E+05        -0.51465E+08         0.00000E+00
    0.00000E+00         0.00000E+00         0.12178E-06
 
    0.10198E+07         0.20763E+05         0.00000E+00
    0.20763E+05        -0.51665E+08         0.00000E+00
    0.00000E+00         0.00000E+00         0.71037E-07
 
    0.10199E+07         0.21226E+05         0.00000E+00
    0.21226E+05        -0.51873E+08         0.00000E+00
    0.00000E+00         0.00000E+00         0.00000E+00
 
    0.10158E+07         0.21657E+05         0.00000E+00
    0.21657E+05        -0.52091E+08         0.00000E+00
    0.00000E+00         0.00000E+00         0.20296E-07
 
    0.10068E+07         0.22050E+05         0.00000E+00
    0.22050E+05        -0.52317E+08         0.00000E+00
    0.00000E+00         0.00000E+00        -0.50740E-07
 
    0.99236E+06         0.22399E+05         0.00000E+00
    0.22399E+05        -0.52552E+08         0.00000E+00
    0.00000E+00         0.00000E+00         0.11163E-06
 
    0.97181E+06         0.22694E+05         0.00000E+00
    0.22694E+05        -0.52797E+08         0.00000E+00
    0.00000E+00         0.00000E+00         0.60889E-07
 
    0.94440E+06         0.22925E+05         0.00000E+00
    0.22925E+05        -0.53051E+08         0.00000E+00
    0.00000E+00         0.00000E+00        -0.50741E-07
 
    0.90932E+06         0.23082E+05         0.00000E+00
    0.23082E+05        -0.53315E+08         0.00000E+00
    0.00000E+00         0.00000E+00        -0.60889E-07
 
    0.86564E+06         0.23152E+05         0.00000E+00
    0.23152E+05        -0.53589E+08         0.00000E+00
    0.00000E+00         0.00000E+00         0.00000E+00
 
    0.81235E+06         0.23121E+05         0.00000E+00
    0.23121E+05        -0.53873E+08         0.00000E+00
    0.00000E+00         0.00000E+00        -0.40593E-07
 
    0.74827E+06         0.22970E+05         0.00000E+00
    0.22970E+05        -0.54167E+08         0.00000E+00
    0.00000E+00         0.00000E+00         0.50741E-07
 
    0.67212E+06         0.22681E+05         0.00000E+00
    0.22681E+05        -0.54470E+08         0.00000E+00
    0.00000E+00         0.00000E+00         0.11163E-06
 
    0.58245E+06         0.22232E+05         0.00000E+00
    0.22232E+05        -0.54784E+08         0.00000E+00
    0.00000E+00         0.00000E+00        -0.81185E-07
 
    0.47759E+06         0.21598E+05         0.00000E+00
    0.21598E+05        -0.55108E+08         0.00000E+00
    0.00000E+00         0.00000E+00        -0.50741E-07
 
    0.35571E+06         0.20749E+05         0.00000E+00
    0.20749E+05        -0.55442E+08         0.00000E+00
    0.00000E+00         0.00000E+00         0.50741E-07
 
    0.21471E+06         0.19654E+05         0.00000E+00
    0.19654E+05        -0.55786E+08         0.00000E+00
    0.00000E+00         0.00000E+00        -0.30444E-07
 
    0.52257E+05         0.18279E+05         0.00000E+00
    0.18279E+05        -0.56140E+08         0.00000E+00
    0.00000E+00         0.00000E+00         0.00000E+00
 
   -0.13425E+06         0.16585E+05         0.00000E+00
    0.16585E+05        -0.56503E+08         0.00000E+00
    0.00000E+00         0.00000E+00        -0.81185E-07
 
   -0.34770E+06         0.14533E+05         0.00000E+00
    0.14533E+05        -0.56876E+08         0.00000E+00
    0.00000E+00         0.00000E+00         0.60889E-07
 
   -0.59125E+06         0.12084E+05         0.00000E+00
    0.12084E+05        -0.57257E+08         0.00000E+00
    0.00000E+00         0.00000E+00         0.10148E-07
 
   -0.86828E+06         0.92004E+04         0.00000E+00
    0.92004E+04        -0.57648E+08         0.00000E+00
    0.00000E+00         0.00000E+00        -0.10148E-06
 
   -0.11824E+07         0.58499E+04         0.00000E+00
    0.58499E+04        -0.58047E+08         0.00000E+00
    0.00000E+00         0.00000E+00        -0.16237E-06
 
   -0.15373E+07         0.20089E+04         0.00000E+00
    0.20089E+04        -0.58454E+08         0.00000E+00
    0.00000E+00         0.00000E+00         0.14207E-06
 
   -0.19367E+07        -0.23339E+04         0.00000E+00
   -0.23339E+04        -0.58869E+08         0.00000E+00
    0.00000E+00         0.00000E+00         0.10148E-07
 
   -0.23839E+07        -0.71735E+04         0.00000E+00
   -0.71735E+04        -0.59291E+08         0.00000E+00
    0.00000E+00         0.00000E+00        -0.10148E-06
 
   -0.28821E+07        -0.12493E+05         0.00000E+00
   -0.12493E+05        -0.59718E+08         0.00000E+00
    0.00000E+00         0.00000E+00         0.40593E-07
 
   -0.34335E+07        -0.18268E+05         0.00000E+00
   -0.18268E+05        -0.60152E+08         0.00000E+00
    0.00000E+00         0.00000E+00        -0.30443E-07
 
   -0.40395E+07        -0.24488E+05         0.00000E+00
   -0.24488E+05        -0.60590E+08         0.00000E+00
    0.00000E+00         0.00000E+00        -0.71037E-07
 
   -0.47002E+07        -0.31325E+05         0.00000E+00
   -0.31325E+05        -0.61033E+08         0.00000E+00
    0.00000E+00         0.00000E+00        -0.30444E-07
 
   -0.54131E+07        -0.38684E+05         0.00000E+00
   -0.38684E+05        -0.61479E+08         0.00000E+00
    0.00000E+00         0.00000E+00        -0.30444E-07
 
   -0.61773E+07        -0.50256E+05         0.00000E+00
   -0.50256E+05        -0.61926E+08         0.00000E+00
    0.00000E+00         0.00000E+00        -0.14207E-06
 
   -0.69328E+07        -0.71830E+05         0.00000E+00
   -0.71830E+05        -0.62382E+08         0.00000E+00
    0.00000E+00         0.00000E+00         0.40592E-07
 
TENSORS stresstot double 
   -0.49992E+08         0.87572E+04         0.00000E+00
    0.87572E+04        -0.97560E+08         0.00000E+00
    0.00000E+00         0.00000E+00        -0.49995E+08
 
   -0.49984E+08         0.23833E+05         0.00000E+00
    0.23833E+05        -0.97555E+08         0.00000E+00
    0.00000E+00         0.00000E+00        -0.49986E+08
 
   -0.49975E+08         0.35688E+05         0.00000E+00
    0.35688E+05        -0.97551E+08         0.00000E+00
    0.00000E+00         0.00000E+00        -0.49977E+08
 
   -0.49966E+08         0.46287E+05         0.00000E+00
    0.46287E+05        -0.97548E+08         0.00000E+00
    0.00000E+00         0.00000E+00        -0.49968E+08
 
   -0.49956E+08         0.56139E+05         0.00000E+00
    0.56139E+05        -0.97546E+08         0.00000E+00
    0.00000E+00         0.00000E+00        -0.49958E+08
 
   -0.49947E+08         0.65567E+05         0.00000E+00
    0.65567E+05        -0.97545E+08         0.00000E+00
    0.00000E+00         0.00000E+00        -0.49949E+08
 
   -0.49937E+08         0.74762E+05         0.00000E+00
    0.74762E+05        -0.97545E+08         0.00000E+00
    0.00000E+00         0.00000E+00        -0.49939E+08
 
   -0.49927E+08         0.83849E+05         0.00000E+00
    0.83849E+05        -0.97544E+08         0.00000E+00
    0.00000E+00         0.00000E+00        -0.49929E+08
 
   -0.49917E+08         0.92915E+05         0.00000E+00
    0.92915E+05        -0.97544E+08         0.00000E+00
    0.00000E+00         0.00000E+00        -0.49919E+08
 
   -0.49906E+08         0.10202E+06         0.00000E+00
    0.10202E+06        -0.97544E+08         0.00000E+00
    0.00000E+00         0.00000E+00        -0.49908E+08
 
   -0.49895E+08         0.11121E+06         0.00000E+00
    0.11121E+06        -0.97544E+08         0.00000E+00
    0.00000E+00         0.00000E+00        -0.49897E+08
 
   -0.49884E+08         0.12053E+06         0.00000E+00
    0.12053E+06        -0.97544E+08         0.00000E+00
    0.00000E+00         0.00000E+00        -0.49886E+08
 
   -0.49872E+08         0.13002E+06         0.00000E+00
    0.13002E+06        -0.97544E+08         0.00000E+00
    0.00000E+00         0.00000E+00        -0.49874E+08
 
   -0.49860E+08         0.13971E+06         0.00000E+00
    0.13971E+06        -0.97544E+08         0.00000E+00
    0.00000E+00         0.00000E+00        -0.49862E+08
 
   -0.49847E+08         0.14964E+06         0.00000E+00
    0.14964E+06        -0.97543E+08         0.00000E+00
    0.00000E+00         0.00000E+00        -0.49849E+08
 
   -0.49833E+08         0.15984E+06         0.00000E+00
    0.15984E+06        -0.97542E+08         0.00000E+00
    0.00000E+00         0.00000E+00        -0.49835E+08
 
   -0.49819E+08         0.17036E+06         0.00000E+00
    0.17036E+06        -0.97541E+08         0.00000E+00
    0.00000E+00         0.00000E+00        -0.49821E+08
 
   -0.49804E+08         0.18123E+06         0.00000E+00
    0.18123E+06        -0.97539E+08         0.00000E+00
    0.00000E+00         0.00000E+00        -0.49807E+08
 
   -0.49789E+08         0.19250E+06         0.00000E+00
    0.19250E+06        -0.97537E+08         0.00000E+00
    0.00000E+00         0.00000E+00        -0.49791E+08
 
   -0.49773E+08         0.20420E+06         0.00000E+00
    0.20420E+06        -0.97535E+08         0.00000E+00
    0.00000E+00         0.00000E+00        -0.49775E+08
 
   -0.49756E+08         0.21637E+06         0.00000E+00
    0.21637E+06        -0.97533E+08         0.00000E+00
    0.00000E+00         0.00000E+00        -0.49758E+08
 
   -0.49738E+08         0.22906E+06         0.00000E+00
    0.22906E+06        -0.97531E+08         0.00000E+00
    0.00000E+00         0.00000E+00        -0.49740E+08
 
   -0.49719E+08         0.24230E+06         0.00000E+00
    0.24230E+06        -0.97528E+08         0.00000E+00
    0.00000E+00         0.00000E+00        -0.49721E+08
 
   -0.49699E+08         0.25614E+06         0.00000E+00
    0.25614E+06        -0.97525E+08         0.00000E+00
    0.00000E+00         0.00000E+00        -0.49702E+08
 
   -0.49678E+08         0.27062E+06         0.00000E+00
    0.27062E+06        -0.97522E+08         0.00000E+00
    0.00000E+00         0.00000E+00        -0.49681E+08
 
   -0.49655E+08         0.28577E+06         0.00000E+00
    0.28577E+06        -0.97518E+08         0.00000E+00
    0.00000E+00         0.00000E+00        -0.49659E+08
 
   -0.49632E+08         0.30164E+06         0.00000E+00
    0.30164E+06        -0.97515E+08         0.00000E+00
    0.00000E+00         0.00000E+00        -0.49635E+08
 
   -0.49607E+08         0.31827E+06         0.00000E+00
    0.31827E+06        -0.97511E+08         0.00000E+00
    0.00000E+00         0.00000E+00        -0.49611E+08
 
   -0.49581E+08         0.33570E+06         0.00000E+00
    0.33570E+06        -0.97507E+08         0.00000E+00
    0.00000E+00         0.00000E+00        -0.49585E+08
 
   -0.49553E+08         0.35396E+06         0.00000E+00
    0.35396E+06        -0.97503E+08         0.00000E+00
    0.00000E+00         0.00000E+00        -0.49557E+08
 
   -0.49524E+08         0.37310E+06         0.00000E+00
    0.37310E+06        -0.97498E+08         0.00000E+00
    0.00000E+00         0.00000E+00        -0.49528E+08
 
   -0.49493E+08         0.39316E+06         0.00000E+00
    0.39316E+06        -0.97493E+08         0.00000E+00
    0.00000E+00         0.00000E+00        -0.49497E+08
 
   -0.49461E+08         0.41417E+06         0.00000E+00
    0.41417E+06        -0.97489E+08         0.00000E+00
    0.00000E+00         0.00000E+00        -0.49465E+08
 
   -0.49426E+08         0.43617E+06         0.00000E+00
    0.43617E+06        -0.97484E+08         0.00000E+00
    0.00000E+00         0.00000E+00        -0.49431E+08
 
   -0.49390E+08         0.45921E+06         0.00000E+00
    0.45921E+06        -0.97478E+08         0.00000E+00
    0.00000E+00         0.00000E+00        -0.49395E+08
 
   -0.49351E+08         0.48332E+06         0.00000E+00
    0.48332E+06        -0.97473E+08         0.00000E+00
    0.00000E+00         0.00000E+00        -0.49356E+08
 
   -0.49311E+08         0.50855E+06         0.00000E+00
    0.50855E+06        -0.97467E+08         0.00000E+00
    0.00000E+00         0.00000E+00        -0.49316E+08
 
   -0.49268E+08         0.53491E+06         0.00000E+00
    0.53491E+06        -0.97462E+08         0.00000E+00
    0.00000E+00         0.00000E+00        -0.49273E+08
 
   -0.49223E+08         0.56247E+06         0.00000E+00
    0.56247E+06        -0.97456E+08         0.00000E+00
    0.00000E+00         0.00000E+00        -0.49228E+08
 
   -0.49175E+08         0.59124E+06         0.00000E+00
    0.59124E+06        -0.97450E+08         0.00000E+00
    0.00000E+00         0.00000E+00        -0.49181E+08
 
   -0.49124E+08         0.62126E+06         0.00000E+00
    0.62126E+06        -0.97443E+08         0.00000E+00
    0.00000E+00         0.00000E+00        -0.49130E+08
 
   -0.49071E+08         0.65258E+06         0.00000E+00
    0.65258E+06        -0.97437E+08         0.00000E+00
    0.00000E+00         0.00000E+00        -0.49077E+08
 
   -0.49015E+08         0.68521E+06         0.00000E+00
    0.68521E+06        -0.97431E+08         0.00000E+00
    0.00000E+00         0.00000E+00        -0.49021E+08
 
   -0.48955E+08         0.71919E+06         0.00000E+00
    0.71919E+06        -0.97424E+08         0.00000E+00
    0.00000E+00         0.00000E+00        -0.48962E+08
 
   -0.48893E+08         0.75455E+06         0.00000E+00
    0.75455E+06        -0.97417E+08         0.00000E+00
    0.00000E+00         0.00000E+00        -0.48900E+08
 
   -0.48827E+08         0.79131E+06         0.00000E+00
    0.79131E+06        -0.97411E+08         0.00000E+00
    0.00000E+00         0.00000E+00        -0.48834E+08
 
   -0.48757E+08         0.82949E+06         0.00000E+00
    0.82949E+06        -0.97404E+08         0.00000E+00
    0.00000E+00         0.00000E+00        -0.48765E+08
 
   -0.48684E+08         0.86912E+06         0.00000E+00
    0.86912E+06        -0.97397E+08         0.00000E+00
    0.00000E+00         0.00000E+00        -0.48692E+08
 
   -0.48607E+08         0.91021E+06         0.00000E+00
    0.91021E+06        -0.97390E+08         0.00000E+00
    0.00000E+00         0.00000E+00        -0.48615E+08
 
   -0.48525E+08         0.95277E+06         0.00000E+00
    0.95277E+06        -0.97383E+08         0.00000E+00
    0.00000E+00         0.00000E+00        -0.48534E+08
 
   -0.48440E+08         0.99680E+06         0.00000E+00
    0.99680E+06        -0.97377E+08         0.00000E+00
    0.00000E+00         0.00000E+00        -0.48449E+08
 
   -0.48349E+08         0.10423E+07         0.00000E+00
    0.10423E+07        -0.97370E+08         0.00000E+00
    0.00000E+00         0.00000E+00        -0.48359E+08
 
   -0.48255E+08         0.10893E+07         0.00000E+00
    0.10893E+07        -0.97364E+08         0.00000E+00
    0.00000E+00         0.00000E+00        -0.48264E+08
 
   -0.48155E+08         0.11377E+07         0.00000E+00
    0.11377E+07        -0.97357E+08         0.00000E+00
    0.00000E+00         0.00000E+00        -0.48165E+08
 
   -0.48050E+08         0.11876E+07         0.00000E+00
    0.11876E+07        -0.97351E+08         0.00000E+00
    0.00000E+00         0.00000E+00        -0.48060E+08
 
   -0.47940E+08         0.12389E+07         0.00000E+00
    0.12389E+07        -0.97345E+08         0.00000E+00
    0.00000E+00         0.00000E+00        -0.47950E+08
 
   -0.47824E+08         0.12915E+07         0.00000E+00
    0.12915E+07        -0.97340E+08         0.00000E+00
    0.00000E+00         0.00000E+00        -0.47835E+08
 
   -0.47703E+08         0.13455E+07         0.00000E+00
    0.13455E+07        -0.97335E+08         0.00000E+00
    0.00000E+00         0.00000E+00        -0.47714E+08
 
   -0.47576E+08         0.14007E+07         0.00000E+00
    0.14007E+07        -0.97330E+08         0.00000E+00
    0.00000E+00         0.00000E+00        -0.47587E+08
 
   -0.47442E+08         0.14571E+07         0.00000E+00
    0.14571E+07        -0.97326E+08         0.00000E+00
    0.00000E+00         0.00000E+00        -0.47454E+08
 
   -0.47302E+08         0.15146E+07         0.00000E+00
    0.15146E+07        -0.97322E+08         0.00000E+00
    0.00000E+00         0.00000E+00        -0.47314E+08
 
   -0.47156E+08         0.15731E+07         0.00000E+00
    0.15731E+07        -0.97320E+08         0.00000E+00
    0.00000E+00         0.00000E+00        -0.47167E+08
 
   -0.47002E+08         0.16324E+07         0.00000E+00
    0.16324E+07        -0.97318E+08         0.00000E+00
    0.00000E+00         0.00000E+00        -0.47014E+08
 
   -0.46841E+08         0.16924E+07         0.00000E+00
    0.16924E+07        -0.97317E+08         0.00000E+00
    0.00000E+00         0.00000E+00        -0.46853E+08
 
   -0.46673E+08         0.17530E+07         0.00000E+00
    0.17530E+07        -0.97317E+08         0.00000E+00
    0.00000E+00         0.00000E+00        -0.46685E+08
 
   -0.46498E+08         0.18140E+07         0.00000E+00
    0.18140E+07        -0.97319E+08         0.00000E+00
    0.00000E+00         0.00000E+00        -0.46510E+08
 
   -0.46314E+08         0.18751E+07         0.00000E+00
    0.18751E+07        -0.97322E+08         0.00000E+00
    0.00000E+00         0.00000E+00        -0.46326E+08
 
   -0.46123E+08         0.19361E+07         0.00000E+00
    0.19361E+07        -0.97326E+08         0.00000E+00
    0.00000E+00         0.00000E+00        -0.46135E+08
 
   -0.45923E+08         0.19967E+07         0.00000E+00
    0.19967E+07        -0.97333E+08         0.00000E+00
    0.00000E+00         0.00000E+00        -0.45935E+08
 
   -0.45714E+08         0.20567E+07         0.00000E+00
    0.20567E+07        -0.97341E+08         0.00000E+00
    0.00000E+00         0.00000E+00        -0.45726E+08
 
   -0.45497E+08         0.21156E+07         0.00000E+00
    0.21156E+07        -0.97351E+08         0.00000E+00
    0.00000E+00         0.00000E+00        -0.45509E+08
 
   -0.45271E+08         0.21732E+07         0.00000E+00
    0.21732E+07        -0.97364E+08         0.00000E+00
    0.00000E+00         0.00000E+00        -0.45283E+08
 
   -0.45036E+08         0.22290E+07         0.00000E+00
    0.22290E+07        -0.97380E+08         0.00000E+00
    0.00000E+00         0.00000E+00        -0.45047E+08
 
   -0.44792E+08         0.22826E+07         0.00000E+00
    0.22826E+07        -0.97398E+08         0.00000E+00
    0.00000E+00         0.00000E+00        -0.44803E+08
 
   -0.44538E+08         0.23335E+07         0.00000E+00
    0.23335E+07        -0.97420E+08         0.00000E+00
    0.00000E+00         0.00000E+00        -0.44548E+08
 
   -0.44275E+08         0.23810E+07         0.00000E+00
    0.23810E+07        -0.97446E+08         0.00000E+00
    0.00000E+00         0.00000E+00        -0.44284E+08
 
   -0.44002E+08         0.24248E+07         0.00000E+00
    0.24248E+07        -0.97475E+08         0.00000E+00
    0.00000E+00         0.00000E+00        -0.44011E+08
 
   -0.43719E+08         0.24640E+07         0.00000E+00
    0.24640E+07        -0.97509E+08         0.00000E+00
    0.00000E+00         0.00000E+00        -0.43727E+08
 
   -0.43427E+08         0.24982E+07         0.00000E+00
    0.24982E+07        -0.97547E+08         0.00000E+00
    0.00000E+00         0.00000E+00        -0.43433E+08
 
   -0.43124E+08         0.25265E+07         0.00000E+00
    0.25265E+07        -0.97591E+08         0.00000E+00
    0.00000E+00         0.00000E+00        -0.43129E+08
 
   -0.42812E+08         0.25484E+07         0.00000E+00
    0.25484E+07        -0.97639E+08         0.00000E+00
    0.00000E+00         0.00000E+00        -0.42816E+08
 
   -0.42489E+08         0.25629E+07         0.00000E+00
    0.25629E+07        -0.97694E+08         0.00000E+00
    0.00000E+00         0.00000E+00        -0.42492E+08
 
   -0.42157E+08         0.25693E+07         0.00000E+00
    0.25693E+07        -0.97754E+08         0.00000E+00
    0.00000E+00         0.00000E+00        -0.42158E+08
 
   -0.41815E+08         0.25670E+07         0.00000E+00
    0.25670E+07        -0.97820E+08         0.00000E+00
    0.00000E+00         0.00000E+00        -0.41814E+08
 
   -0.41464E+08         0.25551E+07         0.00000E+00
    0.25551E+07        -0.97891E+08         0.00000E+00
    0.00000E+00         0.00000E+00        -0.41460E+08
 
   -0.41102E+08         0.25328E+07         0.00000E+00
    0.25328E+07        -0.97968E+08         0.00000E+00
    0.00000E+00         0.00000E+00        -0.41097E+08
 
   -0.40732E+08         0.24995E+07         0.00000E+00
    0.24995E+07        -0.98050E+08         0.00000E+00
    0.00000E+00         0.00000E+00        -0.40724E+08
 
   -0.40353E+08         0.24546E+07         0.00000E+00
    0.24546E+07        -0.98136E+08         0.00000E+00
    0.00000E+00         0.00000E+00        -0.40343E+08
 
   -0.39965E+08         0.23973E+07         0.00000E+00
    0.23973E+07        -0.98223E+08         0.00000E+00
    0.00000E+00         0.00000E+00        -0.39952E+08
 
   -0.39568E+08         0.23272E+07         0.00000E+00
    0.23272E+07        -0.98311E+08         0.00000E+00
    0.00000E+00         0.00000E+00        -0.39553E+08
 
   -0.39164E+08         0.22435E+07         0.00000E+00
    0.22435E+07        -0.98395E+08         0.00000E+00
    0.00000E+00         0.00000E+00        -0.39146E+08
 
   -0.38752E+08         0.21455E+07         0.00000E+00
    0.21455E+07        -0.98472E+08         0.00000E+00
    0.00000E+00         0.00000E+00        -0.38731E+08
 
   -0.38334E+08         0.20322E+07         0.00000E+00
    0.20322E+07        -0.98536E+08         0.00000E+00
    0.00000E+00         0.00000E+00        -0.38310E+08
 
   -0.37910E+08         0.19018E+07         0.00000E+00
    0.19018E+07        -0.98582E+08         0.00000E+00
    0.00000E+00         0.00000E+00        -0.37882E+08
 
   -0.37481E+08         0.17515E+07         0.00000E+00
    0.17515E+07        -0.98602E+08         0.00000E+00
    0.00000E+00         0.00000E+00        -0.37449E+08
 
   -0.37048E+08         0.15766E+07         0.00000E+00
    0.15766E+07        -0.98587E+08         0.00000E+00
    0.00000E+00         0.00000E+00        -0.37010E+08
 
   -0.36614E+08         0.13692E+07         0.00000E+00
    0.13692E+07        -0.98528E+08         0.00000E+00
    0.00000E+00         0.00000E+00        -0.36568E+08
 
   -0.36179E+08         0.11153E+07         0.00000E+00
    0.11153E+07        -0.98414E+08         0.00000E+00
    0.00000E+00         0.00000E+00        -0.36122E+08
 
   -0.35748E+08         0.79184E+06         0.00000E+00
    0.79184E+06        -0.98241E+08         0.00000E+00
    0.00000E+00         0.00000E+00        -0.35674E+08
 
   -0.35349E+08         0.30460E+06         0.00000E+00
    0.30460E+06        -0.97972E+08         0.00000E+00
    0.00000E+00         0.00000E+00        -0.35225E+08
 
   -0.49985E+08         0.78606E+04         0.00000E+00
    0.78606E+04        -0.97563E+08         0.00000E+00
    0.00000E+00         0.00000E+00        -0.49995E+08
 
   -0.49979E+08         0.22096E+05         0.00000E+00
    0.22096E+05        -0.97557E+08         0.00000E+00
    0.00000E+00         0.00000E+00        -0.49986E+08
 
   -0.49970E+08         0.33948E+05         0.00000E+00
    0.33948E+05        -0.97553E+08         0.00000E+00
    0.00000E+00         0.00000E+00        -0.49977E+08
 
   -0.49962E+08         0.44465E+05         0.00000E+00
    0.44465E+05        -0.97550E+08         0.00000E+00
    0.00000E+00         0.00000E+00        -0.49968E+08
 
   -0.49953E+08         0.54270E+05         0.00000E+00
    0.54270E+05        -0.97548E+08         0.00000E+00
    0.00000E+00         0.00000E+00        -0.49958E+08
 
   -0.49943E+08         0.63646E+05         0.00000E+00
    0.63646E+05        -0.97547E+08         0.00000E+00
    0.00000E+00         0.00000E+00        -0.49949E+08
 
   -0.49933E+08         0.72788E+05         0.00000E+00
    0.72788E+05        -0.97546E+08         0.00000E+00
    0.00000E+00         0.00000E+00        -0.49939E+08
 
   -0.49923E+08         0.81818E+05         0.00000E+00
    0.81818E+05        -0.97546E+08         0.00000E+00
    0.00000E+00         0.00000E+00        -0.49929E+08
 
   -0.49913E+08         0.90821E+05         0.00000E+00
    0.90821E+05        -0.97546E+08         0.00000E+00
    0.00000E+00         0.00000E+00        -0.49919E+08
 
   -0.49902E+08         0.99856E+05         0.00000E+00
    0.99856E+05        -0.97546E+08         0.00000E+00
    0.00000E+00         0.00000E+00        -0.49908E+08
 
   -0.49891E+08         0.10897E+06         0.00000E+00
    0.10897E+06        -0.97546E+08         0.00000E+00
    0.00000E+00         0.00000E+00        -0.49897E+08
 
   -0.49880E+08         0.11821E+06         0.00000E+00
    0.11821E+06        -0.97546E+08         0.00000E+00
    0.00000E+00         0.00000E+00        -0.49886E+08
 
   -0.49868E+08         0.12760E+06         0.00000E+00
    0.12760E+06        -0.97546E+08         0.00000E+00
    0.00000E+00         0.00000E+00        -0.49874E+08
 
   -0.49856E+08         0.13718E+06         0.00000E+00
    0.13718E+06        -0.97545E+08         0.00000E+00
    0.00000E+00         0.00000E+00        -0.49862E+08
 
   -0.49843E+08         0.14700E+06         0.00000E+00
    0.14700E+06        -0.97545E+08         0.00000E+00
    0.00000E+00         0.00000E+00        -0.49849E+08
 
   -0.49829E+08         0.15708E+06         0.00000E+00
    0.15708E+06        -0.97544E+08         0.00000E+00
    0.00000E+00         0.00000E+00        -0.49835E+08
 
   -0.49815E+08         0.16747E+06         0.00000E+00
    0.16747E+06        -0.97543E+08         0.00000E+00
    0.00000E+00         0.00000E+00        -0.49821E+08
 
   -0.49800E+08         0.17820E+06         0.00000E+00
    0.17820E+06        -0.97541E+08         0.00000E+00
    0.00000E+00         0.00000E+00        -0.49807E+08
 
   -0.49784E+08         0.18931E+06         0.00000E+00
    0.18931E+06        -0.97540E+08         0.00000E+00
    0.00000E+00         0.00000E+00        -0.49791E+08
 
   -0.49768E+08         0.20084E+06         0.00000E+00
    0.20084E+06        -0.97538E+08         0.00000E+00
    0.00000E+00         0.00000E+00        -0.49775E+08
 
   -0.49751E+08         0.21284E+06         0.00000E+00
    0.21284E+06        -0.97536E+08         0.00000E+00
    0.00000E+00         0.00000E+00        -0.49758E+08
 
   -0.49733E+08         0.22534E+06         0.00000E+00
    0.22534E+06        -0.97533E+08         0.00000E+00
    0.00000E+00         0.00000E+00        -0.49740E+08
 
   -0.49713E+08         0.23839E+06         0.00000E+00
    0.23839E+06        -0.97531E+08         0.00000E+00
    0.00000E+00         0.00000E+00        -0.49721E+08
 
   -0.49693E+08         0.25201E+06         0.00000E+00
    0.25201E+06        -0.97528E+08         0.00000E+00
    0.00000E+00         0.00000E+00        -0.49702E+08
 
   -0.49672E+08         0.26626E+06         0.00000E+00
    0.26626E+06        -0.97525E+08         0.00000E+00
    0.00000E+00         0.00000E+00        -0.49681E+08
 
   -0.49649E+08         0.28118E+06         0.00000E+00
    0.28118E+06        -0.97521E+08         0.00000E+00
    0.00000E+00         0.00000E+00        -0.49659E+08
 
   -0.49625E+08         0.29679E+06         0.00000E+00
    0.29679E+06        -0.97518E+08         0.00000E+00
    0.00000E+00         0.00000E+00        -0.49635E+08
 
   -0.49600E+08         0.31315E+06         0.00000E+00
    0.31315E+06        -0.97514E+08         0.00000E+00
    0.00000E+00         0.00000E+00        -0.49611E+08
 
   -0.49574E+08         0.33029E+06         0.00000E+00
    0.33029E+06        -0.97510E+08         0.00000E+00
    0.00000E+00         0.00000E+00        -0.49585E+08
 
   -0.49546E+08         0.34824E+06         0.00000E+00
    0.34824E+06        -0.97506E+08         0.00000E+00
    0.00000E+00         0.00000E+00        -0.49557E+08
 
   -0.49516E+08         0.36706E+06         0.00000E+00
    0.36706E+06        -0.97502E+08         0.00000E+00
    0.00000E+00         0.00000E+00        -0.49528E+08
 
   -0.49485E+08         0.38678E+06         0.00000E+00
    0.38678E+06        -0.97498E+08         0.00000E+00
    0.00000E+00         0.00000E+00        -0.49497E+08
 
   -0.49452E+08         0.40743E+06         0.00000E+00
    0.40743E+06        -0.97493E+08         0.00000E+00
    0.00000E+00         0.00000E+00        -0.49465E+08
 
   -0.49417E+08         0.42905E+06         0.00000E+00
    0.42905E+06        -0.97488E+08         0.00000E+00
    0.00000E+00         0.00000E+00        -0.49431E+08
 
   -0.49380E+08         0.45169E+06         0.00000E+00
    0.45169E+06        -0.97483E+08         0.00000E+00
    0.00000E+00         0.00000E+00        -0.49395E+08
 
   -0.49342E+08         0.47538E+06         0.00000E+00
    0.47538E+06        -0.97478E+08         0.00000E+00
    0.00000E+00         0.00000E+00        -0.49356E+08
 
   -0.49301E+08         0.50015E+06         0.00000E+00
    0.50015E+06        -0.97472E+08         0.00000E+00
    0.00000E+00         0.00000E+00        -0.49316E+08
 
   -0.49257E+08         0.52605E+06         0.00000E+00
    0.52605E+06        -0.97467E+08         0.00000E+00
    0.00000E+00         0.00000E+00        -0.49273E+08
 
   -0.49211E+08         0.55311E+06         0.00000E+00
    0.55311E+06        -0.97461E+08         0.00000E+00
    0.00000E+00         0.00000E+00        -0.49228E+08
 
   -0.49163E+08         0.58136E+06         0.00000E+00
    0.58136E+06        -0.97455E+08         0.00000E+00
    0.00000E+00         0.00000E+00        -0.49181E+08
 
   -0.49112E+08         0.61084E+06         0.00000E+00
    0.61084E+06        -0.97450E+08         0.00000E+00
    0.00000E+00         0.00000E+00        -0.49130E+08
 
   -0.49058E+08         0.64157E+06         0.00000E+00
    0.64157E+06        -0.97443E+08         0.00000E+00
    0.00000E+00         0.00000E+00        -0.49077E+08
 
   -0.49001E+08         0.67360E+06         0.00000E+00
    0.67360E+06        -0.97437E+08         0.00000E+00
    0.00000E+00         0.00000E+00        -0.49021E+08
 
   -0.48941E+08         0.70695E+06         0.00000E+00
    0.70695E+06        -0.97431E+08         0.00000E+00
    0.00000E+00         0.00000E+00        -0.48962E+08
 
   -0.48878E+08         0.74164E+06         0.00000E+00
    0.74164E+06        -0.97425E+08         0.00000E+00
    0.00000E+00         0.00000E+00        -0.48900E+08
 
   -0.48812E+08         0.77770E+06         0.00000E+00
    0.77770E+06        -0.97418E+08         0.00000E+00
    0.00000E+00         0.00000E+00        -0.48834E+08
 
   -0.48742E+08         0.81515E+06         0.00000E+00
    0.81515E+06        -0.97412E+08         0.00000E+00
    0.00000E+00         0.00000E+00        -0.48765E+08
 
   -0.48668E+08         0.85401E+06         0.00000E+00
    0.85401E+06        -0.97405E+08         0.00000E+00
    0.00000E+00         0.00000E+00        -0.48692E+08
 
   -0.48590E+08         0.89430E+06         0.00000E+00
    0.89430E+06        -0.97399E+08         0.00000E+00
    0.00000E+00         0.00000E+00        -0.48615E+08
 
   -0.48508E+08         0.93602E+06         0.00000E+00
    0.93602E+06        -0.97392E+08         0.00000E+00
    0.00000E+00         0.00000E+00        -0.48534E+08
 
   -0.48422E+08         0.97917E+06         0.00000E+00
    0.97917E+06        -0.97386E+08         0.00000E+00
    0.00000E+00         0.00000E+00        -0.48449E+08
 
   -0.48331E+08         0.10238E+07         0.00000E+00
    0.10238E+07        -0.97379E+08         0.00000E+00
    0.00000E+00         0.00000E+00        -0.48359E+08
 
   -0.48236E+08         0.10698E+07         0.00000E+00
    0.10698E+07        -0.97373E+08         0.00000E+00
    0.00000E+00         0.00000E+00        -0.48264E+08
 
   -0.48135E+08         0.11172E+07         0.00000E+00
    0.11172E+07        -0.97367E+08         0.00000E+00
    0.00000E+00         0.00000E+00        -0.48165E+08
 
   -0.48030E+08         0.11661E+07         0.00000E+00
    0.11661E+07        -0.97361E+08         0.00000E+00
    0.00000E+00         0.00000E+00        -0.48060E+08
 
   -0.47919E+08         0.12163E+07         0.00000E+00
    0.12163E+07        -0.97355E+08         0.00000E+00
    0.00000E+00         0.00000E+00        -0.47950E+08
 
   -0.47803E+08         0.12678E+07         0.00000E+00
    0.12678E+07        -0.97350E+08         0.00000E+00
    0.00000E+00         0.00000E+00        -0.47835E+08
 
   -0.47681E+08         0.13206E+07         0.00000E+00
    0.13206E+07        -0.97345E+08         0.00000E+00
    0.00000E+00         0.00000E+00        -0.47714E+08
 
   -0.47553E+08         0.13746E+07         0.00000E+00
    0.13746E+07        -0.97341E+08         0.00000E+00
    0.00000E+00         0.00000E+00        -0.47587E+08
 
   -0.47419E+08         0.14297E+07         0.00000E+00
    0.14297E+07        -0.97337E+08         0.00000E+00
    0.00000E+00         0.00000E+00        -0.47454E+08
 
   -0.47279E+08         0.14859E+07         0.00000E+00
    0.14859E+07        -0.97334E+08         0.00000E+00
    0.00000E+00         0.00000E+00        -0.47314E+08
 
   -0.47132E+08         0.15430E+07         0.00000E+00
    0.15430E+07        -0.97331E+08         0.00000E+00
    0.00000E+00         0.00000E+00        -0.47167E+08
 
   -0.46978E+08         0.16009E+07         0.00000E+00
    0.16009E+07        -0.97330E+08         0.00000E+00
    0.00000E+00         0.00000E+00        -0.47014E+08
 
   -0.46817E+08         0.16595E+07         0.00000E+00
    0.16595E+07        -0.97329E+08         0.00000E+00
    0.00000E+00         0.00000E+00        -0.46853E+08
 
   -0.46649E+08         0.17186E+07         0.00000E+00
    0.17186E+07        -0.97329E+08         0.00000E+00
    0.00000E+00         0.00000E+00        -0.46685E+08
 
   -0.46473E+08         0.17780E+07         0.00000E+00
    0.17780E+07        -0.97331E+08         0.00000E+00
    0.00000E+00         0.00000E+00        -0.46510E+08
 
   -0.46290E+08         0.18376E+07         0.00000E+00
    0.18376E+07        -0.97334E+08         0.00000E+00
    0.00000E+00         0.00000E+00        -0.46326E+08
 
   -0.46098E+08         0.18969E+07         0.00000E+00
    0.18969E+07        -0.97338E+08         0.00000E+00
    0.00000E+00         0.00000E+00        -0.46135E+08
 
   -0.45898E+08         0.19559E+07         0.00000E+00
    0.19559E+07        -0.97344E+08         0.00000E+00
    0.00000E+00         0.00000E+00        -0.45935E+08
 
   -0.45690E+08         0.20142E+07         0.00000E+00
    0.20142E+07        -0.97352E+08         0.00000E+00
    0.00000E+00         0.00000E+00        -0.45726E+08
 
   -0.45474E+08         0.20714E+07         0.00000E+00
    0.20714E+07        -0.97363E+08         0.00000E+00
    0.00000E+00         0.00000E+00        -0.45509E+08
 
   -0.45249E+08         0.21272E+07         0.00000E+00
    0.21272E+07        -0.97375E+08         0.00000E+00
    0.00000E+00         0.00000E+00        -0.45283E+08
 
   -0.45014E+08         0.21812E+07         0.00000E+00
    0.21812E+07        -0.97390E+08         0.00000E+00
    0.00000E+00         0.00000E+00        -0.45047E+08
 
   -0.44771E+08         0.22329E+07         0.00000E+00
    0.22329E+07        -0.97408E+08         0.00000E+00
    0.00000E+00         0.00000E+00        -0.44803E+08
 
   -0.44518E+08         0.22819E+07         0.00000E+00
    0.22819E+07        -0.97430E+08         0.00000E+00
    0.00000E+00         0.00000E+00        -0.44548E+08
 
   -0.44257E+08         0.23276E+07         0.00000E+00
    0.23276E+07        -0.97455E+08         0.00000E+00
    0.00000E+00         0.00000E+00        -0.44284E+08
 
   -0.43985E+08         0.23694E+07         0.00000E+00
    0.23694E+07        -0.97483E+08         0.00000E+00
    0.00000E+00         0.00000E+00        -0.44011E+08
 
   -0.43704E+08         0.24067E+07         0.00000E+00
    0.24067E+07        -0.97516E+08         0.00000E+00
    0.00000E+00         0.00000E+00        -0.43727E+08
 
   -0.43414E+08         0.24389E+07         0.00000E+00
    0.24389E+07        -0.97553E+08         0.00000E+00
    0.00000E+00         0.00000E+00        -0.43433E+08
 
   -0.43114E+08         0.24653E+07         0.00000E+00
    0.24653E+07        -0.97595E+08         0.00000E+00
    0.00000E+00         0.00000E+00        -0.43129E+08
 
   -0.42804E+08         0.24852E+07         0.00000E+00
    0.24852E+07        -0.97643E+08         0.00000E+00
    0.00000E+00         0.00000E+00        -0.42816E+08
 
   -0.42485E+08         0.24977E+07         0.00000E+00
    0.24977E+07        -0.97696E+08         0.00000E+00
    0.00000E+00         0.00000E+00        -0.42492E+08
 
   -0.42156E+08         0.25023E+07         0.00000E+00
    0.25023E+07        -0.97754E+08         0.00000E+00
    0.00000E+00         0.00000E+00        -0.42158E+08
 
   -0.41818E+08         0.24980E+07         0.00000E+00
    0.24980E+07        -0.97818E+08         0.00000E+00
    0.00000E+00         0.00000E+00        -0.41814E+08
 
   -0.41470E+08         0.24842E+07         0.00000E+00
    0.24842E+07        -0.97888E+08         0.00000E+00
    0.00000E+00         0.00000E+00        -0.41460E+08
 
   -0.41113E+08         0.24601E+07         0.00000E+00
    0.24601E+07        -0.97963E+08         0.00000E+00
    0.00000E+00         0.00000E+00        -0.41097E+08
 
   -0.40748E+08         0.24250E+07         0.00000E+00
    0.24250E+07        -0.98042E+08         0.00000E+00
    0.00000E+00         0.00000E+00        -0.40724E+08
 
   -0.40373E+08         0.23783E+07         0.00000E+00
    0.23783E+07        -0.98125E+08         0.00000E+00
    0.00000E+00         0.00000E+00        -0.40343E+08
 
   -0.39990E+08         0.23194E+07         0.00000E+00
    0.23194E+07        -0.98210E+08         0.00000E+00
    0.00000E+00         0.00000E+00        -0.39952E+08
 
   -0.39599E+08         0.22476E+07         0.00000E+00
    0.22476E+07        -0.98295E+08         0.00000E+00
    0.00000E+00         0.00000E+00        -0.39553E+08
 
   -0.39200E+08         0.21624E+07         0.00000E+00
    0.21624E+07        -0.98377E+08         0.00000E+00
    0.00000E+00         0.00000E+00        -0.39146E+08
 
   -0.38795E+08         0.20631E+07         0.00000E+00
    0.20631E+07        -0.98451E+08         0.00000E+00
    0.00000E+00         0.00000E+00        -0.38731E+08
 
   -0.38383E+08         0.19486E+07         0.00000E+00
    0.19486E+07        -0.98512E+08         0.00000E+00
    0.00000E+00         0.00000E+00        -0.38310E+08
 
   -0.37967E+08         0.18172E+07         0.00000E+00
    0.18172E+07        -0.98554E+08         0.00000E+00
    0.00000E+00         0.00000E+00        -0.37882E+08
 
   -0.37547E+08         0.16662E+07         0.00000E+00
    0.16662E+07        -0.98570E+08         0.00000E+00
    0.00000E+00         0.00000E+00        -0.37449E+08
 
   -0.37126E+08         0.14910E+07         0.00000E+00
    0.14910E+07        -0.98549E+08         0.00000E+00
    0.00000E+00         0.00000E+00        -0.37010E+08
 
   -0.36706E+08         0.12837E+07         0.00000E+00
    0.12837E+07        -0.98482E+08         0.00000E+00
    0.00000E+00         0.00000E+00        -0.36568E+08
 
   -0.36294E+08         0.10321E+07         0.00000E+00
    0.10321E+07        -0.98358E+08         0.00000E+00
    0.00000E+00         0.00000E+00        -0.36122E+08
 
   -0.35897E+08         0.70749E+06         0.00000E+00
    0.70749E+06        -0.98164E+08         0.00000E+00
    0.00000E+00         0.00000E+00        -0.35674E+08
 
   -0.35584E+08         0.26077E+06         0.00000E+00
    0.26077E+06        -0.97863E+08         0.00000E+00
    0.00000E+00         0.00000E+00        -0.35225E+08
 
   -0.49979E+08         0.71792E+04         0.00000E+00
    0.71792E+04        -0.97566E+08         0.00000E+00
    0.00000E+00         0.00000E+00        -0.49995E+08
 
   -0.49973E+08         0.20608E+05         0.00000E+00
    0.20608E+05        -0.97560E+08         0.00000E+00
    0.00000E+00         0.00000E+00        -0.49986E+08
 
   -0.49966E+08         0.32285E+05         0.00000E+00
    0.32285E+05        -0.97555E+08         0.00000E+00
    0.00000E+00         0.00000E+00        -0.49977E+08
 
   -0.49958E+08         0.42707E+05         0.00000E+00
    0.42707E+05        -0.97552E+08         0.00000E+00
    0.00000E+00         0.00000E+00        -0.49968E+08
 
   -0.49949E+08         0.52433E+05         0.00000E+00
    0.52433E+05        -0.97550E+08         0.00000E+00
    0.00000E+00         0.00000E+00        -0.49958E+08
 
   -0.49939E+08         0.61745E+05         0.00000E+00
    0.61745E+05        -0.97549E+08         0.00000E+00
    0.00000E+00         0.00000E+00        -0.49949E+08
 
   -0.49930E+08         0.70824E+05         0.00000E+00
    0.70824E+05        -0.97548E+08         0.00000E+00
    0.00000E+00         0.00000E+00        -0.49939E+08
 
   -0.49920E+08         0.79791E+05         0.00000E+00
    0.79791E+05        -0.97548E+08         0.00000E+00
    0.00000E+00         0.00000E+00        -0.49929E+08
 
   -0.49909E+08         0.88725E+05         0.00000E+00
    0.88725E+05        -0.97548E+08         0.00000E+00
    0.00000E+00         0.00000E+00        -0.49919E+08
 
   -0.49899E+08         0.97686E+05         0.00000E+00
    0.97686E+05        -0.97548E+08         0.00000E+00
    0.00000E+00         0.00000E+00        -0.49908E+08
 
   -0.49888E+08         0.10672E+06         0.00000E+00
    0.10672E+06        -0.97548E+08         0.00000E+00
    0.00000E+00         0.00000E+00        -0.49897E+08
 
   -0.49876E+08         0.11587E+06         0.00000E+00
    0.11587E+06        -0.97548E+08         0.00000E+00
    0.00000E+00         0.00000E+00        -0.49886E+08
 
   -0.49864E+08         0.12516E+06         0.00000E+00
    0.12516E+06        -0.97548E+08         0.00000E+00
    0.00000E+00         0.00000E+00        -0.49874E+08
 
   -0.49852E+08         0.13464E+06         0.00000E+00
    0.13464E+06        -0.97547E+08         0.00000E+00
    0.00000E+00         0.00000E+00        -0.49862E+08
 
   -0.49839E+08         0.14434E+06         0.00000E+00
    0.14434E+06        -0.97547E+08         0.00000E+00
    0.00000E+00         0.00000E+00        -0.49849E+08
 
   -0.49825E+08         0.15429E+06         0.00000E+00
    0.15429E+06        -0.97546E+08         0.00000E+00
    0.00000E+00         0.00000E+00        -0.49835E+08
 
   -0.49811E+08         0.16455E+06         0.00000E+00
    0.16455E+06        -0.97545E+08         0.00000E+00
    0.00000E+00         0.00000E+00        -0.49821E+08
 
   -0.49796E+08         0.17513E+06         0.00000E+00
    0.17513E+06        -0.97544E+08         0.00000E+00
    0.00000E+00         0.00000E+00        -0.49807E+08
 
   -0.49780E+08         0.18609E+06         0.00000E+00
    0.18609E+06        -0.97542E+08         0.00000E+00
    0.00000E+00         0.00000E+00        -0.49791E+08
 
   -0.49763E+08         0.19746E+06         0.00000E+00
    0.19746E+06        -0.97540E+08         0.00000E+00
    0.00000E+00         0.00000E+00        -0.49775E+08
 
   -0.49746E+08         0.20928E+06         0.00000E+00
    0.20928E+06        -0.97538E+08         0.00000E+00
    0.00000E+00         0.00000E+00        -0.49758E+08
 
   -0.49727E+08         0.22159E+06         0.00000E+00
    0.22159E+06        -0.97536E+08         0.00000E+00
    0.00000E+00         0.00000E+00        -0.49740E+08
 
   -0.49708E+08         0.23443E+06         0.00000E+00
    0.23443E+06        -0.97533E+08         0.00000E+00
    0.00000E+00         0.00000E+00        -0.49721E+08
 
   -0.49688E+08         0.24784E+06         0.00000E+00
    0.24784E+06        -0.97531E+08         0.00000E+00
    0.00000E+00         0.00000E+00        -0.49702E+08
 
   -0.49666E+08         0.26186E+06         0.00000E+00
    0.26186E+06        -0.97528E+08         0.00000E+00
    0.00000E+00         0.00000E+00        -0.49681E+08
 
   -0.49643E+08         0.27652E+06         0.00000E+00
    0.27652E+06        -0.97525E+08         0.00000E+00
    0.00000E+00         0.00000E+00        -0.49659E+08
 
   -0.49619E+08         0.29188E+06         0.00000E+00
    0.29188E+06        -0.97521E+08         0.00000E+00
    0.00000E+00         0.00000E+00        -0.49635E+08
 
   -0.49594E+08         0.30796E+06         0.00000E+00
    0.30796E+06        -0.97518E+08         0.00000E+00
    0.00000E+00         0.00000E+00        -0.49611E+08
 
   -0.49567E+08         0.32481E+06         0.00000E+00
    0.32481E+06        -0.97514E+08         0.00000E+00
    0.00000E+00         0.00000E+00        -0.49585E+08
 
   -0.49539E+08         0.34246E+06         0.00000E+00
    0.34246E+06        -0.97510E+08         0.00000E+00
    0.00000E+00         0.00000E+00        -0.49557E+08
 
   -0.49509E+08         0.36095E+06         0.00000E+00
    0.36095E+06        -0.97506E+08         0.00000E+00
    0.00000E+00         0.00000E+00        -0.49528E+08
 
   -0.49477E+08         0.38032E+06         0.00000E+00
    0.38032E+06        -0.97502E+08         0.00000E+00
    0.00000E+00         0.00000E+00        -0.49497E+08
 
   -0.49444E+08         0.40061E+06         0.00000E+00
    0.40061E+06        -0.97497E+08         0.00000E+00
    0.00000E+00         0.00000E+00        -0.49465E+08
 
   -0.49408E+08         0.42185E+06         0.00000E+00
    0.42185E+06        -0.97492E+08         0.00000E+00
    0.00000E+00         0.00000E+00        -0.49431E+08
 
   -0.49371E+08         0.44408E+06         0.00000E+00
    0.44408E+06        -0.97488E+08         0.00000E+00
    0.00000E+00         0.00000E+00        -0.49395E+08
 
   -0.49332E+08         0.46734E+06         0.00000E+00
    0.46734E+06        -0.97483E+08         0.00000E+00
    0.00000E+00         0.00000E+00        -0.49356E+08
 
   -0.49290E+08         0.49167E+06         0.00000E+00
    0.49167E+06        -0.97478E+08         0.00000E+00
    0.00000E+00         0.00000E+00        -0.49316E+08
 
   -0.49246E+08         0.51709E+06         0.00000E+00
    0.51709E+06        -0.97472E+08         0.00000E+00
    0.00000E+00         0.00000E+00        -0.49273E+08
 
   -0.49200E+08         0.54365E+06         0.00000E+00
    0.54365E+06        -0.97467E+08         0.00000E+00
    0.00000E+00         0.00000E+00        -0.49228E+08
 
   -0.49151E+08         0.57138E+06         0.00000E+00
    0.57138E+06        -0.97461E+08         0.00000E+00
    0.00000E+00         0.00000E+00        -0.49181E+08
 
   -0.49100E+08         0.60031E+06         0.00000E+00
    0.60031E+06        -0.97456E+08         0.00000E+00
    0.00000E+00         0.00000E+00        -0.49130E+08
 
   -0.49046E+08         0.63046E+06         0.00000E+00
    0.63046E+06        -0.97450E+08         0.00000E+00
    0.00000E+00         0.00000E+00        -0.49077E+08
 
   -0.48988E+08         0.66188E+06         0.00000E+00
    0.66188E+06        -0.97444E+08         0.00000E+00
    0.00000E+00         0.00000E+00        -0.49021E+08
 
   -0.48928E+08         0.69459E+06         0.00000E+00
    0.69459E+06        -0.97438E+08         0.00000E+00
    0.00000E+00         0.00000E+00        -0.48962E+08
 
   -0.48864E+08         0.72861E+06         0.00000E+00
    0.72861E+06        -0.97432E+08         0.00000E+00
    0.00000E+00         0.00000E+00        -0.48900E+08
 
   -0.48797E+08         0.76397E+06         0.00000E+00
    0.76397E+06        -0.97425E+08         0.00000E+00
    0.00000E+00         0.00000E+00        -0.48834E+08
 
   -0.48726E+08         0.80069E+06         0.00000E+00
    0.80069E+06        -0.97419E+08         0.00000E+00
    0.00000E+00         0.00000E+00        -0.48765E+08
 
   -0.48652E+08         0.83879E+06         0.00000E+00
    0.83879E+06        -0.97413E+08         0.00000E+00
    0.00000E+00         0.00000E+00        -0.48692E+08
 
   -0.48573E+08         0.87827E+06         0.00000E+00
    0.87827E+06        -0.97407E+08         0.00000E+00
    0.00000E+00         0.00000E+00        -0.48615E+08
 
   -0.48491E+08         0.91915E+06         0.00000E+00
    0.91915E+06        -0.97400E+08         0.00000E+00
    0.00000E+00         0.00000E+00        -0.48534E+08
 
   -0.48404E+08         0.96143E+06         0.00000E+00
    0.96143E+06        -0.97394E+08         0.00000E+00
    0.00000E+00         0.00000E+00        -0.48449E+08
 
   -0.48313E+08         0.10051E+07         0.00000E+00
    0.10051E+07        -0.97388E+08         0.00000E+00
    0.00000E+00         0.00000E+00        -0.48359E+08
 
   -0.48217E+08         0.10502E+07         0.00000E+00
    0.10502E+07        -0.97382E+08         0.00000E+00
    0.00000E+00         0.00000E+00        -0.48264E+08
 
   -0.48116E+08         0.10966E+07         0.00000E+00
    0.10966E+07        -0.97376E+08         0.00000E+00
    0.00000E+00         0.00000E+00        -0.48165E+08
 
   -0.48010E+08         0.11444E+07         0.00000E+00
    0.11444E+07        -0.97371E+08         0.00000E+00
    0.00000E+00         0.00000E+00        -0.48060E+08
 
   -0.47899E+08         0.11935E+07         0.00000E+00
    0.11935E+07        -0.97366E+08         0.00000E+00
    0.00000E+00         0.00000E+00        -0.47950E+08
 
   -0.47782E+08         0.12439E+07         0.00000E+00
    0.12439E+07        -0.97361E+08         0.00000E+00
    0.00000E+00         0.00000E+00        -0.47835E+08
 
   -0.47660E+08         0.12956E+07         0.00000E+00
    0.12956E+07        -0.97356E+08         0.00000E+00
    0.00000E+00         0.00000E+00        -0.47714E+08
 
   -0.47531E+08         0.13484E+07         0.00000E+00
    0.13484E+07        -0.97352E+08         0.00000E+00
    0.00000E+00         0.00000E+00        -0.47587E+08
 
   -0.47397E+08         0.14022E+07         0.00000E+00
    0.14022E+07        -0.97348E+08         0.00000E+00
    0.00000E+00         0.00000E+00        -0.47454E+08
 
   -0.47256E+08         0.14571E+07         0.00000E+00
    0.14571E+07        -0.97345E+08         0.00000E+00
    0.00000E+00         0.00000E+00        -0.47314E+08
 
   -0.47109E+08         0.15129E+07         0.00000E+00
    0.15129E+07        -0.97343E+08         0.00000E+00
    0.00000E+00         0.00000E+00        -0.47167E+08
 
   -0.46954E+08         0.15694E+07         0.00000E+00
    0.15694E+07        -0.97341E+08         0.00000E+00
    0.00000E+00         0.00000E+00        -0.47014E+08
 
   -0.46793E+08         0.16266E+07         0.00000E+00
    0.16266E+07        -0.97341E+08         0.00000E+00
    0.00000E+00         0.00000E+00        -0.46853E+08
 
   -0.46625E+08         0.16842E+07         0.00000E+00
    0.16842E+07        -0.97341E+08         0.00000E+00
    0.00000E+00         0.00000E+00        -0.46685E+08
 
   -0.46449E+08         0.17421E+07         0.00000E+00
    0.17421E+07        -0.97343E+08         0.00000E+00
    0.00000E+00         0.00000E+00        -0.46510E+08
 
   -0.46265E+08         0.18001E+07         0.00000E+00
    0.18001E+07        -0.97346E+08         0.00000E+00
    0.00000E+00         0.00000E+00        -0.46326E+08
 
   -0.46074E+08         0.18579E+07         0.00000E+00
    0.18579E+07        -0.97350E+08         0.00000E+00
    0.00000E+00         0.00000E+00        -0.46135E+08
 
   -0.45874E+08         0.19152E+07         0.00000E+00
    0.19152E+07        -0.97356E+08         0.00000E+00
    0.00000E+00         0.00000E+00        -0.45935E+08
 
   -0.45667E+08         0.19718E+07         0.00000E+00
    0.19718E+07        -0.97364E+08         0.00000E+00
    0.00000E+00         0.00000E+00        -0.45726E+08
 
   -0.45451E+08         0.20273E+07         0.00000E+00
    0.20273E+07        -0.97374E+08         0.00000E+00
    0.00000E+00         0.00000E+00        -0.45509E+08
 
   -0.45226E+08         0.20813E+07         0.00000E+00
    0.20813E+07        -0.97386E+08         0.00000E+00
    0.00000E+00         0.00000E+00        -0.45283E+08
 
   -0.44992E+08         0.21335E+07         0.00000E+00
    0.21335E+07        -0.97401E+08         0.00000E+00
    0.00000E+00         0.00000E+00        -0.45047E+08
 
   -0.44750E+08         0.21835E+07         0.00000E+00
    0.21835E+07        -0.97418E+08         0.00000E+00
    0.00000E+00         0.00000E+00        -0.44803E+08
 
   -0.44499E+08         0.22306E+07         0.00000E+00
    0.22306E+07        -0.97439E+08         0.00000E+00
    0.00000E+00         0.00000E+00        -0.44548E+08
 
   -0.44238E+08         0.22744E+07         0.00000E+00
    0.22744E+07        -0.97463E+08         0.00000E+00
    0.00000E+00         0.00000E+00        -0.44284E+08
 
   -0.43969E+08         0.23143E+07         0.00000E+00
    0.23143E+07        -0.97491E+08         0.00000E+00
    0.00000E+00         0.00000E+00        -0.44011E+08
 
   -0.43690E+08         0.23498E+07         0.00000E+00
    0.23498E+07        -0.97523E+08         0.00000E+00
    0.00000E+00         0.00000E+00        -0.43727E+08
 
   -0.43401E+08         0.23801E+07         0.00000E+00
    0.23801E+07        -0.97559E+08         0.00000E+00
    0.00000E+00         0.00000E+00        -0.43433E+08
 
   -0.43104E+08         0.24046E+07         0.00000E+00
    0.24046E+07        -0.97600E+08         0.00000E+00
    0.00000E+00         0.00000E+00        -0.43129E+08
 
   -0.42797E+08         0.24226E+07         0.00000E+00
    0.24226E+07        -0.97646E+08         0.00000E+00
    0.00000E+00         0.00000E+00        -0.42816E+08
 
   -0.42481E+08         0.24333E+07         0.00000E+00
    0.24333E+07        -0.97697E+08         0.00000E+00
    0.00000E+00         0.00000E+00        -0.42492E+08
 
   -0.42155E+08         0.24359E+07         0.00000E+00
    0.24359E+07        -0.97754E+08         0.00000E+00
    0.00000E+00         0.00000E+00        -0.42158E+08
 
   -0.41820E+08         0.24298E+07         0.00000E+00
    0.24298E+07        -0.97816E+08         0.00000E+00
    0.00000E+00         0.00000E+00        -0.41814E+08
 
   -0.41477E+08         0.24141E+07         0.00000E+00
    0.24141E+07        -0.97884E+08         0.00000E+00
    0.00000E+00         0.00000E+00        -0.41460E+08
 
   -0.41124E+08         0.23883E+07         0.00000E+00
    0.23883E+07        -0.97957E+08         0.00000E+00
    0.00000E+00         0.00000E+00        -0.41097E+08
 
   -0.40763E+08         0.23514E+07         0.00000E+00
    0.23514E+07        -0.98034E+08         0.00000E+00
    0.00000E+00         0.00000E+00        -0.40724E+08
 
   -0.40393E+08         0.23030E+07         0.00000E+00
    0.23030E+07        -0.98114E+08         0.00000E+00
    0.00000E+00         0.00000E+00        -0.40343E+08
 
   -0.40016E+08         0.22425E+07         0.00000E+00
    0.22425E+07        -0.98197E+08         0.00000E+00
    0.00000E+00         0.00000E+00        -0.39952E+08
 
   -0.39630E+08         0.21692E+07         0.00000E+00
    0.21692E+07        -0.98279E+08         0.00000E+00
    0.00000E+00         0.00000E+00        -0.39553E+08
 
   -0.39238E+08         0.20826E+07         0.00000E+00
    0.20826E+07        -0.98358E+08         0.00000E+00
    0.00000E+00         0.00000E+00        -0.39146E+08
 
   -0.38838E+08         0.19820E+07         0.00000E+00
    0.19820E+07        -0.98429E+08         0.00000E+00
    0.00000E+00         0.00000E+00        -0.38731E+08
 
   -0.38434E+08         0.18664E+07         0.00000E+00
    0.18664E+07        -0.98487E+08         0.00000E+00
    0.00000E+00         0.00000E+00        -0.38310E+08
 
   -0.38025E+08         0.17342E+07         0.00000E+00
    0.17342E+07        -0.98526E+08         0.00000E+00
    0.00000E+00         0.00000E+00        -0.37882E+08
 
   -0.37614E+08         0.15829E+07         0.00000E+00
    0.15829E+07        -0.98537E+08         0.00000E+00
    0.00000E+00         0.00000E+00        -0.37449E+08
 
   -0.37204E+08         0.14080E+07         0.00000E+00
    0.14080E+07        -0.98511E+08         0.00000E+00
    0.00000E+00         0.00000E+00        -0.37010E+08
 
   -0.36800E+08         0.12021E+07         0.00000E+00
    0.12021E+07        -0.98437E+08         0.00000E+00
    0.00000E+00         0.00000E+00        -0.36568E+08
 
   -0.36409E+08         0.95320E+06         0.00000E+00
    0.95320E+06        -0.98303E+08         0.00000E+00
    0.00000E+00         0.00000E+00        -0.36122E+08
 
   -0.36050E+08         0.63575E+06         0.00000E+00
    0.63575E+06        -0.98089E+08         0.00000E+00
    0.00000E+00         0.00000E+00        -0.35674E+08
 
   -0.35794E+08         0.22769E+06         0.00000E+00
    0.22769E+06        -0.97767E+08         0.00000E+00
    0.00000E+00         0.00000E+00        -0.35225E+08
 
   -0.49973E+08         0.66364E+04         0.00000E+00
    0.66364E+04        -0.97569E+08         0.00000E+00
    0.00000E+00         0.00000E+00        -0.49995E+08
 
   -0.49968E+08         0.19315E+05         0.00000E+00
    0.19315E+05        -0.97562E+08         0.00000E+00
    0.00000E+00         0.00000E+00        -0.49986E+08
 
   -0.49961E+08         0.30712E+05         0.00000E+00
    0.30712E+05        -0.97557E+08         0.00000E+00
    0.00000E+00         0.00000E+00        -0.49977E+08
 
   -0.49953E+08         0.41005E+05         0.00000E+00
    0.41005E+05        -0.97554E+08         0.00000E+00
    0.00000E+00         0.00000E+00        -0.49968E+08
 
   -0.49945E+08         0.50633E+05         0.00000E+00
    0.50633E+05        -0.97552E+08         0.00000E+00
    0.00000E+00         0.00000E+00        -0.49958E+08
 
   -0.49936E+08         0.59865E+05         0.00000E+00
    0.59865E+05        -0.97551E+08         0.00000E+00
    0.00000E+00         0.00000E+00        -0.49949E+08
 
   -0.49926E+08         0.68872E+05         0.00000E+00
    0.68872E+05        -0.97550E+08         0.00000E+00
    0.00000E+00         0.00000E+00        -0.49939E+08
 
   -0.49916E+08         0.77767E+05         0.00000E+00
    0.77767E+05        -0.97550E+08         0.00000E+00
    0.00000E+00         0.00000E+00        -0.49929E+08
 
   -0.49906E+08         0.86628E+05         0.00000E+00
    0.86628E+05        -0.97550E+08         0.00000E+00
    0.00000E+00         0.00000E+00        -0.49919E+08
 
   -0.49895E+08         0.95511E+05         0.00000E+00
    0.95511E+05        -0.97550E+08         0.00000E+00
    0.00000E+00         0.00000E+00        -0.49908E+08
 
   -0.49884E+08         0.10446E+06         0.00000E+00
    0.10446E+06        -0.97550E+08         0.00000E+00
    0.00000E+00         0.00000E+00        -0.49897E+08
 
   -0.49873E+08         0.11351E+06         0.00000E+00
    0.11351E+06        -0.97550E+08         0.00000E+00
    0.00000E+00         0.00000E+00        -0.49886E+08
 
   -0.49861E+08         0.12271E+06         0.00000E+00
    0.12271E+06        -0.97550E+08         0.00000E+00
    0.00000E+00         0.00000E+00        -0.49874E+08
 
   -0.49848E+08         0.13208E+06         0.00000E+00
    0.13208E+06        -0.97549E+08         0.00000E+00
    0.00000E+00         0.00000E+00        -0.49862E+08
 
   -0.49835E+08         0.14166E+06         0.00000E+00
    0.14166E+06        -0.97549E+08         0.00000E+00
    0.00000E+00         0.00000E+00        -0.49849E+08
 
   -0.49821E+08         0.15149E+06         0.00000E+00
    0.15149E+06        -0.97548E+08         0.00000E+00
    0.00000E+00         0.00000E+00        -0.49835E+08
 
   -0.49807E+08         0.16160E+06         0.00000E+00
    0.16160E+06        -0.97547E+08         0.00000E+00
    0.00000E+00         0.00000E+00        -0.49821E+08
 
   -0.49791E+08         0.17203E+06         0.00000E+00
    0.17203E+06        -0.97546E+08         0.00000E+00
    0.00000E+00         0.00000E+00        -0.49807E+08
 
   -0.49775E+08         0.18283E+06         0.00000E+00
    0.18283E+06        -0.97544E+08         0.00000E+00
    0.00000E+00         0.00000E+00        -0.49791E+08
 
   -0.49759E+08         0.19403E+06         0.00000E+00
    0.19403E+06        -0.97542E+08         0.00000E+00
    0.00000E+00         0.00000E+00        -0.49775E+08
 
   -0.49741E+08         0.20567E+06         0.00000E+00
    0.20567E+06        -0.97541E+08         0.00000E+00
    0.00000E+00         0.00000E+00        -0.49758E+08
 
   -0.49722E+08         0.21778E+06         0.00000E+00
    0.21778E+06        -0.97538E+08         0.00000E+00
    0.00000E+00         0.00000E+00        -0.49740E+08
 
   -0.49703E+08         0.23042E+06         0.00000E+00
    0.23042E+06        -0.97536E+08         0.00000E+00
    0.00000E+00         0.00000E+00        -0.49721E+08
 
   -0.49682E+08         0.24361E+06         0.00000E+00
    0.24361E+06        -0.97533E+08         0.00000E+00
    0.00000E+00         0.00000E+00        -0.49702E+08
 
   -0.49660E+08         0.25739E+06         0.00000E+00
    0.25739E+06        -0.97530E+08         0.00000E+00
    0.00000E+00         0.00000E+00        -0.49681E+08
 
   -0.49637E+08         0.27181E+06         0.00000E+00
    0.27181E+06        -0.97527E+08         0.00000E+00
    0.00000E+00         0.00000E+00        -0.49659E+08
 
   -0.49613E+08         0.28691E+06         0.00000E+00
    0.28691E+06        -0.97524E+08         0.00000E+00
    0.00000E+00         0.00000E+00        -0.49635E+08
 
   -0.49587E+08         0.30271E+06         0.00000E+00
    0.30271E+06        -0.97521E+08         0.00000E+00
    0.00000E+00         0.00000E+00        -0.49611E+08
 
   -0.49560E+08         0.31926E+06         0.00000E+00
    0.31926E+06        -0.97517E+08         0.00000E+00
    0.00000E+00         0.00000E+00        -0.49585E+08
 
   -0.49531E+08         0.33660E+06         0.00000E+00
    0.33660E+06        -0.97514E+08         0.00000E+00
    0.00000E+00         0.00000E+00        -0.49557E+08
 
   -0.49501E+08         0.35477E+06         0.00000E+00
    0.35477E+06        -0.97510E+08         0.00000E+00
    0.00000E+00         0.00000E+00        -0.49528E+08
 
   -0.49469E+08         0.37379E+06         0.00000E+00
    0.37379E+06        -0.97505E+08         0.00000E+00
    0.00000E+00         0.00000E+00        -0.49497E+08
 
   -0.49435E+08         0.39371E+06         0.00000E+00
    0.39371E+06        -0.97501E+08         0.00000E+00
    0.00000E+00         0.00000E+00        -0.49465E+08
 
   -0.49400E+08         0.41457E+06         0.00000E+00
    0.41457E+06        -0.97497E+08         0.00000E+00
    0.00000E+00         0.00000E+00        -0.49431E+08
 
   -0.49362E+08         0.43639E+06         0.00000E+00
    0.43639E+06        -0.97492E+08         0.00000E+00
    0.00000E+00         0.00000E+00        -0.49395E+08
 
   -0.49322E+08         0.45922E+06         0.00000E+00
    0.45922E+06        -0.97487E+08         0.00000E+00
    0.00000E+00         0.00000E+00        -0.49356E+08
 
   -0.49280E+08         0.48310E+06         0.00000E+00
    0.48310E+06        -0.97482E+08         0.00000E+00
    0.00000E+00         0.00000E+00        -0.49316E+08
 
   -0.49236E+08         0.50804E+06         0.00000E+00
    0.50804E+06        -0.97477E+08         0.00000E+00
    0.00000E+00         0.00000E+00        -0.49273E+08
 
   -0.49189E+08         0.53410E+06         0.00000E+00
    0.53410E+06        -0.97472E+08         0.00000E+00
    0.00000E+00         0.00000E+00        -0.49228E+08
 
   -0.49140E+08         0.56130E+06         0.00000E+00
    0.56130E+06        -0.97467E+08         0.00000E+00
    0.00000E+00         0.00000E+00        -0.49181E+08
 
   -0.49088E+08         0.58967E+06         0.00000E+00
    0.58967E+06        -0.97461E+08         0.00000E+00
    0.00000E+00         0.00000E+00        -0.49130E+08
 
   -0.49033E+08         0.61925E+06         0.00000E+00
    0.61925E+06        -0.97456E+08         0.00000E+00
    0.00000E+00         0.00000E+00        -0.49077E+08
 
   -0.48975E+08         0.65006E+06         0.00000E+00
    0.65006E+06        -0.97450E+08         0.00000E+00
    0.00000E+00         0.00000E+00        -0.49021E+08
 
   -0.48914E+08         0.68213E+06         0.00000E+00
    0.68213E+06        -0.97444E+08         0.00000E+00
    0.00000E+00         0.00000E+00        -0.48962E+08
 
   -0.48850E+08         0.71548E+06         0.00000E+00
    0.71548E+06        -0.97438E+08         0.00000E+00
    0.00000E+00         0.00000E+00        -0.48900E+08
 
   -0.48782E+08         0.75014E+06         0.00000E+00
    0.75014E+06        -0.97433E+08         0.00000E+00
    0.00000E+00         0.00000E+00        -0.48834E+08
 
   -0.48711E+08         0.78612E+06         0.00000E+00
    0.78612E+06        -0.97427E+08         0.00000E+00
    0.00000E+00         0.00000E+00        -0.48765E+08
 
   -0.48636E+08         0.82345E+06         0.00000E+00
    0.82345E+06        -0.97421E+08         0.00000E+00
    0.00000E+00         0.00000E+00        -0.48692E+08
 
   -0.48557E+08         0.86212E+06         0.00000E+00
    0.86212E+06        -0.97415E+08         0.00000E+00
    0.00000E+00         0.00000E+00        -0.48615E+08
 
   -0.48474E+08         0.90216E+06         0.00000E+00
    0.90216E+06        -0.97409E+08         0.00000E+00
    0.00000E+00         0.00000E+00        -0.48534E+08
 
   -0.48386E+08         0.94356E+06         0.00000E+00
    0.94356E+06        -0.97403E+08         0.00000E+00
    0.00000E+00         0.00000E+00        -0.48449E+08
 
   -0.48294E+08         0.98633E+06         0.00000E+00
    0.98633E+06        -0.97397E+08         0.00000E+00
    0.00000E+00         0.00000E+00        -0.48359E+08
 
   -0.48198E+08         0.10304E+07         0.00000E+00
    0.10304E+07        -0.97391E+08         0.00000E+00
    0.00000E+00         0.00000E+00        -0.48264E+08
 
   -0.48096E+08         0.10759E+07         0.00000E+00
    0.10759E+07        -0.97386E+08         0.00000E+00
    0.00000E+00         0.00000E+00        -0.48165E+08
 
   -0.47990E+08         0.11227E+07         0.00000E+00
    0.11227E+07        -0.97380E+08         0.00000E+00
    0.00000E+00         0.00000E+00        -0.48060E+08
 
   -0.47878E+08         0.11707E+07         0.00000E+00
    0.11707E+07        -0.97375E+08         0.00000E+00
    0.00000E+00         0.00000E+00        -0.47950E+08
 
   -0.47761E+08         0.12200E+07         0.00000E+00
    0.12200E+07        -0.97371E+08         0.00000E+00
    0.00000E+00         0.00000E+00        -0.47835E+08
 
   -0.47638E+08         0.12705E+07         0.00000E+00
    0.12705E+07        -0.97366E+08         0.00000E+00
    0.00000E+00         0.00000E+00        -0.47714E+08
 
   -0.47509E+08         0.13220E+07         0.00000E+00
    0.13220E+07        -0.97362E+08         0.00000E+00
    0.00000E+00         0.00000E+00        -0.47587E+08
 
   -0.47374E+08         0.13747E+07         0.00000E+00
    0.13747E+07        -0.97359E+08         0.00000E+00
    0.00000E+00         0.00000E+00        -0.47454E+08
 
   -0.47233E+08         0.14283E+07         0.00000E+00
    0.14283E+07        -0.97356E+08         0.00000E+00
    0.00000E+00         0.00000E+00        -0.47314E+08
 
   -0.47085E+08         0.14827E+07         0.00000E+00
    0.14827E+07        -0.97354E+08         0.00000E+00
    0.00000E+00         0.00000E+00        -0.47167E+08
 
   -0.46931E+08         0.15379E+07         0.00000E+00
    0.15379E+07        -0.97353E+08         0.00000E+00
    0.00000E+00         0.00000E+00        -0.47014E+08
 
   -0.46769E+08         0.15936E+07         0.00000E+00
    0.15936E+07        -0.97352E+08         0.00000E+00
    0.00000E+00         0.00000E+00        -0.46853E+08
 
   -0.46601E+08         0.16498E+07         0.00000E+00
    0.16498E+07        -0.97352E+08         0.00000E+00
    0.00000E+00         0.00000E+00        -0.46685E+08
 
   -0.46425E+08         0.17062E+07         0.00000E+00
    0.17062E+07        -0.97354E+08         0.00000E+00
    0.00000E+00         0.00000E+00        -0.46510E+08
 
   -0.46241E+08         0.17626E+07         0.00000E+00
    0.17626E+07        -0.97357E+08         0.00000E+00
    0.00000E+00         0.00000E+00        -0.46326E+08
 
   -0.46050E+08         0.18188E+07         0.00000E+00
    0.18188E+07        -0.97361E+08         0.00000E+00
    0.00000E+00         0.00000E+00        -0.46135E+08
 
   -0.45851E+08         0.18745E+07         0.00000E+00
    0.18745E+07        -0.97367E+08         0.00000E+00
    0.00000E+00         0.00000E+00        -0.45935E+08
 
   -0.45643E+08         0.19294E+07         0.00000E+00
    0.19294E+07        -0.97375E+08         0.00000E+00
    0.00000E+00         0.00000E+00        -0.45726E+08
 
   -0.45428E+08         0.19833E+07         0.00000E+00
    0.19833E+07        -0.97385E+08         0.00000E+00
    0.00000E+00         0.00000E+00        -0.45509E+08
 
   -0.45204E+08         0.20356E+07         0.00000E+00
    0.20356E+07        -0.97397E+08         0.00000E+00
    0.00000E+00         0.00000E+00        -0.45283E+08
 
   -0.44971E+08         0.20861E+07         0.00000E+00
    0.20861E+07        -0.97411E+08         0.00000E+00
    0.00000E+00         0.00000E+00        -0.45047E+08
 
   -0.44730E+08         0.21342E+07         0.00000E+00
    0.21342E+07        -0.97428E+08         0.00000E+00
    0.00000E+00         0.00000E+00        -0.44803E+08
 
   -0.44479E+08         0.21795E+07         0.00000E+00
    0.21795E+07        -0.97448E+08         0.00000E+00
    0.00000E+00         0.00000E+00        -0.44548E+08
 
   -0.44220E+08         0.22215E+07         0.00000E+00
    0.22215E+07        -0.97471E+08         0.00000E+00
    0.00000E+00         0.00000E+00        -0.44284E+08
 
   -0.43952E+08         0.22597E+07         0.00000E+00
    0.22597E+07        -0.97498E+08         0.00000E+00
    0.00000E+00         0.00000E+00        -0.44011E+08
 
   -0.43675E+08         0.22933E+07         0.00000E+00
    0.22933E+07        -0.97529E+08         0.00000E+00
    0.00000E+00         0.00000E+00        -0.43727E+08
 
   -0.43389E+08         0.23218E+07         0.00000E+00
    0.23218E+07        -0.97564E+08         0.00000E+00
    0.00000E+00         0.00000E+00        -0.43433E+08
 
   -0.43094E+08         0.23444E+07         0.00000E+00
    0.23444E+07        -0.97604E+08         0.00000E+00
    0.00000E+00         0.00000E+00        -0.43129E+08
 
   -0.42789E+08         0.23605E+07         0.00000E+00
    0.23605E+07        -0.97649E+08         0.00000E+00
    0.00000E+00         0.00000E+00        -0.42816E+08
 
   -0.42476E+08         0.23694E+07         0.00000E+00
    0.23694E+07        -0.97698E+08         0.00000E+00
    0.00000E+00         0.00000E+00        -0.42492E+08
 
   -0.42154E+08         0.23703E+07         0.00000E+00
    0.23703E+07        -0.97753E+08         0.00000E+00
    0.00000E+00         0.00000E+00        -0.42158E+08
 
   -0.41823E+08         0.23623E+07         0.00000E+00
    0.23623E+07        -0.97814E+08         0.00000E+00
    0.00000E+00         0.00000E+00        -0.41814E+08
 
   -0.41484E+08         0.23449E+07         0.00000E+00
    0.23449E+07        -0.97879E+08         0.00000E+00
    0.00000E+00         0.00000E+00        -0.41460E+08
 
   -0.41135E+08         0.23173E+07         0.00000E+00
    0.23173E+07        -0.97950E+08         0.00000E+00
    0.00000E+00         0.00000E+00        -0.41097E+08
 
   -0.40779E+08         0.22788E+07         0.00000E+00
    0.22788E+07        -0.98025E+08         0.00000E+00
    0.00000E+00         0.00000E+00        -0.40724E+08
 
   -0.40414E+08         0.22288E+07         0.00000E+00
    0.22288E+07        -0.98103E+08         0.00000E+00
    0.00000E+00         0.00000E+00        -0.40343E+08
 
   -0.40042E+08         0.21666E+07         0.00000E+00
    0.21666E+07        -0.98184E+08         0.00000E+00
    0.00000E+00         0.00000E+00        -0.39952E+08
 
   -0.39662E+08         0.20919E+07         0.00000E+00
    0.20919E+07        -0.98263E+08         0.00000E+00
    0.00000E+00         0.00000E+00        -0.39553E+08
 
   -0.39275E+08         0.20039E+07         0.00000E+00
    0.20039E+07        -0.98339E+08         0.00000E+00
    0.00000E+00         0.00000E+00        -0.39146E+08
 
   -0.38882E+08         0.19021E+07         0.00000E+00
    0.19021E+07        -0.98408E+08         0.00000E+00
    0.00000E+00         0.00000E+00        -0.38731E+08
 
   -0.38485E+08         0.17856E+07         0.00000E+00
    0.17856E+07        -0.98463E+08         0.00000E+00
    0.00000E+00         0.00000E+00        -0.38310E+08
 
   -0.38084E+08         0.16529E+07         0.00000E+00
    0.16529E+07        -0.98498E+08         0.00000E+00
    0.00000E+00         0.00000E+00        -0.37882E+08
 
   -0.37682E+08         0.15016E+07         0.00000E+00
    0.15016E+07        -0.98505E+08         0.00000E+00
    0.00000E+00         0.00000E+00        -0.37449E+08
 
   -0.37284E+08         0.13276E+07         0.00000E+00
    0.13276E+07        -0.98474E+08         0.00000E+00
    0.00000E+00         0.00000E+00        -0.37010E+08
 
   -0.36895E+08         0.11240E+07         0.00000E+00
    0.11240E+07        -0.98392E+08         0.00000E+00
    0.00000E+00         0.00000E+00        -0.36568E+08
 
   -0.36526E+08         0.87939E+06         0.00000E+00
    0.87939E+06        -0.98248E+08         0.00000E+00
    0.00000E+00         0.00000E+00        -0.36122E+08
 
   -0.36200E+08         0.57403E+06         0.00000E+00
    0.57403E+06        -0.98019E+08         0.00000E+00
    0.00000E+00         0.00000E+00        -0.35674E+08
 
   -0.35987E+08         0.20156E+06         0.00000E+00
    0.20156E+06        -0.97683E+08         0.00000E+00
    0.00000E+00         0.00000E+00        -0.35225E+08
 
   -0.49967E+08         0.61866E+04         0.00000E+00
    0.61866E+04        -0.97572E+08         0.00000E+00
    0.00000E+00         0.00000E+00        -0.49995E+08
 
   -0.49963E+08         0.18175E+05         0.00000E+00
    0.18175E+05        -0.97565E+08         0.00000E+00
    0.00000E+00         0.00000E+00        -0.49986E+08
 
   -0.49957E+08         0.29233E+05         0.00000E+00
    0.29233E+05        -0.97560E+08         0.00000E+00
    0.00000E+00         0.00000E+00        -0.49977E+08
 
   -0.49949E+08         0.39359E+05         0.00000E+00
    0.39359E+05        -0.97556E+08         0.00000E+00
    0.00000E+00         0.00000E+00        -0.49968E+08
 
   -0.49941E+08         0.48868E+05         0.00000E+00
    0.48868E+05        -0.97554E+08         0.00000E+00
    0.00000E+00         0.00000E+00        -0.49958E+08
 
   -0.49932E+08         0.58007E+05         0.00000E+00
    0.58007E+05        -0.97553E+08         0.00000E+00
    0.00000E+00         0.00000E+00        -0.49949E+08
 
   -0.49922E+08         0.66932E+05         0.00000E+00
    0.66932E+05        -0.97552E+08         0.00000E+00
    0.00000E+00         0.00000E+00        -0.49939E+08
 
   -0.49913E+08         0.75749E+05         0.00000E+00
    0.75749E+05        -0.97552E+08         0.00000E+00
    0.00000E+00         0.00000E+00        -0.49929E+08
 
   -0.49902E+08         0.84531E+05         0.00000E+00
    0.84531E+05        -0.97552E+08         0.00000E+00
    0.00000E+00         0.00000E+00        -0.49919E+08
 
   -0.49892E+08         0.93331E+05         0.00000E+00
    0.93331E+05        -0.97552E+08         0.00000E+00
    0.00000E+00         0.00000E+00        -0.49908E+08
 
   -0.49880E+08         0.10219E+06         0.00000E+00
    0.10219E+06        -0.97552E+08         0.00000E+00
    0.00000E+00         0.00000E+00        -0.49897E+08
 
   -0.49869E+08         0.11115E+06         0.00000E+00
    0.11115E+06        -0.97552E+08         0.00000E+00
    0.00000E+00         0.00000E+00        -0.49886E+08
 
   -0.49857E+08         0.12024E+06         0.00000E+00
    0.12024E+06        -0.97552E+08         0.00000E+00
    0.00000E+00         0.00000E+00        -0.49874E+08
 
   -0.49844E+08         0.12950E+06         0.00000E+00
    0.12950E+06        -0.97551E+08         0.00000E+00
    0.00000E+00         0.00000E+00        -0.49862E+08
 
   -0.49831E+08         0.13896E+06         0.00000E+00
    0.13896E+06        -0.97551E+08         0.00000E+00
    0.00000E+00         0.00000E+00        -0.49849E+08
 
   -0.49817E+08         0.14865E+06         0.00000E+00
    0.14865E+06        -0.97550E+08         0.00000E+00
    0.00000E+00         0.00000E+00        -0.49835E+08
 
   -0.49802E+08         0.15862E+06         0.00000E+00
    0.15862E+06        -0.97549E+08         0.00000E+00
    0.00000E+00         0.00000E+00        -0.49821E+08
 
   -0.49787E+08         0.16891E+06         0.00000E+00
    0.16891E+06        -0.97548E+08         0.00000E+00
    0.00000E+00         0.00000E+00        -0.49807E+08
 
   -0.49771E+08         0.17954E+06         0.00000E+00
    0.17954E+06        -0.97546E+08         0.00000E+00
    0.00000E+00         0.00000E+00        -0.49791E+08
 
   -0.49754E+08         0.19057E+06         0.00000E+00
    0.19057E+06        -0.97545E+08         0.00000E+00
    0.00000E+00         0.00000E+00        -0.49775E+08
 
   -0.49736E+08         0.20202E+06         0.00000E+00
    0.20202E+06        -0.97543E+08         0.00000E+00
    0.00000E+00         0.00000E+00        -0.49758E+08
 
   -0.49717E+08         0.21394E+06         0.00000E+00
    0.21394E+06        -0.97541E+08         0.00000E+00
    0.00000E+00         0.00000E+00        -0.49740E+08
 
   -0.49697E+08         0.22636E+06         0.00000E+00
    0.22636E+06        -0.97538E+08         0.00000E+00
    0.00000E+00         0.00000E+00        -0.49721E+08
 
   -0.49676E+08         0.23933E+06         0.00000E+00
    0.23933E+06        -0.97536E+08         0.00000E+00
    0.00000E+00         0.00000E+00        -0.49702E+08
 
   -0.49654E+08         0.25288E+06         0.00000E+00
    0.25288E+06        -0.97533E+08         0.00000E+00
    0.00000E+00         0.00000E+00        -0.49681E+08
 
   -0.49631E+08         0.26705E+06         0.00000E+00
    0.26705E+06        -0.97530E+08         0.00000E+00
    0.00000E+00         0.00000E+00        -0.49659E+08
 
   -0.49606E+08         0.28188E+06         0.00000E+00
    0.28188E+06        -0.97527E+08         0.00000E+00
    0.00000E+00         0.00000E+00        -0.49635E+08
 
   -0.49580E+08         0.29740E+06         0.00000E+00
    0.29740E+06        -0.97524E+08         0.00000E+00
    0.00000E+00         0.00000E+00        -0.49611E+08
 
   -0.49553E+08         0.31365E+06         0.00000E+00
    0.31365E+06        -0.97521E+08         0.00000E+00
    0.00000E+00         0.00000E+00        -0.49585E+08
 
   -0.49524E+08         0.33068E+06         0.00000E+00
    0.33068E+06        -0.97517E+08         0.00000E+00
    0.00000E+00         0.00000E+00        -0.49557E+08
 
   -0.49493E+08         0.34851E+06         0.00000E+00
    0.34851E+06        -0.97513E+08         0.00000E+00
    0.00000E+00         0.00000E+00        -0.49528E+08
 
   -0.49461E+08         0.36718E+06         0.00000E+00
    0.36718E+06        -0.97509E+08         0.00000E+00
    0.00000E+00         0.00000E+00        -0.49497E+08
 
   -0.49427E+08         0.38674E+06         0.00000E+00
    0.38674E+06        -0.97505E+08         0.00000E+00
    0.00000E+00         0.00000E+00        -0.49465E+08
 
   -0.49391E+08         0.40720E+06         0.00000E+00
    0.40720E+06        -0.97501E+08         0.00000E+00
    0.00000E+00         0.00000E+00        -0.49431E+08
 
   -0.49353E+08         0.42862E+06         0.00000E+00
    0.42862E+06        -0.97497E+08         0.00000E+00
    0.00000E+00         0.00000E+00        -0.49395E+08
 
   -0.49313E+08         0.45101E+06         0.00000E+00
    0.45101E+06        -0.97492E+08         0.00000E+00
    0.00000E+00         0.00000E+00        -0.49356E+08
 
   -0.49270E+08         0.47443E+06         0.00000E+00
    0.47443E+06        -0.97487E+08         0.00000E+00
    0.00000E+00         0.00000E+00        -0.49316E+08
 
   -0.49225E+08         0.49890E+06         0.00000E+00
    0.49890E+06        -0.97482E+08         0.00000E+00
    0.00000E+00         0.00000E+00        -0.49273E+08
 
   -0.49178E+08         0.52445E+06         0.00000E+00
    0.52445E+06        -0.97477E+08         0.00000E+00
    0.00000E+00         0.00000E+00        -0.49228E+08
 
   -0.49128E+08         0.55112E+06         0.00000E+00
    0.55112E+06        -0.97472E+08         0.00000E+00
    0.00000E+00         0.00000E+00        -0.49181E+08
 
   -0.49076E+08         0.57894E+06         0.00000E+00
    0.57894E+06        -0.97467E+08         0.00000E+00
    0.00000E+00         0.00000E+00        -0.49130E+08
 
   -0.49021E+08         0.60793E+06         0.00000E+00
    0.60793E+06        -0.97462E+08         0.00000E+00
    0.00000E+00         0.00000E+00        -0.49077E+08
 
   -0.48962E+08         0.63813E+06         0.00000E+00
    0.63813E+06        -0.97456E+08         0.00000E+00
    0.00000E+00         0.00000E+00        -0.49021E+08
 
   -0.48901E+08         0.66956E+06         0.00000E+00
    0.66956E+06        -0.97451E+08         0.00000E+00
    0.00000E+00         0.00000E+00        -0.48962E+08
 
   -0.48836E+08         0.70224E+06         0.00000E+00
    0.70224E+06        -0.97445E+08         0.00000E+00
    0.00000E+00         0.00000E+00        -0.48900E+08
 
   -0.48768E+08         0.73619E+06         0.00000E+00
    0.73619E+06        -0.97440E+08         0.00000E+00
    0.00000E+00         0.00000E+00        -0.48834E+08
 
   -0.48696E+08         0.77144E+06         0.00000E+00
    0.77144E+06        -0.97434E+08         0.00000E+00
    0.00000E+00         0.00000E+00        -0.48765E+08
 
   -0.48620E+08         0.80799E+06         0.00000E+00
    0.80799E+06        -0.97428E+08         0.00000E+00
    0.00000E+00         0.00000E+00        -0.48692E+08
 
   -0.48541E+08         0.84586E+06         0.00000E+00
    0.84586E+06        -0.97422E+08         0.00000E+00
    0.00000E+00         0.00000E+00        -0.48615E+08
 
   -0.48457E+08         0.88506E+06         0.00000E+00
    0.88506E+06        -0.97417E+08         0.00000E+00
    0.00000E+00         0.00000E+00        -0.48534E+08
 
   -0.48369E+08         0.92559E+06         0.00000E+00
    0.92559E+06        -0.97411E+08         0.00000E+00
    0.00000E+00         0.00000E+00        -0.48449E+08
 
   -0.48276E+08         0.96743E+06         0.00000E+00
    0.96743E+06        -0.97406E+08         0.00000E+00
    0.00000E+00         0.00000E+00        -0.48359E+08
 
   -0.48179E+08         0.10106E+07         0.00000E+00
    0.10106E+07        -0.97400E+08         0.00000E+00
    0.00000E+00         0.00000E+00        -0.48264E+08
 
   -0.48077E+08         0.10551E+07         0.00000E+00
    0.10551E+07        -0.97395E+08         0.00000E+00
    0.00000E+00         0.00000E+00        -0.48165E+08
 
   -0.47970E+08         0.11008E+07         0.00000E+00
    0.11008E+07        -0.97390E+08         0.00000E+00
    0.00000E+00         0.00000E+00        -0.48060E+08
 
   -0.47858E+08         0.11478E+07         0.00000E+00
    0.11478E+07        -0.97385E+08         0.00000E+00
    0.00000E+00         0.00000E+00        -0.47950E+08
 
   -0.47740E+08         0.11959E+07         0.00000E+00
    0.11959E+07        -0.97381E+08         0.00000E+00
    0.00000E+00         0.00000E+00        -0.47835E+08
 
   -0.47617E+08         0.12452E+07         0.00000E+00
    0.12452E+07        -0.97376E+08         0.00000E+00
    0.00000E+00         0.00000E+00        -0.47714E+08
 
   -0.47488E+08         0.12956E+07         0.00000E+00
    0.12956E+07        -0.97373E+08         0.00000E+00
    0.00000E+00         0.00000E+00        -0.47587E+08
 
   -0.47352E+08         0.13470E+07         0.00000E+00
    0.13470E+07        -0.97369E+08         0.00000E+00
    0.00000E+00         0.00000E+00        -0.47454E+08
 
   -0.47211E+08         0.13994E+07         0.00000E+00
    0.13994E+07        -0.97367E+08         0.00000E+00
    0.00000E+00         0.00000E+00        -0.47314E+08
 
   -0.47062E+08         0.14525E+07         0.00000E+00
    0.14525E+07        -0.97365E+08         0.00000E+00
    0.00000E+00         0.00000E+00        -0.47167E+08
 
   -0.46908E+08         0.15063E+07         0.00000E+00
    0.15063E+07        -0.97363E+08         0.00000E+00
    0.00000E+00         0.00000E+00        -0.47014E+08
 
   -0.46746E+08         0.15606E+07         0.00000E+00
    0.15606E+07        -0.97363E+08         0.00000E+00
    0.00000E+00         0.00000E+00        -0.46853E+08
 
   -0.46577E+08         0.16153E+07         0.00000E+00
    0.16153E+07        -0.97364E+08         0.00000E+00
    0.00000E+00         0.00000E+00        -0.46685E+08
 
   -0.46401E+08         0.16702E+07         0.00000E+00
    0.16702E+07        -0.97365E+08         0.00000E+00
    0.00000E+00         0.00000E+00        -0.46510E+08
 
   -0.46218E+08         0.17251E+07         0.00000E+00
    0.17251E+07        -0.97368E+08         0.00000E+00
    0.00000E+00         0.00000E+00        -0.46326E+08
 
   -0.46026E+08         0.17798E+07         0.00000E+00
    0.17798E+07        -0.97372E+08         0.00000E+00
    0.00000E+00         0.00000E+00        -0.46135E+08
 
   -0.45827E+08         0.18339E+07         0.00000E+00
    0.18339E+07        -0.97378E+08         0.00000E+00
    0.00000E+00         0.00000E+00        -0.45935E+08
 
   -0.45620E+08         0.18872E+07         0.00000E+00
    0.18872E+07        -0.97386E+08         0.00000E+00
    0.00000E+00         0.00000E+00        -0.45726E+08
 
   -0.45405E+08         0.19393E+07         0.00000E+00
    0.19393E+07        -0.97395E+08         0.00000E+00
    0.00000E+00         0.00000E+00        -0.45509E+08
 
   -0.45181E+08         0.19900E+07         0.00000E+00
    0.19900E+07        -0.97407E+08         0.00000E+00
    0.00000E+00         0.00000E+00        -0.45283E+08
 
   -0.44950E+08         0.20387E+07         0.00000E+00
    0.20387E+07        -0.97421E+08         0.00000E+00
    0.00000E+00         0.00000E+00        -0.45047E+08
 
   -0.44709E+08         0.20851E+07         0.00000E+00
    0.20851E+07        -0.97437E+08         0.00000E+00
    0.00000E+00         0.00000E+00        -0.44803E+08
 
   -0.44460E+08         0.21287E+07         0.00000E+00
    0.21287E+07        -0.97457E+08         0.00000E+00
    0.00000E+00         0.00000E+00        -0.44548E+08
 
   -0.44202E+08         0.21690E+07         0.00000E+00
    0.21690E+07        -0.97479E+08         0.00000E+00
    0.00000E+00         0.00000E+00        -0.44284E+08
 
   -0.43936E+08         0.22053E+07         0.00000E+00
    0.22053E+07        -0.97505E+08         0.00000E+00
    0.00000E+00         0.00000E+00        -0.44011E+08
 
   -0.43661E+08         0.22372E+07         0.00000E+00
    0.22372E+07        -0.97535E+08         0.00000E+00
    0.00000E+00         0.00000E+00        -0.43727E+08
 
   -0.43377E+08         0.22639E+07         0.00000E+00
    0.22639E+07        -0.97569E+08         0.00000E+00
    0.00000E+00         0.00000E+00        -0.43433E+08
 
   -0.43084E+08         0.22847E+07         0.00000E+00
    0.22847E+07        -0.97608E+08         0.00000E+00
    0.00000E+00         0.00000E+00        -0.43129E+08
 
   -0.42782E+08         0.22991E+07         0.00000E+00
    0.22991E+07        -0.97651E+08         0.00000E+00
    0.00000E+00         0.00000E+00        -0.42816E+08
 
   -0.42472E+08         0.23062E+07         0.00000E+00
    0.23062E+07        -0.97699E+08         0.00000E+00
    0.00000E+00         0.00000E+00        -0.42492E+08
 
   -0.42153E+08         0.23053E+07         0.00000E+00
    0.23053E+07        -0.97753E+08         0.00000E+00
    0.00000E+00         0.00000E+00        -0.42158E+08
 
   -0.41826E+08         0.22957E+07         0.00000E+00
    0.22957E+07        -0.97811E+08         0.00000E+00
    0.00000E+00         0.00000E+00        -0.41814E+08
 
   -0.41491E+08         0.22766E+07         0.00000E+00
    0.22766E+07        -0.97875E+08         0.00000E+00
    0.00000E+00         0.00000E+00        -0.41460E+08
 
   -0.41147E+08         0.22473E+07         0.00000E+00
    0.22473E+07        -0.97943E+08         0.00000E+00
    0.00000E+00         0.00000E+00        -0.41097E+08
 
   -0.40795E+08         0.22071E+07         0.00000E+00
    0.22071E+07        -0.98016E+08         0.00000E+00
    0.00000E+00         0.00000E+00        -0.40724E+08
 
   -0.40435E+08         0.21555E+07         0.00000E+00
    0.21555E+07        -0.98092E+08         0.00000E+00
    0.00000E+00         0.00000E+00        -0.40343E+08
 
   -0.40068E+08         0.20919E+07         0.00000E+00
    0.20919E+07        -0.98170E+08         0.00000E+00
    0.00000E+00         0.00000E+00        -0.39952E+08
 
   -0.39694E+08         0.20157E+07         0.00000E+00
    0.20157E+07        -0.98247E+08         0.00000E+00
    0.00000E+00         0.00000E+00        -0.39553E+08
 
   -0.39313E+08         0.19265E+07         0.00000E+00
    0.19265E+07        -0.98320E+08         0.00000E+00
    0.00000E+00         0.00000E+00        -0.39146E+08
 
   -0.38927E+08         0.18237E+07         0.00000E+00
    0.18237E+07        -0.98386E+08         0.00000E+00
    0.00000E+00         0.00000E+00        -0.38731E+08
 
   -0.38536E+08         0.17064E+07         0.00000E+00
    0.17064E+07        -0.98438E+08         0.00000E+00
    0.00000E+00         0.00000E+00        -0.38310E+08
 
   -0.38144E+08         0.15734E+07         0.00000E+00
    0.15734E+07        -0.98470E+08         0.00000E+00
    0.00000E+00         0.00000E+00        -0.37882E+08
 
   -0.37752E+08         0.14224E+07         0.00000E+00
    0.14224E+07        -0.98473E+08         0.00000E+00
    0.00000E+00         0.00000E+00        -0.37449E+08
 
   -0.37365E+08         0.12498E+07         0.00000E+00
    0.12498E+07        -0.98436E+08         0.00000E+00
    0.00000E+00         0.00000E+00        -0.37010E+08
 
   -0.36992E+08         0.10494E+07         0.00000E+00
    0.10494E+07        -0.98349E+08         0.00000E+00
    0.00000E+00         0.00000E+00        -0.36568E+08
 
   -0.36643E+08         0.81073E+06         0.00000E+00
    0.81073E+06        -0.98195E+08         0.00000E+00
    0.00000E+00         0.00000E+00        -0.36122E+08
 
   -0.36347E+08         0.52023E+06         0.00000E+00
    0.52023E+06        -0.97953E+08         0.00000E+00
    0.00000E+00         0.00000E+00        -0.35674E+08
 
   -0.36165E+08         0.18014E+06         0.00000E+00
    0.18014E+06        -0.97607E+08         0.00000E+00
    0.00000E+00         0.00000E+00        -0.35225E+08
 
   -0.49962E+08         0.58019E+04         0.00000E+00
    0.58019E+04        -0.97574E+08         0.00000E+00
    0.00000E+00         0.00000E+00        -0.49995E+08
 
   -0.49958E+08         0.17157E+05         0.00000E+00
    0.17157E+05        -0.97567E+08         0.00000E+00
    0.00000E+00         0.00000E+00        -0.49986E+08
 
   -0.49953E+08         0.27843E+05         0.00000E+00
    0.27843E+05        -0.97562E+08         0.00000E+00
    0.00000E+00         0.00000E+00        -0.49977E+08
 
   -0.49945E+08         0.37767E+05         0.00000E+00
    0.37767E+05        -0.97558E+08         0.00000E+00
    0.00000E+00         0.00000E+00        -0.49968E+08
 
   -0.49937E+08         0.47139E+05         0.00000E+00
    0.47139E+05        -0.97556E+08         0.00000E+00
    0.00000E+00         0.00000E+00        -0.49958E+08
 
   -0.49928E+08         0.56171E+05         0.00000E+00
    0.56171E+05        -0.97554E+08         0.00000E+00
    0.00000E+00         0.00000E+00        -0.49949E+08
 
   -0.49919E+08         0.65005E+05         0.00000E+00
    0.65005E+05        -0.97554E+08         0.00000E+00
    0.00000E+00         0.00000E+00        -0.49939E+08
 
   -0.49909E+08         0.73737E+05         0.00000E+00
    0.73737E+05        -0.97553E+08         0.00000E+00
    0.00000E+00         0.00000E+00        -0.49929E+08
 
   -0.49899E+08         0.82436E+05         0.00000E+00
    0.82436E+05        -0.97553E+08         0.00000E+00
    0.00000E+00         0.00000E+00        -0.49919E+08
 
   -0.49888E+08         0.91149E+05         0.00000E+00
    0.91149E+05        -0.97553E+08         0.00000E+00
    0.00000E+00         0.00000E+00        -0.49908E+08
 
   -0.49877E+08         0.99917E+05         0.00000E+00
    0.99917E+05        -0.97553E+08         0.00000E+00
    0.00000E+00         0.00000E+00        -0.49897E+08
 
   -0.49865E+08         0.10878E+06         0.00000E+00
    0.10878E+06        -0.97553E+08         0.00000E+00
    0.00000E+00         0.00000E+00        -0.49886E+08
 
   -0.49853E+08         0.11776E+06         0.00000E+00
    0.11776E+06        -0.97553E+08         0.00000E+00
    0.00000E+00         0.00000E+00        -0.49874E+08
 
   -0.49840E+08         0.12690E+06         0.00000E+00
    0.12690E+06        -0.97553E+08         0.00000E+00
    0.00000E+00         0.00000E+00        -0.49862E+08
 
   -0.49827E+08         0.13623E+06         0.00000E+00
    0.13623E+06        -0.97553E+08         0.00000E+00
    0.00000E+00         0.00000E+00        -0.49849E+08
 
   -0.49813E+08         0.14580E+06         0.00000E+00
    0.14580E+06        -0.97552E+08         0.00000E+00
    0.00000E+00         0.00000E+00        -0.49835E+08
 
   -0.49798E+08         0.15562E+06         0.00000E+00
    0.15562E+06        -0.97551E+08         0.00000E+00
    0.00000E+00         0.00000E+00        -0.49821E+08
 
   -0.49783E+08         0.16575E+06         0.00000E+00
    0.16575E+06        -0.97550E+08         0.00000E+00
    0.00000E+00         0.00000E+00        -0.49807E+08
 
   -0.49767E+08         0.17622E+06         0.00000E+00
    0.17622E+06        -0.97549E+08         0.00000E+00
    0.00000E+00         0.00000E+00        -0.49791E+08
 
   -0.49749E+08         0.18707E+06         0.00000E+00
    0.18707E+06        -0.97547E+08         0.00000E+00
    0.00000E+00         0.00000E+00        -0.49775E+08
 
   -0.49731E+08         0.19833E+06         0.00000E+00
    0.19833E+06        -0.97545E+08         0.00000E+00
    0.00000E+00         0.00000E+00        -0.49758E+08
 
   -0.49712E+08         0.21005E+06         0.00000E+00
    0.21005E+06        -0.97543E+08         0.00000E+00
    0.00000E+00         0.00000E+00        -0.49740E+08
 
   -0.49692E+08         0.22226E+06         0.00000E+00
    0.22226E+06        -0.97541E+08         0.00000E+00
    0.00000E+00         0.00000E+00        -0.49721E+08
 
   -0.49671E+08         0.23500E+06         0.00000E+00
    0.23500E+06        -0.97539E+08         0.00000E+00
    0.00000E+00         0.00000E+00        -0.49702E+08
 
   -0.49649E+08         0.24831E+06         0.00000E+00
    0.24831E+06        -0.97536E+08         0.00000E+00
    0.00000E+00         0.00000E+00        -0.49681E+08
 
   -0.49625E+08         0.26223E+06         0.00000E+00
    0.26223E+06        -0.97533E+08         0.00000E+00
    0.00000E+00         0.00000E+00        -0.49659E+08
 
   -0.49600E+08         0.27679E+06         0.00000E+00
    0.27679E+06        -0.97530E+08         0.00000E+00
    0.00000E+00         0.00000E+00        -0.49635E+08
 
   -0.49574E+08         0.29203E+06         0.00000E+00
    0.29203E+06        -0.97527E+08         0.00000E+00
    0.00000E+00         0.00000E+00        -0.49611E+08
 
   -0.49546E+08         0.30798E+06         0.00000E+00
    0.30798E+06        -0.97524E+08         0.00000E+00
    0.00000E+00         0.00000E+00        -0.49585E+08
 
   -0.49517E+08         0.32469E+06         0.00000E+00
    0.32469E+06        -0.97520E+08         0.00000E+00
    0.00000E+00         0.00000E+00        -0.49557E+08
 
   -0.49486E+08         0.34218E+06         0.00000E+00
    0.34218E+06        -0.97517E+08         0.00000E+00
    0.00000E+00         0.00000E+00        -0.49528E+08
 
   -0.49453E+08         0.36050E+06         0.00000E+00
    0.36050E+06        -0.97513E+08         0.00000E+00
    0.00000E+00         0.00000E+00        -0.49497E+08
 
   -0.49419E+08         0.37968E+06         0.00000E+00
    0.37968E+06        -0.97509E+08         0.00000E+00
    0.00000E+00         0.00000E+00        -0.49465E+08
 
   -0.49382E+08         0.39976E+06         0.00000E+00
    0.39976E+06        -0.97505E+08         0.00000E+00
    0.00000E+00         0.00000E+00        -0.49431E+08
 
   -0.49344E+08         0.42076E+06         0.00000E+00
    0.42076E+06        -0.97501E+08         0.00000E+00
    0.00000E+00         0.00000E+00        -0.49395E+08
 
   -0.49303E+08         0.44272E+06         0.00000E+00
    0.44272E+06        -0.97497E+08         0.00000E+00
    0.00000E+00         0.00000E+00        -0.49356E+08
 
   -0.49260E+08         0.46568E+06         0.00000E+00
    0.46568E+06        -0.97492E+08         0.00000E+00
    0.00000E+00         0.00000E+00        -0.49316E+08
 
   -0.49215E+08         0.48967E+06         0.00000E+00
    0.48967E+06        -0.97487E+08         0.00000E+00
    0.00000E+00         0.00000E+00        -0.49273E+08
 
   -0.49167E+08         0.51471E+06         0.00000E+00
    0.51471E+06        -0.97483E+08         0.00000E+00
    0.00000E+00         0.00000E+00        -0.49228E+08
 
   -0.49117E+08         0.54085E+06         0.00000E+00
    0.54085E+06        -0.97478E+08         0.00000E+00
    0.00000E+00         0.00000E+00        -0.49181E+08
 
   -0.49064E+08         0.56811E+06         0.00000E+00
    0.56811E+06        -0.97473E+08         0.00000E+00
    0.00000E+00         0.00000E+00        -0.49130E+08
 
   -0.49008E+08         0.59651E+06         0.00000E+00
    0.59651E+06        -0.97468E+08         0.00000E+00
    0.00000E+00         0.00000E+00        -0.49077E+08
 
   -0.48949E+08         0.62610E+06         0.00000E+00
    0.62610E+06        -0.97462E+08         0.00000E+00
    0.00000E+00         0.00000E+00        -0.49021E+08
 
   -0.48887E+08         0.65688E+06         0.00000E+00
    0.65688E+06        -0.97457E+08         0.00000E+00
    0.00000E+00         0.00000E+00        -0.48962E+08
 
   -0.48822E+08         0.68888E+06         0.00000E+00
    0.68888E+06        -0.97452E+08         0.00000E+00
    0.00000E+00         0.00000E+00        -0.48900E+08
 
   -0.48753E+08         0.72213E+06         0.00000E+00
    0.72213E+06        -0.97446E+08         0.00000E+00
    0.00000E+00         0.00000E+00        -0.48834E+08
 
   -0.48681E+08         0.75664E+06         0.00000E+00
    0.75664E+06        -0.97441E+08         0.00000E+00
    0.00000E+00         0.00000E+00        -0.48765E+08
 
   -0.48605E+08         0.79242E+06         0.00000E+00
    0.79242E+06        -0.97436E+08         0.00000E+00
    0.00000E+00         0.00000E+00        -0.48692E+08
 
   -0.48525E+08         0.82949E+06         0.00000E+00
    0.82949E+06        -0.97430E+08         0.00000E+00
    0.00000E+00         0.00000E+00        -0.48615E+08
 
   -0.48440E+08         0.86785E+06         0.00000E+00
    0.86785E+06        -0.97425E+08         0.00000E+00
    0.00000E+00         0.00000E+00        -0.48534E+08
 
   -0.48352E+08         0.90749E+06         0.00000E+00
    0.90749E+06        -0.97419E+08         0.00000E+00
    0.00000E+00         0.00000E+00        -0.48449E+08
 
   -0.48259E+08         0.94843E+06         0.00000E+00
    0.94843E+06        -0.97414E+08         0.00000E+00
    0.00000E+00         0.00000E+00        -0.48359E+08
 
   -0.48161E+08         0.99064E+06         0.00000E+00
    0.99064E+06        -0.97409E+08         0.00000E+00
    0.00000E+00         0.00000E+00        -0.48264E+08
 
   -0.48058E+08         0.10341E+07         0.00000E+00
    0.10341E+07        -0.97404E+08         0.00000E+00
    0.00000E+00         0.00000E+00        -0.48165E+08
 
   -0.47951E+08         0.10788E+07         0.00000E+00
    0.10788E+07        -0.97399E+08         0.00000E+00
    0.00000E+00         0.00000E+00        -0.48060E+08
 
   -0.47838E+08         0.11247E+07         0.00000E+00
    0.11247E+07        -0.97394E+08         0.00000E+00
    0.00000E+00         0.00000E+00        -0.47950E+08
 
   -0.47720E+08         0.11718E+07         0.00000E+00
    0.11718E+07        -0.97390E+08         0.00000E+00
    0.00000E+00         0.00000E+00        -0.47835E+08
 
   -0.47596E+08         0.12199E+07         0.00000E+00
    0.12199E+07        -0.97386E+08         0.00000E+00
    0.00000E+00         0.00000E+00        -0.47714E+08
 
   -0.47466E+08         0.12691E+07         0.00000E+00
    0.12691E+07        -0.97383E+08         0.00000E+00
    0.00000E+00         0.00000E+00        -0.47587E+08
 
   -0.47330E+08         0.13193E+07         0.00000E+00
    0.13193E+07        -0.97380E+08         0.00000E+00
    0.00000E+00         0.00000E+00        -0.47454E+08
 
   -0.47188E+08         0.13704E+07         0.00000E+00
    0.13704E+07        -0.97377E+08         0.00000E+00
    0.00000E+00         0.00000E+00        -0.47314E+08
 
   -0.47040E+08         0.14222E+07         0.00000E+00
    0.14222E+07        -0.97375E+08         0.00000E+00
    0.00000E+00         0.00000E+00        -0.47167E+08
 
   -0.46885E+08         0.14746E+07         0.00000E+00
    0.14746E+07        -0.97374E+08         0.00000E+00
    0.00000E+00         0.00000E+00        -0.47014E+08
 
   -0.46723E+08         0.15276E+07         0.00000E+00
    0.15276E+07        -0.97374E+08         0.00000E+00
    0.00000E+00         0.00000E+00        -0.46853E+08
 
   -0.46554E+08         0.15808E+07         0.00000E+00
    0.15808E+07        -0.97374E+08         0.00000E+00
    0.00000E+00         0.00000E+00        -0.46685E+08
 
   -0.46378E+08         0.16343E+07         0.00000E+00
    0.16343E+07        -0.97376E+08         0.00000E+00
    0.00000E+00         0.00000E+00        -0.46510E+08
 
   -0.46194E+08         0.16877E+07         0.00000E+00
    0.16877E+07        -0.97379E+08         0.00000E+00
    0.00000E+00         0.00000E+00        -0.46326E+08
 
   -0.46003E+08         0.17408E+07         0.00000E+00
    0.17408E+07        -0.97383E+08         0.00000E+00
    0.00000E+00         0.00000E+00        -0.46135E+08
 
   -0.45804E+08         0.17933E+07         0.00000E+00
    0.17933E+07        -0.97389E+08         0.00000E+00
    0.00000E+00         0.00000E+00        -0.45935E+08
 
   -0.45597E+08         0.18450E+07         0.00000E+00
    0.18450E+07        -0.97396E+08         0.00000E+00
    0.00000E+00         0.00000E+00        -0.45726E+08
 
   -0.45382E+08         0.18955E+07         0.00000E+00
    0.18955E+07        -0.97405E+08         0.00000E+00
    0.00000E+00         0.00000E+00        -0.45509E+08
 
   -0.45160E+08         0.19445E+07         0.00000E+00
    0.19445E+07        -0.97416E+08         0.00000E+00
    0.00000E+00         0.00000E+00        -0.45283E+08
 
   -0.44928E+08         0.19916E+07         0.00000E+00
    0.19916E+07        -0.97430E+08         0.00000E+00
    0.00000E+00         0.00000E+00        -0.45047E+08
 
   -0.44689E+08         0.20363E+07         0.00000E+00
    0.20363E+07        -0.97446E+08         0.00000E+00
    0.00000E+00         0.00000E+00        -0.44803E+08
 
   -0.44441E+08         0.20782E+07         0.00000E+00
    0.20782E+07        -0.97465E+08         0.00000E+00
    0.00000E+00         0.00000E+00        -0.44548E+08
 
   -0.44185E+08         0.21167E+07         0.00000E+00
    0.21167E+07        -0.97487E+08         0.00000E+00
    0.00000E+00         0.00000E+00        -0.44284E+08
 
   -0.43920E+08         0.21513E+07         0.00000E+00
    0.21513E+07        -0.97512E+08         0.00000E+00
    0.00000E+00         0.00000E+00        -0.44011E+08
 
   -0.43646E+08         0.21814E+07         0.00000E+00
    0.21814E+07        -0.97541E+08         0.00000E+00
    0.00000E+00         0.00000E+00        -0.43727E+08
 
   -0.43364E+08         0.22064E+07         0.00000E+00
    0.22064E+07        -0.97574E+08         0.00000E+00
    0.00000E+00         0.00000E+00        -0.43433E+08
 
   -0.43074E+08         0.22256E+07         0.00000E+00
    0.22256E+07        -0.97611E+08         0.00000E+00
    0.00000E+00         0.00000E+00        -0.43129E+08
 
   -0.42775E+08         0.22382E+07         0.00000E+00
    0.22382E+07        -0.97653E+08         0.00000E+00
    0.00000E+00         0.00000E+00        -0.42816E+08
 
   -0.42468E+08         0.22436E+07         0.00000E+00
    0.22436E+07        -0.97700E+08         0.00000E+00
    0.00000E+00         0.00000E+00        -0.42492E+08
 
   -0.42153E+08         0.22410E+07         0.00000E+00
    0.22410E+07        -0.97751E+08         0.00000E+00
    0.00000E+00         0.00000E+00        -0.42158E+08
 
   -0.41829E+08         0.22298E+07         0.00000E+00
    0.22298E+07        -0.97808E+08         0.00000E+00
    0.00000E+00         0.00000E+00        -0.41814E+08
 
   -0.41497E+08         0.22090E+07         0.00000E+00
    0.22090E+07        -0.97870E+08         0.00000E+00
    0.00000E+00         0.00000E+00        -0.41460E+08
 
   -0.41158E+08         0.21782E+07         0.00000E+00
    0.21782E+07        -0.97936E+08         0.00000E+00
    0.00000E+00         0.00000E+00        -0.41097E+08
 
   -0.40811E+08         0.21365E+07         0.00000E+00
    0.21365E+07        -0.98007E+08         0.00000E+00
    0.00000E+00         0.00000E+00        -0.40724E+08
 
   -0.40456E+08         0.20834E+07         0.00000E+00
    0.20834E+07        -0.98080E+08         0.00000E+00
    0.00000E+00         0.00000E+00        -0.40343E+08
 
   -0.40095E+08         0.20183E+07         0.00000E+00
    0.20183E+07        -0.98156E+08         0.00000E+00
    0.00000E+00         0.00000E+00        -0.39952E+08
 
   -0.39726E+08         0.19408E+07         0.00000E+00
    0.19408E+07        -0.98230E+08         0.00000E+00
    0.00000E+00         0.00000E+00        -0.39553E+08
 
   -0.39352E+08         0.18504E+07         0.00000E+00
    0.18504E+07        -0.98301E+08         0.00000E+00
    0.00000E+00         0.00000E+00        -0.39146E+08
 
   -0.38972E+08         0.17466E+07         0.00000E+00
    0.17466E+07        -0.98364E+08         0.00000E+00
    0.00000E+00         0.00000E+00        -0.38731E+08
 
   -0.38589E+08         0.16287E+07         0.00000E+00
    0.16287E+07        -0.98413E+08         0.00000E+00
    0.00000E+00         0.00000E+00        -0.38310E+08
 
   -0.38204E+08         0.14956E+07         0.00000E+00
    0.14956E+07        -0.98441E+08         0.00000E+00
    0.00000E+00         0.00000E+00        -0.37882E+08
 
   -0.37822E+08         0.13454E+07         0.00000E+00
    0.13454E+07        -0.98441E+08         0.00000E+00
    0.00000E+00         0.00000E+00        -0.37449E+08
 
   -0.37447E+08         0.11747E+07         0.00000E+00
    0.11747E+07        -0.98400E+08         0.00000E+00
    0.00000E+00         0.00000E+00        -0.37010E+08
 
   -0.37088E+08         0.97815E+06         0.00000E+00
    0.97815E+06        -0.98306E+08         0.00000E+00
    0.00000E+00         0.00000E+00        -0.36568E+08
 
   -0.36760E+08         0.74697E+06         0.00000E+00
    0.74697E+06        -0.98143E+08         0.00000E+00
    0.00000E+00         0.00000E+00        -0.36122E+08
 
   -0.36490E+08         0.47273E+06         0.00000E+00
    0.47273E+06        -0.97892E+08         0.00000E+00
    0.00000E+00         0.00000E+00        -0.35674E+08
 
   -0.36331E+08         0.16205E+06         0.00000E+00
    0.16205E+06        -0.97539E+08         0.00000E+00
    0.00000E+00         0.00000E+00        -0.35225E+08
 
   -0.49957E+08         0.54643E+04         0.00000E+00
    0.54643E+04        -0.97576E+08         0.00000E+00
    0.00000E+00         0.00000E+00        -0.49995E+08
 
   -0.49954E+08         0.16235E+05         0.00000E+00
    0.16235E+05        -0.97569E+08         0.00000E+00
    0.00000E+00         0.00000E+00        -0.49986E+08
 
   -0.49948E+08         0.26533E+05         0.00000E+00
    0.26533E+05        -0.97564E+08         0.00000E+00
    0.00000E+00         0.00000E+00        -0.49977E+08
 
   -0.49941E+08         0.36228E+05         0.00000E+00
    0.36228E+05        -0.97560E+08         0.00000E+00
    0.00000E+00         0.00000E+00        -0.49968E+08
 
   -0.49933E+08         0.45445E+05         0.00000E+00
    0.45445E+05        -0.97558E+08         0.00000E+00
    0.00000E+00         0.00000E+00        -0.49958E+08
 
   -0.49924E+08         0.54358E+05         0.00000E+00
    0.54358E+05        -0.97556E+08         0.00000E+00
    0.00000E+00         0.00000E+00        -0.49949E+08
 
   -0.49915E+08         0.63092E+05         0.00000E+00
    0.63092E+05        -0.97555E+08         0.00000E+00
    0.00000E+00         0.00000E+00        -0.49939E+08
 
   -0.49905E+08         0.71733E+05         0.00000E+00
    0.71733E+05        -0.97555E+08         0.00000E+00
    0.00000E+00         0.00000E+00        -0.49929E+08
 
   -0.49895E+08         0.80342E+05         0.00000E+00
    0.80342E+05        -0.97555E+08         0.00000E+00
    0.00000E+00         0.00000E+00        -0.49919E+08
 
   -0.49884E+08         0.88964E+05         0.00000E+00
    0.88964E+05        -0.97555E+08         0.00000E+00
    0.00000E+00         0.00000E+00        -0.49908E+08
 
   -0.49873E+08         0.97637E+05         0.00000E+00
    0.97637E+05        -0.97555E+08         0.00000E+00
    0.00000E+00         0.00000E+00        -0.49897E+08
 
   -0.49862E+08         0.10639E+06         0.00000E+00
    0.10639E+06        -0.97555E+08         0.00000E+00
    0.00000E+00         0.00000E+00        -0.49886E+08
 
   -0.49849E+08         0.11526E+06         0.00000E+00
    0.11526E+06        -0.97555E+08         0.00000E+00
    0.00000E+00         0.00000E+00        -0.49874E+08
 
   -0.49837E+08         0.12429E+06         0.00000E+00
    0.12429E+06        -0.97555E+08         0.00000E+00
    0.00000E+00         0.00000E+00        -0.49862E+08
 
   -0.49823E+08         0.13349E+06         0.00000E+00
    0.13349E+06        -0.97554E+08         0.00000E+00
    0.00000E+00         0.00000E+00        -0.49849E+08
 
   -0.49809E+08         0.14292E+06         0.00000E+00
    0.14292E+06        -0.97554E+08         0.00000E+00
    0.00000E+00         0.00000E+00        -0.49835E+08
 
   -0.49794E+08         0.15259E+06         0.00000E+00
    0.15259E+06        -0.97553E+08         0.00000E+00
    0.00000E+00         0.00000E+00        -0.49821E+08
 
   -0.49779E+08         0.16256E+06         0.00000E+00
    0.16256E+06        -0.97552E+08         0.00000E+00
    0.00000E+00         0.00000E+00        -0.49807E+08
 
   -0.49762E+08         0.17286E+06         0.00000E+00
    0.17286E+06        -0.97551E+08         0.00000E+00
    0.00000E+00         0.00000E+00        -0.49791E+08
 
   -0.49745E+08         0.18353E+06         0.00000E+00
    0.18353E+06        -0.97549E+08         0.00000E+00
    0.00000E+00         0.00000E+00        -0.49775E+08
 
   -0.49727E+08         0.19460E+06         0.00000E+00
    0.19460E+06        -0.97547E+08         0.00000E+00
    0.00000E+00         0.00000E+00        -0.49758E+08
 
   -0.49707E+08         0.20612E+06         0.00000E+00
    0.20612E+06        -0.97546E+08         0.00000E+00
    0.00000E+00         0.00000E+00        -0.49740E+08
 
   -0.49687E+08         0.21811E+06         0.00000E+00
    0.21811E+06        -0.97543E+08         0.00000E+00
    0.00000E+00         0.00000E+00        -0.49721E+08
 
   -0.49666E+08         0.23062E+06         0.00000E+00
    0.23062E+06        -0.97541E+08         0.00000E+00
    0.00000E+00         0.00000E+00        -0.49702E+08
 
   -0.49643E+08         0.24369E+06         0.00000E+00
    0.24369E+06        -0.97539E+08         0.00000E+00
    0.00000E+00         0.00000E+00        -0.49681E+08
 
   -0.49619E+08         0.25735E+06         0.00000E+00
    0.25735E+06        -0.97536E+08         0.00000E+00
    0.00000E+00         0.00000E+00        -0.49659E+08
 
   -0.49594E+08         0.27164E+06         0.00000E+00
    0.27164E+06        -0.97533E+08         0.00000E+00
    0.00000E+00         0.00000E+00        -0.49635E+08
 
   -0.49567E+08         0.28659E+06         0.00000E+00
    0.28659E+06        -0.97530E+08         0.00000E+00
    0.00000E+00         0.00000E+00        -0.49611E+08
 
   -0.49539E+08         0.30224E+06         0.00000E+00
    0.30224E+06        -0.97527E+08         0.00000E+00
    0.00000E+00         0.00000E+00        -0.49585E+08
 
   -0.49510E+08         0.31863E+06         0.00000E+00
    0.31863E+06        -0.97524E+08         0.00000E+00
    0.00000E+00         0.00000E+00        -0.49557E+08
 
   -0.49478E+08         0.33579E+06         0.00000E+00
    0.33579E+06        -0.97520E+08         0.00000E+00
    0.00000E+00         0.00000E+00        -0.49528E+08
 
   -0.49445E+08         0.35375E+06         0.00000E+00
    0.35375E+06        -0.97517E+08         0.00000E+00
    0.00000E+00         0.00000E+00        -0.49497E+08
 
   -0.49410E+08         0.37255E+06         0.00000E+00
    0.37255E+06        -0.97513E+08         0.00000E+00
    0.00000E+00         0.00000E+00        -0.49465E+08
 
   -0.49374E+08         0.39223E+06         0.00000E+00
    0.39223E+06        -0.97509E+08         0.00000E+00
    0.00000E+00         0.00000E+00        -0.49431E+08
 
   -0.49335E+08         0.41282E+06         0.00000E+00
    0.41282E+06        -0.97505E+08         0.00000E+00
    0.00000E+00         0.00000E+00        -0.49395E+08
 
   -0.49294E+08         0.43434E+06         0.00000E+00
    0.43434E+06        -0.97501E+08         0.00000E+00
    0.00000E+00         0.00000E+00        -0.49356E+08
 
   -0.49250E+08         0.45684E+06         0.00000E+00
    0.45684E+06        -0.97497E+08         0.00000E+00
    0.00000E+00         0.00000E+00        -0.49316E+08
 
   -0.49205E+08         0.48034E+06         0.00000E+00
    0.48034E+06        -0.97492E+08         0.00000E+00
    0.00000E+00         0.00000E+00        -0.49273E+08
 
   -0.49157E+08         0.50488E+06         0.00000E+00
    0.50488E+06        -0.97488E+08         0.00000E+00
    0.00000E+00         0.00000E+00        -0.49228E+08
 
   -0.49106E+08         0.53048E+06         0.00000E+00
    0.53048E+06        -0.97483E+08         0.00000E+00
    0.00000E+00         0.00000E+00        -0.49181E+08
 
   -0.49053E+08         0.55718E+06         0.00000E+00
    0.55718E+06        -0.97478E+08         0.00000E+00
    0.00000E+00         0.00000E+00        -0.49130E+08
 
   -0.48996E+08         0.58500E+06         0.00000E+00
    0.58500E+06        -0.97473E+08         0.00000E+00
    0.00000E+00         0.00000E+00        -0.49077E+08
 
   -0.48937E+08         0.61396E+06         0.00000E+00
    0.61396E+06        -0.97468E+08         0.00000E+00
    0.00000E+00         0.00000E+00        -0.49021E+08
 
   -0.48874E+08         0.64410E+06         0.00000E+00
    0.64410E+06        -0.97463E+08         0.00000E+00
    0.00000E+00         0.00000E+00        -0.48962E+08
 
   -0.48808E+08         0.67543E+06         0.00000E+00
    0.67543E+06        -0.97458E+08         0.00000E+00
    0.00000E+00         0.00000E+00        -0.48900E+08
 
   -0.48739E+08         0.70797E+06         0.00000E+00
    0.70797E+06        -0.97453E+08         0.00000E+00
    0.00000E+00         0.00000E+00        -0.48834E+08
 
   -0.48666E+08         0.74173E+06         0.00000E+00
    0.74173E+06        -0.97448E+08         0.00000E+00
    0.00000E+00         0.00000E+00        -0.48765E+08
 
   -0.48589E+08         0.77674E+06         0.00000E+00
    0.77674E+06        -0.97443E+08         0.00000E+00
    0.00000E+00         0.00000E+00        -0.48692E+08
 
   -0.48509E+08         0.81300E+06         0.00000E+00
    0.81300E+06        -0.97438E+08         0.00000E+00
    0.00000E+00         0.00000E+00        -0.48615E+08
 
   -0.48424E+08         0.85052E+06         0.00000E+00
    0.85052E+06        -0.97432E+08         0.00000E+00
    0.00000E+00         0.00000E+00        -0.48534E+08
 
   -0.48335E+08         0.88929E+06         0.00000E+00
    0.88929E+06        -0.97427E+08         0.00000E+00
    0.00000E+00         0.00000E+00        -0.48449E+08
 
   -0.48241E+08         0.92931E+06         0.00000E+00
    0.92931E+06        -0.97422E+08         0.00000E+00
    0.00000E+00         0.00000E+00        -0.48359E+08
 
   -0.48143E+08         0.97056E+06         0.00000E+00
    0.97056E+06        -0.97417E+08         0.00000E+00
    0.00000E+00         0.00000E+00        -0.48264E+08
 
   -0.48040E+08         0.10130E+07         0.00000E+00
    0.10130E+07        -0.97413E+08         0.00000E+00
    0.00000E+00         0.00000E+00        -0.48165E+08
 
   -0.47932E+08         0.10567E+07         0.00000E+00
    0.10567E+07        -0.97408E+08         0.00000E+00
    0.00000E+00         0.00000E+00        -0.48060E+08
 
   -0.47818E+08         0.11016E+07         0.00000E+00
    0.11016E+07        -0.97404E+08         0.00000E+00
    0.00000E+00         0.00000E+00        -0.47950E+08
 
   -0.47699E+08         0.11475E+07         0.00000E+00
    0.11475E+07        -0.97400E+08         0.00000E+00
    0.00000E+00         0.00000E+00        -0.47835E+08
 
   -0.47575E+08         0.11945E+07         0.00000E+00
    0.11945E+07        -0.97396E+08         0.00000E+00
    0.00000E+00         0.00000E+00        -0.47714E+08
 
   -0.47445E+08         0.12426E+07         0.00000E+00
    0.12426E+07        -0.97393E+08         0.00000E+00
    0.00000E+00         0.00000E+00        -0.47587E+08
 
   -0.47309E+08         0.12915E+07         0.00000E+00
    0.12915E+07        -0.97390E+08         0.00000E+00
    0.00000E+00         0.00000E+00        -0.47454E+08
 
   -0.47166E+08         0.13413E+07         0.00000E+00
    0.13413E+07        -0.97387E+08         0.00000E+00
    0.00000E+00         0.00000E+00        -0.47314E+08
 
   -0.47017E+08         0.13918E+07         0.00000E+00
    0.13918E+07        -0.97386E+08         0.00000E+00
    0.00000E+00         0.00000E+00        -0.47167E+08
 
   -0.46862E+08         0.14429E+07         0.00000E+00
    0.14429E+07        -0.97385E+08         0.00000E+00
    0.00000E+00         0.00000E+00        -0.47014E+08
 
   -0.46700E+08         0.14944E+07         0.00000E+00
    0.14944E+07        -0.97384E+08         0.00000E+00
    0.00000E+00         0.00000E+00        -0.46853E+08
 
   -0.46531E+08         0.15463E+07         0.00000E+00
    0.15463E+07        -0.97385E+08         0.00000E+00
    0.00000E+00         0.00000E+00        -0.46685E+08
 
   -0.46354E+08         0.15983E+07         0.00000E+00
    0.15983E+07        -0.97387E+08         0.00000E+00
    0.00000E+00         0.00000E+00        -0.46510E+08
 
   -0.46171E+08         0.16502E+07         0.00000E+00
    0.16502E+07        -0.97389E+08         0.00000E+00
    0.00000E+00         0.00000E+00        -0.46326E+08
 
   -0.45980E+08         0.17018E+07         0.00000E+00
    0.17018E+07        -0.97393E+08         0.00000E+00
    0.00000E+00         0.00000E+00        -0.46135E+08
 
   -0.45781E+08         0.17528E+07         0.00000E+00
    0.17528E+07        -0.97399E+08         0.00000E+00
    0.00000E+00         0.00000E+00        -0.45935E+08
 
   -0.45574E+08         0.18029E+07         0.00000E+00
    0.18029E+07        -0.97406E+08         0.00000E+00
    0.00000E+00         0.00000E+00        -0.45726E+08
 
   -0.45360E+08         0.18518E+07         0.00000E+00
    0.18518E+07        -0.97415E+08         0.00000E+00
    0.00000E+00         0.00000E+00        -0.45509E+08
 
   -0.45138E+08         0.18992E+07         0.00000E+00
    0.18992E+07        -0.97426E+08         0.00000E+00
    0.00000E+00         0.00000E+00        -0.45283E+08
 
   -0.44907E+08         0.19446E+07         0.00000E+00
    0.19446E+07        -0.97439E+08         0.00000E+00
    0.00000E+00         0.00000E+00        -0.45047E+08
 
   -0.44669E+08         0.19877E+07         0.00000E+00
    0.19877E+07        -0.97454E+08         0.00000E+00
    0.00000E+00         0.00000E+00        -0.44803E+08
 
   -0.44422E+08         0.20279E+07         0.00000E+00
    0.20279E+07        -0.97473E+08         0.00000E+00
    0.00000E+00         0.00000E+00        -0.44548E+08
 
   -0.44167E+08         0.20647E+07         0.00000E+00
    0.20647E+07        -0.97494E+08         0.00000E+00
    0.00000E+00         0.00000E+00        -0.44284E+08
 
   -0.43904E+08         0.20977E+07         0.00000E+00
    0.20977E+07        -0.97518E+08         0.00000E+00
    0.00000E+00         0.00000E+00        -0.44011E+08
 
   -0.43632E+08         0.21261E+07         0.00000E+00
    0.21261E+07        -0.97546E+08         0.00000E+00
    0.00000E+00         0.00000E+00        -0.43727E+08
 
   -0.43352E+08         0.21494E+07         0.00000E+00
    0.21494E+07        -0.97578E+08         0.00000E+00
    0.00000E+00         0.00000E+00        -0.43433E+08
 
   -0.43064E+08         0.21669E+07         0.00000E+00
    0.21669E+07        -0.97614E+08         0.00000E+00
    0.00000E+00         0.00000E+00        -0.43129E+08
 
   -0.42768E+08         0.21779E+07         0.00000E+00
    0.21779E+07        -0.97655E+08         0.00000E+00
    0.00000E+00         0.00000E+00        -0.42816E+08
 
   -0.42464E+08         0.21817E+07         0.00000E+00
    0.21817E+07        -0.97700E+08         0.00000E+00
    0.00000E+00         0.00000E+00        -0.42492E+08
 
   -0.42152E+08         0.21775E+07         0.00000E+00
    0.21775E+07        -0.97750E+08         0.00000E+00
    0.00000E+00         0.00000E+00        -0.42158E+08
 
   -0.41832E+08         0.21646E+07         0.00000E+00
    0.21646E+07        -0.97805E+08         0.00000E+00
    0.00000E+00         0.00000E+00        -0.41814E+08
 
   -0.41504E+08         0.21423E+07         0.00000E+00
    0.21423E+07        -0.97865E+08         0.00000E+00
    0.00000E+00         0.00000E+00        -0.41460E+08
 
   -0.41169E+08         0.21099E+07         0.00000E+00
    0.21099E+07        -0.97929E+08         0.00000E+00
    0.00000E+00         0.00000E+00        -0.41097E+08
 
   -0.40827E+08         0.20668E+07         0.00000E+00
    0.20668E+07        -0.97997E+08         0.00000E+00
    0.00000E+00         0.00000E+00        -0.40724E+08
 
   -0.40478E+08         0.20122E+07         0.00000E+00
    0.20122E+07        -0.98068E+08         0.00000E+00
    0.00000E+00         0.00000E+00        -0.40343E+08
 
   -0.40121E+08         0.19458E+07         0.00000E+00
    0.19458E+07        -0.98141E+08         0.00000E+00
    0.00000E+00         0.00000E+00        -0.39952E+08
 
   -0.39759E+08         0.18671E+07         0.00000E+00
    0.18671E+07        -0.98213E+08         0.00000E+00
    0.00000E+00         0.00000E+00        -0.39553E+08
 
   -0.39391E+08         0.17756E+07         0.00000E+00
    0.17756E+07        -0.98281E+08         0.00000E+00
    0.00000E+00         0.00000E+00        -0.39146E+08
 
   -0.39018E+08         0.16709E+07         0.00000E+00
    0.16709E+07        -0.98341E+08         0.00000E+00
    0.00000E+00         0.00000E+00        -0.38731E+08
 
   -0.38642E+08         0.15525E+07         0.00000E+00
    0.15525E+07        -0.98388E+08         0.00000E+00
    0.00000E+00         0.00000E+00        -0.38310E+08
 
   -0.38266E+08         0.14196E+07         0.00000E+00
    0.14196E+07        -0.98413E+08         0.00000E+00
    0.00000E+00         0.00000E+00        -0.37882E+08
 
   -0.37893E+08         0.12704E+07         0.00000E+00
    0.12704E+07        -0.98409E+08         0.00000E+00
    0.00000E+00         0.00000E+00        -0.37449E+08
 
   -0.37530E+08         0.11021E+07         0.00000E+00
    0.11021E+07        -0.98363E+08         0.00000E+00
    0.00000E+00         0.00000E+00        -0.37010E+08
 
   -0.37185E+08         0.91020E+06         0.00000E+00
    0.91020E+06        -0.98264E+08         0.00000E+00
    0.00000E+00         0.00000E+00        -0.36568E+08
 
   -0.36875E+08         0.68771E+06         0.00000E+00
    0.68771E+06        -0.98094E+08         0.00000E+00
    0.00000E+00         0.00000E+00        -0.36122E+08
 
   -0.36629E+08         0.43030E+06         0.00000E+00
    0.43030E+06        -0.97835E+08         0.00000E+00
    0.00000E+00         0.00000E+00        -0.35674E+08
 
   -0.36488E+08         0.14639E+06         0.00000E+00
    0.14639E+06        -0.97477E+08         0.00000E+00
    0.00000E+00         0.00000E+00        -0.35225E+08
 
   -0.49952E+08         0.51618E+04         0.00000E+00
    0.51618E+04        -0.97578E+08         0.00000E+00
    0.00000E+00         0.00000E+00        -0.49995E+08
 
   -0.49949E+08         0.15390E+05         0.00000E+00
    0.15390E+05        -0.97571E+08         0.00000E+00
    0.00000E+00         0.00000E+00        -0.49986E+08
 
   -0.49944E+08         0.25296E+05         0.00000E+00
    0.25296E+05        -0.97566E+08         0.00000E+00
    0.00000E+00         0.00000E+00        -0.49977E+08
 
   -0.49937E+08         0.34740E+05         0.00000E+00
    0.34740E+05        -0.97562E+08         0.00000E+00
    0.00000E+00         0.00000E+00        -0.49968E+08
 
   -0.49929E+08         0.43786E+05         0.00000E+00
    0.43786E+05        -0.97559E+08         0.00000E+00
    0.00000E+00         0.00000E+00        -0.49958E+08
 
   -0.49921E+08         0.52568E+05         0.00000E+00
    0.52568E+05        -0.97558E+08         0.00000E+00
    0.00000E+00         0.00000E+00        -0.49949E+08
 
   -0.49912E+08         0.61193E+05         0.00000E+00
    0.61193E+05        -0.97557E+08         0.00000E+00
    0.00000E+00         0.00000E+00        -0.49939E+08
 
   -0.49902E+08         0.69737E+05         0.00000E+00
    0.69737E+05        -0.97557E+08         0.00000E+00
    0.00000E+00         0.00000E+00        -0.49929E+08
 
   -0.49892E+08         0.78251E+05         0.00000E+00
    0.78251E+05        -0.97557E+08         0.00000E+00
    0.00000E+00         0.00000E+00        -0.49919E+08
 
   -0.49881E+08         0.86778E+05         0.00000E+00
    0.86778E+05        -0.97557E+08         0.00000E+00
    0.00000E+00         0.00000E+00        -0.49908E+08
 
   -0.49870E+08         0.95350E+05         0.00000E+00
    0.95350E+05        -0.97557E+08         0.00000E+00
    0.00000E+00         0.00000E+00        -0.49897E+08
 
   -0.49858E+08         0.10400E+06         0.00000E+00
    0.10400E+06        -0.97557E+08         0.00000E+00
    0.00000E+00         0.00000E+00        -0.49886E+08
 
   -0.49846E+08         0.11276E+06         0.00000E+00
    0.11276E+06        -0.97557E+08         0.00000E+00
    0.00000E+00         0.00000E+00        -0.49874E+08
 
   -0.49833E+08         0.12166E+06         0.00000E+00
    0.12166E+06        -0.97557E+08         0.00000E+00
    0.00000E+00         0.00000E+00        -0.49862E+08
 
   -0.49819E+08         0.13073E+06         0.00000E+00
    0.13073E+06        -0.97556E+08         0.00000E+00
    0.00000E+00         0.00000E+00        -0.49849E+08
 
   -0.49805E+08         0.14001E+06         0.00000E+00
    0.14001E+06        -0.97556E+08         0.00000E+00
    0.00000E+00         0.00000E+00        -0.49835E+08
 
   -0.49790E+08         0.14954E+06         0.00000E+00
    0.14954E+06        -0.97555E+08         0.00000E+00
    0.00000E+00         0.00000E+00        -0.49821E+08
 
   -0.49774E+08         0.15935E+06         0.00000E+00
    0.15935E+06        -0.97554E+08         0.00000E+00
    0.00000E+00         0.00000E+00        -0.49807E+08
 
   -0.49758E+08         0.16948E+06         0.00000E+00
    0.16948E+06        -0.97553E+08         0.00000E+00
    0.00000E+00         0.00000E+00        -0.49791E+08
 
   -0.49740E+08         0.17996E+06         0.00000E+00
    0.17996E+06        -0.97551E+08         0.00000E+00
    0.00000E+00         0.00000E+00        -0.49775E+08
 
   -0.49722E+08         0.19084E+06         0.00000E+00
    0.19084E+06        -0.97550E+08         0.00000E+00
    0.00000E+00         0.00000E+00        -0.49758E+08
 
   -0.49703E+08         0.20214E+06         0.00000E+00
    0.20214E+06        -0.97548E+08         0.00000E+00
    0.00000E+00         0.00000E+00        -0.49740E+08
 
   -0.49682E+08         0.21392E+06         0.00000E+00
    0.21392E+06        -0.97546E+08         0.00000E+00
    0.00000E+00         0.00000E+00        -0.49721E+08
 
   -0.49660E+08         0.22620E+06         0.00000E+00
    0.22620E+06        -0.97544E+08         0.00000E+00
    0.00000E+00         0.00000E+00        -0.49702E+08
 
   -0.49638E+08         0.23902E+06         0.00000E+00
    0.23902E+06        -0.97541E+08         0.00000E+00
    0.00000E+00         0.00000E+00        -0.49681E+08
 
   -0.49613E+08         0.25242E+06         0.00000E+00
    0.25242E+06        -0.97539E+08         0.00000E+00
    0.00000E+00         0.00000E+00        -0.49659E+08
 
   -0.49588E+08         0.26643E+06         0.00000E+00
    0.26643E+06        -0.97536E+08         0.00000E+00
    0.00000E+00         0.00000E+00        -0.49635E+08
 
   -0.49561E+08         0.28110E+06         0.00000E+00
    0.28110E+06        -0.97533E+08         0.00000E+00
    0.00000E+00         0.00000E+00        -0.49611E+08
 
   -0.49533E+08         0.29644E+06         0.00000E+00
    0.29644E+06        -0.97530E+08         0.00000E+00
    0.00000E+00         0.00000E+00        -0.49585E+08
 
   -0.49503E+08         0.31251E+06         0.00000E+00
    0.31251E+06        -0.97527E+08         0.00000E+00
    0.00000E+00         0.00000E+00        -0.49557E+08
 
   -0.49471E+08         0.32932E+06         0.00000E+00
    0.32932E+06        -0.97524E+08         0.00000E+00
    0.00000E+00         0.00000E+00        -0.49528E+08
 
   -0.49438E+08         0.34693E+06         0.00000E+00
    0.34693E+06        -0.97520E+08         0.00000E+00
    0.00000E+00         0.00000E+00        -0.49497E+08
 
   -0.49402E+08         0.36535E+06         0.00000E+00
    0.36535E+06        -0.97517E+08         0.00000E+00
    0.00000E+00         0.00000E+00        -0.49465E+08
 
   -0.49365E+08         0.38463E+06         0.00000E+00
    0.38463E+06        -0.97513E+08         0.00000E+00
    0.00000E+00         0.00000E+00        -0.49431E+08
 
   -0.49326E+08         0.40479E+06         0.00000E+00
    0.40479E+06        -0.97509E+08         0.00000E+00
    0.00000E+00         0.00000E+00        -0.49395E+08
 
   -0.49284E+08         0.42588E+06         0.00000E+00
    0.42588E+06        -0.97505E+08         0.00000E+00
    0.00000E+00         0.00000E+00        -0.49356E+08
 
   -0.49241E+08         0.44791E+06         0.00000E+00
    0.44791E+06        -0.97501E+08         0.00000E+00
    0.00000E+00         0.00000E+00        -0.49316E+08
 
   -0.49195E+08         0.47092E+06         0.00000E+00
    0.47092E+06        -0.97497E+08         0.00000E+00
    0.00000E+00         0.00000E+00        -0.49273E+08
 
   -0.49146E+08         0.49495E+06         0.00000E+00
    0.49495E+06        -0.97493E+08         0.00000E+00
    0.00000E+00         0.00000E+00        -0.49228E+08
 
   -0.49095E+08         0.52002E+06         0.00000E+00
    0.52002E+06        -0.97488E+08         0.00000E+00
    0.00000E+00         0.00000E+00        -0.49181E+08
 
   -0.49041E+08         0.54615E+06         0.00000E+00
    0.54615E+06        -0.97484E+08         0.00000E+00
    0.00000E+00         0.00000E+00        -0.49130E+08
 
   -0.48984E+08         0.57338E+06         0.00000E+00
    0.57338E+06        -0.97479E+08         0.00000E+00
    0.00000E+00         0.00000E+00        -0.49077E+08
 
   -0.48924E+08         0.60172E+06         0.00000E+00
    0.60172E+06        -0.97474E+08         0.00000E+00
    0.00000E+00         0.00000E+00        -0.49021E+08
 
   -0.48861E+08         0.63121E+06         0.00000E+00
    0.63121E+06        -0.97469E+08         0.00000E+00
    0.00000E+00         0.00000E+00        -0.48962E+08
 
   -0.48795E+08         0.66186E+06         0.00000E+00
    0.66186E+06        -0.97465E+08         0.00000E+00
    0.00000E+00         0.00000E+00        -0.48900E+08
 
   -0.48725E+08         0.69369E+06         0.00000E+00
    0.69369E+06        -0.97460E+08         0.00000E+00
    0.00000E+00         0.00000E+00        -0.48834E+08
 
   -0.48651E+08         0.72672E+06         0.00000E+00
    0.72672E+06        -0.97455E+08         0.00000E+00
    0.00000E+00         0.00000E+00        -0.48765E+08
 
   -0.48574E+08         0.76095E+06         0.00000E+00
    0.76095E+06        -0.97450E+08         0.00000E+00
    0.00000E+00         0.00000E+00        -0.48692E+08
 
   -0.48493E+08         0.79640E+06         0.00000E+00
    0.79640E+06        -0.97445E+08         0.00000E+00
    0.00000E+00         0.00000E+00        -0.48615E+08
 
   -0.48408E+08         0.83308E+06         0.00000E+00
    0.83308E+06        -0.97440E+08         0.00000E+00
    0.00000E+00         0.00000E+00        -0.48534E+08
 
   -0.48318E+08         0.87097E+06         0.00000E+00
    0.87097E+06        -0.97435E+08         0.00000E+00
    0.00000E+00         0.00000E+00        -0.48449E+08
 
   -0.48224E+08         0.91007E+06         0.00000E+00
    0.91007E+06        -0.97430E+08         0.00000E+00
    0.00000E+00         0.00000E+00        -0.48359E+08
 
   -0.48125E+08         0.95038E+06         0.00000E+00
    0.95038E+06        -0.97426E+08         0.00000E+00
    0.00000E+00         0.00000E+00        -0.48264E+08
 
   -0.48021E+08         0.99187E+06         0.00000E+00
    0.99187E+06        -0.97421E+08         0.00000E+00
    0.00000E+00         0.00000E+00        -0.48165E+08
 
   -0.47913E+08         0.10345E+07         0.00000E+00
    0.10345E+07        -0.97417E+08         0.00000E+00
    0.00000E+00         0.00000E+00        -0.48060E+08
 
   -0.47799E+08         0.10783E+07         0.00000E+00
    0.10783E+07        -0.97413E+08         0.00000E+00
    0.00000E+00         0.00000E+00        -0.47950E+08
 
   -0.47679E+08         0.11231E+07         0.00000E+00
    0.11231E+07        -0.97409E+08         0.00000E+00
    0.00000E+00         0.00000E+00        -0.47835E+08
 
   -0.47554E+08         0.11690E+07         0.00000E+00
    0.11690E+07        -0.97405E+08         0.00000E+00
    0.00000E+00         0.00000E+00        -0.47714E+08
 
   -0.47424E+08         0.12159E+07         0.00000E+00
    0.12159E+07        -0.97402E+08         0.00000E+00
    0.00000E+00         0.00000E+00        -0.47587E+08
 
   -0.47287E+08         0.12636E+07         0.00000E+00
    0.12636E+07        -0.97399E+08         0.00000E+00
    0.00000E+00         0.00000E+00        -0.47454E+08
 
   -0.47144E+08         0.13121E+07         0.00000E+00
    0.13121E+07        -0.97397E+08         0.00000E+00
    0.00000E+00         0.00000E+00        -0.47314E+08
 
   -0.46995E+08         0.13613E+07         0.00000E+00
    0.13613E+07        -0.97396E+08         0.00000E+00
    0.00000E+00         0.00000E+00        -0.47167E+08
 
   -0.46839E+08         0.14111E+07         0.00000E+00
    0.14111E+07        -0.97395E+08         0.00000E+00
    0.00000E+00         0.00000E+00        -0.47014E+08
 
   -0.46677E+08         0.14613E+07         0.00000E+00
    0.14613E+07        -0.97395E+08         0.00000E+00
    0.00000E+00         0.00000E+00        -0.46853E+08
 
   -0.46508E+08         0.15118E+07         0.00000E+00
    0.15118E+07        -0.97395E+08         0.00000E+00
    0.00000E+00         0.00000E+00        -0.46685E+08
 
   -0.46331E+08         0.15623E+07         0.00000E+00
    0.15623E+07        -0.97397E+08         0.00000E+00
    0.00000E+00         0.00000E+00        -0.46510E+08
 
   -0.46148E+08         0.16127E+07         0.00000E+00
    0.16127E+07        -0.97400E+08         0.00000E+00
    0.00000E+00         0.00000E+00        -0.46326E+08
 
   -0.45957E+08         0.16628E+07         0.00000E+00
    0.16628E+07        -0.97404E+08         0.00000E+00
    0.00000E+00         0.00000E+00        -0.46135E+08
 
   -0.45758E+08         0.17123E+07         0.00000E+00
    0.17123E+07        -0.97409E+08         0.00000E+00
    0.00000E+00         0.00000E+00        -0.45935E+08
 
   -0.45552E+08         0.17609E+07         0.00000E+00
    0.17609E+07        -0.97416E+08         0.00000E+00
    0.00000E+00         0.00000E+00        -0.45726E+08
 
   -0.45338E+08         0.18082E+07         0.00000E+00
    0.18082E+07        -0.97424E+08         0.00000E+00
    0.00000E+00         0.00000E+00        -0.45509E+08
 
   -0.45116E+08         0.18540E+07         0.00000E+00
    0.18540E+07        -0.97435E+08         0.00000E+00
    0.00000E+00         0.00000E+00        -0.45283E+08
 
   -0.44887E+08         0.18978E+07         0.00000E+00
    0.18978E+07        -0.97448E+08         0.00000E+00
    0.00000E+00         0.00000E+00        -0.45047E+08
 
   -0.44649E+08         0.19392E+07         0.00000E+00
    0.19392E+07        -0.97463E+08         0.00000E+00
    0.00000E+00         0.00000E+00        -0.44803E+08
 
   -0.44403E+08         0.19778E+07         0.00000E+00
    0.19778E+07        -0.97480E+08         0.00000E+00
    0.00000E+00         0.00000E+00        -0.44548E+08
 
   -0.44150E+08         0.20130E+07         0.00000E+00
    0.20130E+07        -0.97501E+08         0.00000E+00
    0.00000E+00         0.00000E+00        -0.44284E+08
 
   -0.43888E+08         0.20443E+07         0.00000E+00
    0.20443E+07        -0.97524E+08         0.00000E+00
    0.00000E+00         0.00000E+00        -0.44011E+08
 
   -0.43618E+08         0.20712E+07         0.00000E+00
    0.20712E+07        -0.97551E+08         0.00000E+00
    0.00000E+00         0.00000E+00        -0.43727E+08
 
   -0.43340E+08         0.20928E+07         0.00000E+00
    0.20928E+07        -0.97582E+08         0.00000E+00
    0.00000E+00         0.00000E+00        -0.43433E+08
 
   -0.43055E+08         0.21087E+07         0.00000E+00
    0.21087E+07        -0.97617E+08         0.00000E+00
    0.00000E+00         0.00000E+00        -0.43129E+08
 
   -0.42761E+08         0.21181E+07         0.00000E+00
    0.21181E+07        -0.97656E+08         0.00000E+00
    0.00000E+00         0.00000E+00        -0.42816E+08
 
   -0.42460E+08         0.21204E+07         0.00000E+00
    0.21204E+07        -0.97700E+08         0.00000E+00
    0.00000E+00         0.00000E+00        -0.42492E+08
 
   -0.42151E+08         0.21146E+07         0.00000E+00
    0.21146E+07        -0.97748E+08         0.00000E+00
    0.00000E+00         0.00000E+00        -0.42158E+08
 
   -0.41835E+08         0.21003E+07         0.00000E+00
    0.21003E+07        -0.97801E+08         0.00000E+00
    0.00000E+00         0.00000E+00        -0.41814E+08
 
   -0.41512E+08         0.20765E+07         0.00000E+00
    0.20765E+07        -0.97859E+08         0.00000E+00
    0.00000E+00         0.00000E+00        -0.41460E+08
 
   -0.41181E+08         0.20426E+07         0.00000E+00
    0.20426E+07        -0.97921E+08         0.00000E+00
    0.00000E+00         0.00000E+00        -0.41097E+08
 
   -0.40843E+08         0.19980E+07         0.00000E+00
    0.19980E+07        -0.97987E+08         0.00000E+00
    0.00000E+00         0.00000E+00        -0.40724E+08
 
   -0.40499E+08         0.19422E+07         0.00000E+00
    0.19422E+07        -0.98056E+08         0.00000E+00
    0.00000E+00         0.00000E+00        -0.40343E+08
 
   -0.40148E+08         0.18745E+07         0.00000E+00
    0.18745E+07        -0.98127E+08         0.00000E+00
    0.00000E+00         0.00000E+00        -0.39952E+08
 
   -0.39792E+08         0.17945E+07         0.00000E+00
    0.17945E+07        -0.98196E+08         0.00000E+00
    0.00000E+00         0.00000E+00        -0.39553E+08
 
   -0.39430E+08         0.17021E+07         0.00000E+00
    0.17021E+07        -0.98262E+08         0.00000E+00
    0.00000E+00         0.00000E+00        -0.39146E+08
 
   -0.39064E+08         0.15967E+07         0.00000E+00
    0.15967E+07        -0.98319E+08         0.00000E+00
    0.00000E+00         0.00000E+00        -0.38731E+08
 
   -0.38696E+08         0.14780E+07         0.00000E+00
    0.14780E+07        -0.98363E+08         0.00000E+00
    0.00000E+00         0.00000E+00        -0.38310E+08
 
   -0.38328E+08         0.13453E+07         0.00000E+00
    0.13453E+07        -0.98385E+08         0.00000E+00
    0.00000E+00         0.00000E+00        -0.37882E+08
 
   -0.37965E+08         0.11974E+07         0.00000E+00
    0.11974E+07        -0.98377E+08         0.00000E+00
    0.00000E+00         0.00000E+00        -0.37449E+08
 
   -0.37613E+08         0.10321E+07         0.00000E+00
    0.10321E+07        -0.98328E+08         0.00000E+00
    0.00000E+00         0.00000E+00        -0.37010E+08
 
   -0.37283E+08         0.84542E+06         0.00000E+00
    0.84542E+06        -0.98223E+08         0.00000E+00
    0.00000E+00         0.00000E+00        -0.36568E+08
 
   -0.36990E+08         0.63251E+06         0.00000E+00
    0.63251E+06        -0.98047E+08         0.00000E+00
    0.00000E+00         0.00000E+00        -0.36122E+08
 
   -0.36762E+08         0.39197E+06         0.00000E+00
    0.39197E+06        -0.97782E+08         0.00000E+00
    0.00000E+00         0.00000E+00        -0.35674E+08
 
   -0.36636E+08         0.13256E+06         0.00000E+00
    0.13256E+06        -0.97422E+08         0.00000E+00
    0.00000E+00         0.00000E+00        -0.35225E+08
 
   -0.49947E+08         0.48860E+04         0.00000E+00
    0.48860E+04        -0.97580E+08         0.00000E+00
    0.00000E+00         0.00000E+00        -0.49995E+08
 
   -0.49944E+08         0.14607E+05         0.00000E+00
    0.14607E+05        -0.97573E+08         0.00000E+00
    0.00000E+00         0.00000E+00        -0.49986E+08
 
   -0.49939E+08         0.24122E+05         0.00000E+00
    0.24122E+05        -0.97567E+08         0.00000E+00
    0.00000E+00         0.00000E+00        -0.49977E+08
 
   -0.49933E+08         0.33300E+05         0.00000E+00
    0.33300E+05        -0.97564E+08         0.00000E+00
    0.00000E+00         0.00000E+00        -0.49968E+08
 
   -0.49925E+08         0.42161E+05         0.00000E+00
    0.42161E+05        -0.97561E+08         0.00000E+00
    0.00000E+00         0.00000E+00        -0.49958E+08
 
   -0.49917E+08         0.50801E+05         0.00000E+00
    0.50801E+05        -0.97560E+08         0.00000E+00
    0.00000E+00         0.00000E+00        -0.49949E+08
 
   -0.49908E+08         0.59310E+05         0.00000E+00
    0.59310E+05        -0.97559E+08         0.00000E+00
    0.00000E+00         0.00000E+00        -0.49939E+08
 
   -0.49898E+08         0.67749E+05         0.00000E+00
    0.67749E+05        -0.97558E+08         0.00000E+00
    0.00000E+00         0.00000E+00        -0.49929E+08
 
   -0.49888E+08         0.76164E+05         0.00000E+00
    0.76164E+05        -0.97558E+08         0.00000E+00
    0.00000E+00         0.00000E+00        -0.49919E+08
 
   -0.49877E+08         0.84591E+05         0.00000E+00
    0.84591E+05        -0.97559E+08         0.00000E+00
    0.00000E+00         0.00000E+00        -0.49908E+08
 
   -0.49866E+08         0.93059E+05         0.00000E+00
    0.93059E+05        -0.97559E+08         0.00000E+00
    0.00000E+00         0.00000E+00        -0.49897E+08
 
   -0.49855E+08         0.10160E+06         0.00000E+00
    0.10160E+06        -0.97559E+08         0.00000E+00
    0.00000E+00         0.00000E+00        -0.49886E+08
 
   -0.49842E+08         0.11024E+06         0.00000E+00
    0.11024E+06        -0.97559E+08         0.00000E+00
    0.00000E+00         0.00000E+00        -0.49874E+08
 
   -0.49829E+08         0.11901E+06         0.00000E+00
    0.11901E+06        -0.97558E+08         0.00000E+00
    0.00000E+00         0.00000E+00        -0.49862E+08
 
   -0.49816E+08         0.12795E+06         0.00000E+00
    0.12795E+06        -0.97558E+08         0.00000E+00
    0.00000E+00         0.00000E+00        -0.49849E+08
 
   -0.49801E+08         0.13709E+06         0.00000E+00
    0.13709E+06        -0.97558E+08         0.00000E+00
    0.00000E+00         0.00000E+00        -0.49835E+08
 
   -0.49786E+08         0.14646E+06         0.00000E+00
    0.14646E+06        -0.97557E+08         0.00000E+00
    0.00000E+00         0.00000E+00        -0.49821E+08
 
   -0.49770E+08         0.15610E+06         0.00000E+00
    0.15610E+06        -0.97556E+08         0.00000E+00
    0.00000E+00         0.00000E+00        -0.49807E+08
 
   -0.49754E+08         0.16606E+06         0.00000E+00
    0.16606E+06        -0.97555E+08         0.00000E+00
    0.00000E+00         0.00000E+00        -0.49791E+08
 
   -0.49736E+08         0.17635E+06         0.00000E+00
    0.17635E+06        -0.97553E+08         0.00000E+00
    0.00000E+00         0.00000E+00        -0.49775E+08
 
   -0.49717E+08         0.18703E+06         0.00000E+00
    0.18703E+06        -0.97552E+08         0.00000E+00
    0.00000E+00         0.00000E+00        -0.49758E+08
 
   -0.49698E+08         0.19813E+06         0.00000E+00
    0.19813E+06        -0.97550E+08         0.00000E+00
    0.00000E+00         0.00000E+00        -0.49740E+08
 
   -0.49677E+08         0.20968E+06         0.00000E+00
    0.20968E+06        -0.97548E+08         0.00000E+00
    0.00000E+00         0.00000E+00        -0.49721E+08
 
   -0.49655E+08         0.22173E+06         0.00000E+00
    0.22173E+06        -0.97546E+08         0.00000E+00
    0.00000E+00         0.00000E+00        -0.49702E+08
 
   -0.49632E+08         0.23430E+06         0.00000E+00
    0.23430E+06        -0.97544E+08         0.00000E+00
    0.00000E+00         0.00000E+00        -0.49681E+08
 
   -0.49608E+08         0.24744E+06         0.00000E+00
    0.24744E+06        -0.97542E+08         0.00000E+00
    0.00000E+00         0.00000E+00        -0.49659E+08
 
   -0.49582E+08         0.26117E+06         0.00000E+00
    0.26117E+06        -0.97539E+08         0.00000E+00
    0.00000E+00         0.00000E+00        -0.49635E+08
 
   -0.49555E+08         0.27554E+06         0.00000E+00
    0.27554E+06        -0.97536E+08         0.00000E+00
    0.00000E+00         0.00000E+00        -0.49611E+08
 
   -0.49526E+08         0.29058E+06         0.00000E+00
    0.29058E+06        -0.97533E+08         0.00000E+00
    0.00000E+00         0.00000E+00        -0.49585E+08
 
   -0.49496E+08         0.30631E+06         0.00000E+00
    0.30631E+06        -0.97530E+08         0.00000E+00
    0.00000E+00         0.00000E+00        -0.49557E+08
 
   -0.49464E+08         0.32279E+06         0.00000E+00
    0.32279E+06        -0.97527E+08         0.00000E+00
    0.00000E+00         0.00000E+00        -0.49528E+08
 
   -0.49430E+08         0.34003E+06         0.00000E+00
    0.34003E+06        -0.97524E+08         0.00000E+00
    0.00000E+00         0.00000E+00        -0.49497E+08
 
   -0.49394E+08         0.35807E+06         0.00000E+00
    0.35807E+06        -0.97521E+08         0.00000E+00
    0.00000E+00         0.00000E+00        -0.49465E+08
 
   -0.49357E+08         0.37695E+06         0.00000E+00
    0.37695E+06        -0.97517E+08         0.00000E+00
    0.00000E+00         0.00000E+00        -0.49431E+08
 
   -0.49317E+08         0.39669E+06         0.00000E+00
    0.39669E+06        -0.97513E+08         0.00000E+00
    0.00000E+00         0.00000E+00        -0.49395E+08
 
   -0.49275E+08         0.41733E+06         0.00000E+00
    0.41733E+06        -0.97510E+08         0.00000E+00
    0.00000E+00         0.00000E+00        -0.49356E+08
 
   -0.49231E+08         0.43890E+06         0.00000E+00
    0.43890E+06        -0.97506E+08         0.00000E+00
    0.00000E+00         0.00000E+00        -0.49316E+08
 
   -0.49185E+08         0.46142E+06         0.00000E+00
    0.46142E+06        -0.97502E+08         0.00000E+00
    0.00000E+00         0.00000E+00        -0.49273E+08
 
   -0.49136E+08         0.48493E+06         0.00000E+00
    0.48493E+06        -0.97497E+08         0.00000E+00
    0.00000E+00         0.00000E+00        -0.49228E+08
 
   -0.49084E+08         0.50946E+06         0.00000E+00
    0.50946E+06        -0.97493E+08         0.00000E+00
    0.00000E+00         0.00000E+00        -0.49181E+08
 
   -0.49030E+08         0.53502E+06         0.00000E+00
    0.53502E+06        -0.97489E+08         0.00000E+00
    0.00000E+00         0.00000E+00        -0.49130E+08
 
   -0.48972E+08         0.56166E+06         0.00000E+00
    0.56166E+06        -0.97484E+08         0.00000E+00
    0.00000E+00         0.00000E+00        -0.49077E+08
 
   -0.48912E+08         0.58938E+06         0.00000E+00
    0.58938E+06        -0.97480E+08         0.00000E+00
    0.00000E+00         0.00000E+00        -0.49021E+08
 
   -0.48848E+08         0.61822E+06         0.00000E+00
    0.61822E+06        -0.97475E+08         0.00000E+00
    0.00000E+00         0.00000E+00        -0.48962E+08
 
   -0.48781E+08         0.64819E+06         0.00000E+00
    0.64819E+06        -0.97471E+08         0.00000E+00
    0.00000E+00         0.00000E+00        -0.48900E+08
 
   -0.48711E+08         0.67931E+06         0.00000E+00
    0.67931E+06        -0.97466E+08         0.00000E+00
    0.00000E+00         0.00000E+00        -0.48834E+08
 
   -0.48637E+08         0.71159E+06         0.00000E+00
    0.71159E+06        -0.97461E+08         0.00000E+00
    0.00000E+00         0.00000E+00        -0.48765E+08
 
   -0.48559E+08         0.74505E+06         0.00000E+00
    0.74505E+06        -0.97457E+08         0.00000E+00
    0.00000E+00         0.00000E+00        -0.48692E+08
 
   -0.48477E+08         0.77970E+06         0.00000E+00
    0.77970E+06        -0.97452E+08         0.00000E+00
    0.00000E+00         0.00000E+00        -0.48615E+08
 
   -0.48391E+08         0.81553E+06         0.00000E+00
    0.81553E+06        -0.97447E+08         0.00000E+00
    0.00000E+00         0.00000E+00        -0.48534E+08
 
   -0.48301E+08         0.85254E+06         0.00000E+00
    0.85254E+06        -0.97443E+08         0.00000E+00
    0.00000E+00         0.00000E+00        -0.48449E+08
 
   -0.48206E+08         0.89073E+06         0.00000E+00
    0.89073E+06        -0.97438E+08         0.00000E+00
    0.00000E+00         0.00000E+00        -0.48359E+08
 
   -0.48107E+08         0.93009E+06         0.00000E+00
    0.93009E+06        -0.97434E+08         0.00000E+00
    0.00000E+00         0.00000E+00        -0.48264E+08
 
   -0.48003E+08         0.97060E+06         0.00000E+00
    0.97060E+06        -0.97429E+08         0.00000E+00
    0.00000E+00         0.00000E+00        -0.48165E+08
 
   -0.47894E+08         0.10122E+07         0.00000E+00
    0.10122E+07        -0.97425E+08         0.00000E+00
    0.00000E+00         0.00000E+00        -0.48060E+08
 
   -0.47779E+08         0.10549E+07         0.00000E+00
    0.10549E+07        -0.97421E+08         0.00000E+00
    0.00000E+00         0.00000E+00        -0.47950E+08
 
   -0.47660E+08         0.10987E+07         0.00000E+00
    0.10987E+07        -0.97418E+08         0.00000E+00
    0.00000E+00         0.00000E+00        -0.47835E+08
 
   -0.47534E+08         0.11434E+07         0.00000E+00
    0.11434E+07        -0.97414E+08         0.00000E+00
    0.00000E+00         0.00000E+00        -0.47714E+08
 
   -0.47403E+08         0.11891E+07         0.00000E+00
    0.11891E+07        -0.97411E+08         0.00000E+00
    0.00000E+00         0.00000E+00        -0.47587E+08
 
   -0.47266E+08         0.12356E+07         0.00000E+00
    0.12356E+07        -0.97409E+08         0.00000E+00
    0.00000E+00         0.00000E+00        -0.47454E+08
 
   -0.47123E+08         0.12829E+07         0.00000E+00
    0.12829E+07        -0.97407E+08         0.00000E+00
    0.00000E+00         0.00000E+00        -0.47314E+08
 
   -0.46973E+08         0.13308E+07         0.00000E+00
    0.13308E+07        -0.97405E+08         0.00000E+00
    0.00000E+00         0.00000E+00        -0.47167E+08
 
   -0.46817E+08         0.13793E+07         0.00000E+00
    0.13793E+07        -0.97405E+08         0.00000E+00
    0.00000E+00         0.00000E+00        -0.47014E+08
 
   -0.46654E+08         0.14281E+07         0.00000E+00
    0.14281E+07        -0.97404E+08         0.00000E+00
    0.00000E+00         0.00000E+00        -0.46853E+08
 
   -0.46485E+08         0.14772E+07         0.00000E+00
    0.14772E+07        -0.97405E+08         0.00000E+00
    0.00000E+00         0.00000E+00        -0.46685E+08
 
   -0.46308E+08         0.15263E+07         0.00000E+00
    0.15263E+07        -0.97407E+08         0.00000E+00
    0.00000E+00         0.00000E+00        -0.46510E+08
 
   -0.46125E+08         0.15753E+07         0.00000E+00
    0.15753E+07        -0.97410E+08         0.00000E+00
    0.00000E+00         0.00000E+00        -0.46326E+08
 
   -0.45934E+08         0.16239E+07         0.00000E+00
    0.16239E+07        -0.97413E+08         0.00000E+00
    0.00000E+00         0.00000E+00        -0.46135E+08
 
   -0.45735E+08         0.16718E+07         0.00000E+00
    0.16718E+07        -0.97419E+08         0.00000E+00
    0.00000E+00         0.00000E+00        -0.45935E+08
 
   -0.45530E+08         0.17189E+07         0.00000E+00
    0.17189E+07        -0.97425E+08         0.00000E+00
    0.00000E+00         0.00000E+00        -0.45726E+08
 
   -0.45316E+08         0.17647E+07         0.00000E+00
    0.17647E+07        -0.97434E+08         0.00000E+00
    0.00000E+00         0.00000E+00        -0.45509E+08
 
   -0.45095E+08         0.18089E+07         0.00000E+00
    0.18089E+07        -0.97444E+08         0.00000E+00
    0.00000E+00         0.00000E+00        -0.45283E+08
 
   -0.44866E+08         0.18512E+07         0.00000E+00
    0.18512E+07        -0.97456E+08         0.00000E+00
    0.00000E+00         0.00000E+00        -0.45047E+08
 
   -0.44629E+08         0.18910E+07         0.00000E+00
    0.18910E+07        -0.97471E+08         0.00000E+00
    0.00000E+00         0.00000E+00        -0.44803E+08
 
   -0.44385E+08         0.19280E+07         0.00000E+00
    0.19280E+07        -0.97487E+08         0.00000E+00
    0.00000E+00         0.00000E+00        -0.44548E+08
 
   -0.44132E+08         0.19616E+07         0.00000E+00
    0.19616E+07        -0.97507E+08         0.00000E+00
    0.00000E+00         0.00000E+00        -0.44284E+08
 
   -0.43872E+08         0.19914E+07         0.00000E+00
    0.19914E+07        -0.97530E+08         0.00000E+00
    0.00000E+00         0.00000E+00        -0.44011E+08
 
   -0.43604E+08         0.20166E+07         0.00000E+00
    0.20166E+07        -0.97556E+08         0.00000E+00
    0.00000E+00         0.00000E+00        -0.43727E+08
 
   -0.43328E+08         0.20367E+07         0.00000E+00
    0.20367E+07        -0.97586E+08         0.00000E+00
    0.00000E+00         0.00000E+00        -0.43433E+08
 
   -0.43045E+08         0.20511E+07         0.00000E+00
    0.20511E+07        -0.97619E+08         0.00000E+00
    0.00000E+00         0.00000E+00        -0.43129E+08
 
   -0.42754E+08         0.20590E+07         0.00000E+00
    0.20590E+07        -0.97657E+08         0.00000E+00
    0.00000E+00         0.00000E+00        -0.42816E+08
 
   -0.42456E+08         0.20597E+07         0.00000E+00
    0.20597E+07        -0.97699E+08         0.00000E+00
    0.00000E+00         0.00000E+00        -0.42492E+08
 
   -0.42151E+08         0.20525E+07         0.00000E+00
    0.20525E+07        -0.97746E+08         0.00000E+00
    0.00000E+00         0.00000E+00        -0.42158E+08
 
   -0.41838E+08         0.20367E+07         0.00000E+00
    0.20367E+07        -0.97797E+08         0.00000E+00
    0.00000E+00         0.00000E+00        -0.41814E+08
 
   -0.41519E+08         0.20115E+07         0.00000E+00
    0.20115E+07        -0.97853E+08         0.00000E+00
    0.00000E+00         0.00000E+00        -0.41460E+08
 
   -0.41192E+08         0.19762E+07         0.00000E+00
    0.19762E+07        -0.97913E+08         0.00000E+00
    0.00000E+00         0.00000E+00        -0.41097E+08
 
   -0.40860E+08         0.19303E+07         0.00000E+00
    0.19303E+07        -0.97977E+08         0.00000E+00
    0.00000E+00         0.00000E+00        -0.40724E+08
 
   -0.40520E+08         0.18732E+07         0.00000E+00
    0.18732E+07        -0.98044E+08         0.00000E+00
    0.00000E+00         0.00000E+00        -0.40343E+08
 
   -0.40175E+08         0.18043E+07         0.00000E+00
    0.18043E+07        -0.98112E+08         0.00000E+00
    0.00000E+00         0.00000E+00        -0.39952E+08
 
   -0.39825E+08         0.17233E+07         0.00000E+00
    0.17233E+07        -0.98179E+08         0.00000E+00
    0.00000E+00         0.00000E+00        -0.39553E+08
 
   -0.39470E+08         0.16299E+07         0.00000E+00
    0.16299E+07        -0.98242E+08         0.00000E+00
    0.00000E+00         0.00000E+00        -0.39146E+08
 
   -0.39111E+08         0.15239E+07         0.00000E+00
    0.15239E+07        -0.98297E+08         0.00000E+00
    0.00000E+00         0.00000E+00        -0.38731E+08
 
   -0.38750E+08         0.14050E+07         0.00000E+00
    0.14050E+07        -0.98338E+08         0.00000E+00
    0.00000E+00         0.00000E+00        -0.38310E+08
 
   -0.38391E+08         0.12729E+07         0.00000E+00
    0.12729E+07        -0.98357E+08         0.00000E+00
    0.00000E+00         0.00000E+00        -0.37882E+08
 
   -0.38038E+08         0.11266E+07         0.00000E+00
    0.11266E+07        -0.98346E+08         0.00000E+00
    0.00000E+00         0.00000E+00        -0.37449E+08
 
   -0.37697E+08         0.96447E+06         0.00000E+00
    0.96447E+06        -0.98293E+08         0.00000E+00
    0.00000E+00         0.00000E+00        -0.37010E+08
 
   -0.37380E+08         0.78366E+06         0.00000E+00
    0.78366E+06        -0.98184E+08         0.00000E+00
    0.00000E+00         0.00000E+00        -0.36568E+08
 
   -0.37103E+08         0.58094E+06         0.00000E+00
    0.58094E+06        -0.98003E+08         0.00000E+00
    0.00000E+00         0.00000E+00        -0.36122E+08
 
   -0.36892E+08         0.35701E+06         0.00000E+00
    0.35701E+06        -0.97734E+08         0.00000E+00
    0.00000E+00         0.00000E+00        -0.35674E+08
 
   -0.36777E+08         0.12015E+06         0.00000E+00
    0.12015E+06        -0.97371E+08         0.00000E+00
    0.00000E+00         0.00000E+00        -0.35225E+08
 
   -0.49942E+08         0.46310E+04         0.00000E+00
    0.46310E+04        -0.97582E+08         0.00000E+00
    0.00000E+00         0.00000E+00        -0.49995E+08
 
   -0.49940E+08         0.13875E+05         0.00000E+00
    0.13875E+05        -0.97575E+08         0.00000E+00
    0.00000E+00         0.00000E+00        -0.49986E+08
 
   -0.49935E+08         0.23005E+05         0.00000E+00
    0.23005E+05        -0.97569E+08         0.00000E+00
    0.00000E+00         0.00000E+00        -0.49977E+08
 
   -0.49929E+08         0.31905E+05         0.00000E+00
    0.31905E+05        -0.97565E+08         0.00000E+00
    0.00000E+00         0.00000E+00        -0.49968E+08
 
   -0.49922E+08         0.40568E+05         0.00000E+00
    0.40568E+05        -0.97563E+08         0.00000E+00
    0.00000E+00         0.00000E+00        -0.49958E+08
 
   -0.49913E+08         0.49058E+05         0.00000E+00
    0.49058E+05        -0.97561E+08         0.00000E+00
    0.00000E+00         0.00000E+00        -0.49949E+08
 
   -0.49904E+08         0.57442E+05         0.00000E+00
    0.57442E+05        -0.97560E+08         0.00000E+00
    0.00000E+00         0.00000E+00        -0.49939E+08
 
   -0.49895E+08         0.65771E+05         0.00000E+00
    0.65771E+05        -0.97560E+08         0.00000E+00
    0.00000E+00         0.00000E+00        -0.49929E+08
 
   -0.49885E+08         0.74082E+05         0.00000E+00
    0.74082E+05        -0.97560E+08         0.00000E+00
    0.00000E+00         0.00000E+00        -0.49919E+08
 
   -0.49874E+08         0.82404E+05         0.00000E+00
    0.82404E+05        -0.97560E+08         0.00000E+00
    0.00000E+00         0.00000E+00        -0.49908E+08
 
   -0.49863E+08         0.90764E+05         0.00000E+00
    0.90764E+05        -0.97560E+08         0.00000E+00
    0.00000E+00         0.00000E+00        -0.49897E+08
 
   -0.49851E+08         0.99190E+05         0.00000E+00
    0.99190E+05        -0.97560E+08         0.00000E+00
    0.00000E+00         0.00000E+00        -0.49886E+08
 
   -0.49839E+08         0.10771E+06         0.00000E+00
    0.10771E+06        -0.97560E+08         0.00000E+00
    0.00000E+00         0.00000E+00        -0.49874E+08
 
   -0.49826E+08         0.11635E+06         0.00000E+00
    0.11635E+06        -0.97560E+08         0.00000E+00
    0.00000E+00         0.00000E+00        -0.49862E+08
 
   -0.49812E+08         0.12515E+06         0.00000E+00
    0.12515E+06        -0.97560E+08         0.00000E+00
    0.00000E+00         0.00000E+00        -0.49849E+08
 
   -0.49798E+08         0.13414E+06         0.00000E+00
    0.13414E+06        -0.97559E+08         0.00000E+00
    0.00000E+00         0.00000E+00        -0.49835E+08
 
   -0.49782E+08         0.14336E+06         0.00000E+00
    0.14336E+06        -0.97559E+08         0.00000E+00
    0.00000E+00         0.00000E+00        -0.49821E+08
 
   -0.49766E+08         0.15283E+06         0.00000E+00
    0.15283E+06        -0.97558E+08         0.00000E+00
    0.00000E+00         0.00000E+00        -0.49807E+08
 
   -0.49749E+08         0.16260E+06         0.00000E+00
    0.16260E+06        -0.97557E+08         0.00000E+00
    0.00000E+00         0.00000E+00        -0.49791E+08
 
   -0.49732E+08         0.17271E+06         0.00000E+00
    0.17271E+06        -0.97555E+08         0.00000E+00
    0.00000E+00         0.00000E+00        -0.49775E+08
 
   -0.49713E+08         0.18319E+06         0.00000E+00
    0.18319E+06        -0.97554E+08         0.00000E+00
    0.00000E+00         0.00000E+00        -0.49758E+08
 
   -0.49693E+08         0.19407E+06         0.00000E+00
    0.19407E+06        -0.97552E+08         0.00000E+00
    0.00000E+00         0.00000E+00        -0.49740E+08
 
   -0.49672E+08         0.20540E+06         0.00000E+00
    0.20540E+06        -0.97551E+08         0.00000E+00
    0.00000E+00         0.00000E+00        -0.49721E+08
 
   -0.49650E+08         0.21721E+06         0.00000E+00
    0.21721E+06        -0.97549E+08         0.00000E+00
    0.00000E+00         0.00000E+00        -0.49702E+08
 
   -0.49627E+08         0.22953E+06         0.00000E+00
    0.22953E+06        -0.97547E+08         0.00000E+00
    0.00000E+00         0.00000E+00        -0.49681E+08
 
   -0.49602E+08         0.24240E+06         0.00000E+00
    0.24240E+06        -0.97544E+08         0.00000E+00
    0.00000E+00         0.00000E+00        -0.49659E+08
 
   -0.49576E+08         0.25585E+06         0.00000E+00
    0.25585E+06        -0.97542E+08         0.00000E+00
    0.00000E+00         0.00000E+00        -0.49635E+08
 
   -0.49548E+08         0.26993E+06         0.00000E+00
    0.26993E+06        -0.97539E+08         0.00000E+00
    0.00000E+00         0.00000E+00        -0.49611E+08
 
   -0.49519E+08         0.28465E+06         0.00000E+00
    0.28465E+06        -0.97536E+08         0.00000E+00
    0.00000E+00         0.00000E+00        -0.49585E+08
 
   -0.49489E+08         0.30006E+06         0.00000E+00
    0.30006E+06        -0.97534E+08         0.00000E+00
    0.00000E+00         0.00000E+00        -0.49557E+08
 
   -0.49457E+08         0.31619E+06         0.00000E+00
    0.31619E+06        -0.97531E+08         0.00000E+00
    0.00000E+00         0.00000E+00        -0.49528E+08
 
   -0.49422E+08         0.33306E+06         0.00000E+00
    0.33306E+06        -0.97528E+08         0.00000E+00
    0.00000E+00         0.00000E+00        -0.49497E+08
 
   -0.49386E+08         0.35072E+06         0.00000E+00
    0.35072E+06        -0.97524E+08         0.00000E+00
    0.00000E+00         0.00000E+00        -0.49465E+08
 
   -0.49349E+08         0.36919E+06         0.00000E+00
    0.36919E+06        -0.97521E+08         0.00000E+00
    0.00000E+00         0.00000E+00        -0.49431E+08
 
   -0.49308E+08         0.38851E+06         0.00000E+00
    0.38851E+06        -0.97517E+08         0.00000E+00
    0.00000E+00         0.00000E+00        -0.49395E+08
 
   -0.49266E+08         0.40870E+06         0.00000E+00
    0.40870E+06        -0.97514E+08         0.00000E+00
    0.00000E+00         0.00000E+00        -0.49356E+08
 
   -0.49222E+08         0.42980E+06         0.00000E+00
    0.42980E+06        -0.97510E+08         0.00000E+00
    0.00000E+00         0.00000E+00        -0.49316E+08
 
   -0.49175E+08         0.45183E+06         0.00000E+00
    0.45183E+06        -0.97506E+08         0.00000E+00
    0.00000E+00         0.00000E+00        -0.49273E+08
 
   -0.49125E+08         0.47482E+06         0.00000E+00
    0.47482E+06        -0.97502E+08         0.00000E+00
    0.00000E+00         0.00000E+00        -0.49228E+08
 
   -0.49073E+08         0.49880E+06         0.00000E+00
    0.49880E+06        -0.97498E+08         0.00000E+00
    0.00000E+00         0.00000E+00        -0.49181E+08
 
   -0.49018E+08         0.52380E+06         0.00000E+00
    0.52380E+06        -0.97494E+08         0.00000E+00
    0.00000E+00         0.00000E+00        -0.49130E+08
 
   -0.48960E+08         0.54984E+06         0.00000E+00
    0.54984E+06        -0.97490E+08         0.00000E+00
    0.00000E+00         0.00000E+00        -0.49077E+08
 
   -0.48900E+08         0.57694E+06         0.00000E+00
    0.57694E+06        -0.97486E+08         0.00000E+00
    0.00000E+00         0.00000E+00        -0.49021E+08
 
   -0.48835E+08         0.60513E+06         0.00000E+00
    0.60513E+06        -0.97481E+08         0.00000E+00
    0.00000E+00         0.00000E+00        -0.48962E+08
 
   -0.48768E+08         0.63441E+06         0.00000E+00
    0.63441E+06        -0.97477E+08         0.00000E+00
    0.00000E+00         0.00000E+00        -0.48900E+08
 
   -0.48697E+08         0.66482E+06         0.00000E+00
    0.66482E+06        -0.97472E+08         0.00000E+00
    0.00000E+00         0.00000E+00        -0.48834E+08
 
   -0.48623E+08         0.69636E+06         0.00000E+00
    0.69636E+06        -0.97468E+08         0.00000E+00
    0.00000E+00         0.00000E+00        -0.48765E+08
 
   -0.48544E+08         0.72904E+06         0.00000E+00
    0.72904E+06        -0.97463E+08         0.00000E+00
    0.00000E+00         0.00000E+00        -0.48692E+08
 
   -0.48462E+08         0.76288E+06         0.00000E+00
    0.76288E+06        -0.97459E+08         0.00000E+00
    0.00000E+00         0.00000E+00        -0.48615E+08
 
   -0.48375E+08         0.79786E+06         0.00000E+00
    0.79786E+06        -0.97454E+08         0.00000E+00
    0.00000E+00         0.00000E+00        -0.48534E+08
 
   -0.48285E+08         0.83400E+06         0.00000E+00
    0.83400E+06        -0.97450E+08         0.00000E+00
    0.00000E+00         0.00000E+00        -0.48449E+08
 
   -0.48189E+08         0.87128E+06         0.00000E+00
    0.87128E+06        -0.97446E+08         0.00000E+00
    0.00000E+00         0.00000E+00        -0.48359E+08
 
   -0.48090E+08         0.90969E+06         0.00000E+00
    0.90969E+06        -0.97442E+08         0.00000E+00
    0.00000E+00         0.00000E+00        -0.48264E+08
 
   -0.47985E+08         0.94921E+06         0.00000E+00
    0.94921E+06        -0.97437E+08         0.00000E+00
    0.00000E+00         0.00000E+00        -0.48165E+08
 
   -0.47875E+08         0.98982E+06         0.00000E+00
    0.98982E+06        -0.97434E+08         0.00000E+00
    0.00000E+00         0.00000E+00        -0.48060E+08
 
   -0.47760E+08         0.10315E+07         0.00000E+00
    0.10315E+07        -0.97430E+08         0.00000E+00
    0.00000E+00         0.00000E+00        -0.47950E+08
 
   -0.47640E+08         0.10741E+07         0.00000E+00
    0.10741E+07        -0.97426E+08         0.00000E+00
    0.00000E+00         0.00000E+00        -0.47835E+08
 
   -0.47514E+08         0.11177E+07         0.00000E+00
    0.11177E+07        -0.97423E+08         0.00000E+00
    0.00000E+00         0.00000E+00        -0.47714E+08
 
   -0.47382E+08         0.11622E+07         0.00000E+00
    0.11622E+07        -0.97421E+08         0.00000E+00
    0.00000E+00         0.00000E+00        -0.47587E+08
 
   -0.47245E+08         0.12076E+07         0.00000E+00
    0.12076E+07        -0.97418E+08         0.00000E+00
    0.00000E+00         0.00000E+00        -0.47454E+08
 
   -0.47101E+08         0.12536E+07         0.00000E+00
    0.12536E+07        -0.97416E+08         0.00000E+00
    0.00000E+00         0.00000E+00        -0.47314E+08
 
   -0.46951E+08         0.13002E+07         0.00000E+00
    0.13002E+07        -0.97415E+08         0.00000E+00
    0.00000E+00         0.00000E+00        -0.47167E+08
 
   -0.46795E+08         0.13474E+07         0.00000E+00
    0.13474E+07        -0.97414E+08         0.00000E+00
    0.00000E+00         0.00000E+00        -0.47014E+08
 
   -0.46632E+08         0.13949E+07         0.00000E+00
    0.13949E+07        -0.97414E+08         0.00000E+00
    0.00000E+00         0.00000E+00        -0.46853E+08
 
   -0.46462E+08         0.14426E+07         0.00000E+00
    0.14426E+07        -0.97415E+08         0.00000E+00
    0.00000E+00         0.00000E+00        -0.46685E+08
 
   -0.46286E+08         0.14903E+07         0.00000E+00
    0.14903E+07        -0.97417E+08         0.00000E+00
    0.00000E+00         0.00000E+00        -0.46510E+08
 
   -0.46102E+08         0.15378E+07         0.00000E+00
    0.15378E+07        -0.97419E+08         0.00000E+00
    0.00000E+00         0.00000E+00        -0.46326E+08
 
   -0.45911E+08         0.15850E+07         0.00000E+00
    0.15850E+07        -0.97423E+08         0.00000E+00
    0.00000E+00         0.00000E+00        -0.46135E+08
 
   -0.45713E+08         0.16315E+07         0.00000E+00
    0.16315E+07        -0.97428E+08         0.00000E+00
    0.00000E+00         0.00000E+00        -0.45935E+08
 
   -0.45507E+08         0.16770E+07         0.00000E+00
    0.16770E+07        -0.97434E+08         0.00000E+00
    0.00000E+00         0.00000E+00        -0.45726E+08
 
   -0.45294E+08         0.17213E+07         0.00000E+00
    0.17213E+07        -0.97443E+08         0.00000E+00
    0.00000E+00         0.00000E+00        -0.45509E+08
 
   -0.45074E+08         0.17640E+07         0.00000E+00
    0.17640E+07        -0.97452E+08         0.00000E+00
    0.00000E+00         0.00000E+00        -0.45283E+08
 
   -0.44845E+08         0.18047E+07         0.00000E+00
    0.18047E+07        -0.97464E+08         0.00000E+00
    0.00000E+00         0.00000E+00        -0.45047E+08
 
   -0.44610E+08         0.18430E+07         0.00000E+00
    0.18430E+07        -0.97478E+08         0.00000E+00
    0.00000E+00         0.00000E+00        -0.44803E+08
 
   -0.44366E+08         0.18784E+07         0.00000E+00
    0.18784E+07        -0.97494E+08         0.00000E+00
    0.00000E+00         0.00000E+00        -0.44548E+08
 
   -0.44115E+08         0.19105E+07         0.00000E+00
    0.19105E+07        -0.97513E+08         0.00000E+00
    0.00000E+00         0.00000E+00        -0.44284E+08
 
   -0.43856E+08         0.19387E+07         0.00000E+00
    0.19387E+07        -0.97535E+08         0.00000E+00
    0.00000E+00         0.00000E+00        -0.44011E+08
 
   -0.43590E+08         0.19624E+07         0.00000E+00
    0.19624E+07        -0.97560E+08         0.00000E+00
    0.00000E+00         0.00000E+00        -0.43727E+08
 
   -0.43316E+08         0.19810E+07         0.00000E+00
    0.19810E+07        -0.97589E+08         0.00000E+00
    0.00000E+00         0.00000E+00        -0.43433E+08
 
   -0.43036E+08         0.19939E+07         0.00000E+00
    0.19939E+07        -0.97621E+08         0.00000E+00
    0.00000E+00         0.00000E+00        -0.43129E+08
 
   -0.42747E+08         0.20003E+07         0.00000E+00
    0.20003E+07        -0.97658E+08         0.00000E+00
    0.00000E+00         0.00000E+00        -0.42816E+08
 
   -0.42452E+08         0.19996E+07         0.00000E+00
    0.19996E+07        -0.97698E+08         0.00000E+00
    0.00000E+00         0.00000E+00        -0.42492E+08
 
   -0.42150E+08         0.19910E+07         0.00000E+00
    0.19910E+07        -0.97743E+08         0.00000E+00
    0.00000E+00         0.00000E+00        -0.42158E+08
 
   -0.41841E+08         0.19738E+07         0.00000E+00
    0.19738E+07        -0.97793E+08         0.00000E+00
    0.00000E+00         0.00000E+00        -0.41814E+08
 
   -0.41526E+08         0.19473E+07         0.00000E+00
    0.19473E+07        -0.97847E+08         0.00000E+00
    0.00000E+00         0.00000E+00        -0.41460E+08
 
   -0.41204E+08         0.19108E+07         0.00000E+00
    0.19108E+07        -0.97905E+08         0.00000E+00
    0.00000E+00         0.00000E+00        -0.41097E+08
 
   -0.40876E+08         0.18636E+07         0.00000E+00
    0.18636E+07        -0.97967E+08         0.00000E+00
    0.00000E+00         0.00000E+00        -0.40724E+08
 
   -0.40542E+08         0.18053E+07         0.00000E+00
    0.18053E+07        -0.98031E+08         0.00000E+00
    0.00000E+00         0.00000E+00        -0.40343E+08
 
   -0.40203E+08         0.17353E+07         0.00000E+00
    0.17353E+07        -0.98097E+08         0.00000E+00
    0.00000E+00         0.00000E+00        -0.39952E+08
 
   -0.39858E+08         0.16533E+07         0.00000E+00
    0.16533E+07        -0.98161E+08         0.00000E+00
    0.00000E+00         0.00000E+00        -0.39553E+08
 
   -0.39510E+08         0.15591E+07         0.00000E+00
    0.15591E+07        -0.98222E+08         0.00000E+00
    0.00000E+00         0.00000E+00        -0.39146E+08
 
   -0.39158E+08         0.14526E+07         0.00000E+00
    0.14526E+07        -0.98274E+08         0.00000E+00
    0.00000E+00         0.00000E+00        -0.38731E+08
 
   -0.38805E+08         0.13337E+07         0.00000E+00
    0.13337E+07        -0.98312E+08         0.00000E+00
    0.00000E+00         0.00000E+00        -0.38310E+08
 
   -0.38455E+08         0.12023E+07         0.00000E+00
    0.12023E+07        -0.98330E+08         0.00000E+00
    0.00000E+00         0.00000E+00        -0.37882E+08
 
   -0.38111E+08         0.10578E+07         0.00000E+00
    0.10578E+07        -0.98316E+08         0.00000E+00
    0.00000E+00         0.00000E+00        -0.37449E+08
 
   -0.37781E+08         0.89926E+06         0.00000E+00
    0.89926E+06        -0.98260E+08         0.00000E+00
    0.00000E+00         0.00000E+00        -0.37010E+08
 
   -0.37477E+08         0.72475E+06         0.00000E+00
    0.72475E+06        -0.98147E+08         0.00000E+00
    0.00000E+00         0.00000E+00        -0.36568E+08
 
   -0.37214E+08         0.53258E+06         0.00000E+00
    0.53258E+06        -0.97961E+08         0.00000E+00
    0.00000E+00         0.00000E+00        -0.36122E+08
 
   -0.37018E+08         0.32484E+06         0.00000E+00
    0.32484E+06        -0.97689E+08         0.00000E+00
    0.00000E+00         0.00000E+00        -0.35674E+08
 
   -0.36912E+08         0.10887E+06         0.00000E+00
    0.10887E+06        -0.97326E+08         0.00000E+00
    0.00000E+00         0.00000E+00        -0.35225E+08
 
   -0.49938E+08         0.43925E+04         0.00000E+00
    0.43925E+04        -0.97584E+08         0.00000E+00
    0.00000E+00         0.00000E+00        -0.49995E+08
 
   -0.49935E+08         0.13184E+05         0.00000E+00
    0.13184E+05        -0.97577E+08         0.00000E+00
    0.00000E+00         0.00000E+00        -0.49986E+08
 
   -0.49931E+08         0.21935E+05         0.00000E+00
    0.21935E+05        -0.97571E+08         0.00000E+00
    0.00000E+00         0.00000E+00        -0.49977E+08
 
   -0.49925E+08         0.30552E+05         0.00000E+00
    0.30552E+05        -0.97567E+08         0.00000E+00
    0.00000E+00         0.00000E+00        -0.49968E+08
 
   -0.49918E+08         0.39007E+05         0.00000E+00
    0.39007E+05        -0.97565E+08         0.00000E+00
    0.00000E+00         0.00000E+00        -0.49958E+08
 
   -0.49910E+08         0.47337E+05         0.00000E+00
    0.47337E+05        -0.97563E+08         0.00000E+00
    0.00000E+00         0.00000E+00        -0.49949E+08
 
   -0.49901E+08         0.55590E+05         0.00000E+00
    0.55590E+05        -0.97562E+08         0.00000E+00
    0.00000E+00         0.00000E+00        -0.49939E+08
 
   -0.49891E+08         0.63803E+05         0.00000E+00
    0.63803E+05        -0.97562E+08         0.00000E+00
    0.00000E+00         0.00000E+00        -0.49929E+08
 
   -0.49881E+08         0.72005E+05         0.00000E+00
    0.72005E+05        -0.97562E+08         0.00000E+00
    0.00000E+00         0.00000E+00        -0.49919E+08
 
   -0.49871E+08         0.80218E+05         0.00000E+00
    0.80218E+05        -0.97562E+08         0.00000E+00
    0.00000E+00         0.00000E+00        -0.49908E+08
 
   -0.49859E+08         0.88466E+05         0.00000E+00
    0.88466E+05        -0.97562E+08         0.00000E+00
    0.00000E+00         0.00000E+00        -0.49897E+08
 
   -0.49848E+08         0.96774E+05         0.00000E+00
    0.96774E+05        -0.97562E+08         0.00000E+00
    0.00000E+00         0.00000E+00        -0.49886E+08
 
   -0.49835E+08         0.10517E+06         0.00000E+00
    0.10517E+06        -0.97562E+08         0.00000E+00
    0.00000E+00         0.00000E+00        -0.49874E+08
 
   -0.49822E+08         0.11368E+06         0.00000E+00
    0.11368E+06        -0.97562E+08         0.00000E+00
    0.00000E+00         0.00000E+00        -0.49862E+08
 
   -0.49808E+08         0.12234E+06         0.00000E+00
    0.12234E+06        -0.97562E+08         0.00000E+00
    0.00000E+00         0.00000E+00        -0.49849E+08
 
   -0.49794E+08         0.13117E+06         0.00000E+00
    0.13117E+06        -0.97561E+08         0.00000E+00
    0.00000E+00         0.00000E+00        -0.49835E+08
 
   -0.49778E+08         0.14023E+06         0.00000E+00
    0.14023E+06        -0.97561E+08         0.00000E+00
    0.00000E+00         0.00000E+00        -0.49821E+08
 
   -0.49762E+08         0.14953E+06         0.00000E+00
    0.14953E+06        -0.97560E+08         0.00000E+00
    0.00000E+00         0.00000E+00        -0.49807E+08
 
   -0.49745E+08         0.15912E+06         0.00000E+00
    0.15912E+06        -0.97559E+08         0.00000E+00
    0.00000E+00         0.00000E+00        -0.49791E+08
 
   -0.49727E+08         0.16904E+06         0.00000E+00
    0.16904E+06        -0.97558E+08         0.00000E+00
    0.00000E+00         0.00000E+00        -0.49775E+08
 
   -0.49708E+08         0.17931E+06         0.00000E+00
    0.17931E+06        -0.97556E+08         0.00000E+00
    0.00000E+00         0.00000E+00        -0.49758E+08
 
   -0.49688E+08         0.18998E+06         0.00000E+00
    0.18998E+06        -0.97555E+08         0.00000E+00
    0.00000E+00         0.00000E+00        -0.49740E+08
 
   -0.49667E+08         0.20108E+06         0.00000E+00
    0.20108E+06        -0.97553E+08         0.00000E+00
    0.00000E+00         0.00000E+00        -0.49721E+08
 
   -0.49645E+08         0.21264E+06         0.00000E+00
    0.21264E+06        -0.97551E+08         0.00000E+00
    0.00000E+00         0.00000E+00        -0.49702E+08
 
   -0.49621E+08         0.22471E+06         0.00000E+00
    0.22471E+06        -0.97549E+08         0.00000E+00
    0.00000E+00         0.00000E+00        -0.49681E+08
 
   -0.49596E+08         0.23731E+06         0.00000E+00
    0.23731E+06        -0.97547E+08         0.00000E+00
    0.00000E+00         0.00000E+00        -0.49659E+08
 
   -0.49570E+08         0.25048E+06         0.00000E+00
    0.25048E+06        -0.97545E+08         0.00000E+00
    0.00000E+00         0.00000E+00        -0.49635E+08
 
   -0.49542E+08         0.26425E+06         0.00000E+00
    0.26425E+06        -0.97542E+08         0.00000E+00
    0.00000E+00         0.00000E+00        -0.49611E+08
 
   -0.49513E+08         0.27866E+06         0.00000E+00
    0.27866E+06        -0.97539E+08         0.00000E+00
    0.00000E+00         0.00000E+00        -0.49585E+08
 
   -0.49482E+08         0.29374E+06         0.00000E+00
    0.29374E+06        -0.97537E+08         0.00000E+00
    0.00000E+00         0.00000E+00        -0.49557E+08
 
   -0.49449E+08         0.30952E+06         0.00000E+00
    0.30952E+06        -0.97534E+08         0.00000E+00
    0.00000E+00         0.00000E+00        -0.49528E+08
 
   -0.49415E+08         0.32602E+06         0.00000E+00
    0.32602E+06        -0.97531E+08         0.00000E+00
    0.00000E+00         0.00000E+00        -0.49497E+08
 
   -0.49379E+08         0.34330E+06         0.00000E+00
    0.34330E+06        -0.97528E+08         0.00000E+00
    0.00000E+00         0.00000E+00        -0.49465E+08
 
   -0.49340E+08         0.36136E+06         0.00000E+00
    0.36136E+06        -0.97525E+08         0.00000E+00
    0.00000E+00         0.00000E+00        -0.49431E+08
 
   -0.49300E+08         0.38025E+06         0.00000E+00
    0.38025E+06        -0.97521E+08         0.00000E+00
    0.00000E+00         0.00000E+00        -0.49395E+08
 
   -0.49257E+08         0.39999E+06         0.00000E+00
    0.39999E+06        -0.97518E+08         0.00000E+00
    0.00000E+00         0.00000E+00        -0.49356E+08
 
   -0.49212E+08         0.42061E+06         0.00000E+00
    0.42061E+06        -0.97514E+08         0.00000E+00
    0.00000E+00         0.00000E+00        -0.49316E+08
 
   -0.49165E+08         0.44215E+06         0.00000E+00
    0.44215E+06        -0.97511E+08         0.00000E+00
    0.00000E+00         0.00000E+00        -0.49273E+08
 
   -0.49115E+08         0.46462E+06         0.00000E+00
    0.46462E+06        -0.97507E+08         0.00000E+00
    0.00000E+00         0.00000E+00        -0.49228E+08
 
   -0.49062E+08         0.48806E+06         0.00000E+00
    0.48806E+06        -0.97503E+08         0.00000E+00
    0.00000E+00         0.00000E+00        -0.49181E+08
 
   -0.49007E+08         0.51249E+06         0.00000E+00
    0.51249E+06        -0.97499E+08         0.00000E+00
    0.00000E+00         0.00000E+00        -0.49130E+08
 
   -0.48949E+08         0.53793E+06         0.00000E+00
    0.53793E+06        -0.97495E+08         0.00000E+00
    0.00000E+00         0.00000E+00        -0.49077E+08
 
   -0.48887E+08         0.56440E+06         0.00000E+00
    0.56440E+06        -0.97491E+08         0.00000E+00
    0.00000E+00         0.00000E+00        -0.49021E+08
 
   -0.48823E+08         0.59193E+06         0.00000E+00
    0.59193E+06        -0.97487E+08         0.00000E+00
    0.00000E+00         0.00000E+00        -0.48962E+08
 
   -0.48755E+08         0.62054E+06         0.00000E+00
    0.62054E+06        -0.97483E+08         0.00000E+00
    0.00000E+00         0.00000E+00        -0.48900E+08
 
   -0.48683E+08         0.65023E+06         0.00000E+00
    0.65023E+06        -0.97478E+08         0.00000E+00
    0.00000E+00         0.00000E+00        -0.48834E+08
 
   -0.48608E+08         0.68102E+06         0.00000E+00
    0.68102E+06        -0.97474E+08         0.00000E+00
    0.00000E+00         0.00000E+00        -0.48765E+08
 
   -0.48530E+08         0.71293E+06         0.00000E+00
    0.71293E+06        -0.97470E+08         0.00000E+00
    0.00000E+00         0.00000E+00        -0.48692E+08
 
   -0.48447E+08         0.74595E+06         0.00000E+00
    0.74595E+06        -0.97466E+08         0.00000E+00
    0.00000E+00         0.00000E+00        -0.48615E+08
 
   -0.48360E+08         0.78009E+06         0.00000E+00
    0.78009E+06        -0.97461E+08         0.00000E+00
    0.00000E+00         0.00000E+00        -0.48534E+08
 
   -0.48268E+08         0.81535E+06         0.00000E+00
    0.81535E+06        -0.97457E+08         0.00000E+00
    0.00000E+00         0.00000E+00        -0.48449E+08
 
   -0.48173E+08         0.85172E+06         0.00000E+00
    0.85172E+06        -0.97453E+08         0.00000E+00
    0.00000E+00         0.00000E+00        -0.48359E+08
 
   -0.48072E+08         0.88918E+06         0.00000E+00
    0.88918E+06        -0.97449E+08         0.00000E+00
    0.00000E+00         0.00000E+00        -0.48264E+08
 
   -0.47967E+08         0.92772E+06         0.00000E+00
    0.92772E+06        -0.97445E+08         0.00000E+00
    0.00000E+00         0.00000E+00        -0.48165E+08
 
   -0.47857E+08         0.96731E+06         0.00000E+00
    0.96731E+06        -0.97442E+08         0.00000E+00
    0.00000E+00         0.00000E+00        -0.48060E+08
 
   -0.47741E+08         0.10079E+07         0.00000E+00
    0.10079E+07        -0.97438E+08         0.00000E+00
    0.00000E+00         0.00000E+00        -0.47950E+08
 
   -0.47620E+08         0.10495E+07         0.00000E+00
    0.10495E+07        -0.97435E+08         0.00000E+00
    0.00000E+00         0.00000E+00        -0.47835E+08
 
   -0.47494E+08         0.10920E+07         0.00000E+00
    0.10920E+07        -0.97432E+08         0.00000E+00
    0.00000E+00         0.00000E+00        -0.47714E+08
 
   -0.47362E+08         0.11353E+07         0.00000E+00
    0.11353E+07        -0.97429E+08         0.00000E+00
    0.00000E+00         0.00000E+00        -0.47587E+08
 
   -0.47224E+08         0.11794E+07         0.00000E+00
    0.11794E+07        -0.97427E+08         0.00000E+00
    0.00000E+00         0.00000E+00        -0.47454E+08
 
   -0.47080E+08         0.12242E+07         0.00000E+00
    0.12242E+07        -0.97425E+08         0.00000E+00
    0.00000E+00         0.00000E+00        -0.47314E+08
 
   -0.46930E+08         0.12696E+07         0.00000E+00
    0.12696E+07        -0.97424E+08         0.00000E+00
    0.00000E+00         0.00000E+00        -0.47167E+08
 
   -0.46773E+08         0.13154E+07         0.00000E+00
    0.13154E+07        -0.97423E+08         0.00000E+00
    0.00000E+00         0.00000E+00        -0.47014E+08
 
   -0.46610E+08         0.13616E+07         0.00000E+00
    0.13616E+07        -0.97424E+08         0.00000E+00
    0.00000E+00         0.00000E+00        -0.46853E+08
 
   -0.46440E+08         0.14079E+07         0.00000E+00
    0.14079E+07        -0.97424E+08         0.00000E+00
    0.00000E+00         0.00000E+00        -0.46685E+08
 
   -0.46263E+08         0.14543E+07         0.00000E+00
    0.14543E+07        -0.97426E+08         0.00000E+00
    0.00000E+00         0.00000E+00        -0.46510E+08
 
   -0.46080E+08         0.15004E+07         0.00000E+00
    0.15004E+07        -0.97428E+08         0.00000E+00
    0.00000E+00         0.00000E+00        -0.46326E+08
 
   -0.45889E+08         0.15461E+07         0.00000E+00
    0.15461E+07        -0.97432E+08         0.00000E+00
    0.00000E+00         0.00000E+00        -0.46135E+08
 
   -0.45691E+08         0.15911E+07         0.00000E+00
    0.15911E+07        -0.97437E+08         0.00000E+00
    0.00000E+00         0.00000E+00        -0.45935E+08
 
   -0.45485E+08         0.16352E+07         0.00000E+00
    0.16352E+07        -0.97443E+08         0.00000E+00
    0.00000E+00         0.00000E+00        -0.45726E+08
 
   -0.45273E+08         0.16780E+07         0.00000E+00
    0.16780E+07        -0.97451E+08         0.00000E+00
    0.00000E+00         0.00000E+00        -0.45509E+08
 
   -0.45053E+08         0.17192E+07         0.00000E+00
    0.17192E+07        -0.97461E+08         0.00000E+00
    0.00000E+00         0.00000E+00        -0.45283E+08
 
   -0.44825E+08         0.17584E+07         0.00000E+00
    0.17584E+07        -0.97472E+08         0.00000E+00
    0.00000E+00         0.00000E+00        -0.45047E+08
 
   -0.44590E+08         0.17952E+07         0.00000E+00
    0.17952E+07        -0.97485E+08         0.00000E+00
    0.00000E+00         0.00000E+00        -0.44803E+08
 
   -0.44348E+08         0.18291E+07         0.00000E+00
    0.18291E+07        -0.97501E+08         0.00000E+00
    0.00000E+00         0.00000E+00        -0.44548E+08
 
   -0.44098E+08         0.18597E+07         0.00000E+00
    0.18597E+07        -0.97519E+08         0.00000E+00
    0.00000E+00         0.00000E+00        -0.44284E+08
 
   -0.43841E+08         0.18864E+07         0.00000E+00
    0.18864E+07        -0.97540E+08         0.00000E+00
    0.00000E+00         0.00000E+00        -0.44011E+08
 
   -0.43576E+08         0.19086E+07         0.00000E+00
    0.19086E+07        -0.97565E+08         0.00000E+00
    0.00000E+00         0.00000E+00        -0.43727E+08
 
   -0.43305E+08         0.19258E+07         0.00000E+00
    0.19258E+07        -0.97592E+08         0.00000E+00
    0.00000E+00         0.00000E+00        -0.43433E+08
 
   -0.43026E+08         0.19372E+07         0.00000E+00
    0.19372E+07        -0.97623E+08         0.00000E+00
    0.00000E+00         0.00000E+00        -0.43129E+08
 
   -0.42740E+08         0.19423E+07         0.00000E+00
    0.19423E+07        -0.97658E+08         0.00000E+00
    0.00000E+00         0.00000E+00        -0.42816E+08
 
   -0.42448E+08         0.19402E+07         0.00000E+00
    0.19402E+07        -0.97697E+08         0.00000E+00
    0.00000E+00         0.00000E+00        -0.42492E+08
 
   -0.42149E+08         0.19303E+07         0.00000E+00
    0.19303E+07        -0.97741E+08         0.00000E+00
    0.00000E+00         0.00000E+00        -0.42158E+08
 
   -0.41844E+08         0.19118E+07         0.00000E+00
    0.19118E+07        -0.97788E+08         0.00000E+00
    0.00000E+00         0.00000E+00        -0.41814E+08
 
   -0.41533E+08         0.18840E+07         0.00000E+00
    0.18840E+07        -0.97841E+08         0.00000E+00
    0.00000E+00         0.00000E+00        -0.41460E+08
 
   -0.41215E+08         0.18463E+07         0.00000E+00
    0.18463E+07        -0.97897E+08         0.00000E+00
    0.00000E+00         0.00000E+00        -0.41097E+08
 
   -0.40892E+08         0.17979E+07         0.00000E+00
    0.17979E+07        -0.97956E+08         0.00000E+00
    0.00000E+00         0.00000E+00        -0.40724E+08
 
   -0.40564E+08         0.17385E+07         0.00000E+00
    0.17385E+07        -0.98018E+08         0.00000E+00
    0.00000E+00         0.00000E+00        -0.40343E+08
 
   -0.40230E+08         0.16674E+07         0.00000E+00
    0.16674E+07        -0.98081E+08         0.00000E+00
    0.00000E+00         0.00000E+00        -0.39952E+08
 
   -0.39892E+08         0.15846E+07         0.00000E+00
    0.15846E+07        -0.98144E+08         0.00000E+00
    0.00000E+00         0.00000E+00        -0.39553E+08
 
   -0.39550E+08         0.14897E+07         0.00000E+00
    0.14897E+07        -0.98202E+08         0.00000E+00
    0.00000E+00         0.00000E+00        -0.39146E+08
 
   -0.39206E+08         0.13828E+07         0.00000E+00
    0.13828E+07        -0.98252E+08         0.00000E+00
    0.00000E+00         0.00000E+00        -0.38731E+08
 
   -0.38861E+08         0.12640E+07         0.00000E+00
    0.12640E+07        -0.98287E+08         0.00000E+00
    0.00000E+00         0.00000E+00        -0.38310E+08
 
   -0.38519E+08         0.11334E+07         0.00000E+00
    0.11334E+07        -0.98302E+08         0.00000E+00
    0.00000E+00         0.00000E+00        -0.37882E+08
 
   -0.38184E+08         0.99104E+06         0.00000E+00
    0.99104E+06        -0.98286E+08         0.00000E+00
    0.00000E+00         0.00000E+00        -0.37449E+08
 
   -0.37865E+08         0.83637E+06         0.00000E+00
    0.83637E+06        -0.98227E+08         0.00000E+00
    0.00000E+00         0.00000E+00        -0.37010E+08
 
   -0.37573E+08         0.66849E+06         0.00000E+00
    0.66849E+06        -0.98111E+08         0.00000E+00
    0.00000E+00         0.00000E+00        -0.36568E+08
 
   -0.37324E+08         0.48707E+06         0.00000E+00
    0.48707E+06        -0.97923E+08         0.00000E+00
    0.00000E+00         0.00000E+00        -0.36122E+08
 
   -0.37140E+08         0.29500E+06         0.00000E+00
    0.29500E+06        -0.97648E+08         0.00000E+00
    0.00000E+00         0.00000E+00        -0.35674E+08
 
   -0.37041E+08         0.98493E+05         0.00000E+00
    0.98493E+05        -0.97284E+08         0.00000E+00
    0.00000E+00         0.00000E+00        -0.35225E+08
 
   -0.49933E+08         0.41672E+04         0.00000E+00
    0.41672E+04        -0.97586E+08         0.00000E+00
    0.00000E+00         0.00000E+00        -0.49995E+08
 
   -0.49931E+08         0.12528E+05         0.00000E+00
    0.12528E+05        -0.97578E+08         0.00000E+00
    0.00000E+00         0.00000E+00        -0.49986E+08
 
   -0.49927E+08         0.20908E+05         0.00000E+00
    0.20908E+05        -0.97573E+08         0.00000E+00
    0.00000E+00         0.00000E+00        -0.49977E+08
 
   -0.49921E+08         0.29237E+05         0.00000E+00
    0.29237E+05        -0.97569E+08         0.00000E+00
    0.00000E+00         0.00000E+00        -0.49968E+08
 
   -0.49914E+08         0.37476E+05         0.00000E+00
    0.37476E+05        -0.97566E+08         0.00000E+00
    0.00000E+00         0.00000E+00        -0.49958E+08
 
   -0.49906E+08         0.45639E+05         0.00000E+00
    0.45639E+05        -0.97565E+08         0.00000E+00
    0.00000E+00         0.00000E+00        -0.49949E+08
 
   -0.49897E+08         0.53754E+05         0.00000E+00
    0.53754E+05        -0.97564E+08         0.00000E+00
    0.00000E+00         0.00000E+00        -0.49939E+08
 
   -0.49888E+08         0.61846E+05         0.00000E+00
    0.61846E+05        -0.97563E+08         0.00000E+00
    0.00000E+00         0.00000E+00        -0.49929E+08
 
   -0.49878E+08         0.69933E+05         0.00000E+00
    0.69933E+05        -0.97563E+08         0.00000E+00
    0.00000E+00         0.00000E+00        -0.49919E+08
 
   -0.49867E+08         0.78033E+05         0.00000E+00
    0.78033E+05        -0.97563E+08         0.00000E+00
    0.00000E+00         0.00000E+00        -0.49908E+08
 
   -0.49856E+08         0.86165E+05         0.00000E+00
    0.86165E+05        -0.97564E+08         0.00000E+00
    0.00000E+00         0.00000E+00        -0.49897E+08
 
   -0.49844E+08         0.94351E+05         0.00000E+00
    0.94351E+05        -0.97564E+08         0.00000E+00
    0.00000E+00         0.00000E+00        -0.49886E+08
 
   -0.49832E+08         0.10262E+06         0.00000E+00
    0.10262E+06        -0.97564E+08         0.00000E+00
    0.00000E+00         0.00000E+00        -0.49874E+08
 
   -0.49818E+08         0.11099E+06         0.00000E+00
    0.11099E+06        -0.97564E+08         0.00000E+00
    0.00000E+00         0.00000E+00        -0.49862E+08
 
   -0.49805E+08         0.11950E+06         0.00000E+00
    0.11950E+06        -0.97563E+08         0.00000E+00
    0.00000E+00         0.00000E+00        -0.49849E+08
 
   -0.49790E+08         0.12818E+06         0.00000E+00
    0.12818E+06        -0.97563E+08         0.00000E+00
    0.00000E+00         0.00000E+00        -0.49835E+08
 
   -0.49775E+08         0.13707E+06         0.00000E+00
    0.13707E+06        -0.97562E+08         0.00000E+00
    0.00000E+00         0.00000E+00        -0.49821E+08
 
   -0.49758E+08         0.14620E+06         0.00000E+00
    0.14620E+06        -0.97562E+08         0.00000E+00
    0.00000E+00         0.00000E+00        -0.49807E+08
 
   -0.49741E+08         0.15561E+06         0.00000E+00
    0.15561E+06        -0.97561E+08         0.00000E+00
    0.00000E+00         0.00000E+00        -0.49791E+08
 
   -0.49723E+08         0.16533E+06         0.00000E+00
    0.16533E+06        -0.97560E+08         0.00000E+00
    0.00000E+00         0.00000E+00        -0.49775E+08
 
   -0.49704E+08         0.17539E+06         0.00000E+00
    0.17539E+06        -0.97558E+08         0.00000E+00
    0.00000E+00         0.00000E+00        -0.49758E+08
 
   -0.49684E+08         0.18584E+06         0.00000E+00
    0.18584E+06        -0.97557E+08         0.00000E+00
    0.00000E+00         0.00000E+00        -0.49740E+08
 
   -0.49662E+08         0.19671E+06         0.00000E+00
    0.19671E+06        -0.97555E+08         0.00000E+00
    0.00000E+00         0.00000E+00        -0.49721E+08
 
   -0.49640E+08         0.20803E+06         0.00000E+00
    0.20803E+06        -0.97553E+08         0.00000E+00
    0.00000E+00         0.00000E+00        -0.49702E+08
 
   -0.49616E+08         0.21984E+06         0.00000E+00
    0.21984E+06        -0.97551E+08         0.00000E+00
    0.00000E+00         0.00000E+00        -0.49681E+08
 
   -0.49591E+08         0.23217E+06         0.00000E+00
    0.23217E+06        -0.97549E+08         0.00000E+00
    0.00000E+00         0.00000E+00        -0.49659E+08
 
   -0.49564E+08         0.24505E+06         0.00000E+00
    0.24505E+06        -0.97547E+08         0.00000E+00
    0.00000E+00         0.00000E+00        -0.49635E+08
 
   -0.49536E+08         0.25852E+06         0.00000E+00
    0.25852E+06        -0.97545E+08         0.00000E+00
    0.00000E+00         0.00000E+00        -0.49611E+08
 
   -0.49507E+08         0.27261E+06         0.00000E+00
    0.27261E+06        -0.97542E+08         0.00000E+00
    0.00000E+00         0.00000E+00        -0.49585E+08
 
   -0.49475E+08         0.28736E+06         0.00000E+00
    0.28736E+06        -0.97540E+08         0.00000E+00
    0.00000E+00         0.00000E+00        -0.49557E+08
 
   -0.49442E+08         0.30278E+06         0.00000E+00
    0.30278E+06        -0.97537E+08         0.00000E+00
    0.00000E+00         0.00000E+00        -0.49528E+08
 
   -0.49408E+08         0.31892E+06         0.00000E+00
    0.31892E+06        -0.97534E+08         0.00000E+00
    0.00000E+00         0.00000E+00        -0.49497E+08
 
   -0.49371E+08         0.33580E+06         0.00000E+00
    0.33580E+06        -0.97531E+08         0.00000E+00
    0.00000E+00         0.00000E+00        -0.49465E+08
 
   -0.49332E+08         0.35345E+06         0.00000E+00
    0.35345E+06        -0.97528E+08         0.00000E+00
    0.00000E+00         0.00000E+00        -0.49431E+08
 
   -0.49291E+08         0.37191E+06         0.00000E+00
    0.37191E+06        -0.97525E+08         0.00000E+00
    0.00000E+00         0.00000E+00        -0.49395E+08
 
   -0.49248E+08         0.39120E+06         0.00000E+00
    0.39120E+06        -0.97522E+08         0.00000E+00
    0.00000E+00         0.00000E+00        -0.49356E+08
 
   -0.49203E+08         0.41135E+06         0.00000E+00
    0.41135E+06        -0.97518E+08         0.00000E+00
    0.00000E+00         0.00000E+00        -0.49316E+08
 
   -0.49155E+08         0.43239E+06         0.00000E+00
    0.43239E+06        -0.97515E+08         0.00000E+00
    0.00000E+00         0.00000E+00        -0.49273E+08
 
   -0.49105E+08         0.45434E+06         0.00000E+00
    0.45434E+06        -0.97511E+08         0.00000E+00
    0.00000E+00         0.00000E+00        -0.49228E+08
 
   -0.49052E+08         0.47723E+06         0.00000E+00
    0.47723E+06        -0.97508E+08         0.00000E+00
    0.00000E+00         0.00000E+00        -0.49181E+08
 
   -0.48996E+08         0.50108E+06         0.00000E+00
    0.50108E+06        -0.97504E+08         0.00000E+00
    0.00000E+00         0.00000E+00        -0.49130E+08
 
   -0.48937E+08         0.52592E+06         0.00000E+00
    0.52592E+06        -0.97500E+08         0.00000E+00
    0.00000E+00         0.00000E+00        -0.49077E+08
 
   -0.48875E+08         0.55176E+06         0.00000E+00
    0.55176E+06        -0.97496E+08         0.00000E+00
    0.00000E+00         0.00000E+00        -0.49021E+08
 
   -0.48810E+08         0.57864E+06         0.00000E+00
    0.57864E+06        -0.97492E+08         0.00000E+00
    0.00000E+00         0.00000E+00        -0.48962E+08
 
   -0.48742E+08         0.60656E+06         0.00000E+00
    0.60656E+06        -0.97488E+08         0.00000E+00
    0.00000E+00         0.00000E+00        -0.48900E+08
 
   -0.48670E+08         0.63553E+06         0.00000E+00
    0.63553E+06        -0.97484E+08         0.00000E+00
    0.00000E+00         0.00000E+00        -0.48834E+08
 
   -0.48594E+08         0.66558E+06         0.00000E+00
    0.66558E+06        -0.97480E+08         0.00000E+00
    0.00000E+00         0.00000E+00        -0.48765E+08
 
   -0.48515E+08         0.69671E+06         0.00000E+00
    0.69671E+06        -0.97476E+08         0.00000E+00
    0.00000E+00         0.00000E+00        -0.48692E+08
 
   -0.48432E+08         0.72892E+06         0.00000E+00
    0.72892E+06        -0.97472E+08         0.00000E+00
    0.00000E+00         0.00000E+00        -0.48615E+08
 
   -0.48344E+08         0.76222E+06         0.00000E+00
    0.76222E+06        -0.97468E+08         0.00000E+00
    0.00000E+00         0.00000E+00        -0.48534E+08
 
   -0.48252E+08         0.79660E+06         0.00000E+00
    0.79660E+06        -0.97464E+08         0.00000E+00
    0.00000E+00         0.00000E+00        -0.48449E+08
 
   -0.48156E+08         0.83205E+06         0.00000E+00
    0.83205E+06        -0.97461E+08         0.00000E+00
    0.00000E+00         0.00000E+00        -0.48359E+08
 
   -0.48055E+08         0.86857E+06         0.00000E+00
    0.86857E+06        -0.97457E+08         0.00000E+00
    0.00000E+00         0.00000E+00        -0.48264E+08
 
   -0.47949E+08         0.90612E+06         0.00000E+00
    0.90612E+06        -0.97453E+08         0.00000E+00
    0.00000E+00         0.00000E+00        -0.48165E+08
 
   -0.47838E+08         0.94469E+06         0.00000E+00
    0.94469E+06        -0.97450E+08         0.00000E+00
    0.00000E+00         0.00000E+00        -0.48060E+08
 
   -0.47722E+08         0.98424E+06         0.00000E+00
    0.98424E+06        -0.97446E+08         0.00000E+00
    0.00000E+00         0.00000E+00        -0.47950E+08
 
   -0.47601E+08         0.10247E+07         0.00000E+00
    0.10247E+07        -0.97443E+08         0.00000E+00
    0.00000E+00         0.00000E+00        -0.47835E+08
 
   -0.47474E+08         0.10661E+07         0.00000E+00
    0.10661E+07        -0.97440E+08         0.00000E+00
    0.00000E+00         0.00000E+00        -0.47714E+08
 
   -0.47342E+08         0.11083E+07         0.00000E+00
    0.11083E+07        -0.97438E+08         0.00000E+00
    0.00000E+00         0.00000E+00        -0.47587E+08
 
   -0.47203E+08         0.11512E+07         0.00000E+00
    0.11512E+07        -0.97436E+08         0.00000E+00
    0.00000E+00         0.00000E+00        -0.47454E+08
 
   -0.47059E+08         0.11947E+07         0.00000E+00
    0.11947E+07        -0.97434E+08         0.00000E+00
    0.00000E+00         0.00000E+00        -0.47314E+08
 
   -0.46908E+08         0.12389E+07         0.00000E+00
    0.12389E+07        -0.97433E+08         0.00000E+00
    0.00000E+00         0.00000E+00        -0.47167E+08
 
   -0.46751E+08         0.12834E+07         0.00000E+00
    0.12834E+07        -0.97433E+08         0.00000E+00
    0.00000E+00         0.00000E+00        -0.47014E+08
 
   -0.46588E+08         0.13283E+07         0.00000E+00
    0.13283E+07        -0.97433E+08         0.00000E+00
    0.00000E+00         0.00000E+00        -0.46853E+08
 
   -0.46418E+08         0.13733E+07         0.00000E+00
    0.13733E+07        -0.97433E+08         0.00000E+00
    0.00000E+00         0.00000E+00        -0.46685E+08
 
   -0.46241E+08         0.14182E+07         0.00000E+00
    0.14182E+07        -0.97435E+08         0.00000E+00
    0.00000E+00         0.00000E+00        -0.46510E+08
 
   -0.46057E+08         0.14629E+07         0.00000E+00
    0.14629E+07        -0.97438E+08         0.00000E+00
    0.00000E+00         0.00000E+00        -0.46326E+08
 
   -0.45867E+08         0.15072E+07         0.00000E+00
    0.15072E+07        -0.97441E+08         0.00000E+00
    0.00000E+00         0.00000E+00        -0.46135E+08
 
   -0.45669E+08         0.15508E+07         0.00000E+00
    0.15508E+07        -0.97446E+08         0.00000E+00
    0.00000E+00         0.00000E+00        -0.45935E+08
 
   -0.45464E+08         0.15934E+07         0.00000E+00
    0.15934E+07        -0.97452E+08         0.00000E+00
    0.00000E+00         0.00000E+00        -0.45726E+08
 
   -0.45251E+08         0.16347E+07         0.00000E+00
    0.16347E+07        -0.97459E+08         0.00000E+00
    0.00000E+00         0.00000E+00        -0.45509E+08
 
   -0.45032E+08         0.16745E+07         0.00000E+00
    0.16745E+07        -0.97468E+08         0.00000E+00
    0.00000E+00         0.00000E+00        -0.45283E+08
 
   -0.44805E+08         0.17122E+07         0.00000E+00
    0.17122E+07        -0.97479E+08         0.00000E+00
    0.00000E+00         0.00000E+00        -0.45047E+08
 
   -0.44571E+08         0.17475E+07         0.00000E+00
    0.17475E+07        -0.97492E+08         0.00000E+00
    0.00000E+00         0.00000E+00        -0.44803E+08
 
   -0.44329E+08         0.17800E+07         0.00000E+00
    0.17800E+07        -0.97507E+08         0.00000E+00
    0.00000E+00         0.00000E+00        -0.44548E+08
 
   -0.44081E+08         0.18091E+07         0.00000E+00
    0.18091E+07        -0.97525E+08         0.00000E+00
    0.00000E+00         0.00000E+00        -0.44284E+08
 
   -0.43825E+08         0.18344E+07         0.00000E+00
    0.18344E+07        -0.97545E+08         0.00000E+00
    0.00000E+00         0.00000E+00        -0.44011E+08
 
   -0.43562E+08         0.18552E+07         0.00000E+00
    0.18552E+07        -0.97568E+08         0.00000E+00
    0.00000E+00         0.00000E+00        -0.43727E+08
 
   -0.43293E+08         0.18710E+07         0.00000E+00
    0.18710E+07        -0.97595E+08         0.00000E+00
    0.00000E+00         0.00000E+00        -0.43433E+08
 
   -0.43016E+08         0.18811E+07         0.00000E+00
    0.18811E+07        -0.97625E+08         0.00000E+00
    0.00000E+00         0.00000E+00        -0.43129E+08
 
   -0.42733E+08         0.18848E+07         0.00000E+00
    0.18848E+07        -0.97658E+08         0.00000E+00
    0.00000E+00         0.00000E+00        -0.42816E+08
 
   -0.42444E+08         0.18814E+07         0.00000E+00
    0.18814E+07        -0.97696E+08         0.00000E+00
    0.00000E+00         0.00000E+00        -0.42492E+08
 
   -0.42148E+08         0.18702E+07         0.00000E+00
    0.18702E+07        -0.97738E+08         0.00000E+00
    0.00000E+00         0.00000E+00        -0.42158E+08
 
   -0.41847E+08         0.18505E+07         0.00000E+00
    0.18505E+07        -0.97784E+08         0.00000E+00
    0.00000E+00         0.00000E+00        -0.41814E+08
 
   -0.41540E+08         0.18215E+07         0.00000E+00
    0.18215E+07        -0.97834E+08         0.00000E+00
    0.00000E+00         0.00000E+00        -0.41460E+08
 
   -0.41227E+08         0.17827E+07         0.00000E+00
    0.17827E+07        -0.97888E+08         0.00000E+00
    0.00000E+00         0.00000E+00        -0.41097E+08
 
   -0.40908E+08         0.17332E+07         0.00000E+00
    0.17332E+07        -0.97945E+08         0.00000E+00
    0.00000E+00         0.00000E+00        -0.40724E+08
 
   -0.40585E+08         0.16728E+07         0.00000E+00
    0.16728E+07        -0.98005E+08         0.00000E+00
    0.00000E+00         0.00000E+00        -0.40343E+08
 
   -0.40257E+08         0.16008E+07         0.00000E+00
    0.16008E+07        -0.98066E+08         0.00000E+00
    0.00000E+00         0.00000E+00        -0.39952E+08
 
   -0.39925E+08         0.15171E+07         0.00000E+00
    0.15171E+07        -0.98126E+08         0.00000E+00
    0.00000E+00         0.00000E+00        -0.39553E+08
 
   -0.39590E+08         0.14217E+07         0.00000E+00
    0.14217E+07        -0.98181E+08         0.00000E+00
    0.00000E+00         0.00000E+00        -0.39146E+08
 
   -0.39253E+08         0.13145E+07         0.00000E+00
    0.13145E+07        -0.98229E+08         0.00000E+00
    0.00000E+00         0.00000E+00        -0.38731E+08
 
   -0.38917E+08         0.11959E+07         0.00000E+00
    0.11959E+07        -0.98263E+08         0.00000E+00
    0.00000E+00         0.00000E+00        -0.38310E+08
 
   -0.38583E+08         0.10664E+07         0.00000E+00
    0.10664E+07        -0.98275E+08         0.00000E+00
    0.00000E+00         0.00000E+00        -0.37882E+08
 
   -0.38258E+08         0.92626E+06         0.00000E+00
    0.92626E+06        -0.98257E+08         0.00000E+00
    0.00000E+00         0.00000E+00        -0.37449E+08
 
   -0.37950E+08         0.77571E+06         0.00000E+00
    0.77571E+06        -0.98195E+08         0.00000E+00
    0.00000E+00         0.00000E+00        -0.37010E+08
 
   -0.37668E+08         0.61473E+06         0.00000E+00
    0.61473E+06        -0.98077E+08         0.00000E+00
    0.00000E+00         0.00000E+00        -0.36568E+08
 
   -0.37431E+08         0.44408E+06         0.00000E+00
    0.44408E+06        -0.97886E+08         0.00000E+00
    0.00000E+00         0.00000E+00        -0.36122E+08
 
   -0.37258E+08         0.26713E+06         0.00000E+00
    0.26713E+06        -0.97611E+08         0.00000E+00
    0.00000E+00         0.00000E+00        -0.35674E+08
 
   -0.37166E+08         0.88861E+05         0.00000E+00
    0.88861E+05        -0.97247E+08         0.00000E+00
    0.00000E+00         0.00000E+00        -0.35225E+08
 
   -0.49929E+08         0.39527E+04         0.00000E+00
    0.39527E+04        -0.97587E+08         0.00000E+00
    0.00000E+00         0.00000E+00        -0.49995E+08
 
   -0.49927E+08         0.11901E+05         0.00000E+00
    0.11901E+05        -0.97580E+08         0.00000E+00
    0.00000E+00         0.00000E+00        -0.49986E+08
 
   -0.49923E+08         0.19918E+05         0.00000E+00
    0.19918E+05        -0.97574E+08         0.00000E+00
    0.00000E+00         0.00000E+00        -0.49977E+08
 
   -0.49917E+08         0.27957E+05         0.00000E+00
    0.27957E+05        -0.97570E+08         0.00000E+00
    0.00000E+00         0.00000E+00        -0.49968E+08
 
   -0.49910E+08         0.35974E+05         0.00000E+00
    0.35974E+05        -0.97568E+08         0.00000E+00
    0.00000E+00         0.00000E+00        -0.49958E+08
 
   -0.49902E+08         0.43963E+05         0.00000E+00
    0.43963E+05        -0.97566E+08         0.00000E+00
    0.00000E+00         0.00000E+00        -0.49949E+08
 
   -0.49894E+08         0.51935E+05         0.00000E+00
    0.51935E+05        -0.97565E+08         0.00000E+00
    0.00000E+00         0.00000E+00        -0.49939E+08
 
   -0.49884E+08         0.59900E+05         0.00000E+00
    0.59900E+05        -0.97565E+08         0.00000E+00
    0.00000E+00         0.00000E+00        -0.49929E+08
 
   -0.49874E+08         0.67868E+05         0.00000E+00
    0.67868E+05        -0.97565E+08         0.00000E+00
    0.00000E+00         0.00000E+00        -0.49919E+08
 
   -0.49864E+08         0.75850E+05         0.00000E+00
    0.75850E+05        -0.97565E+08         0.00000E+00
    0.00000E+00         0.00000E+00        -0.49908E+08
 
   -0.49852E+08         0.83862E+05         0.00000E+00
    0.83862E+05        -0.97565E+08         0.00000E+00
    0.00000E+00         0.00000E+00        -0.49897E+08
 
   -0.49841E+08         0.91923E+05         0.00000E+00
    0.91923E+05        -0.97565E+08         0.00000E+00
    0.00000E+00         0.00000E+00        -0.49886E+08
 
   -0.49828E+08         0.10006E+06         0.00000E+00
    0.10006E+06        -0.97565E+08         0.00000E+00
    0.00000E+00         0.00000E+00        -0.49874E+08
 
   -0.49815E+08         0.10829E+06         0.00000E+00
    0.10829E+06        -0.97565E+08         0.00000E+00
    0.00000E+00         0.00000E+00        -0.49862E+08
 
   -0.49801E+08         0.11665E+06         0.00000E+00
    0.11665E+06        -0.97565E+08         0.00000E+00
    0.00000E+00         0.00000E+00        -0.49849E+08
 
   -0.49786E+08         0.12517E+06         0.00000E+00
    0.12517E+06        -0.97565E+08         0.00000E+00
    0.00000E+00         0.00000E+00        -0.49835E+08
 
   -0.49771E+08         0.13389E+06         0.00000E+00
    0.13389E+06        -0.97564E+08         0.00000E+00
    0.00000E+00         0.00000E+00        -0.49821E+08
 
   -0.49754E+08         0.14285E+06         0.00000E+00
    0.14285E+06        -0.97563E+08         0.00000E+00
    0.00000E+00         0.00000E+00        -0.49807E+08
 
   -0.49737E+08         0.15206E+06         0.00000E+00
    0.15206E+06        -0.97563E+08         0.00000E+00
    0.00000E+00         0.00000E+00        -0.49791E+08
 
   -0.49719E+08         0.16158E+06         0.00000E+00
    0.16158E+06        -0.97561E+08         0.00000E+00
    0.00000E+00         0.00000E+00        -0.49775E+08
 
   -0.49700E+08         0.17144E+06         0.00000E+00
    0.17144E+06        -0.97560E+08         0.00000E+00
    0.00000E+00         0.00000E+00        -0.49758E+08
 
   -0.49679E+08         0.18166E+06         0.00000E+00
    0.18166E+06        -0.97559E+08         0.00000E+00
    0.00000E+00         0.00000E+00        -0.49740E+08
 
   -0.49658E+08         0.19230E+06         0.00000E+00
    0.19230E+06        -0.97557E+08         0.00000E+00
    0.00000E+00         0.00000E+00        -0.49721E+08
 
   -0.49635E+08         0.20337E+06         0.00000E+00
    0.20337E+06        -0.97556E+08         0.00000E+00
    0.00000E+00         0.00000E+00        -0.49702E+08
 
   -0.49611E+08         0.21492E+06         0.00000E+00
    0.21492E+06        -0.97554E+08         0.00000E+00
    0.00000E+00         0.00000E+00        -0.49681E+08
 
   -0.49585E+08         0.22697E+06         0.00000E+00
    0.22697E+06        -0.97552E+08         0.00000E+00
    0.00000E+00         0.00000E+00        -0.49659E+08
 
   -0.49558E+08         0.23957E+06         0.00000E+00
    0.23957E+06        -0.97550E+08         0.00000E+00
    0.00000E+00         0.00000E+00        -0.49635E+08
 
   -0.49530E+08         0.25273E+06         0.00000E+00
    0.25273E+06        -0.97548E+08         0.00000E+00
    0.00000E+00         0.00000E+00        -0.49611E+08
 
   -0.49500E+08         0.26650E+06         0.00000E+00
    0.26650E+06        -0.97545E+08         0.00000E+00
    0.00000E+00         0.00000E+00        -0.49585E+08
 
   -0.49469E+08         0.28091E+06         0.00000E+00
    0.28091E+06        -0.97543E+08         0.00000E+00
    0.00000E+00         0.00000E+00        -0.49557E+08
 
   -0.49435E+08         0.29598E+06         0.00000E+00
    0.29598E+06        -0.97540E+08         0.00000E+00
    0.00000E+00         0.00000E+00        -0.49528E+08
 
   -0.49400E+08         0.31174E+06         0.00000E+00
    0.31174E+06        -0.97538E+08         0.00000E+00
    0.00000E+00         0.00000E+00        -0.49497E+08
 
   -0.49363E+08         0.32823E+06         0.00000E+00
    0.32823E+06        -0.97535E+08         0.00000E+00
    0.00000E+00         0.00000E+00        -0.49465E+08
 
   -0.49324E+08         0.34547E+06         0.00000E+00
    0.34547E+06        -0.97532E+08         0.00000E+00
    0.00000E+00         0.00000E+00        -0.49431E+08
 
   -0.49283E+08         0.36349E+06         0.00000E+00
    0.36349E+06        -0.97529E+08         0.00000E+00
    0.00000E+00         0.00000E+00        -0.49395E+08
 
   -0.49240E+08         0.38233E+06         0.00000E+00
    0.38233E+06        -0.97526E+08         0.00000E+00
    0.00000E+00         0.00000E+00        -0.49356E+08
 
   -0.49194E+08         0.40200E+06         0.00000E+00
    0.40200E+06        -0.97523E+08         0.00000E+00
    0.00000E+00         0.00000E+00        -0.49316E+08
 
   -0.49146E+08         0.42254E+06         0.00000E+00
    0.42254E+06        -0.97519E+08         0.00000E+00
    0.00000E+00         0.00000E+00        -0.49273E+08
 
   -0.49095E+08         0.44396E+06         0.00000E+00
    0.44396E+06        -0.97516E+08         0.00000E+00
    0.00000E+00         0.00000E+00        -0.49228E+08
 
   -0.49041E+08         0.46630E+06         0.00000E+00
    0.46630E+06        -0.97512E+08         0.00000E+00
    0.00000E+00         0.00000E+00        -0.49181E+08
 
   -0.48985E+08         0.48958E+06         0.00000E+00
    0.48958E+06        -0.97509E+08         0.00000E+00
    0.00000E+00         0.00000E+00        -0.49130E+08
 
   -0.48926E+08         0.51381E+06         0.00000E+00
    0.51381E+06        -0.97505E+08         0.00000E+00
    0.00000E+00         0.00000E+00        -0.49077E+08
 
   -0.48864E+08         0.53903E+06         0.00000E+00
    0.53903E+06        -0.97502E+08         0.00000E+00
    0.00000E+00         0.00000E+00        -0.49021E+08
 
   -0.48798E+08         0.56524E+06         0.00000E+00
    0.56524E+06        -0.97498E+08         0.00000E+00
    0.00000E+00         0.00000E+00        -0.48962E+08
 
   -0.48729E+08         0.59247E+06         0.00000E+00
    0.59247E+06        -0.97494E+08         0.00000E+00
    0.00000E+00         0.00000E+00        -0.48900E+08
 
   -0.48657E+08         0.62073E+06         0.00000E+00
    0.62073E+06        -0.97490E+08         0.00000E+00
    0.00000E+00         0.00000E+00        -0.48834E+08
 
   -0.48581E+08         0.65003E+06         0.00000E+00
    0.65003E+06        -0.97486E+08         0.00000E+00
    0.00000E+00         0.00000E+00        -0.48765E+08
 
   -0.48501E+08         0.68038E+06         0.00000E+00
    0.68038E+06        -0.97483E+08         0.00000E+00
    0.00000E+00         0.00000E+00        -0.48692E+08
 
   -0.48417E+08         0.71178E+06         0.00000E+00
    0.71178E+06        -0.97479E+08         0.00000E+00
    0.00000E+00         0.00000E+00        -0.48615E+08
 
   -0.48329E+08         0.74423E+06         0.00000E+00
    0.74423E+06        -0.97475E+08         0.00000E+00
    0.00000E+00         0.00000E+00        -0.48534E+08
 
   -0.48236E+08         0.77773E+06         0.00000E+00
    0.77773E+06        -0.97471E+08         0.00000E+00
    0.00000E+00         0.00000E+00        -0.48449E+08
 
   -0.48139E+08         0.81228E+06         0.00000E+00
    0.81228E+06        -0.97468E+08         0.00000E+00
    0.00000E+00         0.00000E+00        -0.48359E+08
 
   -0.48038E+08         0.84785E+06         0.00000E+00
    0.84785E+06        -0.97464E+08         0.00000E+00
    0.00000E+00         0.00000E+00        -0.48264E+08
 
   -0.47932E+08         0.88442E+06         0.00000E+00
    0.88442E+06        -0.97461E+08         0.00000E+00
    0.00000E+00         0.00000E+00        -0.48165E+08
 
   -0.47820E+08         0.92198E+06         0.00000E+00
    0.92198E+06        -0.97457E+08         0.00000E+00
    0.00000E+00         0.00000E+00        -0.48060E+08
 
   -0.47704E+08         0.96047E+06         0.00000E+00
    0.96047E+06        -0.97454E+08         0.00000E+00
    0.00000E+00         0.00000E+00        -0.47950E+08
 
   -0.47582E+08         0.99987E+06         0.00000E+00
    0.99987E+06        -0.97451E+08         0.00000E+00
    0.00000E+00         0.00000E+00        -0.47835E+08
 
   -0.47455E+08         0.10401E+07         0.00000E+00
    0.10401E+07        -0.97449E+08         0.00000E+00
    0.00000E+00         0.00000E+00        -0.47714E+08
 
   -0.47322E+08         0.10811E+07         0.00000E+00
    0.10811E+07        -0.97446E+08         0.00000E+00
    0.00000E+00         0.00000E+00        -0.47587E+08
 
   -0.47183E+08         0.11229E+07         0.00000E+00
    0.11229E+07        -0.97444E+08         0.00000E+00
    0.00000E+00         0.00000E+00        -0.47454E+08
 
   -0.47038E+08         0.11652E+07         0.00000E+00
    0.11652E+07        -0.97443E+08         0.00000E+00
    0.00000E+00         0.00000E+00        -0.47314E+08
 
   -0.46887E+08         0.12081E+07         0.00000E+00
    0.12081E+07        -0.97442E+08         0.00000E+00
    0.00000E+00         0.00000E+00        -0.47167E+08
 
   -0.46730E+08         0.12514E+07         0.00000E+00
    0.12514E+07        -0.97441E+08         0.00000E+00
    0.00000E+00         0.00000E+00        -0.47014E+08
 
   -0.46566E+08         0.12949E+07         0.00000E+00
    0.12949E+07        -0.97441E+08         0.00000E+00
    0.00000E+00         0.00000E+00        -0.46853E+08
 
   -0.46396E+08         0.13386E+07         0.00000E+00
    0.13386E+07        -0.97442E+08         0.00000E+00
    0.00000E+00         0.00000E+00        -0.46685E+08
 
   -0.46219E+08         0.13821E+07         0.00000E+00
    0.13821E+07        -0.97444E+08         0.00000E+00
    0.00000E+00         0.00000E+00        -0.46510E+08
 
   -0.46035E+08         0.14255E+07         0.00000E+00
    0.14255E+07        -0.97446E+08         0.00000E+00
    0.00000E+00         0.00000E+00        -0.46326E+08
 
   -0.45845E+08         0.14684E+07         0.00000E+00
    0.14684E+07        -0.97450E+08         0.00000E+00
    0.00000E+00         0.00000E+00        -0.46135E+08
 
   -0.45647E+08         0.15105E+07         0.00000E+00
    0.15105E+07        -0.97454E+08         0.00000E+00
    0.00000E+00         0.00000E+00        -0.45935E+08
 
   -0.45442E+08         0.15517E+07         0.00000E+00
    0.15517E+07        -0.97460E+08         0.00000E+00
    0.00000E+00         0.00000E+00        -0.45726E+08
 
   -0.45230E+08         0.15916E+07         0.00000E+00
    0.15916E+07        -0.97467E+08         0.00000E+00
    0.00000E+00         0.00000E+00        -0.45509E+08
 
   -0.45011E+08         0.16299E+07         0.00000E+00
    0.16299E+07        -0.97476E+08         0.00000E+00
    0.00000E+00         0.00000E+00        -0.45283E+08
 
   -0.44785E+08         0.16662E+07         0.00000E+00
    0.16662E+07        -0.97487E+08         0.00000E+00
    0.00000E+00         0.00000E+00        -0.45047E+08
 
   -0.44552E+08         0.17001E+07         0.00000E+00
    0.17001E+07        -0.97499E+08         0.00000E+00
    0.00000E+00         0.00000E+00        -0.44803E+08
 
   -0.44311E+08         0.17311E+07         0.00000E+00
    0.17311E+07        -0.97513E+08         0.00000E+00
    0.00000E+00         0.00000E+00        -0.44548E+08
 
   -0.44064E+08         0.17588E+07         0.00000E+00
    0.17588E+07        -0.97530E+08         0.00000E+00
    0.00000E+00         0.00000E+00        -0.44284E+08
 
   -0.43810E+08         0.17827E+07         0.00000E+00
    0.17827E+07        -0.97550E+08         0.00000E+00
    0.00000E+00         0.00000E+00        -0.44011E+08
 
   -0.43549E+08         0.18022E+07         0.00000E+00
    0.18022E+07        -0.97572E+08         0.00000E+00
    0.00000E+00         0.00000E+00        -0.43727E+08
 
   -0.43281E+08         0.18166E+07         0.00000E+00
    0.18166E+07        -0.97597E+08         0.00000E+00
    0.00000E+00         0.00000E+00        -0.43433E+08
 
   -0.43007E+08         0.18254E+07         0.00000E+00
    0.18254E+07        -0.97626E+08         0.00000E+00
    0.00000E+00         0.00000E+00        -0.43129E+08
 
   -0.42726E+08         0.18278E+07         0.00000E+00
    0.18278E+07        -0.97658E+08         0.00000E+00
    0.00000E+00         0.00000E+00        -0.42816E+08
 
   -0.42440E+08         0.18232E+07         0.00000E+00
    0.18232E+07        -0.97695E+08         0.00000E+00
    0.00000E+00         0.00000E+00        -0.42492E+08
 
   -0.42148E+08         0.18108E+07         0.00000E+00
    0.18108E+07        -0.97735E+08         0.00000E+00
    0.00000E+00         0.00000E+00        -0.42158E+08
 
   -0.41850E+08         0.17900E+07         0.00000E+00
    0.17900E+07        -0.97779E+08         0.00000E+00
    0.00000E+00         0.00000E+00        -0.41814E+08
 
   -0.41546E+08         0.17599E+07         0.00000E+00
    0.17599E+07        -0.97827E+08         0.00000E+00
    0.00000E+00         0.00000E+00        -0.41460E+08
 
   -0.41238E+08         0.17200E+07         0.00000E+00
    0.17200E+07        -0.97879E+08         0.00000E+00
    0.00000E+00         0.00000E+00        -0.41097E+08
 
   -0.40925E+08         0.16696E+07         0.00000E+00
    0.16696E+07        -0.97934E+08         0.00000E+00
    0.00000E+00         0.00000E+00        -0.40724E+08
 
   -0.40607E+08         0.16082E+07         0.00000E+00
    0.16082E+07        -0.97992E+08         0.00000E+00
    0.00000E+00         0.00000E+00        -0.40343E+08
 
   -0.40285E+08         0.15354E+07         0.00000E+00
    0.15354E+07        -0.98050E+08         0.00000E+00
    0.00000E+00         0.00000E+00        -0.39952E+08
 
   -0.39959E+08         0.14510E+07         0.00000E+00
    0.14510E+07        -0.98108E+08         0.00000E+00
    0.00000E+00         0.00000E+00        -0.39553E+08
 
   -0.39631E+08         0.13551E+07         0.00000E+00
    0.13551E+07        -0.98161E+08         0.00000E+00
    0.00000E+00         0.00000E+00        -0.39146E+08
 
   -0.39301E+08         0.12477E+07         0.00000E+00
    0.12477E+07        -0.98206E+08         0.00000E+00
    0.00000E+00         0.00000E+00        -0.38731E+08
 
   -0.38973E+08         0.11295E+07         0.00000E+00
    0.11295E+07        -0.98238E+08         0.00000E+00
    0.00000E+00         0.00000E+00        -0.38310E+08
 
   -0.38648E+08         0.10012E+07         0.00000E+00
    0.10012E+07        -0.98248E+08         0.00000E+00
    0.00000E+00         0.00000E+00        -0.37882E+08
 
   -0.38332E+08         0.86344E+06         0.00000E+00
    0.86344E+06        -0.98228E+08         0.00000E+00
    0.00000E+00         0.00000E+00        -0.37449E+08
 
   -0.38034E+08         0.71720E+06         0.00000E+00
    0.71720E+06        -0.98165E+08         0.00000E+00
    0.00000E+00         0.00000E+00        -0.37010E+08
 
   -0.37764E+08         0.56326E+06         0.00000E+00
    0.56326E+06        -0.98045E+08         0.00000E+00
    0.00000E+00         0.00000E+00        -0.36568E+08
 
   -0.37537E+08         0.40333E+06         0.00000E+00
    0.40333E+06        -0.97853E+08         0.00000E+00
    0.00000E+00         0.00000E+00        -0.36122E+08
 
   -0.37373E+08         0.24093E+06         0.00000E+00
    0.24093E+06        -0.97577E+08         0.00000E+00
    0.00000E+00         0.00000E+00        -0.35674E+08
 
   -0.37287E+08         0.79847E+05         0.00000E+00
    0.79847E+05        -0.97213E+08         0.00000E+00
    0.00000E+00         0.00000E+00        -0.35225E+08
 
   -0.49925E+08         0.37470E+04         0.00000E+00
    0.37470E+04        -0.97589E+08         0.00000E+00
    0.00000E+00         0.00000E+00        -0.49995E+08
 
   -0.49923E+08         0.11297E+05         0.00000E+00
    0.11297E+05        -0.97582E+08         0.00000E+00
    0.00000E+00         0.00000E+00        -0.49986E+08
 
   -0.49919E+08         0.18959E+05         0.00000E+00
    0.18959E+05        -0.97576E+08         0.00000E+00
    0.00000E+00         0.00000E+00        -0.49977E+08
 
   -0.49913E+08         0.26708E+05         0.00000E+00
    0.26708E+05        -0.97572E+08         0.00000E+00
    0.00000E+00         0.00000E+00        -0.49968E+08
 
   -0.49907E+08         0.34499E+05         0.00000E+00
    0.34499E+05        -0.97569E+08         0.00000E+00
    0.00000E+00         0.00000E+00        -0.49958E+08
 
   -0.49899E+08         0.42309E+05         0.00000E+00
    0.42309E+05        -0.97568E+08         0.00000E+00
    0.00000E+00         0.00000E+00        -0.49949E+08
 
   -0.49890E+08         0.50132E+05         0.00000E+00
    0.50132E+05        -0.97567E+08         0.00000E+00
    0.00000E+00         0.00000E+00        -0.49939E+08
 
   -0.49881E+08         0.57965E+05         0.00000E+00
    0.57965E+05        -0.97567E+08         0.00000E+00
    0.00000E+00         0.00000E+00        -0.49929E+08
 
   -0.49871E+08         0.65810E+05         0.00000E+00
    0.65810E+05        -0.97567E+08         0.00000E+00
    0.00000E+00         0.00000E+00        -0.49919E+08
 
   -0.49860E+08         0.73670E+05         0.00000E+00
    0.73670E+05        -0.97567E+08         0.00000E+00
    0.00000E+00         0.00000E+00        -0.49908E+08
 
   -0.49849E+08         0.81558E+05         0.00000E+00
    0.81558E+05        -0.97567E+08         0.00000E+00
    0.00000E+00         0.00000E+00        -0.49897E+08
 
   -0.49837E+08         0.89489E+05         0.00000E+00
    0.89489E+05        -0.97567E+08         0.00000E+00
    0.00000E+00         0.00000E+00        -0.49886E+08
 
   -0.49825E+08         0.97485E+05         0.00000E+00
    0.97485E+05        -0.97567E+08         0.00000E+00
    0.00000E+00         0.00000E+00        -0.49874E+08
 
   -0.49812E+08         0.10557E+06         0.00000E+00
    0.10557E+06        -0.97567E+08         0.00000E+00
    0.00000E+00         0.00000E+00        -0.49862E+08
 
   -0.49798E+08         0.11378E+06         0.00000E+00
    0.11378E+06        -0.97567E+08         0.00000E+00
    0.00000E+00         0.00000E+00        -0.49849E+08
 
   -0.49783E+08         0.12215E+06         0.00000E+00
    0.12215E+06        -0.97566E+08         0.00000E+00
    0.00000E+00         0.00000E+00        -0.49835E+08
 
   -0.49767E+08         0.13069E+06         0.00000E+00
    0.13069E+06        -0.97566E+08         0.00000E+00
    0.00000E+00         0.00000E+00        -0.49821E+08
 
   -0.49751E+08         0.13946E+06         0.00000E+00
    0.13946E+06        -0.97565E+08         0.00000E+00
    0.00000E+00         0.00000E+00        -0.49807E+08
 
   -0.49733E+08         0.14849E+06         0.00000E+00
    0.14849E+06        -0.97564E+08         0.00000E+00
    0.00000E+00         0.00000E+00        -0.49791E+08
 
   -0.49715E+08         0.15780E+06         0.00000E+00
    0.15780E+06        -0.97563E+08         0.00000E+00
    0.00000E+00         0.00000E+00        -0.49775E+08
 
   -0.49695E+08         0.16745E+06         0.00000E+00
    0.16745E+06        -0.97562E+08         0.00000E+00
    0.00000E+00         0.00000E+00        -0.49758E+08
 
   -0.49675E+08         0.17745E+06         0.00000E+00
    0.17745E+06        -0.97561E+08         0.00000E+00
    0.00000E+00         0.00000E+00        -0.49740E+08
 
   -0.49653E+08         0.18784E+06         0.00000E+00
    0.18784E+06        -0.97559E+08         0.00000E+00
    0.00000E+00         0.00000E+00        -0.49721E+08
 
   -0.49630E+08         0.19867E+06         0.00000E+00
    0.19867E+06        -0.97558E+08         0.00000E+00
    0.00000E+00         0.00000E+00        -0.49702E+08
 
   -0.49606E+08         0.20995E+06         0.00000E+00
    0.20995E+06        -0.97556E+08         0.00000E+00
    0.00000E+00         0.00000E+00        -0.49681E+08
 
   -0.49580E+08         0.22173E+06         0.00000E+00
    0.22173E+06        -0.97554E+08         0.00000E+00
    0.00000E+00         0.00000E+00        -0.49659E+08
 
   -0.49553E+08         0.23403E+06         0.00000E+00
    0.23403E+06        -0.97552E+08         0.00000E+00
    0.00000E+00         0.00000E+00        -0.49635E+08
 
   -0.49524E+08         0.24689E+06         0.00000E+00
    0.24689E+06        -0.97550E+08         0.00000E+00
    0.00000E+00         0.00000E+00        -0.49611E+08
 
   -0.49494E+08         0.26034E+06         0.00000E+00
    0.26034E+06        -0.97548E+08         0.00000E+00
    0.00000E+00         0.00000E+00        -0.49585E+08
 
   -0.49462E+08         0.27440E+06         0.00000E+00
    0.27440E+06        -0.97546E+08         0.00000E+00
    0.00000E+00         0.00000E+00        -0.49557E+08
 
   -0.49429E+08         0.28911E+06         0.00000E+00
    0.28911E+06        -0.97543E+08         0.00000E+00
    0.00000E+00         0.00000E+00        -0.49528E+08
 
   -0.49393E+08         0.30450E+06         0.00000E+00
    0.30450E+06        -0.97541E+08         0.00000E+00
    0.00000E+00         0.00000E+00        -0.49497E+08
 
   -0.49356E+08         0.32059E+06         0.00000E+00
    0.32059E+06        -0.97538E+08         0.00000E+00
    0.00000E+00         0.00000E+00        -0.49465E+08
 
   -0.49316E+08         0.33741E+06         0.00000E+00
    0.33741E+06        -0.97535E+08         0.00000E+00
    0.00000E+00         0.00000E+00        -0.49431E+08
 
   -0.49275E+08         0.35500E+06         0.00000E+00
    0.35500E+06        -0.97532E+08         0.00000E+00
    0.00000E+00         0.00000E+00        -0.49395E+08
 
   -0.49231E+08         0.37338E+06         0.00000E+00
    0.37338E+06        -0.97530E+08         0.00000E+00
    0.00000E+00         0.00000E+00        -0.49356E+08
 
   -0.49185E+08         0.39257E+06         0.00000E+00
    0.39257E+06        -0.97526E+08         0.00000E+00
    0.00000E+00         0.00000E+00        -0.49316E+08
 
   -0.49136E+08         0.41260E+06         0.00000E+00
    0.41260E+06        -0.97523E+08         0.00000E+00
    0.00000E+00         0.00000E+00        -0.49273E+08
 
   -0.49085E+08         0.43350E+06         0.00000E+00
    0.43350E+06        -0.97520E+08         0.00000E+00
    0.00000E+00         0.00000E+00        -0.49228E+08
 
   -0.49031E+08         0.45528E+06         0.00000E+00
    0.45528E+06        -0.97517E+08         0.00000E+00
    0.00000E+00         0.00000E+00        -0.49181E+08
 
   -0.48974E+08         0.47798E+06         0.00000E+00
    0.47798E+06        -0.97514E+08         0.00000E+00
    0.00000E+00         0.00000E+00        -0.49130E+08
 
   -0.48915E+08         0.50161E+06         0.00000E+00
    0.50161E+06        -0.97510E+08         0.00000E+00
    0.00000E+00         0.00000E+00        -0.49077E+08
 
   -0.48852E+08         0.52620E+06         0.00000E+00
    0.52620E+06        -0.97507E+08         0.00000E+00
    0.00000E+00         0.00000E+00        -0.49021E+08
 
   -0.48786E+08         0.55175E+06         0.00000E+00
    0.55175E+06        -0.97503E+08         0.00000E+00
    0.00000E+00         0.00000E+00        -0.48962E+08
 
   -0.48716E+08         0.57829E+06         0.00000E+00
    0.57829E+06        -0.97500E+08         0.00000E+00
    0.00000E+00         0.00000E+00        -0.48900E+08
 
   -0.48643E+08         0.60583E+06         0.00000E+00
    0.60583E+06        -0.97496E+08         0.00000E+00
    0.00000E+00         0.00000E+00        -0.48834E+08
 
   -0.48567E+08         0.63438E+06         0.00000E+00
    0.63438E+06        -0.97492E+08         0.00000E+00
    0.00000E+00         0.00000E+00        -0.48765E+08
 
   -0.48486E+08         0.66394E+06         0.00000E+00
    0.66394E+06        -0.97489E+08         0.00000E+00
    0.00000E+00         0.00000E+00        -0.48692E+08
 
   -0.48402E+08         0.69453E+06         0.00000E+00
    0.69453E+06        -0.97485E+08         0.00000E+00
    0.00000E+00         0.00000E+00        -0.48615E+08
 
   -0.48313E+08         0.72614E+06         0.00000E+00
    0.72614E+06        -0.97482E+08         0.00000E+00
    0.00000E+00         0.00000E+00        -0.48534E+08
 
   -0.48220E+08         0.75876E+06         0.00000E+00
    0.75876E+06        -0.97478E+08         0.00000E+00
    0.00000E+00         0.00000E+00        -0.48449E+08
 
   -0.48123E+08         0.79240E+06         0.00000E+00
    0.79240E+06        -0.97475E+08         0.00000E+00
    0.00000E+00         0.00000E+00        -0.48359E+08
 
   -0.48021E+08         0.82702E+06         0.00000E+00
    0.82702E+06        -0.97471E+08         0.00000E+00
    0.00000E+00         0.00000E+00        -0.48264E+08
 
   -0.47914E+08         0.86262E+06         0.00000E+00
    0.86262E+06        -0.97468E+08         0.00000E+00
    0.00000E+00         0.00000E+00        -0.48165E+08
 
   -0.47802E+08         0.89916E+06         0.00000E+00
    0.89916E+06        -0.97465E+08         0.00000E+00
    0.00000E+00         0.00000E+00        -0.48060E+08
 
   -0.47685E+08         0.93661E+06         0.00000E+00
    0.93661E+06        -0.97462E+08         0.00000E+00
    0.00000E+00         0.00000E+00        -0.47950E+08
 
   -0.47563E+08         0.97492E+06         0.00000E+00
    0.97492E+06        -0.97459E+08         0.00000E+00
    0.00000E+00         0.00000E+00        -0.47835E+08
 
   -0.47435E+08         0.10141E+07         0.00000E+00
    0.10141E+07        -0.97457E+08         0.00000E+00
    0.00000E+00         0.00000E+00        -0.47714E+08
 
   -0.47302E+08         0.10539E+07         0.00000E+00
    0.10539E+07        -0.97455E+08         0.00000E+00
    0.00000E+00         0.00000E+00        -0.47587E+08
 
   -0.47163E+08         0.10945E+07         0.00000E+00
    0.10945E+07        -0.97453E+08         0.00000E+00
    0.00000E+00         0.00000E+00        -0.47454E+08
 
   -0.47018E+08         0.11356E+07         0.00000E+00
    0.11356E+07        -0.97451E+08         0.00000E+00
    0.00000E+00         0.00000E+00        -0.47314E+08
 
   -0.46866E+08         0.11772E+07         0.00000E+00
    0.11772E+07        -0.97450E+08         0.00000E+00
    0.00000E+00         0.00000E+00        -0.47167E+08
 
   -0.46709E+08         0.12192E+07         0.00000E+00
    0.12192E+07        -0.97450E+08         0.00000E+00
    0.00000E+00         0.00000E+00        -0.47014E+08
 
   -0.46545E+08         0.12615E+07         0.00000E+00
    0.12615E+07        -0.97450E+08         0.00000E+00
    0.00000E+00         0.00000E+00        -0.46853E+08
 
   -0.46374E+08         0.13038E+07         0.00000E+00
    0.13038E+07        -0.97451E+08         0.00000E+00
    0.00000E+00         0.00000E+00        -0.46685E+08
 
   -0.46197E+08         0.13461E+07         0.00000E+00
    0.13461E+07        -0.97452E+08         0.00000E+00
    0.00000E+00         0.00000E+00        -0.46510E+08
 
   -0.46013E+08         0.13880E+07         0.00000E+00
    0.13880E+07        -0.97455E+08         0.00000E+00
    0.00000E+00         0.00000E+00        -0.46326E+08
 
   -0.45823E+08         0.14295E+07         0.00000E+00
    0.14295E+07        -0.97458E+08         0.00000E+00
    0.00000E+00         0.00000E+00        -0.46135E+08
 
   -0.45625E+08         0.14703E+07         0.00000E+00
    0.14703E+07        -0.97463E+08         0.00000E+00
    0.00000E+00         0.00000E+00        -0.45935E+08
 
   -0.45421E+08         0.15101E+07         0.00000E+00
    0.15101E+07        -0.97468E+08         0.00000E+00
    0.00000E+00         0.00000E+00        -0.45726E+08
 
   -0.45209E+08         0.15486E+07         0.00000E+00
    0.15486E+07        -0.97475E+08         0.00000E+00
    0.00000E+00         0.00000E+00        -0.45509E+08
 
   -0.44991E+08         0.15854E+07         0.00000E+00
    0.15854E+07        -0.97483E+08         0.00000E+00
    0.00000E+00         0.00000E+00        -0.45283E+08
 
   -0.44765E+08         0.16203E+07         0.00000E+00
    0.16203E+07        -0.97493E+08         0.00000E+00
    0.00000E+00         0.00000E+00        -0.45047E+08
 
   -0.44533E+08         0.16528E+07         0.00000E+00
    0.16528E+07        -0.97505E+08         0.00000E+00
    0.00000E+00         0.00000E+00        -0.44803E+08
 
   -0.44293E+08         0.16824E+07         0.00000E+00
    0.16824E+07        -0.97519E+08         0.00000E+00
    0.00000E+00         0.00000E+00        -0.44548E+08
 
   -0.44047E+08         0.17088E+07         0.00000E+00
    0.17088E+07        -0.97535E+08         0.00000E+00
    0.00000E+00         0.00000E+00        -0.44284E+08
 
   -0.43794E+08         0.17313E+07         0.00000E+00
    0.17313E+07        -0.97554E+08         0.00000E+00
    0.00000E+00         0.00000E+00        -0.44011E+08
 
   -0.43535E+08         0.17495E+07         0.00000E+00
    0.17495E+07        -0.97575E+08         0.00000E+00
    0.00000E+00         0.00000E+00        -0.43727E+08
 
   -0.43269E+08         0.17626E+07         0.00000E+00
    0.17626E+07        -0.97600E+08         0.00000E+00
    0.00000E+00         0.00000E+00        -0.43433E+08
 
   -0.42997E+08         0.17701E+07         0.00000E+00
    0.17701E+07        -0.97627E+08         0.00000E+00
    0.00000E+00         0.00000E+00        -0.43129E+08
 
   -0.42719E+08         0.17714E+07         0.00000E+00
    0.17714E+07        -0.97658E+08         0.00000E+00
    0.00000E+00         0.00000E+00        -0.42816E+08
 
   -0.42436E+08         0.17656E+07         0.00000E+00
    0.17656E+07        -0.97693E+08         0.00000E+00
    0.00000E+00         0.00000E+00        -0.42492E+08
 
   -0.42147E+08         0.17521E+07         0.00000E+00
    0.17521E+07        -0.97731E+08         0.00000E+00
    0.00000E+00         0.00000E+00        -0.42158E+08
 
   -0.41852E+08         0.17302E+07         0.00000E+00
    0.17302E+07        -0.97774E+08         0.00000E+00
    0.00000E+00         0.00000E+00        -0.41814E+08
 
   -0.41553E+08         0.16991E+07         0.00000E+00
    0.16991E+07        -0.97820E+08         0.00000E+00
    0.00000E+00         0.00000E+00        -0.41460E+08
 
   -0.41249E+08         0.16583E+07         0.00000E+00
    0.16583E+07        -0.97870E+08         0.00000E+00
    0.00000E+00         0.00000E+00        -0.41097E+08
 
   -0.40941E+08         0.16070E+07         0.00000E+00
    0.16070E+07        -0.97923E+08         0.00000E+00
    0.00000E+00         0.00000E+00        -0.40724E+08
 
   -0.40628E+08         0.15447E+07         0.00000E+00
    0.15447E+07        -0.97978E+08         0.00000E+00
    0.00000E+00         0.00000E+00        -0.40343E+08
 
   -0.40312E+08         0.14712E+07         0.00000E+00
    0.14712E+07        -0.98035E+08         0.00000E+00
    0.00000E+00         0.00000E+00        -0.39952E+08
 
   -0.39993E+08         0.13863E+07         0.00000E+00
    0.13863E+07        -0.98090E+08         0.00000E+00
    0.00000E+00         0.00000E+00        -0.39553E+08
 
   -0.39672E+08         0.12899E+07         0.00000E+00
    0.12899E+07        -0.98141E+08         0.00000E+00
    0.00000E+00         0.00000E+00        -0.39146E+08
 
   -0.39350E+08         0.11825E+07         0.00000E+00
    0.11825E+07        -0.98184E+08         0.00000E+00
    0.00000E+00         0.00000E+00        -0.38731E+08
 
   -0.39029E+08         0.10648E+07         0.00000E+00
    0.10648E+07        -0.98213E+08         0.00000E+00
    0.00000E+00         0.00000E+00        -0.38310E+08
 
   -0.38713E+08         0.93771E+06         0.00000E+00
    0.93771E+06        -0.98222E+08         0.00000E+00
    0.00000E+00         0.00000E+00        -0.37882E+08
 
   -0.38407E+08         0.80255E+06         0.00000E+00
    0.80255E+06        -0.98200E+08         0.00000E+00
    0.00000E+00         0.00000E+00        -0.37449E+08
 
   -0.38118E+08         0.66074E+06         0.00000E+00
    0.66074E+06        -0.98135E+08         0.00000E+00
    0.00000E+00         0.00000E+00        -0.37010E+08
 
   -0.37858E+08         0.51394E+06         0.00000E+00
    0.51394E+06        -0.98014E+08         0.00000E+00
    0.00000E+00         0.00000E+00        -0.36568E+08
 
   -0.37642E+08         0.36458E+06         0.00000E+00
    0.36458E+06        -0.97821E+08         0.00000E+00
    0.00000E+00         0.00000E+00        -0.36122E+08
 
   -0.37486E+08         0.21617E+06         0.00000E+00
    0.21617E+06        -0.97546E+08         0.00000E+00
    0.00000E+00         0.00000E+00        -0.35674E+08
 
   -0.37404E+08         0.71354E+05         0.00000E+00
    0.71354E+05        -0.97182E+08         0.00000E+00
    0.00000E+00         0.00000E+00        -0.35225E+08
 
   -0.49920E+08         0.35485E+04         0.00000E+00
    0.35485E+04        -0.97590E+08         0.00000E+00
    0.00000E+00         0.00000E+00        -0.49995E+08
 
   -0.49919E+08         0.10713E+05         0.00000E+00
    0.10713E+05        -0.97583E+08         0.00000E+00
    0.00000E+00         0.00000E+00        -0.49986E+08
 
   -0.49915E+08         0.18029E+05         0.00000E+00
    0.18029E+05        -0.97578E+08         0.00000E+00
    0.00000E+00         0.00000E+00        -0.49977E+08
 
   -0.49909E+08         0.25488E+05         0.00000E+00
    0.25488E+05        -0.97574E+08         0.00000E+00
    0.00000E+00         0.00000E+00        -0.49968E+08
 
   -0.49903E+08         0.33049E+05         0.00000E+00
    0.33049E+05        -0.97571E+08         0.00000E+00
    0.00000E+00         0.00000E+00        -0.49958E+08
 
   -0.49895E+08         0.40676E+05         0.00000E+00
    0.40676E+05        -0.97569E+08         0.00000E+00
    0.00000E+00         0.00000E+00        -0.49949E+08
 
   -0.49887E+08         0.48346E+05         0.00000E+00
    0.48346E+05        -0.97568E+08         0.00000E+00
    0.00000E+00         0.00000E+00        -0.49939E+08
 
   -0.49877E+08         0.56043E+05         0.00000E+00
    0.56043E+05        -0.97568E+08         0.00000E+00
    0.00000E+00         0.00000E+00        -0.49929E+08
 
   -0.49868E+08         0.63760E+05         0.00000E+00
    0.63760E+05        -0.97568E+08         0.00000E+00
    0.00000E+00         0.00000E+00        -0.49919E+08
 
   -0.49857E+08         0.71494E+05         0.00000E+00
    0.71494E+05        -0.97568E+08         0.00000E+00
    0.00000E+00         0.00000E+00        -0.49908E+08
 
   -0.49846E+08         0.79253E+05         0.00000E+00
    0.79253E+05        -0.97568E+08         0.00000E+00
    0.00000E+00         0.00000E+00        -0.49897E+08
 
   -0.49834E+08         0.87050E+05         0.00000E+00
    0.87050E+05        -0.97569E+08         0.00000E+00
    0.00000E+00         0.00000E+00        -0.49886E+08
 
   -0.49821E+08         0.94906E+05         0.00000E+00
    0.94906E+05        -0.97569E+08         0.00000E+00
    0.00000E+00         0.00000E+00        -0.49874E+08
 
   -0.49808E+08         0.10285E+06         0.00000E+00
    0.10285E+06        -0.97569E+08         0.00000E+00
    0.00000E+00         0.00000E+00        -0.49862E+08
 
   -0.49794E+08         0.11090E+06         0.00000E+00
    0.11090E+06        -0.97568E+08         0.00000E+00
    0.00000E+00         0.00000E+00        -0.49849E+08
 
   -0.49779E+08         0.11910E+06         0.00000E+00
    0.11910E+06        -0.97568E+08         0.00000E+00
    0.00000E+00         0.00000E+00        -0.49835E+08
 
   -0.49763E+08         0.12747E+06         0.00000E+00
    0.12747E+06        -0.97568E+08         0.00000E+00
    0.00000E+00         0.00000E+00        -0.49821E+08
 
   -0.49747E+08         0.13605E+06         0.00000E+00
    0.13605E+06        -0.97567E+08         0.00000E+00
    0.00000E+00         0.00000E+00        -0.49807E+08
 
   -0.49729E+08         0.14488E+06         0.00000E+00
    0.14488E+06        -0.97566E+08         0.00000E+00
    0.00000E+00         0.00000E+00        -0.49791E+08
 
   -0.49711E+08         0.15399E+06         0.00000E+00
    0.15399E+06        -0.97565E+08         0.00000E+00
    0.00000E+00         0.00000E+00        -0.49775E+08
 
   -0.49691E+08         0.16342E+06         0.00000E+00
    0.16342E+06        -0.97564E+08         0.00000E+00
    0.00000E+00         0.00000E+00        -0.49758E+08
 
   -0.49670E+08         0.17319E+06         0.00000E+00
    0.17319E+06        -0.97563E+08         0.00000E+00
    0.00000E+00         0.00000E+00        -0.49740E+08
 
   -0.49648E+08         0.18335E+06         0.00000E+00
    0.18335E+06        -0.97562E+08         0.00000E+00
    0.00000E+00         0.00000E+00        -0.49721E+08
 
   -0.49625E+08         0.19392E+06         0.00000E+00
    0.19392E+06        -0.97560E+08         0.00000E+00
    0.00000E+00         0.00000E+00        -0.49702E+08
 
   -0.49600E+08         0.20494E+06         0.00000E+00
    0.20494E+06        -0.97558E+08         0.00000E+00
    0.00000E+00         0.00000E+00        -0.49681E+08
 
   -0.49575E+08         0.21643E+06         0.00000E+00
    0.21643E+06        -0.97557E+08         0.00000E+00
    0.00000E+00         0.00000E+00        -0.49659E+08
 
   -0.49547E+08         0.22844E+06         0.00000E+00
    0.22844E+06        -0.97555E+08         0.00000E+00
    0.00000E+00         0.00000E+00        -0.49635E+08
 
   -0.49518E+08         0.24099E+06         0.00000E+00
    0.24099E+06        -0.97553E+08         0.00000E+00
    0.00000E+00         0.00000E+00        -0.49611E+08
 
   -0.49488E+08         0.25411E+06         0.00000E+00
    0.25411E+06        -0.97551E+08         0.00000E+00
    0.00000E+00         0.00000E+00        -0.49585E+08
 
   -0.49456E+08         0.26783E+06         0.00000E+00
    0.26783E+06        -0.97549E+08         0.00000E+00
    0.00000E+00         0.00000E+00        -0.49557E+08
 
   -0.49422E+08         0.28218E+06         0.00000E+00
    0.28218E+06        -0.97546E+08         0.00000E+00
    0.00000E+00         0.00000E+00        -0.49528E+08
 
   -0.49386E+08         0.29718E+06         0.00000E+00
    0.29718E+06        -0.97544E+08         0.00000E+00
    0.00000E+00         0.00000E+00        -0.49497E+08
 
   -0.49348E+08         0.31288E+06         0.00000E+00
    0.31288E+06        -0.97541E+08         0.00000E+00
    0.00000E+00         0.00000E+00        -0.49465E+08
 
   -0.49309E+08         0.32929E+06         0.00000E+00
    0.32929E+06        -0.97539E+08         0.00000E+00
    0.00000E+00         0.00000E+00        -0.49431E+08
 
   -0.49267E+08         0.34643E+06         0.00000E+00
    0.34643E+06        -0.97536E+08         0.00000E+00
    0.00000E+00         0.00000E+00        -0.49395E+08
 
   -0.49222E+08         0.36435E+06         0.00000E+00
    0.36435E+06        -0.97533E+08         0.00000E+00
    0.00000E+00         0.00000E+00        -0.49356E+08
 
   -0.49176E+08         0.38306E+06         0.00000E+00
    0.38306E+06        -0.97530E+08         0.00000E+00
    0.00000E+00         0.00000E+00        -0.49316E+08
 
   -0.49127E+08         0.40258E+06         0.00000E+00
    0.40258E+06        -0.97527E+08         0.00000E+00
    0.00000E+00         0.00000E+00        -0.49273E+08
 
   -0.49075E+08         0.42295E+06         0.00000E+00
    0.42295E+06        -0.97524E+08         0.00000E+00
    0.00000E+00         0.00000E+00        -0.49228E+08
 
   -0.49021E+08         0.44418E+06         0.00000E+00
    0.44418E+06        -0.97521E+08         0.00000E+00
    0.00000E+00         0.00000E+00        -0.49181E+08
 
   -0.48964E+08         0.46630E+06         0.00000E+00
    0.46630E+06        -0.97518E+08         0.00000E+00
    0.00000E+00         0.00000E+00        -0.49130E+08
 
   -0.48904E+08         0.48932E+06         0.00000E+00
    0.48932E+06        -0.97515E+08         0.00000E+00
    0.00000E+00         0.00000E+00        -0.49077E+08
 
   -0.48840E+08         0.51327E+06         0.00000E+00
    0.51327E+06        -0.97512E+08         0.00000E+00
    0.00000E+00         0.00000E+00        -0.49021E+08
 
   -0.48774E+08         0.53816E+06         0.00000E+00
    0.53816E+06        -0.97508E+08         0.00000E+00
    0.00000E+00         0.00000E+00        -0.48962E+08
 
   -0.48704E+08         0.56401E+06         0.00000E+00
    0.56401E+06        -0.97505E+08         0.00000E+00
    0.00000E+00         0.00000E+00        -0.48900E+08
 
   -0.48630E+08         0.59083E+06         0.00000E+00
    0.59083E+06        -0.97501E+08         0.00000E+00
    0.00000E+00         0.00000E+00        -0.48834E+08
 
   -0.48553E+08         0.61862E+06         0.00000E+00
    0.61862E+06        -0.97498E+08         0.00000E+00
    0.00000E+00         0.00000E+00        -0.48765E+08
 
   -0.48472E+08         0.64741E+06         0.00000E+00
    0.64741E+06        -0.97495E+08         0.00000E+00
    0.00000E+00         0.00000E+00        -0.48692E+08
 
   -0.48387E+08         0.67718E+06         0.00000E+00
    0.67718E+06        -0.97491E+08         0.00000E+00
    0.00000E+00         0.00000E+00        -0.48615E+08
 
   -0.48298E+08         0.70794E+06         0.00000E+00
    0.70794E+06        -0.97488E+08         0.00000E+00
    0.00000E+00         0.00000E+00        -0.48534E+08
 
   -0.48205E+08         0.73969E+06         0.00000E+00
    0.73969E+06        -0.97485E+08         0.00000E+00
    0.00000E+00         0.00000E+00        -0.48449E+08
 
   -0.48107E+08         0.77241E+06         0.00000E+00
    0.77241E+06        -0.97481E+08         0.00000E+00
    0.00000E+00         0.00000E+00        -0.48359E+08
 
   -0.48004E+08         0.80609E+06         0.00000E+00
    0.80609E+06        -0.97478E+08         0.00000E+00
    0.00000E+00         0.00000E+00        -0.48264E+08
 
   -0.47897E+08         0.84071E+06         0.00000E+00
    0.84071E+06        -0.97475E+08         0.00000E+00
    0.00000E+00         0.00000E+00        -0.48165E+08
 
   -0.47785E+08         0.87624E+06         0.00000E+00
    0.87624E+06        -0.97472E+08         0.00000E+00
    0.00000E+00         0.00000E+00        -0.48060E+08
 
   -0.47667E+08         0.91264E+06         0.00000E+00
    0.91264E+06        -0.97469E+08         0.00000E+00
    0.00000E+00         0.00000E+00        -0.47950E+08
 
   -0.47544E+08         0.94988E+06         0.00000E+00
    0.94988E+06        -0.97467E+08         0.00000E+00
    0.00000E+00         0.00000E+00        -0.47835E+08
 
   -0.47416E+08         0.98790E+06         0.00000E+00
    0.98790E+06        -0.97465E+08         0.00000E+00
    0.00000E+00         0.00000E+00        -0.47714E+08
 
   -0.47282E+08         0.10266E+07         0.00000E+00
    0.10266E+07        -0.97463E+08         0.00000E+00
    0.00000E+00         0.00000E+00        -0.47587E+08
 
   -0.47143E+08         0.10660E+07         0.00000E+00
    0.10660E+07        -0.97461E+08         0.00000E+00
    0.00000E+00         0.00000E+00        -0.47454E+08
 
   -0.46997E+08         0.11059E+07         0.00000E+00
    0.11059E+07        -0.97460E+08         0.00000E+00
    0.00000E+00         0.00000E+00        -0.47314E+08
 
   -0.46846E+08         0.11463E+07         0.00000E+00
    0.11463E+07        -0.97459E+08         0.00000E+00
    0.00000E+00         0.00000E+00        -0.47167E+08
 
   -0.46688E+08         0.11871E+07         0.00000E+00
    0.11871E+07        -0.97458E+08         0.00000E+00
    0.00000E+00         0.00000E+00        -0.47014E+08
 
   -0.46523E+08         0.12280E+07         0.00000E+00
    0.12280E+07        -0.97458E+08         0.00000E+00
    0.00000E+00         0.00000E+00        -0.46853E+08
 
   -0.46353E+08         0.12691E+07         0.00000E+00
    0.12691E+07        -0.97459E+08         0.00000E+00
    0.00000E+00         0.00000E+00        -0.46685E+08
 
   -0.46176E+08         0.13100E+07         0.00000E+00
    0.13100E+07        -0.97461E+08         0.00000E+00
    0.00000E+00         0.00000E+00        -0.46510E+08
 
   -0.45992E+08         0.13506E+07         0.00000E+00
    0.13506E+07        -0.97463E+08         0.00000E+00
    0.00000E+00         0.00000E+00        -0.46326E+08
 
   -0.45801E+08         0.13907E+07         0.00000E+00
    0.13907E+07        -0.97466E+08         0.00000E+00
    0.00000E+00         0.00000E+00        -0.46135E+08
 
   -0.45604E+08         0.14301E+07         0.00000E+00
    0.14301E+07        -0.97470E+08         0.00000E+00
    0.00000E+00         0.00000E+00        -0.45935E+08
 
   -0.45399E+08         0.14685E+07         0.00000E+00
    0.14685E+07        -0.97476E+08         0.00000E+00
    0.00000E+00         0.00000E+00        -0.45726E+08
 
   -0.45188E+08         0.15056E+07         0.00000E+00
    0.15056E+07        -0.97482E+08         0.00000E+00
    0.00000E+00         0.00000E+00        -0.45509E+08
 
   -0.44970E+08         0.15411E+07         0.00000E+00
    0.15411E+07        -0.97490E+08         0.00000E+00
    0.00000E+00         0.00000E+00        -0.45283E+08
 
   -0.44745E+08         0.15746E+07         0.00000E+00
    0.15746E+07        -0.97500E+08         0.00000E+00
    0.00000E+00         0.00000E+00        -0.45047E+08
 
   -0.44514E+08         0.16057E+07         0.00000E+00
    0.16057E+07        -0.97511E+08         0.00000E+00
    0.00000E+00         0.00000E+00        -0.44803E+08
 
   -0.44275E+08         0.16340E+07         0.00000E+00
    0.16340E+07        -0.97525E+08         0.00000E+00
    0.00000E+00         0.00000E+00        -0.44548E+08
 
   -0.44030E+08         0.16590E+07         0.00000E+00
    0.16590E+07        -0.97540E+08         0.00000E+00
    0.00000E+00         0.00000E+00        -0.44284E+08
 
   -0.43779E+08         0.16802E+07         0.00000E+00
    0.16802E+07        -0.97558E+08         0.00000E+00
    0.00000E+00         0.00000E+00        -0.44011E+08
 
   -0.43521E+08         0.16971E+07         0.00000E+00
    0.16971E+07        -0.97578E+08         0.00000E+00
    0.00000E+00         0.00000E+00        -0.43727E+08
 
   -0.43257E+08         0.17091E+07         0.00000E+00
    0.17091E+07        -0.97602E+08         0.00000E+00
    0.00000E+00         0.00000E+00        -0.43433E+08
 
   -0.42988E+08         0.17154E+07         0.00000E+00
    0.17154E+07        -0.97628E+08         0.00000E+00
    0.00000E+00         0.00000E+00        -0.43129E+08
 
   -0.42712E+08         0.17155E+07         0.00000E+00
    0.17155E+07        -0.97658E+08         0.00000E+00
    0.00000E+00         0.00000E+00        -0.42816E+08
 
   -0.42431E+08         0.17086E+07         0.00000E+00
    0.17086E+07        -0.97691E+08         0.00000E+00
    0.00000E+00         0.00000E+00        -0.42492E+08
 
   -0.42146E+08         0.16941E+07         0.00000E+00
    0.16941E+07        -0.97728E+08         0.00000E+00
    0.00000E+00         0.00000E+00        -0.42158E+08
 
   -0.41855E+08         0.16712E+07         0.00000E+00
    0.16712E+07        -0.97768E+08         0.00000E+00
    0.00000E+00         0.00000E+00        -0.41814E+08
 
   -0.41560E+08         0.16392E+07         0.00000E+00
    0.16392E+07        -0.97813E+08         0.00000E+00
    0.00000E+00         0.00000E+00        -0.41460E+08
 
   -0.41260E+08         0.15975E+07         0.00000E+00
    0.15975E+07        -0.97861E+08         0.00000E+00
    0.00000E+00         0.00000E+00        -0.41097E+08
 
   -0.40957E+08         0.15454E+07         0.00000E+00
    0.15454E+07        -0.97912E+08         0.00000E+00
    0.00000E+00         0.00000E+00        -0.40724E+08
 
   -0.40650E+08         0.14824E+07         0.00000E+00
    0.14824E+07        -0.97965E+08         0.00000E+00
    0.00000E+00         0.00000E+00        -0.40343E+08
 
   -0.40340E+08         0.14083E+07         0.00000E+00
    0.14083E+07        -0.98019E+08         0.00000E+00
    0.00000E+00         0.00000E+00        -0.39952E+08
 
   -0.40027E+08         0.13228E+07         0.00000E+00
    0.13228E+07        -0.98071E+08         0.00000E+00
    0.00000E+00         0.00000E+00        -0.39553E+08
 
   -0.39713E+08         0.12262E+07         0.00000E+00
    0.12262E+07        -0.98120E+08         0.00000E+00
    0.00000E+00         0.00000E+00        -0.39146E+08
 
   -0.39398E+08         0.11189E+07         0.00000E+00
    0.11189E+07        -0.98161E+08         0.00000E+00
    0.00000E+00         0.00000E+00        -0.38731E+08
 
   -0.39086E+08         0.10017E+07         0.00000E+00
    0.10017E+07        -0.98189E+08         0.00000E+00
    0.00000E+00         0.00000E+00        -0.38310E+08
 
   -0.38778E+08         0.87605E+06         0.00000E+00
    0.87605E+06        -0.98196E+08         0.00000E+00
    0.00000E+00         0.00000E+00        -0.37882E+08
 
   -0.38481E+08         0.74355E+06         0.00000E+00
    0.74355E+06        -0.98172E+08         0.00000E+00
    0.00000E+00         0.00000E+00        -0.37449E+08
 
   -0.38202E+08         0.60627E+06         0.00000E+00
    0.60627E+06        -0.98107E+08         0.00000E+00
    0.00000E+00         0.00000E+00        -0.37010E+08
 
   -0.37951E+08         0.46661E+06         0.00000E+00
    0.46661E+06        -0.97985E+08         0.00000E+00
    0.00000E+00         0.00000E+00        -0.36568E+08
 
   -0.37744E+08         0.32761E+06         0.00000E+00
    0.32761E+06        -0.97793E+08         0.00000E+00
    0.00000E+00         0.00000E+00        -0.36122E+08
 
   -0.37596E+08         0.19265E+06         0.00000E+00
    0.19265E+06        -0.97518E+08         0.00000E+00
    0.00000E+00         0.00000E+00        -0.35674E+08
 
   -0.37518E+08         0.63302E+05         0.00000E+00
    0.63302E+05        -0.97155E+08         0.00000E+00
    0.00000E+00         0.00000E+00        -0.35225E+08
 
   -0.49916E+08         0.33560E+04         0.00000E+00
    0.33560E+04        -0.97592E+08         0.00000E+00
    0.00000E+00         0.00000E+00        -0.49995E+08
 
   -0.49915E+08         0.10147E+05         0.00000E+00
    0.10147E+05        -0.97585E+08         0.00000E+00
    0.00000E+00         0.00000E+00        -0.49986E+08
 
   -0.49911E+08         0.17122E+05         0.00000E+00
    0.17122E+05        -0.97579E+08         0.00000E+00
    0.00000E+00         0.00000E+00        -0.49977E+08
 
   -0.49906E+08         0.24295E+05         0.00000E+00
    0.24295E+05        -0.97575E+08         0.00000E+00
    0.00000E+00         0.00000E+00        -0.49968E+08
 
   -0.49899E+08         0.31624E+05         0.00000E+00
    0.31624E+05        -0.97572E+08         0.00000E+00
    0.00000E+00         0.00000E+00        -0.49958E+08
 
   -0.49892E+08         0.39064E+05         0.00000E+00
    0.39064E+05        -0.97571E+08         0.00000E+00
    0.00000E+00         0.00000E+00        -0.49949E+08
 
   -0.49883E+08         0.46576E+05         0.00000E+00
    0.46576E+05        -0.97570E+08         0.00000E+00
    0.00000E+00         0.00000E+00        -0.49939E+08
 
   -0.49874E+08         0.54133E+05         0.00000E+00
    0.54133E+05        -0.97570E+08         0.00000E+00
    0.00000E+00         0.00000E+00        -0.49929E+08
 
   -0.49864E+08         0.61718E+05         0.00000E+00
    0.61718E+05        -0.97570E+08         0.00000E+00
    0.00000E+00         0.00000E+00        -0.49919E+08
 
   -0.49854E+08         0.69321E+05         0.00000E+00
    0.69321E+05        -0.97570E+08         0.00000E+00
    0.00000E+00         0.00000E+00        -0.49908E+08
 
   -0.49843E+08         0.76947E+05         0.00000E+00
    0.76947E+05        -0.97570E+08         0.00000E+00
    0.00000E+00         0.00000E+00        -0.49897E+08
 
   -0.49831E+08         0.84607E+05         0.00000E+00
    0.84607E+05        -0.97570E+08         0.00000E+00
    0.00000E+00         0.00000E+00        -0.49886E+08
 
   -0.49818E+08         0.92319E+05         0.00000E+00
    0.92319E+05        -0.97570E+08         0.00000E+00
    0.00000E+00         0.00000E+00        -0.49874E+08
 
   -0.49805E+08         0.10011E+06         0.00000E+00
    0.10011E+06        -0.97570E+08         0.00000E+00
    0.00000E+00         0.00000E+00        -0.49862E+08
 
   -0.49791E+08         0.10800E+06         0.00000E+00
    0.10800E+06        -0.97570E+08         0.00000E+00
    0.00000E+00         0.00000E+00        -0.49849E+08
 
   -0.49776E+08         0.11603E+06         0.00000E+00
    0.11603E+06        -0.97570E+08         0.00000E+00
    0.00000E+00         0.00000E+00        -0.49835E+08
 
   -0.49760E+08         0.12422E+06         0.00000E+00
    0.12422E+06        -0.97569E+08         0.00000E+00
    0.00000E+00         0.00000E+00        -0.49821E+08
 
   -0.49743E+08         0.13262E+06         0.00000E+00
    0.13262E+06        -0.97569E+08         0.00000E+00
    0.00000E+00         0.00000E+00        -0.49807E+08
 
   -0.49725E+08         0.14125E+06         0.00000E+00
    0.14125E+06        -0.97568E+08         0.00000E+00
    0.00000E+00         0.00000E+00        -0.49791E+08
 
   -0.49707E+08         0.15015E+06         0.00000E+00
    0.15015E+06        -0.97567E+08         0.00000E+00
    0.00000E+00         0.00000E+00        -0.49775E+08
 
   -0.49687E+08         0.15936E+06         0.00000E+00
    0.15936E+06        -0.97566E+08         0.00000E+00
    0.00000E+00         0.00000E+00        -0.49758E+08
 
   -0.49666E+08         0.16890E+06         0.00000E+00
    0.16890E+06        -0.97565E+08         0.00000E+00
    0.00000E+00         0.00000E+00        -0.49740E+08
 
   -0.49644E+08         0.17881E+06         0.00000E+00
    0.17881E+06        -0.97564E+08         0.00000E+00
    0.00000E+00         0.00000E+00        -0.49721E+08
 
   -0.49620E+08         0.18913E+06         0.00000E+00
    0.18913E+06        -0.97562E+08         0.00000E+00
    0.00000E+00         0.00000E+00        -0.49702E+08
 
   -0.49595E+08         0.19987E+06         0.00000E+00
    0.19987E+06        -0.97561E+08         0.00000E+00
    0.00000E+00         0.00000E+00        -0.49681E+08
 
   -0.49569E+08         0.21109E+06         0.00000E+00
    0.21109E+06        -0.97559E+08         0.00000E+00
    0.00000E+00         0.00000E+00        -0.49659E+08
 
   -0.49542E+08         0.22280E+06         0.00000E+00
    0.22280E+06        -0.97557E+08         0.00000E+00
    0.00000E+00         0.00000E+00        -0.49635E+08
 
   -0.49513E+08         0.23503E+06         0.00000E+00
    0.23503E+06        -0.97555E+08         0.00000E+00
    0.00000E+00         0.00000E+00        -0.49611E+08
 
   -0.49482E+08         0.24782E+06         0.00000E+00
    0.24782E+06        -0.97553E+08         0.00000E+00
    0.00000E+00         0.00000E+00        -0.49585E+08
 
   -0.49449E+08         0.26120E+06         0.00000E+00
    0.26120E+06        -0.97551E+08         0.00000E+00
    0.00000E+00         0.00000E+00        -0.49557E+08
 
   -0.49415E+08         0.27518E+06         0.00000E+00
    0.27518E+06        -0.97549E+08         0.00000E+00
    0.00000E+00         0.00000E+00        -0.49528E+08
 
   -0.49379E+08         0.28981E+06         0.00000E+00
    0.28981E+06        -0.97547E+08         0.00000E+00
    0.00000E+00         0.00000E+00        -0.49497E+08
 
   -0.49341E+08         0.30510E+06         0.00000E+00
    0.30510E+06        -0.97544E+08         0.00000E+00
    0.00000E+00         0.00000E+00        -0.49465E+08
 
   -0.49301E+08         0.32109E+06         0.00000E+00
    0.32109E+06        -0.97542E+08         0.00000E+00
    0.00000E+00         0.00000E+00        -0.49431E+08
 
   -0.49259E+08         0.33779E+06         0.00000E+00
    0.33779E+06        -0.97539E+08         0.00000E+00
    0.00000E+00         0.00000E+00        -0.49395E+08
 
   -0.49214E+08         0.35524E+06         0.00000E+00
    0.35524E+06        -0.97537E+08         0.00000E+00
    0.00000E+00         0.00000E+00        -0.49356E+08
 
   -0.49167E+08         0.37347E+06         0.00000E+00
    0.37347E+06        -0.97534E+08         0.00000E+00
    0.00000E+00         0.00000E+00        -0.49316E+08
 
   -0.49118E+08         0.39248E+06         0.00000E+00
    0.39248E+06        -0.97531E+08         0.00000E+00
    0.00000E+00         0.00000E+00        -0.49273E+08
 
   -0.49066E+08         0.41232E+06         0.00000E+00
    0.41232E+06        -0.97528E+08         0.00000E+00
    0.00000E+00         0.00000E+00        -0.49228E+08
 
   -0.49011E+08         0.43299E+06         0.00000E+00
    0.43299E+06        -0.97526E+08         0.00000E+00
    0.00000E+00         0.00000E+00        -0.49181E+08
 
   -0.48953E+08         0.45452E+06         0.00000E+00
    0.45452E+06        -0.97523E+08         0.00000E+00
    0.00000E+00         0.00000E+00        -0.49130E+08
 
   -0.48893E+08         0.47694E+06         0.00000E+00
    0.47694E+06        -0.97519E+08         0.00000E+00
    0.00000E+00         0.00000E+00        -0.49077E+08
 
   -0.48829E+08         0.50025E+06         0.00000E+00
    0.50025E+06        -0.97516E+08         0.00000E+00
    0.00000E+00         0.00000E+00        -0.49021E+08
 
   -0.48762E+08         0.52448E+06         0.00000E+00
    0.52448E+06        -0.97513E+08         0.00000E+00
    0.00000E+00         0.00000E+00        -0.48962E+08
 
   -0.48691E+08         0.54963E+06         0.00000E+00
    0.54963E+06        -0.97510E+08         0.00000E+00
    0.00000E+00         0.00000E+00        -0.48900E+08
 
   -0.48617E+08         0.57573E+06         0.00000E+00
    0.57573E+06        -0.97507E+08         0.00000E+00
    0.00000E+00         0.00000E+00        -0.48834E+08
 
   -0.48540E+08         0.60277E+06         0.00000E+00
    0.60277E+06        -0.97504E+08         0.00000E+00
    0.00000E+00         0.00000E+00        -0.48765E+08
 
   -0.48458E+08         0.63077E+06         0.00000E+00
    0.63077E+06        -0.97500E+08         0.00000E+00
    0.00000E+00         0.00000E+00        -0.48692E+08
 
   -0.48373E+08         0.65973E+06         0.00000E+00
    0.65973E+06        -0.97497E+08         0.00000E+00
    0.00000E+00         0.00000E+00        -0.48615E+08
 
   -0.48283E+08         0.68964E+06         0.00000E+00
    0.68964E+06        -0.97494E+08         0.00000E+00
    0.00000E+00         0.00000E+00        -0.48534E+08
 
   -0.48189E+08         0.72051E+06         0.00000E+00
    0.72051E+06        -0.97491E+08         0.00000E+00
    0.00000E+00         0.00000E+00        -0.48449E+08
 
   -0.48091E+08         0.75232E+06         0.00000E+00
    0.75232E+06        -0.97488E+08         0.00000E+00
    0.00000E+00         0.00000E+00        -0.48359E+08
 
   -0.47988E+08         0.78506E+06         0.00000E+00
    0.78506E+06        -0.97485E+08         0.00000E+00
    0.00000E+00         0.00000E+00        -0.48264E+08
 
   -0.47880E+08         0.81870E+06         0.00000E+00
    0.81870E+06        -0.97482E+08         0.00000E+00
    0.00000E+00         0.00000E+00        -0.48165E+08
 
   -0.47767E+08         0.85322E+06         0.00000E+00
    0.85322E+06        -0.97479E+08         0.00000E+00
    0.00000E+00         0.00000E+00        -0.48060E+08
 
   -0.47649E+08         0.88858E+06         0.00000E+00
    0.88858E+06        -0.97477E+08         0.00000E+00
    0.00000E+00         0.00000E+00        -0.47950E+08
 
   -0.47526E+08         0.92474E+06         0.00000E+00
    0.92474E+06        -0.97474E+08         0.00000E+00
    0.00000E+00         0.00000E+00        -0.47835E+08
 
   -0.47397E+08         0.96165E+06         0.00000E+00
    0.96165E+06        -0.97472E+08         0.00000E+00
    0.00000E+00         0.00000E+00        -0.47714E+08
 
   -0.47263E+08         0.99925E+06         0.00000E+00
    0.99925E+06        -0.97470E+08         0.00000E+00
    0.00000E+00         0.00000E+00        -0.47587E+08
 
   -0.47123E+08         0.10375E+07         0.00000E+00
    0.10375E+07        -0.97469E+08         0.00000E+00
    0.00000E+00         0.00000E+00        -0.47454E+08
 
   -0.46977E+08         0.10762E+07         0.00000E+00
    0.10762E+07        -0.97467E+08         0.00000E+00
    0.00000E+00         0.00000E+00        -0.47314E+08
 
   -0.46825E+08         0.11154E+07         0.00000E+00
    0.11154E+07        -0.97467E+08         0.00000E+00
    0.00000E+00         0.00000E+00        -0.47167E+08
 
   -0.46667E+08         0.11549E+07         0.00000E+00
    0.11549E+07        -0.97466E+08         0.00000E+00
    0.00000E+00         0.00000E+00        -0.47014E+08
 
   -0.46502E+08         0.11945E+07         0.00000E+00
    0.11945E+07        -0.97466E+08         0.00000E+00
    0.00000E+00         0.00000E+00        -0.46853E+08
 
   -0.46332E+08         0.12342E+07         0.00000E+00
    0.12342E+07        -0.97467E+08         0.00000E+00
    0.00000E+00         0.00000E+00        -0.46685E+08
 
   -0.46154E+08         0.12739E+07         0.00000E+00
    0.12739E+07        -0.97469E+08         0.00000E+00
    0.00000E+00         0.00000E+00        -0.46510E+08
 
   -0.45970E+08         0.13131E+07         0.00000E+00
    0.13131E+07        -0.97471E+08         0.00000E+00
    0.00000E+00         0.00000E+00        -0.46326E+08
 
   -0.45780E+08         0.13519E+07         0.00000E+00
    0.13519E+07        -0.97474E+08         0.00000E+00
    0.00000E+00         0.00000E+00        -0.46135E+08
 
   -0.45582E+08         0.13900E+07         0.00000E+00
    0.13900E+07        -0.97478E+08         0.00000E+00
    0.00000E+00         0.00000E+00        -0.45935E+08
 
   -0.45378E+08         0.14270E+07         0.00000E+00
    0.14270E+07        -0.97483E+08         0.00000E+00
    0.00000E+00         0.00000E+00        -0.45726E+08
 
   -0.45167E+08         0.14627E+07         0.00000E+00
    0.14627E+07        -0.97490E+08         0.00000E+00
    0.00000E+00         0.00000E+00        -0.45509E+08
 
   -0.44950E+08         0.14968E+07         0.00000E+00
    0.14968E+07        -0.97497E+08         0.00000E+00
    0.00000E+00         0.00000E+00        -0.45283E+08
 
   -0.44725E+08         0.15290E+07         0.00000E+00
    0.15290E+07        -0.97506E+08         0.00000E+00
    0.00000E+00         0.00000E+00        -0.45047E+08
 
   -0.44495E+08         0.15588E+07         0.00000E+00
    0.15588E+07        -0.97517E+08         0.00000E+00
    0.00000E+00         0.00000E+00        -0.44803E+08
 
   -0.44257E+08         0.15858E+07         0.00000E+00
    0.15858E+07        -0.97530E+08         0.00000E+00
    0.00000E+00         0.00000E+00        -0.44548E+08
 
   -0.44013E+08         0.16095E+07         0.00000E+00
    0.16095E+07        -0.97545E+08         0.00000E+00
    0.00000E+00         0.00000E+00        -0.44284E+08
 
   -0.43763E+08         0.16295E+07         0.00000E+00
    0.16295E+07        -0.97562E+08         0.00000E+00
    0.00000E+00         0.00000E+00        -0.44011E+08
 
   -0.43507E+08         0.16451E+07         0.00000E+00
    0.16451E+07        -0.97581E+08         0.00000E+00
    0.00000E+00         0.00000E+00        -0.43727E+08
 
   -0.43245E+08         0.16559E+07         0.00000E+00
    0.16559E+07        -0.97603E+08         0.00000E+00
    0.00000E+00         0.00000E+00        -0.43433E+08
 
   -0.42978E+08         0.16611E+07         0.00000E+00
    0.16611E+07        -0.97628E+08         0.00000E+00
    0.00000E+00         0.00000E+00        -0.43129E+08
 
   -0.42705E+08         0.16601E+07         0.00000E+00
    0.16601E+07        -0.97657E+08         0.00000E+00
    0.00000E+00         0.00000E+00        -0.42816E+08
 
   -0.42427E+08         0.16523E+07         0.00000E+00
    0.16523E+07        -0.97689E+08         0.00000E+00
    0.00000E+00         0.00000E+00        -0.42492E+08
 
   -0.42144E+08         0.16368E+07         0.00000E+00
    0.16368E+07        -0.97724E+08         0.00000E+00
    0.00000E+00         0.00000E+00        -0.42158E+08
 
   -0.41857E+08         0.16130E+07         0.00000E+00
    0.16130E+07        -0.97763E+08         0.00000E+00
    0.00000E+00         0.00000E+00        -0.41814E+08
 
   -0.41566E+08         0.15802E+07         0.00000E+00
    0.15802E+07        -0.97805E+08         0.00000E+00
    0.00000E+00         0.00000E+00        -0.41460E+08
 
   -0.41271E+08         0.15376E+07         0.00000E+00
    0.15376E+07        -0.97851E+08         0.00000E+00
    0.00000E+00         0.00000E+00        -0.41097E+08
 
   -0.40972E+08         0.14848E+07         0.00000E+00
    0.14848E+07        -0.97900E+08         0.00000E+00
    0.00000E+00         0.00000E+00        -0.40724E+08
 
   -0.40671E+08         0.14213E+07         0.00000E+00
    0.14213E+07        -0.97951E+08         0.00000E+00
    0.00000E+00         0.00000E+00        -0.40343E+08
 
   -0.40367E+08         0.13466E+07         0.00000E+00
    0.13466E+07        -0.98003E+08         0.00000E+00
    0.00000E+00         0.00000E+00        -0.39952E+08
 
   -0.40061E+08         0.12608E+07         0.00000E+00
    0.12608E+07        -0.98053E+08         0.00000E+00
    0.00000E+00         0.00000E+00        -0.39553E+08
 
   -0.39754E+08         0.11640E+07         0.00000E+00
    0.11640E+07        -0.98100E+08         0.00000E+00
    0.00000E+00         0.00000E+00        -0.39146E+08
 
   -0.39447E+08         0.10568E+07         0.00000E+00
    0.10568E+07        -0.98139E+08         0.00000E+00
    0.00000E+00         0.00000E+00        -0.38731E+08
 
   -0.39142E+08         0.94034E+06         0.00000E+00
    0.94034E+06        -0.98165E+08         0.00000E+00
    0.00000E+00         0.00000E+00        -0.38310E+08
 
   -0.38844E+08         0.81617E+06         0.00000E+00
    0.81617E+06        -0.98170E+08         0.00000E+00
    0.00000E+00         0.00000E+00        -0.37882E+08
 
   -0.38555E+08         0.68641E+06         0.00000E+00
    0.68641E+06        -0.98146E+08         0.00000E+00
    0.00000E+00         0.00000E+00        -0.37449E+08
 
   -0.38285E+08         0.55370E+06         0.00000E+00
    0.55370E+06        -0.98080E+08         0.00000E+00
    0.00000E+00         0.00000E+00        -0.37010E+08
 
   -0.38044E+08         0.42113E+06         0.00000E+00
    0.42113E+06        -0.97958E+08         0.00000E+00
    0.00000E+00         0.00000E+00        -0.36568E+08
 
   -0.37846E+08         0.29224E+06         0.00000E+00
    0.29224E+06        -0.97766E+08         0.00000E+00
    0.00000E+00         0.00000E+00        -0.36122E+08
 
   -0.37703E+08         0.17022E+06         0.00000E+00
    0.17022E+06        -0.97493E+08         0.00000E+00
    0.00000E+00         0.00000E+00        -0.35674E+08
 
   -0.37629E+08         0.55628E+05         0.00000E+00
    0.55628E+05        -0.97132E+08         0.00000E+00
    0.00000E+00         0.00000E+00        -0.35225E+08
 
   -0.49912E+08         0.31685E+04         0.00000E+00
    0.31685E+04        -0.97593E+08         0.00000E+00
    0.00000E+00         0.00000E+00        -0.49995E+08
 
   -0.49911E+08         0.95944E+04         0.00000E+00
    0.95944E+04        -0.97586E+08         0.00000E+00
    0.00000E+00         0.00000E+00        -0.49986E+08
 
   -0.49907E+08         0.16237E+05         0.00000E+00
    0.16237E+05        -0.97580E+08         0.00000E+00
    0.00000E+00         0.00000E+00        -0.49977E+08
 
   -0.49902E+08         0.23126E+05         0.00000E+00
    0.23126E+05        -0.97576E+08         0.00000E+00
    0.00000E+00         0.00000E+00        -0.49968E+08
 
   -0.49896E+08         0.30223E+05         0.00000E+00
    0.30223E+05        -0.97574E+08         0.00000E+00
    0.00000E+00         0.00000E+00        -0.49958E+08
 
   -0.49888E+08         0.37472E+05         0.00000E+00
    0.37472E+05        -0.97572E+08         0.00000E+00
    0.00000E+00         0.00000E+00        -0.49949E+08
 
   -0.49880E+08         0.44824E+05         0.00000E+00
    0.44824E+05        -0.97572E+08         0.00000E+00
    0.00000E+00         0.00000E+00        -0.49939E+08
 
   -0.49871E+08         0.52237E+05         0.00000E+00
    0.52237E+05        -0.97571E+08         0.00000E+00
    0.00000E+00         0.00000E+00        -0.49929E+08
 
   -0.49861E+08         0.59684E+05         0.00000E+00
    0.59684E+05        -0.97571E+08         0.00000E+00
    0.00000E+00         0.00000E+00        -0.49919E+08
 
   -0.49850E+08         0.67153E+05         0.00000E+00
    0.67153E+05        -0.97571E+08         0.00000E+00
    0.00000E+00         0.00000E+00        -0.49908E+08
 
   -0.49839E+08         0.74642E+05         0.00000E+00
    0.74642E+05        -0.97571E+08         0.00000E+00
    0.00000E+00         0.00000E+00        -0.49897E+08
 
   -0.49827E+08         0.82160E+05         0.00000E+00
    0.82160E+05        -0.97572E+08         0.00000E+00
    0.00000E+00         0.00000E+00        -0.49886E+08
 
   -0.49815E+08         0.89724E+05         0.00000E+00
    0.89724E+05        -0.97572E+08         0.00000E+00
    0.00000E+00         0.00000E+00        -0.49874E+08
 
   -0.49801E+08         0.97356E+05         0.00000E+00
    0.97356E+05        -0.97572E+08         0.00000E+00
    0.00000E+00         0.00000E+00        -0.49862E+08
 
   -0.49787E+08         0.10508E+06         0.00000E+00
    0.10508E+06        -0.97572E+08         0.00000E+00
    0.00000E+00         0.00000E+00        -0.49849E+08
 
   -0.49772E+08         0.11294E+06         0.00000E+00
    0.11294E+06        -0.97571E+08         0.00000E+00
    0.00000E+00         0.00000E+00        -0.49835E+08
 
   -0.49756E+08         0.12095E+06         0.00000E+00
    0.12095E+06        -0.97571E+08         0.00000E+00
    0.00000E+00         0.00000E+00        -0.49821E+08
 
   -0.49739E+08         0.12916E+06         0.00000E+00
    0.12916E+06        -0.97570E+08         0.00000E+00
    0.00000E+00         0.00000E+00        -0.49807E+08
 
   -0.49721E+08         0.13759E+06         0.00000E+00
    0.13759E+06        -0.97570E+08         0.00000E+00
    0.00000E+00         0.00000E+00        -0.49791E+08
 
   -0.49703E+08         0.14628E+06         0.00000E+00
    0.14628E+06        -0.97569E+08         0.00000E+00
    0.00000E+00         0.00000E+00        -0.49775E+08
 
   -0.49683E+08         0.15526E+06         0.00000E+00
    0.15526E+06        -0.97568E+08         0.00000E+00
    0.00000E+00         0.00000E+00        -0.49758E+08
 
   -0.49661E+08         0.16457E+06         0.00000E+00
    0.16457E+06        -0.97567E+08         0.00000E+00
    0.00000E+00         0.00000E+00        -0.49740E+08
 
   -0.49639E+08         0.17423E+06         0.00000E+00
    0.17423E+06        -0.97566E+08         0.00000E+00
    0.00000E+00         0.00000E+00        -0.49721E+08
 
   -0.49615E+08         0.18429E+06         0.00000E+00
    0.18429E+06        -0.97564E+08         0.00000E+00
    0.00000E+00         0.00000E+00        -0.49702E+08
 
   -0.49590E+08         0.19476E+06         0.00000E+00
    0.19476E+06        -0.97563E+08         0.00000E+00
    0.00000E+00         0.00000E+00        -0.49681E+08
 
   -0.49564E+08         0.20569E+06         0.00000E+00
    0.20569E+06        -0.97561E+08         0.00000E+00
    0.00000E+00         0.00000E+00        -0.49659E+08
 
   -0.49536E+08         0.21710E+06         0.00000E+00
    0.21710E+06        -0.97560E+08         0.00000E+00
    0.00000E+00         0.00000E+00        -0.49635E+08
 
   -0.49507E+08         0.22902E+06         0.00000E+00
    0.22902E+06        -0.97558E+08         0.00000E+00
    0.00000E+00         0.00000E+00        -0.49611E+08
 
   -0.49476E+08         0.24148E+06         0.00000E+00
    0.24148E+06        -0.97556E+08         0.00000E+00
    0.00000E+00         0.00000E+00        -0.49585E+08
 
   -0.49443E+08         0.25450E+06         0.00000E+00
    0.25450E+06        -0.97554E+08         0.00000E+00
    0.00000E+00         0.00000E+00        -0.49557E+08
 
   -0.49408E+08         0.26812E+06         0.00000E+00
    0.26812E+06        -0.97552E+08         0.00000E+00
    0.00000E+00         0.00000E+00        -0.49528E+08
 
   -0.49372E+08         0.28236E+06         0.00000E+00
    0.28236E+06        -0.97550E+08         0.00000E+00
    0.00000E+00         0.00000E+00        -0.49497E+08
 
   -0.49334E+08         0.29725E+06         0.00000E+00
    0.29725E+06        -0.97548E+08         0.00000E+00
    0.00000E+00         0.00000E+00        -0.49465E+08
 
   -0.49293E+08         0.31281E+06         0.00000E+00
    0.31281E+06        -0.97545E+08         0.00000E+00
    0.00000E+00         0.00000E+00        -0.49431E+08
 
   -0.49251E+08         0.32908E+06         0.00000E+00
    0.32908E+06        -0.97543E+08         0.00000E+00
    0.00000E+00         0.00000E+00        -0.49395E+08
 
   -0.49206E+08         0.34606E+06         0.00000E+00
    0.34606E+06        -0.97540E+08         0.00000E+00
    0.00000E+00         0.00000E+00        -0.49356E+08
 
   -0.49158E+08         0.36380E+06         0.00000E+00
    0.36380E+06        -0.97538E+08         0.00000E+00
    0.00000E+00         0.00000E+00        -0.49316E+08
 
   -0.49109E+08         0.38230E+06         0.00000E+00
    0.38230E+06        -0.97535E+08         0.00000E+00
    0.00000E+00         0.00000E+00        -0.49273E+08
 
   -0.49056E+08         0.40160E+06         0.00000E+00
    0.40160E+06        -0.97532E+08         0.00000E+00
    0.00000E+00         0.00000E+00        -0.49228E+08
 
   -0.49001E+08         0.42171E+06         0.00000E+00
    0.42171E+06        -0.97530E+08         0.00000E+00
    0.00000E+00         0.00000E+00        -0.49181E+08
 
   -0.48943E+08         0.44266E+06         0.00000E+00
    0.44266E+06        -0.97527E+08         0.00000E+00
    0.00000E+00         0.00000E+00        -0.49130E+08
 
   -0.48882E+08         0.46446E+06         0.00000E+00
    0.46446E+06        -0.97524E+08         0.00000E+00
    0.00000E+00         0.00000E+00        -0.49077E+08
 
   -0.48818E+08         0.48714E+06         0.00000E+00
    0.48714E+06        -0.97521E+08         0.00000E+00
    0.00000E+00         0.00000E+00        -0.49021E+08
 
   -0.48750E+08         0.51070E+06         0.00000E+00
    0.51070E+06        -0.97518E+08         0.00000E+00
    0.00000E+00         0.00000E+00        -0.48962E+08
 
   -0.48679E+08         0.53515E+06         0.00000E+00
    0.53515E+06        -0.97515E+08         0.00000E+00
    0.00000E+00         0.00000E+00        -0.48900E+08
 
   -0.48605E+08         0.56052E+06         0.00000E+00
    0.56052E+06        -0.97512E+08         0.00000E+00
    0.00000E+00         0.00000E+00        -0.48834E+08
 
   -0.48527E+08         0.58681E+06         0.00000E+00
    0.58681E+06        -0.97509E+08         0.00000E+00
    0.00000E+00         0.00000E+00        -0.48765E+08
 
   -0.48445E+08         0.61403E+06         0.00000E+00
    0.61403E+06        -0.97506E+08         0.00000E+00
    0.00000E+00         0.00000E+00        -0.48692E+08
 
   -0.48359E+08         0.64217E+06         0.00000E+00
    0.64217E+06        -0.97503E+08         0.00000E+00
    0.00000E+00         0.00000E+00        -0.48615E+08
 
   -0.48268E+08         0.67124E+06         0.00000E+00
    0.67124E+06        -0.97500E+08         0.00000E+00
    0.00000E+00         0.00000E+00        -0.48534E+08
 
   -0.48174E+08         0.70123E+06         0.00000E+00
    0.70123E+06        -0.97497E+08         0.00000E+00
    0.00000E+00         0.00000E+00        -0.48449E+08
 
   -0.48075E+08         0.73213E+06         0.00000E+00
    0.73213E+06        -0.97494E+08         0.00000E+00
    0.00000E+00         0.00000E+00        -0.48359E+08
 
   -0.47972E+08         0.76392E+06         0.00000E+00
    0.76392E+06        -0.97491E+08         0.00000E+00
    0.00000E+00         0.00000E+00        -0.48264E+08
 
   -0.47863E+08         0.79659E+06         0.00000E+00
    0.79659E+06        -0.97489E+08         0.00000E+00
    0.00000E+00         0.00000E+00        -0.48165E+08
 
   -0.47750E+08         0.83010E+06         0.00000E+00
    0.83010E+06        -0.97486E+08         0.00000E+00
    0.00000E+00         0.00000E+00        -0.48060E+08
 
   -0.47631E+08         0.86442E+06         0.00000E+00
    0.86442E+06        -0.97484E+08         0.00000E+00
    0.00000E+00         0.00000E+00        -0.47950E+08
 
   -0.47508E+08         0.89951E+06         0.00000E+00
    0.89951E+06        -0.97481E+08         0.00000E+00
    0.00000E+00         0.00000E+00        -0.47835E+08
 
   -0.47378E+08         0.93532E+06         0.00000E+00
    0.93532E+06        -0.97479E+08         0.00000E+00
    0.00000E+00         0.00000E+00        -0.47714E+08
 
   -0.47244E+08         0.97178E+06         0.00000E+00
    0.97178E+06        -0.97478E+08         0.00000E+00
    0.00000E+00         0.00000E+00        -0.47587E+08
 
   -0.47103E+08         0.10088E+07         0.00000E+00
    0.10088E+07        -0.97476E+08         0.00000E+00
    0.00000E+00         0.00000E+00        -0.47454E+08
 
   -0.46957E+08         0.10464E+07         0.00000E+00
    0.10464E+07        -0.97475E+08         0.00000E+00
    0.00000E+00         0.00000E+00        -0.47314E+08
 
   -0.46805E+08         0.10843E+07         0.00000E+00
    0.10843E+07        -0.97474E+08         0.00000E+00
    0.00000E+00         0.00000E+00        -0.47167E+08
 
   -0.46646E+08         0.11226E+07         0.00000E+00
    0.11226E+07        -0.97474E+08         0.00000E+00
    0.00000E+00         0.00000E+00        -0.47014E+08
 
   -0.46481E+08         0.11610E+07         0.00000E+00
    0.11610E+07        -0.97474E+08         0.00000E+00
    0.00000E+00         0.00000E+00        -0.46853E+08
 
   -0.46310E+08         0.11994E+07         0.00000E+00
    0.11994E+07        -0.97475E+08         0.00000E+00
    0.00000E+00         0.00000E+00        -0.46685E+08
 
   -0.46133E+08         0.12377E+07         0.00000E+00
    0.12377E+07        -0.97477E+08         0.00000E+00
    0.00000E+00         0.00000E+00        -0.46510E+08
 
   -0.45949E+08         0.12757E+07         0.00000E+00
    0.12757E+07        -0.97479E+08         0.00000E+00
    0.00000E+00         0.00000E+00        -0.46326E+08
 
   -0.45758E+08         0.13131E+07         0.00000E+00
    0.13131E+07        -0.97482E+08         0.00000E+00
    0.00000E+00         0.00000E+00        -0.46135E+08
 
   -0.45561E+08         0.13498E+07         0.00000E+00
    0.13498E+07        -0.97486E+08         0.00000E+00
    0.00000E+00         0.00000E+00        -0.45935E+08
 
   -0.45357E+08         0.13855E+07         0.00000E+00
    0.13855E+07        -0.97490E+08         0.00000E+00
    0.00000E+00         0.00000E+00        -0.45726E+08
 
   -0.45147E+08         0.14199E+07         0.00000E+00
    0.14199E+07        -0.97496E+08         0.00000E+00
    0.00000E+00         0.00000E+00        -0.45509E+08
 
   -0.44929E+08         0.14527E+07         0.00000E+00
    0.14527E+07        -0.97504E+08         0.00000E+00
    0.00000E+00         0.00000E+00        -0.45283E+08
 
   -0.44706E+08         0.14835E+07         0.00000E+00
    0.14835E+07        -0.97512E+08         0.00000E+00
    0.00000E+00         0.00000E+00        -0.45047E+08
 
   -0.44476E+08         0.15120E+07         0.00000E+00
    0.15120E+07        -0.97523E+08         0.00000E+00
    0.00000E+00         0.00000E+00        -0.44803E+08
 
   -0.44239E+08         0.15377E+07         0.00000E+00
    0.15377E+07        -0.97535E+08         0.00000E+00
    0.00000E+00         0.00000E+00        -0.44548E+08
 
   -0.43997E+08         0.15602E+07         0.00000E+00
    0.15602E+07        -0.97549E+08         0.00000E+00
    0.00000E+00         0.00000E+00        -0.44284E+08
 
   -0.43748E+08         0.15790E+07         0.00000E+00
    0.15790E+07        -0.97565E+08         0.00000E+00
    0.00000E+00         0.00000E+00        -0.44011E+08
 
   -0.43493E+08         0.15935E+07         0.00000E+00
    0.15935E+07        -0.97584E+08         0.00000E+00
    0.00000E+00         0.00000E+00        -0.43727E+08
 
   -0.43233E+08         0.16031E+07         0.00000E+00
    0.16031E+07        -0.97605E+08         0.00000E+00
    0.00000E+00         0.00000E+00        -0.43433E+08
 
   -0.42968E+08         0.16073E+07         0.00000E+00
    0.16073E+07        -0.97629E+08         0.00000E+00
    0.00000E+00         0.00000E+00        -0.43129E+08
 
   -0.42697E+08         0.16053E+07         0.00000E+00
    0.16053E+07        -0.97656E+08         0.00000E+00
    0.00000E+00         0.00000E+00        -0.42816E+08
 
   -0.42422E+08         0.15965E+07         0.00000E+00
    0.15965E+07        -0.97686E+08         0.00000E+00
    0.00000E+00         0.00000E+00        -0.42492E+08
 
   -0.42143E+08         0.15801E+07         0.00000E+00
    0.15801E+07        -0.97720E+08         0.00000E+00
    0.00000E+00         0.00000E+00        -0.42158E+08
 
   -0.41859E+08         0.15555E+07         0.00000E+00
    0.15555E+07        -0.97757E+08         0.00000E+00
    0.00000E+00         0.00000E+00        -0.41814E+08
 
   -0.41572E+08         0.15219E+07         0.00000E+00
    0.15219E+07        -0.97798E+08         0.00000E+00
    0.00000E+00         0.00000E+00        -0.41460E+08
 
   -0.41282E+08         0.14787E+07         0.00000E+00
    0.14787E+07        -0.97842E+08         0.00000E+00
    0.00000E+00         0.00000E+00        -0.41097E+08
 
   -0.40988E+08         0.14253E+07         0.00000E+00
    0.14253E+07        -0.97888E+08         0.00000E+00
    0.00000E+00         0.00000E+00        -0.40724E+08
 
   -0.40692E+08         0.13612E+07         0.00000E+00
    0.13612E+07        -0.97937E+08         0.00000E+00
    0.00000E+00         0.00000E+00        -0.40343E+08
 
   -0.40394E+08         0.12862E+07         0.00000E+00
    0.12862E+07        -0.97987E+08         0.00000E+00
    0.00000E+00         0.00000E+00        -0.39952E+08
 
   -0.40095E+08         0.12001E+07         0.00000E+00
    0.12001E+07        -0.98035E+08         0.00000E+00
    0.00000E+00         0.00000E+00        -0.39553E+08
 
   -0.39795E+08         0.11032E+07         0.00000E+00
    0.11032E+07        -0.98080E+08         0.00000E+00
    0.00000E+00         0.00000E+00        -0.39146E+08
 
   -0.39495E+08         0.99634E+06         0.00000E+00
    0.99634E+06        -0.98116E+08         0.00000E+00
    0.00000E+00         0.00000E+00        -0.38731E+08
 
   -0.39199E+08         0.88066E+06         0.00000E+00
    0.88066E+06        -0.98141E+08         0.00000E+00
    0.00000E+00         0.00000E+00        -0.38310E+08
 
   -0.38909E+08         0.75806E+06         0.00000E+00
    0.75806E+06        -0.98145E+08         0.00000E+00
    0.00000E+00         0.00000E+00        -0.37882E+08
 
   -0.38630E+08         0.63109E+06         0.00000E+00
    0.63109E+06        -0.98120E+08         0.00000E+00
    0.00000E+00         0.00000E+00        -0.37449E+08
 
   -0.38369E+08         0.50295E+06         0.00000E+00
    0.50295E+06        -0.98054E+08         0.00000E+00
    0.00000E+00         0.00000E+00        -0.37010E+08
 
   -0.38137E+08         0.37737E+06         0.00000E+00
    0.37737E+06        -0.97933E+08         0.00000E+00
    0.00000E+00         0.00000E+00        -0.36568E+08
 
   -0.37946E+08         0.25831E+06         0.00000E+00
    0.25831E+06        -0.97742E+08         0.00000E+00
    0.00000E+00         0.00000E+00        -0.36122E+08
 
   -0.37809E+08         0.14873E+06         0.00000E+00
    0.14873E+06        -0.97471E+08         0.00000E+00
    0.00000E+00         0.00000E+00        -0.35674E+08
 
   -0.37738E+08         0.48282E+05         0.00000E+00
    0.48282E+05        -0.97111E+08         0.00000E+00
    0.00000E+00         0.00000E+00        -0.35225E+08
 
   -0.49909E+08         0.29851E+04         0.00000E+00
    0.29851E+04        -0.97594E+08         0.00000E+00
    0.00000E+00         0.00000E+00        -0.49995E+08
 
   -0.49907E+08         0.90544E+04         0.00000E+00
    0.90544E+04        -0.97587E+08         0.00000E+00
    0.00000E+00         0.00000E+00        -0.49986E+08
 
   -0.49903E+08         0.15370E+05         0.00000E+00
    0.15370E+05        -0.97582E+08         0.00000E+00
    0.00000E+00         0.00000E+00        -0.49977E+08
 
   -0.49898E+08         0.21978E+05         0.00000E+00
    0.21978E+05        -0.97578E+08         0.00000E+00
    0.00000E+00         0.00000E+00        -0.49968E+08
 
   -0.49892E+08         0.28843E+05         0.00000E+00
    0.28843E+05        -0.97575E+08         0.00000E+00
    0.00000E+00         0.00000E+00        -0.49958E+08
 
   -0.49885E+08         0.35901E+05         0.00000E+00
    0.35901E+05        -0.97574E+08         0.00000E+00
    0.00000E+00         0.00000E+00        -0.49949E+08
 
   -0.49876E+08         0.43088E+05         0.00000E+00
    0.43088E+05        -0.97573E+08         0.00000E+00
    0.00000E+00         0.00000E+00        -0.49939E+08
 
   -0.49867E+08         0.50353E+05         0.00000E+00
    0.50353E+05        -0.97573E+08         0.00000E+00
    0.00000E+00         0.00000E+00        -0.49929E+08
 
   -0.49858E+08         0.57660E+05         0.00000E+00
    0.57660E+05        -0.97573E+08         0.00000E+00
    0.00000E+00         0.00000E+00        -0.49919E+08
 
   -0.49847E+08         0.64990E+05         0.00000E+00
    0.64990E+05        -0.97573E+08         0.00000E+00
    0.00000E+00         0.00000E+00        -0.49908E+08
 
   -0.49836E+08         0.72338E+05         0.00000E+00
    0.72338E+05        -0.97573E+08         0.00000E+00
    0.00000E+00         0.00000E+00        -0.49897E+08
 
   -0.49824E+08         0.79710E+05         0.00000E+00
    0.79710E+05        -0.97573E+08         0.00000E+00
    0.00000E+00         0.00000E+00        -0.49886E+08
 
   -0.49812E+08         0.87121E+05         0.00000E+00
    0.87121E+05        -0.97573E+08         0.00000E+00
    0.00000E+00         0.00000E+00        -0.49874E+08
 
   -0.49798E+08         0.94594E+05         0.00000E+00
    0.94594E+05        -0.97573E+08         0.00000E+00
    0.00000E+00         0.00000E+00        -0.49862E+08
 
   -0.49784E+08         0.10215E+06         0.00000E+00
    0.10215E+06        -0.97573E+08         0.00000E+00
    0.00000E+00         0.00000E+00        -0.49849E+08
 
   -0.49769E+08         0.10983E+06         0.00000E+00
    0.10983E+06        -0.97573E+08         0.00000E+00
    0.00000E+00         0.00000E+00        -0.49835E+08
 
   -0.49753E+08         0.11766E+06         0.00000E+00
    0.11766E+06        -0.97573E+08         0.00000E+00
    0.00000E+00         0.00000E+00        -0.49821E+08
 
   -0.49736E+08         0.12567E+06         0.00000E+00
    0.12567E+06        -0.97572E+08         0.00000E+00
    0.00000E+00         0.00000E+00        -0.49807E+08
 
   -0.49718E+08         0.13390E+06         0.00000E+00
    0.13390E+06        -0.97571E+08         0.00000E+00
    0.00000E+00         0.00000E+00        -0.49791E+08
 
   -0.49699E+08         0.14237E+06         0.00000E+00
    0.14237E+06        -0.97571E+08         0.00000E+00
    0.00000E+00         0.00000E+00        -0.49775E+08
 
   -0.49678E+08         0.15113E+06         0.00000E+00
    0.15113E+06        -0.97570E+08         0.00000E+00
    0.00000E+00         0.00000E+00        -0.49758E+08
 
   -0.49657E+08         0.16020E+06         0.00000E+00
    0.16020E+06        -0.97569E+08         0.00000E+00
    0.00000E+00         0.00000E+00        -0.49740E+08
 
   -0.49635E+08         0.16961E+06         0.00000E+00
    0.16961E+06        -0.97568E+08         0.00000E+00
    0.00000E+00         0.00000E+00        -0.49721E+08
 
   -0.49611E+08         0.17941E+06         0.00000E+00
    0.17941E+06        -0.97566E+08         0.00000E+00
    0.00000E+00         0.00000E+00        -0.49702E+08
 
   -0.49586E+08         0.18961E+06         0.00000E+00
    0.18961E+06        -0.97565E+08         0.00000E+00
    0.00000E+00         0.00000E+00        -0.49681E+08
 
   -0.49559E+08         0.20025E+06         0.00000E+00
    0.20025E+06        -0.97563E+08         0.00000E+00
    0.00000E+00         0.00000E+00        -0.49659E+08
 
   -0.49531E+08         0.21135E+06         0.00000E+00
    0.21135E+06        -0.97562E+08         0.00000E+00
    0.00000E+00         0.00000E+00        -0.49635E+08
 
   -0.49501E+08         0.22295E+06         0.00000E+00
    0.22295E+06        -0.97560E+08         0.00000E+00
    0.00000E+00         0.00000E+00        -0.49611E+08
 
   -0.49470E+08         0.23508E+06         0.00000E+00
    0.23508E+06        -0.97558E+08         0.00000E+00
    0.00000E+00         0.00000E+00        -0.49585E+08
 
   -0.49437E+08         0.24775E+06         0.00000E+00
    0.24775E+06        -0.97557E+08         0.00000E+00
    0.00000E+00         0.00000E+00        -0.49557E+08
 
   -0.49402E+08         0.26100E+06         0.00000E+00
    0.26100E+06        -0.97555E+08         0.00000E+00
    0.00000E+00         0.00000E+00        -0.49528E+08
 
   -0.49365E+08         0.27485E+06         0.00000E+00
    0.27485E+06        -0.97553E+08         0.00000E+00
    0.00000E+00         0.00000E+00        -0.49497E+08
 
   -0.49327E+08         0.28934E+06         0.00000E+00
    0.28934E+06        -0.97551E+08         0.00000E+00
    0.00000E+00         0.00000E+00        -0.49465E+08
 
   -0.49286E+08         0.30447E+06         0.00000E+00
    0.30447E+06        -0.97548E+08         0.00000E+00
    0.00000E+00         0.00000E+00        -0.49431E+08
 
   -0.49243E+08         0.32029E+06         0.00000E+00
    0.32029E+06        -0.97546E+08         0.00000E+00
    0.00000E+00         0.00000E+00        -0.49395E+08
 
   -0.49197E+08         0.33681E+06         0.00000E+00
    0.33681E+06        -0.97544E+08         0.00000E+00
    0.00000E+00         0.00000E+00        -0.49356E+08
 
   -0.49150E+08         0.35405E+06         0.00000E+00
    0.35405E+06        -0.97541E+08         0.00000E+00
    0.00000E+00         0.00000E+00        -0.49316E+08
 
   -0.49099E+08         0.37204E+06         0.00000E+00
    0.37204E+06        -0.97539E+08         0.00000E+00
    0.00000E+00         0.00000E+00        -0.49273E+08
 
   -0.49047E+08         0.39080E+06         0.00000E+00
    0.39080E+06        -0.97536E+08         0.00000E+00
    0.00000E+00         0.00000E+00        -0.49228E+08
 
   -0.48991E+08         0.41035E+06         0.00000E+00
    0.41035E+06        -0.97534E+08         0.00000E+00
    0.00000E+00         0.00000E+00        -0.49181E+08
 
   -0.48933E+08         0.43071E+06         0.00000E+00
    0.43071E+06        -0.97531E+08         0.00000E+00
    0.00000E+00         0.00000E+00        -0.49130E+08
 
   -0.48871E+08         0.45190E+06         0.00000E+00
    0.45190E+06        -0.97528E+08         0.00000E+00
    0.00000E+00         0.00000E+00        -0.49077E+08
 
   -0.48806E+08         0.47393E+06         0.00000E+00
    0.47393E+06        -0.97526E+08         0.00000E+00
    0.00000E+00         0.00000E+00        -0.49021E+08
 
   -0.48738E+08         0.49682E+06         0.00000E+00
    0.49682E+06        -0.97523E+08         0.00000E+00
    0.00000E+00         0.00000E+00        -0.48962E+08
 
   -0.48667E+08         0.52058E+06         0.00000E+00
    0.52058E+06        -0.97520E+08         0.00000E+00
    0.00000E+00         0.00000E+00        -0.48900E+08
 
   -0.48592E+08         0.54523E+06         0.00000E+00
    0.54523E+06        -0.97517E+08         0.00000E+00
    0.00000E+00         0.00000E+00        -0.48834E+08
 
   -0.48514E+08         0.57076E+06         0.00000E+00
    0.57076E+06        -0.97514E+08         0.00000E+00
    0.00000E+00         0.00000E+00        -0.48765E+08
 
   -0.48431E+08         0.59719E+06         0.00000E+00
    0.59719E+06        -0.97511E+08         0.00000E+00
    0.00000E+00         0.00000E+00        -0.48692E+08
 
   -0.48345E+08         0.62451E+06         0.00000E+00
    0.62451E+06        -0.97509E+08         0.00000E+00
    0.00000E+00         0.00000E+00        -0.48615E+08
 
   -0.48254E+08         0.65273E+06         0.00000E+00
    0.65273E+06        -0.97506E+08         0.00000E+00
    0.00000E+00         0.00000E+00        -0.48534E+08
 
   -0.48159E+08         0.68184E+06         0.00000E+00
    0.68184E+06        -0.97503E+08         0.00000E+00
    0.00000E+00         0.00000E+00        -0.48449E+08
 
   -0.48059E+08         0.71183E+06         0.00000E+00
    0.71183E+06        -0.97500E+08         0.00000E+00
    0.00000E+00         0.00000E+00        -0.48359E+08
 
   -0.47955E+08         0.74268E+06         0.00000E+00
    0.74268E+06        -0.97498E+08         0.00000E+00
    0.00000E+00         0.00000E+00        -0.48264E+08
 
   -0.47847E+08         0.77437E+06         0.00000E+00
    0.77437E+06        -0.97495E+08         0.00000E+00
    0.00000E+00         0.00000E+00        -0.48165E+08
 
   -0.47733E+08         0.80688E+06         0.00000E+00
    0.80688E+06        -0.97493E+08         0.00000E+00
    0.00000E+00         0.00000E+00        -0.48060E+08
 
   -0.47614E+08         0.84016E+06         0.00000E+00
    0.84016E+06        -0.97491E+08         0.00000E+00
    0.00000E+00         0.00000E+00        -0.47950E+08
 
   -0.47490E+08         0.87418E+06         0.00000E+00
    0.87418E+06        -0.97488E+08         0.00000E+00
    0.00000E+00         0.00000E+00        -0.47835E+08
 
   -0.47360E+08         0.90889E+06         0.00000E+00
    0.90889E+06        -0.97487E+08         0.00000E+00
    0.00000E+00         0.00000E+00        -0.47714E+08
 
   -0.47225E+08         0.94423E+06         0.00000E+00
    0.94423E+06        -0.97485E+08         0.00000E+00
    0.00000E+00         0.00000E+00        -0.47587E+08
 
   -0.47084E+08         0.98012E+06         0.00000E+00
    0.98012E+06        -0.97484E+08         0.00000E+00
    0.00000E+00         0.00000E+00        -0.47454E+08
 
   -0.46937E+08         0.10165E+07         0.00000E+00
    0.10165E+07        -0.97483E+08         0.00000E+00
    0.00000E+00         0.00000E+00        -0.47314E+08
 
   -0.46784E+08         0.10532E+07         0.00000E+00
    0.10532E+07        -0.97482E+08         0.00000E+00
    0.00000E+00         0.00000E+00        -0.47167E+08
 
   -0.46626E+08         0.10902E+07         0.00000E+00
    0.10902E+07        -0.97482E+08         0.00000E+00
    0.00000E+00         0.00000E+00        -0.47014E+08
 
   -0.46461E+08         0.11274E+07         0.00000E+00
    0.11274E+07        -0.97482E+08         0.00000E+00
    0.00000E+00         0.00000E+00        -0.46853E+08
 
   -0.46289E+08         0.11645E+07         0.00000E+00
    0.11645E+07        -0.97483E+08         0.00000E+00
    0.00000E+00         0.00000E+00        -0.46685E+08
 
   -0.46112E+08         0.12016E+07         0.00000E+00
    0.12016E+07        -0.97484E+08         0.00000E+00
    0.00000E+00         0.00000E+00        -0.46510E+08
 
   -0.45928E+08         0.12382E+07         0.00000E+00
    0.12382E+07        -0.97486E+08         0.00000E+00
    0.00000E+00         0.00000E+00        -0.46326E+08
 
   -0.45737E+08         0.12744E+07         0.00000E+00
    0.12744E+07        -0.97489E+08         0.00000E+00
    0.00000E+00         0.00000E+00        -0.46135E+08
 
   -0.45540E+08         0.13097E+07         0.00000E+00
    0.13097E+07        -0.97493E+08         0.00000E+00
    0.00000E+00         0.00000E+00        -0.45935E+08
 
   -0.45336E+08         0.13441E+07         0.00000E+00
    0.13441E+07        -0.97497E+08         0.00000E+00
    0.00000E+00         0.00000E+00        -0.45726E+08
 
   -0.45126E+08         0.13772E+07         0.00000E+00
    0.13772E+07        -0.97503E+08         0.00000E+00
    0.00000E+00         0.00000E+00        -0.45509E+08
 
   -0.44909E+08         0.14087E+07         0.00000E+00
    0.14087E+07        -0.97510E+08         0.00000E+00
    0.00000E+00         0.00000E+00        -0.45283E+08
 
   -0.44686E+08         0.14382E+07         0.00000E+00
    0.14382E+07        -0.97518E+08         0.00000E+00
    0.00000E+00         0.00000E+00        -0.45047E+08
 
   -0.44457E+08         0.14654E+07         0.00000E+00
    0.14654E+07        -0.97528E+08         0.00000E+00
    0.00000E+00         0.00000E+00        -0.44803E+08
 
   -0.44221E+08         0.14899E+07         0.00000E+00
    0.14899E+07        -0.97540E+08         0.00000E+00
    0.00000E+00         0.00000E+00        -0.44548E+08
 
   -0.43980E+08         0.15112E+07         0.00000E+00
    0.15112E+07        -0.97553E+08         0.00000E+00
    0.00000E+00         0.00000E+00        -0.44284E+08
 
   -0.43732E+08         0.15288E+07         0.00000E+00
    0.15288E+07        -0.97568E+08         0.00000E+00
    0.00000E+00         0.00000E+00        -0.44011E+08
 
   -0.43479E+08         0.15422E+07         0.00000E+00
    0.15422E+07        -0.97586E+08         0.00000E+00
    0.00000E+00         0.00000E+00        -0.43727E+08
 
   -0.43221E+08         0.15508E+07         0.00000E+00
    0.15508E+07        -0.97606E+08         0.00000E+00
    0.00000E+00         0.00000E+00        -0.43433E+08
 
   -0.42958E+08         0.15539E+07         0.00000E+00
    0.15539E+07        -0.97629E+08         0.00000E+00
    0.00000E+00         0.00000E+00        -0.43129E+08
 
   -0.42690E+08         0.15510E+07         0.00000E+00
    0.15510E+07        -0.97655E+08         0.00000E+00
    0.00000E+00         0.00000E+00        -0.42816E+08
 
   -0.42418E+08         0.15413E+07         0.00000E+00
    0.15413E+07        -0.97684E+08         0.00000E+00
    0.00000E+00         0.00000E+00        -0.42492E+08
 
   -0.42141E+08         0.15242E+07         0.00000E+00
    0.15242E+07        -0.97716E+08         0.00000E+00
    0.00000E+00         0.00000E+00        -0.42158E+08
 
   -0.41861E+08         0.14988E+07         0.00000E+00
    0.14988E+07        -0.97751E+08         0.00000E+00
    0.00000E+00         0.00000E+00        -0.41814E+08
 
   -0.41578E+08         0.14646E+07         0.00000E+00
    0.14646E+07        -0.97790E+08         0.00000E+00
    0.00000E+00         0.00000E+00        -0.41460E+08
 
   -0.41292E+08         0.14208E+07         0.00000E+00
    0.14208E+07        -0.97832E+08         0.00000E+00
    0.00000E+00         0.00000E+00        -0.41097E+08
 
   -0.41003E+08         0.13669E+07         0.00000E+00
    0.13669E+07        -0.97876E+08         0.00000E+00
    0.00000E+00         0.00000E+00        -0.40724E+08
 
   -0.40713E+08         0.13024E+07         0.00000E+00
    0.13024E+07        -0.97923E+08         0.00000E+00
    0.00000E+00         0.00000E+00        -0.40343E+08
 
   -0.40421E+08         0.12270E+07         0.00000E+00
    0.12270E+07        -0.97970E+08         0.00000E+00
    0.00000E+00         0.00000E+00        -0.39952E+08
 
   -0.40128E+08         0.11408E+07         0.00000E+00
    0.11408E+07        -0.98017E+08         0.00000E+00
    0.00000E+00         0.00000E+00        -0.39553E+08
 
   -0.39835E+08         0.10440E+07         0.00000E+00
    0.10440E+07        -0.98059E+08         0.00000E+00
    0.00000E+00         0.00000E+00        -0.39146E+08
 
   -0.39544E+08         0.93747E+06         0.00000E+00
    0.93747E+06        -0.98094E+08         0.00000E+00
    0.00000E+00         0.00000E+00        -0.38731E+08
 
   -0.39256E+08         0.82267E+06         0.00000E+00
    0.82267E+06        -0.98117E+08         0.00000E+00
    0.00000E+00         0.00000E+00        -0.38310E+08
 
   -0.38975E+08         0.70172E+06         0.00000E+00
    0.70172E+06        -0.98120E+08         0.00000E+00
    0.00000E+00         0.00000E+00        -0.37882E+08
 
   -0.38704E+08         0.57757E+06         0.00000E+00
    0.57757E+06        -0.98094E+08         0.00000E+00
    0.00000E+00         0.00000E+00        -0.37449E+08
 
   -0.38452E+08         0.45396E+06         0.00000E+00
    0.45396E+06        -0.98029E+08         0.00000E+00
    0.00000E+00         0.00000E+00        -0.37010E+08
 
   -0.38228E+08         0.33523E+06         0.00000E+00
    0.33523E+06        -0.97909E+08         0.00000E+00
    0.00000E+00         0.00000E+00        -0.36568E+08
 
   -0.38044E+08         0.22568E+06         0.00000E+00
    0.22568E+06        -0.97720E+08         0.00000E+00
    0.00000E+00         0.00000E+00        -0.36122E+08
 
   -0.37913E+08         0.12807E+06         0.00000E+00
    0.12807E+06        -0.97451E+08         0.00000E+00
    0.00000E+00         0.00000E+00        -0.35674E+08
 
   -0.37845E+08         0.41220E+05         0.00000E+00
    0.41220E+05        -0.97093E+08         0.00000E+00
    0.00000E+00         0.00000E+00        -0.35225E+08
 
   -0.49905E+08         0.28052E+04         0.00000E+00
    0.28052E+04        -0.97596E+08         0.00000E+00
    0.00000E+00         0.00000E+00        -0.49995E+08
 
   -0.49903E+08         0.85246E+04         0.00000E+00
    0.85246E+04        -0.97588E+08         0.00000E+00
    0.00000E+00         0.00000E+00        -0.49986E+08
 
   -0.49900E+08         0.14520E+05         0.00000E+00
    0.14520E+05        -0.97583E+08         0.00000E+00
    0.00000E+00         0.00000E+00        -0.49977E+08
 
   -0.49895E+08         0.20850E+05         0.00000E+00
    0.20850E+05        -0.97579E+08         0.00000E+00
    0.00000E+00         0.00000E+00        -0.49968E+08
 
   -0.49888E+08         0.27484E+05         0.00000E+00
    0.27484E+05        -0.97577E+08         0.00000E+00
    0.00000E+00         0.00000E+00        -0.49958E+08
 
   -0.49881E+08         0.34349E+05         0.00000E+00
    0.34349E+05        -0.97575E+08         0.00000E+00
    0.00000E+00         0.00000E+00        -0.49949E+08
 
   -0.49873E+08         0.41370E+05         0.00000E+00
    0.41370E+05        -0.97574E+08         0.00000E+00
    0.00000E+00         0.00000E+00        -0.49939E+08
 
   -0.49864E+08         0.48484E+05         0.00000E+00
    0.48484E+05        -0.97574E+08         0.00000E+00
    0.00000E+00         0.00000E+00        -0.49929E+08
 
   -0.49854E+08         0.55646E+05         0.00000E+00
    0.55646E+05        -0.97574E+08         0.00000E+00
    0.00000E+00         0.00000E+00        -0.49919E+08
 
   -0.49844E+08         0.62833E+05         0.00000E+00
    0.62833E+05        -0.97574E+08         0.00000E+00
    0.00000E+00         0.00000E+00        -0.49908E+08
 
   -0.49833E+08         0.70035E+05         0.00000E+00
    0.70035E+05        -0.97574E+08         0.00000E+00
    0.00000E+00         0.00000E+00        -0.49897E+08
 
   -0.49821E+08         0.77257E+05         0.00000E+00
    0.77257E+05        -0.97575E+08         0.00000E+00
    0.00000E+00         0.00000E+00        -0.49886E+08
 
   -0.49808E+08         0.84512E+05         0.00000E+00
    0.84512E+05        -0.97575E+08         0.00000E+00
    0.00000E+00         0.00000E+00        -0.49874E+08
 
   -0.49795E+08         0.91821E+05         0.00000E+00
    0.91821E+05        -0.97575E+08         0.00000E+00
    0.00000E+00         0.00000E+00        -0.49862E+08
 
   -0.49781E+08         0.99210E+05         0.00000E+00
    0.99210E+05        -0.97575E+08         0.00000E+00
    0.00000E+00         0.00000E+00        -0.49849E+08
 
   -0.49765E+08         0.10671E+06         0.00000E+00
    0.10671E+06        -0.97574E+08         0.00000E+00
    0.00000E+00         0.00000E+00        -0.49835E+08
 
   -0.49749E+08         0.11435E+06         0.00000E+00
    0.11435E+06        -0.97574E+08         0.00000E+00
    0.00000E+00         0.00000E+00        -0.49821E+08
 
   -0.49732E+08         0.12216E+06         0.00000E+00
    0.12216E+06        -0.97574E+08         0.00000E+00
    0.00000E+00         0.00000E+00        -0.49807E+08
 
   -0.49714E+08         0.13018E+06         0.00000E+00
    0.13018E+06        -0.97573E+08         0.00000E+00
    0.00000E+00         0.00000E+00        -0.49791E+08
 
   -0.49695E+08         0.13843E+06         0.00000E+00
    0.13843E+06        -0.97572E+08         0.00000E+00
    0.00000E+00         0.00000E+00        -0.49775E+08
 
   -0.49674E+08         0.14696E+06         0.00000E+00
    0.14696E+06        -0.97571E+08         0.00000E+00
    0.00000E+00         0.00000E+00        -0.49758E+08
 
   -0.49653E+08         0.15579E+06         0.00000E+00
    0.15579E+06        -0.97571E+08         0.00000E+00
    0.00000E+00         0.00000E+00        -0.49740E+08
 
   -0.49630E+08         0.16496E+06         0.00000E+00
    0.16496E+06        -0.97569E+08         0.00000E+00
    0.00000E+00         0.00000E+00        -0.49721E+08
 
   -0.49606E+08         0.17449E+06         0.00000E+00
    0.17449E+06        -0.97568E+08         0.00000E+00
    0.00000E+00         0.00000E+00        -0.49702E+08
 
   -0.49581E+08         0.18441E+06         0.00000E+00
    0.18441E+06        -0.97567E+08         0.00000E+00
    0.00000E+00         0.00000E+00        -0.49681E+08
 
   -0.49554E+08         0.19476E+06         0.00000E+00
    0.19476E+06        -0.97566E+08         0.00000E+00
    0.00000E+00         0.00000E+00        -0.49659E+08
 
   -0.49525E+08         0.20556E+06         0.00000E+00
    0.20556E+06        -0.97564E+08         0.00000E+00
    0.00000E+00         0.00000E+00        -0.49635E+08
 
   -0.49496E+08         0.21683E+06         0.00000E+00
    0.21683E+06        -0.97563E+08         0.00000E+00
    0.00000E+00         0.00000E+00        -0.49611E+08
 
   -0.49464E+08         0.22862E+06         0.00000E+00
    0.22862E+06        -0.97561E+08         0.00000E+00
    0.00000E+00         0.00000E+00        -0.49585E+08
 
   -0.49431E+08         0.24094E+06         0.00000E+00
    0.24094E+06        -0.97559E+08         0.00000E+00
    0.00000E+00         0.00000E+00        -0.49557E+08
 
   -0.49396E+08         0.25382E+06         0.00000E+00
    0.25382E+06        -0.97557E+08         0.00000E+00
    0.00000E+00         0.00000E+00        -0.49528E+08
 
   -0.49359E+08         0.26728E+06         0.00000E+00
    0.26728E+06        -0.97555E+08         0.00000E+00
    0.00000E+00         0.00000E+00        -0.49497E+08
 
   -0.49319E+08         0.28135E+06         0.00000E+00
    0.28135E+06        -0.97553E+08         0.00000E+00
    0.00000E+00         0.00000E+00        -0.49465E+08
 
   -0.49278E+08         0.29606E+06         0.00000E+00
    0.29606E+06        -0.97551E+08         0.00000E+00
    0.00000E+00         0.00000E+00        -0.49431E+08
 
   -0.49235E+08         0.31143E+06         0.00000E+00
    0.31143E+06        -0.97549E+08         0.00000E+00
    0.00000E+00         0.00000E+00        -0.49395E+08
 
   -0.49189E+08         0.32747E+06         0.00000E+00
    0.32747E+06        -0.97547E+08         0.00000E+00
    0.00000E+00         0.00000E+00        -0.49356E+08
 
   -0.49141E+08         0.34422E+06         0.00000E+00
    0.34422E+06        -0.97545E+08         0.00000E+00
    0.00000E+00         0.00000E+00        -0.49316E+08
 
   -0.49091E+08         0.36170E+06         0.00000E+00
    0.36170E+06        -0.97543E+08         0.00000E+00
    0.00000E+00         0.00000E+00        -0.49273E+08
 
   -0.49037E+08         0.37992E+06         0.00000E+00
    0.37992E+06        -0.97540E+08         0.00000E+00
    0.00000E+00         0.00000E+00        -0.49228E+08
 
   -0.48981E+08         0.39890E+06         0.00000E+00
    0.39890E+06        -0.97538E+08         0.00000E+00
    0.00000E+00         0.00000E+00        -0.49181E+08
 
   -0.48922E+08         0.41867E+06         0.00000E+00
    0.41867E+06        -0.97535E+08         0.00000E+00
    0.00000E+00         0.00000E+00        -0.49130E+08
 
   -0.48860E+08         0.43924E+06         0.00000E+00
    0.43924E+06        -0.97533E+08         0.00000E+00
    0.00000E+00         0.00000E+00        -0.49077E+08
 
   -0.48795E+08         0.46063E+06         0.00000E+00
    0.46063E+06        -0.97530E+08         0.00000E+00
    0.00000E+00         0.00000E+00        -0.49021E+08
 
   -0.48727E+08         0.48285E+06         0.00000E+00
    0.48285E+06        -0.97527E+08         0.00000E+00
    0.00000E+00         0.00000E+00        -0.48962E+08
 
   -0.48655E+08         0.50591E+06         0.00000E+00
    0.50591E+06        -0.97525E+08         0.00000E+00
    0.00000E+00         0.00000E+00        -0.48900E+08
 
   -0.48580E+08         0.52983E+06         0.00000E+00
    0.52983E+06        -0.97522E+08         0.00000E+00
    0.00000E+00         0.00000E+00        -0.48834E+08
 
   -0.48501E+08         0.55461E+06         0.00000E+00
    0.55461E+06        -0.97519E+08         0.00000E+00
    0.00000E+00         0.00000E+00        -0.48765E+08
 
   -0.48418E+08         0.58025E+06         0.00000E+00
    0.58025E+06        -0.97517E+08         0.00000E+00
    0.00000E+00         0.00000E+00        -0.48692E+08
 
   -0.48331E+08         0.60675E+06         0.00000E+00
    0.60675E+06        -0.97514E+08         0.00000E+00
    0.00000E+00         0.00000E+00        -0.48615E+08
 
   -0.48239E+08         0.63413E+06         0.00000E+00
    0.63413E+06        -0.97511E+08         0.00000E+00
    0.00000E+00         0.00000E+00        -0.48534E+08
 
   -0.48144E+08         0.66236E+06         0.00000E+00
    0.66236E+06        -0.97509E+08         0.00000E+00
    0.00000E+00         0.00000E+00        -0.48449E+08
 
   -0.48044E+08         0.69143E+06         0.00000E+00
    0.69143E+06        -0.97506E+08         0.00000E+00
    0.00000E+00         0.00000E+00        -0.48359E+08
 
   -0.47939E+08         0.72134E+06         0.00000E+00
    0.72134E+06        -0.97504E+08         0.00000E+00
    0.00000E+00         0.00000E+00        -0.48264E+08
 
   -0.47830E+08         0.75206E+06         0.00000E+00
    0.75206E+06        -0.97502E+08         0.00000E+00
    0.00000E+00         0.00000E+00        -0.48165E+08
 
   -0.47716E+08         0.78356E+06         0.00000E+00
    0.78356E+06        -0.97499E+08         0.00000E+00
    0.00000E+00         0.00000E+00        -0.48060E+08
 
   -0.47596E+08         0.81581E+06         0.00000E+00
    0.81581E+06        -0.97497E+08         0.00000E+00
    0.00000E+00         0.00000E+00        -0.47950E+08
 
   -0.47472E+08         0.84876E+06         0.00000E+00
    0.84876E+06        -0.97495E+08         0.00000E+00
    0.00000E+00         0.00000E+00        -0.47835E+08
 
   -0.47342E+08         0.88238E+06         0.00000E+00
    0.88238E+06        -0.97493E+08         0.00000E+00
    0.00000E+00         0.00000E+00        -0.47714E+08
 
   -0.47206E+08         0.91659E+06         0.00000E+00
    0.91659E+06        -0.97492E+08         0.00000E+00
    0.00000E+00         0.00000E+00        -0.47587E+08
 
   -0.47065E+08         0.95132E+06         0.00000E+00
    0.95132E+06        -0.97491E+08         0.00000E+00
    0.00000E+00         0.00000E+00        -0.47454E+08
 
   -0.46918E+08         0.98651E+06         0.00000E+00
    0.98651E+06        -0.97490E+08         0.00000E+00
    0.00000E+00         0.00000E+00        -0.47314E+08
 
   -0.46765E+08         0.10220E+07         0.00000E+00
    0.10220E+07        -0.97489E+08         0.00000E+00
    0.00000E+00         0.00000E+00        -0.47167E+08
 
   -0.46605E+08         0.10578E+07         0.00000E+00
    0.10578E+07        -0.97489E+08         0.00000E+00
    0.00000E+00         0.00000E+00        -0.47014E+08
 
   -0.46440E+08         0.10937E+07         0.00000E+00
    0.10937E+07        -0.97489E+08         0.00000E+00
    0.00000E+00         0.00000E+00        -0.46853E+08
 
   -0.46269E+08         0.11296E+07         0.00000E+00
    0.11296E+07        -0.97490E+08         0.00000E+00
    0.00000E+00         0.00000E+00        -0.46685E+08
 
   -0.46091E+08         0.11654E+07         0.00000E+00
    0.11654E+07        -0.97491E+08         0.00000E+00
    0.00000E+00         0.00000E+00        -0.46510E+08
 
   -0.45907E+08         0.12008E+07         0.00000E+00
    0.12008E+07        -0.97493E+08         0.00000E+00
    0.00000E+00         0.00000E+00        -0.46326E+08
 
   -0.45716E+08         0.12356E+07         0.00000E+00
    0.12356E+07        -0.97496E+08         0.00000E+00
    0.00000E+00         0.00000E+00        -0.46135E+08
 
   -0.45519E+08         0.12697E+07         0.00000E+00
    0.12697E+07        -0.97499E+08         0.00000E+00
    0.00000E+00         0.00000E+00        -0.45935E+08
 
   -0.45315E+08         0.13028E+07         0.00000E+00
    0.13028E+07        -0.97504E+08         0.00000E+00
    0.00000E+00         0.00000E+00        -0.45726E+08
 
   -0.45106E+08         0.13345E+07         0.00000E+00
    0.13345E+07        -0.97509E+08         0.00000E+00
    0.00000E+00         0.00000E+00        -0.45509E+08
 
   -0.44889E+08         0.13648E+07         0.00000E+00
    0.13648E+07        -0.97516E+08         0.00000E+00
    0.00000E+00         0.00000E+00        -0.45283E+08
 
   -0.44667E+08         0.13930E+07         0.00000E+00
    0.13930E+07        -0.97524E+08         0.00000E+00
    0.00000E+00         0.00000E+00        -0.45047E+08
 
   -0.44438E+08         0.14190E+07         0.00000E+00
    0.14190E+07        -0.97533E+08         0.00000E+00
    0.00000E+00         0.00000E+00        -0.44803E+08
 
   -0.44203E+08         0.14423E+07         0.00000E+00
    0.14423E+07        -0.97544E+08         0.00000E+00
    0.00000E+00         0.00000E+00        -0.44548E+08
 
   -0.43963E+08         0.14624E+07         0.00000E+00
    0.14624E+07        -0.97557E+08         0.00000E+00
    0.00000E+00         0.00000E+00        -0.44284E+08
 
   -0.43717E+08         0.14789E+07         0.00000E+00
    0.14789E+07        -0.97571E+08         0.00000E+00
    0.00000E+00         0.00000E+00        -0.44011E+08
 
   -0.43465E+08         0.14912E+07         0.00000E+00
    0.14912E+07        -0.97588E+08         0.00000E+00
    0.00000E+00         0.00000E+00        -0.43727E+08
 
   -0.43209E+08         0.14988E+07         0.00000E+00
    0.14988E+07        -0.97607E+08         0.00000E+00
    0.00000E+00         0.00000E+00        -0.43433E+08
 
   -0.42948E+08         0.15010E+07         0.00000E+00
    0.15010E+07        -0.97629E+08         0.00000E+00
    0.00000E+00         0.00000E+00        -0.43129E+08
 
   -0.42682E+08         0.14972E+07         0.00000E+00
    0.14972E+07        -0.97653E+08         0.00000E+00
    0.00000E+00         0.00000E+00        -0.42816E+08
 
   -0.42413E+08         0.14867E+07         0.00000E+00
    0.14867E+07        -0.97681E+08         0.00000E+00
    0.00000E+00         0.00000E+00        -0.42492E+08
 
   -0.42139E+08         0.14688E+07         0.00000E+00
    0.14688E+07        -0.97711E+08         0.00000E+00
    0.00000E+00         0.00000E+00        -0.42158E+08
 
   -0.41863E+08         0.14428E+07         0.00000E+00
    0.14428E+07        -0.97745E+08         0.00000E+00
    0.00000E+00         0.00000E+00        -0.41814E+08
 
   -0.41584E+08         0.14080E+07         0.00000E+00
    0.14080E+07        -0.97782E+08         0.00000E+00
    0.00000E+00         0.00000E+00        -0.41460E+08
 
   -0.41302E+08         0.13638E+07         0.00000E+00
    0.13638E+07        -0.97822E+08         0.00000E+00
    0.00000E+00         0.00000E+00        -0.41097E+08
 
   -0.41018E+08         0.13095E+07         0.00000E+00
    0.13095E+07        -0.97865E+08         0.00000E+00
    0.00000E+00         0.00000E+00        -0.40724E+08
 
   -0.40733E+08         0.12447E+07         0.00000E+00
    0.12447E+07        -0.97909E+08         0.00000E+00
    0.00000E+00         0.00000E+00        -0.40343E+08
 
   -0.40448E+08         0.11691E+07         0.00000E+00
    0.11691E+07        -0.97954E+08         0.00000E+00
    0.00000E+00         0.00000E+00        -0.39952E+08
 
   -0.40162E+08         0.10829E+07         0.00000E+00
    0.10829E+07        -0.97998E+08         0.00000E+00
    0.00000E+00         0.00000E+00        -0.39553E+08
 
   -0.39876E+08         0.98624E+06         0.00000E+00
    0.98624E+06        -0.98039E+08         0.00000E+00
    0.00000E+00         0.00000E+00        -0.39146E+08
 
   -0.39593E+08         0.88022E+06         0.00000E+00
    0.88022E+06        -0.98072E+08         0.00000E+00
    0.00000E+00         0.00000E+00        -0.38731E+08
 
   -0.39313E+08         0.76639E+06         0.00000E+00
    0.76639E+06        -0.98093E+08         0.00000E+00
    0.00000E+00         0.00000E+00        -0.38310E+08
 
   -0.39040E+08         0.64714E+06         0.00000E+00
    0.64714E+06        -0.98095E+08         0.00000E+00
    0.00000E+00         0.00000E+00        -0.37882E+08
 
   -0.38779E+08         0.52581E+06         0.00000E+00
    0.52581E+06        -0.98070E+08         0.00000E+00
    0.00000E+00         0.00000E+00        -0.37449E+08
 
   -0.38535E+08         0.40667E+06         0.00000E+00
    0.40667E+06        -0.98005E+08         0.00000E+00
    0.00000E+00         0.00000E+00        -0.37010E+08
 
   -0.38319E+08         0.29460E+06         0.00000E+00
    0.29460E+06        -0.97887E+08         0.00000E+00
    0.00000E+00         0.00000E+00        -0.36568E+08
 
   -0.38142E+08         0.19424E+06         0.00000E+00
    0.19424E+06        -0.97701E+08         0.00000E+00
    0.00000E+00         0.00000E+00        -0.36122E+08
 
   -0.38015E+08         0.10817E+06         0.00000E+00
    0.10817E+06        -0.97434E+08         0.00000E+00
    0.00000E+00         0.00000E+00        -0.35674E+08
 
   -0.37949E+08         0.34406E+05         0.00000E+00
    0.34406E+05        -0.97077E+08         0.00000E+00
    0.00000E+00         0.00000E+00        -0.35225E+08
 
   -0.49901E+08         0.26282E+04         0.00000E+00
    0.26282E+04        -0.97597E+08         0.00000E+00
    0.00000E+00         0.00000E+00        -0.49995E+08
 
   -0.49899E+08         0.80037E+04         0.00000E+00
    0.80037E+04        -0.97589E+08         0.00000E+00
    0.00000E+00         0.00000E+00        -0.49986E+08
 
   -0.49896E+08         0.13684E+05         0.00000E+00
    0.13684E+05        -0.97584E+08         0.00000E+00
    0.00000E+00         0.00000E+00        -0.49977E+08
 
   -0.49891E+08         0.19741E+05         0.00000E+00
    0.19741E+05        -0.97580E+08         0.00000E+00
    0.00000E+00         0.00000E+00        -0.49968E+08
 
   -0.49885E+08         0.26146E+05         0.00000E+00
    0.26146E+05        -0.97578E+08         0.00000E+00
    0.00000E+00         0.00000E+00        -0.49958E+08
 
   -0.49878E+08         0.32817E+05         0.00000E+00
    0.32817E+05        -0.97577E+08         0.00000E+00
    0.00000E+00         0.00000E+00        -0.49949E+08
 
   -0.49870E+08         0.39669E+05         0.00000E+00
    0.39669E+05        -0.97576E+08         0.00000E+00
    0.00000E+00         0.00000E+00        -0.49939E+08
 
   -0.49861E+08         0.46628E+05         0.00000E+00
    0.46628E+05        -0.97576E+08         0.00000E+00
    0.00000E+00         0.00000E+00        -0.49929E+08
 
   -0.49851E+08         0.53642E+05         0.00000E+00
    0.53642E+05        -0.97576E+08         0.00000E+00
    0.00000E+00         0.00000E+00        -0.49919E+08
 
   -0.49841E+08         0.60682E+05         0.00000E+00
    0.60682E+05        -0.97576E+08         0.00000E+00
    0.00000E+00         0.00000E+00        -0.49908E+08
 
   -0.49830E+08         0.67734E+05         0.00000E+00
    0.67734E+05        -0.97576E+08         0.00000E+00
    0.00000E+00         0.00000E+00        -0.49897E+08
 
   -0.49818E+08         0.74802E+05         0.00000E+00
    0.74802E+05        -0.97576E+08         0.00000E+00
    0.00000E+00         0.00000E+00        -0.49886E+08
 
   -0.49805E+08         0.81896E+05         0.00000E+00
    0.81896E+05        -0.97576E+08         0.00000E+00
    0.00000E+00         0.00000E+00        -0.49874E+08
 
   -0.49792E+08         0.89037E+05         0.00000E+00
    0.89037E+05        -0.97576E+08         0.00000E+00
    0.00000E+00         0.00000E+00        -0.49862E+08
 
   -0.49777E+08         0.96251E+05         0.00000E+00
    0.96251E+05        -0.97576E+08         0.00000E+00
    0.00000E+00         0.00000E+00        -0.49849E+08
 
   -0.49762E+08         0.10357E+06         0.00000E+00
    0.10357E+06        -0.97576E+08         0.00000E+00
    0.00000E+00         0.00000E+00        -0.49835E+08
 
   -0.49746E+08         0.11101E+06         0.00000E+00
    0.11101E+06        -0.97576E+08         0.00000E+00
    0.00000E+00         0.00000E+00        -0.49821E+08
 
   -0.49729E+08         0.11862E+06         0.00000E+00
    0.11862E+06        -0.97575E+08         0.00000E+00
    0.00000E+00         0.00000E+00        -0.49807E+08
 
   -0.49710E+08         0.12643E+06         0.00000E+00
    0.12643E+06        -0.97575E+08         0.00000E+00
    0.00000E+00         0.00000E+00        -0.49791E+08
 
   -0.49691E+08         0.13447E+06         0.00000E+00
    0.13447E+06        -0.97574E+08         0.00000E+00
    0.00000E+00         0.00000E+00        -0.49775E+08
 
   -0.49670E+08         0.14276E+06         0.00000E+00
    0.14276E+06        -0.97573E+08         0.00000E+00
    0.00000E+00         0.00000E+00        -0.49758E+08
 
   -0.49649E+08         0.15135E+06         0.00000E+00
    0.15135E+06        -0.97572E+08         0.00000E+00
    0.00000E+00         0.00000E+00        -0.49740E+08
 
   -0.49626E+08         0.16026E+06         0.00000E+00
    0.16026E+06        -0.97571E+08         0.00000E+00
    0.00000E+00         0.00000E+00        -0.49721E+08
 
   -0.49602E+08         0.16952E+06         0.00000E+00
    0.16952E+06        -0.97570E+08         0.00000E+00
    0.00000E+00         0.00000E+00        -0.49702E+08
 
   -0.49576E+08         0.17916E+06         0.00000E+00
    0.17916E+06        -0.97569E+08         0.00000E+00
    0.00000E+00         0.00000E+00        -0.49681E+08
 
   -0.49549E+08         0.18922E+06         0.00000E+00
    0.18922E+06        -0.97568E+08         0.00000E+00
    0.00000E+00         0.00000E+00        -0.49659E+08
 
   -0.49520E+08         0.19971E+06         0.00000E+00
    0.19971E+06        -0.97566E+08         0.00000E+00
    0.00000E+00         0.00000E+00        -0.49635E+08
 
   -0.49490E+08         0.21066E+06         0.00000E+00
    0.21066E+06        -0.97565E+08         0.00000E+00
    0.00000E+00         0.00000E+00        -0.49611E+08
 
   -0.49458E+08         0.22211E+06         0.00000E+00
    0.22211E+06        -0.97563E+08         0.00000E+00
    0.00000E+00         0.00000E+00        -0.49585E+08
 
   -0.49425E+08         0.23407E+06         0.00000E+00
    0.23407E+06        -0.97562E+08         0.00000E+00
    0.00000E+00         0.00000E+00        -0.49557E+08
 
   -0.49389E+08         0.24657E+06         0.00000E+00
    0.24657E+06        -0.97560E+08         0.00000E+00
    0.00000E+00         0.00000E+00        -0.49528E+08
 
   -0.49352E+08         0.25964E+06         0.00000E+00
    0.25964E+06        -0.97558E+08         0.00000E+00
    0.00000E+00         0.00000E+00        -0.49497E+08
 
   -0.49312E+08         0.27331E+06         0.00000E+00
    0.27331E+06        -0.97556E+08         0.00000E+00
    0.00000E+00         0.00000E+00        -0.49465E+08
 
   -0.49271E+08         0.28758E+06         0.00000E+00
    0.28758E+06        -0.97554E+08         0.00000E+00
    0.00000E+00         0.00000E+00        -0.49431E+08
 
   -0.49227E+08         0.30249E+06         0.00000E+00
    0.30249E+06        -0.97552E+08         0.00000E+00
    0.00000E+00         0.00000E+00        -0.49395E+08
 
   -0.49181E+08         0.31807E+06         0.00000E+00
    0.31807E+06        -0.97550E+08         0.00000E+00
    0.00000E+00         0.00000E+00        -0.49356E+08
 
   -0.49133E+08         0.33432E+06         0.00000E+00
    0.33432E+06        -0.97548E+08         0.00000E+00
    0.00000E+00         0.00000E+00        -0.49316E+08
 
   -0.49082E+08         0.35128E+06         0.00000E+00
    0.35128E+06        -0.97546E+08         0.00000E+00
    0.00000E+00         0.00000E+00        -0.49273E+08
 
   -0.49028E+08         0.36895E+06         0.00000E+00
    0.36895E+06        -0.97544E+08         0.00000E+00
    0.00000E+00         0.00000E+00        -0.49228E+08
 
   -0.48972E+08         0.38737E+06         0.00000E+00
    0.38737E+06        -0.97542E+08         0.00000E+00
    0.00000E+00         0.00000E+00        -0.49181E+08
 
   -0.48912E+08         0.40655E+06         0.00000E+00
    0.40655E+06        -0.97539E+08         0.00000E+00
    0.00000E+00         0.00000E+00        -0.49130E+08
 
   -0.48850E+08         0.42650E+06         0.00000E+00
    0.42650E+06        -0.97537E+08         0.00000E+00
    0.00000E+00         0.00000E+00        -0.49077E+08
 
   -0.48784E+08         0.44724E+06         0.00000E+00
    0.44724E+06        -0.97534E+08         0.00000E+00
    0.00000E+00         0.00000E+00        -0.49021E+08
 
   -0.48716E+08         0.46879E+06         0.00000E+00
    0.46879E+06        -0.97532E+08         0.00000E+00
    0.00000E+00         0.00000E+00        -0.48962E+08
 
   -0.48643E+08         0.49115E+06         0.00000E+00
    0.49115E+06        -0.97529E+08         0.00000E+00
    0.00000E+00         0.00000E+00        -0.48900E+08
 
   -0.48567E+08         0.51434E+06         0.00000E+00
    0.51434E+06        -0.97527E+08         0.00000E+00
    0.00000E+00         0.00000E+00        -0.48834E+08
 
   -0.48488E+08         0.53835E+06         0.00000E+00
    0.53835E+06        -0.97524E+08         0.00000E+00
    0.00000E+00         0.00000E+00        -0.48765E+08
 
   -0.48404E+08         0.56321E+06         0.00000E+00
    0.56321E+06        -0.97522E+08         0.00000E+00
    0.00000E+00         0.00000E+00        -0.48692E+08
 
   -0.48317E+08         0.58890E+06         0.00000E+00
    0.58890E+06        -0.97519E+08         0.00000E+00
    0.00000E+00         0.00000E+00        -0.48615E+08
 
   -0.48225E+08         0.61542E+06         0.00000E+00
    0.61542E+06        -0.97517E+08         0.00000E+00
    0.00000E+00         0.00000E+00        -0.48534E+08
 
   -0.48129E+08         0.64277E+06         0.00000E+00
    0.64277E+06        -0.97515E+08         0.00000E+00
    0.00000E+00         0.00000E+00        -0.48449E+08
 
   -0.48029E+08         0.67093E+06         0.00000E+00
    0.67093E+06        -0.97512E+08         0.00000E+00
    0.00000E+00         0.00000E+00        -0.48359E+08
 
   -0.47924E+08         0.69990E+06         0.00000E+00
    0.69990E+06        -0.97510E+08         0.00000E+00
    0.00000E+00         0.00000E+00        -0.48264E+08
 
   -0.47814E+08         0.72964E+06         0.00000E+00
    0.72964E+06        -0.97508E+08         0.00000E+00
    0.00000E+00         0.00000E+00        -0.48165E+08
 
   -0.47699E+08         0.76014E+06         0.00000E+00
    0.76014E+06        -0.97506E+08         0.00000E+00
    0.00000E+00         0.00000E+00        -0.48060E+08
 
   -0.47579E+08         0.79136E+06         0.00000E+00
    0.79136E+06        -0.97504E+08         0.00000E+00
    0.00000E+00         0.00000E+00        -0.47950E+08
 
   -0.47454E+08         0.82325E+06         0.00000E+00
    0.82325E+06        -0.97502E+08         0.00000E+00
    0.00000E+00         0.00000E+00        -0.47835E+08
 
   -0.47323E+08         0.85577E+06         0.00000E+00
    0.85577E+06        -0.97500E+08         0.00000E+00
    0.00000E+00         0.00000E+00        -0.47714E+08
 
   -0.47187E+08         0.88886E+06         0.00000E+00
    0.88886E+06        -0.97499E+08         0.00000E+00
    0.00000E+00         0.00000E+00        -0.47587E+08
 
   -0.47046E+08         0.92245E+06         0.00000E+00
    0.92245E+06        -0.97498E+08         0.00000E+00
    0.00000E+00         0.00000E+00        -0.47454E+08
 
   -0.46898E+08         0.95646E+06         0.00000E+00
    0.95646E+06        -0.97497E+08         0.00000E+00
    0.00000E+00         0.00000E+00        -0.47314E+08
 
   -0.46745E+08         0.99080E+06         0.00000E+00
    0.99080E+06        -0.97496E+08         0.00000E+00
    0.00000E+00         0.00000E+00        -0.47167E+08
 
   -0.46585E+08         0.10254E+07         0.00000E+00
    0.10254E+07        -0.97496E+08         0.00000E+00
    0.00000E+00         0.00000E+00        -0.47014E+08
 
   -0.46420E+08         0.10600E+07         0.00000E+00
    0.10600E+07        -0.97496E+08         0.00000E+00
    0.00000E+00         0.00000E+00        -0.46853E+08
 
   -0.46248E+08         0.10947E+07         0.00000E+00
    0.10947E+07        -0.97497E+08         0.00000E+00
    0.00000E+00         0.00000E+00        -0.46685E+08
 
   -0.46070E+08         0.11292E+07         0.00000E+00
    0.11292E+07        -0.97498E+08         0.00000E+00
    0.00000E+00         0.00000E+00        -0.46510E+08
 
   -0.45886E+08         0.11633E+07         0.00000E+00
    0.11633E+07        -0.97500E+08         0.00000E+00
    0.00000E+00         0.00000E+00        -0.46326E+08
 
   -0.45695E+08         0.11968E+07         0.00000E+00
    0.11968E+07        -0.97503E+08         0.00000E+00
    0.00000E+00         0.00000E+00        -0.46135E+08
 
   -0.45498E+08         0.12296E+07         0.00000E+00
    0.12296E+07        -0.97506E+08         0.00000E+00
    0.00000E+00         0.00000E+00        -0.45935E+08
 
   -0.45295E+08         0.12614E+07         0.00000E+00
    0.12614E+07        -0.97510E+08         0.00000E+00
    0.00000E+00         0.00000E+00        -0.45726E+08
 
   -0.45085E+08         0.12920E+07         0.00000E+00
    0.12920E+07        -0.97515E+08         0.00000E+00
    0.00000E+00         0.00000E+00        -0.45509E+08
 
   -0.44869E+08         0.13209E+07         0.00000E+00
    0.13209E+07        -0.97522E+08         0.00000E+00
    0.00000E+00         0.00000E+00        -0.45283E+08
 
   -0.44647E+08         0.13480E+07         0.00000E+00
    0.13480E+07        -0.97529E+08         0.00000E+00
    0.00000E+00         0.00000E+00        -0.45047E+08
 
   -0.44419E+08         0.13728E+07         0.00000E+00
    0.13728E+07        -0.97538E+08         0.00000E+00
    0.00000E+00         0.00000E+00        -0.44803E+08
 
   -0.44186E+08         0.13949E+07         0.00000E+00
    0.13949E+07        -0.97548E+08         0.00000E+00
    0.00000E+00         0.00000E+00        -0.44548E+08
 
   -0.43946E+08         0.14139E+07         0.00000E+00
    0.14139E+07        -0.97560E+08         0.00000E+00
    0.00000E+00         0.00000E+00        -0.44284E+08
 
   -0.43701E+08         0.14293E+07         0.00000E+00
    0.14293E+07        -0.97574E+08         0.00000E+00
    0.00000E+00         0.00000E+00        -0.44011E+08
 
   -0.43451E+08         0.14406E+07         0.00000E+00
    0.14406E+07        -0.97590E+08         0.00000E+00
    0.00000E+00         0.00000E+00        -0.43727E+08
 
   -0.43197E+08         0.14472E+07         0.00000E+00
    0.14472E+07        -0.97608E+08         0.00000E+00
    0.00000E+00         0.00000E+00        -0.43433E+08
 
   -0.42937E+08         0.14486E+07         0.00000E+00
    0.14486E+07        -0.97629E+08         0.00000E+00
    0.00000E+00         0.00000E+00        -0.43129E+08
 
   -0.42674E+08         0.14439E+07         0.00000E+00
    0.14439E+07        -0.97652E+08         0.00000E+00
    0.00000E+00         0.00000E+00        -0.42816E+08
 
   -0.42407E+08         0.14327E+07         0.00000E+00
    0.14327E+07        -0.97678E+08         0.00000E+00
    0.00000E+00         0.00000E+00        -0.42492E+08
 
   -0.42137E+08         0.14142E+07         0.00000E+00
    0.14142E+07        -0.97707E+08         0.00000E+00
    0.00000E+00         0.00000E+00        -0.42158E+08
 
   -0.41864E+08         0.13876E+07         0.00000E+00
    0.13876E+07        -0.97739E+08         0.00000E+00
    0.00000E+00         0.00000E+00        -0.41814E+08
 
   -0.41589E+08         0.13524E+07         0.00000E+00
    0.13524E+07        -0.97774E+08         0.00000E+00
    0.00000E+00         0.00000E+00        -0.41460E+08
 
   -0.41312E+08         0.13077E+07         0.00000E+00
    0.13077E+07        -0.97812E+08         0.00000E+00
    0.00000E+00         0.00000E+00        -0.41097E+08
 
   -0.41033E+08         0.12531E+07         0.00000E+00
    0.12531E+07        -0.97853E+08         0.00000E+00
    0.00000E+00         0.00000E+00        -0.40724E+08
 
   -0.40754E+08         0.11882E+07         0.00000E+00
    0.11882E+07        -0.97895E+08         0.00000E+00
    0.00000E+00         0.00000E+00        -0.40343E+08
 
   -0.40474E+08         0.11125E+07         0.00000E+00
    0.11125E+07        -0.97938E+08         0.00000E+00
    0.00000E+00         0.00000E+00        -0.39952E+08
 
   -0.40195E+08         0.10263E+07         0.00000E+00
    0.10263E+07        -0.97980E+08         0.00000E+00
    0.00000E+00         0.00000E+00        -0.39553E+08
 
   -0.39917E+08         0.93004E+06         0.00000E+00
    0.93004E+06        -0.98019E+08         0.00000E+00
    0.00000E+00         0.00000E+00        -0.39146E+08
 
   -0.39641E+08         0.82461E+06         0.00000E+00
    0.82461E+06        -0.98050E+08         0.00000E+00
    0.00000E+00         0.00000E+00        -0.38731E+08
 
   -0.39370E+08         0.71182E+06         0.00000E+00
    0.71182E+06        -0.98070E+08         0.00000E+00
    0.00000E+00         0.00000E+00        -0.38310E+08
 
   -0.39106E+08         0.59432E+06         0.00000E+00
    0.59432E+06        -0.98071E+08         0.00000E+00
    0.00000E+00         0.00000E+00        -0.37882E+08
 
   -0.38853E+08         0.47581E+06         0.00000E+00
    0.47581E+06        -0.98046E+08         0.00000E+00
    0.00000E+00         0.00000E+00        -0.37449E+08
 
   -0.38618E+08         0.36103E+06         0.00000E+00
    0.36103E+06        -0.97982E+08         0.00000E+00
    0.00000E+00         0.00000E+00        -0.37010E+08
 
   -0.38410E+08         0.25540E+06         0.00000E+00
    0.25540E+06        -0.97866E+08         0.00000E+00
    0.00000E+00         0.00000E+00        -0.36568E+08
 
   -0.38239E+08         0.16389E+06         0.00000E+00
    0.16389E+06        -0.97683E+08         0.00000E+00
    0.00000E+00         0.00000E+00        -0.36122E+08
 
   -0.38116E+08         0.88919E+05         0.00000E+00
    0.88919E+05        -0.97419E+08         0.00000E+00
    0.00000E+00         0.00000E+00        -0.35674E+08
 
   -0.38052E+08         0.27811E+05         0.00000E+00
    0.27811E+05        -0.97065E+08         0.00000E+00
    0.00000E+00         0.00000E+00        -0.35225E+08
 
   -0.49897E+08         0.24536E+04         0.00000E+00
    0.24536E+04        -0.97598E+08         0.00000E+00
    0.00000E+00         0.00000E+00        -0.49995E+08
 
   -0.49896E+08         0.74903E+04         0.00000E+00
    0.74903E+04        -0.97591E+08         0.00000E+00
    0.00000E+00         0.00000E+00        -0.49986E+08
 
   -0.49892E+08         0.12861E+05         0.00000E+00
    0.12861E+05        -0.97585E+08         0.00000E+00
    0.00000E+00         0.00000E+00        -0.49977E+08
 
   -0.49887E+08         0.18649E+05         0.00000E+00
    0.18649E+05        -0.97582E+08         0.00000E+00
    0.00000E+00         0.00000E+00        -0.49968E+08
 
   -0.49881E+08         0.24827E+05         0.00000E+00
    0.24827E+05        -0.97579E+08         0.00000E+00
    0.00000E+00         0.00000E+00        -0.49958E+08
 
   -0.49874E+08         0.31305E+05         0.00000E+00
    0.31305E+05        -0.97578E+08         0.00000E+00
    0.00000E+00         0.00000E+00        -0.49949E+08
 
   -0.49867E+08         0.37986E+05         0.00000E+00
    0.37986E+05        -0.97577E+08         0.00000E+00
    0.00000E+00         0.00000E+00        -0.49939E+08
 
   -0.49858E+08         0.44787E+05         0.00000E+00
    0.44787E+05        -0.97577E+08         0.00000E+00
    0.00000E+00         0.00000E+00        -0.49929E+08
 
   -0.49848E+08         0.51650E+05         0.00000E+00
    0.51650E+05        -0.97577E+08         0.00000E+00
    0.00000E+00         0.00000E+00        -0.49919E+08
 
   -0.49838E+08         0.58538E+05         0.00000E+00
    0.58538E+05        -0.97577E+08         0.00000E+00
    0.00000E+00         0.00000E+00        -0.49908E+08
 
   -0.49827E+08         0.65436E+05         0.00000E+00
    0.65436E+05        -0.97577E+08         0.00000E+00
    0.00000E+00         0.00000E+00        -0.49897E+08
 
   -0.49815E+08         0.72345E+05         0.00000E+00
    0.72345E+05        -0.97577E+08         0.00000E+00
    0.00000E+00         0.00000E+00        -0.49886E+08
 
   -0.49802E+08         0.79274E+05         0.00000E+00
    0.79274E+05        -0.97578E+08         0.00000E+00
    0.00000E+00         0.00000E+00        -0.49874E+08
 
   -0.49789E+08         0.86244E+05         0.00000E+00
    0.86244E+05        -0.97578E+08         0.00000E+00
    0.00000E+00         0.00000E+00        -0.49862E+08
 
   -0.49774E+08         0.93279E+05         0.00000E+00
    0.93279E+05        -0.97578E+08         0.00000E+00
    0.00000E+00         0.00000E+00        -0.49849E+08
 
   -0.49759E+08         0.10041E+06         0.00000E+00
    0.10041E+06        -0.97577E+08         0.00000E+00
    0.00000E+00         0.00000E+00        -0.49835E+08
 
   -0.49742E+08         0.10766E+06         0.00000E+00
    0.10766E+06        -0.97577E+08         0.00000E+00
    0.00000E+00         0.00000E+00        -0.49821E+08
 
   -0.49725E+08         0.11506E+06         0.00000E+00
    0.11506E+06        -0.97577E+08         0.00000E+00
    0.00000E+00         0.00000E+00        -0.49807E+08
 
   -0.49707E+08         0.12266E+06         0.00000E+00
    0.12266E+06        -0.97576E+08         0.00000E+00
    0.00000E+00         0.00000E+00        -0.49791E+08
 
   -0.49687E+08         0.13047E+06         0.00000E+00
    0.13047E+06        -0.97576E+08         0.00000E+00
    0.00000E+00         0.00000E+00        -0.49775E+08
 
   -0.49667E+08         0.13853E+06         0.00000E+00
    0.13853E+06        -0.97575E+08         0.00000E+00
    0.00000E+00         0.00000E+00        -0.49758E+08
 
   -0.49645E+08         0.14687E+06         0.00000E+00
    0.14687E+06        -0.97574E+08         0.00000E+00
    0.00000E+00         0.00000E+00        -0.49740E+08
 
   -0.49622E+08         0.15552E+06         0.00000E+00
    0.15552E+06        -0.97573E+08         0.00000E+00
    0.00000E+00         0.00000E+00        -0.49721E+08
 
   -0.49597E+08         0.16451E+06         0.00000E+00
    0.16451E+06        -0.97572E+08         0.00000E+00
    0.00000E+00         0.00000E+00        -0.49702E+08
 
   -0.49571E+08         0.17387E+06         0.00000E+00
    0.17387E+06        -0.97571E+08         0.00000E+00
    0.00000E+00         0.00000E+00        -0.49681E+08
 
   -0.49544E+08         0.18363E+06         0.00000E+00
    0.18363E+06        -0.97570E+08         0.00000E+00
    0.00000E+00         0.00000E+00        -0.49659E+08
 
   -0.49515E+08         0.19381E+06         0.00000E+00
    0.19381E+06        -0.97568E+08         0.00000E+00
    0.00000E+00         0.00000E+00        -0.49635E+08
 
   -0.49485E+08         0.20444E+06         0.00000E+00
    0.20444E+06        -0.97567E+08         0.00000E+00
    0.00000E+00         0.00000E+00        -0.49611E+08
 
   -0.49453E+08         0.21554E+06         0.00000E+00
    0.21554E+06        -0.97566E+08         0.00000E+00
    0.00000E+00         0.00000E+00        -0.49585E+08
 
   -0.49419E+08         0.22714E+06         0.00000E+00
    0.22714E+06        -0.97564E+08         0.00000E+00
    0.00000E+00         0.00000E+00        -0.49557E+08
 
   -0.49383E+08         0.23927E+06         0.00000E+00
    0.23927E+06        -0.97562E+08         0.00000E+00
    0.00000E+00         0.00000E+00        -0.49528E+08
 
   -0.49345E+08         0.25194E+06         0.00000E+00
    0.25194E+06        -0.97561E+08         0.00000E+00
    0.00000E+00         0.00000E+00        -0.49497E+08
 
   -0.49306E+08         0.26519E+06         0.00000E+00
    0.26519E+06        -0.97559E+08         0.00000E+00
    0.00000E+00         0.00000E+00        -0.49465E+08
 
   -0.49264E+08         0.27903E+06         0.00000E+00
    0.27903E+06        -0.97557E+08         0.00000E+00
    0.00000E+00         0.00000E+00        -0.49431E+08
 
   -0.49220E+08         0.29349E+06         0.00000E+00
    0.29349E+06        -0.97555E+08         0.00000E+00
    0.00000E+00         0.00000E+00        -0.49395E+08
 
   -0.49173E+08         0.30859E+06         0.00000E+00
    0.30859E+06        -0.97553E+08         0.00000E+00
    0.00000E+00         0.00000E+00        -0.49356E+08
 
   -0.49125E+08         0.32434E+06         0.00000E+00
    0.32434E+06        -0.97551E+08         0.00000E+00
    0.00000E+00         0.00000E+00        -0.49316E+08
 
   -0.49073E+08         0.34078E+06         0.00000E+00
    0.34078E+06        -0.97549E+08         0.00000E+00
    0.00000E+00         0.00000E+00        -0.49273E+08
 
   -0.49019E+08         0.35791E+06         0.00000E+00
    0.35791E+06        -0.97547E+08         0.00000E+00
    0.00000E+00         0.00000E+00        -0.49228E+08
 
   -0.48962E+08         0.37576E+06         0.00000E+00
    0.37576E+06        -0.97545E+08         0.00000E+00
    0.00000E+00         0.00000E+00        -0.49181E+08
 
   -0.48903E+08         0.39434E+06         0.00000E+00
    0.39434E+06        -0.97543E+08         0.00000E+00
    0.00000E+00         0.00000E+00        -0.49130E+08
 
   -0.48840E+08         0.41367E+06         0.00000E+00
    0.41367E+06        -0.97541E+08         0.00000E+00
    0.00000E+00         0.00000E+00        -0.49077E+08
 
   -0.48774E+08         0.43376E+06         0.00000E+00
    0.43376E+06        -0.97539E+08         0.00000E+00
    0.00000E+00         0.00000E+00        -0.49021E+08
 
   -0.48704E+08         0.45464E+06         0.00000E+00
    0.45464E+06        -0.97536E+08         0.00000E+00
    0.00000E+00         0.00000E+00        -0.48962E+08
 
   -0.48632E+08         0.47629E+06         0.00000E+00
    0.47629E+06        -0.97534E+08         0.00000E+00
    0.00000E+00         0.00000E+00        -0.48900E+08
 
   -0.48555E+08         0.49875E+06         0.00000E+00
    0.49875E+06        -0.97532E+08         0.00000E+00
    0.00000E+00         0.00000E+00        -0.48834E+08
 
   -0.48475E+08         0.52201E+06         0.00000E+00
    0.52201E+06        -0.97529E+08         0.00000E+00
    0.00000E+00         0.00000E+00        -0.48765E+08
 
   -0.48391E+08         0.54607E+06         0.00000E+00
    0.54607E+06        -0.97527E+08         0.00000E+00
    0.00000E+00         0.00000E+00        -0.48692E+08
 
   -0.48303E+08         0.57094E+06         0.00000E+00
    0.57094E+06        -0.97525E+08         0.00000E+00
    0.00000E+00         0.00000E+00        -0.48615E+08
 
   -0.48211E+08         0.59661E+06         0.00000E+00
    0.59661E+06        -0.97522E+08         0.00000E+00
    0.00000E+00         0.00000E+00        -0.48534E+08
 
   -0.48115E+08         0.62308E+06         0.00000E+00
    0.62308E+06        -0.97520E+08         0.00000E+00
    0.00000E+00         0.00000E+00        -0.48449E+08
 
   -0.48014E+08         0.65033E+06         0.00000E+00
    0.65033E+06        -0.97518E+08         0.00000E+00
    0.00000E+00         0.00000E+00        -0.48359E+08
 
   -0.47908E+08         0.67836E+06         0.00000E+00
    0.67836E+06        -0.97516E+08         0.00000E+00
    0.00000E+00         0.00000E+00        -0.48264E+08
 
   -0.47798E+08         0.70713E+06         0.00000E+00
    0.70713E+06        -0.97514E+08         0.00000E+00
    0.00000E+00         0.00000E+00        -0.48165E+08
 
   -0.47682E+08         0.73663E+06         0.00000E+00
    0.73663E+06        -0.97512E+08         0.00000E+00
    0.00000E+00         0.00000E+00        -0.48060E+08
 
   -0.47562E+08         0.76681E+06         0.00000E+00
    0.76681E+06        -0.97510E+08         0.00000E+00
    0.00000E+00         0.00000E+00        -0.47950E+08
 
   -0.47436E+08         0.79764E+06         0.00000E+00
    0.79764E+06        -0.97508E+08         0.00000E+00
    0.00000E+00         0.00000E+00        -0.47835E+08
 
   -0.47305E+08         0.82907E+06         0.00000E+00
    0.82907E+06        -0.97507E+08         0.00000E+00
    0.00000E+00         0.00000E+00        -0.47714E+08
 
   -0.47169E+08         0.86105E+06         0.00000E+00
    0.86105E+06        -0.97505E+08         0.00000E+00
    0.00000E+00         0.00000E+00        -0.47587E+08
 
   -0.47027E+08         0.89350E+06         0.00000E+00
    0.89350E+06        -0.97504E+08         0.00000E+00
    0.00000E+00         0.00000E+00        -0.47454E+08
 
   -0.46879E+08         0.92634E+06         0.00000E+00
    0.92634E+06        -0.97503E+08         0.00000E+00
    0.00000E+00         0.00000E+00        -0.47314E+08
 
   -0.46725E+08         0.95949E+06         0.00000E+00
    0.95949E+06        -0.97503E+08         0.00000E+00
    0.00000E+00         0.00000E+00        -0.47167E+08
 
   -0.46565E+08         0.99285E+06         0.00000E+00
    0.99285E+06        -0.97503E+08         0.00000E+00
    0.00000E+00         0.00000E+00        -0.47014E+08
 
   -0.46400E+08         0.10263E+07         0.00000E+00
    0.10263E+07        -0.97503E+08         0.00000E+00
    0.00000E+00         0.00000E+00        -0.46853E+08
 
   -0.46228E+08         0.10597E+07         0.00000E+00
    0.10597E+07        -0.97504E+08         0.00000E+00
    0.00000E+00         0.00000E+00        -0.46685E+08
 
   -0.46050E+08         0.10929E+07         0.00000E+00
    0.10929E+07        -0.97505E+08         0.00000E+00
    0.00000E+00         0.00000E+00        -0.46510E+08
 
   -0.45865E+08         0.11258E+07         0.00000E+00
    0.11258E+07        -0.97507E+08         0.00000E+00
    0.00000E+00         0.00000E+00        -0.46326E+08
 
   -0.45674E+08         0.11581E+07         0.00000E+00
    0.11581E+07        -0.97509E+08         0.00000E+00
    0.00000E+00         0.00000E+00        -0.46135E+08
 
   -0.45478E+08         0.11896E+07         0.00000E+00
    0.11896E+07        -0.97512E+08         0.00000E+00
    0.00000E+00         0.00000E+00        -0.45935E+08
 
   -0.45274E+08         0.12202E+07         0.00000E+00
    0.12202E+07        -0.97516E+08         0.00000E+00
    0.00000E+00         0.00000E+00        -0.45726E+08
 
   -0.45065E+08         0.12494E+07         0.00000E+00
    0.12494E+07        -0.97521E+08         0.00000E+00
    0.00000E+00         0.00000E+00        -0.45509E+08
 
   -0.44849E+08         0.12772E+07         0.00000E+00
    0.12772E+07        -0.97527E+08         0.00000E+00
    0.00000E+00         0.00000E+00        -0.45283E+08
 
   -0.44628E+08         0.13030E+07         0.00000E+00
    0.13030E+07        -0.97534E+08         0.00000E+00
    0.00000E+00         0.00000E+00        -0.45047E+08
 
   -0.44401E+08         0.13267E+07         0.00000E+00
    0.13267E+07        -0.97543E+08         0.00000E+00
    0.00000E+00         0.00000E+00        -0.44803E+08
 
   -0.44168E+08         0.13476E+07         0.00000E+00
    0.13476E+07        -0.97552E+08         0.00000E+00
    0.00000E+00         0.00000E+00        -0.44548E+08
 
   -0.43929E+08         0.13656E+07         0.00000E+00
    0.13656E+07        -0.97564E+08         0.00000E+00
    0.00000E+00         0.00000E+00        -0.44284E+08
 
   -0.43686E+08         0.13800E+07         0.00000E+00
    0.13800E+07        -0.97577E+08         0.00000E+00
    0.00000E+00         0.00000E+00        -0.44011E+08
 
   -0.43437E+08         0.13903E+07         0.00000E+00
    0.13903E+07        -0.97592E+08         0.00000E+00
    0.00000E+00         0.00000E+00        -0.43727E+08
 
   -0.43184E+08         0.13960E+07         0.00000E+00
    0.13960E+07        -0.97609E+08         0.00000E+00
    0.00000E+00         0.00000E+00        -0.43433E+08
 
   -0.42927E+08         0.13965E+07         0.00000E+00
    0.13965E+07        -0.97628E+08         0.00000E+00
    0.00000E+00         0.00000E+00        -0.43129E+08
 
   -0.42666E+08         0.13912E+07         0.00000E+00
    0.13912E+07        -0.97650E+08         0.00000E+00
    0.00000E+00         0.00000E+00        -0.42816E+08
 
   -0.42402E+08         0.13793E+07         0.00000E+00
    0.13793E+07        -0.97675E+08         0.00000E+00
    0.00000E+00         0.00000E+00        -0.42492E+08
 
   -0.42135E+08         0.13602E+07         0.00000E+00
    0.13602E+07        -0.97702E+08         0.00000E+00
    0.00000E+00         0.00000E+00        -0.42158E+08
 
   -0.41865E+08         0.13332E+07         0.00000E+00
    0.13332E+07        -0.97733E+08         0.00000E+00
    0.00000E+00         0.00000E+00        -0.41814E+08
 
   -0.41594E+08         0.12975E+07         0.00000E+00
    0.12975E+07        -0.97766E+08         0.00000E+00
    0.00000E+00         0.00000E+00        -0.41460E+08
 
   -0.41321E+08         0.12526E+07         0.00000E+00
    0.12526E+07        -0.97802E+08         0.00000E+00
    0.00000E+00         0.00000E+00        -0.41097E+08
 
   -0.41048E+08         0.11978E+07         0.00000E+00
    0.11978E+07        -0.97841E+08         0.00000E+00
    0.00000E+00         0.00000E+00        -0.40724E+08
 
   -0.40774E+08         0.11328E+07         0.00000E+00
    0.11328E+07        -0.97881E+08         0.00000E+00
    0.00000E+00         0.00000E+00        -0.40343E+08
 
   -0.40500E+08         0.10572E+07         0.00000E+00
    0.10572E+07        -0.97922E+08         0.00000E+00
    0.00000E+00         0.00000E+00        -0.39952E+08
 
   -0.40228E+08         0.97127E+06         0.00000E+00
    0.97127E+06        -0.97962E+08         0.00000E+00
    0.00000E+00         0.00000E+00        -0.39553E+08
 
   -0.39957E+08         0.87537E+06         0.00000E+00
    0.87537E+06        -0.97998E+08         0.00000E+00
    0.00000E+00         0.00000E+00        -0.39146E+08
 
   -0.39690E+08         0.77065E+06         0.00000E+00
    0.77065E+06        -0.98028E+08         0.00000E+00
    0.00000E+00         0.00000E+00        -0.38731E+08
 
   -0.39427E+08         0.65899E+06         0.00000E+00
    0.65899E+06        -0.98047E+08         0.00000E+00
    0.00000E+00         0.00000E+00        -0.38310E+08
 
   -0.39172E+08         0.54327E+06         0.00000E+00
    0.54327E+06        -0.98048E+08         0.00000E+00
    0.00000E+00         0.00000E+00        -0.37882E+08
 
   -0.38928E+08         0.42754E+06         0.00000E+00
    0.42754E+06        -0.98023E+08         0.00000E+00
    0.00000E+00         0.00000E+00        -0.37449E+08
 
   -0.38701E+08         0.31699E+06         0.00000E+00
    0.31699E+06        -0.97960E+08         0.00000E+00
    0.00000E+00         0.00000E+00        -0.37010E+08
 
   -0.38500E+08         0.21756E+06         0.00000E+00
    0.21756E+06        -0.97847E+08         0.00000E+00
    0.00000E+00         0.00000E+00        -0.36568E+08
 
   -0.38334E+08         0.13455E+06         0.00000E+00
    0.13455E+06        -0.97667E+08         0.00000E+00
    0.00000E+00         0.00000E+00        -0.36122E+08
 
   -0.38216E+08         0.70268E+05         0.00000E+00
    0.70268E+05        -0.97407E+08         0.00000E+00
    0.00000E+00         0.00000E+00        -0.35674E+08
 
   -0.38154E+08         0.21409E+05         0.00000E+00
    0.21409E+05        -0.97055E+08         0.00000E+00
    0.00000E+00         0.00000E+00        -0.35225E+08
 
   -0.49894E+08         0.22810E+04         0.00000E+00
    0.22810E+04        -0.97599E+08         0.00000E+00
    0.00000E+00         0.00000E+00        -0.49995E+08
 
   -0.49892E+08         0.69834E+04         0.00000E+00
    0.69834E+04        -0.97592E+08         0.00000E+00
    0.00000E+00         0.00000E+00        -0.49986E+08
 
   -0.49889E+08         0.12050E+05         0.00000E+00
    0.12050E+05        -0.97586E+08         0.00000E+00
    0.00000E+00         0.00000E+00        -0.49977E+08
 
   -0.49884E+08         0.17574E+05         0.00000E+00
    0.17574E+05        -0.97583E+08         0.00000E+00
    0.00000E+00         0.00000E+00        -0.49968E+08
 
   -0.49878E+08         0.23526E+05         0.00000E+00
    0.23526E+05        -0.97581E+08         0.00000E+00
    0.00000E+00         0.00000E+00        -0.49958E+08
 
   -0.49871E+08         0.29812E+05         0.00000E+00
    0.29812E+05        -0.97579E+08         0.00000E+00
    0.00000E+00         0.00000E+00        -0.49949E+08
 
   -0.49863E+08         0.36321E+05         0.00000E+00
    0.36321E+05        -0.97579E+08         0.00000E+00
    0.00000E+00         0.00000E+00        -0.49939E+08
 
   -0.49855E+08         0.42962E+05         0.00000E+00
    0.42962E+05        -0.97578E+08         0.00000E+00
    0.00000E+00         0.00000E+00        -0.49929E+08
 
   -0.49845E+08         0.49668E+05         0.00000E+00
    0.49668E+05        -0.97578E+08         0.00000E+00
    0.00000E+00         0.00000E+00        -0.49919E+08
 
   -0.49835E+08         0.56401E+05         0.00000E+00
    0.56401E+05        -0.97578E+08         0.00000E+00
    0.00000E+00         0.00000E+00        -0.49908E+08
 
   -0.49824E+08         0.63141E+05         0.00000E+00
    0.63141E+05        -0.97579E+08         0.00000E+00
    0.00000E+00         0.00000E+00        -0.49897E+08
 
   -0.49812E+08         0.69886E+05         0.00000E+00
    0.69886E+05        -0.97579E+08         0.00000E+00
    0.00000E+00         0.00000E+00        -0.49886E+08
 
   -0.49799E+08         0.76647E+05         0.00000E+00
    0.76647E+05        -0.97579E+08         0.00000E+00
    0.00000E+00         0.00000E+00        -0.49874E+08
 
   -0.49786E+08         0.83441E+05         0.00000E+00
    0.83441E+05        -0.97579E+08         0.00000E+00
    0.00000E+00         0.00000E+00        -0.49862E+08
 
   -0.49771E+08         0.90292E+05         0.00000E+00
    0.90292E+05        -0.97579E+08         0.00000E+00
    0.00000E+00         0.00000E+00        -0.49849E+08
 
   -0.49756E+08         0.97229E+05         0.00000E+00
    0.97229E+05        -0.97579E+08         0.00000E+00
    0.00000E+00         0.00000E+00        -0.49835E+08
 
   -0.49739E+08         0.10428E+06         0.00000E+00
    0.10428E+06        -0.97579E+08         0.00000E+00
    0.00000E+00         0.00000E+00        -0.49821E+08
 
   -0.49722E+08         0.11148E+06         0.00000E+00
    0.11148E+06        -0.97578E+08         0.00000E+00
    0.00000E+00         0.00000E+00        -0.49807E+08
 
   -0.49703E+08         0.11885E+06         0.00000E+00
    0.11885E+06        -0.97578E+08         0.00000E+00
    0.00000E+00         0.00000E+00        -0.49791E+08
 
   -0.49684E+08         0.12644E+06         0.00000E+00
    0.12644E+06        -0.97577E+08         0.00000E+00
    0.00000E+00         0.00000E+00        -0.49775E+08
 
   -0.49663E+08         0.13426E+06         0.00000E+00
    0.13426E+06        -0.97576E+08         0.00000E+00
    0.00000E+00         0.00000E+00        -0.49758E+08
 
   -0.49641E+08         0.14235E+06         0.00000E+00
    0.14235E+06        -0.97576E+08         0.00000E+00
    0.00000E+00         0.00000E+00        -0.49740E+08
 
   -0.49617E+08         0.15074E+06         0.00000E+00
    0.15074E+06        -0.97575E+08         0.00000E+00
    0.00000E+00         0.00000E+00        -0.49721E+08
 
   -0.49593E+08         0.15946E+06         0.00000E+00
    0.15946E+06        -0.97574E+08         0.00000E+00
    0.00000E+00         0.00000E+00        -0.49702E+08
 
   -0.49567E+08         0.16854E+06         0.00000E+00
    0.16854E+06        -0.97573E+08         0.00000E+00
    0.00000E+00         0.00000E+00        -0.49681E+08
 
   -0.49539E+08         0.17799E+06         0.00000E+00
    0.17799E+06        -0.97572E+08         0.00000E+00
    0.00000E+00         0.00000E+00        -0.49659E+08
 
   -0.49510E+08         0.18786E+06         0.00000E+00
    0.18786E+06        -0.97570E+08         0.00000E+00
    0.00000E+00         0.00000E+00        -0.49635E+08
 
   -0.49479E+08         0.19816E+06         0.00000E+00
    0.19816E+06        -0.97569E+08         0.00000E+00
    0.00000E+00         0.00000E+00        -0.49611E+08
 
   -0.49447E+08         0.20892E+06         0.00000E+00
    0.20892E+06        -0.97568E+08         0.00000E+00
    0.00000E+00         0.00000E+00        -0.49585E+08
 
   -0.49413E+08         0.22016E+06         0.00000E+00
    0.22016E+06        -0.97566E+08         0.00000E+00
    0.00000E+00         0.00000E+00        -0.49557E+08
 
   -0.49377E+08         0.23190E+06         0.00000E+00
    0.23190E+06        -0.97565E+08         0.00000E+00
    0.00000E+00         0.00000E+00        -0.49528E+08
 
   -0.49339E+08         0.24418E+06         0.00000E+00
    0.24418E+06        -0.97563E+08         0.00000E+00
    0.00000E+00         0.00000E+00        -0.49497E+08
 
   -0.49299E+08         0.25701E+06         0.00000E+00
    0.25701E+06        -0.97562E+08         0.00000E+00
    0.00000E+00         0.00000E+00        -0.49465E+08
 
   -0.49257E+08         0.27042E+06         0.00000E+00
    0.27042E+06        -0.97560E+08         0.00000E+00
    0.00000E+00         0.00000E+00        -0.49431E+08
 
   -0.49212E+08         0.28442E+06         0.00000E+00
    0.28442E+06        -0.97558E+08         0.00000E+00
    0.00000E+00         0.00000E+00        -0.49395E+08
 
   -0.49166E+08         0.29904E+06         0.00000E+00
    0.29904E+06        -0.97557E+08         0.00000E+00
    0.00000E+00         0.00000E+00        -0.49356E+08
 
   -0.49116E+08         0.31429E+06         0.00000E+00
    0.31429E+06        -0.97555E+08         0.00000E+00
    0.00000E+00         0.00000E+00        -0.49316E+08
 
   -0.49065E+08         0.33020E+06         0.00000E+00
    0.33020E+06        -0.97553E+08         0.00000E+00
    0.00000E+00         0.00000E+00        -0.49273E+08
 
   -0.49010E+08         0.34678E+06         0.00000E+00
    0.34678E+06        -0.97551E+08         0.00000E+00
    0.00000E+00         0.00000E+00        -0.49228E+08
 
   -0.48953E+08         0.36406E+06         0.00000E+00
    0.36406E+06        -0.97549E+08         0.00000E+00
    0.00000E+00         0.00000E+00        -0.49181E+08
 
   -0.48893E+08         0.38204E+06         0.00000E+00
    0.38204E+06        -0.97547E+08         0.00000E+00
    0.00000E+00         0.00000E+00        -0.49130E+08
 
   -0.48830E+08         0.40075E+06         0.00000E+00
    0.40075E+06        -0.97545E+08         0.00000E+00
    0.00000E+00         0.00000E+00        -0.49077E+08
 
   -0.48763E+08         0.42020E+06         0.00000E+00
    0.42020E+06        -0.97543E+08         0.00000E+00
    0.00000E+00         0.00000E+00        -0.49021E+08
 
   -0.48693E+08         0.44039E+06         0.00000E+00
    0.44039E+06        -0.97540E+08         0.00000E+00
    0.00000E+00         0.00000E+00        -0.48962E+08
 
   -0.48620E+08         0.46135E+06         0.00000E+00
    0.46135E+06        -0.97538E+08         0.00000E+00
    0.00000E+00         0.00000E+00        -0.48900E+08
 
   -0.48543E+08         0.48307E+06         0.00000E+00
    0.48307E+06        -0.97536E+08         0.00000E+00
    0.00000E+00         0.00000E+00        -0.48834E+08
 
   -0.48463E+08         0.50556E+06         0.00000E+00
    0.50556E+06        -0.97534E+08         0.00000E+00
    0.00000E+00         0.00000E+00        -0.48765E+08
 
   -0.48378E+08         0.52883E+06         0.00000E+00
    0.52883E+06        -0.97532E+08         0.00000E+00
    0.00000E+00         0.00000E+00        -0.48692E+08
 
   -0.48290E+08         0.55288E+06         0.00000E+00
    0.55288E+06        -0.97530E+08         0.00000E+00
    0.00000E+00         0.00000E+00        -0.48615E+08
 
   -0.48197E+08         0.57770E+06         0.00000E+00
    0.57770E+06        -0.97527E+08         0.00000E+00
    0.00000E+00         0.00000E+00        -0.48534E+08
 
   -0.48100E+08         0.60329E+06         0.00000E+00
    0.60329E+06        -0.97525E+08         0.00000E+00
    0.00000E+00         0.00000E+00        -0.48449E+08
 
   -0.47999E+08         0.62963E+06         0.00000E+00
    0.62963E+06        -0.97523E+08         0.00000E+00
    0.00000E+00         0.00000E+00        -0.48359E+08
 
   -0.47893E+08         0.65672E+06         0.00000E+00
    0.65672E+06        -0.97521E+08         0.00000E+00
    0.00000E+00         0.00000E+00        -0.48264E+08
 
   -0.47782E+08         0.68452E+06         0.00000E+00
    0.68452E+06        -0.97519E+08         0.00000E+00
    0.00000E+00         0.00000E+00        -0.48165E+08
 
   -0.47666E+08         0.71302E+06         0.00000E+00
    0.71302E+06        -0.97517E+08         0.00000E+00
    0.00000E+00         0.00000E+00        -0.48060E+08
 
   -0.47545E+08         0.74217E+06         0.00000E+00
    0.74217E+06        -0.97516E+08         0.00000E+00
    0.00000E+00         0.00000E+00        -0.47950E+08
 
   -0.47419E+08         0.77194E+06         0.00000E+00
    0.77194E+06        -0.97514E+08         0.00000E+00
    0.00000E+00         0.00000E+00        -0.47835E+08
 
   -0.47288E+08         0.80229E+06         0.00000E+00
    0.80229E+06        -0.97513E+08         0.00000E+00
    0.00000E+00         0.00000E+00        -0.47714E+08
 
   -0.47151E+08         0.83315E+06         0.00000E+00
    0.83315E+06        -0.97512E+08         0.00000E+00
    0.00000E+00         0.00000E+00        -0.47587E+08
 
   -0.47008E+08         0.86446E+06         0.00000E+00
    0.86446E+06        -0.97511E+08         0.00000E+00
    0.00000E+00         0.00000E+00        -0.47454E+08
 
   -0.46860E+08         0.89615E+06         0.00000E+00
    0.89615E+06        -0.97510E+08         0.00000E+00
    0.00000E+00         0.00000E+00        -0.47314E+08
 
   -0.46706E+08         0.92812E+06         0.00000E+00
    0.92812E+06        -0.97509E+08         0.00000E+00
    0.00000E+00         0.00000E+00        -0.47167E+08
 
   -0.46546E+08         0.96027E+06         0.00000E+00
    0.96027E+06        -0.97509E+08         0.00000E+00
    0.00000E+00         0.00000E+00        -0.47014E+08
 
   -0.46380E+08         0.99250E+06         0.00000E+00
    0.99250E+06        -0.97510E+08         0.00000E+00
    0.00000E+00         0.00000E+00        -0.46853E+08
 
   -0.46207E+08         0.10247E+07         0.00000E+00
    0.10247E+07        -0.97510E+08         0.00000E+00
    0.00000E+00         0.00000E+00        -0.46685E+08
 
   -0.46029E+08         0.10567E+07         0.00000E+00
    0.10567E+07        -0.97511E+08         0.00000E+00
    0.00000E+00         0.00000E+00        -0.46510E+08
 
   -0.45845E+08         0.10883E+07         0.00000E+00
    0.10883E+07        -0.97513E+08         0.00000E+00
    0.00000E+00         0.00000E+00        -0.46326E+08
 
   -0.45654E+08         0.11193E+07         0.00000E+00
    0.11193E+07        -0.97516E+08         0.00000E+00
    0.00000E+00         0.00000E+00        -0.46135E+08
 
   -0.45457E+08         0.11496E+07         0.00000E+00
    0.11496E+07        -0.97519E+08         0.00000E+00
    0.00000E+00         0.00000E+00        -0.45935E+08
 
   -0.45254E+08         0.11789E+07         0.00000E+00
    0.11789E+07        -0.97522E+08         0.00000E+00
    0.00000E+00         0.00000E+00        -0.45726E+08
 
   -0.45045E+08         0.12070E+07         0.00000E+00
    0.12070E+07        -0.97527E+08         0.00000E+00
    0.00000E+00         0.00000E+00        -0.45509E+08
 
   -0.44830E+08         0.12335E+07         0.00000E+00
    0.12335E+07        -0.97532E+08         0.00000E+00
    0.00000E+00         0.00000E+00        -0.45283E+08
 
   -0.44609E+08         0.12582E+07         0.00000E+00
    0.12582E+07        -0.97539E+08         0.00000E+00
    0.00000E+00         0.00000E+00        -0.45047E+08
 
   -0.44382E+08         0.12807E+07         0.00000E+00
    0.12807E+07        -0.97547E+08         0.00000E+00
    0.00000E+00         0.00000E+00        -0.44803E+08
 
   -0.44150E+08         0.13006E+07         0.00000E+00
    0.13006E+07        -0.97556E+08         0.00000E+00
    0.00000E+00         0.00000E+00        -0.44548E+08
 
   -0.43912E+08         0.13175E+07         0.00000E+00
    0.13175E+07        -0.97567E+08         0.00000E+00
    0.00000E+00         0.00000E+00        -0.44284E+08
 
   -0.43670E+08         0.13309E+07         0.00000E+00
    0.13309E+07        -0.97579E+08         0.00000E+00
    0.00000E+00         0.00000E+00        -0.44011E+08
 
   -0.43423E+08         0.13403E+07         0.00000E+00
    0.13403E+07        -0.97593E+08         0.00000E+00
    0.00000E+00         0.00000E+00        -0.43727E+08
 
   -0.43171E+08         0.13452E+07         0.00000E+00
    0.13452E+07        -0.97609E+08         0.00000E+00
    0.00000E+00         0.00000E+00        -0.43433E+08
 
   -0.42916E+08         0.13449E+07         0.00000E+00
    0.13449E+07        -0.97628E+08         0.00000E+00
    0.00000E+00         0.00000E+00        -0.43129E+08
 
   -0.42658E+08         0.13389E+07         0.00000E+00
    0.13389E+07        -0.97648E+08         0.00000E+00
    0.00000E+00         0.00000E+00        -0.42816E+08
 
   -0.42396E+08         0.13264E+07         0.00000E+00
    0.13264E+07        -0.97672E+08         0.00000E+00
    0.00000E+00         0.00000E+00        -0.42492E+08
 
   -0.42132E+08         0.13068E+07         0.00000E+00
    0.13068E+07        -0.97698E+08         0.00000E+00
    0.00000E+00         0.00000E+00        -0.42158E+08
 
   -0.41866E+08         0.12794E+07         0.00000E+00
    0.12794E+07        -0.97727E+08         0.00000E+00
    0.00000E+00         0.00000E+00        -0.41814E+08
 
   -0.41598E+08         0.12435E+07         0.00000E+00
    0.12435E+07        -0.97758E+08         0.00000E+00
    0.00000E+00         0.00000E+00        -0.41460E+08
 
   -0.41330E+08         0.11984E+07         0.00000E+00
    0.11984E+07        -0.97792E+08         0.00000E+00
    0.00000E+00         0.00000E+00        -0.41097E+08
 
   -0.41061E+08         0.11436E+07         0.00000E+00
    0.11436E+07        -0.97829E+08         0.00000E+00
    0.00000E+00         0.00000E+00        -0.40724E+08
 
   -0.40793E+08         0.10786E+07         0.00000E+00
    0.10786E+07        -0.97867E+08         0.00000E+00
    0.00000E+00         0.00000E+00        -0.40343E+08
 
   -0.40526E+08         0.10033E+07         0.00000E+00
    0.10033E+07        -0.97906E+08         0.00000E+00
    0.00000E+00         0.00000E+00        -0.39952E+08
 
   -0.40260E+08         0.91762E+06         0.00000E+00
    0.91762E+06        -0.97944E+08         0.00000E+00
    0.00000E+00         0.00000E+00        -0.39553E+08
 
   -0.39997E+08         0.82226E+06         0.00000E+00
    0.82226E+06        -0.97978E+08         0.00000E+00
    0.00000E+00         0.00000E+00        -0.39146E+08
 
   -0.39738E+08         0.71835E+06         0.00000E+00
    0.71835E+06        -0.98007E+08         0.00000E+00
    0.00000E+00         0.00000E+00        -0.38731E+08
 
   -0.39484E+08         0.60791E+06         0.00000E+00
    0.60791E+06        -0.98024E+08         0.00000E+00
    0.00000E+00         0.00000E+00        -0.38310E+08
 
   -0.39237E+08         0.49400E+06         0.00000E+00
    0.49400E+06        -0.98025E+08         0.00000E+00
    0.00000E+00         0.00000E+00        -0.37882E+08
 
   -0.39002E+08         0.38100E+06         0.00000E+00
    0.38100E+06        -0.98000E+08         0.00000E+00
    0.00000E+00         0.00000E+00        -0.37449E+08
 
   -0.38784E+08         0.27453E+06         0.00000E+00
    0.27453E+06        -0.97939E+08         0.00000E+00
    0.00000E+00         0.00000E+00        -0.37010E+08
 
   -0.38590E+08         0.18102E+06         0.00000E+00
    0.18102E+06        -0.97829E+08         0.00000E+00
    0.00000E+00         0.00000E+00        -0.36568E+08
 
   -0.38430E+08         0.10614E+06         0.00000E+00
    0.10614E+06        -0.97654E+08         0.00000E+00
    0.00000E+00         0.00000E+00        -0.36122E+08
 
   -0.38315E+08         0.52156E+05         0.00000E+00
    0.52156E+05        -0.97397E+08         0.00000E+00
    0.00000E+00         0.00000E+00        -0.35674E+08
 
   -0.38255E+08         0.15178E+05         0.00000E+00
    0.15178E+05        -0.97047E+08         0.00000E+00
    0.00000E+00         0.00000E+00        -0.35225E+08
 
   -0.49890E+08         0.21100E+04         0.00000E+00
    0.21100E+04        -0.97600E+08         0.00000E+00
    0.00000E+00         0.00000E+00        -0.49995E+08
 
   -0.49888E+08         0.64820E+04         0.00000E+00
    0.64820E+04        -0.97593E+08         0.00000E+00
    0.00000E+00         0.00000E+00        -0.49986E+08
 
   -0.49885E+08         0.11249E+05         0.00000E+00
    0.11249E+05        -0.97587E+08         0.00000E+00
    0.00000E+00         0.00000E+00        -0.49977E+08
 
   -0.49880E+08         0.16514E+05         0.00000E+00
    0.16514E+05        -0.97584E+08         0.00000E+00
    0.00000E+00         0.00000E+00        -0.49968E+08
 
   -0.49875E+08         0.22245E+05         0.00000E+00
    0.22245E+05        -0.97582E+08         0.00000E+00
    0.00000E+00         0.00000E+00        -0.49958E+08
 
   -0.49868E+08         0.28338E+05         0.00000E+00
    0.28338E+05        -0.97580E+08         0.00000E+00
    0.00000E+00         0.00000E+00        -0.49949E+08
 
   -0.49860E+08         0.34674E+05         0.00000E+00
    0.34674E+05        -0.97580E+08         0.00000E+00
    0.00000E+00         0.00000E+00        -0.49939E+08
 
   -0.49851E+08         0.41152E+05         0.00000E+00
    0.41152E+05        -0.97580E+08         0.00000E+00
    0.00000E+00         0.00000E+00        -0.49929E+08
 
   -0.49842E+08         0.47699E+05         0.00000E+00
    0.47699E+05        -0.97580E+08         0.00000E+00
    0.00000E+00         0.00000E+00        -0.49919E+08
 
   -0.49832E+08         0.54272E+05         0.00000E+00
    0.54272E+05        -0.97580E+08         0.00000E+00
    0.00000E+00         0.00000E+00        -0.49908E+08
 
   -0.49821E+08         0.60849E+05         0.00000E+00
    0.60849E+05        -0.97580E+08         0.00000E+00
    0.00000E+00         0.00000E+00        -0.49897E+08
 
   -0.49809E+08         0.67427E+05         0.00000E+00
    0.67427E+05        -0.97580E+08         0.00000E+00
    0.00000E+00         0.00000E+00        -0.49886E+08
 
   -0.49796E+08         0.74014E+05         0.00000E+00
    0.74014E+05        -0.97580E+08         0.00000E+00
    0.00000E+00         0.00000E+00        -0.49874E+08
 
   -0.49783E+08         0.80628E+05         0.00000E+00
    0.80628E+05        -0.97580E+08         0.00000E+00
    0.00000E+00         0.00000E+00        -0.49862E+08
 
   -0.49768E+08         0.87293E+05         0.00000E+00
    0.87293E+05        -0.97580E+08         0.00000E+00
    0.00000E+00         0.00000E+00        -0.49849E+08
 
   -0.49752E+08         0.94035E+05         0.00000E+00
    0.94035E+05        -0.97580E+08         0.00000E+00
    0.00000E+00         0.00000E+00        -0.49835E+08
 
   -0.49736E+08         0.10088E+06         0.00000E+00
    0.10088E+06        -0.97580E+08         0.00000E+00
    0.00000E+00         0.00000E+00        -0.49821E+08
 
   -0.49718E+08         0.10787E+06         0.00000E+00
    0.10787E+06        -0.97580E+08         0.00000E+00
    0.00000E+00         0.00000E+00        -0.49807E+08
 
   -0.49700E+08         0.11502E+06         0.00000E+00
    0.11502E+06        -0.97579E+08         0.00000E+00
    0.00000E+00         0.00000E+00        -0.49791E+08
 
   -0.49680E+08         0.12238E+06         0.00000E+00
    0.12238E+06        -0.97579E+08         0.00000E+00
    0.00000E+00         0.00000E+00        -0.49775E+08
 
   -0.49659E+08         0.12996E+06         0.00000E+00
    0.12996E+06        -0.97578E+08         0.00000E+00
    0.00000E+00         0.00000E+00        -0.49758E+08
 
   -0.49637E+08         0.13780E+06         0.00000E+00
    0.13780E+06        -0.97577E+08         0.00000E+00
    0.00000E+00         0.00000E+00        -0.49740E+08
 
   -0.49613E+08         0.14593E+06         0.00000E+00
    0.14593E+06        -0.97577E+08         0.00000E+00
    0.00000E+00         0.00000E+00        -0.49721E+08
 
   -0.49588E+08         0.15437E+06         0.00000E+00
    0.15437E+06        -0.97576E+08         0.00000E+00
    0.00000E+00         0.00000E+00        -0.49702E+08
 
   -0.49562E+08         0.16316E+06         0.00000E+00
    0.16316E+06        -0.97575E+08         0.00000E+00
    0.00000E+00         0.00000E+00        -0.49681E+08
 
   -0.49534E+08         0.17231E+06         0.00000E+00
    0.17231E+06        -0.97574E+08         0.00000E+00
    0.00000E+00         0.00000E+00        -0.49659E+08
 
   -0.49505E+08         0.18186E+06         0.00000E+00
    0.18186E+06        -0.97572E+08         0.00000E+00
    0.00000E+00         0.00000E+00        -0.49635E+08
 
   -0.49474E+08         0.19183E+06         0.00000E+00
    0.19183E+06        -0.97571E+08         0.00000E+00
    0.00000E+00         0.00000E+00        -0.49611E+08
 
   -0.49441E+08         0.20224E+06         0.00000E+00
    0.20224E+06        -0.97570E+08         0.00000E+00
    0.00000E+00         0.00000E+00        -0.49585E+08
 
   -0.49407E+08         0.21312E+06         0.00000E+00
    0.21312E+06        -0.97569E+08         0.00000E+00
    0.00000E+00         0.00000E+00        -0.49557E+08
 
   -0.49371E+08         0.22448E+06         0.00000E+00
    0.22448E+06        -0.97567E+08         0.00000E+00
    0.00000E+00         0.00000E+00        -0.49528E+08
 
   -0.49332E+08         0.23636E+06         0.00000E+00
    0.23636E+06        -0.97566E+08         0.00000E+00
    0.00000E+00         0.00000E+00        -0.49497E+08
 
   -0.49292E+08         0.24877E+06         0.00000E+00
    0.24877E+06        -0.97564E+08         0.00000E+00
    0.00000E+00         0.00000E+00        -0.49465E+08
 
   -0.49250E+08         0.26174E+06         0.00000E+00
    0.26174E+06        -0.97563E+08         0.00000E+00
    0.00000E+00         0.00000E+00        -0.49431E+08
 
   -0.49205E+08         0.27528E+06         0.00000E+00
    0.27528E+06        -0.97561E+08         0.00000E+00
    0.00000E+00         0.00000E+00        -0.49395E+08
 
   -0.49158E+08         0.28941E+06         0.00000E+00
    0.28941E+06        -0.97559E+08         0.00000E+00
    0.00000E+00         0.00000E+00        -0.49356E+08
 
   -0.49108E+08         0.30416E+06         0.00000E+00
    0.30416E+06        -0.97558E+08         0.00000E+00
    0.00000E+00         0.00000E+00        -0.49316E+08
 
   -0.49056E+08         0.31955E+06         0.00000E+00
    0.31955E+06        -0.97556E+08         0.00000E+00
    0.00000E+00         0.00000E+00        -0.49273E+08
 
   -0.49001E+08         0.33558E+06         0.00000E+00
    0.33558E+06        -0.97554E+08         0.00000E+00
    0.00000E+00         0.00000E+00        -0.49228E+08
 
   -0.48944E+08         0.35228E+06         0.00000E+00
    0.35228E+06        -0.97552E+08         0.00000E+00
    0.00000E+00         0.00000E+00        -0.49181E+08
 
   -0.48883E+08         0.36967E+06         0.00000E+00
    0.36967E+06        -0.97550E+08         0.00000E+00
    0.00000E+00         0.00000E+00        -0.49130E+08
 
   -0.48820E+08         0.38775E+06         0.00000E+00
    0.38775E+06        -0.97548E+08         0.00000E+00
    0.00000E+00         0.00000E+00        -0.49077E+08
 
   -0.48753E+08         0.40654E+06         0.00000E+00
    0.40654E+06        -0.97546E+08         0.00000E+00
    0.00000E+00         0.00000E+00        -0.49021E+08
 
   -0.48682E+08         0.42606E+06         0.00000E+00
    0.42606E+06        -0.97544E+08         0.00000E+00
    0.00000E+00         0.00000E+00        -0.48962E+08
 
   -0.48609E+08         0.44631E+06         0.00000E+00
    0.44631E+06        -0.97542E+08         0.00000E+00
    0.00000E+00         0.00000E+00        -0.48900E+08
 
   -0.48532E+08         0.46729E+06         0.00000E+00
    0.46729E+06        -0.97540E+08         0.00000E+00
    0.00000E+00         0.00000E+00        -0.48834E+08
 
   -0.48451E+08         0.48902E+06         0.00000E+00
    0.48902E+06        -0.97538E+08         0.00000E+00
    0.00000E+00         0.00000E+00        -0.48765E+08
 
   -0.48366E+08         0.51150E+06         0.00000E+00
    0.51150E+06        -0.97536E+08         0.00000E+00
    0.00000E+00         0.00000E+00        -0.48692E+08
 
   -0.48277E+08         0.53473E+06         0.00000E+00
    0.53473E+06        -0.97534E+08         0.00000E+00
    0.00000E+00         0.00000E+00        -0.48615E+08
 
   -0.48184E+08         0.55870E+06         0.00000E+00
    0.55870E+06        -0.97532E+08         0.00000E+00
    0.00000E+00         0.00000E+00        -0.48534E+08
 
   -0.48086E+08         0.58340E+06         0.00000E+00
    0.58340E+06        -0.97530E+08         0.00000E+00
    0.00000E+00         0.00000E+00        -0.48449E+08
 
   -0.47984E+08         0.60884E+06         0.00000E+00
    0.60884E+06        -0.97528E+08         0.00000E+00
    0.00000E+00         0.00000E+00        -0.48359E+08
 
   -0.47878E+08         0.63498E+06         0.00000E+00
    0.63498E+06        -0.97527E+08         0.00000E+00
    0.00000E+00         0.00000E+00        -0.48264E+08
 
   -0.47766E+08         0.66181E+06         0.00000E+00
    0.66181E+06        -0.97525E+08         0.00000E+00
    0.00000E+00         0.00000E+00        -0.48165E+08
 
   -0.47650E+08         0.68931E+06         0.00000E+00
    0.68931E+06        -0.97523E+08         0.00000E+00
    0.00000E+00         0.00000E+00        -0.48060E+08
 
   -0.47529E+08         0.71743E+06         0.00000E+00
    0.71743E+06        -0.97522E+08         0.00000E+00
    0.00000E+00         0.00000E+00        -0.47950E+08
 
   -0.47402E+08         0.74615E+06         0.00000E+00
    0.74615E+06        -0.97520E+08         0.00000E+00
    0.00000E+00         0.00000E+00        -0.47835E+08
 
   -0.47270E+08         0.77541E+06         0.00000E+00
    0.77541E+06        -0.97519E+08         0.00000E+00
    0.00000E+00         0.00000E+00        -0.47714E+08
 
   -0.47133E+08         0.80516E+06         0.00000E+00
    0.80516E+06        -0.97518E+08         0.00000E+00
    0.00000E+00         0.00000E+00        -0.47587E+08
 
   -0.46990E+08         0.83534E+06         0.00000E+00
    0.83534E+06        -0.97517E+08         0.00000E+00
    0.00000E+00         0.00000E+00        -0.47454E+08
 
   -0.46841E+08         0.86587E+06         0.00000E+00
    0.86587E+06        -0.97516E+08         0.00000E+00
    0.00000E+00         0.00000E+00        -0.47314E+08
 
   -0.46687E+08         0.89667E+06         0.00000E+00
    0.89667E+06        -0.97516E+08         0.00000E+00
    0.00000E+00         0.00000E+00        -0.47167E+08
 
   -0.46526E+08         0.92763E+06         0.00000E+00
    0.92763E+06        -0.97516E+08         0.00000E+00
    0.00000E+00         0.00000E+00        -0.47014E+08
 
   -0.46360E+08         0.95866E+06         0.00000E+00
    0.95866E+06        -0.97516E+08         0.00000E+00
    0.00000E+00         0.00000E+00        -0.46853E+08
 
   -0.46187E+08         0.98961E+06         0.00000E+00
    0.98961E+06        -0.97517E+08         0.00000E+00
    0.00000E+00         0.00000E+00        -0.46685E+08
 
   -0.46009E+08         0.10204E+07         0.00000E+00
    0.10204E+07        -0.97518E+08         0.00000E+00
    0.00000E+00         0.00000E+00        -0.46510E+08
 
   -0.45824E+08         0.10507E+07         0.00000E+00
    0.10507E+07        -0.97519E+08         0.00000E+00
    0.00000E+00         0.00000E+00        -0.46326E+08
 
   -0.45633E+08         0.10806E+07         0.00000E+00
    0.10806E+07        -0.97522E+08         0.00000E+00
    0.00000E+00         0.00000E+00        -0.46135E+08
 
   -0.45437E+08         0.11096E+07         0.00000E+00
    0.11096E+07        -0.97524E+08         0.00000E+00
    0.00000E+00         0.00000E+00        -0.45935E+08
 
   -0.45234E+08         0.11377E+07         0.00000E+00
    0.11377E+07        -0.97528E+08         0.00000E+00
    0.00000E+00         0.00000E+00        -0.45726E+08
 
   -0.45025E+08         0.11646E+07         0.00000E+00
    0.11646E+07        -0.97532E+08         0.00000E+00
    0.00000E+00         0.00000E+00        -0.45509E+08
 
   -0.44810E+08         0.11899E+07         0.00000E+00
    0.11899E+07        -0.97537E+08         0.00000E+00
    0.00000E+00         0.00000E+00        -0.45283E+08
 
   -0.44589E+08         0.12135E+07         0.00000E+00
    0.12135E+07        -0.97544E+08         0.00000E+00
    0.00000E+00         0.00000E+00        -0.45047E+08
 
   -0.44363E+08         0.12349E+07         0.00000E+00
    0.12349E+07        -0.97551E+08         0.00000E+00
    0.00000E+00         0.00000E+00        -0.44803E+08
 
   -0.44132E+08         0.12537E+07         0.00000E+00
    0.12537E+07        -0.97560E+08         0.00000E+00
    0.00000E+00         0.00000E+00        -0.44548E+08
 
   -0.43895E+08         0.12696E+07         0.00000E+00
    0.12696E+07        -0.97570E+08         0.00000E+00
    0.00000E+00         0.00000E+00        -0.44284E+08
 
   -0.43654E+08         0.12820E+07         0.00000E+00
    0.12820E+07        -0.97581E+08         0.00000E+00
    0.00000E+00         0.00000E+00        -0.44011E+08
 
   -0.43408E+08         0.12906E+07         0.00000E+00
    0.12906E+07        -0.97595E+08         0.00000E+00
    0.00000E+00         0.00000E+00        -0.43727E+08
 
   -0.43159E+08         0.12947E+07         0.00000E+00
    0.12947E+07        -0.97610E+08         0.00000E+00
    0.00000E+00         0.00000E+00        -0.43433E+08
 
   -0.42905E+08         0.12937E+07         0.00000E+00
    0.12937E+07        -0.97627E+08         0.00000E+00
    0.00000E+00         0.00000E+00        -0.43129E+08
 
   -0.42649E+08         0.12871E+07         0.00000E+00
    0.12871E+07        -0.97647E+08         0.00000E+00
    0.00000E+00         0.00000E+00        -0.42816E+08
 
   -0.42390E+08         0.12741E+07         0.00000E+00
    0.12741E+07        -0.97669E+08         0.00000E+00
    0.00000E+00         0.00000E+00        -0.42492E+08
 
   -0.42129E+08         0.12541E+07         0.00000E+00
    0.12541E+07        -0.97693E+08         0.00000E+00
    0.00000E+00         0.00000E+00        -0.42158E+08
 
   -0.41866E+08         0.12264E+07         0.00000E+00
    0.12264E+07        -0.97720E+08         0.00000E+00
    0.00000E+00         0.00000E+00        -0.41814E+08
 
   -0.41602E+08         0.11903E+07         0.00000E+00
    0.11903E+07        -0.97750E+08         0.00000E+00
    0.00000E+00         0.00000E+00        -0.41460E+08
 
   -0.41339E+08         0.11452E+07         0.00000E+00
    0.11452E+07        -0.97782E+08         0.00000E+00
    0.00000E+00         0.00000E+00        -0.41097E+08
 
   -0.41075E+08         0.10904E+07         0.00000E+00
    0.10904E+07        -0.97817E+08         0.00000E+00
    0.00000E+00         0.00000E+00        -0.40724E+08
 
   -0.40812E+08         0.10256E+07         0.00000E+00
    0.10256E+07        -0.97853E+08         0.00000E+00
    0.00000E+00         0.00000E+00        -0.40343E+08
 
   -0.40551E+08         0.95057E+06         0.00000E+00
    0.95057E+06        -0.97890E+08         0.00000E+00
    0.00000E+00         0.00000E+00        -0.39952E+08
 
   -0.40292E+08         0.86541E+06         0.00000E+00
    0.86541E+06        -0.97925E+08         0.00000E+00
    0.00000E+00         0.00000E+00        -0.39553E+08
 
   -0.40037E+08         0.77072E+06         0.00000E+00
    0.77072E+06        -0.97958E+08         0.00000E+00
    0.00000E+00         0.00000E+00        -0.39146E+08
 
   -0.39786E+08         0.66773E+06         0.00000E+00
    0.66773E+06        -0.97985E+08         0.00000E+00
    0.00000E+00         0.00000E+00        -0.38731E+08
 
   -0.39540E+08         0.55858E+06         0.00000E+00
    0.55858E+06        -0.98002E+08         0.00000E+00
    0.00000E+00         0.00000E+00        -0.38310E+08
 
   -0.39303E+08         0.44651E+06         0.00000E+00
    0.44651E+06        -0.98002E+08         0.00000E+00
    0.00000E+00         0.00000E+00        -0.37882E+08
 
   -0.39076E+08         0.33618E+06         0.00000E+00
    0.33618E+06        -0.97978E+08         0.00000E+00
    0.00000E+00         0.00000E+00        -0.37449E+08
 
   -0.38866E+08         0.23363E+06         0.00000E+00
    0.23363E+06        -0.97920E+08         0.00000E+00
    0.00000E+00         0.00000E+00        -0.37010E+08
 
   -0.38679E+08         0.14575E+06         0.00000E+00
    0.14575E+06        -0.97813E+08         0.00000E+00
    0.00000E+00         0.00000E+00        -0.36568E+08
 
   -0.38525E+08         0.78620E+05         0.00000E+00
    0.78620E+05        -0.97642E+08         0.00000E+00
    0.00000E+00         0.00000E+00        -0.36122E+08
 
   -0.38413E+08         0.34536E+05         0.00000E+00
    0.34536E+05        -0.97390E+08         0.00000E+00
    0.00000E+00         0.00000E+00        -0.35674E+08
 
   -0.38355E+08         0.91002E+04         0.00000E+00
    0.91002E+04        -0.97042E+08         0.00000E+00
    0.00000E+00         0.00000E+00        -0.35225E+08
 
   -0.49886E+08         0.19402E+04         0.00000E+00
    0.19402E+04        -0.97600E+08         0.00000E+00
    0.00000E+00         0.00000E+00        -0.49995E+08
 
   -0.49885E+08         0.59853E+04         0.00000E+00
    0.59853E+04        -0.97593E+08         0.00000E+00
    0.00000E+00         0.00000E+00        -0.49986E+08
 
   -0.49882E+08         0.10458E+05         0.00000E+00
    0.10458E+05        -0.97588E+08         0.00000E+00
    0.00000E+00         0.00000E+00        -0.49977E+08
 
   -0.49877E+08         0.15468E+05         0.00000E+00
    0.15468E+05        -0.97585E+08         0.00000E+00
    0.00000E+00         0.00000E+00        -0.49968E+08
 
   -0.49871E+08         0.20982E+05         0.00000E+00
    0.20982E+05        -0.97583E+08         0.00000E+00
    0.00000E+00         0.00000E+00        -0.49958E+08
 
   -0.49865E+08         0.26885E+05         0.00000E+00
    0.26885E+05        -0.97582E+08         0.00000E+00
    0.00000E+00         0.00000E+00        -0.49949E+08
 
   -0.49857E+08         0.33046E+05         0.00000E+00
    0.33046E+05        -0.97581E+08         0.00000E+00
    0.00000E+00         0.00000E+00        -0.49939E+08
 
   -0.49848E+08         0.39358E+05         0.00000E+00
    0.39358E+05        -0.97581E+08         0.00000E+00
    0.00000E+00         0.00000E+00        -0.49929E+08
 
   -0.49839E+08         0.45742E+05         0.00000E+00
    0.45742E+05        -0.97581E+08         0.00000E+00
    0.00000E+00         0.00000E+00        -0.49919E+08
 
   -0.49829E+08         0.52151E+05         0.00000E+00
    0.52151E+05        -0.97581E+08         0.00000E+00
    0.00000E+00         0.00000E+00        -0.49908E+08
 
   -0.49818E+08         0.58561E+05         0.00000E+00
    0.58561E+05        -0.97581E+08         0.00000E+00
    0.00000E+00         0.00000E+00        -0.49897E+08
 
   -0.49806E+08         0.64967E+05         0.00000E+00
    0.64967E+05        -0.97581E+08         0.00000E+00
    0.00000E+00         0.00000E+00        -0.49886E+08
 
   -0.49793E+08         0.71376E+05         0.00000E+00
    0.71376E+05        -0.97582E+08         0.00000E+00
    0.00000E+00         0.00000E+00        -0.49874E+08
 
   -0.49780E+08         0.77807E+05         0.00000E+00
    0.77807E+05        -0.97582E+08         0.00000E+00
    0.00000E+00         0.00000E+00        -0.49862E+08
 
   -0.49765E+08         0.84280E+05         0.00000E+00
    0.84280E+05        -0.97582E+08         0.00000E+00
    0.00000E+00         0.00000E+00        -0.49849E+08
 
   -0.49749E+08         0.90824E+05         0.00000E+00
    0.90824E+05        -0.97582E+08         0.00000E+00
    0.00000E+00         0.00000E+00        -0.49835E+08
 
   -0.49733E+08         0.97467E+05         0.00000E+00
    0.97467E+05        -0.97581E+08         0.00000E+00
    0.00000E+00         0.00000E+00        -0.49821E+08
 
   -0.49715E+08         0.10424E+06         0.00000E+00
    0.10424E+06        -0.97581E+08         0.00000E+00
    0.00000E+00         0.00000E+00        -0.49807E+08
 
   -0.49696E+08         0.11117E+06         0.00000E+00
    0.11117E+06        -0.97581E+08         0.00000E+00
    0.00000E+00         0.00000E+00        -0.49791E+08
 
   -0.49676E+08         0.11829E+06         0.00000E+00
    0.11829E+06        -0.97580E+08         0.00000E+00
    0.00000E+00         0.00000E+00        -0.49775E+08
 
   -0.49655E+08         0.12563E+06         0.00000E+00
    0.12563E+06        -0.97580E+08         0.00000E+00
    0.00000E+00         0.00000E+00        -0.49758E+08
 
   -0.49633E+08         0.13321E+06         0.00000E+00
    0.13321E+06        -0.97579E+08         0.00000E+00
    0.00000E+00         0.00000E+00        -0.49740E+08
 
   -0.49609E+08         0.14108E+06         0.00000E+00
    0.14108E+06        -0.97578E+08         0.00000E+00
    0.00000E+00         0.00000E+00        -0.49721E+08
 
   -0.49584E+08         0.14924E+06         0.00000E+00
    0.14924E+06        -0.97577E+08         0.00000E+00
    0.00000E+00         0.00000E+00        -0.49702E+08
 
   -0.49558E+08         0.15774E+06         0.00000E+00
    0.15774E+06        -0.97576E+08         0.00000E+00
    0.00000E+00         0.00000E+00        -0.49681E+08
 
   -0.49530E+08         0.16659E+06         0.00000E+00
    0.16659E+06        -0.97575E+08         0.00000E+00
    0.00000E+00         0.00000E+00        -0.49659E+08
 
   -0.49500E+08         0.17582E+06         0.00000E+00
    0.17582E+06        -0.97574E+08         0.00000E+00
    0.00000E+00         0.00000E+00        -0.49635E+08
 
   -0.49469E+08         0.18545E+06         0.00000E+00
    0.18545E+06        -0.97573E+08         0.00000E+00
    0.00000E+00         0.00000E+00        -0.49611E+08
 
   -0.49436E+08         0.19551E+06         0.00000E+00
    0.19551E+06        -0.97572E+08         0.00000E+00
    0.00000E+00         0.00000E+00        -0.49585E+08
 
   -0.49401E+08         0.20602E+06         0.00000E+00
    0.20602E+06        -0.97571E+08         0.00000E+00
    0.00000E+00         0.00000E+00        -0.49557E+08
 
   -0.49365E+08         0.21700E+06         0.00000E+00
    0.21700E+06        -0.97570E+08         0.00000E+00
    0.00000E+00         0.00000E+00        -0.49528E+08
 
   -0.49326E+08         0.22848E+06         0.00000E+00
    0.22848E+06        -0.97568E+08         0.00000E+00
    0.00000E+00         0.00000E+00        -0.49497E+08
 
   -0.49286E+08         0.24046E+06         0.00000E+00
    0.24046E+06        -0.97567E+08         0.00000E+00
    0.00000E+00         0.00000E+00        -0.49465E+08
 
   -0.49243E+08         0.25299E+06         0.00000E+00
    0.25299E+06        -0.97565E+08         0.00000E+00
    0.00000E+00         0.00000E+00        -0.49431E+08
 
   -0.49198E+08         0.26607E+06         0.00000E+00
    0.26607E+06        -0.97564E+08         0.00000E+00
    0.00000E+00         0.00000E+00        -0.49395E+08
 
   -0.49150E+08         0.27972E+06         0.00000E+00
    0.27972E+06        -0.97562E+08         0.00000E+00
    0.00000E+00         0.00000E+00        -0.49356E+08
 
   -0.49100E+08         0.29396E+06         0.00000E+00
    0.29396E+06        -0.97561E+08         0.00000E+00
    0.00000E+00         0.00000E+00        -0.49316E+08
 
   -0.49048E+08         0.30882E+06         0.00000E+00
    0.30882E+06        -0.97559E+08         0.00000E+00
    0.00000E+00         0.00000E+00        -0.49273E+08
 
   -0.48993E+08         0.32430E+06         0.00000E+00
    0.32430E+06        -0.97557E+08         0.00000E+00
    0.00000E+00         0.00000E+00        -0.49228E+08
 
   -0.48935E+08         0.34043E+06         0.00000E+00
    0.34043E+06        -0.97556E+08         0.00000E+00
    0.00000E+00         0.00000E+00        -0.49181E+08
 
   -0.48874E+08         0.35721E+06         0.00000E+00
    0.35721E+06        -0.97554E+08         0.00000E+00
    0.00000E+00         0.00000E+00        -0.49130E+08
 
   -0.48810E+08         0.37466E+06         0.00000E+00
    0.37466E+06        -0.97552E+08         0.00000E+00
    0.00000E+00         0.00000E+00        -0.49077E+08
 
   -0.48742E+08         0.39280E+06         0.00000E+00
    0.39280E+06        -0.97550E+08         0.00000E+00
    0.00000E+00         0.00000E+00        -0.49021E+08
 
   -0.48672E+08         0.41164E+06         0.00000E+00
    0.41164E+06        -0.97548E+08         0.00000E+00
    0.00000E+00         0.00000E+00        -0.48962E+08
 
   -0.48598E+08         0.43117E+06         0.00000E+00
    0.43117E+06        -0.97546E+08         0.00000E+00
    0.00000E+00         0.00000E+00        -0.48900E+08
 
   -0.48520E+08         0.45142E+06         0.00000E+00
    0.45142E+06        -0.97545E+08         0.00000E+00
    0.00000E+00         0.00000E+00        -0.48834E+08
 
   -0.48438E+08         0.47239E+06         0.00000E+00
    0.47239E+06        -0.97543E+08         0.00000E+00
    0.00000E+00         0.00000E+00        -0.48765E+08
 
   -0.48353E+08         0.49408E+06         0.00000E+00
    0.49408E+06        -0.97541E+08         0.00000E+00
    0.00000E+00         0.00000E+00        -0.48692E+08
 
   -0.48264E+08         0.51648E+06         0.00000E+00
    0.51648E+06        -0.97539E+08         0.00000E+00
    0.00000E+00         0.00000E+00        -0.48615E+08
 
   -0.48170E+08         0.53960E+06         0.00000E+00
    0.53960E+06        -0.97537E+08         0.00000E+00
    0.00000E+00         0.00000E+00        -0.48534E+08
 
   -0.48072E+08         0.56342E+06         0.00000E+00
    0.56342E+06        -0.97535E+08         0.00000E+00
    0.00000E+00         0.00000E+00        -0.48449E+08
 
   -0.47970E+08         0.58794E+06         0.00000E+00
    0.58794E+06        -0.97534E+08         0.00000E+00
    0.00000E+00         0.00000E+00        -0.48359E+08
 
   -0.47863E+08         0.61314E+06         0.00000E+00
    0.61314E+06        -0.97532E+08         0.00000E+00
    0.00000E+00         0.00000E+00        -0.48264E+08
 
   -0.47751E+08         0.63900E+06         0.00000E+00
    0.63900E+06        -0.97530E+08         0.00000E+00
    0.00000E+00         0.00000E+00        -0.48165E+08
 
   -0.47634E+08         0.66550E+06         0.00000E+00
    0.66550E+06        -0.97529E+08         0.00000E+00
    0.00000E+00         0.00000E+00        -0.48060E+08
 
   -0.47512E+08         0.69260E+06         0.00000E+00
    0.69260E+06        -0.97527E+08         0.00000E+00
    0.00000E+00         0.00000E+00        -0.47950E+08
 
   -0.47385E+08         0.72026E+06         0.00000E+00
    0.72026E+06        -0.97526E+08         0.00000E+00
    0.00000E+00         0.00000E+00        -0.47835E+08
 
   -0.47253E+08         0.74845E+06         0.00000E+00
    0.74845E+06        -0.97525E+08         0.00000E+00
    0.00000E+00         0.00000E+00        -0.47714E+08
 
   -0.47115E+08         0.77709E+06         0.00000E+00
    0.77709E+06        -0.97524E+08         0.00000E+00
    0.00000E+00         0.00000E+00        -0.47587E+08
 
   -0.46971E+08         0.80614E+06         0.00000E+00
    0.80614E+06        -0.97523E+08         0.00000E+00
    0.00000E+00         0.00000E+00        -0.47454E+08
 
   -0.46822E+08         0.83552E+06         0.00000E+00
    0.83552E+06        -0.97522E+08         0.00000E+00
    0.00000E+00         0.00000E+00        -0.47314E+08
 
   -0.46668E+08         0.86515E+06         0.00000E+00
    0.86515E+06        -0.97522E+08         0.00000E+00
    0.00000E+00         0.00000E+00        -0.47167E+08
 
   -0.46507E+08         0.89493E+06         0.00000E+00
    0.89493E+06        -0.97522E+08         0.00000E+00
    0.00000E+00         0.00000E+00        -0.47014E+08
 
   -0.46340E+08         0.92475E+06         0.00000E+00
    0.92475E+06        -0.97522E+08         0.00000E+00
    0.00000E+00         0.00000E+00        -0.46853E+08
 
   -0.46167E+08         0.95450E+06         0.00000E+00
    0.95450E+06        -0.97523E+08         0.00000E+00
    0.00000E+00         0.00000E+00        -0.46685E+08
 
   -0.45989E+08         0.98402E+06         0.00000E+00
    0.98402E+06        -0.97524E+08         0.00000E+00
    0.00000E+00         0.00000E+00        -0.46510E+08
 
   -0.45804E+08         0.10132E+07         0.00000E+00
    0.10132E+07        -0.97525E+08         0.00000E+00
    0.00000E+00         0.00000E+00        -0.46326E+08
 
   -0.45613E+08         0.10418E+07         0.00000E+00
    0.10418E+07        -0.97527E+08         0.00000E+00
    0.00000E+00         0.00000E+00        -0.46135E+08
 
   -0.45416E+08         0.10696E+07         0.00000E+00
    0.10696E+07        -0.97530E+08         0.00000E+00
    0.00000E+00         0.00000E+00        -0.45935E+08
 
   -0.45213E+08         0.10965E+07         0.00000E+00
    0.10965E+07        -0.97533E+08         0.00000E+00
    0.00000E+00         0.00000E+00        -0.45726E+08
 
   -0.45005E+08         0.11222E+07         0.00000E+00
    0.11222E+07        -0.97537E+08         0.00000E+00
    0.00000E+00         0.00000E+00        -0.45509E+08
 
   -0.44790E+08         0.11464E+07         0.00000E+00
    0.11464E+07        -0.97542E+08         0.00000E+00
    0.00000E+00         0.00000E+00        -0.45283E+08
 
   -0.44570E+08         0.11689E+07         0.00000E+00
    0.11689E+07        -0.97548E+08         0.00000E+00
    0.00000E+00         0.00000E+00        -0.45047E+08
 
   -0.44345E+08         0.11892E+07         0.00000E+00
    0.11892E+07        -0.97555E+08         0.00000E+00
    0.00000E+00         0.00000E+00        -0.44803E+08
 
   -0.44114E+08         0.12070E+07         0.00000E+00
    0.12070E+07        -0.97563E+08         0.00000E+00
    0.00000E+00         0.00000E+00        -0.44548E+08
 
   -0.43878E+08         0.12219E+07         0.00000E+00
    0.12219E+07        -0.97572E+08         0.00000E+00
    0.00000E+00         0.00000E+00        -0.44284E+08
 
   -0.43638E+08         0.12335E+07         0.00000E+00
    0.12335E+07        -0.97583E+08         0.00000E+00
    0.00000E+00         0.00000E+00        -0.44011E+08
 
   -0.43394E+08         0.12412E+07         0.00000E+00
    0.12412E+07        -0.97596E+08         0.00000E+00
    0.00000E+00         0.00000E+00        -0.43727E+08
 
   -0.43146E+08         0.12445E+07         0.00000E+00
    0.12445E+07        -0.97610E+08         0.00000E+00
    0.00000E+00         0.00000E+00        -0.43433E+08
 
   -0.42894E+08         0.12429E+07         0.00000E+00
    0.12429E+07        -0.97626E+08         0.00000E+00
    0.00000E+00         0.00000E+00        -0.43129E+08
 
   -0.42640E+08         0.12357E+07         0.00000E+00
    0.12357E+07        -0.97645E+08         0.00000E+00
    0.00000E+00         0.00000E+00        -0.42816E+08
 
   -0.42383E+08         0.12223E+07         0.00000E+00
    0.12223E+07        -0.97665E+08         0.00000E+00
    0.00000E+00         0.00000E+00        -0.42492E+08
 
   -0.42125E+08         0.12020E+07         0.00000E+00
    0.12020E+07        -0.97688E+08         0.00000E+00
    0.00000E+00         0.00000E+00        -0.42158E+08
 
   -0.41866E+08         0.11741E+07         0.00000E+00
    0.11741E+07        -0.97714E+08         0.00000E+00
    0.00000E+00         0.00000E+00        -0.41814E+08
 
   -0.41606E+08         0.11379E+07         0.00000E+00
    0.11379E+07        -0.97742E+08         0.00000E+00
    0.00000E+00         0.00000E+00        -0.41460E+08
 
   -0.41347E+08         0.10929E+07         0.00000E+00
    0.10929E+07        -0.97772E+08         0.00000E+00
    0.00000E+00         0.00000E+00        -0.41097E+08
 
   -0.41088E+08         0.10383E+07         0.00000E+00
    0.10383E+07        -0.97805E+08         0.00000E+00
    0.00000E+00         0.00000E+00        -0.40724E+08
 
   -0.40831E+08         0.97379E+06         0.00000E+00
    0.97379E+06        -0.97839E+08         0.00000E+00
    0.00000E+00         0.00000E+00        -0.40343E+08
 
   -0.40576E+08         0.89920E+06         0.00000E+00
    0.89920E+06        -0.97874E+08         0.00000E+00
    0.00000E+00         0.00000E+00        -0.39952E+08
 
   -0.40324E+08         0.81465E+06         0.00000E+00
    0.81465E+06        -0.97908E+08         0.00000E+00
    0.00000E+00         0.00000E+00        -0.39553E+08
 
   -0.40076E+08         0.72076E+06         0.00000E+00
    0.72076E+06        -0.97939E+08         0.00000E+00
    0.00000E+00         0.00000E+00        -0.39146E+08
 
   -0.39833E+08         0.61881E+06         0.00000E+00
    0.61881E+06        -0.97964E+08         0.00000E+00
    0.00000E+00         0.00000E+00        -0.38731E+08
 
   -0.39596E+08         0.51102E+06         0.00000E+00
    0.51102E+06        -0.97980E+08         0.00000E+00
    0.00000E+00         0.00000E+00        -0.38310E+08
 
   -0.39368E+08         0.40082E+06         0.00000E+00
    0.40082E+06        -0.97980E+08         0.00000E+00
    0.00000E+00         0.00000E+00        -0.37882E+08
 
   -0.39151E+08         0.29309E+06         0.00000E+00
    0.29309E+06        -0.97957E+08         0.00000E+00
    0.00000E+00         0.00000E+00        -0.37449E+08
 
   -0.38949E+08         0.19426E+06         0.00000E+00
    0.19426E+06        -0.97901E+08         0.00000E+00
    0.00000E+00         0.00000E+00        -0.37010E+08
 
   -0.38768E+08         0.11171E+06         0.00000E+00
    0.11171E+06        -0.97798E+08         0.00000E+00
    0.00000E+00         0.00000E+00        -0.36568E+08
 
   -0.38619E+08         0.51933E+05         0.00000E+00
    0.51933E+05        -0.97631E+08         0.00000E+00
    0.00000E+00         0.00000E+00        -0.36122E+08
 
   -0.38511E+08         0.17368E+05         0.00000E+00
    0.17368E+05        -0.97384E+08         0.00000E+00
    0.00000E+00         0.00000E+00        -0.35674E+08
 
   -0.38454E+08         0.31587E+04         0.00000E+00
    0.31587E+04        -0.97040E+08         0.00000E+00
    0.00000E+00         0.00000E+00        -0.35225E+08
 
   -0.49883E+08         0.17715E+04         0.00000E+00
    0.17715E+04        -0.97601E+08         0.00000E+00
    0.00000E+00         0.00000E+00        -0.49995E+08
 
   -0.49881E+08         0.54928E+04         0.00000E+00
    0.54928E+04        -0.97594E+08         0.00000E+00
    0.00000E+00         0.00000E+00        -0.49986E+08
 
   -0.49878E+08         0.96757E+04         0.00000E+00
    0.96757E+04        -0.97589E+08         0.00000E+00
    0.00000E+00         0.00000E+00        -0.49977E+08
 
   -0.49874E+08         0.14437E+05         0.00000E+00
    0.14437E+05        -0.97586E+08         0.00000E+00
    0.00000E+00         0.00000E+00        -0.49968E+08
 
   -0.49868E+08         0.19738E+05         0.00000E+00
    0.19738E+05        -0.97584E+08         0.00000E+00
    0.00000E+00         0.00000E+00        -0.49958E+08
 
   -0.49861E+08         0.25451E+05         0.00000E+00
    0.25451E+05        -0.97583E+08         0.00000E+00
    0.00000E+00         0.00000E+00        -0.49949E+08
 
   -0.49854E+08         0.31438E+05         0.00000E+00
    0.31438E+05        -0.97582E+08         0.00000E+00
    0.00000E+00         0.00000E+00        -0.49939E+08
 
   -0.49845E+08         0.37581E+05         0.00000E+00
    0.37581E+05        -0.97582E+08         0.00000E+00
    0.00000E+00         0.00000E+00        -0.49929E+08
 
   -0.49836E+08         0.43798E+05         0.00000E+00
    0.43798E+05        -0.97582E+08         0.00000E+00
    0.00000E+00         0.00000E+00        -0.49919E+08
 
   -0.49826E+08         0.50038E+05         0.00000E+00
    0.50038E+05        -0.97582E+08         0.00000E+00
    0.00000E+00         0.00000E+00        -0.49908E+08
 
   -0.49815E+08         0.56277E+05         0.00000E+00
    0.56277E+05        -0.97583E+08         0.00000E+00
    0.00000E+00         0.00000E+00        -0.49897E+08
 
   -0.49803E+08         0.62506E+05         0.00000E+00
    0.62506E+05        -0.97583E+08         0.00000E+00
    0.00000E+00         0.00000E+00        -0.49886E+08
 
   -0.49790E+08         0.68734E+05         0.00000E+00
    0.68734E+05        -0.97583E+08         0.00000E+00
    0.00000E+00         0.00000E+00        -0.49874E+08
 
   -0.49777E+08         0.74976E+05         0.00000E+00
    0.74976E+05        -0.97583E+08         0.00000E+00
    0.00000E+00         0.00000E+00        -0.49862E+08
 
   -0.49762E+08         0.81255E+05         0.00000E+00
    0.81255E+05        -0.97583E+08         0.00000E+00
    0.00000E+00         0.00000E+00        -0.49849E+08
 
   -0.49746E+08         0.87597E+05         0.00000E+00
    0.87597E+05        -0.97583E+08         0.00000E+00
    0.00000E+00         0.00000E+00        -0.49835E+08
 
   -0.49730E+08         0.94030E+05         0.00000E+00
    0.94030E+05        -0.97583E+08         0.00000E+00
    0.00000E+00         0.00000E+00        -0.49821E+08
 
   -0.49712E+08         0.10058E+06         0.00000E+00
    0.10058E+06        -0.97582E+08         0.00000E+00
    0.00000E+00         0.00000E+00        -0.49807E+08
 
   -0.49693E+08         0.10729E+06         0.00000E+00
    0.10729E+06        -0.97582E+08         0.00000E+00
    0.00000E+00         0.00000E+00        -0.49791E+08
 
   -0.49673E+08         0.11417E+06         0.00000E+00
    0.11417E+06        -0.97582E+08         0.00000E+00
    0.00000E+00         0.00000E+00        -0.49775E+08
 
   -0.49652E+08         0.12126E+06         0.00000E+00
    0.12126E+06        -0.97581E+08         0.00000E+00
    0.00000E+00         0.00000E+00        -0.49758E+08
 
   -0.49629E+08         0.12859E+06         0.00000E+00
    0.12859E+06        -0.97580E+08         0.00000E+00
    0.00000E+00         0.00000E+00        -0.49740E+08
 
   -0.49605E+08         0.13619E+06         0.00000E+00
    0.13619E+06        -0.97580E+08         0.00000E+00
    0.00000E+00         0.00000E+00        -0.49721E+08
 
   -0.49580E+08         0.14407E+06         0.00000E+00
    0.14407E+06        -0.97579E+08         0.00000E+00
    0.00000E+00         0.00000E+00        -0.49702E+08
 
   -0.49553E+08         0.15227E+06         0.00000E+00
    0.15227E+06        -0.97578E+08         0.00000E+00
    0.00000E+00         0.00000E+00        -0.49681E+08
 
   -0.49525E+08         0.16082E+06         0.00000E+00
    0.16082E+06        -0.97577E+08         0.00000E+00
    0.00000E+00         0.00000E+00        -0.49659E+08
 
   -0.49495E+08         0.16972E+06         0.00000E+00
    0.16972E+06        -0.97576E+08         0.00000E+00
    0.00000E+00         0.00000E+00        -0.49635E+08
 
   -0.49464E+08         0.17902E+06         0.00000E+00
    0.17902E+06        -0.97575E+08         0.00000E+00
    0.00000E+00         0.00000E+00        -0.49611E+08
 
   -0.49431E+08         0.18873E+06         0.00000E+00
    0.18873E+06        -0.97574E+08         0.00000E+00
    0.00000E+00         0.00000E+00        -0.49585E+08
 
   -0.49396E+08         0.19887E+06         0.00000E+00
    0.19887E+06        -0.97573E+08         0.00000E+00
    0.00000E+00         0.00000E+00        -0.49557E+08
 
   -0.49359E+08         0.20946E+06         0.00000E+00
    0.20946E+06        -0.97572E+08         0.00000E+00
    0.00000E+00         0.00000E+00        -0.49528E+08
 
   -0.49320E+08         0.22053E+06         0.00000E+00
    0.22053E+06        -0.97571E+08         0.00000E+00
    0.00000E+00         0.00000E+00        -0.49497E+08
 
   -0.49279E+08         0.23210E+06         0.00000E+00
    0.23210E+06        -0.97569E+08         0.00000E+00
    0.00000E+00         0.00000E+00        -0.49465E+08
 
   -0.49236E+08         0.24418E+06         0.00000E+00
    0.24418E+06        -0.97568E+08         0.00000E+00
    0.00000E+00         0.00000E+00        -0.49431E+08
 
   -0.49191E+08         0.25679E+06         0.00000E+00
    0.25679E+06        -0.97566E+08         0.00000E+00
    0.00000E+00         0.00000E+00        -0.49395E+08
 
   -0.49143E+08         0.26996E+06         0.00000E+00
    0.26996E+06        -0.97565E+08         0.00000E+00
    0.00000E+00         0.00000E+00        -0.49356E+08
 
   -0.49093E+08         0.28369E+06         0.00000E+00
    0.28369E+06        -0.97564E+08         0.00000E+00
    0.00000E+00         0.00000E+00        -0.49316E+08
 
   -0.49040E+08         0.29802E+06         0.00000E+00
    0.29802E+06        -0.97562E+08         0.00000E+00
    0.00000E+00         0.00000E+00        -0.49273E+08
 
   -0.48984E+08         0.31294E+06         0.00000E+00
    0.31294E+06        -0.97560E+08         0.00000E+00
    0.00000E+00         0.00000E+00        -0.49228E+08
 
   -0.48926E+08         0.32849E+06         0.00000E+00
    0.32849E+06        -0.97559E+08         0.00000E+00
    0.00000E+00         0.00000E+00        -0.49181E+08
 
   -0.48864E+08         0.34467E+06         0.00000E+00
    0.34467E+06        -0.97557E+08         0.00000E+00
    0.00000E+00         0.00000E+00        -0.49130E+08
 
   -0.48800E+08         0.36149E+06         0.00000E+00
    0.36149E+06        -0.97556E+08         0.00000E+00
    0.00000E+00         0.00000E+00        -0.49077E+08
 
   -0.48732E+08         0.37897E+06         0.00000E+00
    0.37897E+06        -0.97554E+08         0.00000E+00
    0.00000E+00         0.00000E+00        -0.49021E+08
 
   -0.48661E+08         0.39713E+06         0.00000E+00
    0.39713E+06        -0.97552E+08         0.00000E+00
    0.00000E+00         0.00000E+00        -0.48962E+08
 
   -0.48587E+08         0.41595E+06         0.00000E+00
    0.41595E+06        -0.97550E+08         0.00000E+00
    0.00000E+00         0.00000E+00        -0.48900E+08
 
   -0.48508E+08         0.43546E+06         0.00000E+00
    0.43546E+06        -0.97549E+08         0.00000E+00
    0.00000E+00         0.00000E+00        -0.48834E+08
 
   -0.48426E+08         0.45566E+06         0.00000E+00
    0.45566E+06        -0.97547E+08         0.00000E+00
    0.00000E+00         0.00000E+00        -0.48765E+08
 
   -0.48341E+08         0.47655E+06         0.00000E+00
    0.47655E+06        -0.97545E+08         0.00000E+00
    0.00000E+00         0.00000E+00        -0.48692E+08
 
   -0.48251E+08         0.49813E+06         0.00000E+00
    0.49813E+06        -0.97543E+08         0.00000E+00
    0.00000E+00         0.00000E+00        -0.48615E+08
 
   -0.48157E+08         0.52040E+06         0.00000E+00
    0.52040E+06        -0.97542E+08         0.00000E+00
    0.00000E+00         0.00000E+00        -0.48534E+08
 
   -0.48058E+08         0.54334E+06         0.00000E+00
    0.54334E+06        -0.97540E+08         0.00000E+00
    0.00000E+00         0.00000E+00        -0.48449E+08
 
   -0.47955E+08         0.56695E+06         0.00000E+00
    0.56695E+06        -0.97538E+08         0.00000E+00
    0.00000E+00         0.00000E+00        -0.48359E+08
 
   -0.47848E+08         0.59121E+06         0.00000E+00
    0.59121E+06        -0.97537E+08         0.00000E+00
    0.00000E+00         0.00000E+00        -0.48264E+08
 
   -0.47735E+08         0.61610E+06         0.00000E+00
    0.61610E+06        -0.97535E+08         0.00000E+00
    0.00000E+00         0.00000E+00        -0.48165E+08
 
   -0.47618E+08         0.64160E+06         0.00000E+00
    0.64160E+06        -0.97534E+08         0.00000E+00
    0.00000E+00         0.00000E+00        -0.48060E+08
 
   -0.47496E+08         0.66767E+06         0.00000E+00
    0.66767E+06        -0.97533E+08         0.00000E+00
    0.00000E+00         0.00000E+00        -0.47950E+08
 
   -0.47368E+08         0.69429E+06         0.00000E+00
    0.69429E+06        -0.97531E+08         0.00000E+00
    0.00000E+00         0.00000E+00        -0.47835E+08
 
   -0.47235E+08         0.72139E+06         0.00000E+00
    0.72139E+06        -0.97530E+08         0.00000E+00
    0.00000E+00         0.00000E+00        -0.47714E+08
 
   -0.47097E+08         0.74894E+06         0.00000E+00
    0.74894E+06        -0.97529E+08         0.00000E+00
    0.00000E+00         0.00000E+00        -0.47587E+08
 
   -0.46953E+08         0.77686E+06         0.00000E+00
    0.77686E+06        -0.97529E+08         0.00000E+00
    0.00000E+00         0.00000E+00        -0.47454E+08
 
   -0.46804E+08         0.80510E+06         0.00000E+00
    0.80510E+06        -0.97528E+08         0.00000E+00
    0.00000E+00         0.00000E+00        -0.47314E+08
 
   -0.46649E+08         0.83356E+06         0.00000E+00
    0.83356E+06        -0.97528E+08         0.00000E+00
    0.00000E+00         0.00000E+00        -0.47167E+08
 
   -0.46488E+08         0.86216E+06         0.00000E+00
    0.86216E+06        -0.97528E+08         0.00000E+00
    0.00000E+00         0.00000E+00        -0.47014E+08
 
   -0.46321E+08         0.89080E+06         0.00000E+00
    0.89080E+06        -0.97528E+08         0.00000E+00
    0.00000E+00         0.00000E+00        -0.46853E+08
 
   -0.46148E+08         0.91934E+06         0.00000E+00
    0.91934E+06        -0.97528E+08         0.00000E+00
    0.00000E+00         0.00000E+00        -0.46685E+08
 
   -0.45969E+08         0.94766E+06         0.00000E+00
    0.94766E+06        -0.97529E+08         0.00000E+00
    0.00000E+00         0.00000E+00        -0.46510E+08
 
   -0.45784E+08         0.97561E+06         0.00000E+00
    0.97561E+06        -0.97531E+08         0.00000E+00
    0.00000E+00         0.00000E+00        -0.46326E+08
 
   -0.45593E+08         0.10030E+07         0.00000E+00
    0.10030E+07        -0.97533E+08         0.00000E+00
    0.00000E+00         0.00000E+00        -0.46135E+08
 
   -0.45396E+08         0.10297E+07         0.00000E+00
    0.10297E+07        -0.97535E+08         0.00000E+00
    0.00000E+00         0.00000E+00        -0.45935E+08
 
   -0.45193E+08         0.10554E+07         0.00000E+00
    0.10554E+07        -0.97538E+08         0.00000E+00
    0.00000E+00         0.00000E+00        -0.45726E+08
 
   -0.44985E+08         0.10799E+07         0.00000E+00
    0.10799E+07        -0.97542E+08         0.00000E+00
    0.00000E+00         0.00000E+00        -0.45509E+08
 
   -0.44771E+08         0.11030E+07         0.00000E+00
    0.11030E+07        -0.97547E+08         0.00000E+00
    0.00000E+00         0.00000E+00        -0.45283E+08
 
   -0.44551E+08         0.11243E+07         0.00000E+00
    0.11243E+07        -0.97552E+08         0.00000E+00
    0.00000E+00         0.00000E+00        -0.45047E+08
 
   -0.44326E+08         0.11436E+07         0.00000E+00
    0.11436E+07        -0.97559E+08         0.00000E+00
    0.00000E+00         0.00000E+00        -0.44803E+08
 
   -0.44096E+08         0.11604E+07         0.00000E+00
    0.11604E+07        -0.97566E+08         0.00000E+00
    0.00000E+00         0.00000E+00        -0.44548E+08
 
   -0.43861E+08         0.11744E+07         0.00000E+00
    0.11744E+07        -0.97575E+08         0.00000E+00
    0.00000E+00         0.00000E+00        -0.44284E+08
 
   -0.43622E+08         0.11851E+07         0.00000E+00
    0.11851E+07        -0.97585E+08         0.00000E+00
    0.00000E+00         0.00000E+00        -0.44011E+08
 
   -0.43379E+08         0.11921E+07         0.00000E+00
    0.11921E+07        -0.97597E+08         0.00000E+00
    0.00000E+00         0.00000E+00        -0.43727E+08
 
   -0.43132E+08         0.11947E+07         0.00000E+00
    0.11947E+07        -0.97610E+08         0.00000E+00
    0.00000E+00         0.00000E+00        -0.43433E+08
 
   -0.42883E+08         0.11925E+07         0.00000E+00
    0.11925E+07        -0.97625E+08         0.00000E+00
    0.00000E+00         0.00000E+00        -0.43129E+08
 
   -0.42631E+08         0.11849E+07         0.00000E+00
    0.11849E+07        -0.97643E+08         0.00000E+00
    0.00000E+00         0.00000E+00        -0.42816E+08
 
   -0.42377E+08         0.11711E+07         0.00000E+00
    0.11711E+07        -0.97662E+08         0.00000E+00
    0.00000E+00         0.00000E+00        -0.42492E+08
 
   -0.42121E+08         0.11506E+07         0.00000E+00
    0.11506E+07        -0.97684E+08         0.00000E+00
    0.00000E+00         0.00000E+00        -0.42158E+08
 
   -0.41865E+08         0.11226E+07         0.00000E+00
    0.11226E+07        -0.97708E+08         0.00000E+00
    0.00000E+00         0.00000E+00        -0.41814E+08
 
   -0.41609E+08         0.10864E+07         0.00000E+00
    0.10864E+07        -0.97734E+08         0.00000E+00
    0.00000E+00         0.00000E+00        -0.41460E+08
 
   -0.41354E+08         0.10415E+07         0.00000E+00
    0.10415E+07        -0.97762E+08         0.00000E+00
    0.00000E+00         0.00000E+00        -0.41097E+08
 
   -0.41100E+08         0.98718E+06         0.00000E+00
    0.98718E+06        -0.97793E+08         0.00000E+00
    0.00000E+00         0.00000E+00        -0.40724E+08
 
   -0.40849E+08         0.92314E+06         0.00000E+00
    0.92314E+06        -0.97825E+08         0.00000E+00
    0.00000E+00         0.00000E+00        -0.40343E+08
 
   -0.40600E+08         0.84915E+06         0.00000E+00
    0.84915E+06        -0.97858E+08         0.00000E+00
    0.00000E+00         0.00000E+00        -0.39952E+08
 
   -0.40355E+08         0.76536E+06         0.00000E+00
    0.76536E+06        -0.97890E+08         0.00000E+00
    0.00000E+00         0.00000E+00        -0.39553E+08
 
   -0.40115E+08         0.67240E+06         0.00000E+00
    0.67240E+06        -0.97919E+08         0.00000E+00
    0.00000E+00         0.00000E+00        -0.39146E+08
 
   -0.39880E+08         0.57160E+06         0.00000E+00
    0.57160E+06        -0.97943E+08         0.00000E+00
    0.00000E+00         0.00000E+00        -0.38731E+08
 
   -0.39652E+08         0.46527E+06         0.00000E+00
    0.46527E+06        -0.97958E+08         0.00000E+00
    0.00000E+00         0.00000E+00        -0.38310E+08
 
   -0.39433E+08         0.35694E+06         0.00000E+00
    0.35694E+06        -0.97958E+08         0.00000E+00
    0.00000E+00         0.00000E+00        -0.37882E+08
 
   -0.39225E+08         0.25175E+06         0.00000E+00
    0.25175E+06        -0.97936E+08         0.00000E+00
    0.00000E+00         0.00000E+00        -0.37449E+08
 
   -0.39031E+08         0.15644E+06         0.00000E+00
    0.15644E+06        -0.97883E+08         0.00000E+00
    0.00000E+00         0.00000E+00        -0.37010E+08
 
   -0.38858E+08         0.78878E+05         0.00000E+00
    0.78878E+05        -0.97784E+08         0.00000E+00
    0.00000E+00         0.00000E+00        -0.36568E+08
 
   -0.38714E+08         0.26052E+05         0.00000E+00
    0.26052E+05        -0.97623E+08         0.00000E+00
    0.00000E+00         0.00000E+00        -0.36122E+08
 
   -0.38608E+08         0.61843E+03         0.00000E+00
    0.61843E+03        -0.97380E+08         0.00000E+00
    0.00000E+00         0.00000E+00        -0.35674E+08
 
   -0.38552E+08        -0.26599E+04         0.00000E+00
   -0.26599E+04        -0.97039E+08         0.00000E+00
    0.00000E+00         0.00000E+00        -0.35225E+08
 
   -0.49879E+08         0.16036E+04         0.00000E+00
    0.16036E+04        -0.97602E+08         0.00000E+00
    0.00000E+00         0.00000E+00        -0.49995E+08
 
   -0.49878E+08         0.50039E+04         0.00000E+00
    0.50039E+04        -0.97595E+08         0.00000E+00
    0.00000E+00         0.00000E+00        -0.49986E+08
 
   -0.49875E+08         0.89024E+04         0.00000E+00
    0.89024E+04        -0.97590E+08         0.00000E+00
    0.00000E+00         0.00000E+00        -0.49977E+08
 
   -0.49870E+08         0.13421E+05         0.00000E+00
    0.13421E+05        -0.97587E+08         0.00000E+00
    0.00000E+00         0.00000E+00        -0.49968E+08
 
   -0.49865E+08         0.18512E+05         0.00000E+00
    0.18512E+05        -0.97585E+08         0.00000E+00
    0.00000E+00         0.00000E+00        -0.49958E+08
 
   -0.49858E+08         0.24038E+05         0.00000E+00
    0.24038E+05        -0.97584E+08         0.00000E+00
    0.00000E+00         0.00000E+00        -0.49949E+08
 
   -0.49851E+08         0.29849E+05         0.00000E+00
    0.29849E+05        -0.97584E+08         0.00000E+00
    0.00000E+00         0.00000E+00        -0.49939E+08
 
   -0.49842E+08         0.35821E+05         0.00000E+00
    0.35821E+05        -0.97583E+08         0.00000E+00
    0.00000E+00         0.00000E+00        -0.49929E+08
 
   -0.49833E+08         0.41868E+05         0.00000E+00
    0.41868E+05        -0.97583E+08         0.00000E+00
    0.00000E+00         0.00000E+00        -0.49919E+08
 
   -0.49823E+08         0.47935E+05         0.00000E+00
    0.47935E+05        -0.97584E+08         0.00000E+00
    0.00000E+00         0.00000E+00        -0.49908E+08
 
   -0.49812E+08         0.53997E+05         0.00000E+00
    0.53997E+05        -0.97584E+08         0.00000E+00
    0.00000E+00         0.00000E+00        -0.49897E+08
 
   -0.49800E+08         0.60046E+05         0.00000E+00
    0.60046E+05        -0.97584E+08         0.00000E+00
    0.00000E+00         0.00000E+00        -0.49886E+08
 
   -0.49788E+08         0.66087E+05         0.00000E+00
    0.66087E+05        -0.97584E+08         0.00000E+00
    0.00000E+00         0.00000E+00        -0.49874E+08
 
   -0.49774E+08         0.72137E+05         0.00000E+00
    0.72137E+05        -0.97584E+08         0.00000E+00
    0.00000E+00         0.00000E+00        -0.49862E+08
 
   -0.49759E+08         0.78217E+05         0.00000E+00
    0.78217E+05        -0.97584E+08         0.00000E+00
    0.00000E+00         0.00000E+00        -0.49849E+08
 
   -0.49743E+08         0.84353E+05         0.00000E+00
    0.84353E+05        -0.97584E+08         0.00000E+00
    0.00000E+00         0.00000E+00        -0.49835E+08
 
   -0.49727E+08         0.90573E+05         0.00000E+00
    0.90573E+05        -0.97584E+08         0.00000E+00
    0.00000E+00         0.00000E+00        -0.49821E+08
 
   -0.49709E+08         0.96905E+05         0.00000E+00
    0.96905E+05        -0.97584E+08         0.00000E+00
    0.00000E+00         0.00000E+00        -0.49807E+08
 
   -0.49690E+08         0.10338E+06         0.00000E+00
    0.10338E+06        -0.97583E+08         0.00000E+00
    0.00000E+00         0.00000E+00        -0.49791E+08
 
   -0.49670E+08         0.11002E+06         0.00000E+00
    0.11002E+06        -0.97583E+08         0.00000E+00
    0.00000E+00         0.00000E+00        -0.49775E+08
 
   -0.49648E+08         0.11687E+06         0.00000E+00
    0.11687E+06        -0.97582E+08         0.00000E+00
    0.00000E+00         0.00000E+00        -0.49758E+08
 
   -0.49625E+08         0.12394E+06         0.00000E+00
    0.12394E+06        -0.97582E+08         0.00000E+00
    0.00000E+00         0.00000E+00        -0.49740E+08
 
   -0.49601E+08         0.13126E+06         0.00000E+00
    0.13126E+06        -0.97581E+08         0.00000E+00
    0.00000E+00         0.00000E+00        -0.49721E+08
 
   -0.49576E+08         0.13886E+06         0.00000E+00
    0.13886E+06        -0.97581E+08         0.00000E+00
    0.00000E+00         0.00000E+00        -0.49702E+08
 
   -0.49549E+08         0.14677E+06         0.00000E+00
    0.14677E+06        -0.97580E+08         0.00000E+00
    0.00000E+00         0.00000E+00        -0.49681E+08
 
   -0.49521E+08         0.15500E+06         0.00000E+00
    0.15500E+06        -0.97579E+08         0.00000E+00
    0.00000E+00         0.00000E+00        -0.49659E+08
 
   -0.49491E+08         0.16358E+06         0.00000E+00
    0.16358E+06        -0.97578E+08         0.00000E+00
    0.00000E+00         0.00000E+00        -0.49635E+08
 
   -0.49459E+08         0.17254E+06         0.00000E+00
    0.17254E+06        -0.97577E+08         0.00000E+00
    0.00000E+00         0.00000E+00        -0.49611E+08
 
   -0.49426E+08         0.18189E+06         0.00000E+00
    0.18189E+06        -0.97576E+08         0.00000E+00
    0.00000E+00         0.00000E+00        -0.49585E+08
 
   -0.49390E+08         0.19166E+06         0.00000E+00
    0.19166E+06        -0.97575E+08         0.00000E+00
    0.00000E+00         0.00000E+00        -0.49557E+08
 
   -0.49353E+08         0.20187E+06         0.00000E+00
    0.20187E+06        -0.97574E+08         0.00000E+00
    0.00000E+00         0.00000E+00        -0.49528E+08
 
   -0.49314E+08         0.21253E+06         0.00000E+00
    0.21253E+06        -0.97573E+08         0.00000E+00
    0.00000E+00         0.00000E+00        -0.49497E+08
 
   -0.49273E+08         0.22367E+06         0.00000E+00
    0.22367E+06        -0.97572E+08         0.00000E+00
    0.00000E+00         0.00000E+00        -0.49465E+08
 
   -0.49229E+08         0.23530E+06         0.00000E+00
    0.23530E+06        -0.97570E+08         0.00000E+00
    0.00000E+00         0.00000E+00        -0.49431E+08
 
   -0.49184E+08         0.24745E+06         0.00000E+00
    0.24745E+06        -0.97569E+08         0.00000E+00
    0.00000E+00         0.00000E+00        -0.49395E+08
 
   -0.49136E+08         0.26012E+06         0.00000E+00
    0.26012E+06        -0.97568E+08         0.00000E+00
    0.00000E+00         0.00000E+00        -0.49356E+08
 
   -0.49085E+08         0.27335E+06         0.00000E+00
    0.27335E+06        -0.97566E+08         0.00000E+00
    0.00000E+00         0.00000E+00        -0.49316E+08
 
   -0.49032E+08         0.28714E+06         0.00000E+00
    0.28714E+06        -0.97565E+08         0.00000E+00
    0.00000E+00         0.00000E+00        -0.49273E+08
 
   -0.48976E+08         0.30151E+06         0.00000E+00
    0.30151E+06        -0.97563E+08         0.00000E+00
    0.00000E+00         0.00000E+00        -0.49228E+08
 
   -0.48917E+08         0.31647E+06         0.00000E+00
    0.31647E+06        -0.97562E+08         0.00000E+00
    0.00000E+00         0.00000E+00        -0.49181E+08
 
   -0.48855E+08         0.33204E+06         0.00000E+00
    0.33204E+06        -0.97560E+08         0.00000E+00
    0.00000E+00         0.00000E+00        -0.49130E+08
 
   -0.48790E+08         0.34824E+06         0.00000E+00
    0.34824E+06        -0.97559E+08         0.00000E+00
    0.00000E+00         0.00000E+00        -0.49077E+08
 
   -0.48722E+08         0.36506E+06         0.00000E+00
    0.36506E+06        -0.97557E+08         0.00000E+00
    0.00000E+00         0.00000E+00        -0.49021E+08
 
   -0.48651E+08         0.38253E+06         0.00000E+00
    0.38253E+06        -0.97556E+08         0.00000E+00
    0.00000E+00         0.00000E+00        -0.48962E+08
 
   -0.48576E+08         0.40064E+06         0.00000E+00
    0.40064E+06        -0.97554E+08         0.00000E+00
    0.00000E+00         0.00000E+00        -0.48900E+08
 
   -0.48497E+08         0.41941E+06         0.00000E+00
    0.41941E+06        -0.97553E+08         0.00000E+00
    0.00000E+00         0.00000E+00        -0.48834E+08
 
   -0.48415E+08         0.43885E+06         0.00000E+00
    0.43885E+06        -0.97551E+08         0.00000E+00
    0.00000E+00         0.00000E+00        -0.48765E+08
 
   -0.48328E+08         0.45894E+06         0.00000E+00
    0.45894E+06        -0.97549E+08         0.00000E+00
    0.00000E+00         0.00000E+00        -0.48692E+08
 
   -0.48238E+08         0.47969E+06         0.00000E+00
    0.47969E+06        -0.97548E+08         0.00000E+00
    0.00000E+00         0.00000E+00        -0.48615E+08
 
   -0.48143E+08         0.50110E+06         0.00000E+00
    0.50110E+06        -0.97546E+08         0.00000E+00
    0.00000E+00         0.00000E+00        -0.48534E+08
 
   -0.48044E+08         0.52316E+06         0.00000E+00
    0.52316E+06        -0.97545E+08         0.00000E+00
    0.00000E+00         0.00000E+00        -0.48449E+08
 
   -0.47941E+08         0.54586E+06         0.00000E+00
    0.54586E+06        -0.97543E+08         0.00000E+00
    0.00000E+00         0.00000E+00        -0.48359E+08
 
   -0.47833E+08         0.56918E+06         0.00000E+00
    0.56918E+06        -0.97542E+08         0.00000E+00
    0.00000E+00         0.00000E+00        -0.48264E+08
 
   -0.47720E+08         0.59310E+06         0.00000E+00
    0.59310E+06        -0.97540E+08         0.00000E+00
    0.00000E+00         0.00000E+00        -0.48165E+08
 
   -0.47602E+08         0.61760E+06         0.00000E+00
    0.61760E+06        -0.97539E+08         0.00000E+00
    0.00000E+00         0.00000E+00        -0.48060E+08
 
   -0.47480E+08         0.64265E+06         0.00000E+00
    0.64265E+06        -0.97538E+08         0.00000E+00
    0.00000E+00         0.00000E+00        -0.47950E+08
 
   -0.47352E+08         0.66821E+06         0.00000E+00
    0.66821E+06        -0.97537E+08         0.00000E+00
    0.00000E+00         0.00000E+00        -0.47835E+08
 
   -0.47218E+08         0.69424E+06         0.00000E+00
    0.69424E+06        -0.97536E+08         0.00000E+00
    0.00000E+00         0.00000E+00        -0.47714E+08
 
   -0.47080E+08         0.72069E+06         0.00000E+00
    0.72069E+06        -0.97535E+08         0.00000E+00
    0.00000E+00         0.00000E+00        -0.47587E+08
 
   -0.46936E+08         0.74750E+06         0.00000E+00
    0.74750E+06        -0.97534E+08         0.00000E+00
    0.00000E+00         0.00000E+00        -0.47454E+08
 
   -0.46786E+08         0.77460E+06         0.00000E+00
    0.77460E+06        -0.97534E+08         0.00000E+00
    0.00000E+00         0.00000E+00        -0.47314E+08
 
   -0.46630E+08         0.80190E+06         0.00000E+00
    0.80190E+06        -0.97533E+08         0.00000E+00
    0.00000E+00         0.00000E+00        -0.47167E+08
 
   -0.46469E+08         0.82933E+06         0.00000E+00
    0.82933E+06        -0.97533E+08         0.00000E+00
    0.00000E+00         0.00000E+00        -0.47014E+08
 
   -0.46301E+08         0.85678E+06         0.00000E+00
    0.85678E+06        -0.97533E+08         0.00000E+00
    0.00000E+00         0.00000E+00        -0.46853E+08
 
   -0.46128E+08         0.88413E+06         0.00000E+00
    0.88413E+06        -0.97534E+08         0.00000E+00
    0.00000E+00         0.00000E+00        -0.46685E+08
 
   -0.45949E+08         0.91126E+06         0.00000E+00
    0.91126E+06        -0.97535E+08         0.00000E+00
    0.00000E+00         0.00000E+00        -0.46510E+08
 
   -0.45764E+08         0.93801E+06         0.00000E+00
    0.93801E+06        -0.97536E+08         0.00000E+00
    0.00000E+00         0.00000E+00        -0.46326E+08
 
   -0.45573E+08         0.96422E+06         0.00000E+00
    0.96422E+06        -0.97538E+08         0.00000E+00
    0.00000E+00         0.00000E+00        -0.46135E+08
 
   -0.45376E+08         0.98971E+06         0.00000E+00
    0.98971E+06        -0.97540E+08         0.00000E+00
    0.00000E+00         0.00000E+00        -0.45935E+08
 
   -0.45173E+08         0.10143E+07         0.00000E+00
    0.10143E+07        -0.97543E+08         0.00000E+00
    0.00000E+00         0.00000E+00        -0.45726E+08
 
   -0.44965E+08         0.10377E+07         0.00000E+00
    0.10377E+07        -0.97547E+08         0.00000E+00
    0.00000E+00         0.00000E+00        -0.45509E+08
 
   -0.44751E+08         0.10596E+07         0.00000E+00
    0.10596E+07        -0.97551E+08         0.00000E+00
    0.00000E+00         0.00000E+00        -0.45283E+08
 
   -0.44532E+08         0.10799E+07         0.00000E+00
    0.10799E+07        -0.97556E+08         0.00000E+00
    0.00000E+00         0.00000E+00        -0.45047E+08
 
   -0.44307E+08         0.10982E+07         0.00000E+00
    0.10982E+07        -0.97562E+08         0.00000E+00
    0.00000E+00         0.00000E+00        -0.44803E+08
 
   -0.44078E+08         0.11140E+07         0.00000E+00
    0.11140E+07        -0.97569E+08         0.00000E+00
    0.00000E+00         0.00000E+00        -0.44548E+08
 
   -0.43844E+08         0.11271E+07         0.00000E+00
    0.11271E+07        -0.97577E+08         0.00000E+00
    0.00000E+00         0.00000E+00        -0.44284E+08
 
   -0.43606E+08         0.11370E+07         0.00000E+00
    0.11370E+07        -0.97587E+08         0.00000E+00
    0.00000E+00         0.00000E+00        -0.44011E+08
 
   -0.43364E+08         0.11432E+07         0.00000E+00
    0.11432E+07        -0.97598E+08         0.00000E+00
    0.00000E+00         0.00000E+00        -0.43727E+08
 
   -0.43119E+08         0.11452E+07         0.00000E+00
    0.11452E+07        -0.97610E+08         0.00000E+00
    0.00000E+00         0.00000E+00        -0.43433E+08
 
   -0.42871E+08         0.11425E+07         0.00000E+00
    0.11425E+07        -0.97624E+08         0.00000E+00
    0.00000E+00         0.00000E+00        -0.43129E+08
 
   -0.42621E+08         0.11345E+07         0.00000E+00
    0.11345E+07        -0.97640E+08         0.00000E+00
    0.00000E+00         0.00000E+00        -0.42816E+08
 
   -0.42369E+08         0.11204E+07         0.00000E+00
    0.11204E+07        -0.97658E+08         0.00000E+00
    0.00000E+00         0.00000E+00        -0.42492E+08
 
   -0.42117E+08         0.10997E+07         0.00000E+00
    0.10997E+07        -0.97679E+08         0.00000E+00
    0.00000E+00         0.00000E+00        -0.42158E+08
 
   -0.41864E+08         0.10717E+07         0.00000E+00
    0.10717E+07        -0.97701E+08         0.00000E+00
    0.00000E+00         0.00000E+00        -0.41814E+08
 
   -0.41612E+08         0.10357E+07         0.00000E+00
    0.10357E+07        -0.97726E+08         0.00000E+00
    0.00000E+00         0.00000E+00        -0.41460E+08
 
   -0.41361E+08         0.99100E+06         0.00000E+00
    0.99100E+06        -0.97753E+08         0.00000E+00
    0.00000E+00         0.00000E+00        -0.41097E+08
 
   -0.41112E+08         0.93714E+06         0.00000E+00
    0.93714E+06        -0.97781E+08         0.00000E+00
    0.00000E+00         0.00000E+00        -0.40724E+08
 
   -0.40866E+08         0.87368E+06         0.00000E+00
    0.87368E+06        -0.97811E+08         0.00000E+00
    0.00000E+00         0.00000E+00        -0.40343E+08
 
   -0.40624E+08         0.80043E+06         0.00000E+00
    0.80043E+06        -0.97842E+08         0.00000E+00
    0.00000E+00         0.00000E+00        -0.39952E+08
 
   -0.40386E+08         0.71753E+06         0.00000E+00
    0.71753E+06        -0.97872E+08         0.00000E+00
    0.00000E+00         0.00000E+00        -0.39553E+08
 
   -0.40153E+08         0.62564E+06         0.00000E+00
    0.62564E+06        -0.97900E+08         0.00000E+00
    0.00000E+00         0.00000E+00        -0.39146E+08
 
   -0.39927E+08         0.52613E+06         0.00000E+00
    0.52613E+06        -0.97922E+08         0.00000E+00
    0.00000E+00         0.00000E+00        -0.38731E+08
 
   -0.39708E+08         0.42133E+06         0.00000E+00
    0.42133E+06        -0.97936E+08         0.00000E+00
    0.00000E+00         0.00000E+00        -0.38310E+08
 
   -0.39498E+08         0.31491E+06         0.00000E+00
    0.31491E+06        -0.97937E+08         0.00000E+00
    0.00000E+00         0.00000E+00        -0.37882E+08
 
   -0.39299E+08         0.21217E+06         0.00000E+00
    0.21217E+06        -0.97916E+08         0.00000E+00
    0.00000E+00         0.00000E+00        -0.37449E+08
 
   -0.39113E+08         0.12017E+06         0.00000E+00
    0.12017E+06        -0.97866E+08         0.00000E+00
    0.00000E+00         0.00000E+00        -0.37010E+08
 
   -0.38947E+08         0.47255E+05         0.00000E+00
    0.47255E+05        -0.97771E+08         0.00000E+00
    0.00000E+00         0.00000E+00        -0.36568E+08
 
   -0.38808E+08         0.95314E+03         0.00000E+00
    0.95314E+03        -0.97616E+08         0.00000E+00
    0.00000E+00         0.00000E+00        -0.36122E+08
 
   -0.38706E+08        -0.15738E+05         0.00000E+00
   -0.15738E+05        -0.97379E+08         0.00000E+00
    0.00000E+00         0.00000E+00        -0.35674E+08
 
   -0.38651E+08        -0.83675E+04         0.00000E+00
   -0.83675E+04        -0.97041E+08         0.00000E+00
    0.00000E+00         0.00000E+00        -0.35225E+08
 
   -0.49876E+08         0.14364E+04         0.00000E+00
    0.14364E+04        -0.97602E+08         0.00000E+00
    0.00000E+00         0.00000E+00        -0.49995E+08
 
   -0.49874E+08         0.45184E+04         0.00000E+00
    0.45184E+04        -0.97596E+08         0.00000E+00
    0.00000E+00         0.00000E+00        -0.49986E+08
 
   -0.49871E+08         0.81376E+04         0.00000E+00
    0.81376E+04        -0.97591E+08         0.00000E+00
    0.00000E+00         0.00000E+00        -0.49977E+08
 
   -0.49867E+08         0.12420E+05         0.00000E+00
    0.12420E+05        -0.97588E+08         0.00000E+00
    0.00000E+00         0.00000E+00        -0.49968E+08
 
   -0.49861E+08         0.17306E+05         0.00000E+00
    0.17306E+05        -0.97586E+08         0.00000E+00
    0.00000E+00         0.00000E+00        -0.49958E+08
 
   -0.49855E+08         0.22647E+05         0.00000E+00
    0.22647E+05        -0.97585E+08         0.00000E+00
    0.00000E+00         0.00000E+00        -0.49949E+08
 
   -0.49848E+08         0.28281E+05         0.00000E+00
    0.28281E+05        -0.97585E+08         0.00000E+00
    0.00000E+00         0.00000E+00        -0.49939E+08
 
   -0.49839E+08         0.34080E+05         0.00000E+00
    0.34080E+05        -0.97585E+08         0.00000E+00
    0.00000E+00         0.00000E+00        -0.49929E+08
 
   -0.49830E+08         0.39952E+05         0.00000E+00
    0.39952E+05        -0.97585E+08         0.00000E+00
    0.00000E+00         0.00000E+00        -0.49919E+08
 
   -0.49820E+08         0.45842E+05         0.00000E+00
    0.45842E+05        -0.97585E+08         0.00000E+00
    0.00000E+00         0.00000E+00        -0.49908E+08
 
   -0.49809E+08         0.51723E+05         0.00000E+00
    0.51723E+05        -0.97585E+08         0.00000E+00
    0.00000E+00         0.00000E+00        -0.49897E+08
 
   -0.49798E+08         0.57586E+05         0.00000E+00
    0.57586E+05        -0.97585E+08         0.00000E+00
    0.00000E+00         0.00000E+00        -0.49886E+08
 
   -0.49785E+08         0.63437E+05         0.00000E+00
    0.63437E+05        -0.97585E+08         0.00000E+00
    0.00000E+00         0.00000E+00        -0.49874E+08
 
   -0.49771E+08         0.69290E+05         0.00000E+00
    0.69290E+05        -0.97585E+08         0.00000E+00
    0.00000E+00         0.00000E+00        -0.49862E+08
 
   -0.49756E+08         0.75167E+05         0.00000E+00
    0.75167E+05        -0.97585E+08         0.00000E+00
    0.00000E+00         0.00000E+00        -0.49849E+08
 
   -0.49741E+08         0.81094E+05         0.00000E+00
    0.81094E+05        -0.97585E+08         0.00000E+00
    0.00000E+00         0.00000E+00        -0.49835E+08
 
   -0.49724E+08         0.87096E+05         0.00000E+00
    0.87096E+05        -0.97585E+08         0.00000E+00
    0.00000E+00         0.00000E+00        -0.49821E+08
 
   -0.49706E+08         0.93204E+05         0.00000E+00
    0.93204E+05        -0.97585E+08         0.00000E+00
    0.00000E+00         0.00000E+00        -0.49807E+08
 
   -0.49687E+08         0.99445E+05         0.00000E+00
    0.99445E+05        -0.97585E+08         0.00000E+00
    0.00000E+00         0.00000E+00        -0.49791E+08
 
   -0.49666E+08         0.10585E+06         0.00000E+00
    0.10585E+06        -0.97584E+08         0.00000E+00
    0.00000E+00         0.00000E+00        -0.49775E+08
 
   -0.49645E+08         0.11244E+06         0.00000E+00
    0.11244E+06        -0.97584E+08         0.00000E+00
    0.00000E+00         0.00000E+00        -0.49758E+08
 
   -0.49622E+08         0.11925E+06         0.00000E+00
    0.11925E+06        -0.97583E+08         0.00000E+00
    0.00000E+00         0.00000E+00        -0.49740E+08
 
   -0.49597E+08         0.12629E+06         0.00000E+00
    0.12629E+06        -0.97583E+08         0.00000E+00
    0.00000E+00         0.00000E+00        -0.49721E+08
 
   -0.49572E+08         0.13361E+06         0.00000E+00
    0.13361E+06        -0.97582E+08         0.00000E+00
    0.00000E+00         0.00000E+00        -0.49702E+08
 
   -0.49545E+08         0.14122E+06         0.00000E+00
    0.14122E+06        -0.97581E+08         0.00000E+00
    0.00000E+00         0.00000E+00        -0.49681E+08
 
   -0.49516E+08         0.14914E+06         0.00000E+00
    0.14914E+06        -0.97581E+08         0.00000E+00
    0.00000E+00         0.00000E+00        -0.49659E+08
 
   -0.49486E+08         0.15740E+06         0.00000E+00
    0.15740E+06        -0.97580E+08         0.00000E+00
    0.00000E+00         0.00000E+00        -0.49635E+08
 
   -0.49454E+08         0.16601E+06         0.00000E+00
    0.16601E+06        -0.97579E+08         0.00000E+00
    0.00000E+00         0.00000E+00        -0.49611E+08
 
   -0.49420E+08         0.17501E+06         0.00000E+00
    0.17501E+06        -0.97578E+08         0.00000E+00
    0.00000E+00         0.00000E+00        -0.49585E+08
 
   -0.49385E+08         0.18440E+06         0.00000E+00
    0.18440E+06        -0.97577E+08         0.00000E+00
    0.00000E+00         0.00000E+00        -0.49557E+08
 
   -0.49347E+08         0.19422E+06         0.00000E+00
    0.19422E+06        -0.97576E+08         0.00000E+00
    0.00000E+00         0.00000E+00        -0.49528E+08
 
   -0.49308E+08         0.20447E+06         0.00000E+00
    0.20447E+06        -0.97575E+08         0.00000E+00
    0.00000E+00         0.00000E+00        -0.49497E+08
 
   -0.49267E+08         0.21518E+06         0.00000E+00
    0.21518E+06        -0.97574E+08         0.00000E+00
    0.00000E+00         0.00000E+00        -0.49465E+08
 
   -0.49223E+08         0.22636E+06         0.00000E+00
    0.22636E+06        -0.97573E+08         0.00000E+00
    0.00000E+00         0.00000E+00        -0.49431E+08
 
   -0.49177E+08         0.23804E+06         0.00000E+00
    0.23804E+06        -0.97571E+08         0.00000E+00
    0.00000E+00         0.00000E+00        -0.49395E+08
 
   -0.49128E+08         0.25022E+06         0.00000E+00
    0.25022E+06        -0.97570E+08         0.00000E+00
    0.00000E+00         0.00000E+00        -0.49356E+08
 
   -0.49077E+08         0.26294E+06         0.00000E+00
    0.26294E+06        -0.97569E+08         0.00000E+00
    0.00000E+00         0.00000E+00        -0.49316E+08
 
   -0.49024E+08         0.27619E+06         0.00000E+00
    0.27619E+06        -0.97568E+08         0.00000E+00
    0.00000E+00         0.00000E+00        -0.49273E+08
 
   -0.48967E+08         0.29000E+06         0.00000E+00
    0.29000E+06        -0.97566E+08         0.00000E+00
    0.00000E+00         0.00000E+00        -0.49228E+08
 
   -0.48908E+08         0.30438E+06         0.00000E+00
    0.30438E+06        -0.97565E+08         0.00000E+00
    0.00000E+00         0.00000E+00        -0.49181E+08
 
   -0.48846E+08         0.31934E+06         0.00000E+00
    0.31934E+06        -0.97564E+08         0.00000E+00
    0.00000E+00         0.00000E+00        -0.49130E+08
 
   -0.48781E+08         0.33490E+06         0.00000E+00
    0.33490E+06        -0.97562E+08         0.00000E+00
    0.00000E+00         0.00000E+00        -0.49077E+08
 
   -0.48712E+08         0.35107E+06         0.00000E+00
    0.35107E+06        -0.97561E+08         0.00000E+00
    0.00000E+00         0.00000E+00        -0.49021E+08
 
   -0.48640E+08         0.36784E+06         0.00000E+00
    0.36784E+06        -0.97559E+08         0.00000E+00
    0.00000E+00         0.00000E+00        -0.48962E+08
 
   -0.48565E+08         0.38525E+06         0.00000E+00
    0.38525E+06        -0.97558E+08         0.00000E+00
    0.00000E+00         0.00000E+00        -0.48900E+08
 
   -0.48486E+08         0.40327E+06         0.00000E+00
    0.40327E+06        -0.97556E+08         0.00000E+00
    0.00000E+00         0.00000E+00        -0.48834E+08
 
   -0.48403E+08         0.42194E+06         0.00000E+00
    0.42194E+06        -0.97555E+08         0.00000E+00
    0.00000E+00         0.00000E+00        -0.48765E+08
 
   -0.48316E+08         0.44123E+06         0.00000E+00
    0.44123E+06        -0.97553E+08         0.00000E+00
    0.00000E+00         0.00000E+00        -0.48692E+08
 
   -0.48225E+08         0.46116E+06         0.00000E+00
    0.46116E+06        -0.97552E+08         0.00000E+00
    0.00000E+00         0.00000E+00        -0.48615E+08
 
   -0.48130E+08         0.48171E+06         0.00000E+00
    0.48171E+06        -0.97550E+08         0.00000E+00
    0.00000E+00         0.00000E+00        -0.48534E+08
 
   -0.48031E+08         0.50288E+06         0.00000E+00
    0.50288E+06        -0.97549E+08         0.00000E+00
    0.00000E+00         0.00000E+00        -0.48449E+08
 
   -0.47927E+08         0.52467E+06         0.00000E+00
    0.52467E+06        -0.97548E+08         0.00000E+00
    0.00000E+00         0.00000E+00        -0.48359E+08
 
   -0.47819E+08         0.54705E+06         0.00000E+00
    0.54705E+06        -0.97546E+08         0.00000E+00
    0.00000E+00         0.00000E+00        -0.48264E+08
 
   -0.47705E+08         0.57000E+06         0.00000E+00
    0.57000E+06        -0.97545E+08         0.00000E+00
    0.00000E+00         0.00000E+00        -0.48165E+08
 
   -0.47587E+08         0.59351E+06         0.00000E+00
    0.59351E+06        -0.97544E+08         0.00000E+00
    0.00000E+00         0.00000E+00        -0.48060E+08
 
   -0.47464E+08         0.61754E+06         0.00000E+00
    0.61754E+06        -0.97543E+08         0.00000E+00
    0.00000E+00         0.00000E+00        -0.47950E+08
 
   -0.47335E+08         0.64205E+06         0.00000E+00
    0.64205E+06        -0.97542E+08         0.00000E+00
    0.00000E+00         0.00000E+00        -0.47835E+08
 
   -0.47202E+08         0.66701E+06         0.00000E+00
    0.66701E+06        -0.97541E+08         0.00000E+00
    0.00000E+00         0.00000E+00        -0.47714E+08
 
   -0.47062E+08         0.69236E+06         0.00000E+00
    0.69236E+06        -0.97540E+08         0.00000E+00
    0.00000E+00         0.00000E+00        -0.47587E+08
 
   -0.46918E+08         0.71805E+06         0.00000E+00
    0.71805E+06        -0.97539E+08         0.00000E+00
    0.00000E+00         0.00000E+00        -0.47454E+08
 
   -0.46768E+08         0.74401E+06         0.00000E+00
    0.74401E+06        -0.97539E+08         0.00000E+00
    0.00000E+00         0.00000E+00        -0.47314E+08
 
   -0.46612E+08         0.77017E+06         0.00000E+00
    0.77017E+06        -0.97539E+08         0.00000E+00
    0.00000E+00         0.00000E+00        -0.47167E+08
 
   -0.46450E+08         0.79643E+06         0.00000E+00
    0.79643E+06        -0.97539E+08         0.00000E+00
    0.00000E+00         0.00000E+00        -0.47014E+08
 
   -0.46282E+08         0.82271E+06         0.00000E+00
    0.82271E+06        -0.97539E+08         0.00000E+00
    0.00000E+00         0.00000E+00        -0.46853E+08
 
   -0.46109E+08         0.84888E+06         0.00000E+00
    0.84888E+06        -0.97539E+08         0.00000E+00
    0.00000E+00         0.00000E+00        -0.46685E+08
 
   -0.45929E+08         0.87482E+06         0.00000E+00
    0.87482E+06        -0.97540E+08         0.00000E+00
    0.00000E+00         0.00000E+00        -0.46510E+08
 
   -0.45744E+08         0.90039E+06         0.00000E+00
    0.90039E+06        -0.97542E+08         0.00000E+00
    0.00000E+00         0.00000E+00        -0.46326E+08
 
   -0.45553E+08         0.92542E+06         0.00000E+00
    0.92542E+06        -0.97543E+08         0.00000E+00
    0.00000E+00         0.00000E+00        -0.46135E+08
 
   -0.45356E+08         0.94975E+06         0.00000E+00
    0.94975E+06        -0.97545E+08         0.00000E+00
    0.00000E+00         0.00000E+00        -0.45935E+08
 
   -0.45153E+08         0.97317E+06         0.00000E+00
    0.97317E+06        -0.97548E+08         0.00000E+00
    0.00000E+00         0.00000E+00        -0.45726E+08
 
   -0.44945E+08         0.99545E+06         0.00000E+00
    0.99545E+06        -0.97551E+08         0.00000E+00
    0.00000E+00         0.00000E+00        -0.45509E+08
 
   -0.44731E+08         0.10163E+07         0.00000E+00
    0.10163E+07        -0.97555E+08         0.00000E+00
    0.00000E+00         0.00000E+00        -0.45283E+08
 
   -0.44512E+08         0.10356E+07         0.00000E+00
    0.10356E+07        -0.97560E+08         0.00000E+00
    0.00000E+00         0.00000E+00        -0.45047E+08
 
   -0.44288E+08         0.10528E+07         0.00000E+00
    0.10528E+07        -0.97566E+08         0.00000E+00
    0.00000E+00         0.00000E+00        -0.44803E+08
 
   -0.44060E+08         0.10678E+07         0.00000E+00
    0.10678E+07        -0.97572E+08         0.00000E+00
    0.00000E+00         0.00000E+00        -0.44548E+08
 
   -0.43827E+08         0.10800E+07         0.00000E+00
    0.10800E+07        -0.97580E+08         0.00000E+00
    0.00000E+00         0.00000E+00        -0.44284E+08
 
   -0.43589E+08         0.10891E+07         0.00000E+00
    0.10891E+07        -0.97588E+08         0.00000E+00
    0.00000E+00         0.00000E+00        -0.44011E+08
 
   -0.43349E+08         0.10946E+07         0.00000E+00
    0.10946E+07        -0.97599E+08         0.00000E+00
    0.00000E+00         0.00000E+00        -0.43727E+08
 
   -0.43105E+08         0.10961E+07         0.00000E+00
    0.10961E+07        -0.97610E+08         0.00000E+00
    0.00000E+00         0.00000E+00        -0.43433E+08
 
   -0.42859E+08         0.10929E+07         0.00000E+00
    0.10929E+07        -0.97623E+08         0.00000E+00
    0.00000E+00         0.00000E+00        -0.43129E+08
 
   -0.42611E+08         0.10845E+07         0.00000E+00
    0.10845E+07        -0.97638E+08         0.00000E+00
    0.00000E+00         0.00000E+00        -0.42816E+08
 
   -0.42362E+08         0.10702E+07         0.00000E+00
    0.10702E+07        -0.97655E+08         0.00000E+00
    0.00000E+00         0.00000E+00        -0.42492E+08
 
   -0.42112E+08         0.10495E+07         0.00000E+00
    0.10495E+07        -0.97674E+08         0.00000E+00
    0.00000E+00         0.00000E+00        -0.42158E+08
 
   -0.41862E+08         0.10215E+07         0.00000E+00
    0.10215E+07        -0.97695E+08         0.00000E+00
    0.00000E+00         0.00000E+00        -0.41814E+08
 
   -0.41614E+08         0.98571E+06         0.00000E+00
    0.98571E+06        -0.97718E+08         0.00000E+00
    0.00000E+00         0.00000E+00        -0.41460E+08
 
   -0.41367E+08         0.94144E+06         0.00000E+00
    0.94144E+06        -0.97743E+08         0.00000E+00
    0.00000E+00         0.00000E+00        -0.41097E+08
 
   -0.41123E+08         0.88814E+06         0.00000E+00
    0.88814E+06        -0.97770E+08         0.00000E+00
    0.00000E+00         0.00000E+00        -0.40724E+08
 
   -0.40883E+08         0.82540E+06         0.00000E+00
    0.82540E+06        -0.97798E+08         0.00000E+00
    0.00000E+00         0.00000E+00        -0.40343E+08
 
   -0.40647E+08         0.75302E+06         0.00000E+00
    0.75302E+06        -0.97827E+08         0.00000E+00
    0.00000E+00         0.00000E+00        -0.39952E+08
 
   -0.40416E+08         0.67117E+06         0.00000E+00
    0.67117E+06        -0.97855E+08         0.00000E+00
    0.00000E+00         0.00000E+00        -0.39553E+08
 
   -0.40191E+08         0.58050E+06         0.00000E+00
    0.58050E+06        -0.97881E+08         0.00000E+00
    0.00000E+00         0.00000E+00        -0.39146E+08
 
   -0.39973E+08         0.48240E+06         0.00000E+00
    0.48240E+06        -0.97902E+08         0.00000E+00
    0.00000E+00         0.00000E+00        -0.38731E+08
 
   -0.39763E+08         0.37924E+06         0.00000E+00
    0.37924E+06        -0.97915E+08         0.00000E+00
    0.00000E+00         0.00000E+00        -0.38310E+08
 
   -0.39563E+08         0.27475E+06         0.00000E+00
    0.27475E+06        -0.97916E+08         0.00000E+00
    0.00000E+00         0.00000E+00        -0.37882E+08
 
   -0.39373E+08         0.17438E+06         0.00000E+00
    0.17438E+06        -0.97897E+08         0.00000E+00
    0.00000E+00         0.00000E+00        -0.37449E+08
 
   -0.39196E+08         0.85486E+05         0.00000E+00
    0.85486E+05        -0.97849E+08         0.00000E+00
    0.00000E+00         0.00000E+00        -0.37010E+08
 
   -0.39037E+08         0.16848E+05         0.00000E+00
    0.16848E+05        -0.97760E+08         0.00000E+00
    0.00000E+00         0.00000E+00        -0.36568E+08
 
   -0.38903E+08        -0.23372E+05         0.00000E+00
   -0.23372E+05        -0.97610E+08         0.00000E+00
    0.00000E+00         0.00000E+00        -0.36122E+08
 
   -0.38803E+08        -0.31721E+05         0.00000E+00
   -0.31721E+05        -0.97379E+08         0.00000E+00
    0.00000E+00         0.00000E+00        -0.35674E+08
 
   -0.38750E+08        -0.13974E+05         0.00000E+00
   -0.13974E+05        -0.97046E+08         0.00000E+00
    0.00000E+00         0.00000E+00        -0.35225E+08
 
   -0.49873E+08         0.12695E+04         0.00000E+00
    0.12695E+04        -0.97603E+08         0.00000E+00
    0.00000E+00         0.00000E+00        -0.49995E+08
 
   -0.49871E+08         0.40358E+04         0.00000E+00
    0.40358E+04        -0.97596E+08         0.00000E+00
    0.00000E+00         0.00000E+00        -0.49986E+08
 
   -0.49868E+08         0.73815E+04         0.00000E+00
    0.73815E+04        -0.97592E+08         0.00000E+00
    0.00000E+00         0.00000E+00        -0.49977E+08
 
   -0.49864E+08         0.11434E+05         0.00000E+00
    0.11434E+05        -0.97589E+08         0.00000E+00
    0.00000E+00         0.00000E+00        -0.49968E+08
 
   -0.49858E+08         0.16121E+05         0.00000E+00
    0.16121E+05        -0.97587E+08         0.00000E+00
    0.00000E+00         0.00000E+00        -0.49958E+08
 
   -0.49852E+08         0.21278E+05         0.00000E+00
    0.21278E+05        -0.97586E+08         0.00000E+00
    0.00000E+00         0.00000E+00        -0.49949E+08
 
   -0.49845E+08         0.26735E+05         0.00000E+00
    0.26735E+05        -0.97586E+08         0.00000E+00
    0.00000E+00         0.00000E+00        -0.49939E+08
 
   -0.49837E+08         0.32357E+05         0.00000E+00
    0.32357E+05        -0.97586E+08         0.00000E+00
    0.00000E+00         0.00000E+00        -0.49929E+08
 
   -0.49828E+08         0.38050E+05         0.00000E+00
    0.38050E+05        -0.97586E+08         0.00000E+00
    0.00000E+00         0.00000E+00        -0.49919E+08
 
   -0.49818E+08         0.43759E+05         0.00000E+00
    0.43759E+05        -0.97586E+08         0.00000E+00
    0.00000E+00         0.00000E+00        -0.49908E+08
 
   -0.49807E+08         0.49454E+05         0.00000E+00
    0.49454E+05        -0.97586E+08         0.00000E+00
    0.00000E+00         0.00000E+00        -0.49897E+08
 
   -0.49795E+08         0.55127E+05         0.00000E+00
    0.55127E+05        -0.97586E+08         0.00000E+00
    0.00000E+00         0.00000E+00        -0.49886E+08
 
   -0.49782E+08         0.60782E+05         0.00000E+00
    0.60782E+05        -0.97586E+08         0.00000E+00
    0.00000E+00         0.00000E+00        -0.49874E+08
 
   -0.49768E+08         0.66434E+05         0.00000E+00
    0.66434E+05        -0.97587E+08         0.00000E+00
    0.00000E+00         0.00000E+00        -0.49862E+08
 
   -0.49754E+08         0.72105E+05         0.00000E+00
    0.72105E+05        -0.97587E+08         0.00000E+00
    0.00000E+00         0.00000E+00        -0.49849E+08
 
   -0.49738E+08         0.77818E+05         0.00000E+00
    0.77818E+05        -0.97586E+08         0.00000E+00
    0.00000E+00         0.00000E+00        -0.49835E+08
 
   -0.49721E+08         0.83601E+05         0.00000E+00
    0.83601E+05        -0.97586E+08         0.00000E+00
    0.00000E+00         0.00000E+00        -0.49821E+08
 
   -0.49703E+08         0.89480E+05         0.00000E+00
    0.89480E+05        -0.97586E+08         0.00000E+00
    0.00000E+00         0.00000E+00        -0.49807E+08
 
   -0.49683E+08         0.95485E+05         0.00000E+00
    0.95485E+05        -0.97586E+08         0.00000E+00
    0.00000E+00         0.00000E+00        -0.49791E+08
 
   -0.49663E+08         0.10164E+06         0.00000E+00
    0.10164E+06        -0.97586E+08         0.00000E+00
    0.00000E+00         0.00000E+00        -0.49775E+08
 
   -0.49641E+08         0.10798E+06         0.00000E+00
    0.10798E+06        -0.97585E+08         0.00000E+00
    0.00000E+00         0.00000E+00        -0.49758E+08
 
   -0.49618E+08         0.11452E+06         0.00000E+00
    0.11452E+06        -0.97585E+08         0.00000E+00
    0.00000E+00         0.00000E+00        -0.49740E+08
 
   -0.49594E+08         0.12129E+06         0.00000E+00
    0.12129E+06        -0.97584E+08         0.00000E+00
    0.00000E+00         0.00000E+00        -0.49721E+08
 
   -0.49568E+08         0.12832E+06         0.00000E+00
    0.12832E+06        -0.97584E+08         0.00000E+00
    0.00000E+00         0.00000E+00        -0.49702E+08
 
   -0.49541E+08         0.13563E+06         0.00000E+00
    0.13563E+06        -0.97583E+08         0.00000E+00
    0.00000E+00         0.00000E+00        -0.49681E+08
 
   -0.49512E+08         0.14324E+06         0.00000E+00
    0.14324E+06        -0.97582E+08         0.00000E+00
    0.00000E+00         0.00000E+00        -0.49659E+08
 
   -0.49481E+08         0.15116E+06         0.00000E+00
    0.15116E+06        -0.97581E+08         0.00000E+00
    0.00000E+00         0.00000E+00        -0.49635E+08
 
   -0.49449E+08         0.15944E+06         0.00000E+00
    0.15944E+06        -0.97581E+08         0.00000E+00
    0.00000E+00         0.00000E+00        -0.49611E+08
 
   -0.49415E+08         0.16807E+06         0.00000E+00
    0.16807E+06        -0.97580E+08         0.00000E+00
    0.00000E+00         0.00000E+00        -0.49585E+08
 
   -0.49380E+08         0.17709E+06         0.00000E+00
    0.17709E+06        -0.97579E+08         0.00000E+00
    0.00000E+00         0.00000E+00        -0.49557E+08
 
   -0.49342E+08         0.18651E+06         0.00000E+00
    0.18651E+06        -0.97578E+08         0.00000E+00
    0.00000E+00         0.00000E+00        -0.49528E+08
 
   -0.49302E+08         0.19635E+06         0.00000E+00
    0.19635E+06        -0.97577E+08         0.00000E+00
    0.00000E+00         0.00000E+00        -0.49497E+08
 
   -0.49260E+08         0.20663E+06         0.00000E+00
    0.20663E+06        -0.97576E+08         0.00000E+00
    0.00000E+00         0.00000E+00        -0.49465E+08
 
   -0.49216E+08         0.21736E+06         0.00000E+00
    0.21736E+06        -0.97575E+08         0.00000E+00
    0.00000E+00         0.00000E+00        -0.49431E+08
 
   -0.49170E+08         0.22856E+06         0.00000E+00
    0.22856E+06        -0.97574E+08         0.00000E+00
    0.00000E+00         0.00000E+00        -0.49395E+08
 
   -0.49121E+08         0.24026E+06         0.00000E+00
    0.24026E+06        -0.97573E+08         0.00000E+00
    0.00000E+00         0.00000E+00        -0.49356E+08
 
   -0.49070E+08         0.25245E+06         0.00000E+00
    0.25245E+06        -0.97571E+08         0.00000E+00
    0.00000E+00         0.00000E+00        -0.49316E+08
 
   -0.49016E+08         0.26517E+06         0.00000E+00
    0.26517E+06        -0.97570E+08         0.00000E+00
    0.00000E+00         0.00000E+00        -0.49273E+08
 
   -0.48959E+08         0.27842E+06         0.00000E+00
    0.27842E+06        -0.97569E+08         0.00000E+00
    0.00000E+00         0.00000E+00        -0.49228E+08
 
   -0.48900E+08         0.29221E+06         0.00000E+00
    0.29221E+06        -0.97568E+08         0.00000E+00
    0.00000E+00         0.00000E+00        -0.49181E+08
 
   -0.48837E+08         0.30656E+06         0.00000E+00
    0.30656E+06        -0.97567E+08         0.00000E+00
    0.00000E+00         0.00000E+00        -0.49130E+08
 
   -0.48771E+08         0.32148E+06         0.00000E+00
    0.32148E+06        -0.97565E+08         0.00000E+00
    0.00000E+00         0.00000E+00        -0.49077E+08
 
   -0.48703E+08         0.33699E+06         0.00000E+00
    0.33699E+06        -0.97564E+08         0.00000E+00
    0.00000E+00         0.00000E+00        -0.49021E+08
 
   -0.48630E+08         0.35307E+06         0.00000E+00
    0.35307E+06        -0.97563E+08         0.00000E+00
    0.00000E+00         0.00000E+00        -0.48962E+08
 
   -0.48554E+08         0.36976E+06         0.00000E+00
    0.36976E+06        -0.97561E+08         0.00000E+00
    0.00000E+00         0.00000E+00        -0.48900E+08
 
   -0.48475E+08         0.38705E+06         0.00000E+00
    0.38705E+06        -0.97560E+08         0.00000E+00
    0.00000E+00         0.00000E+00        -0.48834E+08
 
   -0.48392E+08         0.40493E+06         0.00000E+00
    0.40493E+06        -0.97559E+08         0.00000E+00
    0.00000E+00         0.00000E+00        -0.48765E+08
 
   -0.48304E+08         0.42343E+06         0.00000E+00
    0.42343E+06        -0.97557E+08         0.00000E+00
    0.00000E+00         0.00000E+00        -0.48692E+08
 
   -0.48213E+08         0.44253E+06         0.00000E+00
    0.44253E+06        -0.97556E+08         0.00000E+00
    0.00000E+00         0.00000E+00        -0.48615E+08
 
   -0.48118E+08         0.46222E+06         0.00000E+00
    0.46222E+06        -0.97555E+08         0.00000E+00
    0.00000E+00         0.00000E+00        -0.48534E+08
 
   -0.48018E+08         0.48251E+06         0.00000E+00
    0.48251E+06        -0.97553E+08         0.00000E+00
    0.00000E+00         0.00000E+00        -0.48449E+08
 
   -0.47913E+08         0.50338E+06         0.00000E+00
    0.50338E+06        -0.97552E+08         0.00000E+00
    0.00000E+00         0.00000E+00        -0.48359E+08
 
   -0.47804E+08         0.52482E+06         0.00000E+00
    0.52482E+06        -0.97551E+08         0.00000E+00
    0.00000E+00         0.00000E+00        -0.48264E+08
 
   -0.47690E+08         0.54681E+06         0.00000E+00
    0.54681E+06        -0.97550E+08         0.00000E+00
    0.00000E+00         0.00000E+00        -0.48165E+08
 
   -0.47572E+08         0.56932E+06         0.00000E+00
    0.56932E+06        -0.97548E+08         0.00000E+00
    0.00000E+00         0.00000E+00        -0.48060E+08
 
   -0.47448E+08         0.59233E+06         0.00000E+00
    0.59233E+06        -0.97547E+08         0.00000E+00
    0.00000E+00         0.00000E+00        -0.47950E+08
 
   -0.47319E+08         0.61579E+06         0.00000E+00
    0.61579E+06        -0.97546E+08         0.00000E+00
    0.00000E+00         0.00000E+00        -0.47835E+08
 
   -0.47185E+08         0.63968E+06         0.00000E+00
    0.63968E+06        -0.97546E+08         0.00000E+00
    0.00000E+00         0.00000E+00        -0.47714E+08
 
   -0.47045E+08         0.66394E+06         0.00000E+00
    0.66394E+06        -0.97545E+08         0.00000E+00
    0.00000E+00         0.00000E+00        -0.47587E+08
 
   -0.46900E+08         0.68852E+06         0.00000E+00
    0.68852E+06        -0.97544E+08         0.00000E+00
    0.00000E+00         0.00000E+00        -0.47454E+08
 
   -0.46750E+08         0.71335E+06         0.00000E+00
    0.71335E+06        -0.97544E+08         0.00000E+00
    0.00000E+00         0.00000E+00        -0.47314E+08
 
   -0.46593E+08         0.73836E+06         0.00000E+00
    0.73836E+06        -0.97544E+08         0.00000E+00
    0.00000E+00         0.00000E+00        -0.47167E+08
 
   -0.46431E+08         0.76347E+06         0.00000E+00
    0.76347E+06        -0.97544E+08         0.00000E+00
    0.00000E+00         0.00000E+00        -0.47014E+08
 
   -0.46263E+08         0.78857E+06         0.00000E+00
    0.78857E+06        -0.97544E+08         0.00000E+00
    0.00000E+00         0.00000E+00        -0.46853E+08
 
   -0.46089E+08         0.81357E+06         0.00000E+00
    0.81357E+06        -0.97544E+08         0.00000E+00
    0.00000E+00         0.00000E+00        -0.46685E+08
 
   -0.45910E+08         0.83833E+06         0.00000E+00
    0.83833E+06        -0.97545E+08         0.00000E+00
    0.00000E+00         0.00000E+00        -0.46510E+08
 
   -0.45724E+08         0.86273E+06         0.00000E+00
    0.86273E+06        -0.97546E+08         0.00000E+00
    0.00000E+00         0.00000E+00        -0.46326E+08
 
   -0.45533E+08         0.88661E+06         0.00000E+00
    0.88661E+06        -0.97548E+08         0.00000E+00
    0.00000E+00         0.00000E+00        -0.46135E+08
 
   -0.45336E+08         0.90979E+06         0.00000E+00
    0.90979E+06        -0.97550E+08         0.00000E+00
    0.00000E+00         0.00000E+00        -0.45935E+08
 
   -0.45133E+08         0.93208E+06         0.00000E+00
    0.93208E+06        -0.97553E+08         0.00000E+00
    0.00000E+00         0.00000E+00        -0.45726E+08
 
   -0.44925E+08         0.95326E+06         0.00000E+00
    0.95326E+06        -0.97556E+08         0.00000E+00
    0.00000E+00         0.00000E+00        -0.45509E+08
 
   -0.44712E+08         0.97309E+06         0.00000E+00
    0.97309E+06        -0.97559E+08         0.00000E+00
    0.00000E+00         0.00000E+00        -0.45283E+08
 
   -0.44493E+08         0.99131E+06         0.00000E+00
    0.99131E+06        -0.97564E+08         0.00000E+00
    0.00000E+00         0.00000E+00        -0.45047E+08
 
   -0.44270E+08         0.10076E+07         0.00000E+00
    0.10076E+07        -0.97569E+08         0.00000E+00
    0.00000E+00         0.00000E+00        -0.44803E+08
 
   -0.44041E+08         0.10216E+07         0.00000E+00
    0.10216E+07        -0.97575E+08         0.00000E+00
    0.00000E+00         0.00000E+00        -0.44548E+08
 
   -0.43809E+08         0.10331E+07         0.00000E+00
    0.10331E+07        -0.97582E+08         0.00000E+00
    0.00000E+00         0.00000E+00        -0.44284E+08
 
   -0.43573E+08         0.10414E+07         0.00000E+00
    0.10414E+07        -0.97590E+08         0.00000E+00
    0.00000E+00         0.00000E+00        -0.44011E+08
 
   -0.43334E+08         0.10463E+07         0.00000E+00
    0.10463E+07        -0.97599E+08         0.00000E+00
    0.00000E+00         0.00000E+00        -0.43727E+08
 
   -0.43091E+08         0.10472E+07         0.00000E+00
    0.10472E+07        -0.97610E+08         0.00000E+00
    0.00000E+00         0.00000E+00        -0.43433E+08
 
   -0.42847E+08         0.10436E+07         0.00000E+00
    0.10436E+07        -0.97622E+08         0.00000E+00
    0.00000E+00         0.00000E+00        -0.43129E+08
 
   -0.42601E+08         0.10349E+07         0.00000E+00
    0.10349E+07        -0.97636E+08         0.00000E+00
    0.00000E+00         0.00000E+00        -0.42816E+08
 
   -0.42354E+08         0.10205E+07         0.00000E+00
    0.10205E+07        -0.97652E+08         0.00000E+00
    0.00000E+00         0.00000E+00        -0.42492E+08
 
   -0.42107E+08         0.99979E+06         0.00000E+00
    0.99979E+06        -0.97669E+08         0.00000E+00
    0.00000E+00         0.00000E+00        -0.42158E+08
 
   -0.41860E+08         0.97201E+06         0.00000E+00
    0.97201E+06        -0.97688E+08         0.00000E+00
    0.00000E+00         0.00000E+00        -0.41814E+08
 
   -0.41615E+08         0.93656E+06         0.00000E+00
    0.93656E+06        -0.97710E+08         0.00000E+00
    0.00000E+00         0.00000E+00        -0.41460E+08
 
   -0.41373E+08         0.89280E+06         0.00000E+00
    0.89280E+06        -0.97733E+08         0.00000E+00
    0.00000E+00         0.00000E+00        -0.41097E+08
 
   -0.41134E+08         0.84018E+06         0.00000E+00
    0.84018E+06        -0.97758E+08         0.00000E+00
    0.00000E+00         0.00000E+00        -0.40724E+08
 
   -0.40899E+08         0.77829E+06         0.00000E+00
    0.77829E+06        -0.97784E+08         0.00000E+00
    0.00000E+00         0.00000E+00        -0.40343E+08
 
   -0.40669E+08         0.70694E+06         0.00000E+00
    0.70694E+06        -0.97811E+08         0.00000E+00
    0.00000E+00         0.00000E+00        -0.39952E+08
 
   -0.40445E+08         0.62629E+06         0.00000E+00
    0.62629E+06        -0.97838E+08         0.00000E+00
    0.00000E+00         0.00000E+00        -0.39553E+08
 
   -0.40228E+08         0.53700E+06         0.00000E+00
    0.53700E+06        -0.97862E+08         0.00000E+00
    0.00000E+00         0.00000E+00        -0.39146E+08
 
   -0.40019E+08         0.44045E+06         0.00000E+00
    0.44045E+06        -0.97882E+08         0.00000E+00
    0.00000E+00         0.00000E+00        -0.38731E+08
 
   -0.39818E+08         0.33902E+06         0.00000E+00
    0.33902E+06        -0.97895E+08         0.00000E+00
    0.00000E+00         0.00000E+00        -0.38310E+08
 
   -0.39627E+08         0.23650E+06         0.00000E+00
    0.23650E+06        -0.97895E+08         0.00000E+00
    0.00000E+00         0.00000E+00        -0.37882E+08
 
   -0.39446E+08         0.13843E+06         0.00000E+00
    0.13843E+06        -0.97878E+08         0.00000E+00
    0.00000E+00         0.00000E+00        -0.37449E+08
 
   -0.39278E+08         0.52413E+05         0.00000E+00
    0.52413E+05        -0.97833E+08         0.00000E+00
    0.00000E+00         0.00000E+00        -0.37010E+08
 
   -0.39127E+08        -0.12319E+05         0.00000E+00
   -0.12319E+05        -0.97749E+08         0.00000E+00
    0.00000E+00         0.00000E+00        -0.36568E+08
 
   -0.38998E+08        -0.46923E+05         0.00000E+00
   -0.46923E+05        -0.97606E+08         0.00000E+00
    0.00000E+00         0.00000E+00        -0.36122E+08
 
   -0.38901E+08        -0.47343E+05         0.00000E+00
   -0.47343E+05        -0.97382E+08         0.00000E+00
    0.00000E+00         0.00000E+00        -0.35674E+08
 
   -0.38849E+08        -0.19488E+05         0.00000E+00
   -0.19488E+05        -0.97052E+08         0.00000E+00
    0.00000E+00         0.00000E+00        -0.35225E+08
 
   -0.49869E+08         0.11030E+04         0.00000E+00
    0.11030E+04        -0.97603E+08         0.00000E+00
    0.00000E+00         0.00000E+00        -0.49995E+08
 
   -0.49868E+08         0.35561E+04         0.00000E+00
    0.35561E+04        -0.97597E+08         0.00000E+00
    0.00000E+00         0.00000E+00        -0.49986E+08
 
   -0.49865E+08         0.66343E+04         0.00000E+00
    0.66343E+04        -0.97592E+08         0.00000E+00
    0.00000E+00         0.00000E+00        -0.49977E+08
 
   -0.49860E+08         0.10464E+05         0.00000E+00
    0.10464E+05        -0.97590E+08         0.00000E+00
    0.00000E+00         0.00000E+00        -0.49968E+08
 
   -0.49855E+08         0.14957E+05         0.00000E+00
    0.14957E+05        -0.97588E+08         0.00000E+00
    0.00000E+00         0.00000E+00        -0.49958E+08
 
   -0.49849E+08         0.19932E+05         0.00000E+00
    0.19932E+05        -0.97587E+08         0.00000E+00
    0.00000E+00         0.00000E+00        -0.49949E+08
 
   -0.49842E+08         0.25211E+05         0.00000E+00
    0.25211E+05        -0.97587E+08         0.00000E+00
    0.00000E+00         0.00000E+00        -0.49939E+08
 
   -0.49834E+08         0.30653E+05         0.00000E+00
    0.30653E+05        -0.97587E+08         0.00000E+00
    0.00000E+00         0.00000E+00        -0.49929E+08
 
   -0.49825E+08         0.36164E+05         0.00000E+00
    0.36164E+05        -0.97587E+08         0.00000E+00
    0.00000E+00         0.00000E+00        -0.49919E+08
 
   -0.49815E+08         0.41686E+05         0.00000E+00
    0.41686E+05        -0.97587E+08         0.00000E+00
    0.00000E+00         0.00000E+00        -0.49908E+08
 
   -0.49804E+08         0.47191E+05         0.00000E+00
    0.47191E+05        -0.97587E+08         0.00000E+00
    0.00000E+00         0.00000E+00        -0.49897E+08
 
   -0.49792E+08         0.52668E+05         0.00000E+00
    0.52668E+05        -0.97587E+08         0.00000E+00
    0.00000E+00         0.00000E+00        -0.49886E+08
 
   -0.49780E+08         0.58124E+05         0.00000E+00
    0.58124E+05        -0.97588E+08         0.00000E+00
    0.00000E+00         0.00000E+00        -0.49874E+08
 
   -0.49766E+08         0.63571E+05         0.00000E+00
    0.63571E+05        -0.97588E+08         0.00000E+00
    0.00000E+00         0.00000E+00        -0.49862E+08
 
   -0.49751E+08         0.69031E+05         0.00000E+00
    0.69031E+05        -0.97588E+08         0.00000E+00
    0.00000E+00         0.00000E+00        -0.49849E+08
 
   -0.49735E+08         0.74527E+05         0.00000E+00
    0.74527E+05        -0.97588E+08         0.00000E+00
    0.00000E+00         0.00000E+00        -0.49835E+08
 
   -0.49718E+08         0.80086E+05         0.00000E+00
    0.80086E+05        -0.97587E+08         0.00000E+00
    0.00000E+00         0.00000E+00        -0.49821E+08
 
   -0.49700E+08         0.85735E+05         0.00000E+00
    0.85735E+05        -0.97587E+08         0.00000E+00
    0.00000E+00         0.00000E+00        -0.49807E+08
 
   -0.49680E+08         0.91500E+05         0.00000E+00
    0.91500E+05        -0.97587E+08         0.00000E+00
    0.00000E+00         0.00000E+00        -0.49791E+08
 
   -0.49660E+08         0.97410E+05         0.00000E+00
    0.97410E+05        -0.97587E+08         0.00000E+00
    0.00000E+00         0.00000E+00        -0.49775E+08
 
   -0.49638E+08         0.10349E+06         0.00000E+00
    0.10349E+06        -0.97586E+08         0.00000E+00
    0.00000E+00         0.00000E+00        -0.49758E+08
 
   -0.49615E+08         0.10976E+06         0.00000E+00
    0.10976E+06        -0.97586E+08         0.00000E+00
    0.00000E+00         0.00000E+00        -0.49740E+08
 
   -0.49590E+08         0.11626E+06         0.00000E+00
    0.11626E+06        -0.97585E+08         0.00000E+00
    0.00000E+00         0.00000E+00        -0.49721E+08
 
   -0.49564E+08         0.12300E+06         0.00000E+00
    0.12300E+06        -0.97585E+08         0.00000E+00
    0.00000E+00         0.00000E+00        -0.49702E+08
 
   -0.49537E+08         0.13000E+06         0.00000E+00
    0.13000E+06        -0.97584E+08         0.00000E+00
    0.00000E+00         0.00000E+00        -0.49681E+08
 
   -0.49508E+08         0.13729E+06         0.00000E+00
    0.13729E+06        -0.97584E+08         0.00000E+00
    0.00000E+00         0.00000E+00        -0.49659E+08
 
   -0.49477E+08         0.14489E+06         0.00000E+00
    0.14489E+06        -0.97583E+08         0.00000E+00
    0.00000E+00         0.00000E+00        -0.49635E+08
 
   -0.49444E+08         0.15281E+06         0.00000E+00
    0.15281E+06        -0.97582E+08         0.00000E+00
    0.00000E+00         0.00000E+00        -0.49611E+08
 
   -0.49410E+08         0.16108E+06         0.00000E+00
    0.16108E+06        -0.97581E+08         0.00000E+00
    0.00000E+00         0.00000E+00        -0.49585E+08
 
   -0.49374E+08         0.16972E+06         0.00000E+00
    0.16972E+06        -0.97581E+08         0.00000E+00
    0.00000E+00         0.00000E+00        -0.49557E+08
 
   -0.49336E+08         0.17875E+06         0.00000E+00
    0.17875E+06        -0.97580E+08         0.00000E+00
    0.00000E+00         0.00000E+00        -0.49528E+08
 
   -0.49296E+08         0.18817E+06         0.00000E+00
    0.18817E+06        -0.97579E+08         0.00000E+00
    0.00000E+00         0.00000E+00        -0.49497E+08
 
   -0.49254E+08         0.19802E+06         0.00000E+00
    0.19802E+06        -0.97578E+08         0.00000E+00
    0.00000E+00         0.00000E+00        -0.49465E+08
 
   -0.49210E+08         0.20829E+06         0.00000E+00
    0.20829E+06        -0.97577E+08         0.00000E+00
    0.00000E+00         0.00000E+00        -0.49431E+08
 
   -0.49163E+08         0.21903E+06         0.00000E+00
    0.21903E+06        -0.97576E+08         0.00000E+00
    0.00000E+00         0.00000E+00        -0.49395E+08
 
   -0.49114E+08         0.23022E+06         0.00000E+00
    0.23022E+06        -0.97575E+08         0.00000E+00
    0.00000E+00         0.00000E+00        -0.49356E+08
 
   -0.49063E+08         0.24190E+06         0.00000E+00
    0.24190E+06        -0.97574E+08         0.00000E+00
    0.00000E+00         0.00000E+00        -0.49316E+08
 
   -0.49008E+08         0.25408E+06         0.00000E+00
    0.25408E+06        -0.97573E+08         0.00000E+00
    0.00000E+00         0.00000E+00        -0.49273E+08
 
   -0.48951E+08         0.26676E+06         0.00000E+00
    0.26676E+06        -0.97572E+08         0.00000E+00
    0.00000E+00         0.00000E+00        -0.49228E+08
 
   -0.48891E+08         0.27996E+06         0.00000E+00
    0.27996E+06        -0.97571E+08         0.00000E+00
    0.00000E+00         0.00000E+00        -0.49181E+08
 
   -0.48828E+08         0.29370E+06         0.00000E+00
    0.29370E+06        -0.97569E+08         0.00000E+00
    0.00000E+00         0.00000E+00        -0.49130E+08
 
   -0.48762E+08         0.30799E+06         0.00000E+00
    0.30799E+06        -0.97568E+08         0.00000E+00
    0.00000E+00         0.00000E+00        -0.49077E+08
 
   -0.48693E+08         0.32282E+06         0.00000E+00
    0.32282E+06        -0.97567E+08         0.00000E+00
    0.00000E+00         0.00000E+00        -0.49021E+08
 
   -0.48620E+08         0.33822E+06         0.00000E+00
    0.33822E+06        -0.97566E+08         0.00000E+00
    0.00000E+00         0.00000E+00        -0.48962E+08
 
   -0.48544E+08         0.35419E+06         0.00000E+00
    0.35419E+06        -0.97565E+08         0.00000E+00
    0.00000E+00         0.00000E+00        -0.48900E+08
 
   -0.48464E+08         0.37073E+06         0.00000E+00
    0.37073E+06        -0.97563E+08         0.00000E+00
    0.00000E+00         0.00000E+00        -0.48834E+08
 
   -0.48380E+08         0.38784E+06         0.00000E+00
    0.38784E+06        -0.97562E+08         0.00000E+00
    0.00000E+00         0.00000E+00        -0.48765E+08
 
   -0.48293E+08         0.40554E+06         0.00000E+00
    0.40554E+06        -0.97561E+08         0.00000E+00
    0.00000E+00         0.00000E+00        -0.48692E+08
 
   -0.48201E+08         0.42380E+06         0.00000E+00
    0.42380E+06        -0.97560E+08         0.00000E+00
    0.00000E+00         0.00000E+00        -0.48615E+08
 
   -0.48105E+08         0.44264E+06         0.00000E+00
    0.44264E+06        -0.97558E+08         0.00000E+00
    0.00000E+00         0.00000E+00        -0.48534E+08
 
   -0.48005E+08         0.46205E+06         0.00000E+00
    0.46205E+06        -0.97557E+08         0.00000E+00
    0.00000E+00         0.00000E+00        -0.48449E+08
 
   -0.47900E+08         0.48201E+06         0.00000E+00
    0.48201E+06        -0.97556E+08         0.00000E+00
    0.00000E+00         0.00000E+00        -0.48359E+08
 
   -0.47790E+08         0.50250E+06         0.00000E+00
    0.50250E+06        -0.97555E+08         0.00000E+00
    0.00000E+00         0.00000E+00        -0.48264E+08
 
   -0.47676E+08         0.52352E+06         0.00000E+00
    0.52352E+06        -0.97554E+08         0.00000E+00
    0.00000E+00         0.00000E+00        -0.48165E+08
 
   -0.47557E+08         0.54504E+06         0.00000E+00
    0.54504E+06        -0.97553E+08         0.00000E+00
    0.00000E+00         0.00000E+00        -0.48060E+08
 
   -0.47433E+08         0.56702E+06         0.00000E+00
    0.56702E+06        -0.97552E+08         0.00000E+00
    0.00000E+00         0.00000E+00        -0.47950E+08
 
   -0.47303E+08         0.58944E+06         0.00000E+00
    0.58944E+06        -0.97551E+08         0.00000E+00
    0.00000E+00         0.00000E+00        -0.47835E+08
 
   -0.47169E+08         0.61227E+06         0.00000E+00
    0.61227E+06        -0.97550E+08         0.00000E+00
    0.00000E+00         0.00000E+00        -0.47714E+08
 
   -0.47029E+08         0.63544E+06         0.00000E+00
    0.63544E+06        -0.97550E+08         0.00000E+00
    0.00000E+00         0.00000E+00        -0.47587E+08
 
   -0.46883E+08         0.65891E+06         0.00000E+00
    0.65891E+06        -0.97549E+08         0.00000E+00
    0.00000E+00         0.00000E+00        -0.47454E+08
 
   -0.46732E+08         0.68261E+06         0.00000E+00
    0.68261E+06        -0.97549E+08         0.00000E+00
    0.00000E+00         0.00000E+00        -0.47314E+08
 
   -0.46575E+08         0.70648E+06         0.00000E+00
    0.70648E+06        -0.97549E+08         0.00000E+00
    0.00000E+00         0.00000E+00        -0.47167E+08
 
   -0.46413E+08         0.73043E+06         0.00000E+00
    0.73043E+06        -0.97549E+08         0.00000E+00
    0.00000E+00         0.00000E+00        -0.47014E+08
 
   -0.46244E+08         0.75437E+06         0.00000E+00
    0.75437E+06        -0.97549E+08         0.00000E+00
    0.00000E+00         0.00000E+00        -0.46853E+08
 
   -0.46070E+08         0.77820E+06         0.00000E+00
    0.77820E+06        -0.97549E+08         0.00000E+00
    0.00000E+00         0.00000E+00        -0.46685E+08
 
   -0.45890E+08         0.80181E+06         0.00000E+00
    0.80181E+06        -0.97550E+08         0.00000E+00
    0.00000E+00         0.00000E+00        -0.46510E+08
 
   -0.45705E+08         0.82504E+06         0.00000E+00
    0.82504E+06        -0.97551E+08         0.00000E+00
    0.00000E+00         0.00000E+00        -0.46326E+08
 
   -0.45513E+08         0.84777E+06         0.00000E+00
    0.84777E+06        -0.97553E+08         0.00000E+00
    0.00000E+00         0.00000E+00        -0.46135E+08
 
   -0.45316E+08         0.86982E+06         0.00000E+00
    0.86982E+06        -0.97554E+08         0.00000E+00
    0.00000E+00         0.00000E+00        -0.45935E+08
 
   -0.45114E+08         0.89100E+06         0.00000E+00
    0.89100E+06        -0.97557E+08         0.00000E+00
    0.00000E+00         0.00000E+00        -0.45726E+08
 
   -0.44906E+08         0.91110E+06         0.00000E+00
    0.91110E+06        -0.97560E+08         0.00000E+00
    0.00000E+00         0.00000E+00        -0.45509E+08
 
   -0.44692E+08         0.92989E+06         0.00000E+00
    0.92989E+06        -0.97563E+08         0.00000E+00
    0.00000E+00         0.00000E+00        -0.45283E+08
 
   -0.44474E+08         0.94712E+06         0.00000E+00
    0.94712E+06        -0.97567E+08         0.00000E+00
    0.00000E+00         0.00000E+00        -0.45047E+08
 
   -0.44251E+08         0.96248E+06         0.00000E+00
    0.96248E+06        -0.97572E+08         0.00000E+00
    0.00000E+00         0.00000E+00        -0.44803E+08
 
   -0.44023E+08         0.97565E+06         0.00000E+00
    0.97565E+06        -0.97577E+08         0.00000E+00
    0.00000E+00         0.00000E+00        -0.44548E+08
 
   -0.43792E+08         0.98628E+06         0.00000E+00
    0.98628E+06        -0.97584E+08         0.00000E+00
    0.00000E+00         0.00000E+00        -0.44284E+08
 
   -0.43556E+08         0.99396E+06         0.00000E+00
    0.99396E+06        -0.97591E+08         0.00000E+00
    0.00000E+00         0.00000E+00        -0.44011E+08
 
   -0.43318E+08         0.99825E+06         0.00000E+00
    0.99825E+06        -0.97600E+08         0.00000E+00
    0.00000E+00         0.00000E+00        -0.43727E+08
 
   -0.43077E+08         0.99869E+06         0.00000E+00
    0.99869E+06        -0.97610E+08         0.00000E+00
    0.00000E+00         0.00000E+00        -0.43433E+08
 
   -0.42834E+08         0.99474E+06         0.00000E+00
    0.99474E+06        -0.97621E+08         0.00000E+00
    0.00000E+00         0.00000E+00        -0.43129E+08
 
   -0.42590E+08         0.98583E+06         0.00000E+00
    0.98583E+06        -0.97634E+08         0.00000E+00
    0.00000E+00         0.00000E+00        -0.42816E+08
 
   -0.42345E+08         0.97136E+06         0.00000E+00
    0.97136E+06        -0.97648E+08         0.00000E+00
    0.00000E+00         0.00000E+00        -0.42492E+08
 
   -0.42101E+08         0.95070E+06         0.00000E+00
    0.95070E+06        -0.97664E+08         0.00000E+00
    0.00000E+00         0.00000E+00        -0.42158E+08
 
   -0.41857E+08         0.92319E+06         0.00000E+00
    0.92319E+06        -0.97682E+08         0.00000E+00
    0.00000E+00         0.00000E+00        -0.41814E+08
 
   -0.41616E+08         0.88818E+06         0.00000E+00
    0.88818E+06        -0.97702E+08         0.00000E+00
    0.00000E+00         0.00000E+00        -0.41460E+08
 
   -0.41378E+08         0.84505E+06         0.00000E+00
    0.84505E+06        -0.97724E+08         0.00000E+00
    0.00000E+00         0.00000E+00        -0.41097E+08
 
   -0.41143E+08         0.79324E+06         0.00000E+00
    0.79324E+06        -0.97747E+08         0.00000E+00
    0.00000E+00         0.00000E+00        -0.40724E+08
 
   -0.40914E+08         0.73235E+06         0.00000E+00
    0.73235E+06        -0.97771E+08         0.00000E+00
    0.00000E+00         0.00000E+00        -0.40343E+08
 
   -0.40690E+08         0.66219E+06         0.00000E+00
    0.66219E+06        -0.97796E+08         0.00000E+00
    0.00000E+00         0.00000E+00        -0.39952E+08
 
   -0.40473E+08         0.58290E+06         0.00000E+00
    0.58290E+06        -0.97821E+08         0.00000E+00
    0.00000E+00         0.00000E+00        -0.39553E+08
 
   -0.40264E+08         0.49514E+06         0.00000E+00
    0.49514E+06        -0.97843E+08         0.00000E+00
    0.00000E+00         0.00000E+00        -0.39146E+08
 
   -0.40064E+08         0.40028E+06         0.00000E+00
    0.40028E+06        -0.97862E+08         0.00000E+00
    0.00000E+00         0.00000E+00        -0.38731E+08
 
   -0.39872E+08         0.30070E+06         0.00000E+00
    0.30070E+06        -0.97874E+08         0.00000E+00
    0.00000E+00         0.00000E+00        -0.38310E+08
 
   -0.39691E+08         0.20019E+06         0.00000E+00
    0.20019E+06        -0.97875E+08         0.00000E+00
    0.00000E+00         0.00000E+00        -0.37882E+08
 
   -0.39520E+08         0.10437E+06         0.00000E+00
    0.10437E+06        -0.97859E+08         0.00000E+00
    0.00000E+00         0.00000E+00        -0.37449E+08
 
   -0.39361E+08         0.21005E+05         0.00000E+00
    0.21005E+05        -0.97818E+08         0.00000E+00
    0.00000E+00         0.00000E+00        -0.37010E+08
 
   -0.39217E+08        -0.40209E+05         0.00000E+00
   -0.40209E+05        -0.97739E+08         0.00000E+00
    0.00000E+00         0.00000E+00        -0.36568E+08
 
   -0.39093E+08        -0.69684E+05         0.00000E+00
   -0.69684E+05        -0.97603E+08         0.00000E+00
    0.00000E+00         0.00000E+00        -0.36122E+08
 
   -0.39000E+08        -0.62612E+05         0.00000E+00
   -0.62612E+05        -0.97386E+08         0.00000E+00
    0.00000E+00         0.00000E+00        -0.35674E+08
 
   -0.38949E+08        -0.24916E+05         0.00000E+00
   -0.24916E+05        -0.97061E+08         0.00000E+00
    0.00000E+00         0.00000E+00        -0.35225E+08
 
   -0.49866E+08         0.93673E+03         0.00000E+00
    0.93673E+03        -0.97604E+08         0.00000E+00
    0.00000E+00         0.00000E+00        -0.49995E+08
 
   -0.49864E+08         0.30794E+04         0.00000E+00
    0.30794E+04        -0.97597E+08         0.00000E+00
    0.00000E+00         0.00000E+00        -0.49986E+08
 
   -0.49861E+08         0.58966E+04         0.00000E+00
    0.58966E+04        -0.97593E+08         0.00000E+00
    0.00000E+00         0.00000E+00        -0.49977E+08
 
   -0.49857E+08         0.95109E+04         0.00000E+00
    0.95109E+04        -0.97591E+08         0.00000E+00
    0.00000E+00         0.00000E+00        -0.49968E+08
 
   -0.49852E+08         0.13815E+05         0.00000E+00
    0.13815E+05        -0.97589E+08         0.00000E+00
    0.00000E+00         0.00000E+00        -0.49958E+08
 
   -0.49846E+08         0.18611E+05         0.00000E+00
    0.18611E+05        -0.97588E+08         0.00000E+00
    0.00000E+00         0.00000E+00        -0.49949E+08
 
   -0.49839E+08         0.23710E+05         0.00000E+00
    0.23710E+05        -0.97588E+08         0.00000E+00
    0.00000E+00         0.00000E+00        -0.49939E+08
 
   -0.49831E+08         0.28969E+05         0.00000E+00
    0.28969E+05        -0.97588E+08         0.00000E+00
    0.00000E+00         0.00000E+00        -0.49929E+08
 
   -0.49822E+08         0.34293E+05         0.00000E+00
    0.34293E+05        -0.97588E+08         0.00000E+00
    0.00000E+00         0.00000E+00        -0.49919E+08
 
   -0.49812E+08         0.39624E+05         0.00000E+00
    0.39624E+05        -0.97588E+08         0.00000E+00
    0.00000E+00         0.00000E+00        -0.49908E+08
 
   -0.49802E+08         0.44933E+05         0.00000E+00
    0.44933E+05        -0.97588E+08         0.00000E+00
    0.00000E+00         0.00000E+00        -0.49897E+08
 
   -0.49790E+08         0.50211E+05         0.00000E+00
    0.50211E+05        -0.97588E+08         0.00000E+00
    0.00000E+00         0.00000E+00        -0.49886E+08
 
   -0.49777E+08         0.55462E+05         0.00000E+00
    0.55462E+05        -0.97589E+08         0.00000E+00
    0.00000E+00         0.00000E+00        -0.49874E+08
 
   -0.49763E+08         0.60700E+05         0.00000E+00
    0.60700E+05        -0.97589E+08         0.00000E+00
    0.00000E+00         0.00000E+00        -0.49862E+08
 
   -0.49748E+08         0.65945E+05         0.00000E+00
    0.65945E+05        -0.97589E+08         0.00000E+00
    0.00000E+00         0.00000E+00        -0.49849E+08
 
   -0.49732E+08         0.71221E+05         0.00000E+00
    0.71221E+05        -0.97589E+08         0.00000E+00
    0.00000E+00         0.00000E+00        -0.49835E+08
 
   -0.49715E+08         0.76553E+05         0.00000E+00
    0.76553E+05        -0.97589E+08         0.00000E+00
    0.00000E+00         0.00000E+00        -0.49821E+08
 
   -0.49697E+08         0.81967E+05         0.00000E+00
    0.81967E+05        -0.97588E+08         0.00000E+00
    0.00000E+00         0.00000E+00        -0.49807E+08
 
   -0.49677E+08         0.87490E+05         0.00000E+00
    0.87490E+05        -0.97588E+08         0.00000E+00
    0.00000E+00         0.00000E+00        -0.49791E+08
 
   -0.49657E+08         0.93149E+05         0.00000E+00
    0.93149E+05        -0.97588E+08         0.00000E+00
    0.00000E+00         0.00000E+00        -0.49775E+08
 
   -0.49635E+08         0.98969E+05         0.00000E+00
    0.98969E+05        -0.97588E+08         0.00000E+00
    0.00000E+00         0.00000E+00        -0.49758E+08
 
   -0.49611E+08         0.10497E+06         0.00000E+00
    0.10497E+06        -0.97587E+08         0.00000E+00
    0.00000E+00         0.00000E+00        -0.49740E+08
 
   -0.49586E+08         0.11119E+06         0.00000E+00
    0.11119E+06        -0.97587E+08         0.00000E+00
    0.00000E+00         0.00000E+00        -0.49721E+08
 
   -0.49560E+08         0.11763E+06         0.00000E+00
    0.11763E+06        -0.97586E+08         0.00000E+00
    0.00000E+00         0.00000E+00        -0.49702E+08
 
   -0.49533E+08         0.12433E+06         0.00000E+00
    0.12433E+06        -0.97586E+08         0.00000E+00
    0.00000E+00         0.00000E+00        -0.49681E+08
 
   -0.49503E+08         0.13130E+06         0.00000E+00
    0.13130E+06        -0.97585E+08         0.00000E+00
    0.00000E+00         0.00000E+00        -0.49659E+08
 
   -0.49472E+08         0.13856E+06         0.00000E+00
    0.13856E+06        -0.97584E+08         0.00000E+00
    0.00000E+00         0.00000E+00        -0.49635E+08
 
   -0.49440E+08         0.14614E+06         0.00000E+00
    0.14614E+06        -0.97584E+08         0.00000E+00
    0.00000E+00         0.00000E+00        -0.49611E+08
 
   -0.49405E+08         0.15405E+06         0.00000E+00
    0.15405E+06        -0.97583E+08         0.00000E+00
    0.00000E+00         0.00000E+00        -0.49585E+08
 
   -0.49369E+08         0.16231E+06         0.00000E+00
    0.16231E+06        -0.97582E+08         0.00000E+00
    0.00000E+00         0.00000E+00        -0.49557E+08
 
   -0.49331E+08         0.17093E+06         0.00000E+00
    0.17093E+06        -0.97582E+08         0.00000E+00
    0.00000E+00         0.00000E+00        -0.49528E+08
 
   -0.49291E+08         0.17994E+06         0.00000E+00
    0.17994E+06        -0.97581E+08         0.00000E+00
    0.00000E+00         0.00000E+00        -0.49497E+08
 
   -0.49248E+08         0.18935E+06         0.00000E+00
    0.18935E+06        -0.97580E+08         0.00000E+00
    0.00000E+00         0.00000E+00        -0.49465E+08
 
   -0.49204E+08         0.19917E+06         0.00000E+00
    0.19917E+06        -0.97579E+08         0.00000E+00
    0.00000E+00         0.00000E+00        -0.49431E+08
 
   -0.49157E+08         0.20942E+06         0.00000E+00
    0.20942E+06        -0.97578E+08         0.00000E+00
    0.00000E+00         0.00000E+00        -0.49395E+08
 
   -0.49107E+08         0.22012E+06         0.00000E+00
    0.22012E+06        -0.97577E+08         0.00000E+00
    0.00000E+00         0.00000E+00        -0.49356E+08
 
   -0.49055E+08         0.23128E+06         0.00000E+00
    0.23128E+06        -0.97576E+08         0.00000E+00
    0.00000E+00         0.00000E+00        -0.49316E+08
 
   -0.49001E+08         0.24291E+06         0.00000E+00
    0.24291E+06        -0.97575E+08         0.00000E+00
    0.00000E+00         0.00000E+00        -0.49273E+08
 
   -0.48943E+08         0.25503E+06         0.00000E+00
    0.25503E+06        -0.97574E+08         0.00000E+00
    0.00000E+00         0.00000E+00        -0.49228E+08
 
   -0.48883E+08         0.26764E+06         0.00000E+00
    0.26764E+06        -0.97573E+08         0.00000E+00
    0.00000E+00         0.00000E+00        -0.49181E+08
 
   -0.48820E+08         0.28077E+06         0.00000E+00
    0.28077E+06        -0.97572E+08         0.00000E+00
    0.00000E+00         0.00000E+00        -0.49130E+08
 
   -0.48753E+08         0.29441E+06         0.00000E+00
    0.29441E+06        -0.97571E+08         0.00000E+00
    0.00000E+00         0.00000E+00        -0.49077E+08
 
   -0.48684E+08         0.30858E+06         0.00000E+00
    0.30858E+06        -0.97570E+08         0.00000E+00
    0.00000E+00         0.00000E+00        -0.49021E+08
 
   -0.48610E+08         0.32328E+06         0.00000E+00
    0.32328E+06        -0.97569E+08         0.00000E+00
    0.00000E+00         0.00000E+00        -0.48962E+08
 
   -0.48534E+08         0.33853E+06         0.00000E+00
    0.33853E+06        -0.97568E+08         0.00000E+00
    0.00000E+00         0.00000E+00        -0.48900E+08
 
   -0.48453E+08         0.35432E+06         0.00000E+00
    0.35432E+06        -0.97567E+08         0.00000E+00
    0.00000E+00         0.00000E+00        -0.48834E+08
 
   -0.48369E+08         0.37066E+06         0.00000E+00
    0.37066E+06        -0.97566E+08         0.00000E+00
    0.00000E+00         0.00000E+00        -0.48765E+08
 
   -0.48281E+08         0.38755E+06         0.00000E+00
    0.38755E+06        -0.97564E+08         0.00000E+00
    0.00000E+00         0.00000E+00        -0.48692E+08
 
   -0.48189E+08         0.40499E+06         0.00000E+00
    0.40499E+06        -0.97563E+08         0.00000E+00
    0.00000E+00         0.00000E+00        -0.48615E+08
 
   -0.48092E+08         0.42297E+06         0.00000E+00
    0.42297E+06        -0.97562E+08         0.00000E+00
    0.00000E+00         0.00000E+00        -0.48534E+08
 
   -0.47992E+08         0.44149E+06         0.00000E+00
    0.44149E+06        -0.97561E+08         0.00000E+00
    0.00000E+00         0.00000E+00        -0.48449E+08
 
   -0.47886E+08         0.46053E+06         0.00000E+00
    0.46053E+06        -0.97560E+08         0.00000E+00
    0.00000E+00         0.00000E+00        -0.48359E+08
 
   -0.47776E+08         0.48009E+06         0.00000E+00
    0.48009E+06        -0.97559E+08         0.00000E+00
    0.00000E+00         0.00000E+00        -0.48264E+08
 
   -0.47662E+08         0.50014E+06         0.00000E+00
    0.50014E+06        -0.97558E+08         0.00000E+00
    0.00000E+00         0.00000E+00        -0.48165E+08
 
   -0.47542E+08         0.52066E+06         0.00000E+00
    0.52066E+06        -0.97557E+08         0.00000E+00
    0.00000E+00         0.00000E+00        -0.48060E+08
 
   -0.47417E+08         0.54162E+06         0.00000E+00
    0.54162E+06        -0.97556E+08         0.00000E+00
    0.00000E+00         0.00000E+00        -0.47950E+08
 
   -0.47287E+08         0.56300E+06         0.00000E+00
    0.56300E+06        -0.97556E+08         0.00000E+00
    0.00000E+00         0.00000E+00        -0.47835E+08
 
   -0.47152E+08         0.58476E+06         0.00000E+00
    0.58476E+06        -0.97555E+08         0.00000E+00
    0.00000E+00         0.00000E+00        -0.47714E+08
 
   -0.47012E+08         0.60684E+06         0.00000E+00
    0.60684E+06        -0.97554E+08         0.00000E+00
    0.00000E+00         0.00000E+00        -0.47587E+08
 
   -0.46866E+08         0.62920E+06         0.00000E+00
    0.62920E+06        -0.97554E+08         0.00000E+00
    0.00000E+00         0.00000E+00        -0.47454E+08
 
   -0.46714E+08         0.65179E+06         0.00000E+00
    0.65179E+06        -0.97553E+08         0.00000E+00
    0.00000E+00         0.00000E+00        -0.47314E+08
 
   -0.46557E+08         0.67452E+06         0.00000E+00
    0.67452E+06        -0.97553E+08         0.00000E+00
    0.00000E+00         0.00000E+00        -0.47167E+08
 
   -0.46394E+08         0.69732E+06         0.00000E+00
    0.69732E+06        -0.97553E+08         0.00000E+00
    0.00000E+00         0.00000E+00        -0.47014E+08
 
   -0.46226E+08         0.72011E+06         0.00000E+00
    0.72011E+06        -0.97554E+08         0.00000E+00
    0.00000E+00         0.00000E+00        -0.46853E+08
 
   -0.46051E+08         0.74279E+06         0.00000E+00
    0.74279E+06        -0.97554E+08         0.00000E+00
    0.00000E+00         0.00000E+00        -0.46685E+08
 
   -0.45871E+08         0.76523E+06         0.00000E+00
    0.76523E+06        -0.97555E+08         0.00000E+00
    0.00000E+00         0.00000E+00        -0.46510E+08
 
   -0.45685E+08         0.78732E+06         0.00000E+00
    0.78732E+06        -0.97556E+08         0.00000E+00
    0.00000E+00         0.00000E+00        -0.46326E+08
 
   -0.45494E+08         0.80891E+06         0.00000E+00
    0.80891E+06        -0.97557E+08         0.00000E+00
    0.00000E+00         0.00000E+00        -0.46135E+08
 
   -0.45297E+08         0.82983E+06         0.00000E+00
    0.82983E+06        -0.97559E+08         0.00000E+00
    0.00000E+00         0.00000E+00        -0.45935E+08
 
   -0.45094E+08         0.84992E+06         0.00000E+00
    0.84992E+06        -0.97561E+08         0.00000E+00
    0.00000E+00         0.00000E+00        -0.45726E+08
 
   -0.44886E+08         0.86896E+06         0.00000E+00
    0.86896E+06        -0.97563E+08         0.00000E+00
    0.00000E+00         0.00000E+00        -0.45509E+08
 
   -0.44673E+08         0.88674E+06         0.00000E+00
    0.88674E+06        -0.97566E+08         0.00000E+00
    0.00000E+00         0.00000E+00        -0.45283E+08
 
   -0.44455E+08         0.90299E+06         0.00000E+00
    0.90299E+06        -0.97570E+08         0.00000E+00
    0.00000E+00         0.00000E+00        -0.45047E+08
 
   -0.44232E+08         0.91744E+06         0.00000E+00
    0.91744E+06        -0.97574E+08         0.00000E+00
    0.00000E+00         0.00000E+00        -0.44803E+08
 
   -0.44005E+08         0.92978E+06         0.00000E+00
    0.92978E+06        -0.97580E+08         0.00000E+00
    0.00000E+00         0.00000E+00        -0.44548E+08
 
   -0.43774E+08         0.93965E+06         0.00000E+00
    0.93965E+06        -0.97585E+08         0.00000E+00
    0.00000E+00         0.00000E+00        -0.44284E+08
 
   -0.43539E+08         0.94667E+06         0.00000E+00
    0.94667E+06        -0.97592E+08         0.00000E+00
    0.00000E+00         0.00000E+00        -0.44011E+08
 
   -0.43302E+08         0.95042E+06         0.00000E+00
    0.95042E+06        -0.97600E+08         0.00000E+00
    0.00000E+00         0.00000E+00        -0.43727E+08
 
   -0.43062E+08         0.95042E+06         0.00000E+00
    0.95042E+06        -0.97609E+08         0.00000E+00
    0.00000E+00         0.00000E+00        -0.43433E+08
 
   -0.42821E+08         0.94617E+06         0.00000E+00
    0.94617E+06        -0.97620E+08         0.00000E+00
    0.00000E+00         0.00000E+00        -0.43129E+08
 
   -0.42579E+08         0.93711E+06         0.00000E+00
    0.93711E+06        -0.97631E+08         0.00000E+00
    0.00000E+00         0.00000E+00        -0.42816E+08
 
   -0.42336E+08         0.92266E+06         0.00000E+00
    0.92266E+06        -0.97645E+08         0.00000E+00
    0.00000E+00         0.00000E+00        -0.42492E+08
 
   -0.42094E+08         0.90217E+06         0.00000E+00
    0.90217E+06        -0.97659E+08         0.00000E+00
    0.00000E+00         0.00000E+00        -0.42158E+08
 
   -0.41854E+08         0.87503E+06         0.00000E+00
    0.87503E+06        -0.97676E+08         0.00000E+00
    0.00000E+00         0.00000E+00        -0.41814E+08
 
   -0.41616E+08         0.84057E+06         0.00000E+00
    0.84057E+06        -0.97694E+08         0.00000E+00
    0.00000E+00         0.00000E+00        -0.41460E+08
 
   -0.41382E+08         0.79818E+06         0.00000E+00
    0.79818E+06        -0.97714E+08         0.00000E+00
    0.00000E+00         0.00000E+00        -0.41097E+08
 
   -0.41152E+08         0.74732E+06         0.00000E+00
    0.74732E+06        -0.97736E+08         0.00000E+00
    0.00000E+00         0.00000E+00        -0.40724E+08
 
   -0.40928E+08         0.68758E+06         0.00000E+00
    0.68758E+06        -0.97758E+08         0.00000E+00
    0.00000E+00         0.00000E+00        -0.40343E+08
 
   -0.40711E+08         0.61876E+06         0.00000E+00
    0.61876E+06        -0.97781E+08         0.00000E+00
    0.00000E+00         0.00000E+00        -0.39952E+08
 
   -0.40501E+08         0.54100E+06         0.00000E+00
    0.54100E+06        -0.97804E+08         0.00000E+00
    0.00000E+00         0.00000E+00        -0.39553E+08
 
   -0.40300E+08         0.45494E+06         0.00000E+00
    0.45494E+06        -0.97825E+08         0.00000E+00
    0.00000E+00         0.00000E+00        -0.39146E+08
 
   -0.40108E+08         0.36192E+06         0.00000E+00
    0.36192E+06        -0.97843E+08         0.00000E+00
    0.00000E+00         0.00000E+00        -0.38731E+08
 
   -0.39926E+08         0.26431E+06         0.00000E+00
    0.26431E+06        -0.97854E+08         0.00000E+00
    0.00000E+00         0.00000E+00        -0.38310E+08
 
   -0.39754E+08         0.16587E+06         0.00000E+00
    0.16587E+06        -0.97855E+08         0.00000E+00
    0.00000E+00         0.00000E+00        -0.37882E+08
 
   -0.39593E+08         0.72238E+05         0.00000E+00
    0.72238E+05        -0.97841E+08         0.00000E+00
    0.00000E+00         0.00000E+00        -0.37449E+08
 
   -0.39444E+08        -0.86739E+04         0.00000E+00
   -0.86739E+04        -0.97804E+08         0.00000E+00
    0.00000E+00         0.00000E+00        -0.37010E+08
 
   -0.39308E+08        -0.66765E+05         0.00000E+00
   -0.66765E+05        -0.97730E+08         0.00000E+00
    0.00000E+00         0.00000E+00        -0.36568E+08
 
   -0.39190E+08        -0.91627E+05         0.00000E+00
   -0.91627E+05        -0.97601E+08         0.00000E+00
    0.00000E+00         0.00000E+00        -0.36122E+08
 
   -0.39099E+08        -0.77528E+05         0.00000E+00
   -0.77528E+05        -0.97392E+08         0.00000E+00
    0.00000E+00         0.00000E+00        -0.35674E+08
 
   -0.39049E+08        -0.30263E+05         0.00000E+00
   -0.30263E+05        -0.97071E+08         0.00000E+00
    0.00000E+00         0.00000E+00        -0.35225E+08
 
   -0.49863E+08         0.77055E+03         0.00000E+00
    0.77055E+03        -0.97604E+08         0.00000E+00
    0.00000E+00         0.00000E+00        -0.49995E+08
 
   -0.49861E+08         0.26057E+04         0.00000E+00
    0.26057E+04        -0.97598E+08         0.00000E+00
    0.00000E+00         0.00000E+00        -0.49986E+08
 
   -0.49858E+08         0.51693E+04         0.00000E+00
    0.51693E+04        -0.97594E+08         0.00000E+00
    0.00000E+00         0.00000E+00        -0.49977E+08
 
   -0.49854E+08         0.85769E+04         0.00000E+00
    0.85769E+04        -0.97591E+08         0.00000E+00
    0.00000E+00         0.00000E+00        -0.49968E+08
 
   -0.49849E+08         0.12698E+05         0.00000E+00
    0.12698E+05        -0.97590E+08         0.00000E+00
    0.00000E+00         0.00000E+00        -0.49958E+08
 
   -0.49843E+08         0.17316E+05         0.00000E+00
    0.17316E+05        -0.97589E+08         0.00000E+00
    0.00000E+00         0.00000E+00        -0.49949E+08
 
   -0.49836E+08         0.22234E+05         0.00000E+00
    0.22234E+05        -0.97589E+08         0.00000E+00
    0.00000E+00         0.00000E+00        -0.49939E+08
 
   -0.49828E+08         0.27307E+05         0.00000E+00
    0.27307E+05        -0.97589E+08         0.00000E+00
    0.00000E+00         0.00000E+00        -0.49929E+08
 
   -0.49820E+08         0.32439E+05         0.00000E+00
    0.32439E+05        -0.97589E+08         0.00000E+00
    0.00000E+00         0.00000E+00        -0.49919E+08
 
   -0.49810E+08         0.37574E+05         0.00000E+00
    0.37574E+05        -0.97589E+08         0.00000E+00
    0.00000E+00         0.00000E+00        -0.49908E+08
 
   -0.49799E+08         0.42682E+05         0.00000E+00
    0.42682E+05        -0.97589E+08         0.00000E+00
    0.00000E+00         0.00000E+00        -0.49897E+08
 
   -0.49787E+08         0.47755E+05         0.00000E+00
    0.47755E+05        -0.97589E+08         0.00000E+00
    0.00000E+00         0.00000E+00        -0.49886E+08
 
   -0.49775E+08         0.52797E+05         0.00000E+00
    0.52797E+05        -0.97590E+08         0.00000E+00
    0.00000E+00         0.00000E+00        -0.49874E+08
 
   -0.49761E+08         0.57821E+05         0.00000E+00
    0.57821E+05        -0.97590E+08         0.00000E+00
    0.00000E+00         0.00000E+00        -0.49862E+08
 
   -0.49746E+08         0.62847E+05         0.00000E+00
    0.62847E+05        -0.97590E+08         0.00000E+00
    0.00000E+00         0.00000E+00        -0.49849E+08
 
   -0.49730E+08         0.67899E+05         0.00000E+00
    0.67899E+05        -0.97590E+08         0.00000E+00
    0.00000E+00         0.00000E+00        -0.49835E+08
 
   -0.49712E+08         0.73000E+05         0.00000E+00
    0.73000E+05        -0.97590E+08         0.00000E+00
    0.00000E+00         0.00000E+00        -0.49821E+08
 
   -0.49694E+08         0.78177E+05         0.00000E+00
    0.78177E+05        -0.97589E+08         0.00000E+00
    0.00000E+00         0.00000E+00        -0.49807E+08
 
   -0.49674E+08         0.83456E+05         0.00000E+00
    0.83456E+05        -0.97589E+08         0.00000E+00
    0.00000E+00         0.00000E+00        -0.49791E+08
 
   -0.49653E+08         0.88861E+05         0.00000E+00
    0.88861E+05        -0.97589E+08         0.00000E+00
    0.00000E+00         0.00000E+00        -0.49775E+08
 
   -0.49631E+08         0.94418E+05         0.00000E+00
    0.94418E+05        -0.97589E+08         0.00000E+00
    0.00000E+00         0.00000E+00        -0.49758E+08
 
   -0.49608E+08         0.10015E+06         0.00000E+00
    0.10015E+06        -0.97588E+08         0.00000E+00
    0.00000E+00         0.00000E+00        -0.49740E+08
 
   -0.49583E+08         0.10608E+06         0.00000E+00
    0.10608E+06        -0.97588E+08         0.00000E+00
    0.00000E+00         0.00000E+00        -0.49721E+08
 
   -0.49557E+08         0.11223E+06         0.00000E+00
    0.11223E+06        -0.97588E+08         0.00000E+00
    0.00000E+00         0.00000E+00        -0.49702E+08
 
   -0.49529E+08         0.11862E+06         0.00000E+00
    0.11862E+06        -0.97587E+08         0.00000E+00
    0.00000E+00         0.00000E+00        -0.49681E+08
 
   -0.49499E+08         0.12527E+06         0.00000E+00
    0.12527E+06        -0.97587E+08         0.00000E+00
    0.00000E+00         0.00000E+00        -0.49659E+08
 
   -0.49468E+08         0.13220E+06         0.00000E+00
    0.13220E+06        -0.97586E+08         0.00000E+00
    0.00000E+00         0.00000E+00        -0.49635E+08
 
   -0.49435E+08         0.13942E+06         0.00000E+00
    0.13942E+06        -0.97585E+08         0.00000E+00
    0.00000E+00         0.00000E+00        -0.49611E+08
 
   -0.49401E+08         0.14696E+06         0.00000E+00
    0.14696E+06        -0.97585E+08         0.00000E+00
    0.00000E+00         0.00000E+00        -0.49585E+08
 
   -0.49364E+08         0.15484E+06         0.00000E+00
    0.15484E+06        -0.97584E+08         0.00000E+00
    0.00000E+00         0.00000E+00        -0.49557E+08
 
   -0.49326E+08         0.16306E+06         0.00000E+00
    0.16306E+06        -0.97583E+08         0.00000E+00
    0.00000E+00         0.00000E+00        -0.49528E+08
 
   -0.49285E+08         0.17165E+06         0.00000E+00
    0.17165E+06        -0.97583E+08         0.00000E+00
    0.00000E+00         0.00000E+00        -0.49497E+08
 
   -0.49243E+08         0.18062E+06         0.00000E+00
    0.18062E+06        -0.97582E+08         0.00000E+00
    0.00000E+00         0.00000E+00        -0.49465E+08
 
   -0.49198E+08         0.18999E+06         0.00000E+00
    0.18999E+06        -0.97581E+08         0.00000E+00
    0.00000E+00         0.00000E+00        -0.49431E+08
 
   -0.49150E+08         0.19976E+06         0.00000E+00
    0.19976E+06        -0.97580E+08         0.00000E+00
    0.00000E+00         0.00000E+00        -0.49395E+08
 
   -0.49101E+08         0.20996E+06         0.00000E+00
    0.20996E+06        -0.97579E+08         0.00000E+00
    0.00000E+00         0.00000E+00        -0.49356E+08
 
   -0.49048E+08         0.22059E+06         0.00000E+00
    0.22059E+06        -0.97578E+08         0.00000E+00
    0.00000E+00         0.00000E+00        -0.49316E+08
 
   -0.48993E+08         0.23168E+06         0.00000E+00
    0.23168E+06        -0.97578E+08         0.00000E+00
    0.00000E+00         0.00000E+00        -0.49273E+08
 
   -0.48936E+08         0.24323E+06         0.00000E+00
    0.24323E+06        -0.97577E+08         0.00000E+00
    0.00000E+00         0.00000E+00        -0.49228E+08
 
   -0.48875E+08         0.25525E+06         0.00000E+00
    0.25525E+06        -0.97576E+08         0.00000E+00
    0.00000E+00         0.00000E+00        -0.49181E+08
 
   -0.48811E+08         0.26776E+06         0.00000E+00
    0.26776E+06        -0.97575E+08         0.00000E+00
    0.00000E+00         0.00000E+00        -0.49130E+08
 
   -0.48744E+08         0.28075E+06         0.00000E+00
    0.28075E+06        -0.97574E+08         0.00000E+00
    0.00000E+00         0.00000E+00        -0.49077E+08
 
   -0.48674E+08         0.29426E+06         0.00000E+00
    0.29426E+06        -0.97573E+08         0.00000E+00
    0.00000E+00         0.00000E+00        -0.49021E+08
 
   -0.48601E+08         0.30826E+06         0.00000E+00
    0.30826E+06        -0.97572E+08         0.00000E+00
    0.00000E+00         0.00000E+00        -0.48962E+08
 
   -0.48524E+08         0.32279E+06         0.00000E+00
    0.32279E+06        -0.97571E+08         0.00000E+00
    0.00000E+00         0.00000E+00        -0.48900E+08
 
   -0.48443E+08         0.33783E+06         0.00000E+00
    0.33783E+06        -0.97570E+08         0.00000E+00
    0.00000E+00         0.00000E+00        -0.48834E+08
 
   -0.48358E+08         0.35339E+06         0.00000E+00
    0.35339E+06        -0.97569E+08         0.00000E+00
    0.00000E+00         0.00000E+00        -0.48765E+08
 
   -0.48270E+08         0.36948E+06         0.00000E+00
    0.36948E+06        -0.97568E+08         0.00000E+00
    0.00000E+00         0.00000E+00        -0.48692E+08
 
   -0.48177E+08         0.38609E+06         0.00000E+00
    0.38609E+06        -0.97567E+08         0.00000E+00
    0.00000E+00         0.00000E+00        -0.48615E+08
 
   -0.48080E+08         0.40321E+06         0.00000E+00
    0.40321E+06        -0.97566E+08         0.00000E+00
    0.00000E+00         0.00000E+00        -0.48534E+08
 
   -0.47979E+08         0.42084E+06         0.00000E+00
    0.42084E+06        -0.97565E+08         0.00000E+00
    0.00000E+00         0.00000E+00        -0.48449E+08
 
   -0.47873E+08         0.43896E+06         0.00000E+00
    0.43896E+06        -0.97564E+08         0.00000E+00
    0.00000E+00         0.00000E+00        -0.48359E+08
 
   -0.47763E+08         0.45758E+06         0.00000E+00
    0.45758E+06        -0.97563E+08         0.00000E+00
    0.00000E+00         0.00000E+00        -0.48264E+08
 
   -0.47647E+08         0.47666E+06         0.00000E+00
    0.47666E+06        -0.97562E+08         0.00000E+00
    0.00000E+00         0.00000E+00        -0.48165E+08
 
   -0.47527E+08         0.49618E+06         0.00000E+00
    0.49618E+06        -0.97561E+08         0.00000E+00
    0.00000E+00         0.00000E+00        -0.48060E+08
 
   -0.47402E+08         0.51613E+06         0.00000E+00
    0.51613E+06        -0.97560E+08         0.00000E+00
    0.00000E+00         0.00000E+00        -0.47950E+08
 
   -0.47272E+08         0.53647E+06         0.00000E+00
    0.53647E+06        -0.97560E+08         0.00000E+00
    0.00000E+00         0.00000E+00        -0.47835E+08
 
   -0.47136E+08         0.55716E+06         0.00000E+00
    0.55716E+06        -0.97559E+08         0.00000E+00
    0.00000E+00         0.00000E+00        -0.47714E+08
 
   -0.46995E+08         0.57816E+06         0.00000E+00
    0.57816E+06        -0.97559E+08         0.00000E+00
    0.00000E+00         0.00000E+00        -0.47587E+08
 
   -0.46849E+08         0.59942E+06         0.00000E+00
    0.59942E+06        -0.97558E+08         0.00000E+00
    0.00000E+00         0.00000E+00        -0.47454E+08
 
   -0.46697E+08         0.62088E+06         0.00000E+00
    0.62088E+06        -0.97558E+08         0.00000E+00
    0.00000E+00         0.00000E+00        -0.47314E+08
 
   -0.46539E+08         0.64248E+06         0.00000E+00
    0.64248E+06        -0.97558E+08         0.00000E+00
    0.00000E+00         0.00000E+00        -0.47167E+08
 
   -0.46376E+08         0.66415E+06         0.00000E+00
    0.66415E+06        -0.97558E+08         0.00000E+00
    0.00000E+00         0.00000E+00        -0.47014E+08
 
   -0.46207E+08         0.68579E+06         0.00000E+00
    0.68579E+06        -0.97558E+08         0.00000E+00
    0.00000E+00         0.00000E+00        -0.46853E+08
 
   -0.46033E+08         0.70731E+06         0.00000E+00
    0.70731E+06        -0.97558E+08         0.00000E+00
    0.00000E+00         0.00000E+00        -0.46685E+08
 
   -0.45852E+08         0.72861E+06         0.00000E+00
    0.72861E+06        -0.97559E+08         0.00000E+00
    0.00000E+00         0.00000E+00        -0.46510E+08
 
   -0.45666E+08         0.74955E+06         0.00000E+00
    0.74955E+06        -0.97560E+08         0.00000E+00
    0.00000E+00         0.00000E+00        -0.46326E+08
 
   -0.45474E+08         0.77001E+06         0.00000E+00
    0.77001E+06        -0.97561E+08         0.00000E+00
    0.00000E+00         0.00000E+00        -0.46135E+08
 
   -0.45277E+08         0.78984E+06         0.00000E+00
    0.78984E+06        -0.97563E+08         0.00000E+00
    0.00000E+00         0.00000E+00        -0.45935E+08
 
   -0.45074E+08         0.80884E+06         0.00000E+00
    0.80884E+06        -0.97565E+08         0.00000E+00
    0.00000E+00         0.00000E+00        -0.45726E+08
 
   -0.44866E+08         0.82684E+06         0.00000E+00
    0.82684E+06        -0.97567E+08         0.00000E+00
    0.00000E+00         0.00000E+00        -0.45509E+08
 
   -0.44653E+08         0.84362E+06         0.00000E+00
    0.84362E+06        -0.97570E+08         0.00000E+00
    0.00000E+00         0.00000E+00        -0.45283E+08
 
   -0.44435E+08         0.85892E+06         0.00000E+00
    0.85892E+06        -0.97573E+08         0.00000E+00
    0.00000E+00         0.00000E+00        -0.45047E+08
 
   -0.44213E+08         0.87249E+06         0.00000E+00
    0.87249E+06        -0.97577E+08         0.00000E+00
    0.00000E+00         0.00000E+00        -0.44803E+08
 
   -0.43986E+08         0.88402E+06         0.00000E+00
    0.88402E+06        -0.97582E+08         0.00000E+00
    0.00000E+00         0.00000E+00        -0.44548E+08
 
   -0.43756E+08         0.89317E+06         0.00000E+00
    0.89317E+06        -0.97587E+08         0.00000E+00
    0.00000E+00         0.00000E+00        -0.44284E+08
 
   -0.43522E+08         0.89957E+06         0.00000E+00
    0.89957E+06        -0.97593E+08         0.00000E+00
    0.00000E+00         0.00000E+00        -0.44011E+08
 
   -0.43286E+08         0.90281E+06         0.00000E+00
    0.90281E+06        -0.97601E+08         0.00000E+00
    0.00000E+00         0.00000E+00        -0.43727E+08
 
   -0.43048E+08         0.90243E+06         0.00000E+00
    0.90243E+06        -0.97609E+08         0.00000E+00
    0.00000E+00         0.00000E+00        -0.43433E+08
 
   -0.42808E+08         0.89794E+06         0.00000E+00
    0.89794E+06        -0.97618E+08         0.00000E+00
    0.00000E+00         0.00000E+00        -0.43129E+08
 
   -0.42567E+08         0.88879E+06         0.00000E+00
    0.88879E+06        -0.97629E+08         0.00000E+00
    0.00000E+00         0.00000E+00        -0.42816E+08
 
   -0.42327E+08         0.87442E+06         0.00000E+00
    0.87442E+06        -0.97641E+08         0.00000E+00
    0.00000E+00         0.00000E+00        -0.42492E+08
 
   -0.42087E+08         0.85420E+06         0.00000E+00
    0.85420E+06        -0.97655E+08         0.00000E+00
    0.00000E+00         0.00000E+00        -0.42158E+08
 
   -0.41850E+08         0.82750E+06         0.00000E+00
    0.82750E+06        -0.97670E+08         0.00000E+00
    0.00000E+00         0.00000E+00        -0.41814E+08
 
   -0.41616E+08         0.79370E+06         0.00000E+00
    0.79370E+06        -0.97687E+08         0.00000E+00
    0.00000E+00         0.00000E+00        -0.41460E+08
 
   -0.41385E+08         0.75219E+06         0.00000E+00
    0.75219E+06        -0.97705E+08         0.00000E+00
    0.00000E+00         0.00000E+00        -0.41097E+08
 
   -0.41160E+08         0.70241E+06         0.00000E+00
    0.70241E+06        -0.97725E+08         0.00000E+00
    0.00000E+00         0.00000E+00        -0.40724E+08
 
   -0.40942E+08         0.64397E+06         0.00000E+00
    0.64397E+06        -0.97745E+08         0.00000E+00
    0.00000E+00         0.00000E+00        -0.40343E+08
 
   -0.40730E+08         0.57666E+06         0.00000E+00
    0.57666E+06        -0.97767E+08         0.00000E+00
    0.00000E+00         0.00000E+00        -0.39952E+08
 
   -0.40528E+08         0.50060E+06         0.00000E+00
    0.50060E+06        -0.97788E+08         0.00000E+00
    0.00000E+00         0.00000E+00        -0.39553E+08
 
   -0.40334E+08         0.41641E+06         0.00000E+00
    0.41641E+06        -0.97807E+08         0.00000E+00
    0.00000E+00         0.00000E+00        -0.39146E+08
 
   -0.40151E+08         0.32540E+06         0.00000E+00
    0.32540E+06        -0.97824E+08         0.00000E+00
    0.00000E+00         0.00000E+00        -0.38731E+08
 
   -0.39979E+08         0.22989E+06         0.00000E+00
    0.22989E+06        -0.97835E+08         0.00000E+00
    0.00000E+00         0.00000E+00        -0.38310E+08
 
   -0.39817E+08         0.13360E+06         0.00000E+00
    0.13360E+06        -0.97836E+08         0.00000E+00
    0.00000E+00         0.00000E+00        -0.37882E+08
 
   -0.39667E+08         0.42116E+05         0.00000E+00
    0.42116E+05        -0.97824E+08         0.00000E+00
    0.00000E+00         0.00000E+00        -0.37449E+08
 
   -0.39527E+08        -0.36546E+05         0.00000E+00
   -0.36546E+05        -0.97790E+08         0.00000E+00
    0.00000E+00         0.00000E+00        -0.37010E+08
 
   -0.39399E+08        -0.91915E+05         0.00000E+00
   -0.91915E+05        -0.97722E+08         0.00000E+00
    0.00000E+00         0.00000E+00        -0.36568E+08
 
   -0.39287E+08        -0.11271E+06         0.00000E+00
   -0.11271E+06        -0.97601E+08         0.00000E+00
    0.00000E+00         0.00000E+00        -0.36122E+08
 
   -0.39200E+08        -0.92083E+05         0.00000E+00
   -0.92083E+05        -0.97399E+08         0.00000E+00
    0.00000E+00         0.00000E+00        -0.35674E+08
 
   -0.39151E+08        -0.35534E+05         0.00000E+00
   -0.35534E+05        -0.97084E+08         0.00000E+00
    0.00000E+00         0.00000E+00        -0.35225E+08
 
   -0.49859E+08         0.60445E+03         0.00000E+00
    0.60445E+03        -0.97604E+08         0.00000E+00
    0.00000E+00         0.00000E+00        -0.49995E+08
 
   -0.49858E+08         0.21353E+04         0.00000E+00
    0.21353E+04        -0.97598E+08         0.00000E+00
    0.00000E+00         0.00000E+00        -0.49986E+08
 
   -0.49855E+08         0.44535E+04         0.00000E+00
    0.44535E+04        -0.97594E+08         0.00000E+00
    0.00000E+00         0.00000E+00        -0.49977E+08
 
   -0.49851E+08         0.76634E+04         0.00000E+00
    0.76634E+04        -0.97592E+08         0.00000E+00
    0.00000E+00         0.00000E+00        -0.49968E+08
 
   -0.49846E+08         0.11607E+05         0.00000E+00
    0.11607E+05        -0.97591E+08         0.00000E+00
    0.00000E+00         0.00000E+00        -0.49958E+08
 
   -0.49840E+08         0.16048E+05         0.00000E+00
    0.16048E+05        -0.97590E+08         0.00000E+00
    0.00000E+00         0.00000E+00        -0.49949E+08
 
   -0.49833E+08         0.20783E+05         0.00000E+00
    0.20783E+05        -0.97590E+08         0.00000E+00
    0.00000E+00         0.00000E+00        -0.49939E+08
 
   -0.49826E+08         0.25665E+05         0.00000E+00
    0.25665E+05        -0.97590E+08         0.00000E+00
    0.00000E+00         0.00000E+00        -0.49929E+08
 
   -0.49817E+08         0.30601E+05         0.00000E+00
    0.30601E+05        -0.97590E+08         0.00000E+00
    0.00000E+00         0.00000E+00        -0.49919E+08
 
   -0.49807E+08         0.35535E+05         0.00000E+00
    0.35535E+05        -0.97590E+08         0.00000E+00
    0.00000E+00         0.00000E+00        -0.49908E+08
 
   -0.49797E+08         0.40437E+05         0.00000E+00
    0.40437E+05        -0.97590E+08         0.00000E+00
    0.00000E+00         0.00000E+00        -0.49897E+08
 
   -0.49785E+08         0.45300E+05         0.00000E+00
    0.45300E+05        -0.97590E+08         0.00000E+00
    0.00000E+00         0.00000E+00        -0.49886E+08
 
   -0.49772E+08         0.50128E+05         0.00000E+00
    0.50128E+05        -0.97591E+08         0.00000E+00
    0.00000E+00         0.00000E+00        -0.49874E+08
 
   -0.49758E+08         0.54935E+05         0.00000E+00
    0.54935E+05        -0.97591E+08         0.00000E+00
    0.00000E+00         0.00000E+00        -0.49862E+08
 
   -0.49743E+08         0.59738E+05         0.00000E+00
    0.59738E+05        -0.97591E+08         0.00000E+00
    0.00000E+00         0.00000E+00        -0.49849E+08
 
   -0.49727E+08         0.64562E+05         0.00000E+00
    0.64562E+05        -0.97591E+08         0.00000E+00
    0.00000E+00         0.00000E+00        -0.49835E+08
 
   -0.49710E+08         0.69429E+05         0.00000E+00
    0.69429E+05        -0.97591E+08         0.00000E+00
    0.00000E+00         0.00000E+00        -0.49821E+08
 
   -0.49691E+08         0.74366E+05         0.00000E+00
    0.74366E+05        -0.97591E+08         0.00000E+00
    0.00000E+00         0.00000E+00        -0.49807E+08
 
   -0.49672E+08         0.79396E+05         0.00000E+00
    0.79396E+05        -0.97590E+08         0.00000E+00
    0.00000E+00         0.00000E+00        -0.49791E+08
 
   -0.49651E+08         0.84546E+05         0.00000E+00
    0.84546E+05        -0.97590E+08         0.00000E+00
    0.00000E+00         0.00000E+00        -0.49775E+08
 
   -0.49628E+08         0.89837E+05         0.00000E+00
    0.89837E+05        -0.97590E+08         0.00000E+00
    0.00000E+00         0.00000E+00        -0.49758E+08
 
   -0.49605E+08         0.95294E+05         0.00000E+00
    0.95294E+05        -0.97590E+08         0.00000E+00
    0.00000E+00         0.00000E+00        -0.49740E+08
 
   -0.49579E+08         0.10094E+06         0.00000E+00
    0.10094E+06        -0.97589E+08         0.00000E+00
    0.00000E+00         0.00000E+00        -0.49721E+08
 
   -0.49553E+08         0.10679E+06         0.00000E+00
    0.10679E+06        -0.97589E+08         0.00000E+00
    0.00000E+00         0.00000E+00        -0.49702E+08
 
   -0.49525E+08         0.11287E+06         0.00000E+00
    0.11287E+06        -0.97588E+08         0.00000E+00
    0.00000E+00         0.00000E+00        -0.49681E+08
 
   -0.49495E+08         0.11919E+06         0.00000E+00
    0.11919E+06        -0.97588E+08         0.00000E+00
    0.00000E+00         0.00000E+00        -0.49659E+08
 
   -0.49464E+08         0.12579E+06         0.00000E+00
    0.12579E+06        -0.97587E+08         0.00000E+00
    0.00000E+00         0.00000E+00        -0.49635E+08
 
   -0.49431E+08         0.13266E+06         0.00000E+00
    0.13266E+06        -0.97587E+08         0.00000E+00
    0.00000E+00         0.00000E+00        -0.49611E+08
 
   -0.49396E+08         0.13983E+06         0.00000E+00
    0.13983E+06        -0.97586E+08         0.00000E+00
    0.00000E+00         0.00000E+00        -0.49585E+08
 
   -0.49359E+08         0.14732E+06         0.00000E+00
    0.14732E+06        -0.97586E+08         0.00000E+00
    0.00000E+00         0.00000E+00        -0.49557E+08
 
   -0.49321E+08         0.15514E+06         0.00000E+00
    0.15514E+06        -0.97585E+08         0.00000E+00
    0.00000E+00         0.00000E+00        -0.49528E+08
 
   -0.49280E+08         0.16331E+06         0.00000E+00
    0.16331E+06        -0.97584E+08         0.00000E+00
    0.00000E+00         0.00000E+00        -0.49497E+08
 
   -0.49237E+08         0.17184E+06         0.00000E+00
    0.17184E+06        -0.97584E+08         0.00000E+00
    0.00000E+00         0.00000E+00        -0.49465E+08
 
   -0.49192E+08         0.18074E+06         0.00000E+00
    0.18074E+06        -0.97583E+08         0.00000E+00
    0.00000E+00         0.00000E+00        -0.49431E+08
 
   -0.49144E+08         0.19003E+06         0.00000E+00
    0.19003E+06        -0.97582E+08         0.00000E+00
    0.00000E+00         0.00000E+00        -0.49395E+08
 
   -0.49094E+08         0.19973E+06         0.00000E+00
    0.19973E+06        -0.97581E+08         0.00000E+00
    0.00000E+00         0.00000E+00        -0.49356E+08
 
   -0.49041E+08         0.20984E+06         0.00000E+00
    0.20984E+06        -0.97581E+08         0.00000E+00
    0.00000E+00         0.00000E+00        -0.49316E+08
 
   -0.48986E+08         0.22038E+06         0.00000E+00
    0.22038E+06        -0.97580E+08         0.00000E+00
    0.00000E+00         0.00000E+00        -0.49273E+08
 
   -0.48928E+08         0.23136E+06         0.00000E+00
    0.23136E+06        -0.97579E+08         0.00000E+00
    0.00000E+00         0.00000E+00        -0.49228E+08
 
   -0.48867E+08         0.24278E+06         0.00000E+00
    0.24278E+06        -0.97578E+08         0.00000E+00
    0.00000E+00         0.00000E+00        -0.49181E+08
 
   -0.48803E+08         0.25467E+06         0.00000E+00
    0.25467E+06        -0.97577E+08         0.00000E+00
    0.00000E+00         0.00000E+00        -0.49130E+08
 
   -0.48736E+08         0.26702E+06         0.00000E+00
    0.26702E+06        -0.97576E+08         0.00000E+00
    0.00000E+00         0.00000E+00        -0.49077E+08
 
   -0.48665E+08         0.27985E+06         0.00000E+00
    0.27985E+06        -0.97575E+08         0.00000E+00
    0.00000E+00         0.00000E+00        -0.49021E+08
 
   -0.48591E+08         0.29316E+06         0.00000E+00
    0.29316E+06        -0.97575E+08         0.00000E+00
    0.00000E+00         0.00000E+00        -0.48962E+08
 
   -0.48514E+08         0.30696E+06         0.00000E+00
    0.30696E+06        -0.97574E+08         0.00000E+00
    0.00000E+00         0.00000E+00        -0.48900E+08
 
   -0.48432E+08         0.32125E+06         0.00000E+00
    0.32125E+06        -0.97573E+08         0.00000E+00
    0.00000E+00         0.00000E+00        -0.48834E+08
 
   -0.48347E+08         0.33604E+06         0.00000E+00
    0.33604E+06        -0.97572E+08         0.00000E+00
    0.00000E+00         0.00000E+00        -0.48765E+08
 
   -0.48258E+08         0.35132E+06         0.00000E+00
    0.35132E+06        -0.97571E+08         0.00000E+00
    0.00000E+00         0.00000E+00        -0.48692E+08
 
   -0.48165E+08         0.36709E+06         0.00000E+00
    0.36709E+06        -0.97570E+08         0.00000E+00
    0.00000E+00         0.00000E+00        -0.48615E+08
 
   -0.48068E+08         0.38335E+06         0.00000E+00
    0.38335E+06        -0.97569E+08         0.00000E+00
    0.00000E+00         0.00000E+00        -0.48534E+08
 
   -0.47966E+08         0.40009E+06         0.00000E+00
    0.40009E+06        -0.97568E+08         0.00000E+00
    0.00000E+00         0.00000E+00        -0.48449E+08
 
   -0.47860E+08         0.41730E+06         0.00000E+00
    0.41730E+06        -0.97567E+08         0.00000E+00
    0.00000E+00         0.00000E+00        -0.48359E+08
 
   -0.47749E+08         0.43497E+06         0.00000E+00
    0.43497E+06        -0.97567E+08         0.00000E+00
    0.00000E+00         0.00000E+00        -0.48264E+08
 
   -0.47633E+08         0.45308E+06         0.00000E+00
    0.45308E+06        -0.97566E+08         0.00000E+00
    0.00000E+00         0.00000E+00        -0.48165E+08
 
   -0.47513E+08         0.47162E+06         0.00000E+00
    0.47162E+06        -0.97565E+08         0.00000E+00
    0.00000E+00         0.00000E+00        -0.48060E+08
 
   -0.47387E+08         0.49055E+06         0.00000E+00
    0.49055E+06        -0.97564E+08         0.00000E+00
    0.00000E+00         0.00000E+00        -0.47950E+08
 
   -0.47256E+08         0.50984E+06         0.00000E+00
    0.50984E+06        -0.97564E+08         0.00000E+00
    0.00000E+00         0.00000E+00        -0.47835E+08
 
   -0.47120E+08         0.52947E+06         0.00000E+00
    0.52947E+06        -0.97563E+08         0.00000E+00
    0.00000E+00         0.00000E+00        -0.47714E+08
 
   -0.46979E+08         0.54939E+06         0.00000E+00
    0.54939E+06        -0.97563E+08         0.00000E+00
    0.00000E+00         0.00000E+00        -0.47587E+08
 
   -0.46832E+08         0.56955E+06         0.00000E+00
    0.56955E+06        -0.97562E+08         0.00000E+00
    0.00000E+00         0.00000E+00        -0.47454E+08
 
   -0.46680E+08         0.58989E+06         0.00000E+00
    0.58989E+06        -0.97562E+08         0.00000E+00
    0.00000E+00         0.00000E+00        -0.47314E+08
 
   -0.46522E+08         0.61037E+06         0.00000E+00
    0.61037E+06        -0.97562E+08         0.00000E+00
    0.00000E+00         0.00000E+00        -0.47167E+08
 
   -0.46358E+08         0.63089E+06         0.00000E+00
    0.63089E+06        -0.97562E+08         0.00000E+00
    0.00000E+00         0.00000E+00        -0.47014E+08
 
   -0.46189E+08         0.65139E+06         0.00000E+00
    0.65139E+06        -0.97562E+08         0.00000E+00
    0.00000E+00         0.00000E+00        -0.46853E+08
 
   -0.46014E+08         0.67177E+06         0.00000E+00
    0.67177E+06        -0.97563E+08         0.00000E+00
    0.00000E+00         0.00000E+00        -0.46685E+08
 
   -0.45833E+08         0.69193E+06         0.00000E+00
    0.69193E+06        -0.97563E+08         0.00000E+00
    0.00000E+00         0.00000E+00        -0.46510E+08
 
   -0.45647E+08         0.71175E+06         0.00000E+00
    0.71175E+06        -0.97564E+08         0.00000E+00
    0.00000E+00         0.00000E+00        -0.46326E+08
 
   -0.45455E+08         0.73109E+06         0.00000E+00
    0.73109E+06        -0.97565E+08         0.00000E+00
    0.00000E+00         0.00000E+00        -0.46135E+08
 
   -0.45257E+08         0.74982E+06         0.00000E+00
    0.74982E+06        -0.97566E+08         0.00000E+00
    0.00000E+00         0.00000E+00        -0.45935E+08
 
   -0.45055E+08         0.76776E+06         0.00000E+00
    0.76776E+06        -0.97568E+08         0.00000E+00
    0.00000E+00         0.00000E+00        -0.45726E+08
 
   -0.44847E+08         0.78473E+06         0.00000E+00
    0.78473E+06        -0.97570E+08         0.00000E+00
    0.00000E+00         0.00000E+00        -0.45509E+08
 
   -0.44634E+08         0.80053E+06         0.00000E+00
    0.80053E+06        -0.97573E+08         0.00000E+00
    0.00000E+00         0.00000E+00        -0.45283E+08
 
   -0.44416E+08         0.81491E+06         0.00000E+00
    0.81491E+06        -0.97576E+08         0.00000E+00
    0.00000E+00         0.00000E+00        -0.45047E+08
 
   -0.44194E+08         0.82762E+06         0.00000E+00
    0.82762E+06        -0.97580E+08         0.00000E+00
    0.00000E+00         0.00000E+00        -0.44803E+08
 
   -0.43968E+08         0.83837E+06         0.00000E+00
    0.83837E+06        -0.97584E+08         0.00000E+00
    0.00000E+00         0.00000E+00        -0.44548E+08
 
   -0.43738E+08         0.84683E+06         0.00000E+00
    0.84683E+06        -0.97589E+08         0.00000E+00
    0.00000E+00         0.00000E+00        -0.44284E+08
 
   -0.43505E+08         0.85264E+06         0.00000E+00
    0.85264E+06        -0.97594E+08         0.00000E+00
    0.00000E+00         0.00000E+00        -0.44011E+08
 
   -0.43270E+08         0.85542E+06         0.00000E+00
    0.85542E+06        -0.97601E+08         0.00000E+00
    0.00000E+00         0.00000E+00        -0.43727E+08
 
   -0.43032E+08         0.85470E+06         0.00000E+00
    0.85470E+06        -0.97608E+08         0.00000E+00
    0.00000E+00         0.00000E+00        -0.43433E+08
 
   -0.42794E+08         0.85002E+06         0.00000E+00
    0.85002E+06        -0.97617E+08         0.00000E+00
    0.00000E+00         0.00000E+00        -0.43129E+08
 
   -0.42555E+08         0.84085E+06         0.00000E+00
    0.84085E+06        -0.97627E+08         0.00000E+00
    0.00000E+00         0.00000E+00        -0.42816E+08
 
   -0.42317E+08         0.82663E+06         0.00000E+00
    0.82663E+06        -0.97638E+08         0.00000E+00
    0.00000E+00         0.00000E+00        -0.42492E+08
 
   -0.42080E+08         0.80675E+06         0.00000E+00
    0.80675E+06        -0.97650E+08         0.00000E+00
    0.00000E+00         0.00000E+00        -0.42158E+08
 
   -0.41845E+08         0.78061E+06         0.00000E+00
    0.78061E+06        -0.97664E+08         0.00000E+00
    0.00000E+00         0.00000E+00        -0.41814E+08
 
   -0.41614E+08         0.74758E+06         0.00000E+00
    0.74758E+06        -0.97679E+08         0.00000E+00
    0.00000E+00         0.00000E+00        -0.41460E+08
 
   -0.41388E+08         0.70705E+06         0.00000E+00
    0.70705E+06        -0.97696E+08         0.00000E+00
    0.00000E+00         0.00000E+00        -0.41097E+08
 
   -0.41167E+08         0.65850E+06         0.00000E+00
    0.65850E+06        -0.97714E+08         0.00000E+00
    0.00000E+00         0.00000E+00        -0.40724E+08
 
   -0.40954E+08         0.60151E+06         0.00000E+00
    0.60151E+06        -0.97733E+08         0.00000E+00
    0.00000E+00         0.00000E+00        -0.40343E+08
 
   -0.40749E+08         0.53587E+06         0.00000E+00
    0.53587E+06        -0.97753E+08         0.00000E+00
    0.00000E+00         0.00000E+00        -0.39952E+08
 
   -0.40553E+08         0.46169E+06         0.00000E+00
    0.46169E+06        -0.97772E+08         0.00000E+00
    0.00000E+00         0.00000E+00        -0.39553E+08
 
   -0.40368E+08         0.37955E+06         0.00000E+00
    0.37955E+06        -0.97790E+08         0.00000E+00
    0.00000E+00         0.00000E+00        -0.39146E+08
 
   -0.40193E+08         0.29072E+06         0.00000E+00
    0.29072E+06        -0.97805E+08         0.00000E+00
    0.00000E+00         0.00000E+00        -0.38731E+08
 
   -0.40031E+08         0.19747E+06         0.00000E+00
    0.19747E+06        -0.97815E+08         0.00000E+00
    0.00000E+00         0.00000E+00        -0.38310E+08
 
   -0.39880E+08         0.10341E+06         0.00000E+00
    0.10341E+06        -0.97817E+08         0.00000E+00
    0.00000E+00         0.00000E+00        -0.37882E+08
 
   -0.39740E+08         0.14075E+05         0.00000E+00
    0.14075E+05        -0.97807E+08         0.00000E+00
    0.00000E+00         0.00000E+00        -0.37449E+08
 
   -0.39610E+08        -0.62518E+05         0.00000E+00
   -0.62518E+05        -0.97776E+08         0.00000E+00
    0.00000E+00         0.00000E+00        -0.37010E+08
 
   -0.39491E+08        -0.11557E+06         0.00000E+00
   -0.11557E+06        -0.97714E+08         0.00000E+00
    0.00000E+00         0.00000E+00        -0.36568E+08
 
   -0.39386E+08        -0.13287E+06         0.00000E+00
   -0.13287E+06        -0.97601E+08         0.00000E+00
    0.00000E+00         0.00000E+00        -0.36122E+08
 
   -0.39302E+08        -0.10626E+06         0.00000E+00
   -0.10626E+06        -0.97408E+08         0.00000E+00
    0.00000E+00         0.00000E+00        -0.35674E+08
 
   -0.39254E+08        -0.40730E+05         0.00000E+00
   -0.40730E+05        -0.97099E+08         0.00000E+00
    0.00000E+00         0.00000E+00        -0.35225E+08
 
   -0.49856E+08         0.43842E+03         0.00000E+00
    0.43842E+03        -0.97605E+08         0.00000E+00
    0.00000E+00         0.00000E+00        -0.49995E+08
 
   -0.49854E+08         0.16688E+04         0.00000E+00
    0.16688E+04        -0.97599E+08         0.00000E+00
    0.00000E+00         0.00000E+00        -0.49986E+08
 
   -0.49852E+08         0.37509E+04         0.00000E+00
    0.37509E+04        -0.97595E+08         0.00000E+00
    0.00000E+00         0.00000E+00        -0.49977E+08
 
   -0.49848E+08         0.67728E+04         0.00000E+00
    0.67728E+04        -0.97593E+08         0.00000E+00
    0.00000E+00         0.00000E+00        -0.49968E+08
 
   -0.49843E+08         0.10544E+05         0.00000E+00
    0.10544E+05        -0.97592E+08         0.00000E+00
    0.00000E+00         0.00000E+00        -0.49958E+08
 
   -0.49837E+08         0.14809E+05         0.00000E+00
    0.14809E+05        -0.97591E+08         0.00000E+00
    0.00000E+00         0.00000E+00        -0.49949E+08
 
   -0.49831E+08         0.19359E+05         0.00000E+00
    0.19359E+05        -0.97591E+08         0.00000E+00
    0.00000E+00         0.00000E+00        -0.49939E+08
 
   -0.49823E+08         0.24047E+05         0.00000E+00
    0.24047E+05        -0.97591E+08         0.00000E+00
    0.00000E+00         0.00000E+00        -0.49929E+08
 
   -0.49815E+08         0.28781E+05         0.00000E+00
    0.28781E+05        -0.97591E+08         0.00000E+00
    0.00000E+00         0.00000E+00        -0.49919E+08
 
   -0.49805E+08         0.33508E+05         0.00000E+00
    0.33508E+05        -0.97591E+08         0.00000E+00
    0.00000E+00         0.00000E+00        -0.49908E+08
 
   -0.49794E+08         0.38199E+05         0.00000E+00
    0.38199E+05        -0.97591E+08         0.00000E+00
    0.00000E+00         0.00000E+00        -0.49897E+08
 
   -0.49783E+08         0.42847E+05         0.00000E+00
    0.42847E+05        -0.97591E+08         0.00000E+00
    0.00000E+00         0.00000E+00        -0.49886E+08
 
   -0.49770E+08         0.47457E+05         0.00000E+00
    0.47457E+05        -0.97592E+08         0.00000E+00
    0.00000E+00         0.00000E+00        -0.49874E+08
 
   -0.49756E+08         0.52041E+05         0.00000E+00
    0.52041E+05        -0.97592E+08         0.00000E+00
    0.00000E+00         0.00000E+00        -0.49862E+08
 
   -0.49741E+08         0.56618E+05         0.00000E+00
    0.56618E+05        -0.97592E+08         0.00000E+00
    0.00000E+00         0.00000E+00        -0.49849E+08
 
   -0.49725E+08         0.61209E+05         0.00000E+00
    0.61209E+05        -0.97592E+08         0.00000E+00
    0.00000E+00         0.00000E+00        -0.49835E+08
 
   -0.49707E+08         0.65840E+05         0.00000E+00
    0.65840E+05        -0.97592E+08         0.00000E+00
    0.00000E+00         0.00000E+00        -0.49821E+08
 
   -0.49689E+08         0.70533E+05         0.00000E+00
    0.70533E+05        -0.97591E+08         0.00000E+00
    0.00000E+00         0.00000E+00        -0.49807E+08
 
   -0.49669E+08         0.75313E+05         0.00000E+00
    0.75313E+05        -0.97591E+08         0.00000E+00
    0.00000E+00         0.00000E+00        -0.49791E+08
 
   -0.49648E+08         0.80203E+05         0.00000E+00
    0.80203E+05        -0.97591E+08         0.00000E+00
    0.00000E+00         0.00000E+00        -0.49775E+08
 
   -0.49625E+08         0.85227E+05         0.00000E+00
    0.85227E+05        -0.97591E+08         0.00000E+00
    0.00000E+00         0.00000E+00        -0.49758E+08
 
   -0.49601E+08         0.90406E+05         0.00000E+00
    0.90406E+05        -0.97591E+08         0.00000E+00
    0.00000E+00         0.00000E+00        -0.49740E+08
 
   -0.49576E+08         0.95762E+05         0.00000E+00
    0.95762E+05        -0.97590E+08         0.00000E+00
    0.00000E+00         0.00000E+00        -0.49721E+08
 
   -0.49549E+08         0.10131E+06         0.00000E+00
    0.10131E+06        -0.97590E+08         0.00000E+00
    0.00000E+00         0.00000E+00        -0.49702E+08
 
   -0.49521E+08         0.10708E+06         0.00000E+00
    0.10708E+06        -0.97590E+08         0.00000E+00
    0.00000E+00         0.00000E+00        -0.49681E+08
 
   -0.49491E+08         0.11308E+06         0.00000E+00
    0.11308E+06        -0.97589E+08         0.00000E+00
    0.00000E+00         0.00000E+00        -0.49659E+08
 
   -0.49460E+08         0.11933E+06         0.00000E+00
    0.11933E+06        -0.97589E+08         0.00000E+00
    0.00000E+00         0.00000E+00        -0.49635E+08
 
   -0.49426E+08         0.12585E+06         0.00000E+00
    0.12585E+06        -0.97588E+08         0.00000E+00
    0.00000E+00         0.00000E+00        -0.49611E+08
 
   -0.49391E+08         0.13265E+06         0.00000E+00
    0.13265E+06        -0.97588E+08         0.00000E+00
    0.00000E+00         0.00000E+00        -0.49585E+08
 
   -0.49354E+08         0.13975E+06         0.00000E+00
    0.13975E+06        -0.97587E+08         0.00000E+00
    0.00000E+00         0.00000E+00        -0.49557E+08
 
   -0.49315E+08         0.14717E+06         0.00000E+00
    0.14717E+06        -0.97587E+08         0.00000E+00
    0.00000E+00         0.00000E+00        -0.49528E+08
 
   -0.49274E+08         0.15491E+06         0.00000E+00
    0.15491E+06        -0.97586E+08         0.00000E+00
    0.00000E+00         0.00000E+00        -0.49497E+08
 
   -0.49231E+08         0.16300E+06         0.00000E+00
    0.16300E+06        -0.97585E+08         0.00000E+00
    0.00000E+00         0.00000E+00        -0.49465E+08
 
   -0.49186E+08         0.17144E+06         0.00000E+00
    0.17144E+06        -0.97585E+08         0.00000E+00
    0.00000E+00         0.00000E+00        -0.49431E+08
 
   -0.49138E+08         0.18025E+06         0.00000E+00
    0.18025E+06        -0.97584E+08         0.00000E+00
    0.00000E+00         0.00000E+00        -0.49395E+08
 
   -0.49087E+08         0.18944E+06         0.00000E+00
    0.18944E+06        -0.97583E+08         0.00000E+00
    0.00000E+00         0.00000E+00        -0.49356E+08
 
   -0.49035E+08         0.19902E+06         0.00000E+00
    0.19902E+06        -0.97583E+08         0.00000E+00
    0.00000E+00         0.00000E+00        -0.49316E+08
 
   -0.48979E+08         0.20901E+06         0.00000E+00
    0.20901E+06        -0.97582E+08         0.00000E+00
    0.00000E+00         0.00000E+00        -0.49273E+08
 
   -0.48920E+08         0.21942E+06         0.00000E+00
    0.21942E+06        -0.97581E+08         0.00000E+00
    0.00000E+00         0.00000E+00        -0.49228E+08
 
   -0.48859E+08         0.23024E+06         0.00000E+00
    0.23024E+06        -0.97580E+08         0.00000E+00
    0.00000E+00         0.00000E+00        -0.49181E+08
 
   -0.48795E+08         0.24151E+06         0.00000E+00
    0.24151E+06        -0.97580E+08         0.00000E+00
    0.00000E+00         0.00000E+00        -0.49130E+08
 
   -0.48727E+08         0.25321E+06         0.00000E+00
    0.25321E+06        -0.97579E+08         0.00000E+00
    0.00000E+00         0.00000E+00        -0.49077E+08
 
   -0.48656E+08         0.26537E+06         0.00000E+00
    0.26537E+06        -0.97578E+08         0.00000E+00
    0.00000E+00         0.00000E+00        -0.49021E+08
 
   -0.48582E+08         0.27798E+06         0.00000E+00
    0.27798E+06        -0.97577E+08         0.00000E+00
    0.00000E+00         0.00000E+00        -0.48962E+08
 
   -0.48504E+08         0.29105E+06         0.00000E+00
    0.29105E+06        -0.97576E+08         0.00000E+00
    0.00000E+00         0.00000E+00        -0.48900E+08
 
   -0.48422E+08         0.30459E+06         0.00000E+00
    0.30459E+06        -0.97576E+08         0.00000E+00
    0.00000E+00         0.00000E+00        -0.48834E+08
 
   -0.48337E+08         0.31860E+06         0.00000E+00
    0.31860E+06        -0.97575E+08         0.00000E+00
    0.00000E+00         0.00000E+00        -0.48765E+08
 
   -0.48247E+08         0.33307E+06         0.00000E+00
    0.33307E+06        -0.97574E+08         0.00000E+00
    0.00000E+00         0.00000E+00        -0.48692E+08
 
   -0.48154E+08         0.34800E+06         0.00000E+00
    0.34800E+06        -0.97573E+08         0.00000E+00
    0.00000E+00         0.00000E+00        -0.48615E+08
 
   -0.48056E+08         0.36340E+06         0.00000E+00
    0.36340E+06        -0.97572E+08         0.00000E+00
    0.00000E+00         0.00000E+00        -0.48534E+08
 
   -0.47954E+08         0.37925E+06         0.00000E+00
    0.37925E+06        -0.97572E+08         0.00000E+00
    0.00000E+00         0.00000E+00        -0.48449E+08
 
   -0.47847E+08         0.39554E+06         0.00000E+00
    0.39554E+06        -0.97571E+08         0.00000E+00
    0.00000E+00         0.00000E+00        -0.48359E+08
 
   -0.47736E+08         0.41227E+06         0.00000E+00
    0.41227E+06        -0.97570E+08         0.00000E+00
    0.00000E+00         0.00000E+00        -0.48264E+08
 
   -0.47619E+08         0.42941E+06         0.00000E+00
    0.42941E+06        -0.97569E+08         0.00000E+00
    0.00000E+00         0.00000E+00        -0.48165E+08
 
   -0.47498E+08         0.44695E+06         0.00000E+00
    0.44695E+06        -0.97569E+08         0.00000E+00
    0.00000E+00         0.00000E+00        -0.48060E+08
 
   -0.47372E+08         0.46486E+06         0.00000E+00
    0.46486E+06        -0.97568E+08         0.00000E+00
    0.00000E+00         0.00000E+00        -0.47950E+08
 
   -0.47241E+08         0.48312E+06         0.00000E+00
    0.48312E+06        -0.97568E+08         0.00000E+00
    0.00000E+00         0.00000E+00        -0.47835E+08
 
   -0.47105E+08         0.50169E+06         0.00000E+00
    0.50169E+06        -0.97567E+08         0.00000E+00
    0.00000E+00         0.00000E+00        -0.47714E+08
 
   -0.46963E+08         0.52052E+06         0.00000E+00
    0.52052E+06        -0.97567E+08         0.00000E+00
    0.00000E+00         0.00000E+00        -0.47587E+08
 
   -0.46815E+08         0.53959E+06         0.00000E+00
    0.53959E+06        -0.97566E+08         0.00000E+00
    0.00000E+00         0.00000E+00        -0.47454E+08
 
   -0.46663E+08         0.55882E+06         0.00000E+00
    0.55882E+06        -0.97566E+08         0.00000E+00
    0.00000E+00         0.00000E+00        -0.47314E+08
 
   -0.46504E+08         0.57817E+06         0.00000E+00
    0.57817E+06        -0.97566E+08         0.00000E+00
    0.00000E+00         0.00000E+00        -0.47167E+08
 
   -0.46340E+08         0.59757E+06         0.00000E+00
    0.59757E+06        -0.97566E+08         0.00000E+00
    0.00000E+00         0.00000E+00        -0.47014E+08
 
   -0.46171E+08         0.61693E+06         0.00000E+00
    0.61693E+06        -0.97566E+08         0.00000E+00
    0.00000E+00         0.00000E+00        -0.46853E+08
 
   -0.45995E+08         0.63617E+06         0.00000E+00
    0.63617E+06        -0.97567E+08         0.00000E+00
    0.00000E+00         0.00000E+00        -0.46685E+08
 
   -0.45814E+08         0.65520E+06         0.00000E+00
    0.65520E+06        -0.97567E+08         0.00000E+00
    0.00000E+00         0.00000E+00        -0.46510E+08
 
   -0.45628E+08         0.67389E+06         0.00000E+00
    0.67389E+06        -0.97568E+08         0.00000E+00
    0.00000E+00         0.00000E+00        -0.46326E+08
 
   -0.45435E+08         0.69213E+06         0.00000E+00
    0.69213E+06        -0.97569E+08         0.00000E+00
    0.00000E+00         0.00000E+00        -0.46135E+08
 
   -0.45238E+08         0.70978E+06         0.00000E+00
    0.70978E+06        -0.97570E+08         0.00000E+00
    0.00000E+00         0.00000E+00        -0.45935E+08
 
   -0.45035E+08         0.72667E+06         0.00000E+00
    0.72667E+06        -0.97572E+08         0.00000E+00
    0.00000E+00         0.00000E+00        -0.45726E+08
 
   -0.44827E+08         0.74263E+06         0.00000E+00
    0.74263E+06        -0.97574E+08         0.00000E+00
    0.00000E+00         0.00000E+00        -0.45509E+08
 
   -0.44614E+08         0.75746E+06         0.00000E+00
    0.75746E+06        -0.97576E+08         0.00000E+00
    0.00000E+00         0.00000E+00        -0.45283E+08
 
   -0.44396E+08         0.77094E+06         0.00000E+00
    0.77094E+06        -0.97579E+08         0.00000E+00
    0.00000E+00         0.00000E+00        -0.45047E+08
 
   -0.44175E+08         0.78281E+06         0.00000E+00
    0.78281E+06        -0.97582E+08         0.00000E+00
    0.00000E+00         0.00000E+00        -0.44803E+08
 
   -0.43949E+08         0.79281E+06         0.00000E+00
    0.79281E+06        -0.97586E+08         0.00000E+00
    0.00000E+00         0.00000E+00        -0.44548E+08
 
   -0.43720E+08         0.80061E+06         0.00000E+00
    0.80061E+06        -0.97590E+08         0.00000E+00
    0.00000E+00         0.00000E+00        -0.44284E+08
 
   -0.43487E+08         0.80588E+06         0.00000E+00
    0.80588E+06        -0.97595E+08         0.00000E+00
    0.00000E+00         0.00000E+00        -0.44011E+08
 
   -0.43253E+08         0.80822E+06         0.00000E+00
    0.80822E+06        -0.97601E+08         0.00000E+00
    0.00000E+00         0.00000E+00        -0.43727E+08
 
   -0.43017E+08         0.80722E+06         0.00000E+00
    0.80722E+06        -0.97608E+08         0.00000E+00
    0.00000E+00         0.00000E+00        -0.43433E+08
 
   -0.42780E+08         0.80241E+06         0.00000E+00
    0.80241E+06        -0.97616E+08         0.00000E+00
    0.00000E+00         0.00000E+00        -0.43129E+08
 
   -0.42542E+08         0.79327E+06         0.00000E+00
    0.79327E+06        -0.97624E+08         0.00000E+00
    0.00000E+00         0.00000E+00        -0.42816E+08
 
   -0.42306E+08         0.77927E+06         0.00000E+00
    0.77927E+06        -0.97634E+08         0.00000E+00
    0.00000E+00         0.00000E+00        -0.42492E+08
 
   -0.42071E+08         0.75983E+06         0.00000E+00
    0.75983E+06        -0.97646E+08         0.00000E+00
    0.00000E+00         0.00000E+00        -0.42158E+08
 
   -0.41840E+08         0.73433E+06         0.00000E+00
    0.73433E+06        -0.97658E+08         0.00000E+00
    0.00000E+00         0.00000E+00        -0.41814E+08
 
   -0.41612E+08         0.70217E+06         0.00000E+00
    0.70217E+06        -0.97672E+08         0.00000E+00
    0.00000E+00         0.00000E+00        -0.41460E+08
 
   -0.41389E+08         0.66276E+06         0.00000E+00
    0.66276E+06        -0.97687E+08         0.00000E+00
    0.00000E+00         0.00000E+00        -0.41097E+08
 
   -0.41174E+08         0.61557E+06         0.00000E+00
    0.61557E+06        -0.97704E+08         0.00000E+00
    0.00000E+00         0.00000E+00        -0.40724E+08
 
   -0.40966E+08         0.56019E+06         0.00000E+00
    0.56019E+06        -0.97721E+08         0.00000E+00
    0.00000E+00         0.00000E+00        -0.40343E+08
 
   -0.40767E+08         0.49639E+06         0.00000E+00
    0.49639E+06        -0.97739E+08         0.00000E+00
    0.00000E+00         0.00000E+00        -0.39952E+08
 
   -0.40578E+08         0.42427E+06         0.00000E+00
    0.42427E+06        -0.97757E+08         0.00000E+00
    0.00000E+00         0.00000E+00        -0.39553E+08
 
   -0.40400E+08         0.34438E+06         0.00000E+00
    0.34438E+06        -0.97773E+08         0.00000E+00
    0.00000E+00         0.00000E+00        -0.39146E+08
 
   -0.40235E+08         0.25792E+06         0.00000E+00
    0.25792E+06        -0.97787E+08         0.00000E+00
    0.00000E+00         0.00000E+00        -0.38731E+08
 
   -0.40082E+08         0.16708E+06         0.00000E+00
    0.16708E+06        -0.97797E+08         0.00000E+00
    0.00000E+00         0.00000E+00        -0.38310E+08
 
   -0.39941E+08         0.75375E+05         0.00000E+00
    0.75375E+05        -0.97799E+08         0.00000E+00
    0.00000E+00         0.00000E+00        -0.37882E+08
 
   -0.39813E+08        -0.11801E+05         0.00000E+00
   -0.11801E+05        -0.97790E+08         0.00000E+00
    0.00000E+00         0.00000E+00        -0.37449E+08
 
   -0.39694E+08        -0.86482E+05         0.00000E+00
   -0.86482E+05        -0.97763E+08         0.00000E+00
    0.00000E+00         0.00000E+00        -0.37010E+08
 
   -0.39584E+08        -0.13761E+06         0.00000E+00
   -0.13761E+06        -0.97707E+08         0.00000E+00
    0.00000E+00         0.00000E+00        -0.36568E+08
 
   -0.39486E+08        -0.15203E+06         0.00000E+00
   -0.15203E+06        -0.97602E+08         0.00000E+00
    0.00000E+00         0.00000E+00        -0.36122E+08
 
   -0.39406E+08        -0.12003E+06         0.00000E+00
   -0.12003E+06        -0.97418E+08         0.00000E+00
    0.00000E+00         0.00000E+00        -0.35674E+08
 
   -0.39359E+08        -0.45851E+05         0.00000E+00
   -0.45851E+05        -0.97116E+08         0.00000E+00
    0.00000E+00         0.00000E+00        -0.35225E+08
 
   -0.49853E+08         0.27248E+03         0.00000E+00
    0.27248E+03        -0.97605E+08         0.00000E+00
    0.00000E+00         0.00000E+00        -0.49995E+08
 
   -0.49851E+08         0.12069E+04         0.00000E+00
    0.12069E+04        -0.97599E+08         0.00000E+00
    0.00000E+00         0.00000E+00        -0.49986E+08
 
   -0.49848E+08         0.30636E+04         0.00000E+00
    0.30636E+04        -0.97595E+08         0.00000E+00
    0.00000E+00         0.00000E+00        -0.49977E+08
 
   -0.49845E+08         0.59078E+04         0.00000E+00
    0.59078E+04        -0.97593E+08         0.00000E+00
    0.00000E+00         0.00000E+00        -0.49968E+08
 
   -0.49840E+08         0.95121E+04         0.00000E+00
    0.95121E+04        -0.97592E+08         0.00000E+00
    0.00000E+00         0.00000E+00        -0.49958E+08
 
   -0.49834E+08         0.13602E+05         0.00000E+00
    0.13602E+05        -0.97592E+08         0.00000E+00
    0.00000E+00         0.00000E+00        -0.49949E+08
 
   -0.49828E+08         0.17962E+05         0.00000E+00
    0.17962E+05        -0.97592E+08         0.00000E+00
    0.00000E+00         0.00000E+00        -0.49939E+08
 
   -0.49821E+08         0.22451E+05         0.00000E+00
    0.22451E+05        -0.97592E+08         0.00000E+00
    0.00000E+00         0.00000E+00        -0.49929E+08
 
   -0.49812E+08         0.26979E+05         0.00000E+00
    0.26979E+05        -0.97592E+08         0.00000E+00
    0.00000E+00         0.00000E+00        -0.49919E+08
 
   -0.49803E+08         0.31493E+05         0.00000E+00
    0.31493E+05        -0.97592E+08         0.00000E+00
    0.00000E+00         0.00000E+00        -0.49908E+08
 
   -0.49792E+08         0.35968E+05         0.00000E+00
    0.35968E+05        -0.97592E+08         0.00000E+00
    0.00000E+00         0.00000E+00        -0.49897E+08
 
   -0.49780E+08         0.40396E+05         0.00000E+00
    0.40396E+05        -0.97592E+08         0.00000E+00
    0.00000E+00         0.00000E+00        -0.49886E+08
 
   -0.49767E+08         0.44782E+05         0.00000E+00
    0.44782E+05        -0.97592E+08         0.00000E+00
    0.00000E+00         0.00000E+00        -0.49874E+08
 
   -0.49754E+08         0.49139E+05         0.00000E+00
    0.49139E+05        -0.97593E+08         0.00000E+00
    0.00000E+00         0.00000E+00        -0.49862E+08
 
   -0.49738E+08         0.53485E+05         0.00000E+00
    0.53485E+05        -0.97593E+08         0.00000E+00
    0.00000E+00         0.00000E+00        -0.49849E+08
 
   -0.49722E+08         0.57842E+05         0.00000E+00
    0.57842E+05        -0.97593E+08         0.00000E+00
    0.00000E+00         0.00000E+00        -0.49835E+08
 
   -0.49705E+08         0.62232E+05         0.00000E+00
    0.62232E+05        -0.97593E+08         0.00000E+00
    0.00000E+00         0.00000E+00        -0.49821E+08
 
   -0.49686E+08         0.66678E+05         0.00000E+00
    0.66678E+05        -0.97592E+08         0.00000E+00
    0.00000E+00         0.00000E+00        -0.49807E+08
 
   -0.49666E+08         0.71205E+05         0.00000E+00
    0.71205E+05        -0.97592E+08         0.00000E+00
    0.00000E+00         0.00000E+00        -0.49791E+08
 
   -0.49645E+08         0.75834E+05         0.00000E+00
    0.75834E+05        -0.97592E+08         0.00000E+00
    0.00000E+00         0.00000E+00        -0.49775E+08
 
   -0.49622E+08         0.80588E+05         0.00000E+00
    0.80588E+05        -0.97592E+08         0.00000E+00
    0.00000E+00         0.00000E+00        -0.49758E+08
 
   -0.49598E+08         0.85487E+05         0.00000E+00
    0.85487E+05        -0.97592E+08         0.00000E+00
    0.00000E+00         0.00000E+00        -0.49740E+08
 
   -0.49573E+08         0.90552E+05         0.00000E+00
    0.90552E+05        -0.97591E+08         0.00000E+00
    0.00000E+00         0.00000E+00        -0.49721E+08
 
   -0.49546E+08         0.95802E+05         0.00000E+00
    0.95802E+05        -0.97591E+08         0.00000E+00
    0.00000E+00         0.00000E+00        -0.49702E+08
 
   -0.49517E+08         0.10125E+06         0.00000E+00
    0.10125E+06        -0.97591E+08         0.00000E+00
    0.00000E+00         0.00000E+00        -0.49681E+08
 
   -0.49487E+08         0.10693E+06         0.00000E+00
    0.10693E+06        -0.97590E+08         0.00000E+00
    0.00000E+00         0.00000E+00        -0.49659E+08
 
   -0.49456E+08         0.11284E+06         0.00000E+00
    0.11284E+06        -0.97590E+08         0.00000E+00
    0.00000E+00         0.00000E+00        -0.49635E+08
 
   -0.49422E+08         0.11900E+06         0.00000E+00
    0.11900E+06        -0.97589E+08         0.00000E+00
    0.00000E+00         0.00000E+00        -0.49611E+08
 
   -0.49387E+08         0.12543E+06         0.00000E+00
    0.12543E+06        -0.97589E+08         0.00000E+00
    0.00000E+00         0.00000E+00        -0.49585E+08
 
   -0.49350E+08         0.13214E+06         0.00000E+00
    0.13214E+06        -0.97588E+08         0.00000E+00
    0.00000E+00         0.00000E+00        -0.49557E+08
 
   -0.49310E+08         0.13915E+06         0.00000E+00
    0.13915E+06        -0.97588E+08         0.00000E+00
    0.00000E+00         0.00000E+00        -0.49528E+08
 
   -0.49269E+08         0.14646E+06         0.00000E+00
    0.14646E+06        -0.97587E+08         0.00000E+00
    0.00000E+00         0.00000E+00        -0.49497E+08
 
   -0.49226E+08         0.15410E+06         0.00000E+00
    0.15410E+06        -0.97587E+08         0.00000E+00
    0.00000E+00         0.00000E+00        -0.49465E+08
 
   -0.49180E+08         0.16208E+06         0.00000E+00
    0.16208E+06        -0.97586E+08         0.00000E+00
    0.00000E+00         0.00000E+00        -0.49431E+08
 
   -0.49132E+08         0.17040E+06         0.00000E+00
    0.17040E+06        -0.97586E+08         0.00000E+00
    0.00000E+00         0.00000E+00        -0.49395E+08
 
   -0.49081E+08         0.17909E+06         0.00000E+00
    0.17909E+06        -0.97585E+08         0.00000E+00
    0.00000E+00         0.00000E+00        -0.49356E+08
 
   -0.49028E+08         0.18814E+06         0.00000E+00
    0.18814E+06        -0.97585E+08         0.00000E+00
    0.00000E+00         0.00000E+00        -0.49316E+08
 
   -0.48972E+08         0.19758E+06         0.00000E+00
    0.19758E+06        -0.97584E+08         0.00000E+00
    0.00000E+00         0.00000E+00        -0.49273E+08
 
   -0.48913E+08         0.20740E+06         0.00000E+00
    0.20740E+06        -0.97583E+08         0.00000E+00
    0.00000E+00         0.00000E+00        -0.49228E+08
 
   -0.48851E+08         0.21763E+06         0.00000E+00
    0.21763E+06        -0.97583E+08         0.00000E+00
    0.00000E+00         0.00000E+00        -0.49181E+08
 
   -0.48787E+08         0.22827E+06         0.00000E+00
    0.22827E+06        -0.97582E+08         0.00000E+00
    0.00000E+00         0.00000E+00        -0.49130E+08
 
   -0.48719E+08         0.23933E+06         0.00000E+00
    0.23933E+06        -0.97581E+08         0.00000E+00
    0.00000E+00         0.00000E+00        -0.49077E+08
 
   -0.48647E+08         0.25081E+06         0.00000E+00
    0.25081E+06        -0.97580E+08         0.00000E+00
    0.00000E+00         0.00000E+00        -0.49021E+08
 
   -0.48573E+08         0.26272E+06         0.00000E+00
    0.26272E+06        -0.97580E+08         0.00000E+00
    0.00000E+00         0.00000E+00        -0.48962E+08
 
   -0.48494E+08         0.27506E+06         0.00000E+00
    0.27506E+06        -0.97579E+08         0.00000E+00
    0.00000E+00         0.00000E+00        -0.48900E+08
 
   -0.48412E+08         0.28784E+06         0.00000E+00
    0.28784E+06        -0.97578E+08         0.00000E+00
    0.00000E+00         0.00000E+00        -0.48834E+08
 
   -0.48326E+08         0.30107E+06         0.00000E+00
    0.30107E+06        -0.97578E+08         0.00000E+00
    0.00000E+00         0.00000E+00        -0.48765E+08
 
   -0.48236E+08         0.31473E+06         0.00000E+00
    0.31473E+06        -0.97577E+08         0.00000E+00
    0.00000E+00         0.00000E+00        -0.48692E+08
 
   -0.48142E+08         0.32883E+06         0.00000E+00
    0.32883E+06        -0.97576E+08         0.00000E+00
    0.00000E+00         0.00000E+00        -0.48615E+08
 
   -0.48044E+08         0.34336E+06         0.00000E+00
    0.34336E+06        -0.97575E+08         0.00000E+00
    0.00000E+00         0.00000E+00        -0.48534E+08
 
   -0.47941E+08         0.35832E+06         0.00000E+00
    0.35832E+06        -0.97575E+08         0.00000E+00
    0.00000E+00         0.00000E+00        -0.48449E+08
 
   -0.47834E+08         0.37370E+06         0.00000E+00
    0.37370E+06        -0.97574E+08         0.00000E+00
    0.00000E+00         0.00000E+00        -0.48359E+08
 
   -0.47722E+08         0.38948E+06         0.00000E+00
    0.38948E+06        -0.97573E+08         0.00000E+00
    0.00000E+00         0.00000E+00        -0.48264E+08
 
   -0.47606E+08         0.40565E+06         0.00000E+00
    0.40565E+06        -0.97573E+08         0.00000E+00
    0.00000E+00         0.00000E+00        -0.48165E+08
 
   -0.47484E+08         0.42220E+06         0.00000E+00
    0.42220E+06        -0.97572E+08         0.00000E+00
    0.00000E+00         0.00000E+00        -0.48060E+08
 
   -0.47358E+08         0.43909E+06         0.00000E+00
    0.43909E+06        -0.97572E+08         0.00000E+00
    0.00000E+00         0.00000E+00        -0.47950E+08
 
   -0.47226E+08         0.45631E+06         0.00000E+00
    0.45631E+06        -0.97571E+08         0.00000E+00
    0.00000E+00         0.00000E+00        -0.47835E+08
 
   -0.47089E+08         0.47381E+06         0.00000E+00
    0.47381E+06        -0.97571E+08         0.00000E+00
    0.00000E+00         0.00000E+00        -0.47714E+08
 
   -0.46947E+08         0.49157E+06         0.00000E+00
    0.49157E+06        -0.97570E+08         0.00000E+00
    0.00000E+00         0.00000E+00        -0.47587E+08
 
   -0.46799E+08         0.50954E+06         0.00000E+00
    0.50954E+06        -0.97570E+08         0.00000E+00
    0.00000E+00         0.00000E+00        -0.47454E+08
 
   -0.46646E+08         0.52766E+06         0.00000E+00
    0.52766E+06        -0.97570E+08         0.00000E+00
    0.00000E+00         0.00000E+00        -0.47314E+08
 
   -0.46487E+08         0.54589E+06         0.00000E+00
    0.54589E+06        -0.97570E+08         0.00000E+00
    0.00000E+00         0.00000E+00        -0.47167E+08
 
   -0.46323E+08         0.56416E+06         0.00000E+00
    0.56416E+06        -0.97570E+08         0.00000E+00
    0.00000E+00         0.00000E+00        -0.47014E+08
 
   -0.46153E+08         0.58239E+06         0.00000E+00
    0.58239E+06        -0.97570E+08         0.00000E+00
    0.00000E+00         0.00000E+00        -0.46853E+08
 
   -0.45977E+08         0.60051E+06         0.00000E+00
    0.60051E+06        -0.97570E+08         0.00000E+00
    0.00000E+00         0.00000E+00        -0.46685E+08
 
   -0.45796E+08         0.61841E+06         0.00000E+00
    0.61841E+06        -0.97571E+08         0.00000E+00
    0.00000E+00         0.00000E+00        -0.46510E+08
 
   -0.45609E+08         0.63599E+06         0.00000E+00
    0.63599E+06        -0.97571E+08         0.00000E+00
    0.00000E+00         0.00000E+00        -0.46326E+08
 
   -0.45416E+08         0.65314E+06         0.00000E+00
    0.65314E+06        -0.97572E+08         0.00000E+00
    0.00000E+00         0.00000E+00        -0.46135E+08
 
   -0.45218E+08         0.66971E+06         0.00000E+00
    0.66971E+06        -0.97573E+08         0.00000E+00
    0.00000E+00         0.00000E+00        -0.45935E+08
 
   -0.45015E+08         0.68557E+06         0.00000E+00
    0.68557E+06        -0.97575E+08         0.00000E+00
    0.00000E+00         0.00000E+00        -0.45726E+08
 
   -0.44807E+08         0.70053E+06         0.00000E+00
    0.70053E+06        -0.97577E+08         0.00000E+00
    0.00000E+00         0.00000E+00        -0.45509E+08
 
   -0.44594E+08         0.71441E+06         0.00000E+00
    0.71441E+06        -0.97579E+08         0.00000E+00
    0.00000E+00         0.00000E+00        -0.45283E+08
 
   -0.44377E+08         0.72700E+06         0.00000E+00
    0.72700E+06        -0.97581E+08         0.00000E+00
    0.00000E+00         0.00000E+00        -0.45047E+08
 
   -0.44155E+08         0.73807E+06         0.00000E+00
    0.73807E+06        -0.97584E+08         0.00000E+00
    0.00000E+00         0.00000E+00        -0.44803E+08
 
   -0.43930E+08         0.74733E+06         0.00000E+00
    0.74733E+06        -0.97587E+08         0.00000E+00
    0.00000E+00         0.00000E+00        -0.44548E+08
 
   -0.43701E+08         0.75451E+06         0.00000E+00
    0.75451E+06        -0.97591E+08         0.00000E+00
    0.00000E+00         0.00000E+00        -0.44284E+08
 
   -0.43470E+08         0.75926E+06         0.00000E+00
    0.75926E+06        -0.97596E+08         0.00000E+00
    0.00000E+00         0.00000E+00        -0.44011E+08
 
   -0.43236E+08         0.76122E+06         0.00000E+00
    0.76122E+06        -0.97601E+08         0.00000E+00
    0.00000E+00         0.00000E+00        -0.43727E+08
 
   -0.43001E+08         0.75997E+06         0.00000E+00
    0.75997E+06        -0.97607E+08         0.00000E+00
    0.00000E+00         0.00000E+00        -0.43433E+08
 
   -0.42765E+08         0.75508E+06         0.00000E+00
    0.75508E+06        -0.97614E+08         0.00000E+00
    0.00000E+00         0.00000E+00        -0.43129E+08
 
   -0.42529E+08         0.74604E+06         0.00000E+00
    0.74604E+06        -0.97622E+08         0.00000E+00
    0.00000E+00         0.00000E+00        -0.42816E+08
 
   -0.42295E+08         0.73234E+06         0.00000E+00
    0.73234E+06        -0.97631E+08         0.00000E+00
    0.00000E+00         0.00000E+00        -0.42492E+08
 
   -0.42062E+08         0.71340E+06         0.00000E+00
    0.71340E+06        -0.97641E+08         0.00000E+00
    0.00000E+00         0.00000E+00        -0.42158E+08
 
   -0.41833E+08         0.68865E+06         0.00000E+00
    0.68865E+06        -0.97652E+08         0.00000E+00
    0.00000E+00         0.00000E+00        -0.41814E+08
 
   -0.41609E+08         0.65747E+06         0.00000E+00
    0.65747E+06        -0.97665E+08         0.00000E+00
    0.00000E+00         0.00000E+00        -0.41460E+08
 
   -0.41390E+08         0.61930E+06         0.00000E+00
    0.61930E+06        -0.97679E+08         0.00000E+00
    0.00000E+00         0.00000E+00        -0.41097E+08
 
   -0.41179E+08         0.57361E+06         0.00000E+00
    0.57361E+06        -0.97694E+08         0.00000E+00
    0.00000E+00         0.00000E+00        -0.40724E+08
 
   -0.40976E+08         0.51999E+06         0.00000E+00
    0.51999E+06        -0.97709E+08         0.00000E+00
    0.00000E+00         0.00000E+00        -0.40343E+08
 
   -0.40783E+08         0.45821E+06         0.00000E+00
    0.45821E+06        -0.97725E+08         0.00000E+00
    0.00000E+00         0.00000E+00        -0.39952E+08
 
   -0.40601E+08         0.38834E+06         0.00000E+00
    0.38834E+06        -0.97742E+08         0.00000E+00
    0.00000E+00         0.00000E+00        -0.39553E+08
 
   -0.40432E+08         0.31089E+06         0.00000E+00
    0.31089E+06        -0.97757E+08         0.00000E+00
    0.00000E+00         0.00000E+00        -0.39146E+08
 
   -0.40275E+08         0.22701E+06         0.00000E+00
    0.22701E+06        -0.97770E+08         0.00000E+00
    0.00000E+00         0.00000E+00        -0.38731E+08
 
   -0.40132E+08         0.13877E+06         0.00000E+00
    0.13877E+06        -0.97779E+08         0.00000E+00
    0.00000E+00         0.00000E+00        -0.38310E+08
 
   -0.40003E+08         0.49552E+05         0.00000E+00
    0.49552E+05        -0.97781E+08         0.00000E+00
    0.00000E+00         0.00000E+00        -0.37882E+08
 
   -0.39885E+08        -0.35421E+05         0.00000E+00
   -0.35421E+05        -0.97773E+08         0.00000E+00
    0.00000E+00         0.00000E+00        -0.37449E+08
 
   -0.39778E+08        -0.10831E+06         0.00000E+00
   -0.10831E+06        -0.97750E+08         0.00000E+00
    0.00000E+00         0.00000E+00        -0.37010E+08
 
   -0.39678E+08        -0.15790E+06         0.00000E+00
   -0.15790E+06        -0.97700E+08         0.00000E+00
    0.00000E+00         0.00000E+00        -0.36568E+08
 
   -0.39587E+08        -0.17009E+06         0.00000E+00
   -0.17009E+06        -0.97604E+08         0.00000E+00
    0.00000E+00         0.00000E+00        -0.36122E+08
 
   -0.39511E+08        -0.13337E+06         0.00000E+00
   -0.13337E+06        -0.97430E+08         0.00000E+00
    0.00000E+00         0.00000E+00        -0.35674E+08
 
   -0.39466E+08        -0.50896E+05         0.00000E+00
   -0.50896E+05        -0.97135E+08         0.00000E+00
    0.00000E+00         0.00000E+00        -0.35225E+08
 
   -0.49849E+08         0.10671E+03         0.00000E+00
    0.10671E+03        -0.97605E+08         0.00000E+00
    0.00000E+00         0.00000E+00        -0.49995E+08
 
   -0.49848E+08         0.75060E+03         0.00000E+00
    0.75060E+03        -0.97599E+08         0.00000E+00
    0.00000E+00         0.00000E+00        -0.49986E+08
 
   -0.49845E+08         0.23940E+04         0.00000E+00
    0.23940E+04        -0.97596E+08         0.00000E+00
    0.00000E+00         0.00000E+00        -0.49977E+08
 
   -0.49841E+08         0.50714E+04         0.00000E+00
    0.50714E+04        -0.97594E+08         0.00000E+00
    0.00000E+00         0.00000E+00        -0.49968E+08
 
   -0.49837E+08         0.85137E+04         0.00000E+00
    0.85137E+04        -0.97593E+08         0.00000E+00
    0.00000E+00         0.00000E+00        -0.49958E+08
 
   -0.49832E+08         0.12427E+05         0.00000E+00
    0.12427E+05        -0.97593E+08         0.00000E+00
    0.00000E+00         0.00000E+00        -0.49949E+08
 
   -0.49825E+08         0.16595E+05         0.00000E+00
    0.16595E+05        -0.97593E+08         0.00000E+00
    0.00000E+00         0.00000E+00        -0.49939E+08
 
   -0.49818E+08         0.20880E+05         0.00000E+00
    0.20880E+05        -0.97593E+08         0.00000E+00
    0.00000E+00         0.00000E+00        -0.49929E+08
 
   -0.49810E+08         0.25195E+05         0.00000E+00
    0.25195E+05        -0.97593E+08         0.00000E+00
    0.00000E+00         0.00000E+00        -0.49919E+08
 
   -0.49800E+08         0.29490E+05         0.00000E+00
    0.29490E+05        -0.97593E+08         0.00000E+00
    0.00000E+00         0.00000E+00        -0.49908E+08
 
   -0.49790E+08         0.33743E+05         0.00000E+00
    0.33743E+05        -0.97593E+08         0.00000E+00
    0.00000E+00         0.00000E+00        -0.49897E+08
 
   -0.49778E+08         0.37946E+05         0.00000E+00
    0.37946E+05        -0.97593E+08         0.00000E+00
    0.00000E+00         0.00000E+00        -0.49886E+08
 
   -0.49765E+08         0.42104E+05         0.00000E+00
    0.42104E+05        -0.97593E+08         0.00000E+00
    0.00000E+00         0.00000E+00        -0.49874E+08
 
   -0.49751E+08         0.46230E+05         0.00000E+00
    0.46230E+05        -0.97593E+08         0.00000E+00
    0.00000E+00         0.00000E+00        -0.49862E+08
 
   -0.49736E+08         0.50342E+05         0.00000E+00
    0.50342E+05        -0.97593E+08         0.00000E+00
    0.00000E+00         0.00000E+00        -0.49849E+08
 
   -0.49720E+08         0.54459E+05         0.00000E+00
    0.54459E+05        -0.97593E+08         0.00000E+00
    0.00000E+00         0.00000E+00        -0.49835E+08
 
   -0.49702E+08         0.58605E+05         0.00000E+00
    0.58605E+05        -0.97593E+08         0.00000E+00
    0.00000E+00         0.00000E+00        -0.49821E+08
 
   -0.49683E+08         0.62802E+05         0.00000E+00
    0.62802E+05        -0.97593E+08         0.00000E+00
    0.00000E+00         0.00000E+00        -0.49807E+08
 
   -0.49663E+08         0.67073E+05         0.00000E+00
    0.67073E+05        -0.97593E+08         0.00000E+00
    0.00000E+00         0.00000E+00        -0.49791E+08
 
   -0.49642E+08         0.71438E+05         0.00000E+00
    0.71438E+05        -0.97593E+08         0.00000E+00
    0.00000E+00         0.00000E+00        -0.49775E+08
 
   -0.49619E+08         0.75919E+05         0.00000E+00
    0.75919E+05        -0.97593E+08         0.00000E+00
    0.00000E+00         0.00000E+00        -0.49758E+08
 
   -0.49595E+08         0.80536E+05         0.00000E+00
    0.80536E+05        -0.97593E+08         0.00000E+00
    0.00000E+00         0.00000E+00        -0.49740E+08
 
   -0.49570E+08         0.85309E+05         0.00000E+00
    0.85309E+05        -0.97592E+08         0.00000E+00
    0.00000E+00         0.00000E+00        -0.49721E+08
 
   -0.49543E+08         0.90254E+05         0.00000E+00
    0.90254E+05        -0.97592E+08         0.00000E+00
    0.00000E+00         0.00000E+00        -0.49702E+08
 
   -0.49514E+08         0.95390E+05         0.00000E+00
    0.95390E+05        -0.97592E+08         0.00000E+00
    0.00000E+00         0.00000E+00        -0.49681E+08
 
   -0.49484E+08         0.10073E+06         0.00000E+00
    0.10073E+06        -0.97591E+08         0.00000E+00
    0.00000E+00         0.00000E+00        -0.49659E+08
 
   -0.49452E+08         0.10630E+06         0.00000E+00
    0.10630E+06        -0.97591E+08         0.00000E+00
    0.00000E+00         0.00000E+00        -0.49635E+08
 
   -0.49418E+08         0.11210E+06         0.00000E+00
    0.11210E+06        -0.97591E+08         0.00000E+00
    0.00000E+00         0.00000E+00        -0.49611E+08
 
   -0.49382E+08         0.11815E+06         0.00000E+00
    0.11815E+06        -0.97590E+08         0.00000E+00
    0.00000E+00         0.00000E+00        -0.49585E+08
 
   -0.49345E+08         0.12447E+06         0.00000E+00
    0.12447E+06        -0.97590E+08         0.00000E+00
    0.00000E+00         0.00000E+00        -0.49557E+08
 
   -0.49306E+08         0.13107E+06         0.00000E+00
    0.13107E+06        -0.97589E+08         0.00000E+00
    0.00000E+00         0.00000E+00        -0.49528E+08
 
   -0.49264E+08         0.13796E+06         0.00000E+00
    0.13796E+06        -0.97589E+08         0.00000E+00
    0.00000E+00         0.00000E+00        -0.49497E+08
 
   -0.49220E+08         0.14515E+06         0.00000E+00
    0.14515E+06        -0.97588E+08         0.00000E+00
    0.00000E+00         0.00000E+00        -0.49465E+08
 
   -0.49174E+08         0.15266E+06         0.00000E+00
    0.15266E+06        -0.97588E+08         0.00000E+00
    0.00000E+00         0.00000E+00        -0.49431E+08
 
   -0.49126E+08         0.16050E+06         0.00000E+00
    0.16050E+06        -0.97587E+08         0.00000E+00
    0.00000E+00         0.00000E+00        -0.49395E+08
 
   -0.49075E+08         0.16867E+06         0.00000E+00
    0.16867E+06        -0.97587E+08         0.00000E+00
    0.00000E+00         0.00000E+00        -0.49356E+08
 
   -0.49021E+08         0.17719E+06         0.00000E+00
    0.17719E+06        -0.97586E+08         0.00000E+00
    0.00000E+00         0.00000E+00        -0.49316E+08
 
   -0.48965E+08         0.18608E+06         0.00000E+00
    0.18608E+06        -0.97586E+08         0.00000E+00
    0.00000E+00         0.00000E+00        -0.49273E+08
 
   -0.48906E+08         0.19533E+06         0.00000E+00
    0.19533E+06        -0.97585E+08         0.00000E+00
    0.00000E+00         0.00000E+00        -0.49228E+08
 
   -0.48844E+08         0.20495E+06         0.00000E+00
    0.20495E+06        -0.97585E+08         0.00000E+00
    0.00000E+00         0.00000E+00        -0.49181E+08
 
   -0.48779E+08         0.21496E+06         0.00000E+00
    0.21496E+06        -0.97584E+08         0.00000E+00
    0.00000E+00         0.00000E+00        -0.49130E+08
 
   -0.48710E+08         0.22537E+06         0.00000E+00
    0.22537E+06        -0.97583E+08         0.00000E+00
    0.00000E+00         0.00000E+00        -0.49077E+08
 
   -0.48639E+08         0.23617E+06         0.00000E+00
    0.23617E+06        -0.97583E+08         0.00000E+00
    0.00000E+00         0.00000E+00        -0.49021E+08
 
   -0.48563E+08         0.24738E+06         0.00000E+00
    0.24738E+06        -0.97582E+08         0.00000E+00
    0.00000E+00         0.00000E+00        -0.48962E+08
 
   -0.48485E+08         0.25899E+06         0.00000E+00
    0.25899E+06        -0.97581E+08         0.00000E+00
    0.00000E+00         0.00000E+00        -0.48900E+08
 
   -0.48402E+08         0.27101E+06         0.00000E+00
    0.27101E+06        -0.97581E+08         0.00000E+00
    0.00000E+00         0.00000E+00        -0.48834E+08
 
   -0.48316E+08         0.28345E+06         0.00000E+00
    0.28345E+06        -0.97580E+08         0.00000E+00
    0.00000E+00         0.00000E+00        -0.48765E+08
 
   -0.48226E+08         0.29630E+06         0.00000E+00
    0.29630E+06        -0.97579E+08         0.00000E+00
    0.00000E+00         0.00000E+00        -0.48692E+08
 
   -0.48131E+08         0.30956E+06         0.00000E+00
    0.30956E+06        -0.97579E+08         0.00000E+00
    0.00000E+00         0.00000E+00        -0.48615E+08
 
   -0.48033E+08         0.32323E+06         0.00000E+00
    0.32323E+06        -0.97578E+08         0.00000E+00
    0.00000E+00         0.00000E+00        -0.48534E+08
 
   -0.47929E+08         0.33730E+06         0.00000E+00
    0.33730E+06        -0.97578E+08         0.00000E+00
    0.00000E+00         0.00000E+00        -0.48449E+08
 
   -0.47822E+08         0.35175E+06         0.00000E+00
    0.35175E+06        -0.97577E+08         0.00000E+00
    0.00000E+00         0.00000E+00        -0.48359E+08
 
   -0.47709E+08         0.36659E+06         0.00000E+00
    0.36659E+06        -0.97576E+08         0.00000E+00
    0.00000E+00         0.00000E+00        -0.48264E+08
 
   -0.47592E+08         0.38179E+06         0.00000E+00
    0.38179E+06        -0.97576E+08         0.00000E+00
    0.00000E+00         0.00000E+00        -0.48165E+08
 
   -0.47470E+08         0.39735E+06         0.00000E+00
    0.39735E+06        -0.97575E+08         0.00000E+00
    0.00000E+00         0.00000E+00        -0.48060E+08
 
   -0.47343E+08         0.41322E+06         0.00000E+00
    0.41322E+06        -0.97575E+08         0.00000E+00
    0.00000E+00         0.00000E+00        -0.47950E+08
 
   -0.47211E+08         0.42940E+06         0.00000E+00
    0.42940E+06        -0.97574E+08         0.00000E+00
    0.00000E+00         0.00000E+00        -0.47835E+08
 
   -0.47074E+08         0.44584E+06         0.00000E+00
    0.44584E+06        -0.97574E+08         0.00000E+00
    0.00000E+00         0.00000E+00        -0.47714E+08
 
   -0.46931E+08         0.46253E+06         0.00000E+00
    0.46253E+06        -0.97574E+08         0.00000E+00
    0.00000E+00         0.00000E+00        -0.47587E+08
 
   -0.46783E+08         0.47940E+06         0.00000E+00
    0.47940E+06        -0.97574E+08         0.00000E+00
    0.00000E+00         0.00000E+00        -0.47454E+08
 
   -0.46629E+08         0.49642E+06         0.00000E+00
    0.49642E+06        -0.97573E+08         0.00000E+00
    0.00000E+00         0.00000E+00        -0.47314E+08
 
   -0.46470E+08         0.51353E+06         0.00000E+00
    0.51353E+06        -0.97573E+08         0.00000E+00
    0.00000E+00         0.00000E+00        -0.47167E+08
 
   -0.46305E+08         0.53068E+06         0.00000E+00
    0.53068E+06        -0.97573E+08         0.00000E+00
    0.00000E+00         0.00000E+00        -0.47014E+08
 
   -0.46135E+08         0.54778E+06         0.00000E+00
    0.54778E+06        -0.97573E+08         0.00000E+00
    0.00000E+00         0.00000E+00        -0.46853E+08
 
   -0.45959E+08         0.56477E+06         0.00000E+00
    0.56477E+06        -0.97574E+08         0.00000E+00
    0.00000E+00         0.00000E+00        -0.46685E+08
 
   -0.45777E+08         0.58156E+06         0.00000E+00
    0.58156E+06        -0.97574E+08         0.00000E+00
    0.00000E+00         0.00000E+00        -0.46510E+08
 
   -0.45590E+08         0.59803E+06         0.00000E+00
    0.59803E+06        -0.97575E+08         0.00000E+00
    0.00000E+00         0.00000E+00        -0.46326E+08
 
   -0.45397E+08         0.61410E+06         0.00000E+00
    0.61410E+06        -0.97576E+08         0.00000E+00
    0.00000E+00         0.00000E+00        -0.46135E+08
 
   -0.45199E+08         0.62961E+06         0.00000E+00
    0.62961E+06        -0.97577E+08         0.00000E+00
    0.00000E+00         0.00000E+00        -0.45935E+08
 
   -0.44996E+08         0.64444E+06         0.00000E+00
    0.64444E+06        -0.97578E+08         0.00000E+00
    0.00000E+00         0.00000E+00        -0.45726E+08
 
   -0.44788E+08         0.65842E+06         0.00000E+00
    0.65842E+06        -0.97579E+08         0.00000E+00
    0.00000E+00         0.00000E+00        -0.45509E+08
 
   -0.44575E+08         0.67137E+06         0.00000E+00
    0.67137E+06        -0.97581E+08         0.00000E+00
    0.00000E+00         0.00000E+00        -0.45283E+08
 
   -0.44358E+08         0.68310E+06         0.00000E+00
    0.68310E+06        -0.97583E+08         0.00000E+00
    0.00000E+00         0.00000E+00        -0.45047E+08
 
   -0.44136E+08         0.69337E+06         0.00000E+00
    0.69337E+06        -0.97586E+08         0.00000E+00
    0.00000E+00         0.00000E+00        -0.44803E+08
 
   -0.43911E+08         0.70194E+06         0.00000E+00
    0.70194E+06        -0.97589E+08         0.00000E+00
    0.00000E+00         0.00000E+00        -0.44548E+08
 
   -0.43683E+08         0.70851E+06         0.00000E+00
    0.70851E+06        -0.97592E+08         0.00000E+00
    0.00000E+00         0.00000E+00        -0.44284E+08
 
   -0.43452E+08         0.71278E+06         0.00000E+00
    0.71278E+06        -0.97596E+08         0.00000E+00
    0.00000E+00         0.00000E+00        -0.44011E+08
 
   -0.43219E+08         0.71439E+06         0.00000E+00
    0.71439E+06        -0.97601E+08         0.00000E+00
    0.00000E+00         0.00000E+00        -0.43727E+08
 
   -0.42984E+08         0.71294E+06         0.00000E+00
    0.71294E+06        -0.97607E+08         0.00000E+00
    0.00000E+00         0.00000E+00        -0.43433E+08
 
   -0.42750E+08         0.70802E+06         0.00000E+00
    0.70802E+06        -0.97613E+08         0.00000E+00
    0.00000E+00         0.00000E+00        -0.43129E+08
 
   -0.42516E+08         0.69915E+06         0.00000E+00
    0.69915E+06        -0.97620E+08         0.00000E+00
    0.00000E+00         0.00000E+00        -0.42816E+08
 
   -0.42283E+08         0.68581E+06         0.00000E+00
    0.68581E+06        -0.97628E+08         0.00000E+00
    0.00000E+00         0.00000E+00        -0.42492E+08
 
   -0.42053E+08         0.66746E+06         0.00000E+00
    0.66746E+06        -0.97637E+08         0.00000E+00
    0.00000E+00         0.00000E+00        -0.42158E+08
 
   -0.41826E+08         0.64354E+06         0.00000E+00
    0.64354E+06        -0.97647E+08         0.00000E+00
    0.00000E+00         0.00000E+00        -0.41814E+08
 
   -0.41605E+08         0.61345E+06         0.00000E+00
    0.61345E+06        -0.97658E+08         0.00000E+00
    0.00000E+00         0.00000E+00        -0.41460E+08
 
   -0.41390E+08         0.57665E+06         0.00000E+00
    0.57665E+06        -0.97671E+08         0.00000E+00
    0.00000E+00         0.00000E+00        -0.41097E+08
 
   -0.41183E+08         0.53260E+06         0.00000E+00
    0.53260E+06        -0.97684E+08         0.00000E+00
    0.00000E+00         0.00000E+00        -0.40724E+08
 
   -0.40985E+08         0.48091E+06         0.00000E+00
    0.48091E+06        -0.97698E+08         0.00000E+00
    0.00000E+00         0.00000E+00        -0.40343E+08
 
   -0.40798E+08         0.42133E+06         0.00000E+00
    0.42133E+06        -0.97712E+08         0.00000E+00
    0.00000E+00         0.00000E+00        -0.39952E+08
 
   -0.40623E+08         0.35391E+06         0.00000E+00
    0.35391E+06        -0.97727E+08         0.00000E+00
    0.00000E+00         0.00000E+00        -0.39553E+08
 
   -0.40462E+08         0.27911E+06         0.00000E+00
    0.27911E+06        -0.97741E+08         0.00000E+00
    0.00000E+00         0.00000E+00        -0.39146E+08
 
   -0.40314E+08         0.19802E+06         0.00000E+00
    0.19802E+06        -0.97753E+08         0.00000E+00
    0.00000E+00         0.00000E+00        -0.38731E+08
 
   -0.40181E+08         0.11258E+06         0.00000E+00
    0.11258E+06        -0.97761E+08         0.00000E+00
    0.00000E+00         0.00000E+00        -0.38310E+08
 
   -0.40063E+08         0.26005E+05         0.00000E+00
    0.26005E+05        -0.97764E+08         0.00000E+00
    0.00000E+00         0.00000E+00        -0.37882E+08
 
   -0.39957E+08        -0.56683E+05         0.00000E+00
   -0.56683E+05        -0.97758E+08         0.00000E+00
    0.00000E+00         0.00000E+00        -0.37449E+08
 
   -0.39862E+08        -0.12787E+06         0.00000E+00
   -0.12787E+06        -0.97737E+08         0.00000E+00
    0.00000E+00         0.00000E+00        -0.37010E+08
 
   -0.39773E+08        -0.17628E+06         0.00000E+00
   -0.17628E+06        -0.97693E+08         0.00000E+00
    0.00000E+00         0.00000E+00        -0.36568E+08
 
   -0.39691E+08        -0.18691E+06         0.00000E+00
   -0.18691E+06        -0.97607E+08         0.00000E+00
    0.00000E+00         0.00000E+00        -0.36122E+08
 
   -0.39620E+08        -0.14621E+06         0.00000E+00
   -0.14621E+06        -0.97443E+08         0.00000E+00
    0.00000E+00         0.00000E+00        -0.35674E+08
 
   -0.39576E+08        -0.55860E+05         0.00000E+00
   -0.55860E+05        -0.97156E+08         0.00000E+00
    0.00000E+00         0.00000E+00        -0.35225E+08
 
   -0.49846E+08        -0.58771E+02         0.00000E+00
   -0.58771E+02        -0.97605E+08         0.00000E+00
    0.00000E+00         0.00000E+00        -0.49995E+08
 
   -0.49845E+08         0.30134E+03         0.00000E+00
    0.30134E+03        -0.97599E+08         0.00000E+00
    0.00000E+00         0.00000E+00        -0.49986E+08
 
   -0.49842E+08         0.17454E+04         0.00000E+00
    0.17454E+04        -0.97596E+08         0.00000E+00
    0.00000E+00         0.00000E+00        -0.49977E+08
 
   -0.49838E+08         0.42676E+04         0.00000E+00
    0.42676E+04        -0.97595E+08         0.00000E+00
    0.00000E+00         0.00000E+00        -0.49968E+08
 
   -0.49834E+08         0.75519E+04         0.00000E+00
    0.75519E+04        -0.97594E+08         0.00000E+00
    0.00000E+00         0.00000E+00        -0.49958E+08
 
   -0.49829E+08         0.11287E+05         0.00000E+00
    0.11287E+05        -0.97594E+08         0.00000E+00
    0.00000E+00         0.00000E+00        -0.49949E+08
 
   -0.49823E+08         0.15259E+05         0.00000E+00
    0.15259E+05        -0.97594E+08         0.00000E+00
    0.00000E+00         0.00000E+00        -0.49939E+08
 
   -0.49816E+08         0.19333E+05         0.00000E+00
    0.19333E+05        -0.97594E+08         0.00000E+00
    0.00000E+00         0.00000E+00        -0.49929E+08
 
   -0.49807E+08         0.23429E+05         0.00000E+00
    0.23429E+05        -0.97594E+08         0.00000E+00
    0.00000E+00         0.00000E+00        -0.49919E+08
 
   -0.49798E+08         0.27501E+05         0.00000E+00
    0.27501E+05        -0.97594E+08         0.00000E+00
    0.00000E+00         0.00000E+00        -0.49908E+08
 
   -0.49788E+08         0.31525E+05         0.00000E+00
    0.31525E+05        -0.97594E+08         0.00000E+00
    0.00000E+00         0.00000E+00        -0.49897E+08
 
   -0.49776E+08         0.35498E+05         0.00000E+00
    0.35498E+05        -0.97594E+08         0.00000E+00
    0.00000E+00         0.00000E+00        -0.49886E+08
 
   -0.49763E+08         0.39423E+05         0.00000E+00
    0.39423E+05        -0.97594E+08         0.00000E+00
    0.00000E+00         0.00000E+00        -0.49874E+08
 
   -0.49749E+08         0.43313E+05         0.00000E+00
    0.43313E+05        -0.97594E+08         0.00000E+00
    0.00000E+00         0.00000E+00        -0.49862E+08
 
   -0.49734E+08         0.47186E+05         0.00000E+00
    0.47186E+05        -0.97594E+08         0.00000E+00
    0.00000E+00         0.00000E+00        -0.49849E+08
 
   -0.49718E+08         0.51062E+05         0.00000E+00
    0.51062E+05        -0.97594E+08         0.00000E+00
    0.00000E+00         0.00000E+00        -0.49835E+08
 
   -0.49700E+08         0.54961E+05         0.00000E+00
    0.54961E+05        -0.97594E+08         0.00000E+00
    0.00000E+00         0.00000E+00        -0.49821E+08
 
   -0.49681E+08         0.58905E+05         0.00000E+00
    0.58905E+05        -0.97594E+08         0.00000E+00
    0.00000E+00         0.00000E+00        -0.49807E+08
 
   -0.49661E+08         0.62917E+05         0.00000E+00
    0.62917E+05        -0.97594E+08         0.00000E+00
    0.00000E+00         0.00000E+00        -0.49791E+08
 
   -0.49639E+08         0.67015E+05         0.00000E+00
    0.67015E+05        -0.97594E+08         0.00000E+00
    0.00000E+00         0.00000E+00        -0.49775E+08
 
   -0.49616E+08         0.71222E+05         0.00000E+00
    0.71222E+05        -0.97594E+08         0.00000E+00
    0.00000E+00         0.00000E+00        -0.49758E+08
 
   -0.49592E+08         0.75555E+05         0.00000E+00
    0.75555E+05        -0.97594E+08         0.00000E+00
    0.00000E+00         0.00000E+00        -0.49740E+08
 
   -0.49566E+08         0.80032E+05         0.00000E+00
    0.80032E+05        -0.97593E+08         0.00000E+00
    0.00000E+00         0.00000E+00        -0.49721E+08
 
   -0.49539E+08         0.84671E+05         0.00000E+00
    0.84671E+05        -0.97593E+08         0.00000E+00
    0.00000E+00         0.00000E+00        -0.49702E+08
 
   -0.49510E+08         0.89489E+05         0.00000E+00
    0.89489E+05        -0.97593E+08         0.00000E+00
    0.00000E+00         0.00000E+00        -0.49681E+08
 
   -0.49480E+08         0.94499E+05         0.00000E+00
    0.94499E+05        -0.97592E+08         0.00000E+00
    0.00000E+00         0.00000E+00        -0.49659E+08
 
   -0.49448E+08         0.99718E+05         0.00000E+00
    0.99718E+05        -0.97592E+08         0.00000E+00
    0.00000E+00         0.00000E+00        -0.49635E+08
 
   -0.49414E+08         0.10516E+06         0.00000E+00
    0.10516E+06        -0.97592E+08         0.00000E+00
    0.00000E+00         0.00000E+00        -0.49611E+08
 
   -0.49378E+08         0.11084E+06         0.00000E+00
    0.11084E+06        -0.97591E+08         0.00000E+00
    0.00000E+00         0.00000E+00        -0.49585E+08
 
   -0.49341E+08         0.11676E+06         0.00000E+00
    0.11676E+06        -0.97591E+08         0.00000E+00
    0.00000E+00         0.00000E+00        -0.49557E+08
 
   -0.49301E+08         0.12295E+06         0.00000E+00
    0.12295E+06        -0.97591E+08         0.00000E+00
    0.00000E+00         0.00000E+00        -0.49528E+08
 
   -0.49259E+08         0.12941E+06         0.00000E+00
    0.12941E+06        -0.97590E+08         0.00000E+00
    0.00000E+00         0.00000E+00        -0.49497E+08
 
   -0.49215E+08         0.13615E+06         0.00000E+00
    0.13615E+06        -0.97590E+08         0.00000E+00
    0.00000E+00         0.00000E+00        -0.49465E+08
 
   -0.49169E+08         0.14319E+06         0.00000E+00
    0.14319E+06        -0.97589E+08         0.00000E+00
    0.00000E+00         0.00000E+00        -0.49431E+08
 
   -0.49120E+08         0.15053E+06         0.00000E+00
    0.15053E+06        -0.97589E+08         0.00000E+00
    0.00000E+00         0.00000E+00        -0.49395E+08
 
   -0.49069E+08         0.15820E+06         0.00000E+00
    0.15820E+06        -0.97588E+08         0.00000E+00
    0.00000E+00         0.00000E+00        -0.49356E+08
 
   -0.49015E+08         0.16619E+06         0.00000E+00
    0.16619E+06        -0.97588E+08         0.00000E+00
    0.00000E+00         0.00000E+00        -0.49316E+08
 
   -0.48958E+08         0.17451E+06         0.00000E+00
    0.17451E+06        -0.97587E+08         0.00000E+00
    0.00000E+00         0.00000E+00        -0.49273E+08
 
   -0.48899E+08         0.18318E+06         0.00000E+00
    0.18318E+06        -0.97587E+08         0.00000E+00
    0.00000E+00         0.00000E+00        -0.49228E+08
 
   -0.48836E+08         0.19220E+06         0.00000E+00
    0.19220E+06        -0.97586E+08         0.00000E+00
    0.00000E+00         0.00000E+00        -0.49181E+08
 
   -0.48771E+08         0.20158E+06         0.00000E+00
    0.20158E+06        -0.97586E+08         0.00000E+00
    0.00000E+00         0.00000E+00        -0.49130E+08
 
   -0.48702E+08         0.21133E+06         0.00000E+00
    0.21133E+06        -0.97585E+08         0.00000E+00
    0.00000E+00         0.00000E+00        -0.49077E+08
 
   -0.48630E+08         0.22145E+06         0.00000E+00
    0.22145E+06        -0.97585E+08         0.00000E+00
    0.00000E+00         0.00000E+00        -0.49021E+08
 
   -0.48555E+08         0.23195E+06         0.00000E+00
    0.23195E+06        -0.97584E+08         0.00000E+00
    0.00000E+00         0.00000E+00        -0.48962E+08
 
   -0.48475E+08         0.24284E+06         0.00000E+00
    0.24284E+06        -0.97584E+08         0.00000E+00
    0.00000E+00         0.00000E+00        -0.48900E+08
 
   -0.48393E+08         0.25410E+06         0.00000E+00
    0.25410E+06        -0.97583E+08         0.00000E+00
    0.00000E+00         0.00000E+00        -0.48834E+08
 
   -0.48306E+08         0.26575E+06         0.00000E+00
    0.26575E+06        -0.97583E+08         0.00000E+00
    0.00000E+00         0.00000E+00        -0.48765E+08
 
   -0.48215E+08         0.27779E+06         0.00000E+00
    0.27779E+06        -0.97582E+08         0.00000E+00
    0.00000E+00         0.00000E+00        -0.48692E+08
 
   -0.48120E+08         0.29021E+06         0.00000E+00
    0.29021E+06        -0.97581E+08         0.00000E+00
    0.00000E+00         0.00000E+00        -0.48615E+08
 
   -0.48021E+08         0.30301E+06         0.00000E+00
    0.30301E+06        -0.97581E+08         0.00000E+00
    0.00000E+00         0.00000E+00        -0.48534E+08
 
   -0.47918E+08         0.31618E+06         0.00000E+00
    0.31618E+06        -0.97580E+08         0.00000E+00
    0.00000E+00         0.00000E+00        -0.48449E+08
 
   -0.47809E+08         0.32972E+06         0.00000E+00
    0.32972E+06        -0.97580E+08         0.00000E+00
    0.00000E+00         0.00000E+00        -0.48359E+08
 
   -0.47697E+08         0.34361E+06         0.00000E+00
    0.34361E+06        -0.97579E+08         0.00000E+00
    0.00000E+00         0.00000E+00        -0.48264E+08
 
   -0.47579E+08         0.35784E+06         0.00000E+00
    0.35784E+06        -0.97579E+08         0.00000E+00
    0.00000E+00         0.00000E+00        -0.48165E+08
 
   -0.47457E+08         0.37240E+06         0.00000E+00
    0.37240E+06        -0.97578E+08         0.00000E+00
    0.00000E+00         0.00000E+00        -0.48060E+08
 
   -0.47329E+08         0.38726E+06         0.00000E+00
    0.38726E+06        -0.97578E+08         0.00000E+00
    0.00000E+00         0.00000E+00        -0.47950E+08
 
   -0.47196E+08         0.40240E+06         0.00000E+00
    0.40240E+06        -0.97578E+08         0.00000E+00
    0.00000E+00         0.00000E+00        -0.47835E+08
 
   -0.47059E+08         0.41778E+06         0.00000E+00
    0.41778E+06        -0.97577E+08         0.00000E+00
    0.00000E+00         0.00000E+00        -0.47714E+08
 
   -0.46915E+08         0.43339E+06         0.00000E+00
    0.43339E+06        -0.97577E+08         0.00000E+00
    0.00000E+00         0.00000E+00        -0.47587E+08
 
   -0.46767E+08         0.44917E+06         0.00000E+00
    0.44917E+06        -0.97577E+08         0.00000E+00
    0.00000E+00         0.00000E+00        -0.47454E+08
 
   -0.46613E+08         0.46509E+06         0.00000E+00
    0.46509E+06        -0.97577E+08         0.00000E+00
    0.00000E+00         0.00000E+00        -0.47314E+08
 
   -0.46453E+08         0.48109E+06         0.00000E+00
    0.48109E+06        -0.97577E+08         0.00000E+00
    0.00000E+00         0.00000E+00        -0.47167E+08
 
   -0.46288E+08         0.49711E+06         0.00000E+00
    0.49711E+06        -0.97577E+08         0.00000E+00
    0.00000E+00         0.00000E+00        -0.47014E+08
 
   -0.46117E+08         0.51310E+06         0.00000E+00
    0.51310E+06        -0.97577E+08         0.00000E+00
    0.00000E+00         0.00000E+00        -0.46853E+08
 
   -0.45940E+08         0.52897E+06         0.00000E+00
    0.52897E+06        -0.97577E+08         0.00000E+00
    0.00000E+00         0.00000E+00        -0.46685E+08
 
   -0.45758E+08         0.54464E+06         0.00000E+00
    0.54464E+06        -0.97577E+08         0.00000E+00
    0.00000E+00         0.00000E+00        -0.46510E+08
 
   -0.45571E+08         0.56002E+06         0.00000E+00
    0.56002E+06        -0.97578E+08         0.00000E+00
    0.00000E+00         0.00000E+00        -0.46326E+08
 
   -0.45378E+08         0.57501E+06         0.00000E+00
    0.57501E+06        -0.97579E+08         0.00000E+00
    0.00000E+00         0.00000E+00        -0.46135E+08
 
   -0.45180E+08         0.58947E+06         0.00000E+00
    0.58947E+06        -0.97579E+08         0.00000E+00
    0.00000E+00         0.00000E+00        -0.45935E+08
 
   -0.44977E+08         0.60329E+06         0.00000E+00
    0.60329E+06        -0.97581E+08         0.00000E+00
    0.00000E+00         0.00000E+00        -0.45726E+08
 
   -0.44768E+08         0.61630E+06         0.00000E+00
    0.61630E+06        -0.97582E+08         0.00000E+00
    0.00000E+00         0.00000E+00        -0.45509E+08
 
   -0.44555E+08         0.62834E+06         0.00000E+00
    0.62834E+06        -0.97584E+08         0.00000E+00
    0.00000E+00         0.00000E+00        -0.45283E+08
 
   -0.44338E+08         0.63922E+06         0.00000E+00
    0.63922E+06        -0.97585E+08         0.00000E+00
    0.00000E+00         0.00000E+00        -0.45047E+08
 
   -0.44117E+08         0.64872E+06         0.00000E+00
    0.64872E+06        -0.97588E+08         0.00000E+00
    0.00000E+00         0.00000E+00        -0.44803E+08
 
   -0.43892E+08         0.65661E+06         0.00000E+00
    0.65661E+06        -0.97590E+08         0.00000E+00
    0.00000E+00         0.00000E+00        -0.44548E+08
 
   -0.43664E+08         0.66261E+06         0.00000E+00
    0.66261E+06        -0.97593E+08         0.00000E+00
    0.00000E+00         0.00000E+00        -0.44284E+08
 
   -0.43433E+08         0.66643E+06         0.00000E+00
    0.66643E+06        -0.97597E+08         0.00000E+00
    0.00000E+00         0.00000E+00        -0.44011E+08
 
   -0.43201E+08         0.66772E+06         0.00000E+00
    0.66772E+06        -0.97601E+08         0.00000E+00
    0.00000E+00         0.00000E+00        -0.43727E+08
 
   -0.42968E+08         0.66612E+06         0.00000E+00
    0.66612E+06        -0.97606E+08         0.00000E+00
    0.00000E+00         0.00000E+00        -0.43433E+08
 
   -0.42734E+08         0.66122E+06         0.00000E+00
    0.66122E+06        -0.97611E+08         0.00000E+00
    0.00000E+00         0.00000E+00        -0.43129E+08
 
   -0.42501E+08         0.65256E+06         0.00000E+00
    0.65256E+06        -0.97618E+08         0.00000E+00
    0.00000E+00         0.00000E+00        -0.42816E+08
 
   -0.42270E+08         0.63966E+06         0.00000E+00
    0.63966E+06        -0.97625E+08         0.00000E+00
    0.00000E+00         0.00000E+00        -0.42492E+08
 
   -0.42042E+08         0.62198E+06         0.00000E+00
    0.62198E+06        -0.97633E+08         0.00000E+00
    0.00000E+00         0.00000E+00        -0.42158E+08
 
   -0.41818E+08         0.59899E+06         0.00000E+00
    0.59899E+06        -0.97642E+08         0.00000E+00
    0.00000E+00         0.00000E+00        -0.41814E+08
 
   -0.41600E+08         0.57010E+06         0.00000E+00
    0.57010E+06        -0.97652E+08         0.00000E+00
    0.00000E+00         0.00000E+00        -0.41460E+08
 
   -0.41388E+08         0.53479E+06         0.00000E+00
    0.53479E+06        -0.97663E+08         0.00000E+00
    0.00000E+00         0.00000E+00        -0.41097E+08
 
   -0.41186E+08         0.49253E+06         0.00000E+00
    0.49253E+06        -0.97674E+08         0.00000E+00
    0.00000E+00         0.00000E+00        -0.40724E+08
 
   -0.40993E+08         0.44293E+06         0.00000E+00
    0.44293E+06        -0.97687E+08         0.00000E+00
    0.00000E+00         0.00000E+00        -0.40343E+08
 
   -0.40812E+08         0.38573E+06         0.00000E+00
    0.38573E+06        -0.97700E+08         0.00000E+00
    0.00000E+00         0.00000E+00        -0.39952E+08
 
   -0.40644E+08         0.32096E+06         0.00000E+00
    0.32096E+06        -0.97713E+08         0.00000E+00
    0.00000E+00         0.00000E+00        -0.39553E+08
 
   -0.40490E+08         0.24903E+06         0.00000E+00
    0.24903E+06        -0.97725E+08         0.00000E+00
    0.00000E+00         0.00000E+00        -0.39146E+08
 
   -0.40352E+08         0.17095E+06         0.00000E+00
    0.17095E+06        -0.97736E+08         0.00000E+00
    0.00000E+00         0.00000E+00        -0.38731E+08
 
   -0.40229E+08         0.88529E+05         0.00000E+00
    0.88529E+05        -0.97744E+08         0.00000E+00
    0.00000E+00         0.00000E+00        -0.38310E+08
 
   -0.40122E+08         0.48009E+04         0.00000E+00
    0.48009E+04        -0.97747E+08         0.00000E+00
    0.00000E+00         0.00000E+00        -0.37882E+08
 
   -0.40029E+08        -0.75483E+05         0.00000E+00
   -0.75483E+05        -0.97742E+08         0.00000E+00
    0.00000E+00         0.00000E+00        -0.37449E+08
 
   -0.39946E+08        -0.14500E+06         0.00000E+00
   -0.14500E+06        -0.97725E+08         0.00000E+00
    0.00000E+00         0.00000E+00        -0.37010E+08
 
   -0.39870E+08        -0.19256E+06         0.00000E+00
   -0.19256E+06        -0.97687E+08         0.00000E+00
    0.00000E+00         0.00000E+00        -0.36568E+08
 
   -0.39796E+08        -0.20233E+06         0.00000E+00
   -0.20233E+06        -0.97609E+08         0.00000E+00
    0.00000E+00         0.00000E+00        -0.36122E+08
 
   -0.39731E+08        -0.15848E+06         0.00000E+00
   -0.15848E+06        -0.97458E+08         0.00000E+00
    0.00000E+00         0.00000E+00        -0.35674E+08
 
   -0.39689E+08        -0.60735E+05         0.00000E+00
   -0.60735E+05        -0.97178E+08         0.00000E+00
    0.00000E+00         0.00000E+00        -0.35225E+08
 
   -0.49843E+08        -0.22375E+03         0.00000E+00
   -0.22375E+03        -0.97605E+08         0.00000E+00
    0.00000E+00         0.00000E+00        -0.49995E+08
 
   -0.49841E+08        -0.13903E+03         0.00000E+00
   -0.13903E+03        -0.97599E+08         0.00000E+00
    0.00000E+00         0.00000E+00        -0.49986E+08
 
   -0.49839E+08         0.11218E+04         0.00000E+00
    0.11218E+04        -0.97597E+08         0.00000E+00
    0.00000E+00         0.00000E+00        -0.49977E+08
 
   -0.49835E+08         0.35006E+04         0.00000E+00
    0.35006E+04        -0.97595E+08         0.00000E+00
    0.00000E+00         0.00000E+00        -0.49968E+08
 
   -0.49831E+08         0.66299E+04         0.00000E+00
    0.66299E+04        -0.97595E+08         0.00000E+00
    0.00000E+00         0.00000E+00        -0.49958E+08
 
   -0.49826E+08         0.10184E+05         0.00000E+00
    0.10184E+05        -0.97594E+08         0.00000E+00
    0.00000E+00         0.00000E+00        -0.49949E+08
 
   -0.49820E+08         0.13954E+05         0.00000E+00
    0.13954E+05        -0.97594E+08         0.00000E+00
    0.00000E+00         0.00000E+00        -0.49939E+08
 
   -0.49813E+08         0.17812E+05         0.00000E+00
    0.17812E+05        -0.97594E+08         0.00000E+00
    0.00000E+00         0.00000E+00        -0.49929E+08
 
   -0.49805E+08         0.21683E+05         0.00000E+00
    0.21683E+05        -0.97594E+08         0.00000E+00
    0.00000E+00         0.00000E+00        -0.49919E+08
 
   -0.49796E+08         0.25524E+05         0.00000E+00
    0.25524E+05        -0.97595E+08         0.00000E+00
    0.00000E+00         0.00000E+00        -0.49908E+08
 
   -0.49786E+08         0.29315E+05         0.00000E+00
    0.29315E+05        -0.97595E+08         0.00000E+00
    0.00000E+00         0.00000E+00        -0.49897E+08
 
   -0.49774E+08         0.33051E+05         0.00000E+00
    0.33051E+05        -0.97595E+08         0.00000E+00
    0.00000E+00         0.00000E+00        -0.49886E+08
 
   -0.49761E+08         0.36738E+05         0.00000E+00
    0.36738E+05        -0.97595E+08         0.00000E+00
    0.00000E+00         0.00000E+00        -0.49874E+08
 
   -0.49747E+08         0.40389E+05         0.00000E+00
    0.40389E+05        -0.97595E+08         0.00000E+00
    0.00000E+00         0.00000E+00        -0.49862E+08
 
   -0.49732E+08         0.44019E+05         0.00000E+00
    0.44019E+05        -0.97595E+08         0.00000E+00
    0.00000E+00         0.00000E+00        -0.49849E+08
 
   -0.49715E+08         0.47649E+05         0.00000E+00
    0.47649E+05        -0.97595E+08         0.00000E+00
    0.00000E+00         0.00000E+00        -0.49835E+08
 
   -0.49698E+08         0.51298E+05         0.00000E+00
    0.51298E+05        -0.97595E+08         0.00000E+00
    0.00000E+00         0.00000E+00        -0.49821E+08
 
   -0.49679E+08         0.54987E+05         0.00000E+00
    0.54987E+05        -0.97595E+08         0.00000E+00
    0.00000E+00         0.00000E+00        -0.49807E+08
 
   -0.49658E+08         0.58737E+05         0.00000E+00
    0.58737E+05        -0.97595E+08         0.00000E+00
    0.00000E+00         0.00000E+00        -0.49791E+08
 
   -0.49637E+08         0.62567E+05         0.00000E+00
    0.62567E+05        -0.97595E+08         0.00000E+00
    0.00000E+00         0.00000E+00        -0.49775E+08
 
   -0.49614E+08         0.66496E+05         0.00000E+00
    0.66496E+05        -0.97595E+08         0.00000E+00
    0.00000E+00         0.00000E+00        -0.49758E+08
 
   -0.49589E+08         0.70542E+05         0.00000E+00
    0.70542E+05        -0.97594E+08         0.00000E+00
    0.00000E+00         0.00000E+00        -0.49740E+08
 
   -0.49563E+08         0.74723E+05         0.00000E+00
    0.74723E+05        -0.97594E+08         0.00000E+00
    0.00000E+00         0.00000E+00        -0.49721E+08
 
   -0.49536E+08         0.79054E+05         0.00000E+00
    0.79054E+05        -0.97594E+08         0.00000E+00
    0.00000E+00         0.00000E+00        -0.49702E+08
 
   -0.49507E+08         0.83551E+05         0.00000E+00
    0.83551E+05        -0.97594E+08         0.00000E+00
    0.00000E+00         0.00000E+00        -0.49681E+08
 
   -0.49476E+08         0.88227E+05         0.00000E+00
    0.88227E+05        -0.97593E+08         0.00000E+00
    0.00000E+00         0.00000E+00        -0.49659E+08
 
   -0.49444E+08         0.93098E+05         0.00000E+00
    0.93098E+05        -0.97593E+08         0.00000E+00
    0.00000E+00         0.00000E+00        -0.49635E+08
 
   -0.49410E+08         0.98176E+05         0.00000E+00
    0.98176E+05        -0.97593E+08         0.00000E+00
    0.00000E+00         0.00000E+00        -0.49611E+08
 
   -0.49374E+08         0.10347E+06         0.00000E+00
    0.10347E+06        -0.97593E+08         0.00000E+00
    0.00000E+00         0.00000E+00        -0.49585E+08
 
   -0.49336E+08         0.10900E+06         0.00000E+00
    0.10900E+06        -0.97592E+08         0.00000E+00
    0.00000E+00         0.00000E+00        -0.49557E+08
 
   -0.49296E+08         0.11477E+06         0.00000E+00
    0.11477E+06        -0.97592E+08         0.00000E+00
    0.00000E+00         0.00000E+00        -0.49528E+08
 
   -0.49254E+08         0.12080E+06         0.00000E+00
    0.12080E+06        -0.97592E+08         0.00000E+00
    0.00000E+00         0.00000E+00        -0.49497E+08
 
   -0.49210E+08         0.12709E+06         0.00000E+00
    0.12709E+06        -0.97591E+08         0.00000E+00
    0.00000E+00         0.00000E+00        -0.49465E+08
 
   -0.49163E+08         0.13366E+06         0.00000E+00
    0.13366E+06        -0.97591E+08         0.00000E+00
    0.00000E+00         0.00000E+00        -0.49431E+08
 
   -0.49114E+08         0.14051E+06         0.00000E+00
    0.14051E+06        -0.97590E+08         0.00000E+00
    0.00000E+00         0.00000E+00        -0.49395E+08
 
   -0.49063E+08         0.14766E+06         0.00000E+00
    0.14766E+06        -0.97590E+08         0.00000E+00
    0.00000E+00         0.00000E+00        -0.49356E+08
 
   -0.49008E+08         0.15511E+06         0.00000E+00
    0.15511E+06        -0.97590E+08         0.00000E+00
    0.00000E+00         0.00000E+00        -0.49316E+08
 
   -0.48952E+08         0.16288E+06         0.00000E+00
    0.16288E+06        -0.97589E+08         0.00000E+00
    0.00000E+00         0.00000E+00        -0.49273E+08
 
   -0.48892E+08         0.17097E+06         0.00000E+00
    0.17097E+06        -0.97589E+08         0.00000E+00
    0.00000E+00         0.00000E+00        -0.49228E+08
 
   -0.48829E+08         0.17938E+06         0.00000E+00
    0.17938E+06        -0.97588E+08         0.00000E+00
    0.00000E+00         0.00000E+00        -0.49181E+08
 
   -0.48763E+08         0.18813E+06         0.00000E+00
    0.18813E+06        -0.97588E+08         0.00000E+00
    0.00000E+00         0.00000E+00        -0.49130E+08
 
   -0.48694E+08         0.19723E+06         0.00000E+00
    0.19723E+06        -0.97587E+08         0.00000E+00
    0.00000E+00         0.00000E+00        -0.49077E+08
 
   -0.48622E+08         0.20666E+06         0.00000E+00
    0.20666E+06        -0.97587E+08         0.00000E+00
    0.00000E+00         0.00000E+00        -0.49021E+08
 
   -0.48546E+08         0.21646E+06         0.00000E+00
    0.21646E+06        -0.97586E+08         0.00000E+00
    0.00000E+00         0.00000E+00        -0.48962E+08
 
   -0.48466E+08         0.22660E+06         0.00000E+00
    0.22660E+06        -0.97586E+08         0.00000E+00
    0.00000E+00         0.00000E+00        -0.48900E+08
 
   -0.48383E+08         0.23711E+06         0.00000E+00
    0.23711E+06        -0.97585E+08         0.00000E+00
    0.00000E+00         0.00000E+00        -0.48834E+08
 
   -0.48296E+08         0.24797E+06         0.00000E+00
    0.24797E+06        -0.97585E+08         0.00000E+00
    0.00000E+00         0.00000E+00        -0.48765E+08
 
   -0.48205E+08         0.25919E+06         0.00000E+00
    0.25919E+06        -0.97584E+08         0.00000E+00
    0.00000E+00         0.00000E+00        -0.48692E+08
 
   -0.48109E+08         0.27077E+06         0.00000E+00
    0.27077E+06        -0.97584E+08         0.00000E+00
    0.00000E+00         0.00000E+00        -0.48615E+08
 
   -0.48010E+08         0.28270E+06         0.00000E+00
    0.28270E+06        -0.97583E+08         0.00000E+00
    0.00000E+00         0.00000E+00        -0.48534E+08
 
   -0.47906E+08         0.29498E+06         0.00000E+00
    0.29498E+06        -0.97583E+08         0.00000E+00
    0.00000E+00         0.00000E+00        -0.48449E+08
 
   -0.47797E+08         0.30759E+06         0.00000E+00
    0.30759E+06        -0.97583E+08         0.00000E+00
    0.00000E+00         0.00000E+00        -0.48359E+08
 
   -0.47684E+08         0.32054E+06         0.00000E+00
    0.32054E+06        -0.97582E+08         0.00000E+00
    0.00000E+00         0.00000E+00        -0.48264E+08
 
   -0.47566E+08         0.33380E+06         0.00000E+00
    0.33380E+06        -0.97582E+08         0.00000E+00
    0.00000E+00         0.00000E+00        -0.48165E+08
 
   -0.47443E+08         0.34736E+06         0.00000E+00
    0.34736E+06        -0.97581E+08         0.00000E+00
    0.00000E+00         0.00000E+00        -0.48060E+08
 
   -0.47315E+08         0.36120E+06         0.00000E+00
    0.36120E+06        -0.97581E+08         0.00000E+00
    0.00000E+00         0.00000E+00        -0.47950E+08
 
   -0.47182E+08         0.37530E+06         0.00000E+00
    0.37530E+06        -0.97581E+08         0.00000E+00
    0.00000E+00         0.00000E+00        -0.47835E+08
 
   -0.47044E+08         0.38963E+06         0.00000E+00
    0.38963E+06        -0.97580E+08         0.00000E+00
    0.00000E+00         0.00000E+00        -0.47714E+08
 
   -0.46900E+08         0.40416E+06         0.00000E+00
    0.40416E+06        -0.97580E+08         0.00000E+00
    0.00000E+00         0.00000E+00        -0.47587E+08
 
   -0.46751E+08         0.41885E+06         0.00000E+00
    0.41885E+06        -0.97580E+08         0.00000E+00
    0.00000E+00         0.00000E+00        -0.47454E+08
 
   -0.46596E+08         0.43367E+06         0.00000E+00
    0.43367E+06        -0.97580E+08         0.00000E+00
    0.00000E+00         0.00000E+00        -0.47314E+08
 
   -0.46436E+08         0.44856E+06         0.00000E+00
    0.44856E+06        -0.97580E+08         0.00000E+00
    0.00000E+00         0.00000E+00        -0.47167E+08
 
   -0.46270E+08         0.46346E+06         0.00000E+00
    0.46346E+06        -0.97580E+08         0.00000E+00
    0.00000E+00         0.00000E+00        -0.47014E+08
 
   -0.46099E+08         0.47833E+06         0.00000E+00
    0.47833E+06        -0.97580E+08         0.00000E+00
    0.00000E+00         0.00000E+00        -0.46853E+08
 
   -0.45922E+08         0.49309E+06         0.00000E+00
    0.49309E+06        -0.97580E+08         0.00000E+00
    0.00000E+00         0.00000E+00        -0.46685E+08
 
   -0.45740E+08         0.50766E+06         0.00000E+00
    0.50766E+06        -0.97580E+08         0.00000E+00
    0.00000E+00         0.00000E+00        -0.46510E+08
 
   -0.45552E+08         0.52195E+06         0.00000E+00
    0.52195E+06        -0.97581E+08         0.00000E+00
    0.00000E+00         0.00000E+00        -0.46326E+08
 
   -0.45359E+08         0.53587E+06         0.00000E+00
    0.53587E+06        -0.97581E+08         0.00000E+00
    0.00000E+00         0.00000E+00        -0.46135E+08
 
   -0.45161E+08         0.54929E+06         0.00000E+00
    0.54929E+06        -0.97582E+08         0.00000E+00
    0.00000E+00         0.00000E+00        -0.45935E+08
 
   -0.44957E+08         0.56210E+06         0.00000E+00
    0.56210E+06        -0.97583E+08         0.00000E+00
    0.00000E+00         0.00000E+00        -0.45726E+08
 
   -0.44749E+08         0.57416E+06         0.00000E+00
    0.57416E+06        -0.97584E+08         0.00000E+00
    0.00000E+00         0.00000E+00        -0.45509E+08
 
   -0.44536E+08         0.58530E+06         0.00000E+00
    0.58530E+06        -0.97586E+08         0.00000E+00
    0.00000E+00         0.00000E+00        -0.45283E+08
 
   -0.44318E+08         0.59535E+06         0.00000E+00
    0.59535E+06        -0.97587E+08         0.00000E+00
    0.00000E+00         0.00000E+00        -0.45047E+08
 
   -0.44097E+08         0.60410E+06         0.00000E+00
    0.60410E+06        -0.97589E+08         0.00000E+00
    0.00000E+00         0.00000E+00        -0.44803E+08
 
   -0.43872E+08         0.61133E+06         0.00000E+00
    0.61133E+06        -0.97592E+08         0.00000E+00
    0.00000E+00         0.00000E+00        -0.44548E+08
 
   -0.43645E+08         0.61679E+06         0.00000E+00
    0.61679E+06        -0.97594E+08         0.00000E+00
    0.00000E+00         0.00000E+00        -0.44284E+08
 
   -0.43415E+08         0.62019E+06         0.00000E+00
    0.62019E+06        -0.97598E+08         0.00000E+00
    0.00000E+00         0.00000E+00        -0.44011E+08
 
   -0.43183E+08         0.62120E+06         0.00000E+00
    0.62120E+06        -0.97601E+08         0.00000E+00
    0.00000E+00         0.00000E+00        -0.43727E+08
 
   -0.42951E+08         0.61949E+06         0.00000E+00
    0.61949E+06        -0.97605E+08         0.00000E+00
    0.00000E+00         0.00000E+00        -0.43433E+08
 
   -0.42718E+08         0.61466E+06         0.00000E+00
    0.61466E+06        -0.97610E+08         0.00000E+00
    0.00000E+00         0.00000E+00        -0.43129E+08
 
   -0.42487E+08         0.60628E+06         0.00000E+00
    0.60628E+06        -0.97616E+08         0.00000E+00
    0.00000E+00         0.00000E+00        -0.42816E+08
 
   -0.42257E+08         0.59387E+06         0.00000E+00
    0.59387E+06        -0.97622E+08         0.00000E+00
    0.00000E+00         0.00000E+00        -0.42492E+08
 
   -0.42031E+08         0.57695E+06         0.00000E+00
    0.57695E+06        -0.97629E+08         0.00000E+00
    0.00000E+00         0.00000E+00        -0.42158E+08
 
   -0.41809E+08         0.55497E+06         0.00000E+00
    0.55497E+06        -0.97637E+08         0.00000E+00
    0.00000E+00         0.00000E+00        -0.41814E+08
 
   -0.41594E+08         0.52740E+06         0.00000E+00
    0.52740E+06        -0.97645E+08         0.00000E+00
    0.00000E+00         0.00000E+00        -0.41460E+08
 
   -0.41386E+08         0.49370E+06         0.00000E+00
    0.49370E+06        -0.97655E+08         0.00000E+00
    0.00000E+00         0.00000E+00        -0.41097E+08
 
   -0.41187E+08         0.45337E+06         0.00000E+00
    0.45337E+06        -0.97665E+08         0.00000E+00
    0.00000E+00         0.00000E+00        -0.40724E+08
 
   -0.40999E+08         0.40602E+06         0.00000E+00
    0.40602E+06        -0.97677E+08         0.00000E+00
    0.00000E+00         0.00000E+00        -0.40343E+08
 
   -0.40824E+08         0.35140E+06         0.00000E+00
    0.35140E+06        -0.97688E+08         0.00000E+00
    0.00000E+00         0.00000E+00        -0.39952E+08
 
   -0.40663E+08         0.28949E+06         0.00000E+00
    0.28949E+06        -0.97700E+08         0.00000E+00
    0.00000E+00         0.00000E+00        -0.39553E+08
 
   -0.40517E+08         0.22066E+06         0.00000E+00
    0.22066E+06        -0.97711E+08         0.00000E+00
    0.00000E+00         0.00000E+00        -0.39146E+08
 
   -0.40388E+08         0.14582E+06         0.00000E+00
    0.14582E+06        -0.97720E+08         0.00000E+00
    0.00000E+00         0.00000E+00        -0.38731E+08
 
   -0.40276E+08         0.66669E+05         0.00000E+00
    0.66669E+05        -0.97728E+08         0.00000E+00
    0.00000E+00         0.00000E+00        -0.38310E+08
 
   -0.40181E+08        -0.13993E+05         0.00000E+00
   -0.13993E+05        -0.97730E+08         0.00000E+00
    0.00000E+00         0.00000E+00        -0.37882E+08
 
   -0.40100E+08        -0.91709E+05         0.00000E+00
   -0.91709E+05        -0.97727E+08         0.00000E+00
    0.00000E+00         0.00000E+00        -0.37449E+08
 
   -0.40030E+08        -0.15953E+06         0.00000E+00
   -0.15953E+06        -0.97713E+08         0.00000E+00
    0.00000E+00         0.00000E+00        -0.37010E+08
 
   -0.39967E+08        -0.20652E+06         0.00000E+00
   -0.20652E+06        -0.97680E+08         0.00000E+00
    0.00000E+00         0.00000E+00        -0.36568E+08
 
   -0.39904E+08        -0.21615E+06         0.00000E+00
   -0.21615E+06        -0.97612E+08         0.00000E+00
    0.00000E+00         0.00000E+00        -0.36122E+08
 
   -0.39845E+08        -0.17009E+06         0.00000E+00
   -0.17009E+06        -0.97473E+08         0.00000E+00
    0.00000E+00         0.00000E+00        -0.35674E+08
 
   -0.39805E+08        -0.65511E+05         0.00000E+00
   -0.65511E+05        -0.97203E+08         0.00000E+00
    0.00000E+00         0.00000E+00        -0.35225E+08
 
   -0.49839E+08        -0.38793E+03         0.00000E+00
   -0.38793E+03        -0.97605E+08         0.00000E+00
    0.00000E+00         0.00000E+00        -0.49995E+08
 
   -0.49838E+08        -0.56805E+03         0.00000E+00
   -0.56805E+03        -0.97600E+08         0.00000E+00
    0.00000E+00         0.00000E+00        -0.49986E+08
 
   -0.49836E+08         0.52815E+03         0.00000E+00
    0.52815E+03        -0.97597E+08         0.00000E+00
    0.00000E+00         0.00000E+00        -0.49977E+08
 
   -0.49832E+08         0.27755E+04         0.00000E+00
    0.27755E+04        -0.97596E+08         0.00000E+00
    0.00000E+00         0.00000E+00        -0.49968E+08
 
   -0.49828E+08         0.57515E+04         0.00000E+00
    0.57515E+04        -0.97595E+08         0.00000E+00
    0.00000E+00         0.00000E+00        -0.49958E+08
 
   -0.49824E+08         0.91208E+04         0.00000E+00
    0.91208E+04        -0.97595E+08         0.00000E+00
    0.00000E+00         0.00000E+00        -0.49949E+08
 
   -0.49818E+08         0.12682E+05         0.00000E+00
    0.12682E+05        -0.97595E+08         0.00000E+00
    0.00000E+00         0.00000E+00        -0.49939E+08
 
   -0.49811E+08         0.16317E+05         0.00000E+00
    0.16317E+05        -0.97595E+08         0.00000E+00
    0.00000E+00         0.00000E+00        -0.49929E+08
 
   -0.49803E+08         0.19956E+05         0.00000E+00
    0.19956E+05        -0.97595E+08         0.00000E+00
    0.00000E+00         0.00000E+00        -0.49919E+08
 
   -0.49794E+08         0.23560E+05         0.00000E+00
    0.23560E+05        -0.97595E+08         0.00000E+00
    0.00000E+00         0.00000E+00        -0.49908E+08
 
   -0.49784E+08         0.27111E+05         0.00000E+00
    0.27111E+05        -0.97595E+08         0.00000E+00
    0.00000E+00         0.00000E+00        -0.49897E+08
 
   -0.49772E+08         0.30606E+05         0.00000E+00
    0.30606E+05        -0.97595E+08         0.00000E+00
    0.00000E+00         0.00000E+00        -0.49886E+08
 
   -0.49759E+08         0.34050E+05         0.00000E+00
    0.34050E+05        -0.97596E+08         0.00000E+00
    0.00000E+00         0.00000E+00        -0.49874E+08
 
   -0.49745E+08         0.37457E+05         0.00000E+00
    0.37457E+05        -0.97596E+08         0.00000E+00
    0.00000E+00         0.00000E+00        -0.49862E+08
 
   -0.49730E+08         0.40841E+05         0.00000E+00
    0.40841E+05        -0.97596E+08         0.00000E+00
    0.00000E+00         0.00000E+00        -0.49849E+08
 
   -0.49713E+08         0.44221E+05         0.00000E+00
    0.44221E+05        -0.97596E+08         0.00000E+00
    0.00000E+00         0.00000E+00        -0.49835E+08
 
   -0.49695E+08         0.47617E+05         0.00000E+00
    0.47617E+05        -0.97596E+08         0.00000E+00
    0.00000E+00         0.00000E+00        -0.49821E+08
 
   -0.49676E+08         0.51048E+05         0.00000E+00
    0.51048E+05        -0.97596E+08         0.00000E+00
    0.00000E+00         0.00000E+00        -0.49807E+08
 
   -0.49656E+08         0.54533E+05         0.00000E+00
    0.54533E+05        -0.97596E+08         0.00000E+00
    0.00000E+00         0.00000E+00        -0.49791E+08
 
   -0.49634E+08         0.58092E+05         0.00000E+00
    0.58092E+05        -0.97595E+08         0.00000E+00
    0.00000E+00         0.00000E+00        -0.49775E+08
 
   -0.49611E+08         0.61742E+05         0.00000E+00
    0.61742E+05        -0.97595E+08         0.00000E+00
    0.00000E+00         0.00000E+00        -0.49758E+08
 
   -0.49586E+08         0.65500E+05         0.00000E+00
    0.65500E+05        -0.97595E+08         0.00000E+00
    0.00000E+00         0.00000E+00        -0.49740E+08
 
   -0.49560E+08         0.69381E+05         0.00000E+00
    0.69381E+05        -0.97595E+08         0.00000E+00
    0.00000E+00         0.00000E+00        -0.49721E+08
 
   -0.49533E+08         0.73402E+05         0.00000E+00
    0.73402E+05        -0.97595E+08         0.00000E+00
    0.00000E+00         0.00000E+00        -0.49702E+08
 
   -0.49504E+08         0.77576E+05         0.00000E+00
    0.77576E+05        -0.97595E+08         0.00000E+00
    0.00000E+00         0.00000E+00        -0.49681E+08
 
   -0.49473E+08         0.81917E+05         0.00000E+00
    0.81917E+05        -0.97594E+08         0.00000E+00
    0.00000E+00         0.00000E+00        -0.49659E+08
 
   -0.49440E+08         0.86438E+05         0.00000E+00
    0.86438E+05        -0.97594E+08         0.00000E+00
    0.00000E+00         0.00000E+00        -0.49635E+08
 
   -0.49406E+08         0.91150E+05         0.00000E+00
    0.91150E+05        -0.97594E+08         0.00000E+00
    0.00000E+00         0.00000E+00        -0.49611E+08
 
   -0.49370E+08         0.96066E+05         0.00000E+00
    0.96066E+05        -0.97594E+08         0.00000E+00
    0.00000E+00         0.00000E+00        -0.49585E+08
 
   -0.49332E+08         0.10120E+06         0.00000E+00
    0.10120E+06        -0.97593E+08         0.00000E+00
    0.00000E+00         0.00000E+00        -0.49557E+08
 
   -0.49292E+08         0.10655E+06         0.00000E+00
    0.10655E+06        -0.97593E+08         0.00000E+00
    0.00000E+00         0.00000E+00        -0.49528E+08
 
   -0.49249E+08         0.11215E+06         0.00000E+00
    0.11215E+06        -0.97593E+08         0.00000E+00
    0.00000E+00         0.00000E+00        -0.49497E+08
 
   -0.49205E+08         0.11798E+06         0.00000E+00
    0.11798E+06        -0.97592E+08         0.00000E+00
    0.00000E+00         0.00000E+00        -0.49465E+08
 
   -0.49158E+08         0.12408E+06         0.00000E+00
    0.12408E+06        -0.97592E+08         0.00000E+00
    0.00000E+00         0.00000E+00        -0.49431E+08
 
   -0.49109E+08         0.13044E+06         0.00000E+00
    0.13044E+06        -0.97592E+08         0.00000E+00
    0.00000E+00         0.00000E+00        -0.49395E+08
 
   -0.49057E+08         0.13707E+06         0.00000E+00
    0.13707E+06        -0.97591E+08         0.00000E+00
    0.00000E+00         0.00000E+00        -0.49356E+08
 
   -0.49002E+08         0.14398E+06         0.00000E+00
    0.14398E+06        -0.97591E+08         0.00000E+00
    0.00000E+00         0.00000E+00        -0.49316E+08
 
   -0.48945E+08         0.15119E+06         0.00000E+00
    0.15119E+06        -0.97591E+08         0.00000E+00
    0.00000E+00         0.00000E+00        -0.49273E+08
 
   -0.48885E+08         0.15869E+06         0.00000E+00
    0.15869E+06        -0.97590E+08         0.00000E+00
    0.00000E+00         0.00000E+00        -0.49228E+08
 
   -0.48822E+08         0.16649E+06         0.00000E+00
    0.16649E+06        -0.97590E+08         0.00000E+00
    0.00000E+00         0.00000E+00        -0.49181E+08
 
   -0.48756E+08         0.17461E+06         0.00000E+00
    0.17461E+06        -0.97589E+08         0.00000E+00
    0.00000E+00         0.00000E+00        -0.49130E+08
 
   -0.48686E+08         0.18305E+06         0.00000E+00
    0.18305E+06        -0.97589E+08         0.00000E+00
    0.00000E+00         0.00000E+00        -0.49077E+08
 
   -0.48614E+08         0.19180E+06         0.00000E+00
    0.19180E+06        -0.97589E+08         0.00000E+00
    0.00000E+00         0.00000E+00        -0.49021E+08
 
   -0.48537E+08         0.20088E+06         0.00000E+00
    0.20088E+06        -0.97588E+08         0.00000E+00
    0.00000E+00         0.00000E+00        -0.48962E+08
 
   -0.48457E+08         0.21029E+06         0.00000E+00
    0.21029E+06        -0.97588E+08         0.00000E+00
    0.00000E+00         0.00000E+00        -0.48900E+08
 
   -0.48374E+08         0.22003E+06         0.00000E+00
    0.22003E+06        -0.97587E+08         0.00000E+00
    0.00000E+00         0.00000E+00        -0.48834E+08
 
   -0.48286E+08         0.23010E+06         0.00000E+00
    0.23010E+06        -0.97587E+08         0.00000E+00
    0.00000E+00         0.00000E+00        -0.48765E+08
 
   -0.48195E+08         0.24051E+06         0.00000E+00
    0.24051E+06        -0.97587E+08         0.00000E+00
    0.00000E+00         0.00000E+00        -0.48692E+08
 
   -0.48099E+08         0.25124E+06         0.00000E+00
    0.25124E+06        -0.97586E+08         0.00000E+00
    0.00000E+00         0.00000E+00        -0.48615E+08
 
   -0.47999E+08         0.26230E+06         0.00000E+00
    0.26230E+06        -0.97586E+08         0.00000E+00
    0.00000E+00         0.00000E+00        -0.48534E+08
 
   -0.47894E+08         0.27368E+06         0.00000E+00
    0.27368E+06        -0.97585E+08         0.00000E+00
    0.00000E+00         0.00000E+00        -0.48449E+08
 
   -0.47785E+08         0.28538E+06         0.00000E+00
    0.28538E+06        -0.97585E+08         0.00000E+00
    0.00000E+00         0.00000E+00        -0.48359E+08
 
   -0.47672E+08         0.29737E+06         0.00000E+00
    0.29737E+06        -0.97585E+08         0.00000E+00
    0.00000E+00         0.00000E+00        -0.48264E+08
 
   -0.47553E+08         0.30966E+06         0.00000E+00
    0.30966E+06        -0.97584E+08         0.00000E+00
    0.00000E+00         0.00000E+00        -0.48165E+08
 
   -0.47430E+08         0.32223E+06         0.00000E+00
    0.32223E+06        -0.97584E+08         0.00000E+00
    0.00000E+00         0.00000E+00        -0.48060E+08
 
   -0.47301E+08         0.33505E+06         0.00000E+00
    0.33505E+06        -0.97584E+08         0.00000E+00
    0.00000E+00         0.00000E+00        -0.47950E+08
 
   -0.47168E+08         0.34811E+06         0.00000E+00
    0.34811E+06        -0.97583E+08         0.00000E+00
    0.00000E+00         0.00000E+00        -0.47835E+08
 
   -0.47029E+08         0.36138E+06         0.00000E+00
    0.36138E+06        -0.97583E+08         0.00000E+00
    0.00000E+00         0.00000E+00        -0.47714E+08
 
   -0.46885E+08         0.37484E+06         0.00000E+00
    0.37484E+06        -0.97583E+08         0.00000E+00
    0.00000E+00         0.00000E+00        -0.47587E+08
 
   -0.46735E+08         0.38844E+06         0.00000E+00
    0.38844E+06        -0.97583E+08         0.00000E+00
    0.00000E+00         0.00000E+00        -0.47454E+08
 
   -0.46580E+08         0.40216E+06         0.00000E+00
    0.40216E+06        -0.97583E+08         0.00000E+00
    0.00000E+00         0.00000E+00        -0.47314E+08
 
   -0.46420E+08         0.41594E+06         0.00000E+00
    0.41594E+06        -0.97583E+08         0.00000E+00
    0.00000E+00         0.00000E+00        -0.47167E+08
 
   -0.46253E+08         0.42973E+06         0.00000E+00
    0.42973E+06        -0.97583E+08         0.00000E+00
    0.00000E+00         0.00000E+00        -0.47014E+08
 
   -0.46082E+08         0.44349E+06         0.00000E+00
    0.44349E+06        -0.97583E+08         0.00000E+00
    0.00000E+00         0.00000E+00        -0.46853E+08
 
   -0.45905E+08         0.45714E+06         0.00000E+00
    0.45714E+06        -0.97583E+08         0.00000E+00
    0.00000E+00         0.00000E+00        -0.46685E+08
 
   -0.45722E+08         0.47061E+06         0.00000E+00
    0.47061E+06        -0.97583E+08         0.00000E+00
    0.00000E+00         0.00000E+00        -0.46510E+08
 
   -0.45534E+08         0.48381E+06         0.00000E+00
    0.48381E+06        -0.97584E+08         0.00000E+00
    0.00000E+00         0.00000E+00        -0.46326E+08
 
   -0.45340E+08         0.49667E+06         0.00000E+00
    0.49667E+06        -0.97584E+08         0.00000E+00
    0.00000E+00         0.00000E+00        -0.46135E+08
 
   -0.45141E+08         0.50906E+06         0.00000E+00
    0.50906E+06        -0.97585E+08         0.00000E+00
    0.00000E+00         0.00000E+00        -0.45935E+08
 
   -0.44938E+08         0.52089E+06         0.00000E+00
    0.52089E+06        -0.97586E+08         0.00000E+00
    0.00000E+00         0.00000E+00        -0.45726E+08
 
   -0.44729E+08         0.53200E+06         0.00000E+00
    0.53200E+06        -0.97587E+08         0.00000E+00
    0.00000E+00         0.00000E+00        -0.45509E+08
 
   -0.44516E+08         0.54225E+06         0.00000E+00
    0.54225E+06        -0.97588E+08         0.00000E+00
    0.00000E+00         0.00000E+00        -0.45283E+08
 
   -0.44299E+08         0.55149E+06         0.00000E+00
    0.55149E+06        -0.97589E+08         0.00000E+00
    0.00000E+00         0.00000E+00        -0.45047E+08
 
   -0.44078E+08         0.55951E+06         0.00000E+00
    0.55951E+06        -0.97591E+08         0.00000E+00
    0.00000E+00         0.00000E+00        -0.44803E+08
 
   -0.43853E+08         0.56610E+06         0.00000E+00
    0.56610E+06        -0.97593E+08         0.00000E+00
    0.00000E+00         0.00000E+00        -0.44548E+08
 
   -0.43626E+08         0.57104E+06         0.00000E+00
    0.57104E+06        -0.97595E+08         0.00000E+00
    0.00000E+00         0.00000E+00        -0.44284E+08
 
   -0.43396E+08         0.57405E+06         0.00000E+00
    0.57405E+06        -0.97598E+08         0.00000E+00
    0.00000E+00         0.00000E+00        -0.44011E+08
 
   -0.43165E+08         0.57482E+06         0.00000E+00
    0.57482E+06        -0.97601E+08         0.00000E+00
    0.00000E+00         0.00000E+00        -0.43727E+08
 
   -0.42933E+08         0.57304E+06         0.00000E+00
    0.57304E+06        -0.97605E+08         0.00000E+00
    0.00000E+00         0.00000E+00        -0.43433E+08
 
   -0.42702E+08         0.56833E+06         0.00000E+00
    0.56833E+06        -0.97609E+08         0.00000E+00
    0.00000E+00         0.00000E+00        -0.43129E+08
 
   -0.42471E+08         0.56027E+06         0.00000E+00
    0.56027E+06        -0.97614E+08         0.00000E+00
    0.00000E+00         0.00000E+00        -0.42816E+08
 
   -0.42243E+08         0.54844E+06         0.00000E+00
    0.54844E+06        -0.97619E+08         0.00000E+00
    0.00000E+00         0.00000E+00        -0.42492E+08
 
   -0.42019E+08         0.53234E+06         0.00000E+00
    0.53234E+06        -0.97625E+08         0.00000E+00
    0.00000E+00         0.00000E+00        -0.42158E+08
 
   -0.41800E+08         0.51147E+06         0.00000E+00
    0.51147E+06        -0.97632E+08         0.00000E+00
    0.00000E+00         0.00000E+00        -0.41814E+08
 
   -0.41587E+08         0.48531E+06         0.00000E+00
    0.48531E+06        -0.97639E+08         0.00000E+00
    0.00000E+00         0.00000E+00        -0.41460E+08
 
   -0.41382E+08         0.45335E+06         0.00000E+00
    0.45335E+06        -0.97648E+08         0.00000E+00
    0.00000E+00         0.00000E+00        -0.41097E+08
 
   -0.41188E+08         0.41511E+06         0.00000E+00
    0.41511E+06        -0.97657E+08         0.00000E+00
    0.00000E+00         0.00000E+00        -0.40724E+08
 
   -0.41005E+08         0.37018E+06         0.00000E+00
    0.37018E+06        -0.97667E+08         0.00000E+00
    0.00000E+00         0.00000E+00        -0.40343E+08
 
   -0.40835E+08         0.31832E+06         0.00000E+00
    0.31832E+06        -0.97677E+08         0.00000E+00
    0.00000E+00         0.00000E+00        -0.39952E+08
 
   -0.40681E+08         0.25948E+06         0.00000E+00
    0.25948E+06        -0.97687E+08         0.00000E+00
    0.00000E+00         0.00000E+00        -0.39553E+08
 
   -0.40543E+08         0.19399E+06         0.00000E+00
    0.19399E+06        -0.97697E+08         0.00000E+00
    0.00000E+00         0.00000E+00        -0.39146E+08
 
   -0.40423E+08         0.12266E+06         0.00000E+00
    0.12266E+06        -0.97705E+08         0.00000E+00
    0.00000E+00         0.00000E+00        -0.38731E+08
 
   -0.40321E+08         0.47031E+05         0.00000E+00
    0.47031E+05        -0.97712E+08         0.00000E+00
    0.00000E+00         0.00000E+00        -0.38310E+08
 
   -0.40238E+08        -0.30309E+05         0.00000E+00
   -0.30309E+05        -0.97715E+08         0.00000E+00
    0.00000E+00         0.00000E+00        -0.37882E+08
 
   -0.40170E+08        -0.10524E+06         0.00000E+00
   -0.10524E+06        -0.97712E+08         0.00000E+00
    0.00000E+00         0.00000E+00        -0.37449E+08
 
   -0.40115E+08        -0.17128E+06         0.00000E+00
   -0.17128E+06        -0.97701E+08         0.00000E+00
    0.00000E+00         0.00000E+00        -0.37010E+08
 
   -0.40065E+08        -0.21790E+06         0.00000E+00
   -0.21790E+06        -0.97674E+08         0.00000E+00
    0.00000E+00         0.00000E+00        -0.36568E+08
 
   -0.40015E+08        -0.22812E+06         0.00000E+00
   -0.22812E+06        -0.97615E+08         0.00000E+00
    0.00000E+00         0.00000E+00        -0.36122E+08
 
   -0.39963E+08        -0.18090E+06         0.00000E+00
   -0.18090E+06        -0.97489E+08         0.00000E+00
    0.00000E+00         0.00000E+00        -0.35674E+08
 
   -0.39926E+08        -0.70170E+05         0.00000E+00
   -0.70170E+05        -0.97229E+08         0.00000E+00
    0.00000E+00         0.00000E+00        -0.35225E+08
 
   -0.49836E+08        -0.55086E+03         0.00000E+00
   -0.55086E+03        -0.97605E+08         0.00000E+00
    0.00000E+00         0.00000E+00        -0.49995E+08
 
   -0.49835E+08        -0.98243E+03         0.00000E+00
   -0.98243E+03        -0.97600E+08         0.00000E+00
    0.00000E+00         0.00000E+00        -0.49986E+08
 
   -0.49832E+08        -0.29585E+02         0.00000E+00
   -0.29585E+02        -0.97597E+08         0.00000E+00
    0.00000E+00         0.00000E+00        -0.49977E+08
 
   -0.49829E+08         0.20979E+04         0.00000E+00
    0.20979E+04        -0.97596E+08         0.00000E+00
    0.00000E+00         0.00000E+00        -0.49968E+08
 
   -0.49826E+08         0.49203E+04         0.00000E+00
    0.49203E+04        -0.97596E+08         0.00000E+00
    0.00000E+00         0.00000E+00        -0.49958E+08
 
   -0.49821E+08         0.80991E+04         0.00000E+00
    0.80991E+04        -0.97596E+08         0.00000E+00
    0.00000E+00         0.00000E+00        -0.49949E+08
 
   -0.49816E+08         0.11445E+05         0.00000E+00
    0.11445E+05        -0.97596E+08         0.00000E+00
    0.00000E+00         0.00000E+00        -0.49939E+08
 
   -0.49809E+08         0.14849E+05         0.00000E+00
    0.14849E+05        -0.97596E+08         0.00000E+00
    0.00000E+00         0.00000E+00        -0.49929E+08
 
   -0.49801E+08         0.18248E+05         0.00000E+00
    0.18248E+05        -0.97596E+08         0.00000E+00
    0.00000E+00         0.00000E+00        -0.49919E+08
 
   -0.49792E+08         0.21608E+05         0.00000E+00
    0.21608E+05        -0.97596E+08         0.00000E+00
    0.00000E+00         0.00000E+00        -0.49908E+08
 
   -0.49782E+08         0.24914E+05         0.00000E+00
    0.24914E+05        -0.97596E+08         0.00000E+00
    0.00000E+00         0.00000E+00        -0.49897E+08
 
   -0.49770E+08         0.28162E+05         0.00000E+00
    0.28162E+05        -0.97596E+08         0.00000E+00
    0.00000E+00         0.00000E+00        -0.49886E+08
 
   -0.49757E+08         0.31359E+05         0.00000E+00
    0.31359E+05        -0.97596E+08         0.00000E+00
    0.00000E+00         0.00000E+00        -0.49874E+08
 
   -0.49743E+08         0.34516E+05         0.00000E+00
    0.34516E+05        -0.97596E+08         0.00000E+00
    0.00000E+00         0.00000E+00        -0.49862E+08
 
   -0.49728E+08         0.37650E+05         0.00000E+00
    0.37650E+05        -0.97596E+08         0.00000E+00
    0.00000E+00         0.00000E+00        -0.49849E+08
 
   -0.49711E+08         0.40778E+05         0.00000E+00
    0.40778E+05        -0.97596E+08         0.00000E+00
    0.00000E+00         0.00000E+00        -0.49835E+08
 
   -0.49693E+08         0.43917E+05         0.00000E+00
    0.43917E+05        -0.97596E+08         0.00000E+00
    0.00000E+00         0.00000E+00        -0.49821E+08
 
   -0.49674E+08         0.47087E+05         0.00000E+00
    0.47087E+05        -0.97596E+08         0.00000E+00
    0.00000E+00         0.00000E+00        -0.49807E+08
 
   -0.49654E+08         0.50306E+05         0.00000E+00
    0.50306E+05        -0.97596E+08         0.00000E+00
    0.00000E+00         0.00000E+00        -0.49791E+08
 
   -0.49632E+08         0.53592E+05         0.00000E+00
    0.53592E+05        -0.97596E+08         0.00000E+00
    0.00000E+00         0.00000E+00        -0.49775E+08
 
   -0.49608E+08         0.56960E+05         0.00000E+00
    0.56960E+05        -0.97596E+08         0.00000E+00
    0.00000E+00         0.00000E+00        -0.49758E+08
 
   -0.49584E+08         0.60427E+05         0.00000E+00
    0.60427E+05        -0.97596E+08         0.00000E+00
    0.00000E+00         0.00000E+00        -0.49740E+08
 
   -0.49558E+08         0.64008E+05         0.00000E+00
    0.64008E+05        -0.97596E+08         0.00000E+00
    0.00000E+00         0.00000E+00        -0.49721E+08
 
   -0.49530E+08         0.67716E+05         0.00000E+00
    0.67716E+05        -0.97596E+08         0.00000E+00
    0.00000E+00         0.00000E+00        -0.49702E+08
 
   -0.49500E+08         0.71566E+05         0.00000E+00
    0.71566E+05        -0.97595E+08         0.00000E+00
    0.00000E+00         0.00000E+00        -0.49681E+08
 
   -0.49469E+08         0.75569E+05         0.00000E+00
    0.75569E+05        -0.97595E+08         0.00000E+00
    0.00000E+00         0.00000E+00        -0.49659E+08
 
   -0.49437E+08         0.79737E+05         0.00000E+00
    0.79737E+05        -0.97595E+08         0.00000E+00
    0.00000E+00         0.00000E+00        -0.49635E+08
 
   -0.49402E+08         0.84083E+05         0.00000E+00
    0.84083E+05        -0.97595E+08         0.00000E+00
    0.00000E+00         0.00000E+00        -0.49611E+08
 
   -0.49366E+08         0.88616E+05         0.00000E+00
    0.88616E+05        -0.97595E+08         0.00000E+00
    0.00000E+00         0.00000E+00        -0.49585E+08
 
   -0.49327E+08         0.93347E+05         0.00000E+00
    0.93347E+05        -0.97594E+08         0.00000E+00
    0.00000E+00         0.00000E+00        -0.49557E+08
 
   -0.49287E+08         0.98285E+05         0.00000E+00
    0.98285E+05        -0.97594E+08         0.00000E+00
    0.00000E+00         0.00000E+00        -0.49528E+08
 
   -0.49245E+08         0.10344E+06         0.00000E+00
    0.10344E+06        -0.97594E+08         0.00000E+00
    0.00000E+00         0.00000E+00        -0.49497E+08
 
   -0.49200E+08         0.10882E+06         0.00000E+00
    0.10882E+06        -0.97594E+08         0.00000E+00
    0.00000E+00         0.00000E+00        -0.49465E+08
 
   -0.49153E+08         0.11444E+06         0.00000E+00
    0.11444E+06        -0.97593E+08         0.00000E+00
    0.00000E+00         0.00000E+00        -0.49431E+08
 
   -0.49103E+08         0.12030E+06         0.00000E+00
    0.12030E+06        -0.97593E+08         0.00000E+00
    0.00000E+00         0.00000E+00        -0.49395E+08
 
   -0.49051E+08         0.12642E+06         0.00000E+00
    0.12642E+06        -0.97593E+08         0.00000E+00
    0.00000E+00         0.00000E+00        -0.49356E+08
 
   -0.48996E+08         0.13279E+06         0.00000E+00
    0.13279E+06        -0.97592E+08         0.00000E+00
    0.00000E+00         0.00000E+00        -0.49316E+08
 
   -0.48939E+08         0.13943E+06         0.00000E+00
    0.13943E+06        -0.97592E+08         0.00000E+00
    0.00000E+00         0.00000E+00        -0.49273E+08
 
   -0.48878E+08         0.14635E+06         0.00000E+00
    0.14635E+06        -0.97592E+08         0.00000E+00
    0.00000E+00         0.00000E+00        -0.49228E+08
 
   -0.48815E+08         0.15354E+06         0.00000E+00
    0.15354E+06        -0.97591E+08         0.00000E+00
    0.00000E+00         0.00000E+00        -0.49181E+08
 
   -0.48748E+08         0.16102E+06         0.00000E+00
    0.16102E+06        -0.97591E+08         0.00000E+00
    0.00000E+00         0.00000E+00        -0.49130E+08
 
   -0.48679E+08         0.16879E+06         0.00000E+00
    0.16879E+06        -0.97591E+08         0.00000E+00
    0.00000E+00         0.00000E+00        -0.49077E+08
 
   -0.48605E+08         0.17686E+06         0.00000E+00
    0.17686E+06        -0.97590E+08         0.00000E+00
    0.00000E+00         0.00000E+00        -0.49021E+08
 
   -0.48529E+08         0.18523E+06         0.00000E+00
    0.18523E+06        -0.97590E+08         0.00000E+00
    0.00000E+00         0.00000E+00        -0.48962E+08
 
   -0.48449E+08         0.19390E+06         0.00000E+00
    0.19390E+06        -0.97590E+08         0.00000E+00
    0.00000E+00         0.00000E+00        -0.48900E+08
 
   -0.48364E+08         0.20288E+06         0.00000E+00
    0.20288E+06        -0.97589E+08         0.00000E+00
    0.00000E+00         0.00000E+00        -0.48834E+08
 
   -0.48277E+08         0.21216E+06         0.00000E+00
    0.21216E+06        -0.97589E+08         0.00000E+00
    0.00000E+00         0.00000E+00        -0.48765E+08
 
   -0.48185E+08         0.22174E+06         0.00000E+00
    0.22174E+06        -0.97589E+08         0.00000E+00
    0.00000E+00         0.00000E+00        -0.48692E+08
 
   -0.48088E+08         0.23163E+06         0.00000E+00
    0.23163E+06        -0.97588E+08         0.00000E+00
    0.00000E+00         0.00000E+00        -0.48615E+08
 
   -0.47988E+08         0.24182E+06         0.00000E+00
    0.24182E+06        -0.97588E+08         0.00000E+00
    0.00000E+00         0.00000E+00        -0.48534E+08
 
   -0.47883E+08         0.25230E+06         0.00000E+00
    0.25230E+06        -0.97588E+08         0.00000E+00
    0.00000E+00         0.00000E+00        -0.48449E+08
 
   -0.47774E+08         0.26307E+06         0.00000E+00
    0.26307E+06        -0.97587E+08         0.00000E+00
    0.00000E+00         0.00000E+00        -0.48359E+08
 
   -0.47659E+08         0.27412E+06         0.00000E+00
    0.27412E+06        -0.97587E+08         0.00000E+00
    0.00000E+00         0.00000E+00        -0.48264E+08
 
   -0.47540E+08         0.28543E+06         0.00000E+00
    0.28543E+06        -0.97587E+08         0.00000E+00
    0.00000E+00         0.00000E+00        -0.48165E+08
 
   -0.47417E+08         0.29700E+06         0.00000E+00
    0.29700E+06        -0.97586E+08         0.00000E+00
    0.00000E+00         0.00000E+00        -0.48060E+08
 
   -0.47288E+08         0.30880E+06         0.00000E+00
    0.30880E+06        -0.97586E+08         0.00000E+00
    0.00000E+00         0.00000E+00        -0.47950E+08
 
   -0.47154E+08         0.32083E+06         0.00000E+00
    0.32083E+06        -0.97586E+08         0.00000E+00
    0.00000E+00         0.00000E+00        -0.47835E+08
 
   -0.47014E+08         0.33304E+06         0.00000E+00
    0.33304E+06        -0.97586E+08         0.00000E+00
    0.00000E+00         0.00000E+00        -0.47714E+08
 
   -0.46870E+08         0.34542E+06         0.00000E+00
    0.34542E+06        -0.97585E+08         0.00000E+00
    0.00000E+00         0.00000E+00        -0.47587E+08
 
   -0.46720E+08         0.35794E+06         0.00000E+00
    0.35794E+06        -0.97585E+08         0.00000E+00
    0.00000E+00         0.00000E+00        -0.47454E+08
 
   -0.46564E+08         0.37055E+06         0.00000E+00
    0.37055E+06        -0.97585E+08         0.00000E+00
    0.00000E+00         0.00000E+00        -0.47314E+08
 
   -0.46403E+08         0.38323E+06         0.00000E+00
    0.38323E+06        -0.97585E+08         0.00000E+00
    0.00000E+00         0.00000E+00        -0.47167E+08
 
   -0.46237E+08         0.39591E+06         0.00000E+00
    0.39591E+06        -0.97585E+08         0.00000E+00
    0.00000E+00         0.00000E+00        -0.47014E+08
 
   -0.46064E+08         0.40856E+06         0.00000E+00
    0.40856E+06        -0.97585E+08         0.00000E+00
    0.00000E+00         0.00000E+00        -0.46853E+08
 
   -0.45887E+08         0.42110E+06         0.00000E+00
    0.42110E+06        -0.97585E+08         0.00000E+00
    0.00000E+00         0.00000E+00        -0.46685E+08
 
   -0.45704E+08         0.43348E+06         0.00000E+00
    0.43348E+06        -0.97586E+08         0.00000E+00
    0.00000E+00         0.00000E+00        -0.46510E+08
 
   -0.45515E+08         0.44561E+06         0.00000E+00
    0.44561E+06        -0.97586E+08         0.00000E+00
    0.00000E+00         0.00000E+00        -0.46326E+08
 
   -0.45321E+08         0.45741E+06         0.00000E+00
    0.45741E+06        -0.97586E+08         0.00000E+00
    0.00000E+00         0.00000E+00        -0.46135E+08
 
   -0.45122E+08         0.46879E+06         0.00000E+00
    0.46879E+06        -0.97587E+08         0.00000E+00
    0.00000E+00         0.00000E+00        -0.45935E+08
 
   -0.44918E+08         0.47962E+06         0.00000E+00
    0.47962E+06        -0.97588E+08         0.00000E+00
    0.00000E+00         0.00000E+00        -0.45726E+08
 
   -0.44710E+08         0.48980E+06         0.00000E+00
    0.48980E+06        -0.97589E+08         0.00000E+00
    0.00000E+00         0.00000E+00        -0.45509E+08
 
   -0.44496E+08         0.49919E+06         0.00000E+00
    0.49919E+06        -0.97590E+08         0.00000E+00
    0.00000E+00         0.00000E+00        -0.45283E+08
 
   -0.44279E+08         0.50762E+06         0.00000E+00
    0.50762E+06        -0.97591E+08         0.00000E+00
    0.00000E+00         0.00000E+00        -0.45047E+08
 
   -0.44058E+08         0.51493E+06         0.00000E+00
    0.51493E+06        -0.97592E+08         0.00000E+00
    0.00000E+00         0.00000E+00        -0.44803E+08
 
   -0.43833E+08         0.52091E+06         0.00000E+00
    0.52091E+06        -0.97594E+08         0.00000E+00
    0.00000E+00         0.00000E+00        -0.44548E+08
 
   -0.43606E+08         0.52535E+06         0.00000E+00
    0.52535E+06        -0.97596E+08         0.00000E+00
    0.00000E+00         0.00000E+00        -0.44284E+08
 
   -0.43377E+08         0.52799E+06         0.00000E+00
    0.52799E+06        -0.97598E+08         0.00000E+00
    0.00000E+00         0.00000E+00        -0.44011E+08
 
   -0.43146E+08         0.52856E+06         0.00000E+00
    0.52856E+06        -0.97601E+08         0.00000E+00
    0.00000E+00         0.00000E+00        -0.43727E+08
 
   -0.42915E+08         0.52675E+06         0.00000E+00
    0.52675E+06        -0.97604E+08         0.00000E+00
    0.00000E+00         0.00000E+00        -0.43433E+08
 
   -0.42684E+08         0.52219E+06         0.00000E+00
    0.52219E+06        -0.97608E+08         0.00000E+00
    0.00000E+00         0.00000E+00        -0.43129E+08
 
   -0.42455E+08         0.51453E+06         0.00000E+00
    0.51453E+06        -0.97612E+08         0.00000E+00
    0.00000E+00         0.00000E+00        -0.42816E+08
 
   -0.42229E+08         0.50332E+06         0.00000E+00
    0.50332E+06        -0.97616E+08         0.00000E+00
    0.00000E+00         0.00000E+00        -0.42492E+08
 
   -0.42006E+08         0.48812E+06         0.00000E+00
    0.48812E+06        -0.97621E+08         0.00000E+00
    0.00000E+00         0.00000E+00        -0.42158E+08
 
   -0.41789E+08         0.46846E+06         0.00000E+00
    0.46846E+06        -0.97627E+08         0.00000E+00
    0.00000E+00         0.00000E+00        -0.41814E+08
 
   -0.41579E+08         0.44382E+06         0.00000E+00
    0.44382E+06        -0.97634E+08         0.00000E+00
    0.00000E+00         0.00000E+00        -0.41460E+08
 
   -0.41378E+08         0.41373E+06         0.00000E+00
    0.41373E+06        -0.97641E+08         0.00000E+00
    0.00000E+00         0.00000E+00        -0.41097E+08
 
   -0.41187E+08         0.37771E+06         0.00000E+00
    0.37771E+06        -0.97649E+08         0.00000E+00
    0.00000E+00         0.00000E+00        -0.40724E+08
 
   -0.41008E+08         0.33538E+06         0.00000E+00
    0.33538E+06        -0.97657E+08         0.00000E+00
    0.00000E+00         0.00000E+00        -0.40343E+08
 
   -0.40845E+08         0.28647E+06         0.00000E+00
    0.28647E+06        -0.97666E+08         0.00000E+00
    0.00000E+00         0.00000E+00        -0.39952E+08
 
   -0.40697E+08         0.23093E+06         0.00000E+00
    0.23093E+06        -0.97675E+08         0.00000E+00
    0.00000E+00         0.00000E+00        -0.39553E+08
 
   -0.40567E+08         0.16902E+06         0.00000E+00
    0.16902E+06        -0.97683E+08         0.00000E+00
    0.00000E+00         0.00000E+00        -0.39146E+08
 
   -0.40456E+08         0.10146E+06         0.00000E+00
    0.10146E+06        -0.97691E+08         0.00000E+00
    0.00000E+00         0.00000E+00        -0.38731E+08
 
   -0.40365E+08         0.29650E+05         0.00000E+00
    0.29650E+05        -0.97697E+08         0.00000E+00
    0.00000E+00         0.00000E+00        -0.38310E+08
 
   -0.40293E+08        -0.44078E+05         0.00000E+00
   -0.44078E+05        -0.97700E+08         0.00000E+00
    0.00000E+00         0.00000E+00        -0.37882E+08
 
   -0.40239E+08        -0.11597E+06         0.00000E+00
   -0.11597E+06        -0.97698E+08         0.00000E+00
    0.00000E+00         0.00000E+00        -0.37449E+08
 
   -0.40199E+08        -0.18005E+06         0.00000E+00
   -0.18005E+06        -0.97689E+08         0.00000E+00
    0.00000E+00         0.00000E+00        -0.37010E+08
 
   -0.40165E+08        -0.22641E+06         0.00000E+00
   -0.22641E+06        -0.97667E+08         0.00000E+00
    0.00000E+00         0.00000E+00        -0.36568E+08
 
   -0.40128E+08        -0.23793E+06         0.00000E+00
   -0.23793E+06        -0.97618E+08         0.00000E+00
    0.00000E+00         0.00000E+00        -0.36122E+08
 
   -0.40085E+08        -0.19077E+06         0.00000E+00
   -0.19077E+06        -0.97505E+08         0.00000E+00
    0.00000E+00         0.00000E+00        -0.35674E+08
 
   -0.40051E+08        -0.74689E+05         0.00000E+00
   -0.74689E+05        -0.97257E+08         0.00000E+00
    0.00000E+00         0.00000E+00        -0.35225E+08
 
   -0.49833E+08        -0.71195E+03         0.00000E+00
   -0.71195E+03        -0.97604E+08         0.00000E+00
    0.00000E+00         0.00000E+00        -0.49995E+08
 
   -0.49831E+08        -0.13778E+04         0.00000E+00
   -0.13778E+04        -0.97600E+08         0.00000E+00
    0.00000E+00         0.00000E+00        -0.49986E+08
 
   -0.49829E+08        -0.54401E+03         0.00000E+00
   -0.54401E+03        -0.97598E+08         0.00000E+00
    0.00000E+00         0.00000E+00        -0.49977E+08
 
   -0.49826E+08         0.14740E+04         0.00000E+00
    0.14740E+04        -0.97597E+08         0.00000E+00
    0.00000E+00         0.00000E+00        -0.49968E+08
 
   -0.49823E+08         0.41403E+04         0.00000E+00
    0.41403E+04        -0.97597E+08         0.00000E+00
    0.00000E+00         0.00000E+00        -0.49958E+08
 
   -0.49819E+08         0.71212E+04         0.00000E+00
    0.71212E+04        -0.97596E+08         0.00000E+00
    0.00000E+00         0.00000E+00        -0.49949E+08
 
   -0.49813E+08         0.10243E+05         0.00000E+00
    0.10243E+05        -0.97596E+08         0.00000E+00
    0.00000E+00         0.00000E+00        -0.49939E+08
 
   -0.49807E+08         0.13408E+05         0.00000E+00
    0.13408E+05        -0.97596E+08         0.00000E+00
    0.00000E+00         0.00000E+00        -0.49929E+08
 
   -0.49799E+08         0.16560E+05         0.00000E+00
    0.16560E+05        -0.97597E+08         0.00000E+00
    0.00000E+00         0.00000E+00        -0.49919E+08
 
   -0.49790E+08         0.19670E+05         0.00000E+00
    0.19670E+05        -0.97597E+08         0.00000E+00
    0.00000E+00         0.00000E+00        -0.49908E+08
 
   -0.49780E+08         0.22723E+05         0.00000E+00
    0.22723E+05        -0.97597E+08         0.00000E+00
    0.00000E+00         0.00000E+00        -0.49897E+08
 
   -0.49768E+08         0.25719E+05         0.00000E+00
    0.25719E+05        -0.97597E+08         0.00000E+00
    0.00000E+00         0.00000E+00        -0.49886E+08
 
   -0.49755E+08         0.28663E+05         0.00000E+00
    0.28663E+05        -0.97597E+08         0.00000E+00
    0.00000E+00         0.00000E+00        -0.49874E+08
 
   -0.49741E+08         0.31568E+05         0.00000E+00
    0.31568E+05        -0.97597E+08         0.00000E+00
    0.00000E+00         0.00000E+00        -0.49862E+08
 
   -0.49726E+08         0.34448E+05         0.00000E+00
    0.34448E+05        -0.97597E+08         0.00000E+00
    0.00000E+00         0.00000E+00        -0.49849E+08
 
   -0.49709E+08         0.37319E+05         0.00000E+00
    0.37319E+05        -0.97597E+08         0.00000E+00
    0.00000E+00         0.00000E+00        -0.49835E+08
 
   -0.49691E+08         0.40199E+05         0.00000E+00
    0.40199E+05        -0.97597E+08         0.00000E+00
    0.00000E+00         0.00000E+00        -0.49821E+08
 
   -0.49672E+08         0.43106E+05         0.00000E+00
    0.43106E+05        -0.97597E+08         0.00000E+00
    0.00000E+00         0.00000E+00        -0.49807E+08
 
   -0.49651E+08         0.46056E+05         0.00000E+00
    0.46056E+05        -0.97597E+08         0.00000E+00
    0.00000E+00         0.00000E+00        -0.49791E+08
 
   -0.49629E+08         0.49065E+05         0.00000E+00
    0.49065E+05        -0.97597E+08         0.00000E+00
    0.00000E+00         0.00000E+00        -0.49775E+08
 
   -0.49606E+08         0.52150E+05         0.00000E+00
    0.52150E+05        -0.97597E+08         0.00000E+00
    0.00000E+00         0.00000E+00        -0.49758E+08
 
   -0.49581E+08         0.55324E+05         0.00000E+00
    0.55324E+05        -0.97597E+08         0.00000E+00
    0.00000E+00         0.00000E+00        -0.49740E+08
 
   -0.49555E+08         0.58602E+05         0.00000E+00
    0.58602E+05        -0.97596E+08         0.00000E+00
    0.00000E+00         0.00000E+00        -0.49721E+08
 
   -0.49527E+08         0.61997E+05         0.00000E+00
    0.61997E+05        -0.97596E+08         0.00000E+00
    0.00000E+00         0.00000E+00        -0.49702E+08
 
   -0.49497E+08         0.65520E+05         0.00000E+00
    0.65520E+05        -0.97596E+08         0.00000E+00
    0.00000E+00         0.00000E+00        -0.49681E+08
 
   -0.49466E+08         0.69184E+05         0.00000E+00
    0.69184E+05        -0.97596E+08         0.00000E+00
    0.00000E+00         0.00000E+00        -0.49659E+08
 
   -0.49433E+08         0.72998E+05         0.00000E+00
    0.72998E+05        -0.97596E+08         0.00000E+00
    0.00000E+00         0.00000E+00        -0.49635E+08
 
   -0.49399E+08         0.76975E+05         0.00000E+00
    0.76975E+05        -0.97596E+08         0.00000E+00
    0.00000E+00         0.00000E+00        -0.49611E+08
 
   -0.49362E+08         0.81123E+05         0.00000E+00
    0.81123E+05        -0.97595E+08         0.00000E+00
    0.00000E+00         0.00000E+00        -0.49585E+08
 
   -0.49323E+08         0.85452E+05         0.00000E+00
    0.85452E+05        -0.97595E+08         0.00000E+00
    0.00000E+00         0.00000E+00        -0.49557E+08
 
   -0.49283E+08         0.89970E+05         0.00000E+00
    0.89970E+05        -0.97595E+08         0.00000E+00
    0.00000E+00         0.00000E+00        -0.49528E+08
 
   -0.49240E+08         0.94688E+05         0.00000E+00
    0.94688E+05        -0.97595E+08         0.00000E+00
    0.00000E+00         0.00000E+00        -0.49497E+08
 
   -0.49195E+08         0.99613E+05         0.00000E+00
    0.99613E+05        -0.97595E+08         0.00000E+00
    0.00000E+00         0.00000E+00        -0.49465E+08
 
   -0.49148E+08         0.10475E+06         0.00000E+00
    0.10475E+06        -0.97594E+08         0.00000E+00
    0.00000E+00         0.00000E+00        -0.49431E+08
 
   -0.49098E+08         0.11012E+06         0.00000E+00
    0.11012E+06        -0.97594E+08         0.00000E+00
    0.00000E+00         0.00000E+00        -0.49395E+08
 
   -0.49045E+08         0.11571E+06         0.00000E+00
    0.11571E+06        -0.97594E+08         0.00000E+00
    0.00000E+00         0.00000E+00        -0.49356E+08
 
   -0.48990E+08         0.12154E+06         0.00000E+00
    0.12154E+06        -0.97594E+08         0.00000E+00
    0.00000E+00         0.00000E+00        -0.49316E+08
 
   -0.48932E+08         0.12761E+06         0.00000E+00
    0.12761E+06        -0.97593E+08         0.00000E+00
    0.00000E+00         0.00000E+00        -0.49273E+08
 
   -0.48872E+08         0.13394E+06         0.00000E+00
    0.13394E+06        -0.97593E+08         0.00000E+00
    0.00000E+00         0.00000E+00        -0.49228E+08
 
   -0.48808E+08         0.14052E+06         0.00000E+00
    0.14052E+06        -0.97593E+08         0.00000E+00
    0.00000E+00         0.00000E+00        -0.49181E+08
 
   -0.48741E+08         0.14736E+06         0.00000E+00
    0.14736E+06        -0.97593E+08         0.00000E+00
    0.00000E+00         0.00000E+00        -0.49130E+08
 
   -0.48671E+08         0.15447E+06         0.00000E+00
    0.15447E+06        -0.97592E+08         0.00000E+00
    0.00000E+00         0.00000E+00        -0.49077E+08
 
   -0.48598E+08         0.16185E+06         0.00000E+00
    0.16185E+06        -0.97592E+08         0.00000E+00
    0.00000E+00         0.00000E+00        -0.49021E+08
 
   -0.48521E+08         0.16950E+06         0.00000E+00
    0.16950E+06        -0.97592E+08         0.00000E+00
    0.00000E+00         0.00000E+00        -0.48962E+08
 
   -0.48440E+08         0.17743E+06         0.00000E+00
    0.17743E+06        -0.97591E+08         0.00000E+00
    0.00000E+00         0.00000E+00        -0.48900E+08
 
   -0.48355E+08         0.18564E+06         0.00000E+00
    0.18564E+06        -0.97591E+08         0.00000E+00
    0.00000E+00         0.00000E+00        -0.48834E+08
 
   -0.48267E+08         0.19413E+06         0.00000E+00
    0.19413E+06        -0.97591E+08         0.00000E+00
    0.00000E+00         0.00000E+00        -0.48765E+08
 
   -0.48175E+08         0.20289E+06         0.00000E+00
    0.20289E+06        -0.97590E+08         0.00000E+00
    0.00000E+00         0.00000E+00        -0.48692E+08
 
   -0.48078E+08         0.21193E+06         0.00000E+00
    0.21193E+06        -0.97590E+08         0.00000E+00
    0.00000E+00         0.00000E+00        -0.48615E+08
 
   -0.47977E+08         0.22124E+06         0.00000E+00
    0.22124E+06        -0.97590E+08         0.00000E+00
    0.00000E+00         0.00000E+00        -0.48534E+08
 
   -0.47872E+08         0.23083E+06         0.00000E+00
    0.23083E+06        -0.97590E+08         0.00000E+00
    0.00000E+00         0.00000E+00        -0.48449E+08
 
   -0.47762E+08         0.24067E+06         0.00000E+00
    0.24067E+06        -0.97589E+08         0.00000E+00
    0.00000E+00         0.00000E+00        -0.48359E+08
 
   -0.47647E+08         0.25077E+06         0.00000E+00
    0.25077E+06        -0.97589E+08         0.00000E+00
    0.00000E+00         0.00000E+00        -0.48264E+08
 
   -0.47528E+08         0.26111E+06         0.00000E+00
    0.26111E+06        -0.97589E+08         0.00000E+00
    0.00000E+00         0.00000E+00        -0.48165E+08
 
   -0.47404E+08         0.27168E+06         0.00000E+00
    0.27168E+06        -0.97589E+08         0.00000E+00
    0.00000E+00         0.00000E+00        -0.48060E+08
 
   -0.47274E+08         0.28246E+06         0.00000E+00
    0.28246E+06        -0.97588E+08         0.00000E+00
    0.00000E+00         0.00000E+00        -0.47950E+08
 
   -0.47140E+08         0.29345E+06         0.00000E+00
    0.29345E+06        -0.97588E+08         0.00000E+00
    0.00000E+00         0.00000E+00        -0.47835E+08
 
   -0.47000E+08         0.30460E+06         0.00000E+00
    0.30460E+06        -0.97588E+08         0.00000E+00
    0.00000E+00         0.00000E+00        -0.47714E+08
 
   -0.46855E+08         0.31591E+06         0.00000E+00
    0.31591E+06        -0.97588E+08         0.00000E+00
    0.00000E+00         0.00000E+00        -0.47587E+08
 
   -0.46704E+08         0.32734E+06         0.00000E+00
    0.32734E+06        -0.97588E+08         0.00000E+00
    0.00000E+00         0.00000E+00        -0.47454E+08
 
   -0.46548E+08         0.33886E+06         0.00000E+00
    0.33886E+06        -0.97588E+08         0.00000E+00
    0.00000E+00         0.00000E+00        -0.47314E+08
 
   -0.46387E+08         0.35043E+06         0.00000E+00
    0.35043E+06        -0.97588E+08         0.00000E+00
    0.00000E+00         0.00000E+00        -0.47167E+08
 
   -0.46220E+08         0.36201E+06         0.00000E+00
    0.36201E+06        -0.97588E+08         0.00000E+00
    0.00000E+00         0.00000E+00        -0.47014E+08
 
   -0.46047E+08         0.37355E+06         0.00000E+00
    0.37355E+06        -0.97588E+08         0.00000E+00
    0.00000E+00         0.00000E+00        -0.46853E+08
 
   -0.45869E+08         0.38499E+06         0.00000E+00
    0.38499E+06        -0.97588E+08         0.00000E+00
    0.00000E+00         0.00000E+00        -0.46685E+08
 
   -0.45686E+08         0.39628E+06         0.00000E+00
    0.39628E+06        -0.97588E+08         0.00000E+00
    0.00000E+00         0.00000E+00        -0.46510E+08
 
   -0.45497E+08         0.40734E+06         0.00000E+00
    0.40734E+06        -0.97588E+08         0.00000E+00
    0.00000E+00         0.00000E+00        -0.46326E+08
 
   -0.45303E+08         0.41809E+06         0.00000E+00
    0.41809E+06        -0.97589E+08         0.00000E+00
    0.00000E+00         0.00000E+00        -0.46135E+08
 
   -0.45103E+08         0.42845E+06         0.00000E+00
    0.42845E+06        -0.97589E+08         0.00000E+00
    0.00000E+00         0.00000E+00        -0.45935E+08
 
   -0.44899E+08         0.43831E+06         0.00000E+00
    0.43831E+06        -0.97590E+08         0.00000E+00
    0.00000E+00         0.00000E+00        -0.45726E+08
 
   -0.44690E+08         0.44757E+06         0.00000E+00
    0.44757E+06        -0.97590E+08         0.00000E+00
    0.00000E+00         0.00000E+00        -0.45509E+08
 
   -0.44477E+08         0.45610E+06         0.00000E+00
    0.45610E+06        -0.97591E+08         0.00000E+00
    0.00000E+00         0.00000E+00        -0.45283E+08
 
   -0.44259E+08         0.46375E+06         0.00000E+00
    0.46375E+06        -0.97592E+08         0.00000E+00
    0.00000E+00         0.00000E+00        -0.45047E+08
 
   -0.44038E+08         0.47035E+06         0.00000E+00
    0.47035E+06        -0.97594E+08         0.00000E+00
    0.00000E+00         0.00000E+00        -0.44803E+08
 
   -0.43813E+08         0.47574E+06         0.00000E+00
    0.47574E+06        -0.97595E+08         0.00000E+00
    0.00000E+00         0.00000E+00        -0.44548E+08
 
   -0.43586E+08         0.47971E+06         0.00000E+00
    0.47971E+06        -0.97597E+08         0.00000E+00
    0.00000E+00         0.00000E+00        -0.44284E+08
 
   -0.43357E+08         0.48202E+06         0.00000E+00
    0.48202E+06        -0.97599E+08         0.00000E+00
    0.00000E+00         0.00000E+00        -0.44011E+08
 
   -0.43127E+08         0.48241E+06         0.00000E+00
    0.48241E+06        -0.97601E+08         0.00000E+00
    0.00000E+00         0.00000E+00        -0.43727E+08
 
   -0.42897E+08         0.48059E+06         0.00000E+00
    0.48059E+06        -0.97603E+08         0.00000E+00
    0.00000E+00         0.00000E+00        -0.43433E+08
 
   -0.42667E+08         0.47625E+06         0.00000E+00
    0.47625E+06        -0.97606E+08         0.00000E+00
    0.00000E+00         0.00000E+00        -0.43129E+08
 
   -0.42439E+08         0.46902E+06         0.00000E+00
    0.46902E+06        -0.97610E+08         0.00000E+00
    0.00000E+00         0.00000E+00        -0.42816E+08
 
   -0.42213E+08         0.45851E+06         0.00000E+00
    0.45851E+06        -0.97614E+08         0.00000E+00
    0.00000E+00         0.00000E+00        -0.42492E+08
 
   -0.41992E+08         0.44429E+06         0.00000E+00
    0.44429E+06        -0.97618E+08         0.00000E+00
    0.00000E+00         0.00000E+00        -0.42158E+08
 
   -0.41777E+08         0.42591E+06         0.00000E+00
    0.42591E+06        -0.97623E+08         0.00000E+00
    0.00000E+00         0.00000E+00        -0.41814E+08
 
   -0.41570E+08         0.40290E+06         0.00000E+00
    0.40290E+06        -0.97629E+08         0.00000E+00
    0.00000E+00         0.00000E+00        -0.41460E+08
 
   -0.41371E+08         0.37480E+06         0.00000E+00
    0.37480E+06        -0.97635E+08         0.00000E+00
    0.00000E+00         0.00000E+00        -0.41097E+08
 
   -0.41184E+08         0.34116E+06         0.00000E+00
    0.34116E+06        -0.97641E+08         0.00000E+00
    0.00000E+00         0.00000E+00        -0.40724E+08
 
   -0.41011E+08         0.30159E+06         0.00000E+00
    0.30159E+06        -0.97648E+08         0.00000E+00
    0.00000E+00         0.00000E+00        -0.40343E+08
 
   -0.40852E+08         0.25583E+06         0.00000E+00
    0.25583E+06        -0.97656E+08         0.00000E+00
    0.00000E+00         0.00000E+00        -0.39952E+08
 
   -0.40711E+08         0.20381E+06         0.00000E+00
    0.20381E+06        -0.97663E+08         0.00000E+00
    0.00000E+00         0.00000E+00        -0.39553E+08
 
   -0.40589E+08         0.14574E+06         0.00000E+00
    0.14574E+06        -0.97671E+08         0.00000E+00
    0.00000E+00         0.00000E+00        -0.39146E+08
 
   -0.40487E+08         0.82245E+05         0.00000E+00
    0.82245E+05        -0.97677E+08         0.00000E+00
    0.00000E+00         0.00000E+00        -0.38731E+08
 
   -0.40407E+08         0.14557E+05         0.00000E+00
    0.14557E+05        -0.97682E+08         0.00000E+00
    0.00000E+00         0.00000E+00        -0.38310E+08
 
   -0.40348E+08        -0.55237E+05         0.00000E+00
   -0.55237E+05        -0.97685E+08         0.00000E+00
    0.00000E+00         0.00000E+00        -0.37882E+08
 
   -0.40308E+08        -0.12377E+06         0.00000E+00
   -0.12377E+06        -0.97684E+08         0.00000E+00
    0.00000E+00         0.00000E+00        -0.37449E+08
 
   -0.40283E+08        -0.18564E+06         0.00000E+00
   -0.18564E+06        -0.97678E+08         0.00000E+00
    0.00000E+00         0.00000E+00        -0.37010E+08
 
   -0.40266E+08        -0.23174E+06         0.00000E+00
   -0.23174E+06        -0.97661E+08         0.00000E+00
    0.00000E+00         0.00000E+00        -0.36568E+08
 
   -0.40244E+08        -0.24522E+06         0.00000E+00
   -0.24522E+06        -0.97621E+08         0.00000E+00
    0.00000E+00         0.00000E+00        -0.36122E+08
 
   -0.40212E+08        -0.19946E+06         0.00000E+00
   -0.19946E+06        -0.97522E+08         0.00000E+00
    0.00000E+00         0.00000E+00        -0.35674E+08
 
   -0.40182E+08        -0.79035E+05         0.00000E+00
   -0.79035E+05        -0.97287E+08         0.00000E+00
    0.00000E+00         0.00000E+00        -0.35225E+08
 
   -0.49829E+08        -0.87033E+03         0.00000E+00
   -0.87033E+03        -0.97604E+08         0.00000E+00
    0.00000E+00         0.00000E+00        -0.49995E+08
 
   -0.49828E+08        -0.17484E+04         0.00000E+00
   -0.17484E+04        -0.97600E+08         0.00000E+00
    0.00000E+00         0.00000E+00        -0.49986E+08
 
   -0.49826E+08        -0.10062E+04         0.00000E+00
   -0.10062E+04        -0.97598E+08         0.00000E+00
    0.00000E+00         0.00000E+00        -0.49977E+08
 
   -0.49823E+08         0.91080E+03         0.00000E+00
    0.91080E+03        -0.97597E+08         0.00000E+00
    0.00000E+00         0.00000E+00        -0.49968E+08
 
   -0.49820E+08         0.34153E+04         0.00000E+00
    0.34153E+04        -0.97597E+08         0.00000E+00
    0.00000E+00         0.00000E+00        -0.49958E+08
 
   -0.49816E+08         0.61894E+04         0.00000E+00
    0.61894E+04        -0.97597E+08         0.00000E+00
    0.00000E+00         0.00000E+00        -0.49949E+08
 
   -0.49811E+08         0.90779E+04         0.00000E+00
    0.90779E+04        -0.97597E+08         0.00000E+00
    0.00000E+00         0.00000E+00        -0.49939E+08
 
   -0.49805E+08         0.11995E+05         0.00000E+00
    0.11995E+05        -0.97597E+08         0.00000E+00
    0.00000E+00         0.00000E+00        -0.49929E+08
 
   -0.49797E+08         0.14892E+05         0.00000E+00
    0.14892E+05        -0.97597E+08         0.00000E+00
    0.00000E+00         0.00000E+00        -0.49919E+08
 
   -0.49788E+08         0.17744E+05         0.00000E+00
    0.17744E+05        -0.97597E+08         0.00000E+00
    0.00000E+00         0.00000E+00        -0.49908E+08
 
   -0.49778E+08         0.20539E+05         0.00000E+00
    0.20539E+05        -0.97597E+08         0.00000E+00
    0.00000E+00         0.00000E+00        -0.49897E+08
 
   -0.49767E+08         0.23276E+05         0.00000E+00
    0.23276E+05        -0.97597E+08         0.00000E+00
    0.00000E+00         0.00000E+00        -0.49886E+08
 
   -0.49754E+08         0.25963E+05         0.00000E+00
    0.25963E+05        -0.97597E+08         0.00000E+00
    0.00000E+00         0.00000E+00        -0.49874E+08
 
   -0.49740E+08         0.28611E+05         0.00000E+00
    0.28611E+05        -0.97597E+08         0.00000E+00
    0.00000E+00         0.00000E+00        -0.49862E+08
 
   -0.49724E+08         0.31233E+05         0.00000E+00
    0.31233E+05        -0.97597E+08         0.00000E+00
    0.00000E+00         0.00000E+00        -0.49849E+08
 
   -0.49707E+08         0.33845E+05         0.00000E+00
    0.33845E+05        -0.97597E+08         0.00000E+00
    0.00000E+00         0.00000E+00        -0.49835E+08
 
   -0.49689E+08         0.36463E+05         0.00000E+00
    0.36463E+05        -0.97597E+08         0.00000E+00
    0.00000E+00         0.00000E+00        -0.49821E+08
 
   -0.49670E+08         0.39103E+05         0.00000E+00
    0.39103E+05        -0.97597E+08         0.00000E+00
    0.00000E+00         0.00000E+00        -0.49807E+08
 
   -0.49649E+08         0.41782E+05         0.00000E+00
    0.41782E+05        -0.97597E+08         0.00000E+00
    0.00000E+00         0.00000E+00        -0.49791E+08
 
   -0.49627E+08         0.44514E+05         0.00000E+00
    0.44514E+05        -0.97597E+08         0.00000E+00
    0.00000E+00         0.00000E+00        -0.49775E+08
 
   -0.49603E+08         0.47313E+05         0.00000E+00
    0.47313E+05        -0.97597E+08         0.00000E+00
    0.00000E+00         0.00000E+00        -0.49758E+08
 
   -0.49578E+08         0.50192E+05         0.00000E+00
    0.50192E+05        -0.97597E+08         0.00000E+00
    0.00000E+00         0.00000E+00        -0.49740E+08
 
   -0.49552E+08         0.53166E+05         0.00000E+00
    0.53166E+05        -0.97597E+08         0.00000E+00
    0.00000E+00         0.00000E+00        -0.49721E+08
 
   -0.49524E+08         0.56244E+05         0.00000E+00
    0.56244E+05        -0.97597E+08         0.00000E+00
    0.00000E+00         0.00000E+00        -0.49702E+08
 
   -0.49494E+08         0.59439E+05         0.00000E+00
    0.59439E+05        -0.97597E+08         0.00000E+00
    0.00000E+00         0.00000E+00        -0.49681E+08
 
   -0.49463E+08         0.62762E+05         0.00000E+00
    0.62762E+05        -0.97597E+08         0.00000E+00
    0.00000E+00         0.00000E+00        -0.49659E+08
 
   -0.49430E+08         0.66221E+05         0.00000E+00
    0.66221E+05        -0.97597E+08         0.00000E+00
    0.00000E+00         0.00000E+00        -0.49635E+08
 
   -0.49395E+08         0.69826E+05         0.00000E+00
    0.69826E+05        -0.97596E+08         0.00000E+00
    0.00000E+00         0.00000E+00        -0.49611E+08
 
   -0.49358E+08         0.73587E+05         0.00000E+00
    0.73587E+05        -0.97596E+08         0.00000E+00
    0.00000E+00         0.00000E+00        -0.49585E+08
 
   -0.49319E+08         0.77512E+05         0.00000E+00
    0.77512E+05        -0.97596E+08         0.00000E+00
    0.00000E+00         0.00000E+00        -0.49557E+08
 
   -0.49278E+08         0.81610E+05         0.00000E+00
    0.81610E+05        -0.97596E+08         0.00000E+00
    0.00000E+00         0.00000E+00        -0.49528E+08
 
   -0.49235E+08         0.85887E+05         0.00000E+00
    0.85887E+05        -0.97596E+08         0.00000E+00
    0.00000E+00         0.00000E+00        -0.49497E+08
 
   -0.49190E+08         0.90352E+05         0.00000E+00
    0.90352E+05        -0.97596E+08         0.00000E+00
    0.00000E+00         0.00000E+00        -0.49465E+08
 
   -0.49143E+08         0.95012E+05         0.00000E+00
    0.95012E+05        -0.97595E+08         0.00000E+00
    0.00000E+00         0.00000E+00        -0.49431E+08
 
   -0.49092E+08         0.99874E+05         0.00000E+00
    0.99874E+05        -0.97595E+08         0.00000E+00
    0.00000E+00         0.00000E+00        -0.49395E+08
 
   -0.49040E+08         0.10494E+06         0.00000E+00
    0.10494E+06        -0.97595E+08         0.00000E+00
    0.00000E+00         0.00000E+00        -0.49356E+08
 
   -0.48984E+08         0.11023E+06         0.00000E+00
    0.11023E+06        -0.97595E+08         0.00000E+00
    0.00000E+00         0.00000E+00        -0.49316E+08
 
   -0.48926E+08         0.11574E+06         0.00000E+00
    0.11574E+06        -0.97595E+08         0.00000E+00
    0.00000E+00         0.00000E+00        -0.49273E+08
 
   -0.48865E+08         0.12147E+06         0.00000E+00
    0.12147E+06        -0.97594E+08         0.00000E+00
    0.00000E+00         0.00000E+00        -0.49228E+08
 
   -0.48801E+08         0.12744E+06         0.00000E+00
    0.12744E+06        -0.97594E+08         0.00000E+00
    0.00000E+00         0.00000E+00        -0.49181E+08
 
   -0.48734E+08         0.13364E+06         0.00000E+00
    0.13364E+06        -0.97594E+08         0.00000E+00
    0.00000E+00         0.00000E+00        -0.49130E+08
 
   -0.48664E+08         0.14008E+06         0.00000E+00
    0.14008E+06        -0.97594E+08         0.00000E+00
    0.00000E+00         0.00000E+00        -0.49077E+08
 
   -0.48590E+08         0.14677E+06         0.00000E+00
    0.14677E+06        -0.97593E+08         0.00000E+00
    0.00000E+00         0.00000E+00        -0.49021E+08
 
   -0.48512E+08         0.15370E+06         0.00000E+00
    0.15370E+06        -0.97593E+08         0.00000E+00
    0.00000E+00         0.00000E+00        -0.48962E+08
 
   -0.48431E+08         0.16089E+06         0.00000E+00
    0.16089E+06        -0.97593E+08         0.00000E+00
    0.00000E+00         0.00000E+00        -0.48900E+08
 
   -0.48347E+08         0.16833E+06         0.00000E+00
    0.16833E+06        -0.97593E+08         0.00000E+00
    0.00000E+00         0.00000E+00        -0.48834E+08
 
   -0.48258E+08         0.17602E+06         0.00000E+00
    0.17602E+06        -0.97592E+08         0.00000E+00
    0.00000E+00         0.00000E+00        -0.48765E+08
 
   -0.48165E+08         0.18396E+06         0.00000E+00
    0.18396E+06        -0.97592E+08         0.00000E+00
    0.00000E+00         0.00000E+00        -0.48692E+08
 
   -0.48068E+08         0.19215E+06         0.00000E+00
    0.19215E+06        -0.97592E+08         0.00000E+00
    0.00000E+00         0.00000E+00        -0.48615E+08
 
   -0.47967E+08         0.20058E+06         0.00000E+00
    0.20058E+06        -0.97592E+08         0.00000E+00
    0.00000E+00         0.00000E+00        -0.48534E+08
 
   -0.47861E+08         0.20926E+06         0.00000E+00
    0.20926E+06        -0.97591E+08         0.00000E+00
    0.00000E+00         0.00000E+00        -0.48449E+08
 
   -0.47751E+08         0.21818E+06         0.00000E+00
    0.21818E+06        -0.97591E+08         0.00000E+00
    0.00000E+00         0.00000E+00        -0.48359E+08
 
   -0.47636E+08         0.22732E+06         0.00000E+00
    0.22732E+06        -0.97591E+08         0.00000E+00
    0.00000E+00         0.00000E+00        -0.48264E+08
 
   -0.47516E+08         0.23669E+06         0.00000E+00
    0.23669E+06        -0.97591E+08         0.00000E+00
    0.00000E+00         0.00000E+00        -0.48165E+08
 
   -0.47391E+08         0.24626E+06         0.00000E+00
    0.24626E+06        -0.97591E+08         0.00000E+00
    0.00000E+00         0.00000E+00        -0.48060E+08
 
   -0.47261E+08         0.25603E+06         0.00000E+00
    0.25603E+06        -0.97590E+08         0.00000E+00
    0.00000E+00         0.00000E+00        -0.47950E+08
 
   -0.47126E+08         0.26597E+06         0.00000E+00
    0.26597E+06        -0.97590E+08         0.00000E+00
    0.00000E+00         0.00000E+00        -0.47835E+08
 
   -0.46986E+08         0.27607E+06         0.00000E+00
    0.27607E+06        -0.97590E+08         0.00000E+00
    0.00000E+00         0.00000E+00        -0.47714E+08
 
   -0.46840E+08         0.28631E+06         0.00000E+00
    0.28631E+06        -0.97590E+08         0.00000E+00
    0.00000E+00         0.00000E+00        -0.47587E+08
 
   -0.46689E+08         0.29665E+06         0.00000E+00
    0.29665E+06        -0.97590E+08         0.00000E+00
    0.00000E+00         0.00000E+00        -0.47454E+08
 
   -0.46533E+08         0.30707E+06         0.00000E+00
    0.30707E+06        -0.97590E+08         0.00000E+00
    0.00000E+00         0.00000E+00        -0.47314E+08
 
   -0.46371E+08         0.31754E+06         0.00000E+00
    0.31754E+06        -0.97590E+08         0.00000E+00
    0.00000E+00         0.00000E+00        -0.47167E+08
 
   -0.46203E+08         0.32801E+06         0.00000E+00
    0.32801E+06        -0.97590E+08         0.00000E+00
    0.00000E+00         0.00000E+00        -0.47014E+08
 
   -0.46030E+08         0.33845E+06         0.00000E+00
    0.33845E+06        -0.97590E+08         0.00000E+00
    0.00000E+00         0.00000E+00        -0.46853E+08
 
   -0.45852E+08         0.34879E+06         0.00000E+00
    0.34879E+06        -0.97590E+08         0.00000E+00
    0.00000E+00         0.00000E+00        -0.46685E+08
 
   -0.45668E+08         0.35899E+06         0.00000E+00
    0.35899E+06        -0.97590E+08         0.00000E+00
    0.00000E+00         0.00000E+00        -0.46510E+08
 
   -0.45479E+08         0.36898E+06         0.00000E+00
    0.36898E+06        -0.97590E+08         0.00000E+00
    0.00000E+00         0.00000E+00        -0.46326E+08
 
   -0.45284E+08         0.37870E+06         0.00000E+00
    0.37870E+06        -0.97591E+08         0.00000E+00
    0.00000E+00         0.00000E+00        -0.46135E+08
 
   -0.45084E+08         0.38805E+06         0.00000E+00
    0.38805E+06        -0.97591E+08         0.00000E+00
    0.00000E+00         0.00000E+00        -0.45935E+08
 
   -0.44880E+08         0.39695E+06         0.00000E+00
    0.39695E+06        -0.97592E+08         0.00000E+00
    0.00000E+00         0.00000E+00        -0.45726E+08
 
   -0.44670E+08         0.40530E+06         0.00000E+00
    0.40530E+06        -0.97592E+08         0.00000E+00
    0.00000E+00         0.00000E+00        -0.45509E+08
 
   -0.44457E+08         0.41297E+06         0.00000E+00
    0.41297E+06        -0.97593E+08         0.00000E+00
    0.00000E+00         0.00000E+00        -0.45283E+08
 
   -0.44239E+08         0.41985E+06         0.00000E+00
    0.41985E+06        -0.97594E+08         0.00000E+00
    0.00000E+00         0.00000E+00        -0.45047E+08
 
   -0.44018E+08         0.42578E+06         0.00000E+00
    0.42578E+06        -0.97595E+08         0.00000E+00
    0.00000E+00         0.00000E+00        -0.44803E+08
 
   -0.43793E+08         0.43059E+06         0.00000E+00
    0.43059E+06        -0.97596E+08         0.00000E+00
    0.00000E+00         0.00000E+00        -0.44548E+08
 
   -0.43566E+08         0.43410E+06         0.00000E+00
    0.43410E+06        -0.97597E+08         0.00000E+00
    0.00000E+00         0.00000E+00        -0.44284E+08
 
   -0.43338E+08         0.43610E+06         0.00000E+00
    0.43610E+06        -0.97599E+08         0.00000E+00
    0.00000E+00         0.00000E+00        -0.44011E+08
 
   -0.43108E+08         0.43634E+06         0.00000E+00
    0.43634E+06        -0.97601E+08         0.00000E+00
    0.00000E+00         0.00000E+00        -0.43727E+08
 
   -0.42878E+08         0.43457E+06         0.00000E+00
    0.43457E+06        -0.97603E+08         0.00000E+00
    0.00000E+00         0.00000E+00        -0.43433E+08
 
   -0.42649E+08         0.43048E+06         0.00000E+00
    0.43048E+06        -0.97605E+08         0.00000E+00
    0.00000E+00         0.00000E+00        -0.43129E+08
 
   -0.42421E+08         0.42373E+06         0.00000E+00
    0.42373E+06        -0.97608E+08         0.00000E+00
    0.00000E+00         0.00000E+00        -0.42816E+08
 
   -0.42197E+08         0.41397E+06         0.00000E+00
    0.41397E+06        -0.97611E+08         0.00000E+00
    0.00000E+00         0.00000E+00        -0.42492E+08
 
   -0.41978E+08         0.40081E+06         0.00000E+00
    0.40081E+06        -0.97615E+08         0.00000E+00
    0.00000E+00         0.00000E+00        -0.42158E+08
 
   -0.41765E+08         0.38380E+06         0.00000E+00
    0.38380E+06        -0.97619E+08         0.00000E+00
    0.00000E+00         0.00000E+00        -0.41814E+08
 
   -0.41559E+08         0.36253E+06         0.00000E+00
    0.36253E+06        -0.97624E+08         0.00000E+00
    0.00000E+00         0.00000E+00        -0.41460E+08
 
   -0.41364E+08         0.33654E+06         0.00000E+00
    0.33654E+06        -0.97629E+08         0.00000E+00
    0.00000E+00         0.00000E+00        -0.41097E+08
 
   -0.41181E+08         0.30541E+06         0.00000E+00
    0.30541E+06        -0.97634E+08         0.00000E+00
    0.00000E+00         0.00000E+00        -0.40724E+08
 
   -0.41011E+08         0.26878E+06         0.00000E+00
    0.26878E+06        -0.97640E+08         0.00000E+00
    0.00000E+00         0.00000E+00        -0.40343E+08
 
   -0.40858E+08         0.22638E+06         0.00000E+00
    0.22638E+06        -0.97646E+08         0.00000E+00
    0.00000E+00         0.00000E+00        -0.39952E+08
 
   -0.40724E+08         0.17812E+06         0.00000E+00
    0.17812E+06        -0.97653E+08         0.00000E+00
    0.00000E+00         0.00000E+00        -0.39553E+08
 
   -0.40609E+08         0.12415E+06         0.00000E+00
    0.12415E+06        -0.97659E+08         0.00000E+00
    0.00000E+00         0.00000E+00        -0.39146E+08
 
   -0.40517E+08         0.65012E+05         0.00000E+00
    0.65012E+05        -0.97665E+08         0.00000E+00
    0.00000E+00         0.00000E+00        -0.38731E+08
 
   -0.40447E+08         0.17786E+04         0.00000E+00
    0.17786E+04        -0.97669E+08         0.00000E+00
    0.00000E+00         0.00000E+00        -0.38310E+08
 
   -0.40400E+08        -0.63722E+05         0.00000E+00
   -0.63722E+05        -0.97672E+08         0.00000E+00
    0.00000E+00         0.00000E+00        -0.37882E+08
 
   -0.40375E+08        -0.12853E+06         0.00000E+00
   -0.12853E+06        -0.97672E+08         0.00000E+00
    0.00000E+00         0.00000E+00        -0.37449E+08
 
   -0.40367E+08        -0.18785E+06         0.00000E+00
   -0.18785E+06        -0.97667E+08         0.00000E+00
    0.00000E+00         0.00000E+00        -0.37010E+08
 
   -0.40367E+08        -0.23354E+06         0.00000E+00
   -0.23354E+06        -0.97654E+08         0.00000E+00
    0.00000E+00         0.00000E+00        -0.36568E+08
 
   -0.40363E+08        -0.24952E+06         0.00000E+00
   -0.24952E+06        -0.97622E+08         0.00000E+00
    0.00000E+00         0.00000E+00        -0.36122E+08
 
   -0.40344E+08        -0.20667E+06         0.00000E+00
   -0.20667E+06        -0.97538E+08         0.00000E+00
    0.00000E+00         0.00000E+00        -0.35674E+08
 
   -0.40319E+08        -0.83164E+05         0.00000E+00
   -0.83164E+05        -0.97318E+08         0.00000E+00
    0.00000E+00         0.00000E+00        -0.35225E+08
 
   -0.49825E+08        -0.10248E+04         0.00000E+00
   -0.10248E+04        -0.97604E+08         0.00000E+00
    0.00000E+00         0.00000E+00        -0.49995E+08
 
   -0.49824E+08        -0.20864E+04         0.00000E+00
   -0.20864E+04        -0.97600E+08         0.00000E+00
    0.00000E+00         0.00000E+00        -0.49986E+08
 
   -0.49823E+08        -0.14053E+04         0.00000E+00
   -0.14053E+04        -0.97598E+08         0.00000E+00
    0.00000E+00         0.00000E+00        -0.49977E+08
 
   -0.49821E+08         0.41557E+03         0.00000E+00
    0.41557E+03        -0.97598E+08         0.00000E+00
    0.00000E+00         0.00000E+00        -0.49968E+08
 
   -0.49818E+08         0.27494E+04         0.00000E+00
    0.27494E+04        -0.97598E+08         0.00000E+00
    0.00000E+00         0.00000E+00        -0.49958E+08
 
   -0.49814E+08         0.53056E+04         0.00000E+00
    0.53056E+04        -0.97598E+08         0.00000E+00
    0.00000E+00         0.00000E+00        -0.49949E+08
 
   -0.49809E+08         0.79506E+04         0.00000E+00
    0.79506E+04        -0.97598E+08         0.00000E+00
    0.00000E+00         0.00000E+00        -0.49939E+08
 
   -0.49803E+08         0.10611E+05         0.00000E+00
    0.10611E+05        -0.97598E+08         0.00000E+00
    0.00000E+00         0.00000E+00        -0.49929E+08
 
   -0.49796E+08         0.13244E+05         0.00000E+00
    0.13244E+05        -0.97598E+08         0.00000E+00
    0.00000E+00         0.00000E+00        -0.49919E+08
 
   -0.49787E+08         0.15830E+05         0.00000E+00
    0.15830E+05        -0.97598E+08         0.00000E+00
    0.00000E+00         0.00000E+00        -0.49908E+08
 
   -0.49776E+08         0.18360E+05         0.00000E+00
    0.18360E+05        -0.97598E+08         0.00000E+00
    0.00000E+00         0.00000E+00        -0.49897E+08
 
   -0.49765E+08         0.20834E+05         0.00000E+00
    0.20834E+05        -0.97598E+08         0.00000E+00
    0.00000E+00         0.00000E+00        -0.49886E+08
 
   -0.49752E+08         0.23259E+05         0.00000E+00
    0.23259E+05        -0.97598E+08         0.00000E+00
    0.00000E+00         0.00000E+00        -0.49874E+08
 
   -0.49738E+08         0.25645E+05         0.00000E+00
    0.25645E+05        -0.97598E+08         0.00000E+00
    0.00000E+00         0.00000E+00        -0.49862E+08
 
   -0.49722E+08         0.28005E+05         0.00000E+00
    0.28005E+05        -0.97598E+08         0.00000E+00
    0.00000E+00         0.00000E+00        -0.49849E+08
 
   -0.49706E+08         0.30355E+05         0.00000E+00
    0.30355E+05        -0.97598E+08         0.00000E+00
    0.00000E+00         0.00000E+00        -0.49835E+08
 
   -0.49687E+08         0.32708E+05         0.00000E+00
    0.32708E+05        -0.97598E+08         0.00000E+00
    0.00000E+00         0.00000E+00        -0.49821E+08
 
   -0.49668E+08         0.35080E+05         0.00000E+00
    0.35080E+05        -0.97598E+08         0.00000E+00
    0.00000E+00         0.00000E+00        -0.49807E+08
 
   -0.49647E+08         0.37485E+05         0.00000E+00
    0.37485E+05        -0.97598E+08         0.00000E+00
    0.00000E+00         0.00000E+00        -0.49791E+08
 
   -0.49625E+08         0.39936E+05         0.00000E+00
    0.39936E+05        -0.97598E+08         0.00000E+00
    0.00000E+00         0.00000E+00        -0.49775E+08
 
   -0.49601E+08         0.42448E+05         0.00000E+00
    0.42448E+05        -0.97598E+08         0.00000E+00
    0.00000E+00         0.00000E+00        -0.49758E+08
 
   -0.49576E+08         0.45031E+05         0.00000E+00
    0.45031E+05        -0.97598E+08         0.00000E+00
    0.00000E+00         0.00000E+00        -0.49740E+08
 
   -0.49549E+08         0.47698E+05         0.00000E+00
    0.47698E+05        -0.97598E+08         0.00000E+00
    0.00000E+00         0.00000E+00        -0.49721E+08
 
   -0.49521E+08         0.50459E+05         0.00000E+00
    0.50459E+05        -0.97598E+08         0.00000E+00
    0.00000E+00         0.00000E+00        -0.49702E+08
 
   -0.49491E+08         0.53325E+05         0.00000E+00
    0.53325E+05        -0.97597E+08         0.00000E+00
    0.00000E+00         0.00000E+00        -0.49681E+08
 
   -0.49460E+08         0.56304E+05         0.00000E+00
    0.56304E+05        -0.97597E+08         0.00000E+00
    0.00000E+00         0.00000E+00        -0.49659E+08
 
   -0.49426E+08         0.59405E+05         0.00000E+00
    0.59405E+05        -0.97597E+08         0.00000E+00
    0.00000E+00         0.00000E+00        -0.49635E+08
 
   -0.49391E+08         0.62639E+05         0.00000E+00
    0.62639E+05        -0.97597E+08         0.00000E+00
    0.00000E+00         0.00000E+00        -0.49611E+08
 
   -0.49354E+08         0.66011E+05         0.00000E+00
    0.66011E+05        -0.97597E+08         0.00000E+00
    0.00000E+00         0.00000E+00        -0.49585E+08
 
   -0.49315E+08         0.69530E+05         0.00000E+00
    0.69530E+05        -0.97597E+08         0.00000E+00
    0.00000E+00         0.00000E+00        -0.49557E+08
 
   -0.49274E+08         0.73204E+05         0.00000E+00
    0.73204E+05        -0.97597E+08         0.00000E+00
    0.00000E+00         0.00000E+00        -0.49528E+08
 
   -0.49231E+08         0.77039E+05         0.00000E+00
    0.77039E+05        -0.97597E+08         0.00000E+00
    0.00000E+00         0.00000E+00        -0.49497E+08
 
   -0.49186E+08         0.81042E+05         0.00000E+00
    0.81042E+05        -0.97596E+08         0.00000E+00
    0.00000E+00         0.00000E+00        -0.49465E+08
 
   -0.49138E+08         0.85220E+05         0.00000E+00
    0.85220E+05        -0.97596E+08         0.00000E+00
    0.00000E+00         0.00000E+00        -0.49431E+08
 
   -0.49087E+08         0.89579E+05         0.00000E+00
    0.89579E+05        -0.97596E+08         0.00000E+00
    0.00000E+00         0.00000E+00        -0.49395E+08
 
   -0.49034E+08         0.94125E+05         0.00000E+00
    0.94125E+05        -0.97596E+08         0.00000E+00
    0.00000E+00         0.00000E+00        -0.49356E+08
 
   -0.48979E+08         0.98863E+05         0.00000E+00
    0.98863E+05        -0.97596E+08         0.00000E+00
    0.00000E+00         0.00000E+00        -0.49316E+08
 
   -0.48920E+08         0.10380E+06         0.00000E+00
    0.10380E+06        -0.97596E+08         0.00000E+00
    0.00000E+00         0.00000E+00        -0.49273E+08
 
   -0.48859E+08         0.10894E+06         0.00000E+00
    0.10894E+06        -0.97595E+08         0.00000E+00
    0.00000E+00         0.00000E+00        -0.49228E+08
 
   -0.48795E+08         0.11429E+06         0.00000E+00
    0.11429E+06        -0.97595E+08         0.00000E+00
    0.00000E+00         0.00000E+00        -0.49181E+08
 
   -0.48727E+08         0.11985E+06         0.00000E+00
    0.11985E+06        -0.97595E+08         0.00000E+00
    0.00000E+00         0.00000E+00        -0.49130E+08
 
   -0.48656E+08         0.12562E+06         0.00000E+00
    0.12562E+06        -0.97595E+08         0.00000E+00
    0.00000E+00         0.00000E+00        -0.49077E+08
 
   -0.48582E+08         0.13162E+06         0.00000E+00
    0.13162E+06        -0.97595E+08         0.00000E+00
    0.00000E+00         0.00000E+00        -0.49021E+08
 
   -0.48504E+08         0.13783E+06         0.00000E+00
    0.13783E+06        -0.97594E+08         0.00000E+00
    0.00000E+00         0.00000E+00        -0.48962E+08
 
   -0.48423E+08         0.14427E+06         0.00000E+00
    0.14427E+06        -0.97594E+08         0.00000E+00
    0.00000E+00         0.00000E+00        -0.48900E+08
 
   -0.48338E+08         0.15094E+06         0.00000E+00
    0.15094E+06        -0.97594E+08         0.00000E+00
    0.00000E+00         0.00000E+00        -0.48834E+08
 
   -0.48249E+08         0.15783E+06         0.00000E+00
    0.15783E+06        -0.97594E+08         0.00000E+00
    0.00000E+00         0.00000E+00        -0.48765E+08
 
   -0.48156E+08         0.16494E+06         0.00000E+00
    0.16494E+06        -0.97594E+08         0.00000E+00
    0.00000E+00         0.00000E+00        -0.48692E+08
 
   -0.48058E+08         0.17228E+06         0.00000E+00
    0.17228E+06        -0.97594E+08         0.00000E+00
    0.00000E+00         0.00000E+00        -0.48615E+08
 
   -0.47956E+08         0.17984E+06         0.00000E+00
    0.17984E+06        -0.97593E+08         0.00000E+00
    0.00000E+00         0.00000E+00        -0.48534E+08
 
   -0.47850E+08         0.18761E+06         0.00000E+00
    0.18761E+06        -0.97593E+08         0.00000E+00
    0.00000E+00         0.00000E+00        -0.48449E+08
 
   -0.47739E+08         0.19560E+06         0.00000E+00
    0.19560E+06        -0.97593E+08         0.00000E+00
    0.00000E+00         0.00000E+00        -0.48359E+08
 
   -0.47624E+08         0.20379E+06         0.00000E+00
    0.20379E+06        -0.97593E+08         0.00000E+00
    0.00000E+00         0.00000E+00        -0.48264E+08
 
   -0.47503E+08         0.21218E+06         0.00000E+00
    0.21218E+06        -0.97593E+08         0.00000E+00
    0.00000E+00         0.00000E+00        -0.48165E+08
 
   -0.47378E+08         0.22075E+06         0.00000E+00
    0.22075E+06        -0.97592E+08         0.00000E+00
    0.00000E+00         0.00000E+00        -0.48060E+08
 
   -0.47248E+08         0.22950E+06         0.00000E+00
    0.22950E+06        -0.97592E+08         0.00000E+00
    0.00000E+00         0.00000E+00        -0.47950E+08
 
   -0.47112E+08         0.23840E+06         0.00000E+00
    0.23840E+06        -0.97592E+08         0.00000E+00
    0.00000E+00         0.00000E+00        -0.47835E+08
 
   -0.46972E+08         0.24744E+06         0.00000E+00
    0.24744E+06        -0.97592E+08         0.00000E+00
    0.00000E+00         0.00000E+00        -0.47714E+08
 
   -0.46826E+08         0.25660E+06         0.00000E+00
    0.25660E+06        -0.97592E+08         0.00000E+00
    0.00000E+00         0.00000E+00        -0.47587E+08
 
   -0.46674E+08         0.26586E+06         0.00000E+00
    0.26586E+06        -0.97592E+08         0.00000E+00
    0.00000E+00         0.00000E+00        -0.47454E+08
 
   -0.46517E+08         0.27519E+06         0.00000E+00
    0.27519E+06        -0.97592E+08         0.00000E+00
    0.00000E+00         0.00000E+00        -0.47314E+08
 
   -0.46355E+08         0.28455E+06         0.00000E+00
    0.28455E+06        -0.97592E+08         0.00000E+00
    0.00000E+00         0.00000E+00        -0.47167E+08
 
   -0.46187E+08         0.29392E+06         0.00000E+00
    0.29392E+06        -0.97592E+08         0.00000E+00
    0.00000E+00         0.00000E+00        -0.47014E+08
 
   -0.46013E+08         0.30325E+06         0.00000E+00
    0.30325E+06        -0.97592E+08         0.00000E+00
    0.00000E+00         0.00000E+00        -0.46853E+08
 
   -0.45834E+08         0.31250E+06         0.00000E+00
    0.31250E+06        -0.97592E+08         0.00000E+00
    0.00000E+00         0.00000E+00        -0.46685E+08
 
   -0.45650E+08         0.32162E+06         0.00000E+00
    0.32162E+06        -0.97592E+08         0.00000E+00
    0.00000E+00         0.00000E+00        -0.46510E+08
 
   -0.45460E+08         0.33055E+06         0.00000E+00
    0.33055E+06        -0.97592E+08         0.00000E+00
    0.00000E+00         0.00000E+00        -0.46326E+08
 
   -0.45265E+08         0.33923E+06         0.00000E+00
    0.33923E+06        -0.97593E+08         0.00000E+00
    0.00000E+00         0.00000E+00        -0.46135E+08
 
   -0.45065E+08         0.34758E+06         0.00000E+00
    0.34758E+06        -0.97593E+08         0.00000E+00
    0.00000E+00         0.00000E+00        -0.45935E+08
 
   -0.44860E+08         0.35553E+06         0.00000E+00
    0.35553E+06        -0.97593E+08         0.00000E+00
    0.00000E+00         0.00000E+00        -0.45726E+08
 
   -0.44651E+08         0.36297E+06         0.00000E+00
    0.36297E+06        -0.97594E+08         0.00000E+00
    0.00000E+00         0.00000E+00        -0.45509E+08
 
   -0.44437E+08         0.36981E+06         0.00000E+00
    0.36981E+06        -0.97594E+08         0.00000E+00
    0.00000E+00         0.00000E+00        -0.45283E+08
 
   -0.44219E+08         0.37592E+06         0.00000E+00
    0.37592E+06        -0.97595E+08         0.00000E+00
    0.00000E+00         0.00000E+00        -0.45047E+08
 
   -0.43998E+08         0.38118E+06         0.00000E+00
    0.38118E+06        -0.97596E+08         0.00000E+00
    0.00000E+00         0.00000E+00        -0.44803E+08
 
   -0.43773E+08         0.38544E+06         0.00000E+00
    0.38544E+06        -0.97597E+08         0.00000E+00
    0.00000E+00         0.00000E+00        -0.44548E+08
 
   -0.43546E+08         0.38852E+06         0.00000E+00
    0.38852E+06        -0.97598E+08         0.00000E+00
    0.00000E+00         0.00000E+00        -0.44284E+08
 
   -0.43318E+08         0.39023E+06         0.00000E+00
    0.39023E+06        -0.97599E+08         0.00000E+00
    0.00000E+00         0.00000E+00        -0.44011E+08
 
   -0.43088E+08         0.39035E+06         0.00000E+00
    0.39035E+06        -0.97601E+08         0.00000E+00
    0.00000E+00         0.00000E+00        -0.43727E+08
 
   -0.42858E+08         0.38865E+06         0.00000E+00
    0.38865E+06        -0.97602E+08         0.00000E+00
    0.00000E+00         0.00000E+00        -0.43433E+08
 
   -0.42630E+08         0.38485E+06         0.00000E+00
    0.38485E+06        -0.97604E+08         0.00000E+00
    0.00000E+00         0.00000E+00        -0.43129E+08
 
   -0.42403E+08         0.37864E+06         0.00000E+00
    0.37864E+06        -0.97607E+08         0.00000E+00
    0.00000E+00         0.00000E+00        -0.42816E+08
 
   -0.42180E+08         0.36970E+06         0.00000E+00
    0.36970E+06        -0.97609E+08         0.00000E+00
    0.00000E+00         0.00000E+00        -0.42492E+08
 
   -0.41962E+08         0.35765E+06         0.00000E+00
    0.35765E+06        -0.97612E+08         0.00000E+00
    0.00000E+00         0.00000E+00        -0.42158E+08
 
   -0.41751E+08         0.34211E+06         0.00000E+00
    0.34211E+06        -0.97615E+08         0.00000E+00
    0.00000E+00         0.00000E+00        -0.41814E+08
 
   -0.41548E+08         0.32267E+06         0.00000E+00
    0.32267E+06        -0.97619E+08         0.00000E+00
    0.00000E+00         0.00000E+00        -0.41460E+08
 
   -0.41355E+08         0.29892E+06         0.00000E+00
    0.29892E+06        -0.97623E+08         0.00000E+00
    0.00000E+00         0.00000E+00        -0.41097E+08
 
   -0.41176E+08         0.27046E+06         0.00000E+00
    0.27046E+06        -0.97628E+08         0.00000E+00
    0.00000E+00         0.00000E+00        -0.40724E+08
 
   -0.41010E+08         0.23693E+06         0.00000E+00
    0.23693E+06        -0.97633E+08         0.00000E+00
    0.00000E+00         0.00000E+00        -0.40343E+08
 
   -0.40863E+08         0.19809E+06         0.00000E+00
    0.19809E+06        -0.97638E+08         0.00000E+00
    0.00000E+00         0.00000E+00        -0.39952E+08
 
   -0.40734E+08         0.15382E+06         0.00000E+00
    0.15382E+06        -0.97643E+08         0.00000E+00
    0.00000E+00         0.00000E+00        -0.39553E+08
 
   -0.40627E+08         0.10423E+06         0.00000E+00
    0.10423E+06        -0.97648E+08         0.00000E+00
    0.00000E+00         0.00000E+00        -0.39146E+08
 
   -0.40544E+08         0.49763E+05         0.00000E+00
    0.49763E+05        -0.97653E+08         0.00000E+00
    0.00000E+00         0.00000E+00        -0.38731E+08
 
   -0.40485E+08        -0.86616E+04         0.00000E+00
   -0.86616E+04        -0.97657E+08         0.00000E+00
    0.00000E+00         0.00000E+00        -0.38310E+08
 
   -0.40451E+08        -0.69474E+05         0.00000E+00
   -0.69474E+05        -0.97659E+08         0.00000E+00
    0.00000E+00         0.00000E+00        -0.37882E+08
 
   -0.40441E+08        -0.13012E+06         0.00000E+00
   -0.13012E+06        -0.97659E+08         0.00000E+00
    0.00000E+00         0.00000E+00        -0.37449E+08
 
   -0.40450E+08        -0.18646E+06         0.00000E+00
   -0.18646E+06        -0.97656E+08         0.00000E+00
    0.00000E+00         0.00000E+00        -0.37010E+08
 
   -0.40470E+08        -0.23142E+06         0.00000E+00
   -0.23142E+06        -0.97646E+08         0.00000E+00
    0.00000E+00         0.00000E+00        -0.36568E+08
 
   -0.40486E+08        -0.25030E+06         0.00000E+00
   -0.25030E+06        -0.97623E+08         0.00000E+00
    0.00000E+00         0.00000E+00        -0.36122E+08
 
   -0.40482E+08        -0.21202E+06         0.00000E+00
   -0.21202E+06        -0.97555E+08         0.00000E+00
    0.00000E+00         0.00000E+00        -0.35674E+08
 
   -0.40464E+08        -0.87012E+05         0.00000E+00
   -0.87012E+05        -0.97351E+08         0.00000E+00
    0.00000E+00         0.00000E+00        -0.35225E+08
 
   -0.49822E+08        -0.11735E+04         0.00000E+00
   -0.11735E+04        -0.97603E+08         0.00000E+00
    0.00000E+00         0.00000E+00        -0.49995E+08
 
   -0.49821E+08        -0.23810E+04         0.00000E+00
   -0.23810E+04        -0.97600E+08         0.00000E+00
    0.00000E+00         0.00000E+00        -0.49986E+08
 
   -0.49819E+08        -0.17284E+04         0.00000E+00
   -0.17284E+04        -0.97599E+08         0.00000E+00
    0.00000E+00         0.00000E+00        -0.49977E+08
 
   -0.49818E+08        -0.40257E+01         0.00000E+00
   -0.40257E+01        -0.97598E+08         0.00000E+00
    0.00000E+00         0.00000E+00        -0.49968E+08
 
   -0.49815E+08         0.21463E+04         0.00000E+00
    0.21463E+04        -0.97598E+08         0.00000E+00
    0.00000E+00         0.00000E+00        -0.49958E+08
 
   -0.49812E+08         0.44719E+04         0.00000E+00
    0.44719E+04        -0.97598E+08         0.00000E+00
    0.00000E+00         0.00000E+00        -0.49949E+08
 
   -0.49807E+08         0.68618E+04         0.00000E+00
    0.68618E+04        -0.97598E+08         0.00000E+00
    0.00000E+00         0.00000E+00        -0.49939E+08
 
   -0.49801E+08         0.92544E+04         0.00000E+00
    0.92544E+04        -0.97598E+08         0.00000E+00
    0.00000E+00         0.00000E+00        -0.49929E+08
 
   -0.49794E+08         0.11616E+05         0.00000E+00
    0.11616E+05        -0.97598E+08         0.00000E+00
    0.00000E+00         0.00000E+00        -0.49919E+08
 
   -0.49785E+08         0.13929E+05         0.00000E+00
    0.13929E+05        -0.97598E+08         0.00000E+00
    0.00000E+00         0.00000E+00        -0.49908E+08
 
   -0.49775E+08         0.16187E+05         0.00000E+00
    0.16187E+05        -0.97598E+08         0.00000E+00
    0.00000E+00         0.00000E+00        -0.49897E+08
 
   -0.49763E+08         0.18392E+05         0.00000E+00
    0.18392E+05        -0.97598E+08         0.00000E+00
    0.00000E+00         0.00000E+00        -0.49886E+08
 
   -0.49751E+08         0.20549E+05         0.00000E+00
    0.20549E+05        -0.97598E+08         0.00000E+00
    0.00000E+00         0.00000E+00        -0.49874E+08
 
   -0.49736E+08         0.22670E+05         0.00000E+00
    0.22670E+05        -0.97598E+08         0.00000E+00
    0.00000E+00         0.00000E+00        -0.49862E+08
 
   -0.49721E+08         0.24765E+05         0.00000E+00
    0.24765E+05        -0.97598E+08         0.00000E+00
    0.00000E+00         0.00000E+00        -0.49849E+08
 
   -0.49704E+08         0.26849E+05         0.00000E+00
    0.26849E+05        -0.97598E+08         0.00000E+00
    0.00000E+00         0.00000E+00        -0.49835E+08
 
   -0.49686E+08         0.28935E+05         0.00000E+00
    0.28935E+05        -0.97598E+08         0.00000E+00
    0.00000E+00         0.00000E+00        -0.49821E+08
 
   -0.49666E+08         0.31035E+05         0.00000E+00
    0.31035E+05        -0.97598E+08         0.00000E+00
    0.00000E+00         0.00000E+00        -0.49807E+08
 
   -0.49645E+08         0.33164E+05         0.00000E+00
    0.33164E+05        -0.97598E+08         0.00000E+00
    0.00000E+00         0.00000E+00        -0.49791E+08
 
   -0.49623E+08         0.35334E+05         0.00000E+00
    0.35334E+05        -0.97598E+08         0.00000E+00
    0.00000E+00         0.00000E+00        -0.49775E+08
 
   -0.49599E+08         0.37556E+05         0.00000E+00
    0.37556E+05        -0.97598E+08         0.00000E+00
    0.00000E+00         0.00000E+00        -0.49758E+08
 
   -0.49574E+08         0.39841E+05         0.00000E+00
    0.39841E+05        -0.97598E+08         0.00000E+00
    0.00000E+00         0.00000E+00        -0.49740E+08
 
   -0.49547E+08         0.42200E+05         0.00000E+00
    0.42200E+05        -0.97598E+08         0.00000E+00
    0.00000E+00         0.00000E+00        -0.49721E+08
 
   -0.49518E+08         0.44642E+05         0.00000E+00
    0.44642E+05        -0.97598E+08         0.00000E+00
    0.00000E+00         0.00000E+00        -0.49702E+08
 
   -0.49488E+08         0.47176E+05         0.00000E+00
    0.47176E+05        -0.97598E+08         0.00000E+00
    0.00000E+00         0.00000E+00        -0.49681E+08
 
   -0.49457E+08         0.49810E+05         0.00000E+00
    0.49810E+05        -0.97598E+08         0.00000E+00
    0.00000E+00         0.00000E+00        -0.49659E+08
 
   -0.49423E+08         0.52553E+05         0.00000E+00
    0.52553E+05        -0.97598E+08         0.00000E+00
    0.00000E+00         0.00000E+00        -0.49635E+08
 
   -0.49388E+08         0.55412E+05         0.00000E+00
    0.55412E+05        -0.97598E+08         0.00000E+00
    0.00000E+00         0.00000E+00        -0.49611E+08
 
   -0.49351E+08         0.58393E+05         0.00000E+00
    0.58393E+05        -0.97598E+08         0.00000E+00
    0.00000E+00         0.00000E+00        -0.49585E+08
 
   -0.49312E+08         0.61505E+05         0.00000E+00
    0.61505E+05        -0.97598E+08         0.00000E+00
    0.00000E+00         0.00000E+00        -0.49557E+08
 
   -0.49270E+08         0.64753E+05         0.00000E+00
    0.64753E+05        -0.97597E+08         0.00000E+00
    0.00000E+00         0.00000E+00        -0.49528E+08
 
   -0.49227E+08         0.68144E+05         0.00000E+00
    0.68144E+05        -0.97597E+08         0.00000E+00
    0.00000E+00         0.00000E+00        -0.49497E+08
 
   -0.49181E+08         0.71683E+05         0.00000E+00
    0.71683E+05        -0.97597E+08         0.00000E+00
    0.00000E+00         0.00000E+00        -0.49465E+08
 
   -0.49133E+08         0.75377E+05         0.00000E+00
    0.75377E+05        -0.97597E+08         0.00000E+00
    0.00000E+00         0.00000E+00        -0.49431E+08
 
   -0.49082E+08         0.79231E+05         0.00000E+00
    0.79231E+05        -0.97597E+08         0.00000E+00
    0.00000E+00         0.00000E+00        -0.49395E+08
 
   -0.49029E+08         0.83250E+05         0.00000E+00
    0.83250E+05        -0.97597E+08         0.00000E+00
    0.00000E+00         0.00000E+00        -0.49356E+08
 
   -0.48973E+08         0.87439E+05         0.00000E+00
    0.87439E+05        -0.97597E+08         0.00000E+00
    0.00000E+00         0.00000E+00        -0.49316E+08
 
   -0.48915E+08         0.91804E+05         0.00000E+00
    0.91804E+05        -0.97597E+08         0.00000E+00
    0.00000E+00         0.00000E+00        -0.49273E+08
 
   -0.48853E+08         0.96347E+05         0.00000E+00
    0.96347E+05        -0.97596E+08         0.00000E+00
    0.00000E+00         0.00000E+00        -0.49228E+08
 
   -0.48788E+08         0.10107E+06         0.00000E+00
    0.10107E+06        -0.97596E+08         0.00000E+00
    0.00000E+00         0.00000E+00        -0.49181E+08
 
   -0.48720E+08         0.10599E+06         0.00000E+00
    0.10599E+06        -0.97596E+08         0.00000E+00
    0.00000E+00         0.00000E+00        -0.49130E+08
 
   -0.48649E+08         0.11109E+06         0.00000E+00
    0.11109E+06        -0.97596E+08         0.00000E+00
    0.00000E+00         0.00000E+00        -0.49077E+08
 
   -0.48575E+08         0.11639E+06         0.00000E+00
    0.11639E+06        -0.97596E+08         0.00000E+00
    0.00000E+00         0.00000E+00        -0.49021E+08
 
   -0.48497E+08         0.12189E+06         0.00000E+00
    0.12189E+06        -0.97596E+08         0.00000E+00
    0.00000E+00         0.00000E+00        -0.48962E+08
 
   -0.48415E+08         0.12758E+06         0.00000E+00
    0.12758E+06        -0.97596E+08         0.00000E+00
    0.00000E+00         0.00000E+00        -0.48900E+08
 
   -0.48329E+08         0.13347E+06         0.00000E+00
    0.13347E+06        -0.97595E+08         0.00000E+00
    0.00000E+00         0.00000E+00        -0.48834E+08
 
   -0.48240E+08         0.13956E+06         0.00000E+00
    0.13956E+06        -0.97595E+08         0.00000E+00
    0.00000E+00         0.00000E+00        -0.48765E+08
 
   -0.48146E+08         0.14584E+06         0.00000E+00
    0.14584E+06        -0.97595E+08         0.00000E+00
    0.00000E+00         0.00000E+00        -0.48692E+08
 
   -0.48048E+08         0.15233E+06         0.00000E+00
    0.15233E+06        -0.97595E+08         0.00000E+00
    0.00000E+00         0.00000E+00        -0.48615E+08
 
   -0.47946E+08         0.15901E+06         0.00000E+00
    0.15901E+06        -0.97595E+08         0.00000E+00
    0.00000E+00         0.00000E+00        -0.48534E+08
 
   -0.47840E+08         0.16587E+06         0.00000E+00
    0.16587E+06        -0.97595E+08         0.00000E+00
    0.00000E+00         0.00000E+00        -0.48449E+08
 
   -0.47728E+08         0.17293E+06         0.00000E+00
    0.17293E+06        -0.97594E+08         0.00000E+00
    0.00000E+00         0.00000E+00        -0.48359E+08
 
   -0.47612E+08         0.18017E+06         0.00000E+00
    0.18017E+06        -0.97594E+08         0.00000E+00
    0.00000E+00         0.00000E+00        -0.48264E+08
 
   -0.47492E+08         0.18757E+06         0.00000E+00
    0.18757E+06        -0.97594E+08         0.00000E+00
    0.00000E+00         0.00000E+00        -0.48165E+08
 
   -0.47366E+08         0.19515E+06         0.00000E+00
    0.19515E+06        -0.97594E+08         0.00000E+00
    0.00000E+00         0.00000E+00        -0.48060E+08
 
   -0.47235E+08         0.20287E+06         0.00000E+00
    0.20287E+06        -0.97594E+08         0.00000E+00
    0.00000E+00         0.00000E+00        -0.47950E+08
 
   -0.47099E+08         0.21073E+06         0.00000E+00
    0.21073E+06        -0.97594E+08         0.00000E+00
    0.00000E+00         0.00000E+00        -0.47835E+08
 
   -0.46958E+08         0.21871E+06         0.00000E+00
    0.21871E+06        -0.97594E+08         0.00000E+00
    0.00000E+00         0.00000E+00        -0.47714E+08
 
   -0.46811E+08         0.22680E+06         0.00000E+00
    0.22680E+06        -0.97594E+08         0.00000E+00
    0.00000E+00         0.00000E+00        -0.47587E+08
 
   -0.46659E+08         0.23497E+06         0.00000E+00
    0.23497E+06        -0.97594E+08         0.00000E+00
    0.00000E+00         0.00000E+00        -0.47454E+08
 
   -0.46502E+08         0.24321E+06         0.00000E+00
    0.24321E+06        -0.97594E+08         0.00000E+00
    0.00000E+00         0.00000E+00        -0.47314E+08
 
   -0.46339E+08         0.25147E+06         0.00000E+00
    0.25147E+06        -0.97594E+08         0.00000E+00
    0.00000E+00         0.00000E+00        -0.47167E+08
 
   -0.46170E+08         0.25974E+06         0.00000E+00
    0.25974E+06        -0.97594E+08         0.00000E+00
    0.00000E+00         0.00000E+00        -0.47014E+08
 
   -0.45997E+08         0.26797E+06         0.00000E+00
    0.26797E+06        -0.97594E+08         0.00000E+00
    0.00000E+00         0.00000E+00        -0.46853E+08
 
   -0.45817E+08         0.27613E+06         0.00000E+00
    0.27613E+06        -0.97594E+08         0.00000E+00
    0.00000E+00         0.00000E+00        -0.46685E+08
 
   -0.45632E+08         0.28417E+06         0.00000E+00
    0.28417E+06        -0.97594E+08         0.00000E+00
    0.00000E+00         0.00000E+00        -0.46510E+08
 
   -0.45442E+08         0.29204E+06         0.00000E+00
    0.29204E+06        -0.97594E+08         0.00000E+00
    0.00000E+00         0.00000E+00        -0.46326E+08
 
   -0.45247E+08         0.29969E+06         0.00000E+00
    0.29969E+06        -0.97594E+08         0.00000E+00
    0.00000E+00         0.00000E+00        -0.46135E+08
 
   -0.45046E+08         0.30704E+06         0.00000E+00
    0.30704E+06        -0.97594E+08         0.00000E+00
    0.00000E+00         0.00000E+00        -0.45935E+08
 
   -0.44841E+08         0.31404E+06         0.00000E+00
    0.31404E+06        -0.97595E+08         0.00000E+00
    0.00000E+00         0.00000E+00        -0.45726E+08
 
   -0.44631E+08         0.32058E+06         0.00000E+00
    0.32058E+06        -0.97595E+08         0.00000E+00
    0.00000E+00         0.00000E+00        -0.45509E+08
 
   -0.44417E+08         0.32659E+06         0.00000E+00
    0.32659E+06        -0.97595E+08         0.00000E+00
    0.00000E+00         0.00000E+00        -0.45283E+08
 
   -0.44199E+08         0.33196E+06         0.00000E+00
    0.33196E+06        -0.97596E+08         0.00000E+00
    0.00000E+00         0.00000E+00        -0.45047E+08
 
   -0.43977E+08         0.33657E+06         0.00000E+00
    0.33657E+06        -0.97597E+08         0.00000E+00
    0.00000E+00         0.00000E+00        -0.44803E+08
 
   -0.43753E+08         0.34028E+06         0.00000E+00
    0.34028E+06        -0.97597E+08         0.00000E+00
    0.00000E+00         0.00000E+00        -0.44548E+08
 
   -0.43526E+08         0.34294E+06         0.00000E+00
    0.34294E+06        -0.97598E+08         0.00000E+00
    0.00000E+00         0.00000E+00        -0.44284E+08
 
   -0.43297E+08         0.34439E+06         0.00000E+00
    0.34439E+06        -0.97599E+08         0.00000E+00
    0.00000E+00         0.00000E+00        -0.44011E+08
 
   -0.43068E+08         0.34442E+06         0.00000E+00
    0.34442E+06        -0.97600E+08         0.00000E+00
    0.00000E+00         0.00000E+00        -0.43727E+08
 
   -0.42839E+08         0.34283E+06         0.00000E+00
    0.34283E+06        -0.97602E+08         0.00000E+00
    0.00000E+00         0.00000E+00        -0.43433E+08
 
   -0.42610E+08         0.33935E+06         0.00000E+00
    0.33935E+06        -0.97603E+08         0.00000E+00
    0.00000E+00         0.00000E+00        -0.43129E+08
 
   -0.42385E+08         0.33373E+06         0.00000E+00
    0.33373E+06        -0.97605E+08         0.00000E+00
    0.00000E+00         0.00000E+00        -0.42816E+08
 
   -0.42163E+08         0.32565E+06         0.00000E+00
    0.32565E+06        -0.97607E+08         0.00000E+00
    0.00000E+00         0.00000E+00        -0.42492E+08
 
   -0.41946E+08         0.31480E+06         0.00000E+00
    0.31480E+06        -0.97610E+08         0.00000E+00
    0.00000E+00         0.00000E+00        -0.42158E+08
 
   -0.41736E+08         0.30080E+06         0.00000E+00
    0.30080E+06        -0.97612E+08         0.00000E+00
    0.00000E+00         0.00000E+00        -0.41814E+08
 
   -0.41535E+08         0.28329E+06         0.00000E+00
    0.28329E+06        -0.97615E+08         0.00000E+00
    0.00000E+00         0.00000E+00        -0.41460E+08
 
   -0.41345E+08         0.26190E+06         0.00000E+00
    0.26190E+06        -0.97618E+08         0.00000E+00
    0.00000E+00         0.00000E+00        -0.41097E+08
 
   -0.41169E+08         0.23625E+06         0.00000E+00
    0.23625E+06        -0.97622E+08         0.00000E+00
    0.00000E+00         0.00000E+00        -0.40724E+08
 
   -0.41008E+08         0.20601E+06         0.00000E+00
    0.20601E+06        -0.97626E+08         0.00000E+00
    0.00000E+00         0.00000E+00        -0.40343E+08
 
   -0.40865E+08         0.17093E+06         0.00000E+00
    0.17093E+06        -0.97630E+08         0.00000E+00
    0.00000E+00         0.00000E+00        -0.39952E+08
 
   -0.40743E+08         0.13089E+06         0.00000E+00
    0.13089E+06        -0.97634E+08         0.00000E+00
    0.00000E+00         0.00000E+00        -0.39553E+08
 
   -0.40643E+08         0.85961E+05         0.00000E+00
    0.85961E+05        -0.97638E+08         0.00000E+00
    0.00000E+00         0.00000E+00        -0.39146E+08
 
   -0.40569E+08         0.36495E+05         0.00000E+00
    0.36495E+05        -0.97642E+08         0.00000E+00
    0.00000E+00         0.00000E+00        -0.38731E+08
 
   -0.40521E+08        -0.16745E+05         0.00000E+00
   -0.16745E+05        -0.97645E+08         0.00000E+00
    0.00000E+00         0.00000E+00        -0.38310E+08
 
   -0.40500E+08        -0.72440E+05         0.00000E+00
   -0.72440E+05        -0.97647E+08         0.00000E+00
    0.00000E+00         0.00000E+00        -0.37882E+08
 
   -0.40505E+08        -0.12845E+06         0.00000E+00
   -0.12845E+06        -0.97648E+08         0.00000E+00
    0.00000E+00         0.00000E+00        -0.37449E+08
 
   -0.40532E+08        -0.18128E+06         0.00000E+00
   -0.18128E+06        -0.97646E+08         0.00000E+00
    0.00000E+00         0.00000E+00        -0.37010E+08
 
   -0.40573E+08        -0.22500E+06         0.00000E+00
   -0.22500E+06        -0.97639E+08         0.00000E+00
    0.00000E+00         0.00000E+00        -0.36568E+08
 
   -0.40612E+08        -0.24690E+06         0.00000E+00
   -0.24690E+06        -0.97623E+08         0.00000E+00
    0.00000E+00         0.00000E+00        -0.36122E+08
 
   -0.40627E+08        -0.21496E+06         0.00000E+00
   -0.21496E+06        -0.97570E+08         0.00000E+00
    0.00000E+00         0.00000E+00        -0.35674E+08
 
   -0.40618E+08        -0.90486E+05         0.00000E+00
   -0.90486E+05        -0.97384E+08         0.00000E+00
    0.00000E+00         0.00000E+00        -0.35225E+08
 
   -0.49818E+08        -0.13139E+04         0.00000E+00
   -0.13139E+04        -0.97603E+08         0.00000E+00
    0.00000E+00         0.00000E+00        -0.49995E+08
 
   -0.49817E+08        -0.26177E+04         0.00000E+00
   -0.26177E+04        -0.97600E+08         0.00000E+00
    0.00000E+00         0.00000E+00        -0.49986E+08
 
   -0.49816E+08        -0.19604E+04         0.00000E+00
   -0.19604E+04        -0.97599E+08         0.00000E+00
    0.00000E+00         0.00000E+00        -0.49977E+08
 
   -0.49815E+08        -0.34043E+03         0.00000E+00
   -0.34043E+03        -0.97599E+08         0.00000E+00
    0.00000E+00         0.00000E+00        -0.49968E+08
 
   -0.49813E+08         0.16095E+04         0.00000E+00
    0.16095E+04        -0.97599E+08         0.00000E+00
    0.00000E+00         0.00000E+00        -0.49958E+08
 
   -0.49810E+08         0.36901E+04         0.00000E+00
    0.36901E+04        -0.97599E+08         0.00000E+00
    0.00000E+00         0.00000E+00        -0.49949E+08
 
   -0.49805E+08         0.58123E+04         0.00000E+00
    0.58123E+04        -0.97599E+08         0.00000E+00
    0.00000E+00         0.00000E+00        -0.49939E+08
 
   -0.49800E+08         0.79268E+04         0.00000E+00
    0.79268E+04        -0.97599E+08         0.00000E+00
    0.00000E+00         0.00000E+00        -0.49929E+08
 
   -0.49792E+08         0.10007E+05         0.00000E+00
    0.10007E+05        -0.97599E+08         0.00000E+00
    0.00000E+00         0.00000E+00        -0.49919E+08
 
   -0.49784E+08         0.12039E+05         0.00000E+00
    0.12039E+05        -0.97599E+08         0.00000E+00
    0.00000E+00         0.00000E+00        -0.49908E+08
 
   -0.49773E+08         0.14019E+05         0.00000E+00
    0.14019E+05        -0.97599E+08         0.00000E+00
    0.00000E+00         0.00000E+00        -0.49897E+08
 
   -0.49762E+08         0.15949E+05         0.00000E+00
    0.15949E+05        -0.97599E+08         0.00000E+00
    0.00000E+00         0.00000E+00        -0.49886E+08
 
   -0.49749E+08         0.17834E+05         0.00000E+00
    0.17834E+05        -0.97599E+08         0.00000E+00
    0.00000E+00         0.00000E+00        -0.49874E+08
 
   -0.49735E+08         0.19685E+05         0.00000E+00
    0.19685E+05        -0.97599E+08         0.00000E+00
    0.00000E+00         0.00000E+00        -0.49862E+08
 
   -0.49719E+08         0.21512E+05         0.00000E+00
    0.21512E+05        -0.97599E+08         0.00000E+00
    0.00000E+00         0.00000E+00        -0.49849E+08
 
   -0.49702E+08         0.23327E+05         0.00000E+00
    0.23327E+05        -0.97599E+08         0.00000E+00
    0.00000E+00         0.00000E+00        -0.49835E+08
 
   -0.49684E+08         0.25142E+05         0.00000E+00
    0.25142E+05        -0.97599E+08         0.00000E+00
    0.00000E+00         0.00000E+00        -0.49821E+08
 
   -0.49664E+08         0.26970E+05         0.00000E+00
    0.26970E+05        -0.97599E+08         0.00000E+00
    0.00000E+00         0.00000E+00        -0.49807E+08
 
   -0.49643E+08         0.28821E+05         0.00000E+00
    0.28821E+05        -0.97599E+08         0.00000E+00
    0.00000E+00         0.00000E+00        -0.49791E+08
 
   -0.49621E+08         0.30707E+05         0.00000E+00
    0.30707E+05        -0.97599E+08         0.00000E+00
    0.00000E+00         0.00000E+00        -0.49775E+08
 
   -0.49597E+08         0.32637E+05         0.00000E+00
    0.32637E+05        -0.97599E+08         0.00000E+00
    0.00000E+00         0.00000E+00        -0.49758E+08
 
   -0.49571E+08         0.34623E+05         0.00000E+00
    0.34623E+05        -0.97599E+08         0.00000E+00
    0.00000E+00         0.00000E+00        -0.49740E+08
 
   -0.49544E+08         0.36672E+05         0.00000E+00
    0.36672E+05        -0.97599E+08         0.00000E+00
    0.00000E+00         0.00000E+00        -0.49721E+08
 
   -0.49516E+08         0.38793E+05         0.00000E+00
    0.38793E+05        -0.97599E+08         0.00000E+00
    0.00000E+00         0.00000E+00        -0.49702E+08
 
   -0.49486E+08         0.40993E+05         0.00000E+00
    0.40993E+05        -0.97598E+08         0.00000E+00
    0.00000E+00         0.00000E+00        -0.49681E+08
 
   -0.49454E+08         0.43281E+05         0.00000E+00
    0.43281E+05        -0.97598E+08         0.00000E+00
    0.00000E+00         0.00000E+00        -0.49659E+08
 
   -0.49420E+08         0.45664E+05         0.00000E+00
    0.45664E+05        -0.97598E+08         0.00000E+00
    0.00000E+00         0.00000E+00        -0.49635E+08
 
   -0.49385E+08         0.48146E+05         0.00000E+00
    0.48146E+05        -0.97598E+08         0.00000E+00
    0.00000E+00         0.00000E+00        -0.49611E+08
 
   -0.49347E+08         0.50736E+05         0.00000E+00
    0.50736E+05        -0.97598E+08         0.00000E+00
    0.00000E+00         0.00000E+00        -0.49585E+08
 
   -0.49308E+08         0.53438E+05         0.00000E+00
    0.53438E+05        -0.97598E+08         0.00000E+00
    0.00000E+00         0.00000E+00        -0.49557E+08
 
   -0.49266E+08         0.56259E+05         0.00000E+00
    0.56259E+05        -0.97598E+08         0.00000E+00
    0.00000E+00         0.00000E+00        -0.49528E+08
 
   -0.49223E+08         0.59204E+05         0.00000E+00
    0.59204E+05        -0.97598E+08         0.00000E+00
    0.00000E+00         0.00000E+00        -0.49497E+08
 
   -0.49177E+08         0.62278E+05         0.00000E+00
    0.62278E+05        -0.97598E+08         0.00000E+00
    0.00000E+00         0.00000E+00        -0.49465E+08
 
   -0.49128E+08         0.65486E+05         0.00000E+00
    0.65486E+05        -0.97598E+08         0.00000E+00
    0.00000E+00         0.00000E+00        -0.49431E+08
 
   -0.49077E+08         0.68832E+05         0.00000E+00
    0.68832E+05        -0.97598E+08         0.00000E+00
    0.00000E+00         0.00000E+00        -0.49395E+08
 
   -0.49024E+08         0.72322E+05         0.00000E+00
    0.72322E+05        -0.97598E+08         0.00000E+00
    0.00000E+00         0.00000E+00        -0.49356E+08
 
   -0.48968E+08         0.75960E+05         0.00000E+00
    0.75960E+05        -0.97598E+08         0.00000E+00
    0.00000E+00         0.00000E+00        -0.49316E+08
 
   -0.48909E+08         0.79750E+05         0.00000E+00
    0.79750E+05        -0.97597E+08         0.00000E+00
    0.00000E+00         0.00000E+00        -0.49273E+08
 
   -0.48847E+08         0.83695E+05         0.00000E+00
    0.83695E+05        -0.97597E+08         0.00000E+00
    0.00000E+00         0.00000E+00        -0.49228E+08
 
   -0.48782E+08         0.87799E+05         0.00000E+00
    0.87799E+05        -0.97597E+08         0.00000E+00
    0.00000E+00         0.00000E+00        -0.49181E+08
 
   -0.48714E+08         0.92066E+05         0.00000E+00
    0.92066E+05        -0.97597E+08         0.00000E+00
    0.00000E+00         0.00000E+00        -0.49130E+08
 
   -0.48642E+08         0.96498E+05         0.00000E+00
    0.96498E+05        -0.97597E+08         0.00000E+00
    0.00000E+00         0.00000E+00        -0.49077E+08
 
   -0.48568E+08         0.10110E+06         0.00000E+00
    0.10110E+06        -0.97597E+08         0.00000E+00
    0.00000E+00         0.00000E+00        -0.49021E+08
 
   -0.48489E+08         0.10587E+06         0.00000E+00
    0.10587E+06        -0.97597E+08         0.00000E+00
    0.00000E+00         0.00000E+00        -0.48962E+08
 
   -0.48407E+08         0.11081E+06         0.00000E+00
    0.11081E+06        -0.97597E+08         0.00000E+00
    0.00000E+00         0.00000E+00        -0.48900E+08
 
   -0.48321E+08         0.11592E+06         0.00000E+00
    0.11592E+06        -0.97596E+08         0.00000E+00
    0.00000E+00         0.00000E+00        -0.48834E+08
 
   -0.48231E+08         0.12121E+06         0.00000E+00
    0.12121E+06        -0.97596E+08         0.00000E+00
    0.00000E+00         0.00000E+00        -0.48765E+08
 
   -0.48137E+08         0.12666E+06         0.00000E+00
    0.12666E+06        -0.97596E+08         0.00000E+00
    0.00000E+00         0.00000E+00        -0.48692E+08
 
   -0.48039E+08         0.13229E+06         0.00000E+00
    0.13229E+06        -0.97596E+08         0.00000E+00
    0.00000E+00         0.00000E+00        -0.48615E+08
 
   -0.47936E+08         0.13809E+06         0.00000E+00
    0.13809E+06        -0.97596E+08         0.00000E+00
    0.00000E+00         0.00000E+00        -0.48534E+08
 
   -0.47829E+08         0.14405E+06         0.00000E+00
    0.14405E+06        -0.97596E+08         0.00000E+00
    0.00000E+00         0.00000E+00        -0.48449E+08
 
   -0.47717E+08         0.15017E+06         0.00000E+00
    0.15017E+06        -0.97596E+08         0.00000E+00
    0.00000E+00         0.00000E+00        -0.48359E+08
 
   -0.47601E+08         0.15645E+06         0.00000E+00
    0.15645E+06        -0.97596E+08         0.00000E+00
    0.00000E+00         0.00000E+00        -0.48264E+08
 
   -0.47480E+08         0.16288E+06         0.00000E+00
    0.16288E+06        -0.97596E+08         0.00000E+00
    0.00000E+00         0.00000E+00        -0.48165E+08
 
   -0.47354E+08         0.16945E+06         0.00000E+00
    0.16945E+06        -0.97596E+08         0.00000E+00
    0.00000E+00         0.00000E+00        -0.48060E+08
 
   -0.47222E+08         0.17615E+06         0.00000E+00
    0.17615E+06        -0.97595E+08         0.00000E+00
    0.00000E+00         0.00000E+00        -0.47950E+08
 
   -0.47086E+08         0.18296E+06         0.00000E+00
    0.18296E+06        -0.97595E+08         0.00000E+00
    0.00000E+00         0.00000E+00        -0.47835E+08
 
   -0.46944E+08         0.18989E+06         0.00000E+00
    0.18989E+06        -0.97595E+08         0.00000E+00
    0.00000E+00         0.00000E+00        -0.47714E+08
 
   -0.46797E+08         0.19690E+06         0.00000E+00
    0.19690E+06        -0.97595E+08         0.00000E+00
    0.00000E+00         0.00000E+00        -0.47587E+08
 
   -0.46645E+08         0.20399E+06         0.00000E+00
    0.20399E+06        -0.97595E+08         0.00000E+00
    0.00000E+00         0.00000E+00        -0.47454E+08
 
   -0.46487E+08         0.21113E+06         0.00000E+00
    0.21113E+06        -0.97595E+08         0.00000E+00
    0.00000E+00         0.00000E+00        -0.47314E+08
 
   -0.46323E+08         0.21829E+06         0.00000E+00
    0.21829E+06        -0.97595E+08         0.00000E+00
    0.00000E+00         0.00000E+00        -0.47167E+08
 
   -0.46154E+08         0.22546E+06         0.00000E+00
    0.22546E+06        -0.97595E+08         0.00000E+00
    0.00000E+00         0.00000E+00        -0.47014E+08
 
   -0.45980E+08         0.23259E+06         0.00000E+00
    0.23259E+06        -0.97595E+08         0.00000E+00
    0.00000E+00         0.00000E+00        -0.46853E+08
 
   -0.45800E+08         0.23966E+06         0.00000E+00
    0.23966E+06        -0.97595E+08         0.00000E+00
    0.00000E+00         0.00000E+00        -0.46685E+08
 
   -0.45615E+08         0.24662E+06         0.00000E+00
    0.24662E+06        -0.97595E+08         0.00000E+00
    0.00000E+00         0.00000E+00        -0.46510E+08
 
   -0.45424E+08         0.25344E+06         0.00000E+00
    0.25344E+06        -0.97595E+08         0.00000E+00
    0.00000E+00         0.00000E+00        -0.46326E+08
 
   -0.45228E+08         0.26006E+06         0.00000E+00
    0.26006E+06        -0.97596E+08         0.00000E+00
    0.00000E+00         0.00000E+00        -0.46135E+08
 
   -0.45028E+08         0.26643E+06         0.00000E+00
    0.26643E+06        -0.97596E+08         0.00000E+00
    0.00000E+00         0.00000E+00        -0.45935E+08
 
   -0.44822E+08         0.27247E+06         0.00000E+00
    0.27247E+06        -0.97596E+08         0.00000E+00
    0.00000E+00         0.00000E+00        -0.45726E+08
 
   -0.44612E+08         0.27813E+06         0.00000E+00
    0.27813E+06        -0.97596E+08         0.00000E+00
    0.00000E+00         0.00000E+00        -0.45509E+08
 
   -0.44397E+08         0.28332E+06         0.00000E+00
    0.28332E+06        -0.97597E+08         0.00000E+00
    0.00000E+00         0.00000E+00        -0.45283E+08
 
   -0.44179E+08         0.28795E+06         0.00000E+00
    0.28795E+06        -0.97597E+08         0.00000E+00
    0.00000E+00         0.00000E+00        -0.45047E+08
 
   -0.43957E+08         0.29192E+06         0.00000E+00
    0.29192E+06        -0.97597E+08         0.00000E+00
    0.00000E+00         0.00000E+00        -0.44803E+08
 
   -0.43732E+08         0.29510E+06         0.00000E+00
    0.29510E+06        -0.97598E+08         0.00000E+00
    0.00000E+00         0.00000E+00        -0.44548E+08
 
   -0.43505E+08         0.29737E+06         0.00000E+00
    0.29737E+06        -0.97599E+08         0.00000E+00
    0.00000E+00         0.00000E+00        -0.44284E+08
 
   -0.43277E+08         0.29857E+06         0.00000E+00
    0.29857E+06        -0.97599E+08         0.00000E+00
    0.00000E+00         0.00000E+00        -0.44011E+08
 
   -0.43047E+08         0.29854E+06         0.00000E+00
    0.29854E+06        -0.97600E+08         0.00000E+00
    0.00000E+00         0.00000E+00        -0.43727E+08
 
   -0.42818E+08         0.29707E+06         0.00000E+00
    0.29707E+06        -0.97601E+08         0.00000E+00
    0.00000E+00         0.00000E+00        -0.43433E+08
 
   -0.42590E+08         0.29396E+06         0.00000E+00
    0.29396E+06        -0.97602E+08         0.00000E+00
    0.00000E+00         0.00000E+00        -0.43129E+08
 
   -0.42365E+08         0.28897E+06         0.00000E+00
    0.28897E+06        -0.97604E+08         0.00000E+00
    0.00000E+00         0.00000E+00        -0.42816E+08
 
   -0.42144E+08         0.28182E+06         0.00000E+00
    0.28182E+06        -0.97605E+08         0.00000E+00
    0.00000E+00         0.00000E+00        -0.42492E+08
 
   -0.41928E+08         0.27221E+06         0.00000E+00
    0.27221E+06        -0.97607E+08         0.00000E+00
    0.00000E+00         0.00000E+00        -0.42158E+08
 
   -0.41720E+08         0.25984E+06         0.00000E+00
    0.25984E+06        -0.97609E+08         0.00000E+00
    0.00000E+00         0.00000E+00        -0.41814E+08
 
   -0.41521E+08         0.24437E+06         0.00000E+00
    0.24437E+06        -0.97611E+08         0.00000E+00
    0.00000E+00         0.00000E+00        -0.41460E+08
 
   -0.41334E+08         0.22545E+06         0.00000E+00
    0.22545E+06        -0.97614E+08         0.00000E+00
    0.00000E+00         0.00000E+00        -0.41097E+08
 
   -0.41160E+08         0.20276E+06         0.00000E+00
    0.20276E+06        -0.97617E+08         0.00000E+00
    0.00000E+00         0.00000E+00        -0.40724E+08
 
   -0.41003E+08         0.17597E+06         0.00000E+00
    0.17597E+06        -0.97620E+08         0.00000E+00
    0.00000E+00         0.00000E+00        -0.40343E+08
 
   -0.40865E+08         0.14487E+06         0.00000E+00
    0.14487E+06        -0.97623E+08         0.00000E+00
    0.00000E+00         0.00000E+00        -0.39952E+08
 
   -0.40749E+08         0.10931E+06         0.00000E+00
    0.10931E+06        -0.97626E+08         0.00000E+00
    0.00000E+00         0.00000E+00        -0.39553E+08
 
   -0.40657E+08         0.69328E+05         0.00000E+00
    0.69328E+05        -0.97629E+08         0.00000E+00
    0.00000E+00         0.00000E+00        -0.39146E+08
 
   -0.40591E+08         0.25201E+05         0.00000E+00
    0.25201E+05        -0.97632E+08         0.00000E+00
    0.00000E+00         0.00000E+00        -0.38731E+08
 
   -0.40554E+08        -0.22460E+05         0.00000E+00
   -0.22460E+05        -0.97635E+08         0.00000E+00
    0.00000E+00         0.00000E+00        -0.38310E+08
 
   -0.40546E+08        -0.72576E+05         0.00000E+00
   -0.72576E+05        -0.97637E+08         0.00000E+00
    0.00000E+00         0.00000E+00        -0.37882E+08
 
   -0.40567E+08        -0.12341E+06         0.00000E+00
   -0.12341E+06        -0.97637E+08         0.00000E+00
    0.00000E+00         0.00000E+00        -0.37449E+08
 
   -0.40612E+08        -0.17211E+06         0.00000E+00
   -0.17211E+06        -0.97636E+08         0.00000E+00
    0.00000E+00         0.00000E+00        -0.37010E+08
 
   -0.40676E+08        -0.21388E+06         0.00000E+00
   -0.21388E+06        -0.97632E+08         0.00000E+00
    0.00000E+00         0.00000E+00        -0.36568E+08
 
   -0.40740E+08        -0.23856E+06         0.00000E+00
   -0.23856E+06        -0.97622E+08         0.00000E+00
    0.00000E+00         0.00000E+00        -0.36122E+08
 
   -0.40779E+08        -0.21477E+06         0.00000E+00
   -0.21477E+06        -0.97584E+08         0.00000E+00
    0.00000E+00         0.00000E+00        -0.35674E+08
 
   -0.40782E+08        -0.93454E+05         0.00000E+00
   -0.93454E+05        -0.97419E+08         0.00000E+00
    0.00000E+00         0.00000E+00        -0.35225E+08
 
   -0.49814E+08        -0.14420E+04         0.00000E+00
   -0.14420E+04        -0.97602E+08         0.00000E+00
    0.00000E+00         0.00000E+00        -0.49995E+08
 
   -0.49813E+08        -0.27761E+04         0.00000E+00
   -0.27761E+04        -0.97600E+08         0.00000E+00
    0.00000E+00         0.00000E+00        -0.49986E+08
 
   -0.49813E+08        -0.20840E+04         0.00000E+00
   -0.20840E+04        -0.97599E+08         0.00000E+00
    0.00000E+00         0.00000E+00        -0.49977E+08
 
   -0.49812E+08        -0.58660E+03         0.00000E+00
   -0.58660E+03        -0.97599E+08         0.00000E+00
    0.00000E+00         0.00000E+00        -0.49968E+08
 
   -0.49811E+08         0.11423E+04         0.00000E+00
    0.11423E+04        -0.97599E+08         0.00000E+00
    0.00000E+00         0.00000E+00        -0.49958E+08
 
   -0.49808E+08         0.29617E+04         0.00000E+00
    0.29617E+04        -0.97599E+08         0.00000E+00
    0.00000E+00         0.00000E+00        -0.49949E+08
 
   -0.49804E+08         0.48026E+04         0.00000E+00
    0.48026E+04        -0.97599E+08         0.00000E+00
    0.00000E+00         0.00000E+00        -0.49939E+08
 
   -0.49798E+08         0.66279E+04         0.00000E+00
    0.66279E+04        -0.97599E+08         0.00000E+00
    0.00000E+00         0.00000E+00        -0.49929E+08
 
   -0.49791E+08         0.84172E+04         0.00000E+00
    0.84172E+04        -0.97599E+08         0.00000E+00
    0.00000E+00         0.00000E+00        -0.49919E+08
 
   -0.49782E+08         0.10161E+05         0.00000E+00
    0.10161E+05        -0.97599E+08         0.00000E+00
    0.00000E+00         0.00000E+00        -0.49908E+08
 
   -0.49772E+08         0.11856E+05         0.00000E+00
    0.11856E+05        -0.97599E+08         0.00000E+00
    0.00000E+00         0.00000E+00        -0.49897E+08
 
   -0.49761E+08         0.13505E+05         0.00000E+00
    0.13505E+05        -0.97599E+08         0.00000E+00
    0.00000E+00         0.00000E+00        -0.49886E+08
 
   -0.49748E+08         0.15113E+05         0.00000E+00
    0.15113E+05        -0.97599E+08         0.00000E+00
    0.00000E+00         0.00000E+00        -0.49874E+08
 
   -0.49733E+08         0.16690E+05         0.00000E+00
    0.16690E+05        -0.97599E+08         0.00000E+00
    0.00000E+00         0.00000E+00        -0.49862E+08
 
   -0.49718E+08         0.18245E+05         0.00000E+00
    0.18245E+05        -0.97599E+08         0.00000E+00
    0.00000E+00         0.00000E+00        -0.49849E+08
 
   -0.49701E+08         0.19789E+05         0.00000E+00
    0.19789E+05        -0.97599E+08         0.00000E+00
    0.00000E+00         0.00000E+00        -0.49835E+08
 
   -0.49682E+08         0.21331E+05         0.00000E+00
    0.21331E+05        -0.97599E+08         0.00000E+00
    0.00000E+00         0.00000E+00        -0.49821E+08
 
   -0.49662E+08         0.22883E+05         0.00000E+00
    0.22883E+05        -0.97599E+08         0.00000E+00
    0.00000E+00         0.00000E+00        -0.49807E+08
 
   -0.49641E+08         0.24454E+05         0.00000E+00
    0.24454E+05        -0.97599E+08         0.00000E+00
    0.00000E+00         0.00000E+00        -0.49791E+08
 
   -0.49619E+08         0.26054E+05         0.00000E+00
    0.26054E+05        -0.97599E+08         0.00000E+00
    0.00000E+00         0.00000E+00        -0.49775E+08
 
   -0.49595E+08         0.27692E+05         0.00000E+00
    0.27692E+05        -0.97599E+08         0.00000E+00
    0.00000E+00         0.00000E+00        -0.49758E+08
 
   -0.49569E+08         0.29376E+05         0.00000E+00
    0.29376E+05        -0.97599E+08         0.00000E+00
    0.00000E+00         0.00000E+00        -0.49740E+08
 
   -0.49542E+08         0.31114E+05         0.00000E+00
    0.31114E+05        -0.97599E+08         0.00000E+00
    0.00000E+00         0.00000E+00        -0.49721E+08
 
   -0.49513E+08         0.32912E+05         0.00000E+00
    0.32912E+05        -0.97599E+08         0.00000E+00
    0.00000E+00         0.00000E+00        -0.49702E+08
 
   -0.49483E+08         0.34778E+05         0.00000E+00
    0.34778E+05        -0.97599E+08         0.00000E+00
    0.00000E+00         0.00000E+00        -0.49681E+08
 
   -0.49451E+08         0.36718E+05         0.00000E+00
    0.36718E+05        -0.97599E+08         0.00000E+00
    0.00000E+00         0.00000E+00        -0.49659E+08
 
   -0.49417E+08         0.38738E+05         0.00000E+00
    0.38738E+05        -0.97599E+08         0.00000E+00
    0.00000E+00         0.00000E+00        -0.49635E+08
 
   -0.49381E+08         0.40843E+05         0.00000E+00
    0.40843E+05        -0.97599E+08         0.00000E+00
    0.00000E+00         0.00000E+00        -0.49611E+08
 
   -0.49344E+08         0.43039E+05         0.00000E+00
    0.43039E+05        -0.97599E+08         0.00000E+00
    0.00000E+00         0.00000E+00        -0.49585E+08
 
   -0.49304E+08         0.45330E+05         0.00000E+00
    0.45330E+05        -0.97599E+08         0.00000E+00
    0.00000E+00         0.00000E+00        -0.49557E+08
 
   -0.49263E+08         0.47722E+05         0.00000E+00
    0.47722E+05        -0.97599E+08         0.00000E+00
    0.00000E+00         0.00000E+00        -0.49528E+08
 
   -0.49219E+08         0.50219E+05         0.00000E+00
    0.50219E+05        -0.97599E+08         0.00000E+00
    0.00000E+00         0.00000E+00        -0.49497E+08
 
   -0.49172E+08         0.52825E+05         0.00000E+00
    0.52825E+05        -0.97598E+08         0.00000E+00
    0.00000E+00         0.00000E+00        -0.49465E+08
 
   -0.49124E+08         0.55545E+05         0.00000E+00
    0.55545E+05        -0.97598E+08         0.00000E+00
    0.00000E+00         0.00000E+00        -0.49431E+08
 
   -0.49073E+08         0.58383E+05         0.00000E+00
    0.58383E+05        -0.97598E+08         0.00000E+00
    0.00000E+00         0.00000E+00        -0.49395E+08
 
   -0.49019E+08         0.61342E+05         0.00000E+00
    0.61342E+05        -0.97598E+08         0.00000E+00
    0.00000E+00         0.00000E+00        -0.49356E+08
 
   -0.48963E+08         0.64426E+05         0.00000E+00
    0.64426E+05        -0.97598E+08         0.00000E+00
    0.00000E+00         0.00000E+00        -0.49316E+08
 
   -0.48903E+08         0.67639E+05         0.00000E+00
    0.67639E+05        -0.97598E+08         0.00000E+00
    0.00000E+00         0.00000E+00        -0.49273E+08
 
   -0.48841E+08         0.70983E+05         0.00000E+00
    0.70983E+05        -0.97598E+08         0.00000E+00
    0.00000E+00         0.00000E+00        -0.49228E+08
 
   -0.48776E+08         0.74463E+05         0.00000E+00
    0.74463E+05        -0.97598E+08         0.00000E+00
    0.00000E+00         0.00000E+00        -0.49181E+08
 
   -0.48707E+08         0.78080E+05         0.00000E+00
    0.78080E+05        -0.97598E+08         0.00000E+00
    0.00000E+00         0.00000E+00        -0.49130E+08
 
   -0.48636E+08         0.81837E+05         0.00000E+00
    0.81837E+05        -0.97598E+08         0.00000E+00
    0.00000E+00         0.00000E+00        -0.49077E+08
 
   -0.48560E+08         0.85736E+05         0.00000E+00
    0.85736E+05        -0.97598E+08         0.00000E+00
    0.00000E+00         0.00000E+00        -0.49021E+08
 
   -0.48482E+08         0.89779E+05         0.00000E+00
    0.89779E+05        -0.97598E+08         0.00000E+00
    0.00000E+00         0.00000E+00        -0.48962E+08
 
   -0.48399E+08         0.93967E+05         0.00000E+00
    0.93967E+05        -0.97598E+08         0.00000E+00
    0.00000E+00         0.00000E+00        -0.48900E+08
 
   -0.48313E+08         0.98301E+05         0.00000E+00
    0.98301E+05        -0.97597E+08         0.00000E+00
    0.00000E+00         0.00000E+00        -0.48834E+08
 
   -0.48223E+08         0.10278E+06         0.00000E+00
    0.10278E+06        -0.97597E+08         0.00000E+00
    0.00000E+00         0.00000E+00        -0.48765E+08
 
   -0.48128E+08         0.10740E+06         0.00000E+00
    0.10740E+06        -0.97597E+08         0.00000E+00
    0.00000E+00         0.00000E+00        -0.48692E+08
 
   -0.48029E+08         0.11217E+06         0.00000E+00
    0.11217E+06        -0.97597E+08         0.00000E+00
    0.00000E+00         0.00000E+00        -0.48615E+08
 
   -0.47926E+08         0.11709E+06         0.00000E+00
    0.11709E+06        -0.97597E+08         0.00000E+00
    0.00000E+00         0.00000E+00        -0.48534E+08
 
   -0.47819E+08         0.12214E+06         0.00000E+00
    0.12214E+06        -0.97597E+08         0.00000E+00
    0.00000E+00         0.00000E+00        -0.48449E+08
 
   -0.47707E+08         0.12732E+06         0.00000E+00
    0.12732E+06        -0.97597E+08         0.00000E+00
    0.00000E+00         0.00000E+00        -0.48359E+08
 
   -0.47590E+08         0.13264E+06         0.00000E+00
    0.13264E+06        -0.97597E+08         0.00000E+00
    0.00000E+00         0.00000E+00        -0.48264E+08
 
   -0.47468E+08         0.13809E+06         0.00000E+00
    0.13809E+06        -0.97597E+08         0.00000E+00
    0.00000E+00         0.00000E+00        -0.48165E+08
 
   -0.47342E+08         0.14365E+06         0.00000E+00
    0.14365E+06        -0.97597E+08         0.00000E+00
    0.00000E+00         0.00000E+00        -0.48060E+08
 
   -0.47210E+08         0.14933E+06         0.00000E+00
    0.14933E+06        -0.97597E+08         0.00000E+00
    0.00000E+00         0.00000E+00        -0.47950E+08
 
   -0.47073E+08         0.15510E+06         0.00000E+00
    0.15510E+06        -0.97597E+08         0.00000E+00
    0.00000E+00         0.00000E+00        -0.47835E+08
 
   -0.46931E+08         0.16097E+06         0.00000E+00
    0.16097E+06        -0.97597E+08         0.00000E+00
    0.00000E+00         0.00000E+00        -0.47714E+08
 
   -0.46783E+08         0.16691E+06         0.00000E+00
    0.16691E+06        -0.97597E+08         0.00000E+00
    0.00000E+00         0.00000E+00        -0.47587E+08
 
   -0.46630E+08         0.17291E+06         0.00000E+00
    0.17291E+06        -0.97596E+08         0.00000E+00
    0.00000E+00         0.00000E+00        -0.47454E+08
 
   -0.46472E+08         0.17895E+06         0.00000E+00
    0.17895E+06        -0.97596E+08         0.00000E+00
    0.00000E+00         0.00000E+00        -0.47314E+08
 
   -0.46308E+08         0.18501E+06         0.00000E+00
    0.18501E+06        -0.97596E+08         0.00000E+00
    0.00000E+00         0.00000E+00        -0.47167E+08
 
   -0.46138E+08         0.19107E+06         0.00000E+00
    0.19107E+06        -0.97596E+08         0.00000E+00
    0.00000E+00         0.00000E+00        -0.47014E+08
 
   -0.45963E+08         0.19711E+06         0.00000E+00
    0.19711E+06        -0.97596E+08         0.00000E+00
    0.00000E+00         0.00000E+00        -0.46853E+08
 
   -0.45783E+08         0.20309E+06         0.00000E+00
    0.20309E+06        -0.97597E+08         0.00000E+00
    0.00000E+00         0.00000E+00        -0.46685E+08
 
   -0.45597E+08         0.20898E+06         0.00000E+00
    0.20898E+06        -0.97597E+08         0.00000E+00
    0.00000E+00         0.00000E+00        -0.46510E+08
 
   -0.45406E+08         0.21475E+06         0.00000E+00
    0.21475E+06        -0.97597E+08         0.00000E+00
    0.00000E+00         0.00000E+00        -0.46326E+08
 
   -0.45210E+08         0.22034E+06         0.00000E+00
    0.22034E+06        -0.97597E+08         0.00000E+00
    0.00000E+00         0.00000E+00        -0.46135E+08
 
   -0.45009E+08         0.22572E+06         0.00000E+00
    0.22572E+06        -0.97597E+08         0.00000E+00
    0.00000E+00         0.00000E+00        -0.45935E+08
 
   -0.44803E+08         0.23083E+06         0.00000E+00
    0.23083E+06        -0.97597E+08         0.00000E+00
    0.00000E+00         0.00000E+00        -0.45726E+08
 
   -0.44592E+08         0.23561E+06         0.00000E+00
    0.23561E+06        -0.97597E+08         0.00000E+00
    0.00000E+00         0.00000E+00        -0.45509E+08
 
   -0.44377E+08         0.23999E+06         0.00000E+00
    0.23999E+06        -0.97597E+08         0.00000E+00
    0.00000E+00         0.00000E+00        -0.45283E+08
 
   -0.44158E+08         0.24389E+06         0.00000E+00
    0.24389E+06        -0.97598E+08         0.00000E+00
    0.00000E+00         0.00000E+00        -0.45047E+08
 
   -0.43936E+08         0.24722E+06         0.00000E+00
    0.24722E+06        -0.97598E+08         0.00000E+00
    0.00000E+00         0.00000E+00        -0.44803E+08
 
   -0.43711E+08         0.24989E+06         0.00000E+00
    0.24989E+06        -0.97598E+08         0.00000E+00
    0.00000E+00         0.00000E+00        -0.44548E+08
 
   -0.43484E+08         0.25177E+06         0.00000E+00
    0.25177E+06        -0.97599E+08         0.00000E+00
    0.00000E+00         0.00000E+00        -0.44284E+08
 
   -0.43256E+08         0.25275E+06         0.00000E+00
    0.25275E+06        -0.97600E+08         0.00000E+00
    0.00000E+00         0.00000E+00        -0.44011E+08
 
   -0.43026E+08         0.25267E+06         0.00000E+00
    0.25267E+06        -0.97600E+08         0.00000E+00
    0.00000E+00         0.00000E+00        -0.43727E+08
 
   -0.42797E+08         0.25137E+06         0.00000E+00
    0.25137E+06        -0.97601E+08         0.00000E+00
    0.00000E+00         0.00000E+00        -0.43433E+08
 
   -0.42570E+08         0.24866E+06         0.00000E+00
    0.24866E+06        -0.97602E+08         0.00000E+00
    0.00000E+00         0.00000E+00        -0.43129E+08
 
   -0.42345E+08         0.24433E+06         0.00000E+00
    0.24433E+06        -0.97603E+08         0.00000E+00
    0.00000E+00         0.00000E+00        -0.42816E+08
 
   -0.42125E+08         0.23816E+06         0.00000E+00
    0.23816E+06        -0.97604E+08         0.00000E+00
    0.00000E+00         0.00000E+00        -0.42492E+08
 
   -0.41910E+08         0.22987E+06         0.00000E+00
    0.22987E+06        -0.97605E+08         0.00000E+00
    0.00000E+00         0.00000E+00        -0.42158E+08
 
   -0.41703E+08         0.21921E+06         0.00000E+00
    0.21921E+06        -0.97607E+08         0.00000E+00
    0.00000E+00         0.00000E+00        -0.41814E+08
 
   -0.41506E+08         0.20586E+06         0.00000E+00
    0.20586E+06        -0.97608E+08         0.00000E+00
    0.00000E+00         0.00000E+00        -0.41460E+08
 
   -0.41321E+08         0.18954E+06         0.00000E+00
    0.18954E+06        -0.97610E+08         0.00000E+00
    0.00000E+00         0.00000E+00        -0.41097E+08
 
   -0.41150E+08         0.16994E+06         0.00000E+00
    0.16994E+06        -0.97612E+08         0.00000E+00
    0.00000E+00         0.00000E+00        -0.40724E+08
 
   -0.40997E+08         0.14679E+06         0.00000E+00
    0.14679E+06        -0.97614E+08         0.00000E+00
    0.00000E+00         0.00000E+00        -0.40343E+08
 
   -0.40863E+08         0.11987E+06         0.00000E+00
    0.11987E+06        -0.97617E+08         0.00000E+00
    0.00000E+00         0.00000E+00        -0.39952E+08
 
   -0.40753E+08         0.89036E+05         0.00000E+00
    0.89036E+05        -0.97619E+08         0.00000E+00
    0.00000E+00         0.00000E+00        -0.39553E+08
 
   -0.40668E+08         0.54301E+05         0.00000E+00
    0.54301E+05        -0.97621E+08         0.00000E+00
    0.00000E+00         0.00000E+00        -0.39146E+08
 
   -0.40611E+08         0.15865E+05         0.00000E+00
    0.15865E+05        -0.97624E+08         0.00000E+00
    0.00000E+00         0.00000E+00        -0.38731E+08
 
   -0.40585E+08        -0.25799E+05         0.00000E+00
   -0.25799E+05        -0.97625E+08         0.00000E+00
    0.00000E+00         0.00000E+00        -0.38310E+08
 
   -0.40590E+08        -0.69842E+05         0.00000E+00
   -0.69842E+05        -0.97627E+08         0.00000E+00
    0.00000E+00         0.00000E+00        -0.37882E+08
 
   -0.40627E+08        -0.11490E+06         0.00000E+00
   -0.11490E+06        -0.97628E+08         0.00000E+00
    0.00000E+00         0.00000E+00        -0.37449E+08
 
   -0.40691E+08        -0.15877E+06         0.00000E+00
   -0.15877E+06        -0.97627E+08         0.00000E+00
    0.00000E+00         0.00000E+00        -0.37010E+08
 
   -0.40778E+08        -0.19770E+06         0.00000E+00
   -0.19770E+06        -0.97625E+08         0.00000E+00
    0.00000E+00         0.00000E+00        -0.36568E+08
 
   -0.40872E+08        -0.22440E+06         0.00000E+00
   -0.22440E+06        -0.97619E+08         0.00000E+00
    0.00000E+00         0.00000E+00        -0.36122E+08
 
   -0.40939E+08        -0.21042E+06         0.00000E+00
   -0.21042E+06        -0.97596E+08         0.00000E+00
    0.00000E+00         0.00000E+00        -0.35674E+08
 
   -0.40958E+08        -0.95711E+05         0.00000E+00
   -0.95711E+05        -0.97454E+08         0.00000E+00
    0.00000E+00         0.00000E+00        -0.35225E+08
 
   -0.49809E+08        -0.15513E+04         0.00000E+00
   -0.15513E+04        -0.97602E+08         0.00000E+00
    0.00000E+00         0.00000E+00        -0.49995E+08
 
   -0.49809E+08        -0.28279E+04         0.00000E+00
   -0.28279E+04        -0.97599E+08         0.00000E+00
    0.00000E+00         0.00000E+00        -0.49986E+08
 
   -0.49810E+08        -0.20804E+04         0.00000E+00
   -0.20804E+04        -0.97599E+08         0.00000E+00
    0.00000E+00         0.00000E+00        -0.49977E+08
 
   -0.49810E+08        -0.73660E+03         0.00000E+00
   -0.73660E+03        -0.97599E+08         0.00000E+00
    0.00000E+00         0.00000E+00        -0.49968E+08
 
   -0.49809E+08         0.74748E+03         0.00000E+00
    0.74748E+03        -0.97599E+08         0.00000E+00
    0.00000E+00         0.00000E+00        -0.49958E+08
 
   -0.49806E+08         0.22879E+04         0.00000E+00
    0.22879E+04        -0.97599E+08         0.00000E+00
    0.00000E+00         0.00000E+00        -0.49949E+08
 
   -0.49802E+08         0.38331E+04         0.00000E+00
    0.38331E+04        -0.97599E+08         0.00000E+00
    0.00000E+00         0.00000E+00        -0.49939E+08
 
   -0.49797E+08         0.53573E+04         0.00000E+00
    0.53573E+04        -0.97599E+08         0.00000E+00
    0.00000E+00         0.00000E+00        -0.49929E+08
 
   -0.49789E+08         0.68461E+04         0.00000E+00
    0.68461E+04        -0.97599E+08         0.00000E+00
    0.00000E+00         0.00000E+00        -0.49919E+08
 
   -0.49781E+08         0.82929E+04         0.00000E+00
    0.82929E+04        -0.97599E+08         0.00000E+00
    0.00000E+00         0.00000E+00        -0.49908E+08
 
   -0.49771E+08         0.96962E+04         0.00000E+00
    0.96962E+04        -0.97599E+08         0.00000E+00
    0.00000E+00         0.00000E+00        -0.49897E+08
 
   -0.49759E+08         0.11059E+05         0.00000E+00
    0.11059E+05        -0.97599E+08         0.00000E+00
    0.00000E+00         0.00000E+00        -0.49886E+08
 
   -0.49746E+08         0.12386E+05         0.00000E+00
    0.12386E+05        -0.97599E+08         0.00000E+00
    0.00000E+00         0.00000E+00        -0.49874E+08
 
   -0.49732E+08         0.13685E+05         0.00000E+00
    0.13685E+05        -0.97599E+08         0.00000E+00
    0.00000E+00         0.00000E+00        -0.49862E+08
 
   -0.49716E+08         0.14965E+05         0.00000E+00
    0.14965E+05        -0.97599E+08         0.00000E+00
    0.00000E+00         0.00000E+00        -0.49849E+08
 
   -0.49699E+08         0.16233E+05         0.00000E+00
    0.16233E+05        -0.97599E+08         0.00000E+00
    0.00000E+00         0.00000E+00        -0.49835E+08
 
   -0.49681E+08         0.17501E+05         0.00000E+00
    0.17501E+05        -0.97599E+08         0.00000E+00
    0.00000E+00         0.00000E+00        -0.49821E+08
 
   -0.49661E+08         0.18775E+05         0.00000E+00
    0.18775E+05        -0.97599E+08         0.00000E+00
    0.00000E+00         0.00000E+00        -0.49807E+08
 
   -0.49639E+08         0.20064E+05         0.00000E+00
    0.20064E+05        -0.97599E+08         0.00000E+00
    0.00000E+00         0.00000E+00        -0.49791E+08
 
   -0.49617E+08         0.21377E+05         0.00000E+00
    0.21377E+05        -0.97599E+08         0.00000E+00
    0.00000E+00         0.00000E+00        -0.49775E+08
 
   -0.49593E+08         0.22720E+05         0.00000E+00
    0.22720E+05        -0.97599E+08         0.00000E+00
    0.00000E+00         0.00000E+00        -0.49758E+08
 
   -0.49567E+08         0.24101E+05         0.00000E+00
    0.24101E+05        -0.97599E+08         0.00000E+00
    0.00000E+00         0.00000E+00        -0.49740E+08
 
   -0.49540E+08         0.25526E+05         0.00000E+00
    0.25526E+05        -0.97599E+08         0.00000E+00
    0.00000E+00         0.00000E+00        -0.49721E+08
 
   -0.49511E+08         0.27001E+05         0.00000E+00
    0.27001E+05        -0.97599E+08         0.00000E+00
    0.00000E+00         0.00000E+00        -0.49702E+08
 
   -0.49480E+08         0.28531E+05         0.00000E+00
    0.28531E+05        -0.97599E+08         0.00000E+00
    0.00000E+00         0.00000E+00        -0.49681E+08
 
   -0.49448E+08         0.30121E+05         0.00000E+00
    0.30121E+05        -0.97599E+08         0.00000E+00
    0.00000E+00         0.00000E+00        -0.49659E+08
 
   -0.49414E+08         0.31777E+05         0.00000E+00
    0.31777E+05        -0.97599E+08         0.00000E+00
    0.00000E+00         0.00000E+00        -0.49635E+08
 
   -0.49378E+08         0.33503E+05         0.00000E+00
    0.33503E+05        -0.97599E+08         0.00000E+00
    0.00000E+00         0.00000E+00        -0.49611E+08
 
   -0.49341E+08         0.35304E+05         0.00000E+00
    0.35304E+05        -0.97599E+08         0.00000E+00
    0.00000E+00         0.00000E+00        -0.49585E+08
 
   -0.49301E+08         0.37182E+05         0.00000E+00
    0.37182E+05        -0.97599E+08         0.00000E+00
    0.00000E+00         0.00000E+00        -0.49557E+08
 
   -0.49259E+08         0.39143E+05         0.00000E+00
    0.39143E+05        -0.97599E+08         0.00000E+00
    0.00000E+00         0.00000E+00        -0.49528E+08
 
   -0.49215E+08         0.41190E+05         0.00000E+00
    0.41190E+05        -0.97599E+08         0.00000E+00
    0.00000E+00         0.00000E+00        -0.49497E+08
 
   -0.49168E+08         0.43327E+05         0.00000E+00
    0.43327E+05        -0.97599E+08         0.00000E+00
    0.00000E+00         0.00000E+00        -0.49465E+08
 
   -0.49119E+08         0.45557E+05         0.00000E+00
    0.45557E+05        -0.97599E+08         0.00000E+00
    0.00000E+00         0.00000E+00        -0.49431E+08
 
   -0.49068E+08         0.47883E+05         0.00000E+00
    0.47883E+05        -0.97599E+08         0.00000E+00
    0.00000E+00         0.00000E+00        -0.49395E+08
 
   -0.49014E+08         0.50309E+05         0.00000E+00
    0.50309E+05        -0.97599E+08         0.00000E+00
    0.00000E+00         0.00000E+00        -0.49356E+08
 
   -0.48957E+08         0.52838E+05         0.00000E+00
    0.52838E+05        -0.97599E+08         0.00000E+00
    0.00000E+00         0.00000E+00        -0.49316E+08
 
   -0.48898E+08         0.55472E+05         0.00000E+00
    0.55472E+05        -0.97599E+08         0.00000E+00
    0.00000E+00         0.00000E+00        -0.49273E+08
 
   -0.48835E+08         0.58213E+05         0.00000E+00
    0.58213E+05        -0.97599E+08         0.00000E+00
    0.00000E+00         0.00000E+00        -0.49228E+08
 
   -0.48770E+08         0.61066E+05         0.00000E+00
    0.61066E+05        -0.97599E+08         0.00000E+00
    0.00000E+00         0.00000E+00        -0.49181E+08
 
   -0.48701E+08         0.64031E+05         0.00000E+00
    0.64031E+05        -0.97599E+08         0.00000E+00
    0.00000E+00         0.00000E+00        -0.49130E+08
 
   -0.48629E+08         0.67111E+05         0.00000E+00
    0.67111E+05        -0.97598E+08         0.00000E+00
    0.00000E+00         0.00000E+00        -0.49077E+08
 
   -0.48554E+08         0.70307E+05         0.00000E+00
    0.70307E+05        -0.97598E+08         0.00000E+00
    0.00000E+00         0.00000E+00        -0.49021E+08
 
   -0.48474E+08         0.73621E+05         0.00000E+00
    0.73621E+05        -0.97598E+08         0.00000E+00
    0.00000E+00         0.00000E+00        -0.48962E+08
 
   -0.48392E+08         0.77053E+05         0.00000E+00
    0.77053E+05        -0.97598E+08         0.00000E+00
    0.00000E+00         0.00000E+00        -0.48900E+08
 
   -0.48305E+08         0.80605E+05         0.00000E+00
    0.80605E+05        -0.97598E+08         0.00000E+00
    0.00000E+00         0.00000E+00        -0.48834E+08
 
   -0.48214E+08         0.84276E+05         0.00000E+00
    0.84276E+05        -0.97598E+08         0.00000E+00
    0.00000E+00         0.00000E+00        -0.48765E+08
 
   -0.48119E+08         0.88066E+05         0.00000E+00
    0.88066E+05        -0.97598E+08         0.00000E+00
    0.00000E+00         0.00000E+00        -0.48692E+08
 
   -0.48020E+08         0.91974E+05         0.00000E+00
    0.91974E+05        -0.97598E+08         0.00000E+00
    0.00000E+00         0.00000E+00        -0.48615E+08
 
   -0.47917E+08         0.95999E+05         0.00000E+00
    0.95999E+05        -0.97598E+08         0.00000E+00
    0.00000E+00         0.00000E+00        -0.48534E+08
 
   -0.47809E+08         0.10014E+06         0.00000E+00
    0.10014E+06        -0.97598E+08         0.00000E+00
    0.00000E+00         0.00000E+00        -0.48449E+08
 
   -0.47696E+08         0.10439E+06         0.00000E+00
    0.10439E+06        -0.97598E+08         0.00000E+00
    0.00000E+00         0.00000E+00        -0.48359E+08
 
   -0.47579E+08         0.10875E+06         0.00000E+00
    0.10875E+06        -0.97598E+08         0.00000E+00
    0.00000E+00         0.00000E+00        -0.48264E+08
 
   -0.47457E+08         0.11321E+06         0.00000E+00
    0.11321E+06        -0.97598E+08         0.00000E+00
    0.00000E+00         0.00000E+00        -0.48165E+08
 
   -0.47330E+08         0.11776E+06         0.00000E+00
    0.11776E+06        -0.97598E+08         0.00000E+00
    0.00000E+00         0.00000E+00        -0.48060E+08
 
   -0.47197E+08         0.12241E+06         0.00000E+00
    0.12241E+06        -0.97598E+08         0.00000E+00
    0.00000E+00         0.00000E+00        -0.47950E+08
 
   -0.47060E+08         0.12714E+06         0.00000E+00
    0.12714E+06        -0.97598E+08         0.00000E+00
    0.00000E+00         0.00000E+00        -0.47835E+08
 
   -0.46917E+08         0.13194E+06         0.00000E+00
    0.13194E+06        -0.97598E+08         0.00000E+00
    0.00000E+00         0.00000E+00        -0.47714E+08
 
   -0.46769E+08         0.13681E+06         0.00000E+00
    0.13681E+06        -0.97598E+08         0.00000E+00
    0.00000E+00         0.00000E+00        -0.47587E+08
 
   -0.46616E+08         0.14172E+06         0.00000E+00
    0.14172E+06        -0.97598E+08         0.00000E+00
    0.00000E+00         0.00000E+00        -0.47454E+08
 
   -0.46457E+08         0.14667E+06         0.00000E+00
    0.14667E+06        -0.97598E+08         0.00000E+00
    0.00000E+00         0.00000E+00        -0.47314E+08
 
   -0.46292E+08         0.15163E+06         0.00000E+00
    0.15163E+06        -0.97598E+08         0.00000E+00
    0.00000E+00         0.00000E+00        -0.47167E+08
 
   -0.46123E+08         0.15659E+06         0.00000E+00
    0.15659E+06        -0.97598E+08         0.00000E+00
    0.00000E+00         0.00000E+00        -0.47014E+08
 
   -0.45947E+08         0.16153E+06         0.00000E+00
    0.16153E+06        -0.97598E+08         0.00000E+00
    0.00000E+00         0.00000E+00        -0.46853E+08
 
   -0.45766E+08         0.16643E+06         0.00000E+00
    0.16643E+06        -0.97598E+08         0.00000E+00
    0.00000E+00         0.00000E+00        -0.46685E+08
 
   -0.45580E+08         0.17125E+06         0.00000E+00
    0.17125E+06        -0.97598E+08         0.00000E+00
    0.00000E+00         0.00000E+00        -0.46510E+08
 
   -0.45388E+08         0.17596E+06         0.00000E+00
    0.17596E+06        -0.97598E+08         0.00000E+00
    0.00000E+00         0.00000E+00        -0.46326E+08
 
   -0.45192E+08         0.18054E+06         0.00000E+00
    0.18054E+06        -0.97598E+08         0.00000E+00
    0.00000E+00         0.00000E+00        -0.46135E+08
 
   -0.44990E+08         0.18493E+06         0.00000E+00
    0.18493E+06        -0.97598E+08         0.00000E+00
    0.00000E+00         0.00000E+00        -0.45935E+08
 
   -0.44783E+08         0.18911E+06         0.00000E+00
    0.18911E+06        -0.97598E+08         0.00000E+00
    0.00000E+00         0.00000E+00        -0.45726E+08
 
   -0.44572E+08         0.19301E+06         0.00000E+00
    0.19301E+06        -0.97598E+08         0.00000E+00
    0.00000E+00         0.00000E+00        -0.45509E+08
 
   -0.44357E+08         0.19658E+06         0.00000E+00
    0.19658E+06        -0.97598E+08         0.00000E+00
    0.00000E+00         0.00000E+00        -0.45283E+08
 
   -0.44138E+08         0.19976E+06         0.00000E+00
    0.19976E+06        -0.97598E+08         0.00000E+00
    0.00000E+00         0.00000E+00        -0.45047E+08
 
   -0.43915E+08         0.20247E+06         0.00000E+00
    0.20247E+06        -0.97599E+08         0.00000E+00
    0.00000E+00         0.00000E+00        -0.44803E+08
 
   -0.43690E+08         0.20463E+06         0.00000E+00
    0.20463E+06        -0.97599E+08         0.00000E+00
    0.00000E+00         0.00000E+00        -0.44548E+08
 
   -0.43463E+08         0.20615E+06         0.00000E+00
    0.20615E+06        -0.97599E+08         0.00000E+00
    0.00000E+00         0.00000E+00        -0.44284E+08
 
   -0.43234E+08         0.20692E+06         0.00000E+00
    0.20692E+06        -0.97600E+08         0.00000E+00
    0.00000E+00         0.00000E+00        -0.44011E+08
 
   -0.43005E+08         0.20682E+06         0.00000E+00
    0.20682E+06        -0.97600E+08         0.00000E+00
    0.00000E+00         0.00000E+00        -0.43727E+08
 
   -0.42776E+08         0.20570E+06         0.00000E+00
    0.20570E+06        -0.97601E+08         0.00000E+00
    0.00000E+00         0.00000E+00        -0.43433E+08
 
   -0.42549E+08         0.20343E+06         0.00000E+00
    0.20343E+06        -0.97601E+08         0.00000E+00
    0.00000E+00         0.00000E+00        -0.43129E+08
 
   -0.42324E+08         0.19981E+06         0.00000E+00
    0.19981E+06        -0.97602E+08         0.00000E+00
    0.00000E+00         0.00000E+00        -0.42816E+08
 
   -0.42104E+08         0.19465E+06         0.00000E+00
    0.19465E+06        -0.97603E+08         0.00000E+00
    0.00000E+00         0.00000E+00        -0.42492E+08
 
   -0.41891E+08         0.18775E+06         0.00000E+00
    0.18775E+06        -0.97603E+08         0.00000E+00
    0.00000E+00         0.00000E+00        -0.42158E+08
 
   -0.41685E+08         0.17886E+06         0.00000E+00
    0.17886E+06        -0.97604E+08         0.00000E+00
    0.00000E+00         0.00000E+00        -0.41814E+08
 
   -0.41489E+08         0.16774E+06         0.00000E+00
    0.16774E+06        -0.97606E+08         0.00000E+00
    0.00000E+00         0.00000E+00        -0.41460E+08
 
   -0.41306E+08         0.15413E+06         0.00000E+00
    0.15413E+06        -0.97607E+08         0.00000E+00
    0.00000E+00         0.00000E+00        -0.41097E+08
 
   -0.41138E+08         0.13776E+06         0.00000E+00
    0.13776E+06        -0.97608E+08         0.00000E+00
    0.00000E+00         0.00000E+00        -0.40724E+08
 
   -0.40988E+08         0.11842E+06         0.00000E+00
    0.11842E+06        -0.97610E+08         0.00000E+00
    0.00000E+00         0.00000E+00        -0.40343E+08
 
   -0.40859E+08         0.95883E+05         0.00000E+00
    0.95883E+05        -0.97611E+08         0.00000E+00
    0.00000E+00         0.00000E+00        -0.39952E+08
 
   -0.40755E+08         0.70035E+05         0.00000E+00
    0.70035E+05        -0.97613E+08         0.00000E+00
    0.00000E+00         0.00000E+00        -0.39553E+08
 
   -0.40677E+08         0.40851E+05         0.00000E+00
    0.40851E+05        -0.97615E+08         0.00000E+00
    0.00000E+00         0.00000E+00        -0.39146E+08
 
   -0.40629E+08         0.84688E+04         0.00000E+00
    0.84688E+04        -0.97616E+08         0.00000E+00
    0.00000E+00         0.00000E+00        -0.38731E+08
 
   -0.40613E+08        -0.26763E+05         0.00000E+00
   -0.26763E+05        -0.97618E+08         0.00000E+00
    0.00000E+00         0.00000E+00        -0.38310E+08
 
   -0.40631E+08        -0.64210E+05         0.00000E+00
   -0.64210E+05        -0.97619E+08         0.00000E+00
    0.00000E+00         0.00000E+00        -0.37882E+08
 
   -0.40684E+08        -0.10286E+06         0.00000E+00
   -0.10286E+06        -0.97619E+08         0.00000E+00
    0.00000E+00         0.00000E+00        -0.37449E+08
 
   -0.40769E+08        -0.14111E+06         0.00000E+00
   -0.14111E+06        -0.97619E+08         0.00000E+00
    0.00000E+00         0.00000E+00        -0.37010E+08
 
   -0.40880E+08        -0.17613E+06         0.00000E+00
   -0.17613E+06        -0.97618E+08         0.00000E+00
    0.00000E+00         0.00000E+00        -0.36568E+08
 
   -0.41005E+08        -0.20348E+06         0.00000E+00
   -0.20348E+06        -0.97615E+08         0.00000E+00
    0.00000E+00         0.00000E+00        -0.36122E+08
 
   -0.41108E+08        -0.20050E+06         0.00000E+00
   -0.20050E+06        -0.97606E+08         0.00000E+00
    0.00000E+00         0.00000E+00        -0.35674E+08
 
   -0.41149E+08        -0.96935E+05         0.00000E+00
   -0.96935E+05        -0.97489E+08         0.00000E+00
    0.00000E+00         0.00000E+00        -0.35225E+08
 
   -0.49805E+08        -0.16311E+04         0.00000E+00
   -0.16311E+04        -0.97601E+08         0.00000E+00
    0.00000E+00         0.00000E+00        -0.49995E+08
 
   -0.49805E+08        -0.27327E+04         0.00000E+00
   -0.27327E+04        -0.97600E+08         0.00000E+00
    0.00000E+00         0.00000E+00        -0.49986E+08
 
   -0.49806E+08        -0.19309E+04         0.00000E+00
   -0.19309E+04        -0.97600E+08         0.00000E+00
    0.00000E+00         0.00000E+00        -0.49977E+08
 
   -0.49807E+08        -0.78598E+03         0.00000E+00
   -0.78598E+03        -0.97600E+08         0.00000E+00
    0.00000E+00         0.00000E+00        -0.49968E+08
 
   -0.49806E+08         0.42786E+03         0.00000E+00
    0.42786E+03        -0.97600E+08         0.00000E+00
    0.00000E+00         0.00000E+00        -0.49958E+08
 
   -0.49804E+08         0.16698E+04         0.00000E+00
    0.16698E+04        -0.97600E+08         0.00000E+00
    0.00000E+00         0.00000E+00        -0.49949E+08
 
   -0.49800E+08         0.29039E+04         0.00000E+00
    0.29039E+04        -0.97600E+08         0.00000E+00
    0.00000E+00         0.00000E+00        -0.49939E+08
 
   -0.49795E+08         0.41148E+04         0.00000E+00
    0.41148E+04        -0.97600E+08         0.00000E+00
    0.00000E+00         0.00000E+00        -0.49929E+08
 
   -0.49788E+08         0.52931E+04         0.00000E+00
    0.52931E+04        -0.97600E+08         0.00000E+00
    0.00000E+00         0.00000E+00        -0.49919E+08
 
   -0.49780E+08         0.64348E+04         0.00000E+00
    0.64348E+04        -0.97600E+08         0.00000E+00
    0.00000E+00         0.00000E+00        -0.49908E+08
 
   -0.49770E+08         0.75395E+04         0.00000E+00
    0.75395E+04        -0.97600E+08         0.00000E+00
    0.00000E+00         0.00000E+00        -0.49897E+08
 
   -0.49758E+08         0.86100E+04         0.00000E+00
    0.86100E+04        -0.97600E+08         0.00000E+00
    0.00000E+00         0.00000E+00        -0.49886E+08
 
   -0.49745E+08         0.96510E+04         0.00000E+00
    0.96510E+04        -0.97600E+08         0.00000E+00
    0.00000E+00         0.00000E+00        -0.49874E+08
 
   -0.49731E+08         0.10669E+05         0.00000E+00
    0.10669E+05        -0.97600E+08         0.00000E+00
    0.00000E+00         0.00000E+00        -0.49862E+08
 
   -0.49715E+08         0.11670E+05         0.00000E+00
    0.11670E+05        -0.97600E+08         0.00000E+00
    0.00000E+00         0.00000E+00        -0.49849E+08
 
   -0.49698E+08         0.12661E+05         0.00000E+00
    0.12661E+05        -0.97600E+08         0.00000E+00
    0.00000E+00         0.00000E+00        -0.49835E+08
 
   -0.49679E+08         0.13651E+05         0.00000E+00
    0.13651E+05        -0.97600E+08         0.00000E+00
    0.00000E+00         0.00000E+00        -0.49821E+08
 
   -0.49659E+08         0.14645E+05         0.00000E+00
    0.14645E+05        -0.97600E+08         0.00000E+00
    0.00000E+00         0.00000E+00        -0.49807E+08
 
   -0.49638E+08         0.15651E+05         0.00000E+00
    0.15651E+05        -0.97600E+08         0.00000E+00
    0.00000E+00         0.00000E+00        -0.49791E+08
 
   -0.49615E+08         0.16675E+05         0.00000E+00
    0.16675E+05        -0.97600E+08         0.00000E+00
    0.00000E+00         0.00000E+00        -0.49775E+08
 
   -0.49591E+08         0.17722E+05         0.00000E+00
    0.17722E+05        -0.97600E+08         0.00000E+00
    0.00000E+00         0.00000E+00        -0.49758E+08
 
   -0.49565E+08         0.18799E+05         0.00000E+00
    0.18799E+05        -0.97600E+08         0.00000E+00
    0.00000E+00         0.00000E+00        -0.49740E+08
 
   -0.49537E+08         0.19909E+05         0.00000E+00
    0.19909E+05        -0.97600E+08         0.00000E+00
    0.00000E+00         0.00000E+00        -0.49721E+08
 
   -0.49508E+08         0.21059E+05         0.00000E+00
    0.21059E+05        -0.97600E+08         0.00000E+00
    0.00000E+00         0.00000E+00        -0.49702E+08
 
   -0.49478E+08         0.22251E+05         0.00000E+00
    0.22251E+05        -0.97600E+08         0.00000E+00
    0.00000E+00         0.00000E+00        -0.49681E+08
 
   -0.49445E+08         0.23491E+05         0.00000E+00
    0.23491E+05        -0.97600E+08         0.00000E+00
    0.00000E+00         0.00000E+00        -0.49659E+08
 
   -0.49411E+08         0.24782E+05         0.00000E+00
    0.24782E+05        -0.97599E+08         0.00000E+00
    0.00000E+00         0.00000E+00        -0.49635E+08
 
   -0.49375E+08         0.26127E+05         0.00000E+00
    0.26127E+05        -0.97599E+08         0.00000E+00
    0.00000E+00         0.00000E+00        -0.49611E+08
 
   -0.49337E+08         0.27530E+05         0.00000E+00
    0.27530E+05        -0.97599E+08         0.00000E+00
    0.00000E+00         0.00000E+00        -0.49585E+08
 
   -0.49297E+08         0.28994E+05         0.00000E+00
    0.28994E+05        -0.97599E+08         0.00000E+00
    0.00000E+00         0.00000E+00        -0.49557E+08
 
   -0.49255E+08         0.30523E+05         0.00000E+00
    0.30523E+05        -0.97599E+08         0.00000E+00
    0.00000E+00         0.00000E+00        -0.49528E+08
 
   -0.49211E+08         0.32118E+05         0.00000E+00
    0.32118E+05        -0.97599E+08         0.00000E+00
    0.00000E+00         0.00000E+00        -0.49497E+08
 
   -0.49164E+08         0.33784E+05         0.00000E+00
    0.33784E+05        -0.97599E+08         0.00000E+00
    0.00000E+00         0.00000E+00        -0.49465E+08
 
   -0.49115E+08         0.35522E+05         0.00000E+00
    0.35522E+05        -0.97599E+08         0.00000E+00
    0.00000E+00         0.00000E+00        -0.49431E+08
 
   -0.49064E+08         0.37335E+05         0.00000E+00
    0.37335E+05        -0.97599E+08         0.00000E+00
    0.00000E+00         0.00000E+00        -0.49395E+08
 
   -0.49009E+08         0.39226E+05         0.00000E+00
    0.39226E+05        -0.97599E+08         0.00000E+00
    0.00000E+00         0.00000E+00        -0.49356E+08
 
   -0.48952E+08         0.41196E+05         0.00000E+00
    0.41196E+05        -0.97599E+08         0.00000E+00
    0.00000E+00         0.00000E+00        -0.49316E+08
 
   -0.48893E+08         0.43249E+05         0.00000E+00
    0.43249E+05        -0.97599E+08         0.00000E+00
    0.00000E+00         0.00000E+00        -0.49273E+08
 
   -0.48830E+08         0.45386E+05         0.00000E+00
    0.45386E+05        -0.97599E+08         0.00000E+00
    0.00000E+00         0.00000E+00        -0.49228E+08
 
   -0.48764E+08         0.47609E+05         0.00000E+00
    0.47609E+05        -0.97599E+08         0.00000E+00
    0.00000E+00         0.00000E+00        -0.49181E+08
 
   -0.48695E+08         0.49920E+05         0.00000E+00
    0.49920E+05        -0.97599E+08         0.00000E+00
    0.00000E+00         0.00000E+00        -0.49130E+08
 
   -0.48623E+08         0.52320E+05         0.00000E+00
    0.52320E+05        -0.97599E+08         0.00000E+00
    0.00000E+00         0.00000E+00        -0.49077E+08
 
   -0.48547E+08         0.54811E+05         0.00000E+00
    0.54811E+05        -0.97599E+08         0.00000E+00
    0.00000E+00         0.00000E+00        -0.49021E+08
 
   -0.48467E+08         0.57393E+05         0.00000E+00
    0.57393E+05        -0.97599E+08         0.00000E+00
    0.00000E+00         0.00000E+00        -0.48962E+08
 
   -0.48384E+08         0.60068E+05         0.00000E+00
    0.60068E+05        -0.97599E+08         0.00000E+00
    0.00000E+00         0.00000E+00        -0.48900E+08
 
   -0.48297E+08         0.62835E+05         0.00000E+00
    0.62835E+05        -0.97599E+08         0.00000E+00
    0.00000E+00         0.00000E+00        -0.48834E+08
 
   -0.48206E+08         0.65695E+05         0.00000E+00
    0.65695E+05        -0.97599E+08         0.00000E+00
    0.00000E+00         0.00000E+00        -0.48765E+08
 
   -0.48111E+08         0.68648E+05         0.00000E+00
    0.68648E+05        -0.97599E+08         0.00000E+00
    0.00000E+00         0.00000E+00        -0.48692E+08
 
   -0.48011E+08         0.71693E+05         0.00000E+00
    0.71693E+05        -0.97599E+08         0.00000E+00
    0.00000E+00         0.00000E+00        -0.48615E+08
 
   -0.47907E+08         0.74828E+05         0.00000E+00
    0.74828E+05        -0.97599E+08         0.00000E+00
    0.00000E+00         0.00000E+00        -0.48534E+08
 
   -0.47799E+08         0.78053E+05         0.00000E+00
    0.78053E+05        -0.97599E+08         0.00000E+00
    0.00000E+00         0.00000E+00        -0.48449E+08
 
   -0.47686E+08         0.81364E+05         0.00000E+00
    0.81364E+05        -0.97599E+08         0.00000E+00
    0.00000E+00         0.00000E+00        -0.48359E+08
 
   -0.47568E+08         0.84758E+05         0.00000E+00
    0.84758E+05        -0.97599E+08         0.00000E+00
    0.00000E+00         0.00000E+00        -0.48264E+08
 
   -0.47446E+08         0.88232E+05         0.00000E+00
    0.88232E+05        -0.97599E+08         0.00000E+00
    0.00000E+00         0.00000E+00        -0.48165E+08
 
   -0.47318E+08         0.91782E+05         0.00000E+00
    0.91782E+05        -0.97599E+08         0.00000E+00
    0.00000E+00         0.00000E+00        -0.48060E+08
 
   -0.47185E+08         0.95401E+05         0.00000E+00
    0.95401E+05        -0.97599E+08         0.00000E+00
    0.00000E+00         0.00000E+00        -0.47950E+08
 
   -0.47047E+08         0.99084E+05         0.00000E+00
    0.99084E+05        -0.97599E+08         0.00000E+00
    0.00000E+00         0.00000E+00        -0.47835E+08
 
   -0.46904E+08         0.10282E+06         0.00000E+00
    0.10282E+06        -0.97598E+08         0.00000E+00
    0.00000E+00         0.00000E+00        -0.47714E+08
 
   -0.46756E+08         0.10661E+06         0.00000E+00
    0.10661E+06        -0.97598E+08         0.00000E+00
    0.00000E+00         0.00000E+00        -0.47587E+08
 
   -0.46602E+08         0.11043E+06         0.00000E+00
    0.11043E+06        -0.97598E+08         0.00000E+00
    0.00000E+00         0.00000E+00        -0.47454E+08
 
   -0.46442E+08         0.11428E+06         0.00000E+00
    0.11428E+06        -0.97598E+08         0.00000E+00
    0.00000E+00         0.00000E+00        -0.47314E+08
 
   -0.46277E+08         0.11815E+06         0.00000E+00
    0.11815E+06        -0.97598E+08         0.00000E+00
    0.00000E+00         0.00000E+00        -0.47167E+08
 
   -0.46107E+08         0.12201E+06         0.00000E+00
    0.12201E+06        -0.97598E+08         0.00000E+00
    0.00000E+00         0.00000E+00        -0.47014E+08
 
   -0.45931E+08         0.12585E+06         0.00000E+00
    0.12585E+06        -0.97598E+08         0.00000E+00
    0.00000E+00         0.00000E+00        -0.46853E+08
 
   -0.45750E+08         0.12966E+06         0.00000E+00
    0.12966E+06        -0.97598E+08         0.00000E+00
    0.00000E+00         0.00000E+00        -0.46685E+08
 
   -0.45563E+08         0.13341E+06         0.00000E+00
    0.13341E+06        -0.97598E+08         0.00000E+00
    0.00000E+00         0.00000E+00        -0.46510E+08
 
   -0.45371E+08         0.13707E+06         0.00000E+00
    0.13707E+06        -0.97598E+08         0.00000E+00
    0.00000E+00         0.00000E+00        -0.46326E+08
 
   -0.45173E+08         0.14063E+06         0.00000E+00
    0.14063E+06        -0.97599E+08         0.00000E+00
    0.00000E+00         0.00000E+00        -0.46135E+08
 
   -0.44971E+08         0.14405E+06         0.00000E+00
    0.14405E+06        -0.97599E+08         0.00000E+00
    0.00000E+00         0.00000E+00        -0.45935E+08
 
   -0.44764E+08         0.14729E+06         0.00000E+00
    0.14729E+06        -0.97599E+08         0.00000E+00
    0.00000E+00         0.00000E+00        -0.45726E+08
 
   -0.44553E+08         0.15032E+06         0.00000E+00
    0.15032E+06        -0.97599E+08         0.00000E+00
    0.00000E+00         0.00000E+00        -0.45509E+08
 
   -0.44337E+08         0.15309E+06         0.00000E+00
    0.15309E+06        -0.97599E+08         0.00000E+00
    0.00000E+00         0.00000E+00        -0.45283E+08
 
   -0.44117E+08         0.15555E+06         0.00000E+00
    0.15555E+06        -0.97599E+08         0.00000E+00
    0.00000E+00         0.00000E+00        -0.45047E+08
 
   -0.43895E+08         0.15765E+06         0.00000E+00
    0.15765E+06        -0.97599E+08         0.00000E+00
    0.00000E+00         0.00000E+00        -0.44803E+08
 
   -0.43669E+08         0.15932E+06         0.00000E+00
    0.15932E+06        -0.97599E+08         0.00000E+00
    0.00000E+00         0.00000E+00        -0.44548E+08
 
   -0.43441E+08         0.16048E+06         0.00000E+00
    0.16048E+06        -0.97599E+08         0.00000E+00
    0.00000E+00         0.00000E+00        -0.44284E+08
 
   -0.43212E+08         0.16106E+06         0.00000E+00
    0.16106E+06        -0.97600E+08         0.00000E+00
    0.00000E+00         0.00000E+00        -0.44011E+08
 
   -0.42983E+08         0.16095E+06         0.00000E+00
    0.16095E+06        -0.97600E+08         0.00000E+00
    0.00000E+00         0.00000E+00        -0.43727E+08
 
   -0.42754E+08         0.16005E+06         0.00000E+00
    0.16005E+06        -0.97600E+08         0.00000E+00
    0.00000E+00         0.00000E+00        -0.43433E+08
 
   -0.42527E+08         0.15823E+06         0.00000E+00
    0.15823E+06        -0.97601E+08         0.00000E+00
    0.00000E+00         0.00000E+00        -0.43129E+08
 
   -0.42303E+08         0.15536E+06         0.00000E+00
    0.15536E+06        -0.97601E+08         0.00000E+00
    0.00000E+00         0.00000E+00        -0.42816E+08
 
   -0.42083E+08         0.15127E+06         0.00000E+00
    0.15127E+06        -0.97601E+08         0.00000E+00
    0.00000E+00         0.00000E+00        -0.42492E+08
 
   -0.41870E+08         0.14581E+06         0.00000E+00
    0.14581E+06        -0.97602E+08         0.00000E+00
    0.00000E+00         0.00000E+00        -0.42158E+08
 
   -0.41665E+08         0.13877E+06         0.00000E+00
    0.13877E+06        -0.97603E+08         0.00000E+00
    0.00000E+00         0.00000E+00        -0.41814E+08
 
   -0.41471E+08         0.12996E+06         0.00000E+00
    0.12996E+06        -0.97603E+08         0.00000E+00
    0.00000E+00         0.00000E+00        -0.41460E+08
 
   -0.41290E+08         0.11917E+06         0.00000E+00
    0.11917E+06        -0.97604E+08         0.00000E+00
    0.00000E+00         0.00000E+00        -0.41097E+08
 
   -0.41125E+08         0.10618E+06         0.00000E+00
    0.10618E+06        -0.97605E+08         0.00000E+00
    0.00000E+00         0.00000E+00        -0.40724E+08
 
   -0.40978E+08         0.90807E+05         0.00000E+00
    0.90807E+05        -0.97606E+08         0.00000E+00
    0.00000E+00         0.00000E+00        -0.40343E+08
 
   -0.40853E+08         0.72874E+05         0.00000E+00
    0.72874E+05        -0.97607E+08         0.00000E+00
    0.00000E+00         0.00000E+00        -0.39952E+08
 
   -0.40754E+08         0.52264E+05         0.00000E+00
    0.52264E+05        -0.97608E+08         0.00000E+00
    0.00000E+00         0.00000E+00        -0.39553E+08
 
   -0.40683E+08         0.28941E+05         0.00000E+00
    0.28941E+05        -0.97609E+08         0.00000E+00
    0.00000E+00         0.00000E+00        -0.39146E+08
 
   -0.40643E+08         0.29865E+04         0.00000E+00
    0.29865E+04        -0.97610E+08         0.00000E+00
    0.00000E+00         0.00000E+00        -0.38731E+08
 
   -0.40638E+08        -0.25361E+05         0.00000E+00
   -0.25361E+05        -0.97611E+08         0.00000E+00
    0.00000E+00         0.00000E+00        -0.38310E+08
 
   -0.40670E+08        -0.55663E+05         0.00000E+00
   -0.55663E+05        -0.97612E+08         0.00000E+00
    0.00000E+00         0.00000E+00        -0.37882E+08
 
   -0.40738E+08        -0.87203E+05         0.00000E+00
   -0.87203E+05        -0.97612E+08         0.00000E+00
    0.00000E+00         0.00000E+00        -0.37449E+08
 
   -0.40844E+08        -0.11897E+06         0.00000E+00
   -0.11897E+06        -0.97612E+08         0.00000E+00
    0.00000E+00         0.00000E+00        -0.37010E+08
 
   -0.40981E+08        -0.14894E+06         0.00000E+00
   -0.14894E+06        -0.97612E+08         0.00000E+00
    0.00000E+00         0.00000E+00        -0.36568E+08
 
   -0.41139E+08        -0.17485E+06         0.00000E+00
   -0.17485E+06        -0.97611E+08         0.00000E+00
    0.00000E+00         0.00000E+00        -0.36122E+08
 
   -0.41285E+08        -0.18301E+06         0.00000E+00
   -0.18301E+06        -0.97612E+08         0.00000E+00
    0.00000E+00         0.00000E+00        -0.35674E+08
 
   -0.41359E+08        -0.96589E+05         0.00000E+00
   -0.96589E+05        -0.97524E+08         0.00000E+00
    0.00000E+00         0.00000E+00        -0.35225E+08
 
   -0.49800E+08        -0.16624E+04         0.00000E+00
   -0.16624E+04        -0.97601E+08         0.00000E+00
    0.00000E+00         0.00000E+00        -0.49995E+08
 
   -0.49801E+08        -0.24334E+04         0.00000E+00
   -0.24334E+04        -0.97600E+08         0.00000E+00
    0.00000E+00         0.00000E+00        -0.49986E+08
 
   -0.49803E+08        -0.16208E+04         0.00000E+00
   -0.16208E+04        -0.97600E+08         0.00000E+00
    0.00000E+00         0.00000E+00        -0.49977E+08
 
   -0.49805E+08        -0.73174E+03         0.00000E+00
   -0.73174E+03        -0.97600E+08         0.00000E+00
    0.00000E+00         0.00000E+00        -0.49968E+08
 
   -0.49804E+08         0.18590E+03         0.00000E+00
    0.18590E+03        -0.97600E+08         0.00000E+00
    0.00000E+00         0.00000E+00        -0.49958E+08
 
   -0.49803E+08         0.11075E+04         0.00000E+00
    0.11075E+04        -0.97600E+08         0.00000E+00
    0.00000E+00         0.00000E+00        -0.49949E+08
 
   -0.49799E+08         0.20147E+04         0.00000E+00
    0.20147E+04        -0.97600E+08         0.00000E+00
    0.00000E+00         0.00000E+00        -0.49939E+08
 
   -0.49794E+08         0.28997E+04         0.00000E+00
    0.28997E+04        -0.97600E+08         0.00000E+00
    0.00000E+00         0.00000E+00        -0.49929E+08
 
   -0.49787E+08         0.37573E+04         0.00000E+00
    0.37573E+04        -0.97600E+08         0.00000E+00
    0.00000E+00         0.00000E+00        -0.49919E+08
 
   -0.49779E+08         0.45856E+04         0.00000E+00
    0.45856E+04        -0.97600E+08         0.00000E+00
    0.00000E+00         0.00000E+00        -0.49908E+08
 
   -0.49769E+08         0.53850E+04         0.00000E+00
    0.53850E+04        -0.97600E+08         0.00000E+00
    0.00000E+00         0.00000E+00        -0.49897E+08
 
   -0.49757E+08         0.61580E+04         0.00000E+00
    0.61580E+04        -0.97600E+08         0.00000E+00
    0.00000E+00         0.00000E+00        -0.49886E+08
 
   -0.49744E+08         0.69082E+04         0.00000E+00
    0.69082E+04        -0.97600E+08         0.00000E+00
    0.00000E+00         0.00000E+00        -0.49874E+08
 
   -0.49730E+08         0.76404E+04         0.00000E+00
    0.76404E+04        -0.97600E+08         0.00000E+00
    0.00000E+00         0.00000E+00        -0.49862E+08
 
   -0.49714E+08         0.83597E+04         0.00000E+00
    0.83597E+04        -0.97600E+08         0.00000E+00
    0.00000E+00         0.00000E+00        -0.49849E+08
 
   -0.49696E+08         0.90715E+04         0.00000E+00
    0.90715E+04        -0.97600E+08         0.00000E+00
    0.00000E+00         0.00000E+00        -0.49835E+08
 
   -0.49678E+08         0.97813E+04         0.00000E+00
    0.97813E+04        -0.97600E+08         0.00000E+00
    0.00000E+00         0.00000E+00        -0.49821E+08
 
   -0.49658E+08         0.10494E+05         0.00000E+00
    0.10494E+05        -0.97600E+08         0.00000E+00
    0.00000E+00         0.00000E+00        -0.49807E+08
 
   -0.49636E+08         0.11215E+05         0.00000E+00
    0.11215E+05        -0.97600E+08         0.00000E+00
    0.00000E+00         0.00000E+00        -0.49791E+08
 
   -0.49613E+08         0.11948E+05         0.00000E+00
    0.11948E+05        -0.97600E+08         0.00000E+00
    0.00000E+00         0.00000E+00        -0.49775E+08
 
   -0.49589E+08         0.12698E+05         0.00000E+00
    0.12698E+05        -0.97600E+08         0.00000E+00
    0.00000E+00         0.00000E+00        -0.49758E+08
 
   -0.49563E+08         0.13469E+05         0.00000E+00
    0.13469E+05        -0.97600E+08         0.00000E+00
    0.00000E+00         0.00000E+00        -0.49740E+08
 
   -0.49535E+08         0.14264E+05         0.00000E+00
    0.14264E+05        -0.97600E+08         0.00000E+00
    0.00000E+00         0.00000E+00        -0.49721E+08
 
   -0.49506E+08         0.15087E+05         0.00000E+00
    0.15087E+05        -0.97600E+08         0.00000E+00
    0.00000E+00         0.00000E+00        -0.49702E+08
 
   -0.49475E+08         0.15940E+05         0.00000E+00
    0.15940E+05        -0.97600E+08         0.00000E+00
    0.00000E+00         0.00000E+00        -0.49681E+08
 
   -0.49443E+08         0.16828E+05         0.00000E+00
    0.16828E+05        -0.97600E+08         0.00000E+00
    0.00000E+00         0.00000E+00        -0.49659E+08
 
   -0.49409E+08         0.17752E+05         0.00000E+00
    0.17752E+05        -0.97600E+08         0.00000E+00
    0.00000E+00         0.00000E+00        -0.49635E+08
 
   -0.49372E+08         0.18715E+05         0.00000E+00
    0.18715E+05        -0.97600E+08         0.00000E+00
    0.00000E+00         0.00000E+00        -0.49611E+08
 
   -0.49334E+08         0.19719E+05         0.00000E+00
    0.19719E+05        -0.97600E+08         0.00000E+00
    0.00000E+00         0.00000E+00        -0.49585E+08
 
   -0.49294E+08         0.20767E+05         0.00000E+00
    0.20767E+05        -0.97600E+08         0.00000E+00
    0.00000E+00         0.00000E+00        -0.49557E+08
 
   -0.49252E+08         0.21862E+05         0.00000E+00
    0.21862E+05        -0.97600E+08         0.00000E+00
    0.00000E+00         0.00000E+00        -0.49528E+08
 
   -0.49207E+08         0.23004E+05         0.00000E+00
    0.23004E+05        -0.97600E+08         0.00000E+00
    0.00000E+00         0.00000E+00        -0.49497E+08
 
   -0.49160E+08         0.24196E+05         0.00000E+00
    0.24196E+05        -0.97600E+08         0.00000E+00
    0.00000E+00         0.00000E+00        -0.49465E+08
 
   -0.49111E+08         0.25441E+05         0.00000E+00
    0.25441E+05        -0.97600E+08         0.00000E+00
    0.00000E+00         0.00000E+00        -0.49431E+08
 
   -0.49059E+08         0.26739E+05         0.00000E+00
    0.26739E+05        -0.97600E+08         0.00000E+00
    0.00000E+00         0.00000E+00        -0.49395E+08
 
   -0.49005E+08         0.28092E+05         0.00000E+00
    0.28092E+05        -0.97600E+08         0.00000E+00
    0.00000E+00         0.00000E+00        -0.49356E+08
 
   -0.48948E+08         0.29503E+05         0.00000E+00
    0.29503E+05        -0.97600E+08         0.00000E+00
    0.00000E+00         0.00000E+00        -0.49316E+08
 
   -0.48888E+08         0.30973E+05         0.00000E+00
    0.30973E+05        -0.97600E+08         0.00000E+00
    0.00000E+00         0.00000E+00        -0.49273E+08
 
   -0.48825E+08         0.32502E+05         0.00000E+00
    0.32502E+05        -0.97600E+08         0.00000E+00
    0.00000E+00         0.00000E+00        -0.49228E+08
 
   -0.48758E+08         0.34094E+05         0.00000E+00
    0.34094E+05        -0.97600E+08         0.00000E+00
    0.00000E+00         0.00000E+00        -0.49181E+08
 
   -0.48689E+08         0.35748E+05         0.00000E+00
    0.35748E+05        -0.97599E+08         0.00000E+00
    0.00000E+00         0.00000E+00        -0.49130E+08
 
   -0.48616E+08         0.37466E+05         0.00000E+00
    0.37466E+05        -0.97599E+08         0.00000E+00
    0.00000E+00         0.00000E+00        -0.49077E+08
 
   -0.48540E+08         0.39249E+05         0.00000E+00
    0.39249E+05        -0.97599E+08         0.00000E+00
    0.00000E+00         0.00000E+00        -0.49021E+08
 
   -0.48460E+08         0.41097E+05         0.00000E+00
    0.41097E+05        -0.97599E+08         0.00000E+00
    0.00000E+00         0.00000E+00        -0.48962E+08
 
   -0.48377E+08         0.43011E+05         0.00000E+00
    0.43011E+05        -0.97599E+08         0.00000E+00
    0.00000E+00         0.00000E+00        -0.48900E+08
 
   -0.48289E+08         0.44992E+05         0.00000E+00
    0.44992E+05        -0.97599E+08         0.00000E+00
    0.00000E+00         0.00000E+00        -0.48834E+08
 
   -0.48198E+08         0.47039E+05         0.00000E+00
    0.47039E+05        -0.97599E+08         0.00000E+00
    0.00000E+00         0.00000E+00        -0.48765E+08
 
   -0.48102E+08         0.49152E+05         0.00000E+00
    0.49152E+05        -0.97599E+08         0.00000E+00
    0.00000E+00         0.00000E+00        -0.48692E+08
 
   -0.48003E+08         0.51331E+05         0.00000E+00
    0.51331E+05        -0.97599E+08         0.00000E+00
    0.00000E+00         0.00000E+00        -0.48615E+08
 
   -0.47898E+08         0.53575E+05         0.00000E+00
    0.53575E+05        -0.97599E+08         0.00000E+00
    0.00000E+00         0.00000E+00        -0.48534E+08
 
   -0.47789E+08         0.55882E+05         0.00000E+00
    0.55882E+05        -0.97599E+08         0.00000E+00
    0.00000E+00         0.00000E+00        -0.48449E+08
 
   -0.47676E+08         0.58251E+05         0.00000E+00
    0.58251E+05        -0.97599E+08         0.00000E+00
    0.00000E+00         0.00000E+00        -0.48359E+08
 
   -0.47558E+08         0.60679E+05         0.00000E+00
    0.60679E+05        -0.97599E+08         0.00000E+00
    0.00000E+00         0.00000E+00        -0.48264E+08
 
   -0.47435E+08         0.63165E+05         0.00000E+00
    0.63165E+05        -0.97599E+08         0.00000E+00
    0.00000E+00         0.00000E+00        -0.48165E+08
 
   -0.47307E+08         0.65704E+05         0.00000E+00
    0.65704E+05        -0.97599E+08         0.00000E+00
    0.00000E+00         0.00000E+00        -0.48060E+08
 
   -0.47173E+08         0.68292E+05         0.00000E+00
    0.68292E+05        -0.97599E+08         0.00000E+00
    0.00000E+00         0.00000E+00        -0.47950E+08
 
   -0.47035E+08         0.70927E+05         0.00000E+00
    0.70927E+05        -0.97599E+08         0.00000E+00
    0.00000E+00         0.00000E+00        -0.47835E+08
 
   -0.46891E+08         0.73600E+05         0.00000E+00
    0.73600E+05        -0.97599E+08         0.00000E+00
    0.00000E+00         0.00000E+00        -0.47714E+08
 
   -0.46742E+08         0.76308E+05         0.00000E+00
    0.76308E+05        -0.97599E+08         0.00000E+00
    0.00000E+00         0.00000E+00        -0.47587E+08
 
   -0.46588E+08         0.79042E+05         0.00000E+00
    0.79042E+05        -0.97599E+08         0.00000E+00
    0.00000E+00         0.00000E+00        -0.47454E+08
 
   -0.46428E+08         0.81795E+05         0.00000E+00
    0.81795E+05        -0.97599E+08         0.00000E+00
    0.00000E+00         0.00000E+00        -0.47314E+08
 
   -0.46262E+08         0.84556E+05         0.00000E+00
    0.84556E+05        -0.97599E+08         0.00000E+00
    0.00000E+00         0.00000E+00        -0.47167E+08
 
   -0.46091E+08         0.87317E+05         0.00000E+00
    0.87317E+05        -0.97599E+08         0.00000E+00
    0.00000E+00         0.00000E+00        -0.47014E+08
 
   -0.45915E+08         0.90063E+05         0.00000E+00
    0.90063E+05        -0.97599E+08         0.00000E+00
    0.00000E+00         0.00000E+00        -0.46853E+08
 
   -0.45733E+08         0.92784E+05         0.00000E+00
    0.92784E+05        -0.97599E+08         0.00000E+00
    0.00000E+00         0.00000E+00        -0.46685E+08
 
   -0.45546E+08         0.95462E+05         0.00000E+00
    0.95462E+05        -0.97599E+08         0.00000E+00
    0.00000E+00         0.00000E+00        -0.46510E+08
 
   -0.45353E+08         0.98080E+05         0.00000E+00
    0.98080E+05        -0.97599E+08         0.00000E+00
    0.00000E+00         0.00000E+00        -0.46326E+08
 
   -0.45155E+08         0.10062E+06         0.00000E+00
    0.10062E+06        -0.97599E+08         0.00000E+00
    0.00000E+00         0.00000E+00        -0.46135E+08
 
   -0.44952E+08         0.10306E+06         0.00000E+00
    0.10306E+06        -0.97599E+08         0.00000E+00
    0.00000E+00         0.00000E+00        -0.45935E+08
 
   -0.44745E+08         0.10537E+06         0.00000E+00
    0.10537E+06        -0.97599E+08         0.00000E+00
    0.00000E+00         0.00000E+00        -0.45726E+08
 
   -0.44533E+08         0.10754E+06         0.00000E+00
    0.10754E+06        -0.97599E+08         0.00000E+00
    0.00000E+00         0.00000E+00        -0.45509E+08
 
   -0.44317E+08         0.10951E+06         0.00000E+00
    0.10951E+06        -0.97599E+08         0.00000E+00
    0.00000E+00         0.00000E+00        -0.45283E+08
 
   -0.44097E+08         0.11127E+06         0.00000E+00
    0.11127E+06        -0.97599E+08         0.00000E+00
    0.00000E+00         0.00000E+00        -0.45047E+08
 
   -0.43873E+08         0.11276E+06         0.00000E+00
    0.11276E+06        -0.97599E+08         0.00000E+00
    0.00000E+00         0.00000E+00        -0.44803E+08
 
   -0.43648E+08         0.11394E+06         0.00000E+00
    0.11394E+06        -0.97599E+08         0.00000E+00
    0.00000E+00         0.00000E+00        -0.44548E+08
 
   -0.43420E+08         0.11476E+06         0.00000E+00
    0.11476E+06        -0.97600E+08         0.00000E+00
    0.00000E+00         0.00000E+00        -0.44284E+08
 
   -0.43190E+08         0.11516E+06         0.00000E+00
    0.11516E+06        -0.97600E+08         0.00000E+00
    0.00000E+00         0.00000E+00        -0.44011E+08
 
   -0.42961E+08         0.11506E+06         0.00000E+00
    0.11506E+06        -0.97600E+08         0.00000E+00
    0.00000E+00         0.00000E+00        -0.43727E+08
 
   -0.42731E+08         0.11439E+06         0.00000E+00
    0.11439E+06        -0.97600E+08         0.00000E+00
    0.00000E+00         0.00000E+00        -0.43433E+08
 
   -0.42504E+08         0.11306E+06         0.00000E+00
    0.11306E+06        -0.97600E+08         0.00000E+00
    0.00000E+00         0.00000E+00        -0.43129E+08
 
   -0.42280E+08         0.11097E+06         0.00000E+00
    0.11097E+06        -0.97600E+08         0.00000E+00
    0.00000E+00         0.00000E+00        -0.42816E+08
 
   -0.42061E+08         0.10799E+06         0.00000E+00
    0.10799E+06        -0.97601E+08         0.00000E+00
    0.00000E+00         0.00000E+00        -0.42492E+08
 
   -0.41849E+08         0.10402E+06         0.00000E+00
    0.10402E+06        -0.97601E+08         0.00000E+00
    0.00000E+00         0.00000E+00        -0.42158E+08
 
   -0.41645E+08         0.98895E+05         0.00000E+00
    0.98895E+05        -0.97601E+08         0.00000E+00
    0.00000E+00         0.00000E+00        -0.41814E+08
 
   -0.41452E+08         0.92482E+05         0.00000E+00
    0.92482E+05        -0.97602E+08         0.00000E+00
    0.00000E+00         0.00000E+00        -0.41460E+08
 
   -0.41272E+08         0.84619E+05         0.00000E+00
    0.84619E+05        -0.97602E+08         0.00000E+00
    0.00000E+00         0.00000E+00        -0.41097E+08
 
   -0.41109E+08         0.75148E+05         0.00000E+00
    0.75148E+05        -0.97603E+08         0.00000E+00
    0.00000E+00         0.00000E+00        -0.40724E+08
 
   -0.40965E+08         0.63917E+05         0.00000E+00
    0.63917E+05        -0.97603E+08         0.00000E+00
    0.00000E+00         0.00000E+00        -0.40343E+08
 
   -0.40845E+08         0.50793E+05         0.00000E+00
    0.50793E+05        -0.97604E+08         0.00000E+00
    0.00000E+00         0.00000E+00        -0.39952E+08
 
   -0.40750E+08         0.35678E+05         0.00000E+00
    0.35678E+05        -0.97604E+08         0.00000E+00
    0.00000E+00         0.00000E+00        -0.39553E+08
 
   -0.40686E+08         0.18530E+05         0.00000E+00
    0.18530E+05        -0.97605E+08         0.00000E+00
    0.00000E+00         0.00000E+00        -0.39146E+08
 
   -0.40655E+08        -0.61402E+03         0.00000E+00
   -0.61402E+03        -0.97605E+08         0.00000E+00
    0.00000E+00         0.00000E+00        -0.38731E+08
 
   -0.40660E+08        -0.21610E+05         0.00000E+00
   -0.21610E+05        -0.97606E+08         0.00000E+00
    0.00000E+00         0.00000E+00        -0.38310E+08
 
   -0.40705E+08        -0.44189E+05         0.00000E+00
   -0.44189E+05        -0.97606E+08         0.00000E+00
    0.00000E+00         0.00000E+00        -0.37882E+08
 
   -0.40790E+08        -0.67905E+05         0.00000E+00
   -0.67905E+05        -0.97607E+08         0.00000E+00
    0.00000E+00         0.00000E+00        -0.37449E+08
 
   -0.40916E+08        -0.92190E+05         0.00000E+00
   -0.92190E+05        -0.97607E+08         0.00000E+00
    0.00000E+00         0.00000E+00        -0.37010E+08
 
   -0.41079E+08        -0.11594E+06         0.00000E+00
   -0.11594E+06        -0.97607E+08         0.00000E+00
    0.00000E+00         0.00000E+00        -0.36568E+08
 
   -0.41273E+08        -0.13775E+06         0.00000E+00
   -0.13775E+06        -0.97606E+08         0.00000E+00
    0.00000E+00         0.00000E+00        -0.36122E+08
 
   -0.41471E+08        -0.15509E+06         0.00000E+00
   -0.15509E+06        -0.97613E+08         0.00000E+00
    0.00000E+00         0.00000E+00        -0.35674E+08
 
   -0.41592E+08        -0.93727E+05         0.00000E+00
   -0.93727E+05        -0.97556E+08         0.00000E+00
    0.00000E+00         0.00000E+00        -0.35225E+08
 
   -0.49794E+08        -0.16101E+04         0.00000E+00
   -0.16101E+04        -0.97600E+08         0.00000E+00
    0.00000E+00         0.00000E+00        -0.49995E+08
 
   -0.49797E+08        -0.18487E+04         0.00000E+00
   -0.18487E+04        -0.97600E+08         0.00000E+00
    0.00000E+00         0.00000E+00        -0.49986E+08
 
   -0.49800E+08        -0.11471E+04         0.00000E+00
   -0.11471E+04        -0.97600E+08         0.00000E+00
    0.00000E+00         0.00000E+00        -0.49977E+08
 
   -0.49802E+08        -0.57021E+03         0.00000E+00
   -0.57021E+03        -0.97600E+08         0.00000E+00
    0.00000E+00         0.00000E+00        -0.49968E+08
 
   -0.49803E+08         0.23198E+02         0.00000E+00
    0.23198E+02        -0.97600E+08         0.00000E+00
    0.00000E+00         0.00000E+00        -0.49958E+08
 
   -0.49801E+08         0.60123E+03         0.00000E+00
    0.60123E+03        -0.97600E+08         0.00000E+00
    0.00000E+00         0.00000E+00        -0.49949E+08
 
   -0.49798E+08         0.11653E+04         0.00000E+00
    0.11653E+04        -0.97600E+08         0.00000E+00
    0.00000E+00         0.00000E+00        -0.49939E+08
 
   -0.49793E+08         0.17114E+04         0.00000E+00
    0.17114E+04        -0.97600E+08         0.00000E+00
    0.00000E+00         0.00000E+00        -0.49929E+08
 
   -0.49786E+08         0.22379E+04         0.00000E+00
    0.22379E+04        -0.97600E+08         0.00000E+00
    0.00000E+00         0.00000E+00        -0.49919E+08
 
   -0.49778E+08         0.27445E+04         0.00000E+00
    0.27445E+04        -0.97600E+08         0.00000E+00
    0.00000E+00         0.00000E+00        -0.49908E+08
 
   -0.49768E+08         0.32317E+04         0.00000E+00
    0.32317E+04        -0.97600E+08         0.00000E+00
    0.00000E+00         0.00000E+00        -0.49897E+08
 
   -0.49756E+08         0.37016E+04         0.00000E+00
    0.37016E+04        -0.97600E+08         0.00000E+00
    0.00000E+00         0.00000E+00        -0.49886E+08
 
   -0.49743E+08         0.41566E+04         0.00000E+00
    0.41566E+04        -0.97600E+08         0.00000E+00
    0.00000E+00         0.00000E+00        -0.49874E+08
 
   -0.49729E+08         0.45997E+04         0.00000E+00
    0.45997E+04        -0.97600E+08         0.00000E+00
    0.00000E+00         0.00000E+00        -0.49862E+08
 
   -0.49713E+08         0.50344E+04         0.00000E+00
    0.50344E+04        -0.97600E+08         0.00000E+00
    0.00000E+00         0.00000E+00        -0.49849E+08
 
   -0.49695E+08         0.54640E+04         0.00000E+00
    0.54640E+04        -0.97600E+08         0.00000E+00
    0.00000E+00         0.00000E+00        -0.49835E+08
 
   -0.49676E+08         0.58919E+04         0.00000E+00
    0.58919E+04        -0.97600E+08         0.00000E+00
    0.00000E+00         0.00000E+00        -0.49821E+08
 
   -0.49656E+08         0.63213E+04         0.00000E+00
    0.63213E+04        -0.97600E+08         0.00000E+00
    0.00000E+00         0.00000E+00        -0.49807E+08
 
   -0.49635E+08         0.67553E+04         0.00000E+00
    0.67553E+04        -0.97600E+08         0.00000E+00
    0.00000E+00         0.00000E+00        -0.49791E+08
 
   -0.49612E+08         0.71966E+04         0.00000E+00
    0.71966E+04        -0.97600E+08         0.00000E+00
    0.00000E+00         0.00000E+00        -0.49775E+08
 
   -0.49587E+08         0.76479E+04         0.00000E+00
    0.76479E+04        -0.97600E+08         0.00000E+00
    0.00000E+00         0.00000E+00        -0.49758E+08
 
   -0.49561E+08         0.81116E+04         0.00000E+00
    0.81116E+04        -0.97600E+08         0.00000E+00
    0.00000E+00         0.00000E+00        -0.49740E+08
 
   -0.49533E+08         0.85899E+04         0.00000E+00
    0.85899E+04        -0.97600E+08         0.00000E+00
    0.00000E+00         0.00000E+00        -0.49721E+08
 
   -0.49504E+08         0.90849E+04         0.00000E+00
    0.90849E+04        -0.97600E+08         0.00000E+00
    0.00000E+00         0.00000E+00        -0.49702E+08
 
   -0.49473E+08         0.95985E+04         0.00000E+00
    0.95985E+04        -0.97600E+08         0.00000E+00
    0.00000E+00         0.00000E+00        -0.49681E+08
 
   -0.49440E+08         0.10132E+05         0.00000E+00
    0.10132E+05        -0.97600E+08         0.00000E+00
    0.00000E+00         0.00000E+00        -0.49659E+08
 
   -0.49406E+08         0.10688E+05         0.00000E+00
    0.10688E+05        -0.97600E+08         0.00000E+00
    0.00000E+00         0.00000E+00        -0.49635E+08
 
   -0.49370E+08         0.11268E+05         0.00000E+00
    0.11268E+05        -0.97600E+08         0.00000E+00
    0.00000E+00         0.00000E+00        -0.49611E+08
 
   -0.49331E+08         0.11872E+05         0.00000E+00
    0.11872E+05        -0.97600E+08         0.00000E+00
    0.00000E+00         0.00000E+00        -0.49585E+08
 
   -0.49291E+08         0.12503E+05         0.00000E+00
    0.12503E+05        -0.97600E+08         0.00000E+00
    0.00000E+00         0.00000E+00        -0.49557E+08
 
   -0.49248E+08         0.13161E+05         0.00000E+00
    0.13161E+05        -0.97600E+08         0.00000E+00
    0.00000E+00         0.00000E+00        -0.49528E+08
 
   -0.49204E+08         0.13848E+05         0.00000E+00
    0.13848E+05        -0.97600E+08         0.00000E+00
    0.00000E+00         0.00000E+00        -0.49497E+08
 
   -0.49157E+08         0.14566E+05         0.00000E+00
    0.14566E+05        -0.97600E+08         0.00000E+00
    0.00000E+00         0.00000E+00        -0.49465E+08
 
   -0.49107E+08         0.15314E+05         0.00000E+00
    0.15314E+05        -0.97600E+08         0.00000E+00
    0.00000E+00         0.00000E+00        -0.49431E+08
 
   -0.49055E+08         0.16095E+05         0.00000E+00
    0.16095E+05        -0.97600E+08         0.00000E+00
    0.00000E+00         0.00000E+00        -0.49395E+08
 
   -0.49000E+08         0.16910E+05         0.00000E+00
    0.16910E+05        -0.97600E+08         0.00000E+00
    0.00000E+00         0.00000E+00        -0.49356E+08
 
   -0.48943E+08         0.17758E+05         0.00000E+00
    0.17758E+05        -0.97600E+08         0.00000E+00
    0.00000E+00         0.00000E+00        -0.49316E+08
 
   -0.48883E+08         0.18643E+05         0.00000E+00
    0.18643E+05        -0.97600E+08         0.00000E+00
    0.00000E+00         0.00000E+00        -0.49273E+08
 
   -0.48819E+08         0.19563E+05         0.00000E+00
    0.19563E+05        -0.97600E+08         0.00000E+00
    0.00000E+00         0.00000E+00        -0.49228E+08
 
   -0.48753E+08         0.20520E+05         0.00000E+00
    0.20520E+05        -0.97600E+08         0.00000E+00
    0.00000E+00         0.00000E+00        -0.49181E+08
 
   -0.48683E+08         0.21516E+05         0.00000E+00
    0.21516E+05        -0.97600E+08         0.00000E+00
    0.00000E+00         0.00000E+00        -0.49130E+08
 
   -0.48610E+08         0.22549E+05         0.00000E+00
    0.22549E+05        -0.97600E+08         0.00000E+00
    0.00000E+00         0.00000E+00        -0.49077E+08
 
   -0.48534E+08         0.23622E+05         0.00000E+00
    0.23622E+05        -0.97600E+08         0.00000E+00
    0.00000E+00         0.00000E+00        -0.49021E+08
 
   -0.48454E+08         0.24733E+05         0.00000E+00
    0.24733E+05        -0.97600E+08         0.00000E+00
    0.00000E+00         0.00000E+00        -0.48962E+08
 
   -0.48370E+08         0.25885E+05         0.00000E+00
    0.25885E+05        -0.97600E+08         0.00000E+00
    0.00000E+00         0.00000E+00        -0.48900E+08
 
   -0.48282E+08         0.27076E+05         0.00000E+00
    0.27076E+05        -0.97600E+08         0.00000E+00
    0.00000E+00         0.00000E+00        -0.48834E+08
 
   -0.48190E+08         0.28308E+05         0.00000E+00
    0.28308E+05        -0.97600E+08         0.00000E+00
    0.00000E+00         0.00000E+00        -0.48765E+08
 
   -0.48094E+08         0.29579E+05         0.00000E+00
    0.29579E+05        -0.97600E+08         0.00000E+00
    0.00000E+00         0.00000E+00        -0.48692E+08
 
   -0.47994E+08         0.30889E+05         0.00000E+00
    0.30889E+05        -0.97600E+08         0.00000E+00
    0.00000E+00         0.00000E+00        -0.48615E+08
 
   -0.47889E+08         0.32238E+05         0.00000E+00
    0.32238E+05        -0.97600E+08         0.00000E+00
    0.00000E+00         0.00000E+00        -0.48534E+08
 
   -0.47780E+08         0.33625E+05         0.00000E+00
    0.33625E+05        -0.97600E+08         0.00000E+00
    0.00000E+00         0.00000E+00        -0.48449E+08
 
   -0.47666E+08         0.35050E+05         0.00000E+00
    0.35050E+05        -0.97600E+08         0.00000E+00
    0.00000E+00         0.00000E+00        -0.48359E+08
 
   -0.47548E+08         0.36510E+05         0.00000E+00
    0.36510E+05        -0.97600E+08         0.00000E+00
    0.00000E+00         0.00000E+00        -0.48264E+08
 
   -0.47424E+08         0.38004E+05         0.00000E+00
    0.38004E+05        -0.97600E+08         0.00000E+00
    0.00000E+00         0.00000E+00        -0.48165E+08
 
   -0.47295E+08         0.39531E+05         0.00000E+00
    0.39531E+05        -0.97600E+08         0.00000E+00
    0.00000E+00         0.00000E+00        -0.48060E+08
 
   -0.47162E+08         0.41087E+05         0.00000E+00
    0.41087E+05        -0.97600E+08         0.00000E+00
    0.00000E+00         0.00000E+00        -0.47950E+08
 
   -0.47023E+08         0.42670E+05         0.00000E+00
    0.42670E+05        -0.97600E+08         0.00000E+00
    0.00000E+00         0.00000E+00        -0.47835E+08
 
   -0.46879E+08         0.44277E+05         0.00000E+00
    0.44277E+05        -0.97600E+08         0.00000E+00
    0.00000E+00         0.00000E+00        -0.47714E+08
 
   -0.46729E+08         0.45904E+05         0.00000E+00
    0.45904E+05        -0.97600E+08         0.00000E+00
    0.00000E+00         0.00000E+00        -0.47587E+08
 
   -0.46574E+08         0.47547E+05         0.00000E+00
    0.47547E+05        -0.97600E+08         0.00000E+00
    0.00000E+00         0.00000E+00        -0.47454E+08
 
   -0.46414E+08         0.49201E+05         0.00000E+00
    0.49201E+05        -0.97600E+08         0.00000E+00
    0.00000E+00         0.00000E+00        -0.47314E+08
 
   -0.46248E+08         0.50859E+05         0.00000E+00
    0.50859E+05        -0.97600E+08         0.00000E+00
    0.00000E+00         0.00000E+00        -0.47167E+08
 
   -0.46076E+08         0.52517E+05         0.00000E+00
    0.52517E+05        -0.97600E+08         0.00000E+00
    0.00000E+00         0.00000E+00        -0.47014E+08
 
   -0.45899E+08         0.54167E+05         0.00000E+00
    0.54167E+05        -0.97600E+08         0.00000E+00
    0.00000E+00         0.00000E+00        -0.46853E+08
 
   -0.45716E+08         0.55800E+05         0.00000E+00
    0.55800E+05        -0.97600E+08         0.00000E+00
    0.00000E+00         0.00000E+00        -0.46685E+08
 
   -0.45529E+08         0.57408E+05         0.00000E+00
    0.57408E+05        -0.97600E+08         0.00000E+00
    0.00000E+00         0.00000E+00        -0.46510E+08
 
   -0.45335E+08         0.58980E+05         0.00000E+00
    0.58980E+05        -0.97600E+08         0.00000E+00
    0.00000E+00         0.00000E+00        -0.46326E+08
 
   -0.45137E+08         0.60504E+05         0.00000E+00
    0.60504E+05        -0.97600E+08         0.00000E+00
    0.00000E+00         0.00000E+00        -0.46135E+08
 
   -0.44934E+08         0.61967E+05         0.00000E+00
    0.61967E+05        -0.97600E+08         0.00000E+00
    0.00000E+00         0.00000E+00        -0.45935E+08
 
   -0.44726E+08         0.63355E+05         0.00000E+00
    0.63355E+05        -0.97600E+08         0.00000E+00
    0.00000E+00         0.00000E+00        -0.45726E+08
 
   -0.44513E+08         0.64650E+05         0.00000E+00
    0.64650E+05        -0.97600E+08         0.00000E+00
    0.00000E+00         0.00000E+00        -0.45509E+08
 
   -0.44296E+08         0.65834E+05         0.00000E+00
    0.65834E+05        -0.97600E+08         0.00000E+00
    0.00000E+00         0.00000E+00        -0.45283E+08
 
   -0.44076E+08         0.66884E+05         0.00000E+00
    0.66884E+05        -0.97600E+08         0.00000E+00
    0.00000E+00         0.00000E+00        -0.45047E+08
 
   -0.43852E+08         0.67775E+05         0.00000E+00
    0.67775E+05        -0.97600E+08         0.00000E+00
    0.00000E+00         0.00000E+00        -0.44803E+08
 
   -0.43626E+08         0.68479E+05         0.00000E+00
    0.68479E+05        -0.97600E+08         0.00000E+00
    0.00000E+00         0.00000E+00        -0.44548E+08
 
   -0.43397E+08         0.68964E+05         0.00000E+00
    0.68964E+05        -0.97600E+08         0.00000E+00
    0.00000E+00         0.00000E+00        -0.44284E+08
 
   -0.43168E+08         0.69193E+05         0.00000E+00
    0.69193E+05        -0.97600E+08         0.00000E+00
    0.00000E+00         0.00000E+00        -0.44011E+08
 
   -0.42938E+08         0.69122E+05         0.00000E+00
    0.69122E+05        -0.97600E+08         0.00000E+00
    0.00000E+00         0.00000E+00        -0.43727E+08
 
   -0.42708E+08         0.68705E+05         0.00000E+00
    0.68705E+05        -0.97600E+08         0.00000E+00
    0.00000E+00         0.00000E+00        -0.43433E+08
 
   -0.42481E+08         0.67884E+05         0.00000E+00
    0.67884E+05        -0.97600E+08         0.00000E+00
    0.00000E+00         0.00000E+00        -0.43129E+08
 
   -0.42257E+08         0.66599E+05         0.00000E+00
    0.66599E+05        -0.97600E+08         0.00000E+00
    0.00000E+00         0.00000E+00        -0.42816E+08
 
   -0.42038E+08         0.64777E+05         0.00000E+00
    0.64777E+05        -0.97600E+08         0.00000E+00
    0.00000E+00         0.00000E+00        -0.42492E+08
 
   -0.41826E+08         0.62341E+05         0.00000E+00
    0.62341E+05        -0.97600E+08         0.00000E+00
    0.00000E+00         0.00000E+00        -0.42158E+08
 
   -0.41623E+08         0.59203E+05         0.00000E+00
    0.59203E+05        -0.97600E+08         0.00000E+00
    0.00000E+00         0.00000E+00        -0.41814E+08
 
   -0.41431E+08         0.55270E+05         0.00000E+00
    0.55270E+05        -0.97600E+08         0.00000E+00
    0.00000E+00         0.00000E+00        -0.41460E+08
 
   -0.41253E+08         0.50441E+05         0.00000E+00
    0.50441E+05        -0.97601E+08         0.00000E+00
    0.00000E+00         0.00000E+00        -0.41097E+08
 
   -0.41092E+08         0.44615E+05         0.00000E+00
    0.44615E+05        -0.97601E+08         0.00000E+00
    0.00000E+00         0.00000E+00        -0.40724E+08
 
   -0.40951E+08         0.37694E+05         0.00000E+00
    0.37694E+05        -0.97601E+08         0.00000E+00
    0.00000E+00         0.00000E+00        -0.40343E+08
 
   -0.40834E+08         0.29587E+05         0.00000E+00
    0.29587E+05        -0.97601E+08         0.00000E+00
    0.00000E+00         0.00000E+00        -0.39952E+08
 
   -0.40744E+08         0.20225E+05         0.00000E+00
    0.20225E+05        -0.97602E+08         0.00000E+00
    0.00000E+00         0.00000E+00        -0.39553E+08
 
   -0.40686E+08         0.95701E+04         0.00000E+00
    0.95701E+04        -0.97602E+08         0.00000E+00
    0.00000E+00         0.00000E+00        -0.39146E+08
 
   -0.40663E+08        -0.23716E+04         0.00000E+00
   -0.23716E+04        -0.97602E+08         0.00000E+00
    0.00000E+00         0.00000E+00        -0.38731E+08
 
   -0.40679E+08        -0.15537E+05         0.00000E+00
   -0.15537E+05        -0.97602E+08         0.00000E+00
    0.00000E+00         0.00000E+00        -0.38310E+08
 
   -0.40736E+08        -0.29789E+05         0.00000E+00
   -0.29789E+05        -0.97602E+08         0.00000E+00
    0.00000E+00         0.00000E+00        -0.37882E+08
 
   -0.40838E+08        -0.44943E+05         0.00000E+00
   -0.44943E+05        -0.97603E+08         0.00000E+00
    0.00000E+00         0.00000E+00        -0.37449E+08
 
   -0.40985E+08        -0.60673E+05         0.00000E+00
   -0.60673E+05        -0.97603E+08         0.00000E+00
    0.00000E+00         0.00000E+00        -0.37010E+08
 
   -0.41175E+08        -0.76925E+05         0.00000E+00
   -0.76925E+05        -0.97603E+08         0.00000E+00
    0.00000E+00         0.00000E+00        -0.36568E+08
 
   -0.41406E+08        -0.92002E+05         0.00000E+00
   -0.92002E+05        -0.97602E+08         0.00000E+00
    0.00000E+00         0.00000E+00        -0.36122E+08
 
   -0.41662E+08        -0.11273E+06         0.00000E+00
   -0.11273E+06        -0.97609E+08         0.00000E+00
    0.00000E+00         0.00000E+00        -0.35674E+08
 
   -0.41855E+08        -0.86605E+05         0.00000E+00
   -0.86605E+05        -0.97585E+08         0.00000E+00
    0.00000E+00         0.00000E+00        -0.35225E+08
 
   -0.49788E+08        -0.14056E+04         0.00000E+00
   -0.14056E+04        -0.97600E+08         0.00000E+00
    0.00000E+00         0.00000E+00        -0.49995E+08
 
   -0.49793E+08        -0.86441E+03         0.00000E+00
   -0.86441E+03        -0.97600E+08         0.00000E+00
    0.00000E+00         0.00000E+00        -0.49986E+08
 
   -0.49797E+08        -0.53251E+03         0.00000E+00
   -0.53251E+03        -0.97600E+08         0.00000E+00
    0.00000E+00         0.00000E+00        -0.49977E+08
 
   -0.49800E+08        -0.29052E+03         0.00000E+00
   -0.29052E+03        -0.97600E+08         0.00000E+00
    0.00000E+00         0.00000E+00        -0.49968E+08
 
   -0.49801E+08        -0.62274E+02         0.00000E+00
   -0.62274E+02        -0.97600E+08         0.00000E+00
    0.00000E+00         0.00000E+00        -0.49958E+08
 
   -0.49800E+08         0.15135E+03         0.00000E+00
    0.15135E+03        -0.97600E+08         0.00000E+00
    0.00000E+00         0.00000E+00        -0.49949E+08
 
   -0.49797E+08         0.35483E+03         0.00000E+00
    0.35483E+03        -0.97600E+08         0.00000E+00
    0.00000E+00         0.00000E+00        -0.49939E+08
 
   -0.49792E+08         0.54887E+03         0.00000E+00
    0.54887E+03        -0.97600E+08         0.00000E+00
    0.00000E+00         0.00000E+00        -0.49929E+08
 
   -0.49785E+08         0.73384E+03         0.00000E+00
    0.73384E+03        -0.97600E+08         0.00000E+00
    0.00000E+00         0.00000E+00        -0.49919E+08
 
   -0.49777E+08         0.91020E+03         0.00000E+00
    0.91020E+03        -0.97600E+08         0.00000E+00
    0.00000E+00         0.00000E+00        -0.49908E+08
 
   -0.49767E+08         0.10786E+04         0.00000E+00
    0.10786E+04        -0.97600E+08         0.00000E+00
    0.00000E+00         0.00000E+00        -0.49897E+08
 
   -0.49755E+08         0.12399E+04         0.00000E+00
    0.12399E+04        -0.97600E+08         0.00000E+00
    0.00000E+00         0.00000E+00        -0.49886E+08
 
   -0.49742E+08         0.13953E+04         0.00000E+00
    0.13953E+04        -0.97600E+08         0.00000E+00
    0.00000E+00         0.00000E+00        -0.49874E+08
 
   -0.49728E+08         0.15460E+04         0.00000E+00
    0.15460E+04        -0.97600E+08         0.00000E+00
    0.00000E+00         0.00000E+00        -0.49862E+08
 
   -0.49712E+08         0.16932E+04         0.00000E+00
    0.16932E+04        -0.97600E+08         0.00000E+00
    0.00000E+00         0.00000E+00        -0.49849E+08
 
   -0.49694E+08         0.18383E+04         0.00000E+00
    0.18383E+04        -0.97600E+08         0.00000E+00
    0.00000E+00         0.00000E+00        -0.49835E+08
 
   -0.49675E+08         0.19825E+04         0.00000E+00
    0.19825E+04        -0.97600E+08         0.00000E+00
    0.00000E+00         0.00000E+00        -0.49821E+08
 
   -0.49655E+08         0.21269E+04         0.00000E+00
    0.21269E+04        -0.97600E+08         0.00000E+00
    0.00000E+00         0.00000E+00        -0.49807E+08
 
   -0.49633E+08         0.22726E+04         0.00000E+00
    0.22726E+04        -0.97600E+08         0.00000E+00
    0.00000E+00         0.00000E+00        -0.49791E+08
 
   -0.49610E+08         0.24208E+04         0.00000E+00
    0.24208E+04        -0.97600E+08         0.00000E+00
    0.00000E+00         0.00000E+00        -0.49775E+08
 
   -0.49585E+08         0.25722E+04         0.00000E+00
    0.25722E+04        -0.97600E+08         0.00000E+00
    0.00000E+00         0.00000E+00        -0.49758E+08
 
   -0.49559E+08         0.27277E+04         0.00000E+00
    0.27277E+04        -0.97600E+08         0.00000E+00
    0.00000E+00         0.00000E+00        -0.49740E+08
 
   -0.49531E+08         0.28880E+04         0.00000E+00
    0.28880E+04        -0.97600E+08         0.00000E+00
    0.00000E+00         0.00000E+00        -0.49721E+08
 
   -0.49502E+08         0.30540E+04         0.00000E+00
    0.30540E+04        -0.97600E+08         0.00000E+00
    0.00000E+00         0.00000E+00        -0.49702E+08
 
   -0.49471E+08         0.32262E+04         0.00000E+00
    0.32262E+04        -0.97600E+08         0.00000E+00
    0.00000E+00         0.00000E+00        -0.49681E+08
 
   -0.49438E+08         0.34052E+04         0.00000E+00
    0.34052E+04        -0.97600E+08         0.00000E+00
    0.00000E+00         0.00000E+00        -0.49659E+08
 
   -0.49403E+08         0.35916E+04         0.00000E+00
    0.35916E+04        -0.97600E+08         0.00000E+00
    0.00000E+00         0.00000E+00        -0.49635E+08
 
   -0.49367E+08         0.37859E+04         0.00000E+00
    0.37859E+04        -0.97600E+08         0.00000E+00
    0.00000E+00         0.00000E+00        -0.49611E+08
 
   -0.49328E+08         0.39886E+04         0.00000E+00
    0.39886E+04        -0.97600E+08         0.00000E+00
    0.00000E+00         0.00000E+00        -0.49585E+08
 
   -0.49288E+08         0.42002E+04         0.00000E+00
    0.42002E+04        -0.97600E+08         0.00000E+00
    0.00000E+00         0.00000E+00        -0.49557E+08
 
   -0.49245E+08         0.44211E+04         0.00000E+00
    0.44211E+04        -0.97600E+08         0.00000E+00
    0.00000E+00         0.00000E+00        -0.49528E+08
 
   -0.49200E+08         0.46516E+04         0.00000E+00
    0.46516E+04        -0.97600E+08         0.00000E+00
    0.00000E+00         0.00000E+00        -0.49497E+08
 
   -0.49153E+08         0.48923E+04         0.00000E+00
    0.48923E+04        -0.97600E+08         0.00000E+00
    0.00000E+00         0.00000E+00        -0.49465E+08
 
   -0.49103E+08         0.51435E+04         0.00000E+00
    0.51435E+04        -0.97600E+08         0.00000E+00
    0.00000E+00         0.00000E+00        -0.49431E+08
 
   -0.49051E+08         0.54055E+04         0.00000E+00
    0.54055E+04        -0.97600E+08         0.00000E+00
    0.00000E+00         0.00000E+00        -0.49395E+08
 
   -0.48996E+08         0.56788E+04         0.00000E+00
    0.56788E+04        -0.97600E+08         0.00000E+00
    0.00000E+00         0.00000E+00        -0.49356E+08
 
   -0.48938E+08         0.59636E+04         0.00000E+00
    0.59636E+04        -0.97600E+08         0.00000E+00
    0.00000E+00         0.00000E+00        -0.49316E+08
 
   -0.48878E+08         0.62602E+04         0.00000E+00
    0.62602E+04        -0.97600E+08         0.00000E+00
    0.00000E+00         0.00000E+00        -0.49273E+08
 
   -0.48814E+08         0.65690E+04         0.00000E+00
    0.65690E+04        -0.97600E+08         0.00000E+00
    0.00000E+00         0.00000E+00        -0.49228E+08
 
   -0.48747E+08         0.68902E+04         0.00000E+00
    0.68902E+04        -0.97600E+08         0.00000E+00
    0.00000E+00         0.00000E+00        -0.49181E+08
 
   -0.48678E+08         0.72240E+04         0.00000E+00
    0.72240E+04        -0.97600E+08         0.00000E+00
    0.00000E+00         0.00000E+00        -0.49130E+08
 
   -0.48604E+08         0.75707E+04         0.00000E+00
    0.75707E+04        -0.97600E+08         0.00000E+00
    0.00000E+00         0.00000E+00        -0.49077E+08
 
   -0.48527E+08         0.79304E+04         0.00000E+00
    0.79304E+04        -0.97600E+08         0.00000E+00
    0.00000E+00         0.00000E+00        -0.49021E+08
 
   -0.48447E+08         0.83033E+04         0.00000E+00
    0.83033E+04        -0.97600E+08         0.00000E+00
    0.00000E+00         0.00000E+00        -0.48962E+08
 
   -0.48363E+08         0.86895E+04         0.00000E+00
    0.86895E+04        -0.97600E+08         0.00000E+00
    0.00000E+00         0.00000E+00        -0.48900E+08
 
   -0.48275E+08         0.90890E+04         0.00000E+00
    0.90890E+04        -0.97600E+08         0.00000E+00
    0.00000E+00         0.00000E+00        -0.48834E+08
 
   -0.48182E+08         0.95018E+04         0.00000E+00
    0.95018E+04        -0.97600E+08         0.00000E+00
    0.00000E+00         0.00000E+00        -0.48765E+08
 
   -0.48086E+08         0.99279E+04         0.00000E+00
    0.99279E+04        -0.97600E+08         0.00000E+00
    0.00000E+00         0.00000E+00        -0.48692E+08
 
   -0.47985E+08         0.10367E+05         0.00000E+00
    0.10367E+05        -0.97600E+08         0.00000E+00
    0.00000E+00         0.00000E+00        -0.48615E+08
 
   -0.47880E+08         0.10819E+05         0.00000E+00
    0.10819E+05        -0.97600E+08         0.00000E+00
    0.00000E+00         0.00000E+00        -0.48534E+08
 
   -0.47771E+08         0.11284E+05         0.00000E+00
    0.11284E+05        -0.97600E+08         0.00000E+00
    0.00000E+00         0.00000E+00        -0.48449E+08
 
   -0.47657E+08         0.11762E+05         0.00000E+00
    0.11762E+05        -0.97600E+08         0.00000E+00
    0.00000E+00         0.00000E+00        -0.48359E+08
 
   -0.47537E+08         0.12251E+05         0.00000E+00
    0.12251E+05        -0.97600E+08         0.00000E+00
    0.00000E+00         0.00000E+00        -0.48264E+08
 
   -0.47413E+08         0.12751E+05         0.00000E+00
    0.12751E+05        -0.97600E+08         0.00000E+00
    0.00000E+00         0.00000E+00        -0.48165E+08
 
   -0.47284E+08         0.13262E+05         0.00000E+00
    0.13262E+05        -0.97600E+08         0.00000E+00
    0.00000E+00         0.00000E+00        -0.48060E+08
 
   -0.47150E+08         0.13784E+05         0.00000E+00
    0.13784E+05        -0.97600E+08         0.00000E+00
    0.00000E+00         0.00000E+00        -0.47950E+08
 
   -0.47011E+08         0.14314E+05         0.00000E+00
    0.14314E+05        -0.97600E+08         0.00000E+00
    0.00000E+00         0.00000E+00        -0.47835E+08
 
   -0.46866E+08         0.14852E+05         0.00000E+00
    0.14852E+05        -0.97600E+08         0.00000E+00
    0.00000E+00         0.00000E+00        -0.47714E+08
 
   -0.46716E+08         0.15396E+05         0.00000E+00
    0.15396E+05        -0.97600E+08         0.00000E+00
    0.00000E+00         0.00000E+00        -0.47587E+08
 
   -0.46560E+08         0.15946E+05         0.00000E+00
    0.15946E+05        -0.97600E+08         0.00000E+00
    0.00000E+00         0.00000E+00        -0.47454E+08
 
   -0.46399E+08         0.16499E+05         0.00000E+00
    0.16499E+05        -0.97600E+08         0.00000E+00
    0.00000E+00         0.00000E+00        -0.47314E+08
 
   -0.46233E+08         0.17053E+05         0.00000E+00
    0.17053E+05        -0.97600E+08         0.00000E+00
    0.00000E+00         0.00000E+00        -0.47167E+08
 
   -0.46061E+08         0.17608E+05         0.00000E+00
    0.17608E+05        -0.97600E+08         0.00000E+00
    0.00000E+00         0.00000E+00        -0.47014E+08
 
   -0.45883E+08         0.18159E+05         0.00000E+00
    0.18159E+05        -0.97600E+08         0.00000E+00
    0.00000E+00         0.00000E+00        -0.46853E+08
 
   -0.45700E+08         0.18705E+05         0.00000E+00
    0.18705E+05        -0.97600E+08         0.00000E+00
    0.00000E+00         0.00000E+00        -0.46685E+08
 
   -0.45512E+08         0.19242E+05         0.00000E+00
    0.19242E+05        -0.97600E+08         0.00000E+00
    0.00000E+00         0.00000E+00        -0.46510E+08
 
   -0.45318E+08         0.19766E+05         0.00000E+00
    0.19766E+05        -0.97600E+08         0.00000E+00
    0.00000E+00         0.00000E+00        -0.46326E+08
 
   -0.45119E+08         0.20275E+05         0.00000E+00
    0.20275E+05        -0.97600E+08         0.00000E+00
    0.00000E+00         0.00000E+00        -0.46135E+08
 
   -0.44915E+08         0.20763E+05         0.00000E+00
    0.20763E+05        -0.97600E+08         0.00000E+00
    0.00000E+00         0.00000E+00        -0.45935E+08
 
   -0.44706E+08         0.21226E+05         0.00000E+00
    0.21226E+05        -0.97600E+08         0.00000E+00
    0.00000E+00         0.00000E+00        -0.45726E+08
 
   -0.44493E+08         0.21657E+05         0.00000E+00
    0.21657E+05        -0.97600E+08         0.00000E+00
    0.00000E+00         0.00000E+00        -0.45509E+08
 
   -0.44276E+08         0.22050E+05         0.00000E+00
    0.22050E+05        -0.97600E+08         0.00000E+00
    0.00000E+00         0.00000E+00        -0.45283E+08
 
   -0.44055E+08         0.22399E+05         0.00000E+00
    0.22399E+05        -0.97600E+08         0.00000E+00
    0.00000E+00         0.00000E+00        -0.45047E+08
 
   -0.43831E+08         0.22694E+05         0.00000E+00
    0.22694E+05        -0.97600E+08         0.00000E+00
    0.00000E+00         0.00000E+00        -0.44803E+08
 
   -0.43604E+08         0.22925E+05         0.00000E+00
    0.22925E+05        -0.97600E+08         0.00000E+00
    0.00000E+00         0.00000E+00        -0.44548E+08
 
   -0.43375E+08         0.23082E+05         0.00000E+00
    0.23082E+05        -0.97600E+08         0.00000E+00
    0.00000E+00         0.00000E+00        -0.44284E+08
 
   -0.43145E+08         0.23152E+05         0.00000E+00
    0.23152E+05        -0.97600E+08         0.00000E+00
    0.00000E+00         0.00000E+00        -0.44011E+08
 
   -0.42915E+08         0.23121E+05         0.00000E+00
    0.23121E+05        -0.97600E+08         0.00000E+00
    0.00000E+00         0.00000E+00        -0.43727E+08
 
   -0.42685E+08         0.22970E+05         0.00000E+00
    0.22970E+05        -0.97600E+08         0.00000E+00
    0.00000E+00         0.00000E+00        -0.43433E+08
 
   -0.42457E+08         0.22681E+05         0.00000E+00
    0.22681E+05        -0.97600E+08         0.00000E+00
    0.00000E+00         0.00000E+00        -0.43129E+08
 
   -0.42233E+08         0.22232E+05         0.00000E+00
    0.22232E+05        -0.97600E+08         0.00000E+00
    0.00000E+00         0.00000E+00        -0.42816E+08
 
   -0.42014E+08         0.21598E+05         0.00000E+00
    0.21598E+05        -0.97600E+08         0.00000E+00
    0.00000E+00         0.00000E+00        -0.42492E+08
 
   -0.41802E+08         0.20749E+05         0.00000E+00
    0.20749E+05        -0.97600E+08         0.00000E+00
    0.00000E+00         0.00000E+00        -0.42158E+08
 
   -0.41599E+08         0.19654E+05         0.00000E+00
    0.19654E+05        -0.97600E+08         0.00000E+00
    0.00000E+00         0.00000E+00        -0.41814E+08
 
   -0.41408E+08         0.18279E+05         0.00000E+00
    0.18279E+05        -0.97600E+08         0.00000E+00
    0.00000E+00         0.00000E+00        -0.41460E+08
 
   -0.41231E+08         0.16585E+05         0.00000E+00
    0.16585E+05        -0.97600E+08         0.00000E+00
    0.00000E+00         0.00000E+00        -0.41097E+08
 
   -0.41072E+08         0.14533E+05         0.00000E+00
    0.14533E+05        -0.97600E+08         0.00000E+00
    0.00000E+00         0.00000E+00        -0.40724E+08
 
   -0.40934E+08         0.12084E+05         0.00000E+00
    0.12084E+05        -0.97600E+08         0.00000E+00
    0.00000E+00         0.00000E+00        -0.40343E+08
 
   -0.40820E+08         0.92004E+04         0.00000E+00
    0.92004E+04        -0.97600E+08         0.00000E+00
    0.00000E+00         0.00000E+00        -0.39952E+08
 
   -0.40735E+08         0.58499E+04         0.00000E+00
    0.58499E+04        -0.97600E+08         0.00000E+00
    0.00000E+00         0.00000E+00        -0.39553E+08
 
   -0.40683E+08         0.20089E+04         0.00000E+00
    0.20089E+04        -0.97600E+08         0.00000E+00
    0.00000E+00         0.00000E+00        -0.39146E+08
 
   -0.40668E+08        -0.23339E+04         0.00000E+00
   -0.23339E+04        -0.97600E+08         0.00000E+00
    0.00000E+00         0.00000E+00        -0.38731E+08
 
   -0.40694E+08        -0.71735E+04         0.00000E+00
   -0.71735E+04        -0.97600E+08         0.00000E+00
    0.00000E+00         0.00000E+00        -0.38310E+08
 
   -0.40764E+08        -0.12493E+05         0.00000E+00
   -0.12493E+05        -0.97600E+08         0.00000E+00
    0.00000E+00         0.00000E+00        -0.37882E+08
 
   -0.40882E+08        -0.18268E+05         0.00000E+00
   -0.18268E+05        -0.97600E+08         0.00000E+00
    0.00000E+00         0.00000E+00        -0.37449E+08
 
   -0.41050E+08        -0.24488E+05         0.00000E+00
   -0.24488E+05        -0.97601E+08         0.00000E+00
    0.00000E+00         0.00000E+00        -0.37010E+08
 
   -0.41268E+08        -0.31325E+05         0.00000E+00
   -0.31325E+05        -0.97600E+08         0.00000E+00
    0.00000E+00         0.00000E+00        -0.36568E+08
 
   -0.41535E+08        -0.38684E+05         0.00000E+00
   -0.38684E+05        -0.97601E+08         0.00000E+00
    0.00000E+00         0.00000E+00        -0.36122E+08
 
   -0.41852E+08        -0.50256E+05         0.00000E+00
   -0.50256E+05        -0.97600E+08         0.00000E+00
    0.00000E+00         0.00000E+00        -0.35674E+08
 
   -0.42158E+08        -0.71830E+05         0.00000E+00
   -0.71830E+05        -0.97607E+08         0.00000E+00
    0.00000E+00         0.00000E+00        -0.35225E+08
 
SCALARS stresss double 
LOOKUP_TABLE default
  -65849156.3877030     
  -65841526.3206381     
  -65834225.7864874     
  -65827173.8703852     
  -65820321.9596473     
  -65813581.9779211     
  -65806872.9500465     
  -65800114.1977790     
  -65793232.1756029     
  -65786160.3871030     
  -65778839.8019559     
  -65771218.0216512     
  -65763248.2722497     
  -65754888.2281753     
  -65746098.8852208     
  -65736843.5305593     
  -65727086.8476757     
  -65716794.1580540     
  -65705930.7918576     
  -65694461.5725637     
  -65682350.3989256     
  -65669559.9077393     
  -65656051.2022981     
  -65641783.6332440     
  -65626714.6205240     
  -65610799.5070724     
  -65593991.4366104     
  -65576241.2495129     
  -65557497.3920423     
  -65537705.8353889     
  -65516810.0019010     
  -65494750.6966776     
  -65471466.0433242     
  -65446891.4231952     
  -65420959.4178586     
  -65393599.7548531     
  -65364739.2570937     
  -65334301.7964942     
  -65302208.2525768     
  -65268376.4770012     
  -65232721.2650957     
  -65195154.3356117     
  -65155584.3200608     
  -65113916.7631220     
  -65070054.1357533     
  -65023895.8627842     
  -64975338.3669205     
  -64924275.1312621     
  -64870596.7826167     
  -64814191.1980844     
  -64754943.6376081     
  -64692736.9054159     
  -64627451.5435222     
  -64558966.0607324     
  -64487157.2008746     
  -64411900.2542738     
  -64333069.4167886     
  -64250538.2010246     
  -64164179.9046176     
  -64073868.1407128     
  -63979477.4359357     
  -63880883.9011968     
  -63777965.9805429     
  -63670605.2828955     
  -63558687.5007697     
  -63442103.4188291     
  -63320750.0132082     
  -63194531.6397022     
  -63063361.3048805     
  -62927162.0085761     
  -62785868.1385728     
  -62639426.8881278     
  -62487799.6535767     
  -62330963.3519168     
  -62168911.5761141     
  -62001655.4779691     
  -61829224.2337341     
  -61651664.9053360     
  -61469041.4591419     
  -61281432.6441516     
  -61088928.3623351     
  -60891624.0863977     
  -60689612.7973080     
  -60482973.8303232     
  -60271757.9451889     
  -60055967.8875698     
  -59835533.7273809     
  -59610282.3643580     
  -59379900.9780268     
  -59143894.6991049     
  -58901540.5771134     
  -58651840.4137813     
  -58393483.3978007     
  -58124818.8676607     
  -57843892.2562097     
  -57548457.7270040     
  -57236332.0127264     
  -56905076.3877275     
  -56554302.6068450     
  -56182147.8121936     
  -65847968.0578747     
  -65840688.7708737     
  -65833470.2917719     
  -65826489.9983735     
  -65819673.3406655     
  -65812956.6231617     
  -65806259.6374189     
  -65799506.3772435     
  -65792624.7555375     
  -65785549.5862803     
  -65778222.4424954     
  -65770591.2874104     
  -65762609.4999263     
  -65754234.8095721     
  -65745428.2102999     
  -65736152.9645780     
  -65726373.7247118     
  -65716055.7840405     
  -65705164.4514910     
  -65693664.5372577     
  -65681519.9341293     
  -65668693.2788821     
  -65655145.6791200     
  -65640836.4925931     
  -65625723.1478589     
  -65609760.9969908     
  -65592903.1927433     
  -65575100.5841186     
  -65556301.6256045     
  -65536452.2964912     
  -65515496.0276175     
  -65493373.6336815     
  -65470023.2498928     
  -65445380.2722638     
  -65419377.3012559     
  -65391944.0888418     
  -65363007.4893250     
  -65332491.4144858     
  -65300316.7938194     
  -65266401.5408013     
  -65230660.5262666     
  -65193005.5601327     
  -65153345.3828306     
  -65111585.6679448     
  -65067629.0377077     
  -65021375.0931374     
  -64972720.4607652     
  -64921558.8580702     
  -64867781.1799194     
  -64811275.6085093     
  -64751927.7495208     
  -64689620.7974345     
  -64624235.7331956     
  -64555651.5576940     
  -64483745.5648028     
  -64408393.6580125     
  -64329470.7149959     
  -64246851.0047320     
  -64160408.6620853     
  -64070018.2249640     
  -63975555.2393282     
  -63876896.9373509     
  -63773922.9938732     
  -63666516.3658825     
  -63554564.2189501     
  -63437958.9432561     
  -63316599.2598292     
  -63190391.4146922     
  -63059250.4544397     
  -62923101.5710201     
  -62781881.4956988     
  -62635539.9117971     
  -62484040.8422062     
  -62327363.9501164     
  -62165505.6690542     
  -61998480.0502737     
  -61826319.1808735     
  -61649072.9838179     
  -61466808.1605743     
  -61279605.9779749     
  -61087558.5333696     
  -60890763.0575584     
  -60689313.7362908     
  -60483290.4550540     
  -60272743.8078484     
  -60057675.6833634     
  -59838014.7703188     
  -59613586.5091621     
  -59384077.3255241     
  -59148993.9490755     
  -58907619.3427175     
  -58658970.9294955     
  -58401764.7043479     
  -58134410.6785197     
  -57855020.9387997     
  -57561572.5516674     
  -57251910.0566066     
  -56924780.1110828     
  -56578495.7559905     
  -56223865.6547014     
  -65846849.7163246     
  -65839817.9591253     
  -65832710.8519244     
  -65825793.2635641     
  -65819017.3269780     
  -65812324.8978766     
  -65805642.4545451     
  -65798896.4222735     
  -65792016.8189541     
  -65784939.5188838     
  -65777606.8004963     
  -65769966.9972535     
  -65761973.6915422     
  -65753584.7054302     
  -65744761.0689534     
  -65735466.0512829     
  -65725664.3001023     
  -65715321.1019318     
  -65704401.7613207     
  -65692871.0881285     
  -65680692.9788793     
  -65667830.0773608     
  -65654243.5003773     
  -65639892.6159791     
  -65624734.8632050     
  -65608725.6041216     
  -65591818.0006019     
  -65573962.9097835     
  -65555108.7934621     
  -65535201.6377995     
  -65514184.8806679     
  -65491999.3447415     
  -65468583.1750871     
  -65443871.7805300     
  -65417797.7784996     
  -65390290.9434032     
  -65361278.1588616     
  -65330683.3743733     
  -65298427.5671743     
  -65264428.7102287     
  -65228601.7474445     
  -65190858.5773489     
  -65151108.0465984     
  -65109255.9548342     
  -65065205.0725402     
  -65018855.1737054     
  -64970103.0852517     
  -64918842.7553609     
  -64864965.3430140     
  -64808359.3312593     
  -64748910.6669379     
  -64686502.9298344     
  -64621017.5344633     
  -64552333.9679764     
  -64480330.0679557     
  -64404882.3441481     
  -64325866.3484949     
  -64243157.0980962     
  -64156629.5560153     
  -64066159.1750405     
  -63971622.5096627     
  -63872897.9015322     
  -63769866.2434770     
  -63662411.8267146     
  -63550423.2750524     
  -63433794.5685058     
  -63312426.1566920     
  -63186226.1593256     
  -63055111.6468741     
  -62919009.9885469     
  -62777860.2468395     
  -62631614.5873177     
  -62480239.6585397     
  -62323717.8792865     
  -62162048.5477640     
  -61995248.6592904     
  -61823353.2843106     
  -61646415.3165642     
  -61464504.3512405     
  -61277704.3947649     
  -61086110.0419574     
  -60889820.6843233     
  -60688932.2389228     
  -60483525.8172529     
  -60273652.7009479     
  -60059314.9747783     
  -59840441.2300270     
  -59616856.9355666     
  -59388249.5274598     
  -59154129.0199698     
  -58913786.5595023     
  -58666255.3097766     
  -58410282.7116722     
  -58144326.6705925     
  -57866597.1986435     
  -57575183.3874061     
  -57268248.3333716     
  -56944796.8309917     
  -56604432.7437822     
  -56262231.0191297     
  -65845782.9379258     
  -65838933.1944715     
  -65831942.2694990     
  -65825087.1680134     
  -65818353.5355285     
  -65811687.5392511     
  -65805021.5528391     
  -65798284.5805667     
  -65791408.5112315     
  -65784330.3255853     
  -65776992.9952497     
  -65769345.2657054     
  -65761340.9574403     
  -65752938.0252441     
  -65744097.5704535     
  -65734782.9002541     
  -65724958.6837257     
  -65714590.2217987     
  -65703642.8314267     
  -65692081.3350980     
  -65679869.6428048     
  -65666970.4124257     
  -65653344.7748985     
  -65638952.1118044     
  -65623749.8745609     
  -65607693.4360978     
  -65590735.9674949     
  -65572828.3335275     
  -65553919.0023663     
  -65533953.9657910     
  -65512876.6672193     
  -65490627.9356413     
  -65467145.9241898     
  -65442366.0526103     
  -65416220.9533226     
  -65388640.4211125     
  -65359551.3667856     
  -65328877.7753461     
  -65296540.6694691     
  -65262458.0792071     
  -65226545.0190287     
  -65188713.4734320     
  -65148872.3925164     
  -65106927.6990370     
  -65062782.3086050     
  -65016336.1648547     
  -64967486.2915485     
  -64916126.8637705     
  -64862149.3005375     
  -64805442.3813619     
  -64745892.3895146     
  -64683383.2849710     
  -64617796.9102763     
  -64549013.2328319     
  -64476910.6273884     
  -64401366.2028217     
  -64322256.1775621     
  -64239456.3083302     
  -64152842.3770929     
  -64062290.7413574     
  -63967678.9530490     
  -63868886.4512063     
  -63765795.3335264     
  -63658291.2113086     
  -63546264.1514697     
  -63429609.7078904     
  -63308230.0422113     
  -63182035.1310936     
  -63050944.0525911     
  -62914886.3382862     
  -62773803.3697615     
  -62627649.7872987     
  -62476394.8647591     
  -62320023.7867309     
  -62158538.7413909     
  -61991959.7143217     
  -61820324.8338785     
  -61643690.0768931     
  -61462128.0939920     
  -61275725.8565189     
  -61084580.7627007     
  -60888794.7712513     
  -60688466.0601989     
  -60483677.6449424     
  -60274482.3456454     
  -60060883.4926544     
  -59842810.8381807     
  -59620091.3637458     
  -59392415.1484767     
  -59159297.3142931     
  -58920038.6756535     
  -58673689.8999303     
  -58419028.8975287     
  -58154563.2821514     
  -57878588.9409181     
  -57589313.6836947     
  -57285179.6485261     
  -56965388.3953728     
  -56631170.4857809     
  -56298161.3420773     
  -65844755.4522575     
  -65838044.2670999     
  -65831164.2395101     
  -65824372.9609082     
  -65817682.4808488     
  -65811044.9328466     
  -65804397.2260142     
  -65797671.0614983     
  -65790800.0077845     
  -65783722.1516464     
  -65776381.1582109     
  -65768726.2146528     
  -65760711.4148892     
  -65752294.8835844     
  -65743437.8280442     
  -65734103.6239512     
  -65724256.9875140     
  -65713863.2550928     
  -65702887.7727598     
  -65691295.3885735     
  -65679050.0357426     
  -65666114.3933404     
  -65652449.6114003     
  -65638015.0882864     
  -65622768.2897075     
  -65606664.6003325     
  -65589657.2005328     
  -65571696.9622112     
  -65552732.3589594     
  -65532709.3868940     
  -65511571.4934573     
  -65489259.5122544     
  -65465711.6026492     
  -65440863.1933664     
  -65414646.9297851     
  -65386992.6249572     
  -65357827.2146801     
  -65327074.7171860     
  -65294656.1982196     
  -65260489.7424488     
  -65224490.4323129     
  -65186570.3355590     
  -65146638.5028602     
  -65104600.9770477     
  -65060360.8156367     
  -65013818.1284741     
  -64964870.1324982     
  -64913411.2257720     
  -64859333.0831384     
  -64802524.7760456     
  -64742872.9193111     
  -64680261.8478256     
  -64614573.8264517     
  -64545689.2966398     
  -64473487.1635674     
  -64397845.1278963     
  -64318640.0665355     
  -64235748.4670792     
  -64149046.9208417     
  -64058412.6796114     
  -63963724.2813613     
  -63864862.2501279     
  -63761709.8750491     
  -63654154.0730431     
  -63542086.3386983     
  -63425403.7834910     
  -63304010.2642462     
  -63177817.5975922     
  -63046746.8527102     
  -62910729.7085830     
  -62769709.8537710     
  -62623644.3959335     
  -62472505.2342633     
  -62316280.3300119     
  -62154974.7875611     
  -61988611.6302522     
  -61817232.1206062     
  -61640895.4329792     
  -61459677.4376810     
  -61273668.2991753     
  -61082968.5281041     
  -60887683.0598060     
  -60687912.8652533     
  -60483743.5421383     
  -60275230.2982015     
  -60062378.7499763     
  -59845121.0564331     
  -59623287.1567538     
  -59396571.3807088     
  -59164495.6344038     
  -58926371.9236452     
  -58681269.5921496     
  -58427996.6693904     
  -58165110.0125962     
  -57890981.4658860     
  -57603942.8214392     
  -57302647.8292414     
  -56986575.9525931     
  -56658234.6558917     
  -56332270.4757701     
  -65843758.6610665     
  -65837156.0843392     
  -65830378.0638760     
  -65823651.3187605     
  -65817004.8031074     
  -65810397.4343206     
  -65803769.7778601     
  -65797056.0862466     
  -65790191.4938890     
  -65783115.1538660     
  -65775771.4300147     
  -65768109.9742005     
  -65760085.1876311     
  -65751655.4001866     
  -65742781.9588725     
  -65733428.3377226     
  -65723559.3254456     
  -65713140.3146504     
  -65702136.6971415     
  -65690513.3594491     
  -65678234.2677364     
  -65665262.1293818     
  -65651558.1184850     
  -65637081.6534546     
  -65621790.2162054     
  -65605639.2040169     
  -65588581.8066259     
  -65570568.9025335     
  -65551548.9697742     
  -65531468.0074896     
  -65510269.4655878     
  -65487894.1805485     
  -65464280.3160860     
  -65439363.3079133     
  -65413075.8122851     
  -65385347.6583503     
  -65356105.8046443     
  -65325274.3002861     
  -65292774.2516521     
  -65258523.7954798     
  -65222438.0795128     
  -65184429.2519441     
  -65144406.4610630     
  -65102275.8666477     
  -65057940.6647939     
  -65011301.1280229     
  -64962254.6626702     
  -64910695.8857335     
  -64856516.7235413     
  -64799606.5348093     
  -64739852.2608691     
  -64677138.6060894     
  -64611348.2517635     
  -64542362.1070053     
  -64470059.6004783     
  -64394319.0170736     
  -64315017.8839411     
  -64232033.4105580     
  -64145242.9877715     
  -64054524.7509402     
  -63959758.2124105     
  -63860824.9685256     
  -63757609.4861254     
  -63649999.9729679     
  -63537889.3355589     
  -63421176.2263908     
  -63299766.1803425     
  -63173572.8367715     
  -63042519.2393165     
  -62906539.1992496     
  -62765578.6999585     
  -62619597.3092310     
  -62468569.5518735     
  -62312486.1771187     
  -62151355.2324957     
  -61985202.8275973     
  -61814073.4366830     
  -61638029.5477167     
  -61457150.4169051     
  -61271529.6322384     
  -61081271.1280590     
  -60886483.2277926     
  -60687270.2286082     
  -60483720.9885860     
  -60275893.9488227     
  -60063798.0445372     
  -59847369.0712548     
  -59626441.3419216     
  -59400715.0006956     
  -59169720.3282531     
  -58932781.9769851     
  -58688988.8168089     
  -58437178.8951156     
  -58175955.9275384     
  -57903761.6290907     
  -57619044.1046489     
  -57320625.0057122     
  -57008301.6857616     
  -56685391.3564301     
  -56364991.0442087     
  -65842786.2682074     
  -65836270.9805770     
  -65829585.3551217     
  -65822922.8420793     
  -65816321.0939858     
  -65809745.4178085     
  -65803139.5079688     
  -65796439.8893785     
  -65789583.1640403     
  -65782509.4999244     
  -65775163.9604376     
  -65767496.6824113     
  -65759462.4058420     
  -65751019.6998758     
  -65742130.0839679     
  -65732757.1597861     
  -65722865.8135379     
  -65712421.5146874     
  -65701389.7172624     
  -65689735.3591029     
  -65677422.4490339     
  -65664413.7298352     
  -65650670.4046370     
  -65636151.9151466     
  -65620815.7613903     
  -65604617.3541163     
  -65587509.8924811     
  -65569444.2610308     
  -65550368.9412341     
  -65530229.9339115     
  -65508970.6898400     
  -65486532.0465898     
  -65462852.1702988     
  -65437866.5016280     
  -65411507.7055695     
  -65383705.6251434     
  -65354387.2393102     
  -65323476.6256696     
  -65290894.9287243     
  -65256560.3346641     
  -65220388.0537941     
  -65182290.3118692     
  -65142176.3517515     
  -65099952.4469441     
  -65055521.9287021     
  -65008785.2285777     
  -64959639.9384130     
  -64907980.8899754     
  -64853700.2566096     
  -64796687.6794920     
  -64736830.4212869     
  -64674013.5502449     
  -64608120.1580325     
  -64539031.6148574     
  -64466627.8657319     
  -64390787.7720098     
  -64311389.5026177     
  -64228310.9796863     
  -64141430.3835252     
  -64050626.7220810     
  -63955780.4701140     
  -63856774.2832837     
  -63753493.7920834     
  -63645828.4800124     
  -63533672.6494171     
  -63416926.4769072     
  -63295497.1579761     
  -63169300.1371871     
  -63038260.4157178     
  -62902313.9218248     
  -62761408.9214550     
  -62615507.4352608     
  -62464586.6140617     
  -62308640.0066674     
  -62147678.6311724     
  -61981731.7326121     
  -61810847.0755007     
  -61635090.5786832     
  -61454545.0518810     
  -61269307.7385568     
  -61079486.3095404     
  -60885192.8889792     
  -60686535.6338339     
  -60483607.3394265     
  -60276470.5218886     
  -60065138.4591097     
  -59849551.7967494     
  -59629550.6118144     
  -59404842.3810834     
  -59174967.2900110     
  -58939263.9810042     
  -58696841.5722482     
  -58446567.8226538     
  -58187090.3581506     
  -57916915.4562534     
  -57634593.3238620     
  -57339087.1567390     
  -57030492.6068583     
  -56712533.3520290     
  -56396641.9916485     
  -65841833.4870721     
  -65835389.9030249     
  -65828787.5662078     
  -65822188.1537916     
  -65815631.8837936     
  -65809089.2674014     
  -65802506.7159532     
  -65795822.7152884     
  -65788975.2226284     
  -65781905.3675628     
  -65774558.9083412     
  -65766886.4850957     
  -65758843.2060576     
  -65750387.9125011     
  -65741482.3282082     
  -65732090.2112055     
  -65722176.5698332     
  -65711706.9707885     
  -65700646.9466732     
  -65688961.4993894     
  -65676614.6900799     
  -65663569.3039888     
  -65649786.5782163     
  -65635225.9810019     
  -65619845.0323683     
  -65603599.1573658     
  -65586441.5645986     
  -65568323.1440738     
  -65549192.3796518     
  -65528995.2724475     
  -65507675.2724688     
  -65485173.2165477     
  -65461427.2712714     
  -65436372.8801573     
  -65409942.7147440     
  -65382066.6296401     
  -65352671.6218572     
  -65321681.7950073     
  -65289018.3291460     
  -65254599.4572275     
  -65218340.4492999     
  -65180153.6057150     
  -65139948.2607794     
  -65097630.7984079     
  -65053104.6814964     
  -65006270.4968803     
  -64957026.0179068     
  -64905266.2868282     
  -64850883.7194085     
  -64793768.2343409     
  -64733807.4102950     
  -64670886.6736486     
  -64604889.5202152     
  -64535697.7745458     
  -64463191.8906702     
  -64387251.2984293     
  -64307754.7998416     
  -64224581.0202232     
  -64137608.9190232     
  -64046718.3655265     
  -63951790.7846641     
  -63852709.8781239     
  -63749362.4256926     
  -63641639.1711918     
  -63529435.7964029     
  -63412653.9848234     
  -63291202.5747966     
  -63164998.7982542     
  -63033969.5967069     
  -62898052.9998406     
  -62757199.5436999     
  -62611373.6944177     
  -62460555.2292024     
  -62304740.5081349     
  -62143943.5475311     
  -61978196.7774596     
  -61807551.3317739     
  -61632076.6782014     
  -61451859.3484445     
  -61267000.4742602     
  -61077611.7764926     
  -60883809.5929619     
  -60685706.4734546     
  -60483399.8252358     
  -60276957.0763454     
  -60066396.8623094     
  -59851665.8769543     
  -59632611.3268507     
  -59408949.4997889     
  -59180231.9615266     
  -58945812.5916765     
  -58704821.3895805     
  -58456155.2529374     
  -58198502.6903349     
  -57930428.5587972     
  -57650569.3837071     
  -57358009.2592126     
  -57053083.6813483     
  -56739621.6720192     
  -56427467.6753997     
  -65840896.5604971     
  -65834513.0380993     
  -65827985.8558359     
  -65821447.8832472     
  -65814937.6578129     
  -65808429.3654960     
  -65801871.7043538     
  -65795204.8161986     
  -65788367.8838647     
  -65781302.9441644     
  -65773956.4414729     
  -65766279.5356637     
  -65758227.7310732     
  -65749760.1728707     
  -65740838.8202746     
  -65731427.6158603     
  -65721491.7143767     
  -65710996.7998911     
  -65699908.4997715     
  -65688191.8926288     
  -65675811.1015066     
  -65662728.9611241     
  -65648906.7474503     
  -65634303.9584550     
  -65618878.1360086     
  -65602584.7202646     
  -65585376.9292674     
  -65567205.6578652     
  -65548019.3912276     
  -65527764.1293391     
  -65506383.3197563     
  -65483817.7966980     
  -65460005.7251779     
  -65434882.5494265     
  -65408380.9452844     
  -65380430.7766085     
  -65350959.0560284     
  -65319889.9106361     
  -65287144.5534007     
  -65252641.2612819     
  -65216295.3611771     
  -65178019.2249917     
  -65137722.2752622     
  -65095311.0029122     
  -65050688.9988637     
  -65003757.0013843     
  -64954412.9612140     
  -64902552.1266881     
  -64848067.1512664     
  -64790848.2260797     
  -64730783.2403294     
  -64667757.9726113     
  -64601656.3164922     
  -64532360.5439371     
  -64459751.6104698     
  -64383709.5062385     
  -64304113.6574485     
  -64220843.3828994     
  -64133778.4106074     
  -64042799.4596801     
  -63947788.8926947     
  -63848631.4437839     
  -63745215.0273564     
  -63637431.6318128     
  -63525178.3016295     
  -63408358.2096207     
  -63286881.8188707     
  -63160668.1305031     
  -63029646.0088267     
  -62893755.5690964     
  -62752949.6047196     
  -62607195.0197009     
  -62456474.2178503     
  -62300786.3821266     
  -62140148.5547257     
  -61974596.4004399     
  -61804184.5017403     
  -61628985.9935061     
  -61449091.2981792     
  -61264605.6688558     
  -61075645.1899071     
  -60882330.8252591     
  -60684780.0491145     
  -60483095.5523766     
  -60277350.5063764     
  -60067569.9098965     
  -59853707.6880098     
  -59635619.5191031     
  -59413031.9460234     
  -59185509.3406300     
  -58952421.9944966     
  -58712921.3342871     
  -58465932.6357903     
  -58210182.2185043     
  -57944286.7032112     
  -57666953.4925735     
  -57377366.0690513     
  -57076024.4412460     
  -56766654.7658474     
  -56457661.5581571     
  -65839972.4570166     
  -65833640.1510262     
  -65827181.0828855     
  -65820702.6311631     
  -65814238.8691281     
  -65807766.0865745     
  -65801234.7789955     
  -65794586.4514002     
  -65787761.3713634     
  -65780702.4264994     
  -65773356.7362447     
  -65765675.9949882     
  -65757616.1298383     
  -65749136.6206817     
  -65740199.6925995     
  -65730769.5004085     
  -65720811.3691879     
  -65710291.1202631     
  -65699174.4917840     
  -65687426.6515912     
  -65675011.7941198     
  -65661892.8105039     
  -65648031.0204230     
  -65633385.9547259     
  -65617915.1789366     
  -65601574.1490697     
  -65584316.0925608     
  -65566091.9084355     
  -65546850.0820482     
  -65526536.6107821     
  -65505094.9380142     
  -65482465.8934275     
  -65458587.6383889     
  -65433395.6156473     
  -65406822.5030460     
  -65378798.1712937     
  -65349249.6461447     
  -65318101.0755765     
  -65285273.7027660     
  -65250685.8458487     
  -65214252.8856046     
  -65175887.2623686     
  -65135498.4836107     
  -65092993.1437701     
  -65048274.9580842     
  -65001244.8123005     
  -64951800.8303306     
  -64899838.4620737     
  -64845250.5938368     
  -64787927.6839754     
  -64727757.9266058     
  -64664627.4464785     
  -64598420.5283552     
  -64529019.8845089     
  -64456306.9642453     
  -64380162.3096374     
  -64300465.9619553     
  -64217097.9235490     
  -64129938.6801828     
  -64038869.7890084     
  -63943774.5374467     
  -63844538.6781948     
  -63741051.2453016     
  -63633205.4556765     
  -63520899.6994102     
  -63404038.6207095     
  -63282534.2889281     
  -63156307.4558375     
  -63025288.8906419     
  -62889420.7779407     
  -62748658.1554190     
  -62602970.3570126     
  -62452342.4130411     
  -62296776.3406771     
  -62136292.2354215     
  -61970929.0462793     
  -61800744.8834385     
  -61625816.6670088     
  -61446238.8786721     
  -61262121.1254817     
  -61073584.1680935     
  -60880754.0076327     
  -60683753.5720095     
  -60482691.5036387     
  -60277647.5423885     
  -60068654.0463600     
  -59855673.3405633     
  -59638570.8962409     
  -59417084.9256349     
  -59190793.9904678     
  -58959085.9152175     
  -58721134.0246394     
  -58475891.1046684     
  -58222118.1248453     
  -57958476.1131520     
  -57683728.5259034     
  -57397133.8401039     
  -57099279.2453749     
  -56793651.7844871     
  -56487381.2068717     
  -65839058.6708305     
  -65832770.7740222     
  -65826373.8443948     
  -65819952.9426137     
  -65813535.9441684     
  -65807099.7950179     
  -65800596.2482607     
  -65793967.8869516     
  -65787155.9177209     
  -65780104.0205053     
  -65772759.9775326     
  -65765076.0312673     
  -65757008.5573520     
  -65748517.4004417     
  -65739565.0813090     
  -65730115.9942421     
  -65720135.6582263     
  -65709590.0514747     
  -65698445.0387431     
  -65686665.8894772     
  -65674216.8788825     
  -65661060.9613584     
  -65647159.5050629     
  -65632472.0768091     
  -65616956.2675239     
  -65600567.5497886     
  -65583259.1603303     
  -65564982.0016402     
  -65545684.5580844     
  -65525312.8229256     
  -65503810.2335849     
  -65481117.6132369     
  -65457173.1174769     
  -65431912.1853256     
  -65405267.4942741     
  -65377168.9194304     
  -65347543.4971209     
  -65316315.3935507     
  -65283405.8793336     
  -65248733.3108824     
  -65212213.1198181     
  -65173757.8117049     
  -65133276.9755648     
  -65090677.3057718     
  -65045862.6380733     
  -64998734.0016437     
  -64949189.6892368     
  -64897125.3476812     
  -64842434.0911589     
  -64785006.6399048     
  -64724731.4871919     
  -64661495.0977093     
  -64595182.1406933     
  -64525675.7614446     
  -64452857.8951517     
  -64376609.6272299     
  -64296811.6046794     
  -64213344.5032388     
  -64126089.5553575     
  -64034929.1441931     
  -63939747.4689303     
  -63840431.2866572     
  -63736870.7357680     
  -63628960.2452821     
  -63516599.5334756     
  -63399694.6976601     
  -63278159.3946076     
  -63151916.1077959     
  -63020897.4930136     
  -62885047.7875606     
  -62744324.2598839     
  -62598698.6654722     
  -62448158.6606174     
  -62292709.1075864     
  -62132373.1821386     
  -61967193.1664812     
  -61797230.7770652     
  -61622566.8366644     
  -61443300.0538952     
  -61259544.6213172     
  -61071426.2871386     
  -60879076.4986353     
  -60682624.1635796     
  -60482184.5391635     
  -60277844.7523044     
  -60069645.5067671     
  -59857558.6824280     
  -59641460.8454094     
  -59421103.2664009     
  -59196080.0476746     
  -58965797.6287133     
  -58729451.6501301     
  -58486021.4888268     
  -58234299.5119020     
  -57972983.5730758     
  -57700878.7485995     
  -57417291.6472339     
  -57122825.3999909     
  -56820643.3209392     
  -56516758.1773058     
  -65838153.0852049     
  -65831904.3122196     
  -65825564.5227878     
  -65819199.2922084     
  -65812829.2836409     
  -65806430.8448093     
  -65799956.4222746     
  -65793349.3954829     
  -65786551.7641971     
  -65779507.9410804     
  -65772166.3585009     
  -65764479.8198879     
  -65756405.1745564     
  -65747902.6613872     
  -65738935.1261579     
  -65729467.2294358     
  -65719464.7073498     
  -65708893.7143652     
  -65697720.2574590     
  -65685909.7198943     
  -65673426.4668944     
  -65660233.5228676     
  -65646292.3091283     
  -65631562.4314615     
  -65616001.5078786     
  -65599565.0281707     
  -65582206.2381992     
  -65563876.0431543     
  -65544522.9251878     
  -65524092.8718723     
  -65502529.3128438     
  -65479773.0627445     
  -65455762.2692224     
  -65430432.3652687     
  -65403716.0256143     
  -65375543.1272557     
  -65345840.7144795     
  -65314532.9689999     
  -65281541.1860303     
  -65246783.7572937     
  -65210176.1621382     
  -65171630.9680787     
  -65131057.8422264     
  -65088363.5752211     
  -65043452.1194222     
  -64996224.6432774     
  -64946579.6039463     
  -64894412.8404388     
  -64839617.6897178     
  -64782085.1284208     
  -64721703.9430790     
  -64658360.9319552     
  -64591941.1418785     
  -64522328.1437255     
  -64449404.3504842     
  -64373051.3821334     
  -64293150.4818572     
  -64209582.9883964     
  -64122230.8695812     
  -64030977.3222803     
  -63935707.4440871     
  -63836308.9820141     
  -63732673.1631951     
  -63624695.6120264     
  -63512277.3571890     
  -63395325.9304346     
  -63273756.5567021     
  -63147493.4318133     
  -63016471.0793793     
  -62880635.7722785     
  -62739946.9956957     
  -62594378.9177494     
  -62443921.8195796     
  -62288583.4187888     
  -62128389.9976409     
  -61963387.2197367     
  -61793640.4854127     
  -61619234.6364399     
  -61440272.7747152     
  -61256873.9081489     
  -61069169.0815559     
  -60877295.5943797     
  -60681388.8564554     
  -60481571.3976509     
  -60277938.5431492     
  -60070540.3188813     
  -59859359.3014565     
  -59644284.4370858     
  -59425081.4231903     
  -59201361.2292342     
  -58972549.9670680     
  -58737865.9847747     
  -58496314.3201776     
  -58246715.4394427     
  -57987796.4390183     
  -57718389.7646202     
  -57437822.1100848     
  -57146650.8274722     
  -56847666.2026496     
  -56545904.7696106     
  -65837253.8760954     
  -65831040.1037141     
  -65824753.3296745     
  -65818442.0790748     
  -65812119.2616705     
  -65805759.5798888     
  -65799315.6123797     
  -65792731.2560354     
  -65785949.1604997     
  -65778914.4119002     
  -65771576.0804452     
  -65763887.5432922     
  -65755806.1482284     
  -65747292.5573943     
  -65738309.9704587     
  -65728823.3406894     
  -65718798.6442678     
  -65708202.2310034     
  -65697000.2654873     
  -65685158.2568296     
  -65672640.6693690     
  -65659410.6041416     
  -65645429.5401900     
  -65630657.1251884     
  -65615051.0058338     
  -65598566.6896982     
  -65581157.4315555     
  -65562774.1384680     
  -65543365.2890893     
  -65522876.8636767     
  -65501252.2821992     
  -65478432.3486897     
  -65454355.2006188     
  -65428956.2625939     
  -65402168.2041218     
  -65373920.9015206     
  -65344141.4043664     
  -65312753.9071014     
  -65279679.7266377     
  -65244837.2869724     
  -65208142.1119951     
  -65169506.8278163     
  -65128841.1760923     
  -65086052.0399729     
  -65041043.4844388     
  -64993716.8129586     
  -64943970.6425562     
  -64891700.9995616     
  -64836801.4385035     
  -64779163.1868167     
  -64718675.3182534     
  -64655224.9581371     
  -64588697.5238502     
  -64518977.0042227     
  -64445946.2817785     
  -64369487.5020865     
  -64289482.4947616     
  -64205813.2509371     
  -64118362.4622829     
  -64027014.1268285     
  -63931654.2269496     
  -63832171.4848243     
  -63728458.2004073     
  -63620411.1764048     
  -63507932.7337606     
  -63390931.8196157     
  -63269325.2074079     
  -63143038.7854876     
  -63012008.9260378     
  -62876183.9198576     
  -62735525.4542581     
  -62590010.1004142     
  -62439630.7624616     
  -62284398.0227569     
  -62124341.2953718     
  -61959509.6723966     
  -61789972.3143826     
  -61615818.1968819     
  -61437154.9795285     
  -61254106.7130924     
  -61066810.0451217     
  -60875408.5295281     
  -60680044.5956578     
  -60480848.6978451     
  -60277925.1629203     
  -60071334.3055454     
  -59861070.5285981     
  -59647036.4289496     
  -59429013.4828523     
  -59206630.8382977     
  -58979335.3264471     
  -58746368.3952630     
  -58506759.8383442     
  -58259354.9470643     
  -58002902.6174325     
  -57736248.5551852     
  -57458711.6350436     
  -57170751.9064168     
  -56874760.5438003     
  -56574918.7991879     
  -65836359.4421122     
  -65830177.4534088     
  -65823940.3424588     
  -65817681.6282899     
  -65811406.2248792     
  -65805086.3346803     
  -65798674.1309577     
  -65792113.7539604     
  -65785348.3646496     
  -65778323.6652655     
  -65770989.3526514     
  -65763299.3908494     
  -65755211.6508695     
  -65746687.2468865     
  -65737689.7610038     
  -65728184.4652633     
  -65718137.5984874     
  -65707515.7246432     
  -65696285.1810911     
  -65684411.6146177     
  -65671859.5976067     
  -65658592.3141979     
  -65644571.3056131     
  -65629756.2642279     
  -65614104.8669341     
  -65597572.6395758     
  -65580112.8455444     
  -65561676.3928804     
  -65542211.7553945     
  -65521664.9043445     
  -65499979.2480944     
  -65477095.5779358     
  -65452952.0188777     
  -65427483.9847352     
  -65400624.1372715     
  -65372302.3495025     
  -65342445.6735646     
  -65310978.3137860     
  -65277821.6058116     
  -65242894.0028101     
  -65206111.0699551     
  -65167385.4885215     
  -65126627.0710867     
  -65083742.7894688     
  -65038636.8171874     
  -64991210.5883819     
  -64941362.8752958     
  -64888989.8866050     
  -64833985.3890705     
  -64776240.8551910     
  -64715645.6397666     
  -64652087.1885223     
  -64585451.2821975     
  -64515622.3197876     
  -64442483.6449091     
  -64365917.9195564     
  -64285807.5498168     
  -64202035.1683885     
  -64114484.1790048     
  -64023039.3680545     
  -63927587.5887982     
  -63828018.5235313     
  -63724225.5287973     
  -63616106.5682076     
  -63503565.2364611     
  -63386511.8766381     
  -63264864.7905718     
  -63138551.5388475     
  -63007510.3224376     
  -62871691.4318138     
  -62731058.7411354     
  -62585591.2143036     
  -62435284.3757305     
  -62280151.6809389     
  -62120225.6999353     
  -61955558.9990039     
  -61786224.5735810     
  -61612315.6457850     
  -61433944.5950212     
  -61251240.7394678     
  -61064346.6318964     
  -60873412.4785020     
  -60678588.2400476     
  -60480012.9402917     
  -60277800.7027401     
  -60072023.0873258     
  -59862687.4411335     
  -59649711.2697703     
  -59432893.1687830     
  -59211881.7691243     
  -58986145.6722980     
  -58754949.8449597     
  -58517347.9927152     
  -58272207.0597131     
  -58018290.5356413     
  -57754443.5202241     
  -57479950.3406825     
  -57195131.6678297     
  -56901968.0882985     
  -56603887.0672256     
  -65835468.3522341     
  -65829315.6515770     
  -65823125.5334813     
  -65816918.1960178     
  -65810690.4922091     
  -65804411.4347055     
  -65798032.2915496     
  -65791497.1809118     
  -65784749.6429151     
  -65777735.9419852     
  -65770406.3922694     
  -65762715.5587321     
  -65754621.8605938     
  -65746086.8927369     
  -65737074.6479825     
  -65727550.7429078     
  -65717481.7012541     
  -65706834.3196731     
  -65695575.1231987     
  -65683669.9079056     
  -65671083.3629651     
  -65657778.7619369     
  -65643717.7125360     
  -65628859.9545330     
  -65613163.1964220     
  -65596582.9827199     
  -65579072.5850597     
  -65560582.9114945     
  -65541062.4295806     
  -65520457.0998309     
  -65498710.3170076     
  -65475762.8574724     
  -65451552.8314340     
  -65426015.6394507     
  -65399083.9329671     
  -65370687.5790169     
  -65340753.6295089     
  -65309206.2957543     
  -65275966.9291022     
  -65240954.0087229     
  -65204083.1377456     
  -65165267.0491046     
  -65124415.6225932     
  -65081435.9147726     
  -65036232.2035280     
  -64988706.0492241     
  -64938756.3745741     
  -64886279.5655176     
  -64831169.5955953     
  -64773318.1765108     
  -64712614.9378046     
  -64648947.6387997     
  -64582202.4162429     
  -64512264.0713415     
  -64439016.4001856     
  -64362342.5718427     
  -64282125.5587126     
  -64198248.6240145     
  -64110595.8715368     
  -64019052.8629775     
  -63923507.3083177     
  -63823849.8346321     
  -63719974.8385085     
  -63611781.4267178     
  -63499174.4488340     
  -63382065.6240175     
  -63260374.7619401     
  -63134031.0746209     
  -63002974.5714704     
  -62867157.5237359     
  -62726545.9764028     
  -62581121.2749070     
  -62430881.5602110     
  -62275843.1682300     
  -62116041.8476220     
  -61951533.6828859     
  -61782395.5769884     
  -61608725.1089587     
  -61430639.5370534     
  -61248273.6678282     
  -61061776.2574304     
  -60871304.5569066     
  -60677016.5640205     
  -60479060.5093654     
  -60277561.0992837     
  -60072602.0854085     
  -59864204.8660836     
  -59652303.1033126     
  -59436713.8451696     
  -59217106.5112062     
  -58992972.5427127     
  -58763600.8944746     
  -58528068.4398283     
  -58285260.7784932     
  -58033949.1081740     
  -57772964.4835980     
  -57501531.8016472     
  -57219798.3604720     
  -56929331.3053937     
  -56632887.9548667     
  -65834579.3057695     
  -65828453.9833543     
  -65822308.7926271     
  -65816151.9764695     
  -65809972.3557195     
  -65803735.1973412     
  -65797390.4092163     
  -65790881.8349508     
  -65784153.2698061     
  -65777151.4912941     
  -65769827.4241997     
  -65762136.2497965     
  -65754036.9610139     
  -65745491.6621652     
  -65736464.7848911     
  -65726922.3157864     
  -65716831.0854857     
  -65706158.1415613     
  -65694870.2113573     
  -65682933.2516132     
  -65670312.0768257     
  -65656970.0561138     
  -65642868.8678470     
  -65627968.3017536     
  -65612226.0992229     
  -65595597.8237457     
  -65578036.7547342     
  -65559493.7992097     
  -65539917.4169920     
  -65519253.5560388     
  -65497445.5954527     
  -65474434.2944190     
  -65450157.7459508     
  -65424551.3348293     
  -65397547.6995508     
  -65369076.6984293     
  -65339065.3802998     
  -65307437.9604941     
  -65274115.8029731     
  -65239017.4096729     
  -65202058.4182803     
  -65163151.6098092     
  -65122206.9274863     
  -65079131.5086059     
  -65033829.7311567     
  -64986203.2771867     
  -64936151.2150287     
  -64883570.1026937     
  -64828354.1149338     
  -64770395.1966746     
  -64709583.2457563     
  -64645806.3281547     
  -64578950.9291225     
  -64508902.2439638     
  -64435544.5124497     
  -64358761.4011827     
  -64278436.4385171     
  -64194453.5069363     
  -64106697.3980474     
  -64015054.4355621     
  -63919413.1717515     
  -63819665.1628442     
  -63715705.8286149     
  -63607435.4009052     
  -63494759.9649064     
  -63377592.5955801     
  -63255854.5894076     
  -63129476.7885086     
  -62998400.9897696     
  -62862581.4256130     
  -62721986.2950076     
  -62576599.3127676     
  -62426421.2315347     
  -62271471.2734765     
  -62111788.3869806     
  -61947432.2168055     
  -61778483.6437095     
  -61605044.7110944     
  -61427237.7116676     
  -61245203.1571396     
  -61059096.3001528     
  -60869081.8231701     
  -60675326.2594487     
  -60477987.6755669     
  -60277202.1374827     
  -60073066.5247484     
  -59865617.3837968     
  -59654805.7722593     
  -59440468.5209398     
  -59222297.1525994     
  -58999807.0499778     
  -58772311.6991280     
  -58538910.5351412     
  -58298505.0596259     
  -58049867.6961628     
  -57791802.6506445     
  -57523452.7037379     
  -57244764.3391654     
  -56956892.9319726     
  -56661993.4123828     
  -65833691.1009381     
  -65827591.7327653     
  -65821489.9446090     
  -65815383.1095090     
  -65809252.0823095     
  -65803057.9327970     
  -65796748.8011001     
  -65790268.0207677     
  -65783559.5281280     
  -65776570.5708033     
  -65769252.6809956     
  -65761561.6734668     
  -65753457.1411250     
  -65744901.7266303     
  -65735860.3284365     
  -65726299.3283915     
  -65716185.8857015     
  -65705487.3167941     
  -65694170.5656807     
  -65682201.7608899     
  -65669545.8505577     
  -65656166.3053085     
  -65642024.8781600     
  -65627081.4112156     
  -65611293.6799281     
  -65594617.2669550     
  -65577005.4589301     
  -65558409.1607149     
  -65538776.8228360     
  -65518054.3788169     
  -65496185.1899796     
  -65473109.9960273     
  -65448766.8703239     
  -65423091.1792987     
  -65396015.5458122     
  -65367469.8166661     
  -65337381.0347176     
  -65305673.4162962     
  -65272268.3348204     
  -65237084.3116906     
  -65200037.0156842     
  -65161039.2722420     
  -65120001.0841635     
  -65076829.6653829     
  -65031429.4896428     
  -64983702.3560389     
  -64933547.4735715     
  -64880861.5670246     
  -64825539.0066784     
  -64767471.9645745     
  -64706550.6002814     
  -64642663.2793429     
  -64575696.8278668     
  -64505536.8269788     
  -64432067.9511686     
  -64355174.3548529     
  -64274740.1117872     
  -64190649.7122528     
  -64102788.6232143     
  -64011043.9168580     
  -63915304.9730522     
  -63815464.2612687     
  -63711418.2072981     
  -63603068.1496194     
  -63490321.3893996     
  -63373092.3366912     
  -63251303.7532682     
  -63124888.0894576     
  -62993788.9080120     
  -62857962.3821687     
  -62717378.8471423     
  -62572024.3739004     
  -62421902.3206121     
  -62267034.8000144     
  -62107463.9794344     
  -61943253.1036725     
  -61774487.0987969     
  -61601272.5767264     
  -61423737.0162180     
  -61242026.8461103     
  -61056304.1029395     
  -60866741.2803967     
  -60673513.9378621     
  -60476790.5980817     
  -60276719.4535000     
  -60073411.4374685     
  -59866919.3317164     
  -59657212.8221587     
  -59444149.8534452     
  -59227445.3824869     
  -59006639.8804233     
  -58781072.0034431     
  -58549863.3189446     
  -58311928.7835239     
  -58066036.0559102     
  -57810950.5205657     
  -57545712.4678825     
  -57270045.2162259     
  -56984695.7839070     
  -56691270.5224636     
  -65832802.6096077     
  -65826728.1834174     
  -65820668.7620648     
  -65814611.6882379     
  -65808529.9162025     
  -65802379.9453726     
  -65796107.7871644     
  -65789656.0500183     
  -65782968.7090898     
  -65775993.4464796     
  -65768682.4027757     
  -65760992.0456217     
  -65752882.5951864     
  -65744317.2617177     
  -65735261.4384351     
  -65725681.9274559     
  -65715546.2379438     
  -65704821.9728102     
  -65693476.3067945     
  -65681475.5510671     
  -65668784.7954787     
  -65655367.6178931     
  -65641185.8497866     
  -65626199.3878987     
  -65610366.0427773     
  -65593641.4163221     
  -65575978.8017286     
  -65557329.1004816     
  -65537640.7521780     
  -65516859.6739570     
  -65494929.2071739     
  -65471790.0696824     
  -65447380.3126866     
  -65421635.2816306     
  -65394487.5809976     
  -65365867.0432267     
  -65335700.7022361     
  -65303912.7722708     
  -65270424.6329915     
  -65235154.8218960     
  -65198019.0353176     
  -65158930.1393991     
  -65117798.1925749     
  -65074530.4812449     
  -65029031.5704683     
  -64981203.3716594     
  -64930945.2294364     
  -64878154.0299503     
  -64822724.3332133     
  -64764548.5321569     
  -64703517.0413770     
  -64639518.5187630     
  -64572440.1234795     
  -64502167.8140422     
  -64428586.6905289     
  -64351581.3852706     
  -64271036.5066784     
  -64186837.1411591     
  -64098869.4183516     
  -64007021.1451386     
  -63911182.5140331     
  -63811246.8915540     
  -63707111.6920249     
  -63598679.3417820     
  -63485858.3379369     
  -63368564.4044826     
  -63246721.7464641     
  -63120264.3999369     
  -62989137.6712234     
  -62853299.6532035     
  -62712722.7986287     
  -62567395.5202268     
  -62417323.7741290     
  -62262532.5662386     
  -62103067.2999407     
  -61938994.8573117     
  -61770404.2741530     
  -61597406.8312942     
  -61420135.3406213     
  -61238742.3546704     
  -61053396.9748619     
  -60864279.8784282     
  -60671576.1328720     
  -60475465.3276039     
  -60276108.5379772     
  -60073631.6665129     
  -59868104.8083349     
  -59659517.5054138     
  -59447750.1519144     
  -59232542.4930228     
  -59013461.2926991     
  -58789871.1327557     
  -58560915.4966024     
  -58325520.7150523     
  -58082444.2738844     
  -57830401.7615549     
  -57568312.8758697     
  -57295659.2197269     
  -57012782.7315359     
  -56720782.7592653     
  -65831912.7564682     
  -65825862.6171340     
  -65819844.9754320     
  -65813837.7662188     
  -65807806.0820163     
  -65801701.5350156     
  -65795467.6911010     
  -65789046.2417651     
  -65782381.1124687     
  -65775420.3926527     
  -65768116.8371494     
  -65760427.5884834     
  -65752313.5226005     
  -65743738.4470217     
  -65734668.2777043     
  -65725070.2618557     
  -65714912.2796954     
  -65704162.2379289     
  -65692787.5557741     
  -65680754.7376083     
  -65668029.0228121     
  -65654574.1019961     
  -65640351.8887083     
  -65625322.3364135     
  -65609443.2916400     
  -65592670.3754786     
  -65574956.8869183     
  -65556253.7227548     
  -65536509.3099359     
  -65515669.5471916     
  -65493677.7536571     
  -65470474.6229064     
  -65445998.1814137     
  -65420183.7509488     
  -65392963.9148187     
  -65364268.4881939     
  -65334024.4930355     
  -65302156.1383635     
  -65268584.8068034     
  -65233229.0485206     
  -65196004.5838013     
  -65156824.3156938     
  -65115598.3542544     
  -65072234.0540942     
  -65026636.0670648     
  -64978706.4120791     
  -64928344.5642246     
  -64875447.5655096     
  -64819910.1597706     
  -64761624.9544833     
  -64700482.6124435     
  -64636372.0765278     
  -64569180.8310154     
  -64498795.2032256     
  -64425100.7095283     
  -64347982.4500931     
  -64267325.5570520     
  -64183015.7010627     
  -64094939.6615368     
  -64002985.9660383     
  -63907045.6045148     
  -63807012.8240551     
  -63702786.0097205     
  -63594268.6565750     
  -63481370.4372509     
  -63364008.3680807     
  -63242108.0748371     
  -63115605.1562153     
  -62984446.6390884     
  -62848592.5139424     
  -62708017.3313122     
  -62562711.8300261     
  -62412684.5550648     
  -62257963.4062050     
  -62098597.0376932     
  -61934656.0032892     
  -61766233.5095036     
  -61593445.6022943     
  -61416430.5687260     
  -61235347.2855958     
  -61050372.1931116     
  -60861694.5161148     
  -60669509.3028317     
  -60474007.8094216     
  -60275364.7395531     
  -60073721.8695552     
  -59869167.6773457     
  -59661712.7853340     
  -59451261.3807161     
  -59237579.3805285     
  -59020261.1146243     
  -58798697.9820649     
  -58572055.4134919     
  -58339269.4554977     
  -58099082.6869207     
  -57850151.0573928     
  -57591257.7144170     
  -57321626.7110323     
  -57041196.7765114     
  -56750591.0281506     
  -65831020.5014108     
  -65824994.3112985     
  -65819018.2803762     
  -65813061.3642060     
  -65807080.7882649     
  -65801022.9991813     
  -65794828.8413986     
  -65788438.9230158     
  -65781797.0468226     
  -65774851.6920450     
  -65767556.2391505     
  -65759868.5305084     
  -65751750.1277882     
  -65743165.4660224     
  -65734081.0119482     
  -65724464.4825095     
  -65714284.1497902     
  -65703508.2412738     
  -65692104.4340806     
  -65680039.4360533     
  -65667278.6436417     
  -65653785.8654657     
  -65639523.1005453     
  -65624450.3609758     
  -65608525.5299949     
  -65591704.2476982     
  -65573939.8179832     
  -65555183.1315451     
  -65535382.6008746     
  -65514484.1041911     
  -65492430.9360858     
  -65469163.7633596     
  -65444620.5851263     
  -65418736.6967348     
  -65391444.6574610     
  -65362674.2622453     
  -65332352.5180167     
  -65300403.6253709     
  -65266748.9665613     
  -65231307.1009271     
  -65193993.7690389     
  -65154721.9069831     
  -65113401.6723502     
  -65069940.4836272     
  -65024243.0748505     
  -64976211.5675207     
  -64925745.5619495     
  -64872742.2503895     
  -64817096.5544839     
  -64758701.2897898     
  -64697447.3603496     
  -64633223.9865361     
  -64565918.9696579     
  -64495418.9970995     
  -64421609.9920661     
  -64344377.5123157     
  -64263607.2025820     
  -64179185.3056991     
  -64090999.2377344     
  -63998938.2326862     
  -63902894.0624717     
  -63802761.8379924     
  -63698440.8969408     
  -63589835.7836299     
  -63476857.3253897     
  -63359423.8088320     
  -63237462.2573786     
  -63110909.8086407     
  -62979715.1862647     
  -62843840.2553899     
  -62703261.6434671     
  -62557972.3984007     
  -62407983.6432341     
  -62253326.1702632     
  -62094051.8968681     
  -61930235.0797936     
  -61761973.1534466     
  -61589387.0205304     
  -61412620.5798004     
  -61231839.2262796     
  -61047227.0051007     
  -60858982.0437940     
  -60667309.8337348     
  -60472413.8867644     
  -60274483.2686574     
  -60073676.5231696     
  -59870101.5720022     
  -59663791.3402747     
  -59454675.1624795     
  -59242546.5461250     
  -59027028.7387559     
  -58807541.0023187     
  -58583271.0250875     
  -58353163.3865710     
  -58115941.7876428     
  -57870193.9330409     
  -57614552.4439903     
  -57347969.8232766     
  -57069981.1921974     
  -56780754.5470539     
  -65830124.8242003     
  -65824122.5353697     
  -65818188.3433863     
  -65812282.4763756     
  -65806354.2311772     
  -65800344.6349781     
  -65794191.5725652     
  -65787834.4293490     
  -65781216.8297481     
  -65774287.6358235     
  -65767000.8711794     
  -65759315.1062768     
  -65751192.6200610     
  -65742598.5059561     
  -65733499.8096369     
  -65723864.7422684     
  -65713661.9883180     
  -65702860.1126914     
  -65691427.0634913     
  -65679329.7619610     
  -65666533.7688631     
  -65653003.0158288     
  -65638699.5905228     
  -65623583.5653809     
  -65607612.8609096     
  -65590743.1358800     
  -65572927.6980911     
  -65554117.4306196     
  -65534260.7296006     
  -65513303.4505604     
  -65491188.8611511     
  -65467857.5988418     
  -65443247.6326951     
  -65417294.2288339     
  -65389929.9195926     
  -65361084.4766639     
  -65330684.8888132     
  -65298655.3449562     
  -65264917.2235764     
  -65229389.0896317     
  -65191986.7002414     
  -65152623.0205947     
  -65111208.2516533     
  -65067649.8713680     
  -65021852.6912679     
  -64973718.9304405     
  -64923148.3090819     
  -64870038.1639746     
  -64814283.5884425     
  -64755777.5995453     
  -64694411.3354967     
  -64630074.2865416     
  -64562654.5627941     
  -64492039.2028166     
  -64418114.5270323     
  -64340766.5403689     
  -64259881.3888592     
  -64175345.8752439     
  -64087048.0389187     
  -63994877.8058389     
  -63898727.7141755     
  -63798493.7216078     
  -63694076.1000426     
  -63585380.4232124     
  -63472318.6519198     
  -63354810.3205286     
  -63232783.8264799     
  -63106177.8219202     
  -62974942.7026989     
  -62839042.1846905     
  -62698454.9502109     
  -62553176.3377577     
  -62403220.0358486     
  -62248619.7257194     
  -62089430.5974095     
  -61925730.6385734     
  -61757621.5645713     
  -61585229.2214520     
  -61408703.2501354     
  -61228215.7506450     
  -61043958.6307350     
  -60856139.2659719     
  -60664974.0423487     
  -60470679.3044106     
  -60273459.2015774     
  -60073489.9272679     
  -59870899.8997010     
  -59665745.5678935     
  -59457982.7811252     
  -59247434.0958998     
  -59033753.1168387     
  -58816388.1843847     
  -58594549.8626552     
  -58367190.6067675     
  -58133012.1158630     
  -57890526.5648409     
  -57638203.8926689     
  -57374712.1905089     
  -57099179.7048384     
  -56811331.6144674     
  -65829224.7107507     
  -65823246.5468474     
  -65817354.8060193     
  -65811501.0761194     
  -65805626.5987566     
  -65799666.7415737     
  -65793556.2264955     
  -65787233.1056166     
  -65780640.7881775     
  -65773728.5236666     
  -65766451.0029492     
  -65758767.5563823     
  -65750641.2134880     
  -65742037.7576813     
  -65732924.8418797     
  -65723271.1958025     
  -65713045.9365238     
  -65702217.9826633     
  -65690755.5660257     
  -65678625.8308463     
  -65665794.5091321     
  -65652225.6602493     
  -65637881.4634378     
  -65622722.0529750     
  -65606705.3870177     
  -65589787.1425314     
  -65571920.6300795     
  -65553056.7234919     
  -65533143.8005545     
  -65512127.6918351     
  -65489951.6355780     
  -65466556.2372949     
  -65441879.4332447     
  -65415856.4574619     
  -65388419.8123725     
  -65359499.2433486     
  -65329021.7178053     
  -65296911.4096643     
  -65263089.6901839     
  -65227475.1263229     
  -65189983.4879501     
  -65150527.7653521     
  -65109018.1986280     
  -65065362.3207010     
  -65019465.0158186     
  -64971228.5955675     
  -64920552.8945939     
  -64867335.3883955     
  -64811471.3357443     
  -64752853.9485101     
  -64691374.5918808     
  -64626923.0182219     
  -64559387.6380898     
  -64488655.8321916     
  -64414614.3083956     
  -64337149.5082125     
  -64256148.0674942     
  -64171497.3364252     
  -64083085.9641947     
  -63990804.5540114     
  -63894546.3943367     
  -63794208.2723180     
  -63689691.3753509     
  -63580902.2864063     
  -63467754.0781292     
  -63350167.5096326     
  -63228072.3281825     
  -63101408.6754015     
  -62970128.5939464     
  -62834197.6254958     
  -62693596.4839287     
  -62548322.7783044     
  -62398392.7481017     
  -62243842.9575297     
  -62084731.8758560     
  -61921141.2459273     
  -61753177.1126479     
  -61580970.3465857     
  -61404676.4547620     
  -61224474.4212000     
  -61040564.2648596     
  -60853162.9442094     
  -60662498.1795835     
  -60468799.7125589     
  -60272287.4848046     
  -60073156.2098153     
  -59871555.8468051     
  -59667567.5895580     
  -59461175.1848672     
  -59252231.7407179     
  -59040422.7533159     
  -58825227.0409993     
  -58605878.9950425     
  -58381338.8605299     
  -58150284.1371073     
  -57911145.5789830     
  -57662219.9717839     
  -57401878.7436388     
  -57128836.7019380     
  -56842380.2983255     
  -65828319.1404564     
  -65822365.5868480     
  -65816517.2881812     
  -65810717.1215107     
  -65804898.0750421     
  -65798989.6228380     
  -65792923.1539695     
  -65786635.3067131     
  -65780069.2587065     
  -65773174.6638457     
  -65765906.9114363     
  -65758226.1273181     
  -65750096.1267584     
  -65741483.4155367     
  -65732356.2822903     
  -65722683.9994791     
  -65712436.1367015     
  -65701581.9822154     
  -65690090.0638679     
  -65677927.7581155     
  -65665060.9748103     
  -65651453.9054828     
  -65637068.8236217     
  -65621865.9266265     
  -65605803.2104961     
  -65588836.3697495     
  -65570918.7164421     
  -65552001.1134129     
  -65532031.9180057     
  -65510956.9334787     
  -65488719.3661242     
  -65465259.7868032     
  -65440516.0961570     
  -65414423.4932105     
  -65386914.4474587     
  -65357918.6748246     
  -65327363.1181314     
  -65295171.9329368     
  -65261266.4797598     
  -65225565.3238823     
  -65187984.2440589     
  -65148436.2516011     
  -65106831.6214392     
  -65063077.9369020     
  -65017080.1500996     
  -64968740.6599429     
  -64917959.4100018     
  -64864634.0085760     
  -64808659.8735476     
  -64749930.4047926     
  -64688337.1871559     
  -64623770.2272456     
  -64556118.2275628     
  -64485268.9017816     
  -64411109.3352894     
  -64333526.3954299     
  -64252407.1962179     
  -64167639.6226320     
  -64079112.9199152     
  -63986718.3536046     
  -63890349.9462437     
  -63789905.2968662     
  -63685286.4893247     
  -63576401.0952954     
  -63463163.2772273     
  -63345494.9954979     
  -63223327.3224272     
  -63096601.8633555     
  -62965272.2814936     
  -62829305.9183350     
  -62688685.4947064     
  -62543410.8685569     
  -62393500.8137717     
  -62238994.7690199     
  -62079954.4862066     
  -61916465.4837466     
  -61748638.1798873     
  -61576608.5450539     
  -61400538.0692799     
  -61220612.7912314     
  -61037041.0798717     
  -60850049.8002094     
  -60659878.4340924     
  -60466770.6709593     
  -60270962.9396640     
  -60072669.3318282     
  -59872062.3837274     
  -59669249.2549396     
  -59464242.9892538     
  -59256928.7957959     
  -59047025.6980987     
  -58834044.5870359     
  -58617244.9870840     
  -58395595.4608084     
  -58167748.1095024     
  -57932047.8401987     
  -57686609.4080143     
  -57429495.5542021     
  -57158997.4600014     
  -56873959.0728558     
  -65827407.0741275     
  -65821478.8753754     
  -65815675.3907545     
  -65809930.5605706     
  -65804168.8445561     
  -65798313.5901966     
  -65792292.7162694     
  -65786041.3983993     
  -65779502.5879476     
  -65772626.3733134     
  -65765368.8808294     
  -65757691.0713605     
  -65749557.5830375     
  -65740935.6771935     
  -65731794.3068477     
  -65722103.3112353     
  -65711832.7320812     
  -65700952.2428199     
  -65689430.6792834     
  -65677235.6589971     
  -65664333.2759083     
  -65650687.8578304     
  -65636261.7749031     
  -65621015.2886944     
  -65604906.4330405     
  -65587890.9192030     
  -65569922.0593150     
  -65550950.7033600     
  -65530925.1860446     
  -65509791.2808779     
  -65487492.1595787     
  -65463968.3555956     
  -65439157.7310751     
  -65412995.4470535     
  -65385413.9370159     
  -65356342.8842538     
  -65325709.2037008     
  -65293437.0291267     
  -65259447.7067387     
  -65223659.7964042     
  -65185989.0818371     
  -65146348.5912349     
  -65104648.6299820     
  -65060796.8271709     
  -65014698.1978383     
  -64966255.2229590     
  -64915367.9494092     
  -64861934.1122801     
  -64805849.2821228     
  -64747007.0399046     
  -64685299.1826949     
  -64620615.9633397     
  -64552846.3676555     
  -64481878.4329646     
  -64407599.6120972     
  -64329897.1873197     
  -64248658.7389825     
  -64163772.6740225     
  -64075128.8197981     
  -63982619.0890317     
  -63886138.2219000     
  -63785584.6114719     
  -63680861.2187198     
  -63571876.5831426     
  -63458545.9345433     
  -63340792.4105923     
  -63218548.3833037     
  -63091756.8952584     
  -62960373.2030823     
  -62824366.4209927     
  -62683721.2507711     
  -62538439.7758631     
  -62388543.2858446     
  -62234074.0826342     
  -62075097.2008231     
  -61911701.9506091     
  -61744003.1622650     
  -61572141.9751795     
  -61396285.9717969     
  -61216628.4071339     
  -61033386.2285025     
  -60846796.5191038     
  -60657110.9361074     
  -60464587.6533082     
  -60269480.2672278     
  -60072023.0926714     
  -59872412.2702929     
  -59670782.1468336     
  -59467176.4803152     
  -59261514.1801598     
  -59053549.5388055     
  -58842827.3184549     
  -58628633.8551839     
  -58409947.2057614     
  -58185393.9402360     
  -57953230.2312526     
  -57711381.4854636     
  -57457589.7104692     
  -57189708.3873622     
  -56906127.4257131     
  -65826487.4421429     
  -65820585.6063363     
  -65814828.6978414     
  -65809141.3364800     
  -65803439.0969499     
  -65797638.9656707     
  -65791665.2868937     
  -65785451.7581677     
  -65778941.1328982     
  -65772083.9777965     
  -65764837.2024776     
  -65757162.6464453     
  -65749025.8098162     
  -65740394.7434999     
  -65731239.0937469     
  -65721529.2904439     
  -65711235.8667108     
  -65700328.8962944     
  -65688777.5345338     
  -65676549.6484693     
  -65663611.5220253     
  -65649927.6230888     
  -65635460.4205675     
  -65620170.2409981     
  -65604015.1558400     
  -65586950.8921120     
  -65568930.7604613     
  -65549905.5960267     
  -65529823.7085758     
  -65508630.8393388     
  -65486270.1227605     
  -65462682.0520456     
  -65437804.4479062     
  -65411572.4303522     
  -65383918.3937236     
  -65354771.9854438     
  -65324060.0892069     
  -65291706.8135129     
  -65257633.4866304     
  -65221758.6592148     
  -65183998.1159512     
  -65144264.8977186     
  -65102469.3359087     
  -65058519.1006618     
  -65012319.2649264     
  -64963772.3863972     
  -64912778.6095484     
  -64859235.7901580     
  -64803039.6449023     
  -64744083.9288179     
  -64682260.6436492     
  -64617460.2803543     
  -64549572.0993056     
  -64478484.4520162     
  -64404085.1485356     
  -64326261.8749860     
  -64244902.6660571     
  -64159896.4376295     
  -64071133.5850412     
  -63978506.6528427     
  -63881911.0821584     
  -63781246.0419763     
  -63676415.3507496     
  -63567328.4945664     
  -63453901.7477226     
  -63336059.4007162     
  -63213735.0992976     
  -63086873.2960745     
  -62955430.8130358     
  -62819378.5088884     
  -62678703.0389410     
  -62533408.6869355     
  -62383519.2371549     
  -62229079.8407090     
  -62070158.8113692     
  -61906849.2629207     
  -61739270.4709124     
  -61567568.8061760     
  -61391918.0449745     
  -61212518.8108761     
  -61029596.8467620     
  -60843399.7529372     
  -60654191.7615048     
  -60462246.0519089     
  -60267834.0535231     
  -60071211.1356575     
  -59872598.0614055     
  -59672157.5862480     
  -59469965.6178973     
  -59265976.4161240     
  -59059981.3927017     
  -58851561.1903258     
  -58640031.0206898     
  -58424380.2904797     
  -58203211.0327093     
  -57974689.4227665     
  -57736545.7905190     
  -57486189.2127958     
  -57221017.2800398     
  -56938946.4547070     
  -65825559.1324623     
  -65819684.9423084     
  -65813976.7788573     
  -65808349.3928943     
  -65802709.0318679     
  -65796966.0850836     
  -65791041.2533491     
  -65784866.7761371     
  -65778385.2613171     
  -65771547.8118882     
  -65764312.1748328     
  -65756641.1160386     
  -65748501.0387524     
  -65739860.8183182     
  -65730690.8232455     
  -65720962.0977725     
  -65710645.6853332     
  -65699712.0746943     
  -65688130.7517852     
  -65675869.8411838     
  -65662895.8222865     
  -65649173.3064996     
  -65634664.8633148     
  -65619330.8847825     
  -65603129.4795516     
  -65586016.3892282     
  -65567944.9212561     
  -65548865.8938110     
  -65528727.5893105     
  -65507475.7140820     
  -65485053.3625167     
  -65461400.9846734     
  -65436456.3568255     
  -65410154.5548602     
  -65382427.9307834     
  -65353206.0928591     
  -65322415.8901372     
  -65289981.4023144     
  -65255823.9360361     
  -65219862.0288915     
  -65182011.4624870     
  -65142185.2861139     
  -65100293.8526566     
  -65056244.8685144     
  -65009943.4594549     
  -64961292.2544650     
  -64910191.4898227     
  -64856539.1357920     
  -64800231.0485315     
  -64741161.1500174     
  -64679221.6390080     
  -64614303.2363275     
  -64546295.4680160     
  -64475086.9901856     
  -64400565.9597369     
  -64322620.4554271     
  -64241138.9541259     
  -64156010.8674641     
  -64067127.1444334     
  -63974380.9458453     
  -63877668.3968537     
  -63776889.4239879     
  -63671948.6832431     
  -63562756.5857157     
  -63449230.4269205     
  -63331295.6252207     
  -63208887.0735369     
  -63081950.6065395     
  -62950444.5825874     
  -62814341.5754618     
  -62673630.1650803     
  -62528316.8083982     
  -62378427.7610444     
  -62224011.0062722     
  -62065138.1297852     
  -61901906.0561060     
  -61734438.5335697     
  -61562887.2199194     
  -61387432.1781796     
  -61208281.5425953     
  -61025670.0570468     
  -60839856.1243472     
  -60651116.9361028     
  -60459741.1825971     
  -60266018.7750332     
  -60070226.9539694     
  -59872612.1130400     
  -59673366.6378022     
  -59472600.0392554     
  -59270303.6289220     
  -59066307.8985767     
  -58860231.5943363     
  -58651421.2617320     
  -58438880.2147499     
  -58221188.1254397     
  -57996421.6321664     
  -57762111.9517856     
  -57515322.8765010     
  -57252973.5899156     
  -56972479.4718086     
  -65824620.9781515     
  -65818776.0090683     
  -65813119.1907031     
  -65807554.6795228     
  -65801978.8640651     
  -65796295.3014072     
  -65790421.0189959     
  -65784286.8559586     
  -65777835.3520997     
  -65771018.2191325     
  -65763794.1033839     
  -65756126.7489994     
  -65747983.5055047     
  -65739334.1083539     
  -65730149.6775002     
  -65720401.8950368     
  -65710062.3332547     
  -65699101.9102011     
  -65687490.4530138     
  -65675196.3513871     
  -65662186.2852780     
  -65648425.0126958     
  -65633875.2052184     
  -65618497.3206844     
  -65602249.5042721     
  -65585087.5108133     
  -65566964.6426710     
  -65547831.6988047     
  -65527636.9317583     
  -65506326.0102391     
  -65483841.9857216     
  -65460125.2621457     
  -65435113.5682786     
  -65408741.9327298     
  -65380942.6619267     
  -65351645.3216295     
  -65320776.7227867     
  -65288260.9127041     
  -65254019.1726654     
  -65217970.0232811     
  -65180029.2389698     
  -65140109.8731030     
  -65098122.2954749     
  -65053974.2438831     
  -65007570.8917459     
  -64958814.9338338     
  -64907606.6923458     
  -64853844.2457399     
  -64797423.5829155     
  -64738238.7855549     
  -64676182.2416571     
  -64611144.8935485     
  -64543016.5239241     
  -64471686.0837697     
  -64397042.0663292     
  -64318972.9316230     
  -64237367.5863805     
  -64152115.9246175     
  -64063109.4344658     
  -63970241.8772247     
  -63873410.0449322     
  -63772514.6030228     
  -63667461.0248004     
  -63558160.6244411     
  -63444531.6949931     
  -63326500.7572219     
  -63204003.9240377     
  -63076988.3834420     
  -62945414.0002085     
  -62809255.0325597     
  -62668501.9545614     
  -62523163.3673419     
  -62373267.9720355     
  -62218866.5638652     
  -62060033.9892942     
  -61896870.9858424     
  -61729505.7960991     
  -61558095.4127977     
  -61382826.2697368     
  -61203914.1433234     
  -61021602.9714084     
  -60836162.2304396     
  -60647882.4401890     
  -60457068.2899331     
  -60264028.8045034     
  -60069063.8969115     
  -59872446.5885849     
  -59674400.1154816     
  -59475069.0629898     
  -59274483.5466373     
  -59072515.2088062     
  -58868823.3362120     
  -58662788.6642448     
  -58453431.6879834     
  -58239313.1237787     
  -58018422.3700760     
  -57788089.3669045     
  -57545020.2310772     
  -57285628.7052348     
  -57006792.6316063     
  -65823671.7440671     
  -65817857.8898714     
  -65812255.4802484     
  -65806757.1581526     
  -65801248.8288143     
  -65795626.9882291     
  -65789805.0049228     
  -65783712.4157221     
  -65777291.7956439     
  -65770495.5520991     
  -65763283.3005803     
  -65755619.8194299     
  -65747473.4495565     
  -65738814.8229763     
  -65729615.8403973     
  -65719848.8450459     
  -65709485.9562116     
  -65698498.5350064     
  -65686856.7599076     
  -65674529.2928387     
  -65661483.0189786     
  -65647682.8456461     
  -65633091.5476787     
  -65617669.6486973     
  -65601375.3295112     
  -65584164.3566184     
  -65565990.0252574     
  -65546803.1127807     
  -65526551.8392202     
  -65505181.8328467     
  -65482636.0992739     
  -65458854.9932763     
  -65433776.1929844     
  -65407334.6765167     
  -65379462.7014217     
  -65350089.7875598     
  -65319142.7042687     
  -65286545.4628226     
  -65252219.3153514     
  -65216082.7615186     
  -65178051.5643865     
  -65138038.7770119     
  -65095954.7814507     
  -65051707.3419671     
  -65005201.6743865     
  -64956340.5336742     
  -64905024.3219825     
  -64851151.2195802     
  -64794617.3412693     
  -64735316.9211017     
  -64673142.5284354     
  -64607985.3186192     
  -64539735.3218684     
  -64468281.7741871     
  -64393513.4945157     
  -64315319.3126205     
  -64233588.5526134     
  -64148211.5773608     
  -64059080.3994385     
  -63966089.3646606     
  -63869135.9145789     
  -63768121.4346451     
  -63662952.1949452     
  -63553540.3904646     
  -63439805.2876867     
  -63321674.4838152     
  -63199085.2839469     
  -63071986.1999046     
  -62940338.5719371     
  -62804118.3108265     
  -62663317.7527326     
  -62517947.6118892     
  -62368039.0065213     
  -62213645.5203879     
  -62054845.2454408     
  -61891742.7293385     
  -61724470.7240579     
  -61553191.5976404     
  -61378098.2292819     
  -61199414.1578381     
  -61017392.6949762     
  -60832314.6468523     
  -60644484.2132781     
  -60454222.5526643     
  -60261858.4170543     
  -60067715.1765057     
  -59872093.4655622     
  -59675248.5887946     
  -59477361.6934020     
  -59278503.5005702     
  -59078588.9818541     
  -58877320.6134930     
  -58674116.5729412     
  -58468018.5325661     
  -58257572.9256053     
  -58040686.1722732     
  -57814486.9075347     
  -57575311.4042395     
  -57319036.2436863     
  -57041955.6018984     
  -65822710.1123089     
  -65816929.6194884     
  -65811385.1873833     
  -65805956.8093004     
  -65800519.1876371     
  -65794961.5433073     
  -65789193.6518198     
  -65783143.8888397     
  -65776754.9941945     
  -65769980.1724404     
  -65762780.0857416     
  -65755120.6065163     
  -65746971.1140283     
  -65738303.1740290     
  -65729089.4973741     
  -65719303.1114413     
  -65708916.7002270     
  -65697902.0811894     
  -65686229.7937630     
  -65673868.7787244     
  -65660786.1306896     
  -65646946.9085984     
  -65632313.9913785     
  -65616847.9681342     
  -65600507.0541622     
  -65583247.0258608     
  -65565021.1691300     
  -65545780.2371815     
  -65525472.4147790     
  -65504043.2868425     
  -65481435.8100949     
  -65457590.2870273     
  -65432444.3419385     
  -65405932.8991845     
  -65377988.1640807     
  -65348539.6071388     
  -65317513.9525255     
  -65284835.1717915     
  -65250424.4840667     
  -65214200.3640448     
  -65176078.5592051     
  -65135972.1178341     
  -65093791.4295351     
  -65049444.2800391     
  -65002835.9222603     
  -64953869.1656917     
  -64902444.4863872     
  -64848460.1599540     
  -64791812.4201634     
  -64732395.6459999     
  -64670102.5801914     
  -64604824.5825162     
  -64536451.9214550     
  -64464874.1080485     
  -64389980.2761520     
  -64311659.6136171     
  -64229801.8493076     
  -64144297.8012433     
  -64055039.9915680     
  -63961923.3344418     
  -63864845.9033422     
  -63763709.7846017     
  -63658422.0242744     
  -63548895.6755446     
  -63435050.9538232     
  -63316816.5062843     
  -63194130.8017834     
  -63066943.6456644     
  -62935217.8217084     
  -62798930.8600956     
  -62658076.9253891     
  -62512668.8117685     
  -62362740.0234668     
  -62208346.9059630     
  -62049570.7771587     
  -61886519.9866536     
  -61719331.8043254     
  -61548174.0057196     
  -61373245.9802102     
  -61194779.1376363     
  -61013036.3295372     
  -60828309.9320122     
  -60640918.1590973     
  -60451199.0894578     
  -60259501.7966085     
  -60066173.8744455     
  -59871544.5427454     
  -59675902.3893757     
  -59479466.6253576     
  -59282350.4261872     
  -59084514.3754658     
  -58885706.9941156     
  -58685387.5430377     
  -58482623.5869920     
  -58275953.2423908     
  -58063206.3153924     
  -57841312.5931575     
  -57606226.9781749     
  -57353252.3580927     
  -57078042.2956384     
  -65821734.6660061     
  -65815990.1780106     
  -65810507.8489337     
  -65805153.6396999     
  -65799790.2343903     
  -65794299.3921767     
  -65788587.4218214     
  -65782581.7248969     
  -65776225.3621608     
  -65769472.4509272     
  -65762284.7849504     
  -65754629.3943548     
  -65746476.7454820     
  -65737799.3756324     
  -65728570.8352338     
  -65718764.8585298     
  -65708354.7114647     
  -65697312.6805917     
  -65685609.6753790     
  -65673214.9215683     
  -65660095.7269624     
  -65646217.3040202     
  -65631542.6362342     
  -65616032.3775901     
  -65599644.7764731     
  -65582335.6172027     
  -65564058.1739498     
  -65544763.1731072     
  -65524398.7612926     
  -65502910.4770596     
  -65480241.2251261     
  -65456331.2525090     
  -65431118.1264156     
  -65404536.7141097     
  -65376519.1652666     
  -65346994.8975486     
  -65315890.5863404     
  -65283130.1597264     
  -65248634.7999388     
  -65212322.9526242     
  -65174110.3453957     
  -65133910.0172526     
  -65091632.3605689     
  -65047185.1774736     
  -65000473.7525795     
  -64951400.9441621     
  -64899867.2960432     
  -64845771.1726080     
  -64789008.9195709     
  -64729475.0533127     
  -64667062.4818376     
  -64601662.7606500     
  -64533166.3871229     
  -64461463.1372279     
  -64386442.4488223     
  -64307993.8560428     
  -64226007.4797263     
  -64140374.5791872     
  -64050988.1710893     
  -63957743.7215785     
  -63860539.9182564     
  -63759279.5289567     
  -63653870.3546055     
  -63544226.2836397     
  -63430268.4554829     
  -63311926.5403103     
  -63189140.1416766     
  -63061860.3273498     
  -62930051.2916825     
  -62793692.1497833     
  -62652778.8592502     
  -62507326.2588953     
  -62357370.2051254     
  -62202969.7748196     
  -62044209.4878659     
  -61881201.4820561     
  -61714087.5467845     
  -61543040.8888229     
  -61368267.4622188     
  -61190006.6440290     
  -61008530.9772647     
  -60824144.6315769     
  -60637180.1508007     
  -60447992.9649053     
  -60256953.0426382     
  -60064432.9494205     
  -59870791.4477063     
  -59676351.6180808     
  -59481372.2497276     
  -59286010.8647945     
  -59090276.0408088     
  -58893965.3962525     
  -58696583.2935467     
  -58497228.6102569     
  -58294438.4173726     
  -58085974.5149120     
  -57868573.2236502     
  -57637797.8033001     
  -57388336.0540196     
  -57115131.6861032     
  -65820743.8709086     
  -65815038.4844691     
  -65809623.0038053     
  -65804347.6908390     
  -65799062.3017174     
  -65793640.9917651     
  -65787986.8002872     
  -65782026.3904493     
  -65775703.3263956     
  -65768972.7674579     
  -65761797.7309259     
  -65754146.4717634     
  -65745990.5937093     
  -65737303.6439757     
  -65728060.0419500     
  -65718234.2511077     
  -65707800.1360764     
  -65696730.4646852     
  -65684996.5249464     
  -65672567.8331415     
  -65659411.9135228     
  -65645494.1335378     
  -65630777.5813481     
  -65615222.9749042     
  -65598788.5940158     
  -65581430.2287267     
  -65563101.1389067     
  -65543752.0213025     
  -65523330.9813839     
  -65501783.5082210     
  -65479052.4513272     
  -65455077.9989802     
  -65429797.6579715     
  -65403146.2350870     
  -65375055.8209000     
  -65345455.7766731     
  -65314272.7253479     
  -65281430.5477499     
  -65246850.3852651     
  -65210450.6503619     
  -65172147.0464486     
  -65131852.5986624     
  -65089477.6973073     
  -65044930.1557748     
  -64998115.2849150     
  -64948935.9859650     
  -64897292.8642996     
  -64843084.3664357     
  -64786206.9429126     
  -64726555.2398745     
  -64664022.3224054     
  -64598499.9329233     
  -64529878.7882071     
  -64458048.9189309     
  -64382900.0559142     
  -64304322.0676415     
  -64222205.4539991     
  -64136441.9015825     
  -64046924.9063580     
  -63953550.4699118     
  -63856217.8759603     
  -63754830.5542214     
  -63649297.0391202     
  -63539532.0310685     
  -63425457.5681850     
  -63307004.3161749     
  -63184112.9836026     
  -63056735.8687577     
  -62924838.5425720     
  -62788401.6692817     
  -62647422.9624360     
  -62501919.2679588     
  -62351928.7577630     
  -62197513.2061955     
  -62038760.3065863     
  -61875785.9654173     
  -61708736.4860533     
  -61537790.5213949     
  -61363160.6339392     
  -61185094.2513519     
  -61003873.7445976     
  -60819815.2830634     
  -60633266.0364104     
  -60444599.1958019     
  -60254206.1772367     
  -60062485.2448231     
  -59869825.6448111     
  -59676586.1526193     
  -59483066.6594945     
  -59289470.9660702     
  -59095858.1178088     
  -58902078.0698607     
  -58707684.6629582     
  -58511814.1890764     
  -58313011.2430610     
  -58108980.6046985     
  -57896273.9598370     
  -57670054.7516964     
  -57424349.5172173     
  -57153308.7311497     
  -65819736.0541513     
  -65814073.3903605     
  -65808730.1998036     
  -65803539.0487774     
  -65798335.7678578     
  -65792986.8339546     
  -65787392.2974851     
  -65781478.3697489     
  -65775189.3264256     
  -65768481.5110348     
  -65761319.2628746     
  -65753672.1320766     
  -65745512.9115104     
  -65736816.1970974     
  -65727557.3064640     
  -65717711.4542798     
  -65707253.1200421     
  -65696155.5644374     
  -65684390.4619339     
  -65671927.6243670     
  -65658734.7951940     
  -65644777.4978746     
  -65630018.9249583     
  -65614419.8571191     
  -65597938.6036556     
  -65580530.9579128     
  -65562150.1627024     
  -65542746.8821435     
  -65522269.1774331     
  -65500662.4849358     
  -65477869.5956739     
  -65453830.6358478     
  -65428483.0484464     
  -65401761.5763328     
  -65373598.2474656     
  -65343922.3631060     
  -65312660.4900439     
  -65279736.4580040     
  -65245071.3635269     
  -65208583.5817209     
  -65170188.7873952     
  -65129799.9871922     
  -65087327.5644437     
  -65042679.3386037     
  -64995760.6412273     
  -64946474.4106179     
  -64894721.3074085     
  -64840399.8535174     
  -64783406.5971012     
  -64723636.3063388     
  -64660982.1950974     
  -64595336.1837899     
  -64526589.1990011     
  -64454631.5157632     
  -64379353.1466910     
  -64300644.2825485     
  -64218395.7892066     
  -64132499.7663774     
  -64042850.1739488     
  -63949343.5322210     
  -63851879.7028143     
  -63750362.7574825     
  -63644701.9425045     
  -63534812.7466657     
  -63420618.0810622     
  -63302049.5789613     
  -63179049.0236157     
  -63051569.9111268     
  -62919579.1539673     
  -62783058.9283524     
  -62642008.6649494     
  -62496447.1770147     
  -62346414.9123939     
  -62191976.3052511     
  -62033222.1890929     
  -61870272.2136402     
  -61703277.1832635     
  -61532421.2027431     
  -61357923.4756543     
  -61180039.5502866     
  -60999061.7462601     
  -60815318.4206561     
  -60629171.6444817     
  -60441012.7576998     
  -60251255.1525241     
  -60060323.4968542     
  -59868638.4436909     
  -59676595.6557667     
  -59484537.6565921     
  -59292716.4915913     
  -59101244.2319228     
  -58910026.5803902     
  -58718671.5681265     
  -58526359.6495536     
  -58331652.7808905     
  -58132212.1985599     
  -57924417.8405354     
  -57703028.3879467     
  -57461358.4464535     
  -57192665.4380995     
  -65818709.3793956     
  -65813093.6732483     
  -65807829.0027080     
  -65802727.8554867     
  -65797611.0637629     
  -65792337.4490217     
  -65786804.4501466     
  -65780938.1653873     
  -65774683.8146286     
  -65767999.0797054     
  -65760849.7263182     
  -65753206.6729233     
  -65745043.9544575     
  -65736337.2546565     
  -65727062.8184729     
  -65717196.6332693     
  -65706713.8090061     
  -65695588.1101707     
  -65683791.6049706     
  -65671294.4052229     
  -65658064.4758171     
  -65644067.4967853     
  -65629266.7643872     
  -65613623.1204414     
  -65597094.9015206     
  -65579637.9016155     
  -65561205.3435318     
  -65541747.8556256     
  -65521213.4515677     
  -65499547.5116918     
  -65476692.7651546     
  -65452589.2726681     
  -65427174.4099662     
  -65400382.8524903     
  -65372146.5620180     
  -65342394.7761602     
  -65311054.0017966     
  -65278048.0136622     
  -65243297.8594046     
  -65206721.8725380     
  -65168235.6948260     
  -65127752.3097256     
  -65085182.0886353     
  -65040432.8518051     
  -64993409.9458956     
  -64944016.3403081     
  -64892152.7445616     
  -64837717.7491611     
  -64780607.9925855     
  -64720718.3572268     
  -64657942.1973396     
  -64592171.6023097     
  -64523297.6988187     
  -64451210.9957954     
  -64375801.7763632     
  -64296960.5413679     
  -64214578.5094643     
  -64128548.1791691     
  -64038763.9587524     
  -63945122.8703290     
  -63847525.3350144     
  -63745876.0465256     
  -63640084.9410871     
  -63530068.2719353     
  -63415749.7970350     
  -63297062.0887529     
  -63173947.9740799     
  -63046362.1134072     
  -62914272.7246609     
  -62777663.4575185     
  -62636535.4191567     
  -62490909.3480810     
  -62340827.9255235     
  -62186358.2040012     
  -62027594.1190741     
  -61864659.0321197     
  -61697708.2278843     
  -61526931.2593049     
  -61352553.9921009     
  -61174840.1512945     
  -60994092.1094263     
  -60810650.5801964     
  -60624892.7899941     
  -60437228.5917388     
  -60248093.8583874     
  -60057940.3430343     
  -59867221.0082129     
  -59676369.5841971     
  -59485772.7595551     
  -59295732.8194793     
  -59106417.4925735     
  -58917791.7950775     
  -58729522.9671424     
  -58540842.9749103     
  -58350342.1864808     
  -58155654.3360305     
  -57953005.2242464     
  -57736748.5290054     
  -57499432.3835122     
  -57233302.1087095     
  -65817661.8173269     
  -65812098.0307276     
  -65806919.0083377     
  -65801914.3219418     
  -65796888.6804252     
  -65791693.4088706     
  -65786223.8228578     
  -65780406.2988340     
  -65774187.2563424     
  -65767525.8804617     
  -65760389.4728914     
  -65752750.3959839     
  -65744583.9806439     
  -65735867.0376917     
  -65726576.7682087     
  -65716689.9532224     
  -65706182.3481073     
  -65695028.2314175     
  -65683200.0717248     
  -65670668.2846425     
  -65657401.0581702     
  -65643364.2289925     
  -65628521.1959897     
  -65612832.8602010     
  -65596257.5829686     
  -65578751.1560370     
  -65560266.7790647     
  -65540755.0413503     
  -65520163.9056554     
  -65498438.6928512     
  -65475522.0667685     
  -65451354.0191450     
  -65425871.8549461     
  -65399010.1786335     
  -65370700.8821893     
  -65340873.1358747     
  -65309453.3828560     
  -65276365.3389419     
  -65241529.9987910     
  -65204865.6500404     
  -65166287.8969088     
  -65125709.6949222     
  -65083041.3985241     
  -65038190.8234332     
  -64991063.3257479     
  -64941561.8999265     
  -64889587.2979249     
  -64835038.1719409     
  -64777811.2433927     
  -64717801.5009729     
  -64654902.4308325     
  -64589006.2822042     
  -64520004.3720523     
  -64447787.4326288     
  -64372246.0061589     
  -64293270.8912484     
  -64210753.6460026     
  -64124587.1532900     
  -64034666.2540701     
  -63940888.4552025     
  -63843154.7187021     
  -63741370.3399576     
  -63635445.9229722     
  -63525298.4612003     
  -63410852.5329794     
  -63292041.6208259     
  -63168809.5638921     
  -63041112.1525277     
  -62908918.8729674     
  -62772214.8084552     
  -62631002.7002685     
  -62485305.1677365     
  -62335167.0798977     
  -62180658.0622553     
  -62021875.1093173     
  -61858945.2562303     
  -61692028.2395871     
  -61521319.0469715     
  -61347050.2153472     
  -61169493.6881519     
  -60988961.9780195     
  -60805808.3043450     
  -60620425.2804632     
  -60433241.6117521     
  -60244716.1305629     
  -60055328.3311378     
  -59865564.3659687     
  -59675897.1979753     
  -59486759.2120444     
  -59298504.9502793     
  -59111360.4934569     
  -58925353.8722495     
  -58740216.8269635     
  -58555240.7308337     
  -58369056.5446101     
  -58179289.1170994     
  -57982033.1438916     
  -57771243.6565487     
  -57538645.0261063     
  -57275328.8146483     
  -65816591.1101846     
  -65811085.0752420     
  -65805999.8585719     
  -65801098.7431665     
  -65796169.1762533     
  -65791055.3299657     
  -65785651.0092648     
  -65779883.3108616     
  -65773700.1299050     
  -65767062.3290965     
  -65759938.8601138     
  -65752303.6067282     
  -65744133.2504184     
  -65735405.7683685     
  -65726099.3462076     
  -65716191.5790044     
  -65705658.8818020     
  -65694476.0567712     
  -65682615.9787791     
  -65670049.3704114     
  -65656744.6438842     
  -65642667.7921180     
  -65627782.3151000     
  -65612049.1708088     
  -65595426.7425563     
  -65577870.8167059     
  -65559334.5664286     
  -65539768.5385110     
  -65519120.6412933     
  -65497336.1326454     
  -65474357.6075231     
  -65450124.9851316     
  -65424575.4960905     
  -65397643.6702713     
  -65369261.3261932     
  -65339357.5630230     
  -65307858.7563636     
  -65274688.5591153     
  -65239767.9088052     
  -65203015.0428616     
  -65164345.5234066     
  -65123672.2732370     
  -65080905.6247616     
  -65035953.3837776     
  -64988720.9100877     
  -64939111.2170969     
  -64887025.0926741     
  -64832361.2437345     
  -64775016.4671699     
  -64714885.8499714     
  -64651863.0015990     
  -64585840.3219109     
  -64516709.3082331     
  -64444360.9054571     
  -64368685.9033906     
  -64289575.3859561     
  -64206921.2372463     
  -64120616.7098934     
  -64030557.0617048     
  -63936640.2670536     
  -63838767.8100742     
  -63736845.5673243     
  -63630784.7881703     
  -63520503.1817476     
  -63405926.1198922     
  -63286987.9658384     
  -63163633.5387041     
  -63035819.7236575     
  -62903517.2370403     
  -62766712.5543781     
  -62625410.0068210     
  -62479634.0477207     
  -62329431.6852567     
  -62174875.0685686     
  -62016064.2029094     
  -61853129.7528396     
  -61686235.8701468     
  -61515582.9534690     
  -61341410.2077485     
  -61163997.8215885     
  -60983668.5171444     
  -60800788.1479210     
  -60615764.9222723     
  -60429046.7116510     
  -60241115.7590655     
  -60052479.9285550     
  -59863659.4183046     
  -59675167.5707449     
  -59487483.9923069     
  -59301017.5141846     
  -59116055.3149118     
  -58932692.2540209     
  -58750730.0965397     
  -58569527.9998053     
  -58387770.7184800     
  -58203095.3339563     
  -58011494.5645297     
  -57806540.1344200     
  -57579074.4999601     
  -57318867.1691298     
  -65815494.7285631     
  -65810053.3305400     
  -65805071.2625658     
  -65800281.5153584     
  -65795453.1842387     
  -65790423.8758663     
  -65785086.6330622     
  -65779369.7618364     
  -65773222.9266118     
  -65766608.8500104     
  -65759498.2511285     
  -65751866.6141317     
  -65743692.0261042     
  -65734953.6697153     
  -65725630.7430721     
  -65715701.6749883     
  -65705143.5536834     
  -65693931.7137326     
  -65682039.4415030     
  -65669437.7690624     
  -65656095.3333582     
  -65641978.2826156     
  -65627050.2159774     
  -65611272.1457143     
  -65594602.4740051     
  -65576996.9784494     
  -65558408.8021896     
  -65538788.4458817     
  -65518083.7597999     
  -65496239.9351680     
  -65473199.4944305     
  -65448902.2806288     
  -65423285.4463974     
  -65396283.4433517     
  -65367828.0128324     
  -65337848.1791213     
  -65306270.2463624     
  -65273017.8005215     
  -65238011.7178060     
  -65201170.1810555     
  -65162408.7056960     
  -65121640.1769412     
  -65078774.9000303     
  -65033720.6653880     
  -64986382.8307236     
  -64936664.4222085     
  -64884466.2570280     
  -64829687.0897617     
  -64772223.7852259     
  -64711971.5206200     
  -64648824.0200358     
  -64582673.8246360     
  -64513412.6020869     
  -64440931.4991302     
  -64365121.5415235     
  -64285874.0859459     
  -64203081.3288924     
  -64116636.8780365     
  -64026436.3920517     
  -63932378.2954351     
  -63834364.5754858     
  -63732301.6692258     
  -63626101.4487256     
  -63515682.3139710     
  -63400970.4030515     
  -63281900.9300165     
  -63158419.6611403     
  -63030484.5404667     
  -62898067.4751848     
  -62761156.2904264     
  -62619756.8611522     
  -62473895.4255329     
  -62323621.0790914     
  -62169008.4412006     
  -62010160.4744519     
  -61847211.4218460     
  -61680329.8053805     
  -61509721.4007844     
  -61335632.0649699     
  -61158350.2430186     
  -60978208.9176476     
  -60795586.6834043     
  -60610907.5272225     
  -60424638.7730863     
  -60237286.4969666     
  -60049387.5320974     
  -59861496.9509141     
  -59674169.6006460     
  -59487933.8236324     
  -59303254.7796997     
  -59120483.5285106     
  -58939785.6627352     
  -58761038.6861838     
  -58583678.3255517     
  -58406457.2179627     
  -58227048.1121357     
  -58041377.5377459     
  -57842661.1696713     
  -57620803.5512291     
  -57364052.4817062     
  -65814369.8181147     
  -65809001.2310500     
  -65804133.0247787     
  -65799463.1550620     
  -65794741.4185569     
  -65789799.7592820     
  -65784531.3487519     
  -65778866.2318613     
  -65772756.1505895     
  -65766165.8759692     
  -65759068.0144082     
  -65751439.7303688     
  -65743260.5717003     
  -65734510.9653468     
  -65725171.1492205     
  -65715220.4048380     
  -65704636.5062935     
  -65693395.3285510     
  -65681470.5739213     
  -65668833.5857687     
  -65655453.2256727     
  -65641295.7957014     
  -65626324.9917519     
  -65610501.8773635     
  -65593784.8701701     
  -65576129.7353705     
  -65557489.5823333     
  -65537814.8618019     
  -65517053.3622056     
  -65495150.2043705     
  -65472047.8345060     
  -65447686.0157856     
  -65422001.8191588     
  -65394929.6142651     
  -65366401.0615037     
  -65336345.1064347     
  -65304687.9778056     
  -65271353.1905771     
  -65236261.5554045     
  -65199331.1961136     
  -65160477.5767836     
  -65119613.5401413     
  -65076649.3590650     
  -65031492.8030981     
  -64984049.2219944     
  -64934221.6484449     
  -64881910.9222820     
  -64827015.8386203     
  -64769433.3225699     
  -64709058.6333645     
  -64645785.6009590     
  -64579506.8984054     
  -64510114.3535897     
  -64437499.3042124     
  -64361553.0002394     
  -64282167.0584323     
  -64199233.9739837     
  -64112647.6947613     
  -64022304.2641834     
  -63928102.5393348     
  -63829944.9915539     
  -63727738.5974266     
  -63621395.8288382     
  -63510835.7515068     
  -63395985.2421726     
  -63276780.3353334     
  -63153167.7110071     
  -63025106.3353763     
  -62892569.2661664     
  -62755545.6340439     
  -62614042.8098780     
  -62468088.7650309     
  -62317734.6274014     
  -62163057.4290782     
  -62004163.0312851     
  -61841189.1977322     
  -61674308.7671139     
  -61503732.8476410     
  -61329713.9190765     
  -61152548.6783660     
  -60972580.4008026     
  -60790200.5066047     
  -60605848.9192958     
  -60420012.6733840     
  -60233222.0695255     
  -60046043.4782511     
  -59859067.6450035     
  -59672892.0219889     
  -59488095.1858465     
  -59305200.6638321     
  -59124626.2040171     
  -58946612.1014228     
  -58771117.4539547     
  -58597663.6685001     
  -58425086.0909543     
  -58251118.5785898     
  -58071664.2539906     
  -57879625.4376519     
  -57663919.5963396     
  -57411036.4135305     
  -65813213.1328930     
  -65807927.1262448     
  -65803185.0818697     
  -65798644.3200783     
  -65794034.6801348     
  -65789183.7435924     
  -65783985.8421548     
  -65778373.3207569     
  -65772300.3185801     
  -65765733.8478078     
  -65758648.5234279     
  -65751023.2704840     
  -65742839.1525683     
  -65734077.8791745     
  -65724720.7546299     
  -65714747.9312816     
  -65704137.8809312     
  -65692867.0260643     
  -65680909.4885801     
  -65668236.9242337     
  -65654818.4185010     
  -65640620.4252833     
  -65625606.7343683     
  -65609738.4571554     
  -65592974.0230045     
  -65575269.1808216     
  -65556577.0022480     
  -65536847.8841640     
  -65516029.5492441     
  -65494067.0440566     
  -65470902.7347647     
  -65446476.3008987     
  -65420724.7279623     
  -65393582.2998486     
  -65364980.5922035     
  -65334848.4679856     
  -65303112.0765659     
  -65269694.8577868     
  -65234517.5524768     
  -65197498.2209767     
  -65158552.2713219     
  -65117592.4987973     
  -65074529.1386753     
  -65029269.9340501     
  -64981720.2207972     
  -64931783.0318143     
  -64879359.2228402     
  -64824347.6223209     
  -64766645.2079516     
  -64706147.3127409     
  -64642747.8636505     
  -64576339.6561153     
  -64506814.6680243     
  -64434064.4170424     
  -64357980.3654997     
  -64278454.3774567     
  -64195379.2329840     
  -64108649.2051725     
  -64018160.7059368     
  -63923813.0072664     
  -63825509.0452551     
  -63723156.3149654     
  -63616667.8649843     
  -63505963.4013694     
  -63390970.5115596     
  -63271626.0196846     
  -63147877.4855016     
  -63019684.8598084     
  -62887022.3095121     
  -62749880.2253533     
  -62608267.4243615     
  -62462213.5570252     
  -62311771.7254529     
  -62157021.3127623     
  -61998071.0147231     
  -61835062.0511390     
  -61668171.5151752     
  -61497615.7920151     
  -61323653.9416828     
  -61146590.8919735     
  -60966780.2231115     
  -60784626.2424916     
  -60600584.9416318     
  -60415163.2937598     
  -60228916.1836765     
  -60042440.0538879     
  -59856362.0890536     
  -59671323.4177173     
  -59487954.3278865     
  -59306838.7438848     
  -59128463.9188276     
  -58953148.8584563     
  -58780940.1998523     
  -58611454.3730154     
  -58443624.8403914     
  -58275273.5797088     
  -58102330.0079510     
  -57917445.2693343     
  -57708514.5274305     
  -57459990.2940756     
  -65812020.9507832     
  -65806829.2933543     
  -65802227.5510497     
  -65797825.8313197     
  -65793333.8606222     
  -65788576.6438405     
  -65783450.8306531     
  -65777891.6478611     
  -65771855.9596358     
  -65765313.2140787     
  -65758240.1563012     
  -65750617.5520383     
  -65742428.0351002     
  -65733654.6351052     
  -65724279.7485674     
  -65714284.4158791     
  -65703647.8174530     
  -65692346.9295304     
  -65680356.2964097     
  -65667647.8865797     
  -65654191.0080194     
  -65639952.2638898     
  -65624895.5345303     
  -65608981.9753981     
  -65592170.0235290     
  -65574415.4073808     
  -65555671.1567044     
  -65535887.6104003     
  -65515012.4213431     
  -65492990.5578758     
  -65469764.3022185     
  -65445273.2464123     
  -65419454.2866944     
  -65392241.6173890     
  -65363566.7255327     
  -65333358.3875600     
  -65301542.6694435     
  -65268042.9317548     
  -65232779.8411768     
  -65195671.3900509     
  -65156632.9256264     
  -65115577.1907415     
  -65072414.3777646     
  -65027052.1977170     
  -64979395.9666126     
  -64929348.7111763     
  -64876811.2962467     
  -64821682.5763229     
  -64763859.5738984     
  -64703237.6874168     
  -64639710.9319039     
  -64573172.2155814     
  -64503513.6560309     
  -64430626.9397906     
  -64354403.7296079     
  -64274736.1239540     
  -64191517.1738466     
  -64104641.4625148     
  -64014005.7539929     
  -63919509.7173586     
  -63821056.7340219     
  -63718554.7962584     
  -63611917.5060301     
  -63501065.1840781     
  -63385926.1002519     
  -63266437.8370585     
  -63142548.7994098     
  -63014219.8844263     
  -62881426.3258067     
  -62744159.7275240     
  -62602430.3011768     
  -62456269.3198701     
  -62305731.7985326     
  -62150899.4054159     
  -61991883.6012933     
  -61828828.9904496     
  -61661916.8494128     
  -61491368.7736862     
  -61317450.3471594     
  -61140474.6905934     
  -60960805.6812201     
  -60778860.5511743     
  -60595111.4637073     
  -60410085.5278046     
  -60224362.5378727     
  -60038569.5074408     
  -59853370.7911854     
  -59669452.2326751     
  -59487497.2814901     
  -59308152.2708974     
  -59131976.7700226     
  -58959372.5164545     
  -58790479.6685709     
  -58625019.1474835     
  -58462038.3666065     
  -58299475.4767919     
  -58133342.1157297     
  -57956124.2732522     
  -57754684.1078900     
  -57511109.3244131     
  -65810788.9645146     
  -65805705.9639408     
  -65801260.7929935     
  -65797008.6940297     
  -65792639.9441970     
  -65787979.3272877     
  -65782927.0631207     
  -65777421.8516403     
  -65771423.6147242     
  -65764904.4306430     
  -65757843.2953826     
  -65750222.8947315     
  -65742027.4863688     
  -65733241.4567260     
  -65723848.3193130     
  -65713830.0187834     
  -65703166.4540699     
  -65691835.1604582     
  -65679811.1065848     
  -65667066.5732343     
  -65653571.0888161     
  -65639291.4025977     
  -65624191.4816442     
  -65608232.5212669     
  -65591372.9617964     
  -65573568.5068255     
  -65554772.1398384     
  -65534934.1374699     
  -65514002.0786151     
  -65491920.8493190     
  -65468632.6438743     
  -65444076.9629170     
  -65418190.6095406     
  -65390907.6846269     
  -65362159.5827029     
  -65331874.9897151     
  -65299979.8841758     
  -65266397.5431935     
  -65231048.5549467     
  -65193850.8392216     
  -65154719.6776917     
  -65113567.7556964     
  -65070305.2173515     
  -65024839.7359258     
  -64977076.6015287     
  -64926918.8282719     
  -64874267.2832167     
  -64819020.8395676     
  -64761076.5567533     
  -64700329.8902319     
  -64636674.9340687     
  -64570004.6995873     
  -64500211.4336600     
  -64427186.9805140     
  -64350823.1912692     
  -64271012.3858169     
  -64187647.8720861     
  -64100624.5282459     
  -64009839.4539575     
  -63915192.6974396     
  -63816588.0658354     
  -63713934.0272005     
  -63607144.7133441     
  -63496141.0337831     
  -63380851.9121661     
  -63261215.6576993     
  -63137181.4853029     
  -63008711.1993691     
  -62875781.0569825     
  -62738383.8271355     
  -62596531.0625683     
  -62450255.6000471     
  -62299614.3026988     
  -62144691.0537688     
  -61985600.0039780     
  -61822489.0633832     
  -61655543.6117322     
  -61484990.3768237     
  -61311101.3958880     
  -61134197.9274528     
  -60954654.1169413     
  -60772900.1340355     
  -60589424.3887234     
  -60404774.2902409     
  -60219554.8322874     
  -60034424.0605471     
  -59850084.1921417     
  -59667266.7877069     
  -59486709.8760284     
  -59309124.1847596     
  -59135144.3891536     
  -58965258.9653829     
  -58799707.5612876     
  -58638325.0593303     
  -58480288.9306171     
  -58323682.0470979     
  -58164658.8612768     
  -57995654.2385047     
  -57802526.6865441     
  -57564617.9882165     
  -65809512.1387645     
  -65804555.3734915     
  -65800285.4927445     
  -65796194.1155702     
  -65791954.0068064     
  -65787392.7137038     
  -65782415.3194593     
  -65776964.5891189     
  -65771003.8362457     
  -65764507.9601994     
  -65757458.3268315     
  -65749839.6199997     
  -65741637.7737621     
  -65732838.5669772     
  -65723426.6538726     
  -65713384.8984914     
  -65702693.9271388     
  -65691331.8384344     
  -65679274.0263815     
  -65666493.0828148     
  -65652958.7537996     
  -65638637.9309596     
  -65623494.6637620     
  -65607490.1827573     
  -65590582.9268594     
  -65572728.5701080     
  -65553880.0451324     
  -65533987.5618456     
  -65512998.6208501     
  -65490858.0217121     
  -65467507.8667308     
  -65442887.5611511     
  -65416933.8109881     
  -65389580.6197603     
  -65360759.2855410     
  -65330398.3997847     
  -65298423.8494445     
  -65264758.8239340     
  -65229323.8285301     
  -65192036.7058648     
  -65152812.6672051     
  -65111564.3352914     
  -65068201.8005880     
  -65022632.6928784     
  -64974762.2702667     
  -64924493.5277487     
  -64871727.3276669     
  -64816362.5545112     
  -64758296.2967103     
  -64697424.0582384     
  -64633640.0030925     
  -64566837.2359294     
  -64496908.1224229     
  -64423744.6532116     
  -64347238.8556490     
  -64267283.2579584     
  -64183771.4108431     
  -64096598.4721090     
  -64005661.8604380     
  -63910861.9851203     
  -63812103.0593137     
  -63709294.0052624     
  -63602349.4609040     
  -63491190.8983842     
  -63375747.8662312     
  -63255959.3682661     
  -63131775.3937245     
  -63003158.6144813     
  -62870086.2665999     
  -62732552.2345278     
  -62590569.3568979     
  -62444171.9727430     
  -62293418.7255255     
  -62138395.6390803     
  -61979219.4734571     
  -61816041.3585949     
  -61649050.6881449     
  -61478479.2325982     
  -61304605.3975627     
  -61127758.5063858     
  -60948322.9223772     
  -60766741.7400059     
  -60583519.6611867     
  -60399224.5259490     
  -60214486.7793725     
  -60029995.9201672     
  -59846492.6788933     
  -59664755.2945914     
  -59485577.7545126     
  -59309737.1309854     
  -59137945.9598830     
  -58970783.4198183     
  -58808594.5561789     
  -58651337.5490304     
  -58498336.1297695     
  -58347846.5099486     
  -58196228.6095589     
  -58036011.1491592     
  -57852140.7794620     
  -57620777.1389738     
  -65808184.5191609     
  -65803375.8494981     
  -65799302.7616561     
  -65795383.5152098     
  -65791277.2130026     
  -65786817.7755851     
  -65781916.4096078     
  -65776520.5351615     
  -65770597.1874569     
  -65764124.2717556     
  -65757085.6401464     
  -65749468.0505883     
  -65741259.1645985     
  -65732446.1878108     
  -65723014.9376799     
  -65712949.2115912     
  -65702230.3709479     
  -65690837.0809454     
  -65678745.1610327     
  -65665927.5120113     
  -65652354.0941044     
  -65637991.9369302     
  -65622805.1675241     
  -65606755.0466444     
  -65589800.0067369     
  -65571895.6873314     
  -65552994.9653974     
  -65533047.9795009     
  -65512002.1475049     
  -65489802.1782122     
  -65466390.0777756     
  -65441705.1519986     
  -65415684.0058265     
  -65388260.5414466     
  -65359365.9564932     
  -65328928.7438865     
  -65296874.6948842     
  -65263126.9069359     
  -65227605.7979819     
  -65190229.1288623     
  -65150912.0355624     
  -65109567.0730806     
  -65066104.2727798     
  -65020431.2151739     
  -64972453.1202045     
  -64922072.9571885     
  -64869191.5767429     
  -64813707.8671569     
  -64755518.9378494     
  -64694520.3327374     
  -64630606.2765632     
  -64563669.9574646     
  -64493603.8493403     
  -64420300.0778763     
  -64343650.8344293     
  -64263548.8423730     
  -64179887.8809509     
  -64092563.3722018     
  -64001473.0371165     
  -63906517.6278738     
  -63807601.7437978     
  -63704634.7395839     
  -63597531.7353986     
  -63486214.7396453     
  -63370613.8965205     
  -63250668.8719850     
  -63126330.3933705     
  -62997561.9595297     
  -62864341.7401205     
  -62726664.6841486     
  -62584544.8590875     
  -62438018.0424161     
  -62287144.5868368     
  -62132012.5780932     
  -61972741.2993476     
  -61809485.0072775     
  -61642437.0108304     
  -61471834.0218143     
  -61297960.7145303     
  -61121154.3860320     
  -60941809.5451377     
  -60760382.1719745     
  -60577393.2746846     
  -60393431.2192551     
  -60209152.1147735     
  -60025277.2911768     
  -59842586.5988830     
  -59661905.8718218     
  -59484086.3908106     
  -59309973.4791106     
  -59140360.2384887     
  -58975920.4406865     
  -58817110.3358737     
  -58664020.4696827     
  -58516136.8763887     
  -58371917.6701674     
  -58227989.3109932     
  -58077150.1592637     
  -57903620.7573626     
  -57679893.4637212     
  -65806798.9713832     
  -65802165.9646828     
  -65798314.2610911     
  -65794578.5190827     
  -65790610.8117301     
  -65786255.5382742     
  -65781431.1718752     
  -65776090.3816856     
  -65770204.2417773     
  -65763753.8400424     
  -65756725.6276588     
  -65749108.5100978     
  -65740891.9257249     
  -65732064.5398369     
  -65722613.3542914     
  -65712523.1125008     
  -65701775.9174977     
  -65690351.0031958     
  -65678224.6135801     
  -65665369.9554679     
  -65651757.1989980     
  -65637353.5067923     
  -65622123.0781024     
  -65606027.1984364     
  -65589024.2883813     
  -65571069.9477237     
  -65552116.9927546     
  -65532115.4858975     
  -65511012.7576965     
  -65488753.4218007     
  -65465279.3839837     
  -65440529.8464896     
  -65414441.3091503     
  -65386947.5688077     
  -65357979.7186311     
  -65327466.1489287     
  -65295332.5510892     
  -65261501.9262958     
  -65225894.6006796     
  -65188428.2486123     
  -65149017.9258823     
  -65107576.1145570     
  -65064012.7814034     
  -65018235.4518278     
  -64970149.3013991     
  -64919657.2671320     
  -64866660.1808493     
  -64811056.9270861     
  -64752744.6281721     
  -64691618.8593192     
  -64627573.8967505     
  -64560503.0021522     
  -64490298.7469906     
  -64416853.3805469     
  -64340059.2458644     
  -64259809.2481952     
  -64175997.3809971     
  -64088519.3150439     
  -63997273.0568228     
  -63902159.6831119     
  -63803084.1594354     
  -63699956.2510630     
  -63592691.5363272     
  -63481212.5333054     
  -63365449.9523755     
  -63245344.0887935     
  -63120846.3712631     
  -62991921.0844175     
  -62858547.2851711     
  -62720720.9348865     
  -62578457.2710467     
  -62431793.4433545     
  -62280791.4394334     
  -62125541.3239800     
  -61966164.8114335     
  -61802819.1847618     
  -61635701.5602021     
  -61465053.4775622     
  -61291165.7651619     
  -61114383.5840870     
  -60935111.4936448     
  -60753818.2933310     
  -60571041.2798456     
  -60387389.4034788     
  -60203544.6085986     
  -60020260.3894338     
  -59838356.2749109     
  -59658706.5612227     
  -59482221.1080798     
  -59309815.3427488     
  -59142365.5769192     
  -58980643.9625738     
  -58825223.6181271     
  -58676336.1594428     
  -58533645.3803900     
  -58395840.1120698     
  -58259868.7332966     
  -58118999.4915224     
  -57957049.3252543     
  -57742332.3989271     
  -65805346.8158336     
  -65800924.8023921     
  -65797322.3415242     
  -65793780.9313833     
  -65789956.1345320     
  -65785707.0792574     
  -65780960.4706001     
  -65775674.8368872     
  -65769825.5819375     
  -65763397.1448947     
  -65756378.6839921     
  -65748761.3225066     
  -65740536.3230975     
  -65731693.8419565     
  -65722222.0850695     
  -65712106.7531993     
  -65701330.6962775     
  -65689873.7179256     
  -65677712.4847262     
  -65664820.5056643     
  -65651168.1557854     
  -65636722.7250838     
  -65621448.4791428     
  -65605306.7223342     
  -65588255.8576451     
  -65570251.4396150     
  -65551246.2186189     
  -65531190.1759737     
  -65510030.5501927     
  -65487711.8552796     
  -65464175.8923149     
  -65439361.7558009     
  -65413205.8363594     
  -65385641.8214311     
  -65356600.6956558     
  -65326010.7426144     
  -65293797.5496217     
  -65259884.0172568     
  -65224190.3753337     
  -65186634.2070426     
  -65147130.4830199     
  -65105591.6071705     
  -65061927.4761241     
  -65016045.5542936     
  -64967850.9666087     
  -64917246.6111034     
  -64864133.2936763     
  -64808409.8874885     
  -64749973.5196334     
  -64688719.7878968     
  -64624543.0106437     
  -64557336.5130985     
  -64486992.9535555     
  -64413404.6933580     
  -64336464.2148333     
  -64256064.5917561     
  -64172100.0173855     
  -64084466.3956412     
  -63993062.0016032     
  -63897788.2182593     
  -63798550.3572586     
  -63695258.5724429     
  -63587828.8760924     
  -63476184.2691818     
  -63360255.9985252     
  -63239984.9554800     
  -63115323.2329176     
  -62986235.8593869     
  -62852702.7317980     
  -62714720.7703943     
  -62572306.3220919     
  -62425497.8402197     
  -62274358.8698053     
  -62118981.3672779     
  -61959489.3808917     
  -61796043.1121099     
  -61628843.3669736     
  -61458136.3878788     
  -61284219.0272531     
  -61107444.1816043     
  -60928226.3425175     
  -60747047.0346279     
  -60564459.7924782     
  -60381094.1707360     
  -60197658.0770408     
  -60014937.4553177     
  -59833792.0206658     
  -59655145.3454257     
  -59479967.0983547     
  -59309244.6015434     
  -59143939.9475044     
  -58984927.3286241     
  -58832902.1855678     
  -58688245.5467510     
  -58550813.1719498     
  -58419554.2734170     
  -58291785.8607188     
  -58161453.5711044     
  -58012484.4779194     
  -57808536.2009552     
  -65803817.3014104     
  -65799652.4192488     
  -65796330.1723091     
  -65792992.6734061     
  -65789314.6024502     
  -65785173.5243493     
  -65780505.1937013     
  -65775274.6244283     
  -65769461.7989514     
  -65763054.6706201     
  -65756045.2054659     
  -65748426.8116738     
  -65740192.6213436     
  -65731334.3109823     
  -65721841.3088577     
  -65711700.2829531     
  -65700894.8340373     
  -65689405.3352217     
  -65677208.8726810     
  -65664279.2527930     
  -65650587.0497144     
  -65636099.6745222     
  -65620781.4527087     
  -65604593.7011845     
  -65587494.7992492     
  -65569440.2504125     
  -65550382.7336806     
  -65530272.1441311     
  -65509055.6234046     
  -65486677.5812664     
  -65463079.7097101     
  -65438200.9912533     
  -65411977.7031616     
  -65384343.4193742     
  -65355229.0119012     
  -65324562.6534488     
  -65292269.8230192     
  -65258273.3162164     
  -65222493.2619975     
  -65184847.1476214     
  -65145249.8535795     
  -65103613.7003419     
  -65059848.5088136     
  -65013861.6764806     
  -64965558.2713155     
  -64914841.1456358     
  -64861611.0722259     
  -64805766.9051915     
  -64747205.7681739     
  -64685823.2727426     
  -64621513.7699917     
  -64554170.6385975     
  -64483686.6128645     
  -64409954.1545869     
  -64332865.8728926     
  -64252314.9966400     
  -64168195.9043940     
  -64080404.7175487     
  -63988839.9627861     
  -63893403.3108236     
  -63794000.3992600     
  -63690541.7483921     
  -63582943.7800901     
  -63471129.9512701     
  -63355032.0151988     
  -63234591.4258156     
  -63109760.9024982     
  -62980506.1752108     
  -62846807.9327091     
  -62708663.9994016     
  -62566091.7693516     
  -62419130.9285770     
  -62267846.4988288     
  -62112332.2368075     
  -61952714.4214991     
  -61789156.0577005     
  -61621861.5142231     
  -61451081.5984154     
  -61277119.0414431     
  -61100334.3273363     
  -60921151.7380278     
  -60740065.4003583     
  -60557645.0018840     
  -60374540.6819843     
  -60191486.3943440     
  -60009300.7677481     
  -59828884.1568798     
  -59651210.1662726     
  -59477309.4430591     
  -59308242.9255168     
  -59145060.9681265     
  -58988743.3340661     
  -58840112.9171081     
  -58699708.2605744     
  -58567589.2764874     
  -58442996.0903387     
  -58323653.8738505     
  -58204366.6103302     
  -58069936.7395873     
  -57879049.9556505     
  -65802196.8226295     
  -65798350.6633824     
  -65795341.7926940     
  -65792215.6928473     
  -65788687.7491606     
  -65784656.0362810     
  -65780066.2519201     
  -65774890.4820448     
  -65769113.4910499     
  -65762726.9053368     
  -65755725.5894546     
  -65748105.3008275     
  -65739861.0833009     
  -65730986.1612463     
  -65721471.2016449     
  -65711303.8480337     
  -65700468.4545537     
  -65688945.9623286     
  -65676713.8730102     
  -65663746.2846397     
  -65650013.9638801     
  -65635484.4359315     
  -65620122.0792239     
  -65603888.2164398     
  -65586741.1967507     
  -65568636.4665776     
  -65549526.6278894     
  -65529361.4842245     
  -65508088.0753795     
  -65485650.7021892     
  -65461990.9430914     
  -65437047.6643147     
  -65410757.0255737     
  -65383052.4831675     
  -65353864.7923402     
  -65323122.0107442     
  -65290749.5047998     
  -65256669.9607350     
  -65220803.4020765     
  -65183067.2153689     
  -65143376.1859281     
  -65101642.5454767     
  -65057776.0335664     
  -65011683.9747727     
  -64963271.3737444     
  -64912441.0302926     
  -64859093.6768391     
  -64803128.1406891     
  -64744441.5337520     
  -64682929.4725226     
  -64618486.3313395     
  -64551005.5321714     
  -64480379.8744406     
  -64406501.9087022     
  -64329264.3583255     
  -64248560.5937361     
  -64164285.1642318     
  -64076334.3929301     
  -63984607.0410462     
  -63889005.0484630     
  -63789434.3584647     
  -63685805.8355825     
  -63578036.2867937     
  -63466049.5978378     
  -63349777.9982333     
  -63229163.4706768     
  -63104159.3229680     
  -62974731.9433790     
  -62840862.7635068     
  -62702550.4560131     
  -62559813.3981548     
  -62412692.4354106     
  -62261253.9824492     
  -62105593.5005767     
  -61945839.3908273     
  -61782157.3387979     
  -61614755.1394467     
  -61443888.0151042     
  -61269864.4146476     
  -61093052.2421117     
  -60913885.4036217     
  -60732870.4758395     
  -60550593.1793289     
  -60367724.1773152     
  -60185023.5051034     
  -60003342.6586983     
  -59823623.0280492     
  -59646888.9442658     
  -59474233.1342328     
  -59306791.8018835     
  -59145705.9288021     
  -58992064.2713812     
  -58846821.8477205     
  -58710682.6570145     
  -58583920.7631633     
  -58466095.8421753     
  -58355384.5922309     
  -58247550.0596801     
  -58129328.8887403     
  -57954560.2464310     
  -65800467.7115654     
  -65797024.6515922     
  -65794361.9089441     
  -65791451.8879443     
  -65788077.2584131     
  -65784155.7912137     
  -65779644.5829008     
  -65774523.1581299     
  -65768781.2631557     
  -65762414.3400856     
  -65755420.2337544     
  -65747797.1120204     
  -65739541.9695415     
  -65730649.6041980     
  -65721111.9362204     
  -65710917.5914320     
  -65700051.6783937     
  -65688495.7034555     
  -65676227.5784809     
  -65663221.6864596     
  -65649448.9791295     
  -65634877.0881685     
  -65619470.4374165     
  -65603190.3481143     
  -65585995.1325113     
  -65567840.1736033     
  -65548677.9904379     
  -65528458.2895491     
  -65507128.0037923     
  -65484631.3202826     
  -65460909.6993584     
  -65435901.8865973     
  -65409543.9199231     
  -65381769.1338158     
  -65352508.1625876     
  -65321688.9446258     
  -65289236.7294706     
  -65255074.0895438     
  -65219120.9383384     
  -65181294.5568676     
  -65141509.6302072     
  -65099678.2959808     
  -65055710.2067142     
  -65009512.6080470     
  -64960990.4348856     
  -64910046.4276913     
  -64856581.2712187     
  -64800493.7581684     
  -64741680.9803738     
  -64680038.5503291     
  -64615460.8560643     
  -64547841.3526091     
  -64477072.8935397     
  -64403048.1064078     
  -64325659.8161904     
  -64244801.5212909     
  -64160367.9270933     
  -64072255.5426169     
  -63980363.3464660     
  -63884593.5290518     
  -63784852.3189990     
  -63681050.9027631     
  -63573106.4478333     
  -63460943.2415122     
  -63344493.9591709     
  -63223701.0781640     
  -63098518.4562281     
  -62968913.0962696     
  -62834867.1229083     
  -62696379.9999938     
  -62553471.0224081     
  -62406182.1196206     
  -62254581.0123434     
  -62098764.7666621     
  -61938863.7914151     
  -61775046.3231058     
  -61607523.4365974     
  -61436554.6068175     
  -61262453.8234951     
  -61085596.2232362     
  -60906425.1454929     
  -60725459.4341917     
  -60543300.6866673     
  -60360639.9864822     
  -60178263.4368823     
  -59997055.5282030     
  -59817999.0197547     
  -59642169.5988380     
  -59470723.0973488     
  -59304872.5611496     
  -59145851.8293275     
  -58994861.9487599     
  -58852994.3274375     
  -58721125.6075291     
  -58599753.8869844     
  -58488776.2905291     
  -58386892.1866696     
  -58290782.5454023     
  -58190423.2258575     
  -58035954.7866820     
  -65798606.2961506     
  -65795685.5043315     
  -65793395.0147999     
  -65790703.2209156     
  -65787484.9635665     
  -65783673.9542535     
  -65779241.1596963     
  -65774173.4051759     
  -65768465.7277552     
  -65762117.4672782     
  -65755129.5361668     
  -65747502.5654701     
  -65739235.5379112     
  -65730324.8479776     
  -65720763.6818257     
  -65710541.6525623     
  -65699644.6226739     
  -65688054.6595810     
  -65675750.0789045     
  -65662705.5408550     
  -65648892.1739647     
  -65634277.7080487     
  -65618826.6042630     
  -65602500.1747430     
  -65585256.6876665     
  -65567051.4559913     
  -65547836.9097461     
  -65527562.6528311     
  -65506175.5059399     
  -65483619.5375843     
  -65459836.0853875     
  -65434763.7698593     
  -65408338.5028483     
  -65380493.4928033     
  -65351159.2489040     
  -65320263.5860353     
  -65287731.6325320     
  -65253485.8425521     
  -65217446.0149204     
  -65179529.3202731     
  -65139650.3383447     
  -65097721.1072723     
  -65053651.1868437     
  -65007347.7376904     
  -64958715.6185116     
  -64907657.5035244     
  -64854074.0224556     
  -64797863.9255376     
  -64738924.2761223     
  -64677150.6737126     
  -64612437.5104106     
  -64544678.2640060     
  -64473765.8311927     
  -64399592.9046870     
  -64322052.3983683     
  -64241037.9249578     
  -64156444.3312116     
  -64068168.2961615     
  -63976108.9985923     
  -63880168.8607403     
  -63780254.3761558     
  -63676277.0308283     
  -63568154.3280719     
  -63455810.9293632     
  -63339179.9253555     
  -63218204.2537083     
  -63092838.2832492     
  -62963049.5873119     
  -62828820.9329519     
  -62690152.5170393     
  -62547064.4849524     
  -62399599.7725017     
  -62247827.3165595     
  -62091845.6840714     
  -61931787.1719195     
  -61767822.4302961     
  -61600165.6581075     
  -61429080.4080167     
  -61254886.0177678     
  -61077964.6489128     
  -60898768.8582032     
  -60717829.5434053     
  -60535763.9851180     
  -60353283.5396336     
  -60171200.3132185     
  -59990431.8596398     
  -59812002.5771724     
  -59637040.0678504     
  -59466764.2197279     
  -59302466.3926737     
  -59145475.4495336     
  -58997107.6397193     
  -58858595.3351009     
  -58730992.0688696     
  -58615035.2802535     
  -58510952.6821621     
  -58418087.5748145     
  -58333853.1066320     
  -58252686.8859287     
  -58124418.2148301     
  -65796579.6377958     
  -65794355.5566213     
  -65792442.8328259     
  -65789972.5595727     
  -65786912.5755799     
  -65783211.7435435     
  -65778856.9724952     
  -65773841.9801322     
  -65768167.5042260     
  -65761836.7792371     
  -65754853.8941534     
  -65747221.9787885     
  -65738942.0431031     
  -65730012.0969490     
  -65720426.6038050     
  -65710176.1669584     
  -65699247.4008174     
  -65687622.9282562     
  -65675281.4609821     
  -65662197.9276524     
  -65648343.6244501     
  -65633686.3702742     
  -65618190.6549338     
  -65601817.7733410     
  -65584525.9420964     
  -65566270.3972307     
  -65547003.4734447     
  -65526674.6662166     
  -65505230.6787336     
  -65482615.4559302     
  -65458770.2080292     
  -65433633.4260040     
  -65407140.8913021     
  -65379225.6820946     
  -65349818.1782003     
  -65318846.0667381     
  -65286234.3504862     
  -65251905.3608543     
  -65215778.7773397     
  -65177771.6553231     
  -65137798.4640664     
  -65095771.1367956     
  -65051599.1348093     
  -65005189.5276166     
  -64956447.0911977     
  -64905274.4265805     
  -64851572.1010498     
  -64795238.8144500     
  -64736171.5931853     
  -64674266.0147137     
  -64609416.4655233     
  -64541516.4357980     
  -64470458.8542459     
  -64396136.4668449     
  -64318442.2636063     
  -64237269.9578441     
  -64152514.5229084     
  -64064072.7918924     
  -63971844.1264942     
  -63875731.1620146     
  -63775640.6364555     
  -63671484.3128853     
  -63563180.0056737     
  -63450652.7229803     
  -63333835.9400155     
  -63212673.0201730     
  -63087118.8041918     
  -62957141.3911371     
  -62822724.1391911     
  -62683867.9190305     
  -62540593.6579032     
  -62392945.2182000     
  -62240992.6601376     
  -62084835.9435768     
  -61924609.1282389     
  -61760485.1335115     
  -61592681.1168820     
  -61421464.5213773     
  -61247159.8238276     
  -61070155.9826646     
  -60890914.5303454     
  -60709978.1734630     
  -60527979.6442104     
  -60345650.3781502     
  -60163828.3671951     
  -59983464.2348838     
  -59805624.2254729     
  -59631488.3253508     
  -59462341.3845169     
  -59299554.3566324     
  -59144553.4148997     
  -58998772.1084714     
  -58863589.4513945     
  -58740235.9705526     
  -58629708.7840369     
  -58532546.1156177     
  -58448836.9738922     
  -58376687.0872464     
  -58315035.2009820     
  -58221592.9731928     
  -65794339.7876189     
  -65793078.5949709     
  -65791497.7111414     
  -65789266.7628797     
  -65786360.3356235     
  -65782770.9667036     
  -65778492.8123793     
  -65773529.7247849     
  -65767887.1864190     
  -65761572.7790392     
  -65754593.6997241     
  -65746955.6679914     
  -65738661.7355372     
  -65729711.5514812     
  -65720100.8631570     
  -65709821.2659967     
  -65698860.1222958     
  -65687200.6034073     
  -65674821.8081440     
  -65661698.9237807     
  -65647803.4041150     
  -65633103.1473608     
  -65617562.6627385     
  -65601143.2193625     
  -65583802.9743953     
  -65565497.0797773     
  -65546177.7683634     
  -65525794.4212619     
  -65504293.6186932     
  -65481619.1769507     
  -65457712.1741079     
  -65432510.9670808     
  -65405951.2025520     
  -65377965.8241375     
  -65348485.0780408     
  -65317436.5193262     
  -65284745.0208411     
  -65250332.7867378     
  -65214119.3724999     
  -65176021.7133477     
  -65135954.1629063     
  -65093828.5440331     
  -65049554.2137479     
  -65003038.1442817     
  -64954185.0223385     
  -64902897.3687637     
  -64849075.6809345     
  -64792618.6003300     
  -64733423.1078825     
  -64671384.7498916     
  -64606397.8974813     
  -64538356.0427983     
  -64467152.1353963     
  -64392678.9625489     
  -64314829.5775628     
  -64233497.7805581     
  -64148578.6566416     
  -64059969.1769628     
  -63967568.8688150     
  -63871280.5617513     
  -63771011.2177031     
  -63666672.8543119     
  -63558183.5721708     
  -63445468.6985420     
  -63328462.0623462     
  -63207107.4179452     
  -63081360.0385179     
  -62951188.5037176     
  -62816576.7108745     
  -62677526.1442709     
  -62534058.4429701     
  -62386218.3141487     
  -62234076.8457010     
  -62077735.2785215     
  -61917329.3046056     
  -61753033.9608372     
  -61585069.1882657     
  -61413706.1203946     
  -61239274.1480245     
  -61062168.7777721     
  -60882860.2501986     
  -60701902.8036170     
  -60519944.3506214     
  -60337736.1663279     
  -60156141.9535841     
  -59976145.3545873     
  -59798854.5782835     
  -59625502.4336402     
  -59457439.4169676     
  -59296117.6306266     
  -59143061.6566622     
  -58999827.1978075     
  -58867936.8930626     
  -58748820.8465370     
  -58643689.0292051     
  -58553549.8421246     
  -58478809.9883663     
  -58419671.1542630     
  -58375327.5220152     
  -58329862.4461844     
