# vtk DataFile Version 3.0
vtk output
ASCII
DATASET UNSTRUCTURED_GRID
POINTS      1225 double 
  0.00000000E+00  2.40000000E+01  0.00000000E+00
  0.00000000E+00  2.30000000E+01  0.00000000E+00
  0.00000000E+00  2.20000000E+01  0.00000000E+00
  0.00000000E+00  2.10000000E+01  0.00000000E+00
  0.00000000E+00  2.00000000E+01  0.00000000E+00
  0.00000000E+00  1.90000000E+01  0.00000000E+00
  0.00000000E+00  1.80000000E+01  0.00000000E+00
  0.00000000E+00  1.70000000E+01  0.00000000E+00
  0.00000000E+00  1.60000000E+01  0.00000000E+00
  0.00000000E+00  1.50000000E+01  0.00000000E+00
  0.00000000E+00  1.40000000E+01  0.00000000E+00
  0.00000000E+00  1.30000000E+01  0.00000000E+00
  0.00000000E+00  1.20000000E+01  0.00000000E+00
  0.00000000E+00  1.10000000E+01  0.00000000E+00
  0.00000000E+00  1.00000000E+01  0.00000000E+00
  0.00000000E+00  9.00000000E+00  0.00000000E+00
  0.00000000E+00  8.00000000E+00  0.00000000E+00
  0.00000000E+00  7.00000000E+00  0.00000000E+00
  0.00000000E+00  6.00000000E+00  0.00000000E+00
  0.00000000E+00  5.00000000E+00  0.00000000E+00
  0.00000000E+00  4.00000000E+00  0.00000000E+00
  0.00000000E+00  3.00000000E+00  0.00000000E+00
  0.00000000E+00  2.00000000E+00  0.00000000E+00
  0.00000000E+00  1.00000000E+00  0.00000000E+00
  0.00000000E+00 -2.66453526E-15  0.00000000E+00
  1.00000000E+00  2.40000000E+01  0.00000000E+00
  1.00000000E+00  2.30000000E+01  0.00000000E+00
  1.00000000E+00  2.20000000E+01  0.00000000E+00
  1.00000000E+00  2.10000000E+01  0.00000000E+00
  1.00000000E+00  2.00000000E+01  0.00000000E+00
  1.00000000E+00  1.90000000E+01  0.00000000E+00
  1.00000000E+00  1.80000000E+01  0.00000000E+00
  1.00000000E+00  1.70000000E+01  0.00000000E+00
  1.00000000E+00  1.60000000E+01  0.00000000E+00
  1.00000000E+00  1.50000000E+01  0.00000000E+00
  1.00000000E+00  1.40000000E+01  0.00000000E+00
  1.00000000E+00  1.30000000E+01  0.00000000E+00
  1.00000000E+00  1.20000000E+01  0.00000000E+00
  1.00000000E+00  1.10000000E+01  0.00000000E+00
  1.00000000E+00  1.00000000E+01  0.00000000E+00
  1.00000000E+00  9.00000000E+00  0.00000000E+00
  1.00000000E+00  8.00000000E+00  0.00000000E+00
  1.00000000E+00  7.00000000E+00  0.00000000E+00
  1.00000000E+00  6.00000000E+00  0.00000000E+00
  1.00000000E+00  5.00000000E+00  0.00000000E+00
  1.00000000E+00  4.00000000E+00  0.00000000E+00
  1.00000000E+00  3.00000000E+00  0.00000000E+00
  1.00000000E+00  2.00000000E+00  0.00000000E+00
  1.00000000E+00  1.00000000E+00  0.00000000E+00
  1.00000000E+00 -2.66453526E-15  0.00000000E+00
  2.00000000E+00  2.40000000E+01  0.00000000E+00
  2.00000000E+00  2.30000000E+01  0.00000000E+00
  2.00000000E+00  2.20000000E+01  0.00000000E+00
  2.00000000E+00  2.10000000E+01  0.00000000E+00
  2.00000000E+00  2.00000000E+01  0.00000000E+00
  2.00000000E+00  1.90000000E+01  0.00000000E+00
  2.00000000E+00  1.80000000E+01  0.00000000E+00
  2.00000000E+00  1.70000000E+01  0.00000000E+00
  2.00000000E+00  1.60000000E+01  0.00000000E+00
  2.00000000E+00  1.50000000E+01  0.00000000E+00
  2.00000000E+00  1.40000000E+01  0.00000000E+00
  2.00000000E+00  1.30000000E+01  0.00000000E+00
  2.00000000E+00  1.20000000E+01  0.00000000E+00
  2.00000000E+00  1.10000000E+01  0.00000000E+00
  2.00000000E+00  1.00000000E+01  0.00000000E+00
  2.00000000E+00  9.00000000E+00  0.00000000E+00
  2.00000000E+00  8.00000000E+00  0.00000000E+00
  2.00000000E+00  7.00000000E+00  0.00000000E+00
  2.00000000E+00  6.00000000E+00  0.00000000E+00
  2.00000000E+00  5.00000000E+00  0.00000000E+00
  2.00000000E+00  4.00000000E+00  0.00000000E+00
  2.00000000E+00  3.00000000E+00  0.00000000E+00
  2.00000000E+00  2.00000000E+00  0.00000000E+00
  2.00000000E+00  1.00000000E+00  0.00000000E+00
  2.00000000E+00 -2.66453526E-15  0.00000000E+00
  3.00000000E+00  2.40000000E+01  0.00000000E+00
  3.00000000E+00  2.30000000E+01  0.00000000E+00
  3.00000000E+00  2.20000000E+01  0.00000000E+00
  3.00000000E+00  2.10000000E+01  0.00000000E+00
  3.00000000E+00  2.00000000E+01  0.00000000E+00
  3.00000000E+00  1.90000000E+01  0.00000000E+00
  3.00000000E+00  1.80000000E+01  0.00000000E+00
  3.00000000E+00  1.70000000E+01  0.00000000E+00
  3.00000000E+00  1.60000000E+01  0.00000000E+00
  3.00000000E+00  1.50000000E+01  0.00000000E+00
  3.00000000E+00  1.40000000E+01  0.00000000E+00
  3.00000000E+00  1.30000000E+01  0.00000000E+00
  3.00000000E+00  1.20000000E+01  0.00000000E+00
  3.00000000E+00  1.10000000E+01  0.00000000E+00
  3.00000000E+00  1.00000000E+01  0.00000000E+00
  3.00000000E+00  9.00000000E+00  0.00000000E+00
  3.00000000E+00  8.00000000E+00  0.00000000E+00
  3.00000000E+00  7.00000000E+00  0.00000000E+00
  3.00000000E+00  6.00000000E+00  0.00000000E+00
  3.00000000E+00  5.00000000E+00  0.00000000E+00
  3.00000000E+00  4.00000000E+00  0.00000000E+00
  3.00000000E+00  3.00000000E+00  0.00000000E+00
  3.00000000E+00  2.00000000E+00  0.00000000E+00
  3.00000000E+00  1.00000000E+00  0.00000000E+00
  3.00000000E+00 -2.66453526E-15  0.00000000E+00
  4.00000000E+00  2.40000000E+01  0.00000000E+00
  4.00000000E+00  2.30000000E+01  0.00000000E+00
  4.00000000E+00  2.20000000E+01  0.00000000E+00
  4.00000000E+00  2.10000000E+01  0.00000000E+00
  4.00000000E+00  2.00000000E+01  0.00000000E+00
  4.00000000E+00  1.90000000E+01  0.00000000E+00
  4.00000000E+00  1.80000000E+01  0.00000000E+00
  4.00000000E+00  1.70000000E+01  0.00000000E+00
  4.00000000E+00  1.60000000E+01  0.00000000E+00
  4.00000000E+00  1.50000000E+01  0.00000000E+00
  4.00000000E+00  1.40000000E+01  0.00000000E+00
  4.00000000E+00  1.30000000E+01  0.00000000E+00
  4.00000000E+00  1.20000000E+01  0.00000000E+00
  4.00000000E+00  1.10000000E+01  0.00000000E+00
  4.00000000E+00  1.00000000E+01  0.00000000E+00
  4.00000000E+00  9.00000000E+00  0.00000000E+00
  4.00000000E+00  8.00000000E+00  0.00000000E+00
  4.00000000E+00  7.00000000E+00  0.00000000E+00
  4.00000000E+00  6.00000000E+00  0.00000000E+00
  4.00000000E+00  5.00000000E+00  0.00000000E+00
  4.00000000E+00  4.00000000E+00  0.00000000E+00
  4.00000000E+00  3.00000000E+00  0.00000000E+00
  4.00000000E+00  2.00000000E+00  0.00000000E+00
  4.00000000E+00  1.00000000E+00  0.00000000E+00
  4.00000000E+00 -2.66453526E-15  0.00000000E+00
  5.00000000E+00  2.40000000E+01  0.00000000E+00
  5.00000000E+00  2.30000000E+01  0.00000000E+00
  5.00000000E+00  2.20000000E+01  0.00000000E+00
  5.00000000E+00  2.10000000E+01  0.00000000E+00
  5.00000000E+00  2.00000000E+01  0.00000000E+00
  5.00000000E+00  1.90000000E+01  0.00000000E+00
  5.00000000E+00  1.80000000E+01  0.00000000E+00
  5.00000000E+00  1.70000000E+01  0.00000000E+00
  5.00000000E+00  1.60000000E+01  0.00000000E+00
  5.00000000E+00  1.50000000E+01  0.00000000E+00
  5.00000000E+00  1.40000000E+01  0.00000000E+00
  5.00000000E+00  1.30000000E+01  0.00000000E+00
  5.00000000E+00  1.20000000E+01  0.00000000E+00
  5.00000000E+00  1.10000000E+01  0.00000000E+00
  5.00000000E+00  1.00000000E+01  0.00000000E+00
  5.00000000E+00  9.00000000E+00  0.00000000E+00
  5.00000000E+00  8.00000000E+00  0.00000000E+00
  5.00000000E+00  7.00000000E+00  0.00000000E+00
  5.00000000E+00  6.00000000E+00  0.00000000E+00
  5.00000000E+00  5.00000000E+00  0.00000000E+00
  5.00000000E+00  4.00000000E+00  0.00000000E+00
  5.00000000E+00  3.00000000E+00  0.00000000E+00
  5.00000000E+00  2.00000000E+00  0.00000000E+00
  5.00000000E+00  1.00000000E+00  0.00000000E+00
  5.00000000E+00 -2.66453526E-15  0.00000000E+00
  6.00000000E+00  2.40000000E+01  0.00000000E+00
  6.00000000E+00  2.30000000E+01  0.00000000E+00
  6.00000000E+00  2.20000000E+01  0.00000000E+00
  6.00000000E+00  2.10000000E+01  0.00000000E+00
  6.00000000E+00  2.00000000E+01  0.00000000E+00
  6.00000000E+00  1.90000000E+01  0.00000000E+00
  6.00000000E+00  1.80000000E+01  0.00000000E+00
  6.00000000E+00  1.70000000E+01  0.00000000E+00
  6.00000000E+00  1.60000000E+01  0.00000000E+00
  6.00000000E+00  1.50000000E+01  0.00000000E+00
  6.00000000E+00  1.40000000E+01  0.00000000E+00
  6.00000000E+00  1.30000000E+01  0.00000000E+00
  6.00000000E+00  1.20000000E+01  0.00000000E+00
  6.00000000E+00  1.10000000E+01  0.00000000E+00
  6.00000000E+00  1.00000000E+01  0.00000000E+00
  6.00000000E+00  9.00000000E+00  0.00000000E+00
  6.00000000E+00  8.00000000E+00  0.00000000E+00
  6.00000000E+00  7.00000000E+00  0.00000000E+00
  6.00000000E+00  6.00000000E+00  0.00000000E+00
  6.00000000E+00  5.00000000E+00  0.00000000E+00
  6.00000000E+00  4.00000000E+00  0.00000000E+00
  6.00000000E+00  3.00000000E+00  0.00000000E+00
  6.00000000E+00  2.00000000E+00  0.00000000E+00
  6.00000000E+00  1.00000000E+00  0.00000000E+00
  6.00000000E+00 -2.66453526E-15  0.00000000E+00
  7.00000000E+00  2.40000000E+01  0.00000000E+00
  7.00000000E+00  2.30000000E+01  0.00000000E+00
  7.00000000E+00  2.20000000E+01  0.00000000E+00
  7.00000000E+00  2.10000000E+01  0.00000000E+00
  7.00000000E+00  2.00000000E+01  0.00000000E+00
  7.00000000E+00  1.90000000E+01  0.00000000E+00
  7.00000000E+00  1.80000000E+01  0.00000000E+00
  7.00000000E+00  1.70000000E+01  0.00000000E+00
  7.00000000E+00  1.60000000E+01  0.00000000E+00
  7.00000000E+00  1.50000000E+01  0.00000000E+00
  7.00000000E+00  1.40000000E+01  0.00000000E+00
  7.00000000E+00  1.30000000E+01  0.00000000E+00
  7.00000000E+00  1.20000000E+01  0.00000000E+00
  7.00000000E+00  1.10000000E+01  0.00000000E+00
  7.00000000E+00  1.00000000E+01  0.00000000E+00
  7.00000000E+00  9.00000000E+00  0.00000000E+00
  7.00000000E+00  8.00000000E+00  0.00000000E+00
  7.00000000E+00  7.00000000E+00  0.00000000E+00
  7.00000000E+00  6.00000000E+00  0.00000000E+00
  7.00000000E+00  5.00000000E+00  0.00000000E+00
  7.00000000E+00  4.00000000E+00  0.00000000E+00
  7.00000000E+00  3.00000000E+00  0.00000000E+00
  7.00000000E+00  2.00000000E+00  0.00000000E+00
  7.00000000E+00  1.00000000E+00  0.00000000E+00
  7.00000000E+00 -2.66453526E-15  0.00000000E+00
  8.00000000E+00  2.40000000E+01  0.00000000E+00
  8.00000000E+00  2.30000000E+01  0.00000000E+00
  8.00000000E+00  2.20000000E+01  0.00000000E+00
  8.00000000E+00  2.10000000E+01  0.00000000E+00
  8.00000000E+00  2.00000000E+01  0.00000000E+00
  8.00000000E+00  1.90000000E+01  0.00000000E+00
  8.00000000E+00  1.80000000E+01  0.00000000E+00
  8.00000000E+00  1.70000000E+01  0.00000000E+00
  8.00000000E+00  1.60000000E+01  0.00000000E+00
  8.00000000E+00  1.50000000E+01  0.00000000E+00
  8.00000000E+00  1.40000000E+01  0.00000000E+00
  8.00000000E+00  1.30000000E+01  0.00000000E+00
  8.00000000E+00  1.20000000E+01  0.00000000E+00
  8.00000000E+00  1.10000000E+01  0.00000000E+00
  8.00000000E+00  1.00000000E+01  0.00000000E+00
  8.00000000E+00  9.00000000E+00  0.00000000E+00
  8.00000000E+00  8.00000000E+00  0.00000000E+00
  8.00000000E+00  7.00000000E+00  0.00000000E+00
  8.00000000E+00  6.00000000E+00  0.00000000E+00
  8.00000000E+00  5.00000000E+00  0.00000000E+00
  8.00000000E+00  4.00000000E+00  0.00000000E+00
  8.00000000E+00  3.00000000E+00  0.00000000E+00
  8.00000000E+00  2.00000000E+00  0.00000000E+00
  8.00000000E+00  1.00000000E+00  0.00000000E+00
  8.00000000E+00 -2.66453526E-15  0.00000000E+00
  9.00000000E+00  2.40000000E+01  0.00000000E+00
  9.00000000E+00  2.30000000E+01  0.00000000E+00
  9.00000000E+00  2.20000000E+01  0.00000000E+00
  9.00000000E+00  2.10000000E+01  0.00000000E+00
  9.00000000E+00  2.00000000E+01  0.00000000E+00
  9.00000000E+00  1.90000000E+01  0.00000000E+00
  9.00000000E+00  1.80000000E+01  0.00000000E+00
  9.00000000E+00  1.70000000E+01  0.00000000E+00
  9.00000000E+00  1.60000000E+01  0.00000000E+00
  9.00000000E+00  1.50000000E+01  0.00000000E+00
  9.00000000E+00  1.40000000E+01  0.00000000E+00
  9.00000000E+00  1.30000000E+01  0.00000000E+00
  9.00000000E+00  1.20000000E+01  0.00000000E+00
  9.00000000E+00  1.10000000E+01  0.00000000E+00
  9.00000000E+00  1.00000000E+01  0.00000000E+00
  9.00000000E+00  9.00000000E+00  0.00000000E+00
  9.00000000E+00  8.00000000E+00  0.00000000E+00
  9.00000000E+00  7.00000000E+00  0.00000000E+00
  9.00000000E+00  6.00000000E+00  0.00000000E+00
  9.00000000E+00  5.00000000E+00  0.00000000E+00
  9.00000000E+00  4.00000000E+00  0.00000000E+00
  9.00000000E+00  3.00000000E+00  0.00000000E+00
  9.00000000E+00  2.00000000E+00  0.00000000E+00
  9.00000000E+00  1.00000000E+00  0.00000000E+00
  9.00000000E+00 -2.66453526E-15  0.00000000E+00
  1.00000000E+01  2.40000000E+01  0.00000000E+00
  1.00000000E+01  2.30000000E+01  0.00000000E+00
  1.00000000E+01  2.20000000E+01  0.00000000E+00
  1.00000000E+01  2.10000000E+01  0.00000000E+00
  1.00000000E+01  2.00000000E+01  0.00000000E+00
  1.00000000E+01  1.90000000E+01  0.00000000E+00
  1.00000000E+01  1.80000000E+01  0.00000000E+00
  1.00000000E+01  1.70000000E+01  0.00000000E+00
  1.00000000E+01  1.60000000E+01  0.00000000E+00
  1.00000000E+01  1.50000000E+01  0.00000000E+00
  1.00000000E+01  1.40000000E+01  0.00000000E+00
  1.00000000E+01  1.30000000E+01  0.00000000E+00
  1.00000000E+01  1.20000000E+01  0.00000000E+00
  1.00000000E+01  1.10000000E+01  0.00000000E+00
  1.00000000E+01  1.00000000E+01  0.00000000E+00
  1.00000000E+01  9.00000000E+00  0.00000000E+00
  1.00000000E+01  8.00000000E+00  0.00000000E+00
  1.00000000E+01  7.00000000E+00  0.00000000E+00
  1.00000000E+01  6.00000000E+00  0.00000000E+00
  1.00000000E+01  5.00000000E+00  0.00000000E+00
  1.00000000E+01  4.00000000E+00  0.00000000E+00
  1.00000000E+01  3.00000000E+00  0.00000000E+00
  1.00000000E+01  2.00000000E+00  0.00000000E+00
  1.00000000E+01  1.00000000E+00  0.00000000E+00
  1.00000000E+01 -2.66453526E-15  0.00000000E+00
  1.10000000E+01  2.40000000E+01  0.00000000E+00
  1.10000000E+01  2.30000000E+01  0.00000000E+00
  1.10000000E+01  2.20000000E+01  0.00000000E+00
  1.10000000E+01  2.10000000E+01  0.00000000E+00
  1.10000000E+01  2.00000000E+01  0.00000000E+00
  1.10000000E+01  1.90000000E+01  0.00000000E+00
  1.10000000E+01  1.80000000E+01  0.00000000E+00
  1.10000000E+01  1.70000000E+01  0.00000000E+00
  1.10000000E+01  1.60000000E+01  0.00000000E+00
  1.10000000E+01  1.50000000E+01  0.00000000E+00
  1.10000000E+01  1.40000000E+01  0.00000000E+00
  1.10000000E+01  1.30000000E+01  0.00000000E+00
  1.10000000E+01  1.20000000E+01  0.00000000E+00
  1.10000000E+01  1.10000000E+01  0.00000000E+00
  1.10000000E+01  1.00000000E+01  0.00000000E+00
  1.10000000E+01  9.00000000E+00  0.00000000E+00
  1.10000000E+01  8.00000000E+00  0.00000000E+00
  1.10000000E+01  7.00000000E+00  0.00000000E+00
  1.10000000E+01  6.00000000E+00  0.00000000E+00
  1.10000000E+01  5.00000000E+00  0.00000000E+00
  1.10000000E+01  4.00000000E+00  0.00000000E+00
  1.10000000E+01  3.00000000E+00  0.00000000E+00
  1.10000000E+01  2.00000000E+00  0.00000000E+00
  1.10000000E+01  1.00000000E+00  0.00000000E+00
  1.10000000E+01 -2.66453526E-15  0.00000000E+00
  1.20000000E+01  2.40000000E+01  0.00000000E+00
  1.20000000E+01  2.30000000E+01  0.00000000E+00
  1.20000000E+01  2.20000000E+01  0.00000000E+00
  1.20000000E+01  2.10000000E+01  0.00000000E+00
  1.20000000E+01  2.00000000E+01  0.00000000E+00
  1.20000000E+01  1.90000000E+01  0.00000000E+00
  1.20000000E+01  1.80000000E+01  0.00000000E+00
  1.20000000E+01  1.70000000E+01  0.00000000E+00
  1.20000000E+01  1.60000000E+01  0.00000000E+00
  1.20000000E+01  1.50000000E+01  0.00000000E+00
  1.20000000E+01  1.40000000E+01  0.00000000E+00
  1.20000000E+01  1.30000000E+01  0.00000000E+00
  1.20000000E+01  1.20000000E+01  0.00000000E+00
  1.20000000E+01  1.10000000E+01  0.00000000E+00
  1.20000000E+01  1.00000000E+01  0.00000000E+00
  1.20000000E+01  9.00000000E+00  0.00000000E+00
  1.20000000E+01  8.00000000E+00  0.00000000E+00
  1.20000000E+01  7.00000000E+00  0.00000000E+00
  1.20000000E+01  6.00000000E+00  0.00000000E+00
  1.20000000E+01  5.00000000E+00  0.00000000E+00
  1.20000000E+01  4.00000000E+00  0.00000000E+00
  1.20000000E+01  3.00000000E+00  0.00000000E+00
  1.20000000E+01  2.00000000E+00  0.00000000E+00
  1.20000000E+01  1.00000000E+00  0.00000000E+00
  1.20000000E+01 -2.66453526E-15  0.00000000E+00
  1.30000000E+01  2.40000000E+01  0.00000000E+00
  1.30000000E+01  2.30000000E+01  0.00000000E+00
  1.30000000E+01  2.20000000E+01  0.00000000E+00
  1.30000000E+01  2.10000000E+01  0.00000000E+00
  1.30000000E+01  2.00000000E+01  0.00000000E+00
  1.30000000E+01  1.90000000E+01  0.00000000E+00
  1.30000000E+01  1.80000000E+01  0.00000000E+00
  1.30000000E+01  1.70000000E+01  0.00000000E+00
  1.30000000E+01  1.60000000E+01  0.00000000E+00
  1.30000000E+01  1.50000000E+01  0.00000000E+00
  1.30000000E+01  1.40000000E+01  0.00000000E+00
  1.30000000E+01  1.30000000E+01  0.00000000E+00
  1.30000000E+01  1.20000000E+01  0.00000000E+00
  1.30000000E+01  1.10000000E+01  0.00000000E+00
  1.30000000E+01  1.00000000E+01  0.00000000E+00
  1.30000000E+01  9.00000000E+00  0.00000000E+00
  1.30000000E+01  8.00000000E+00  0.00000000E+00
  1.30000000E+01  7.00000000E+00  0.00000000E+00
  1.30000000E+01  6.00000000E+00  0.00000000E+00
  1.30000000E+01  5.00000000E+00  0.00000000E+00
  1.30000000E+01  4.00000000E+00  0.00000000E+00
  1.30000000E+01  3.00000000E+00  0.00000000E+00
  1.30000000E+01  2.00000000E+00  0.00000000E+00
  1.30000000E+01  1.00000000E+00  0.00000000E+00
  1.30000000E+01 -2.66453526E-15  0.00000000E+00
  1.40000000E+01  2.40000000E+01  0.00000000E+00
  1.40000000E+01  2.30000000E+01  0.00000000E+00
  1.40000000E+01  2.20000000E+01  0.00000000E+00
  1.40000000E+01  2.10000000E+01  0.00000000E+00
  1.40000000E+01  2.00000000E+01  0.00000000E+00
  1.40000000E+01  1.90000000E+01  0.00000000E+00
  1.40000000E+01  1.80000000E+01  0.00000000E+00
  1.40000000E+01  1.70000000E+01  0.00000000E+00
  1.40000000E+01  1.60000000E+01  0.00000000E+00
  1.40000000E+01  1.50000000E+01  0.00000000E+00
  1.40000000E+01  1.40000000E+01  0.00000000E+00
  1.40000000E+01  1.30000000E+01  0.00000000E+00
  1.40000000E+01  1.20000000E+01  0.00000000E+00
  1.40000000E+01  1.10000000E+01  0.00000000E+00
  1.40000000E+01  1.00000000E+01  0.00000000E+00
  1.40000000E+01  9.00000000E+00  0.00000000E+00
  1.40000000E+01  8.00000000E+00  0.00000000E+00
  1.40000000E+01  7.00000000E+00  0.00000000E+00
  1.40000000E+01  6.00000000E+00  0.00000000E+00
  1.40000000E+01  5.00000000E+00  0.00000000E+00
  1.40000000E+01  4.00000000E+00  0.00000000E+00
  1.40000000E+01  3.00000000E+00  0.00000000E+00
  1.40000000E+01  2.00000000E+00  0.00000000E+00
  1.40000000E+01  1.00000000E+00  0.00000000E+00
  1.40000000E+01 -2.66453526E-15  0.00000000E+00
  1.50000000E+01  2.40000000E+01  0.00000000E+00
  1.50000000E+01  2.30000000E+01  0.00000000E+00
  1.50000000E+01  2.20000000E+01  0.00000000E+00
  1.50000000E+01  2.10000000E+01  0.00000000E+00
  1.50000000E+01  2.00000000E+01  0.00000000E+00
  1.50000000E+01  1.90000000E+01  0.00000000E+00
  1.50000000E+01  1.80000000E+01  0.00000000E+00
  1.50000000E+01  1.70000000E+01  0.00000000E+00
  1.50000000E+01  1.60000000E+01  0.00000000E+00
  1.50000000E+01  1.50000000E+01  0.00000000E+00
  1.50000000E+01  1.40000000E+01  0.00000000E+00
  1.50000000E+01  1.30000000E+01  0.00000000E+00
  1.50000000E+01  1.20000000E+01  0.00000000E+00
  1.50000000E+01  1.10000000E+01  0.00000000E+00
  1.50000000E+01  1.00000000E+01  0.00000000E+00
  1.50000000E+01  9.00000000E+00  0.00000000E+00
  1.50000000E+01  8.00000000E+00  0.00000000E+00
  1.50000000E+01  7.00000000E+00  0.00000000E+00
  1.50000000E+01  6.00000000E+00  0.00000000E+00
  1.50000000E+01  5.00000000E+00  0.00000000E+00
  1.50000000E+01  4.00000000E+00  0.00000000E+00
  1.50000000E+01  3.00000000E+00  0.00000000E+00
  1.50000000E+01  2.00000000E+00  0.00000000E+00
  1.50000000E+01  1.00000000E+00  0.00000000E+00
  1.50000000E+01 -2.66453526E-15  0.00000000E+00
  1.60000000E+01  2.40000000E+01  0.00000000E+00
  1.60000000E+01  2.30000000E+01  0.00000000E+00
  1.60000000E+01  2.20000000E+01  0.00000000E+00
  1.60000000E+01  2.10000000E+01  0.00000000E+00
  1.60000000E+01  2.00000000E+01  0.00000000E+00
  1.60000000E+01  1.90000000E+01  0.00000000E+00
  1.60000000E+01  1.80000000E+01  0.00000000E+00
  1.60000000E+01  1.70000000E+01  0.00000000E+00
  1.60000000E+01  1.60000000E+01  0.00000000E+00
  1.60000000E+01  1.50000000E+01  0.00000000E+00
  1.60000000E+01  1.40000000E+01  0.00000000E+00
  1.60000000E+01  1.30000000E+01  0.00000000E+00
  1.60000000E+01  1.20000000E+01  0.00000000E+00
  1.60000000E+01  1.10000000E+01  0.00000000E+00
  1.60000000E+01  1.00000000E+01  0.00000000E+00
  1.60000000E+01  9.00000000E+00  0.00000000E+00
  1.60000000E+01  8.00000000E+00  0.00000000E+00
  1.60000000E+01  7.00000000E+00  0.00000000E+00
  1.60000000E+01  6.00000000E+00  0.00000000E+00
  1.60000000E+01  5.00000000E+00  0.00000000E+00
  1.60000000E+01  4.00000000E+00  0.00000000E+00
  1.60000000E+01  3.00000000E+00  0.00000000E+00
  1.60000000E+01  2.00000000E+00  0.00000000E+00
  1.60000000E+01  1.00000000E+00  0.00000000E+00
  1.60000000E+01 -2.66453526E-15  0.00000000E+00
  1.70000000E+01  2.40000000E+01  0.00000000E+00
  1.70000000E+01  2.30000000E+01  0.00000000E+00
  1.70000000E+01  2.20000000E+01  0.00000000E+00
  1.70000000E+01  2.10000000E+01  0.00000000E+00
  1.70000000E+01  2.00000000E+01  0.00000000E+00
  1.70000000E+01  1.90000000E+01  0.00000000E+00
  1.70000000E+01  1.80000000E+01  0.00000000E+00
  1.70000000E+01  1.70000000E+01  0.00000000E+00
  1.70000000E+01  1.60000000E+01  0.00000000E+00
  1.70000000E+01  1.50000000E+01  0.00000000E+00
  1.70000000E+01  1.40000000E+01  0.00000000E+00
  1.70000000E+01  1.30000000E+01  0.00000000E+00
  1.70000000E+01  1.20000000E+01  0.00000000E+00
  1.70000000E+01  1.10000000E+01  0.00000000E+00
  1.70000000E+01  1.00000000E+01  0.00000000E+00
  1.70000000E+01  9.00000000E+00  0.00000000E+00
  1.70000000E+01  8.00000000E+00  0.00000000E+00
  1.70000000E+01  7.00000000E+00  0.00000000E+00
  1.70000000E+01  6.00000000E+00  0.00000000E+00
  1.70000000E+01  5.00000000E+00  0.00000000E+00
  1.70000000E+01  4.00000000E+00  0.00000000E+00
  1.70000000E+01  3.00000000E+00  0.00000000E+00
  1.70000000E+01  2.00000000E+00  0.00000000E+00
  1.70000000E+01  1.00000000E+00  0.00000000E+00
  1.70000000E+01 -2.66453526E-15  0.00000000E+00
  1.80000000E+01  2.40000000E+01  0.00000000E+00
  1.80000000E+01  2.30000000E+01  0.00000000E+00
  1.80000000E+01  2.20000000E+01  0.00000000E+00
  1.80000000E+01  2.10000000E+01  0.00000000E+00
  1.80000000E+01  2.00000000E+01  0.00000000E+00
  1.80000000E+01  1.90000000E+01  0.00000000E+00
  1.80000000E+01  1.80000000E+01  0.00000000E+00
  1.80000000E+01  1.70000000E+01  0.00000000E+00
  1.80000000E+01  1.60000000E+01  0.00000000E+00
  1.80000000E+01  1.50000000E+01  0.00000000E+00
  1.80000000E+01  1.40000000E+01  0.00000000E+00
  1.80000000E+01  1.30000000E+01  0.00000000E+00
  1.80000000E+01  1.20000000E+01  0.00000000E+00
  1.80000000E+01  1.10000000E+01  0.00000000E+00
  1.80000000E+01  1.00000000E+01  0.00000000E+00
  1.80000000E+01  9.00000000E+00  0.00000000E+00
  1.80000000E+01  8.00000000E+00  0.00000000E+00
  1.80000000E+01  7.00000000E+00  0.00000000E+00
  1.80000000E+01  6.00000000E+00  0.00000000E+00
  1.80000000E+01  5.00000000E+00  0.00000000E+00
  1.80000000E+01  4.00000000E+00  0.00000000E+00
  1.80000000E+01  3.00000000E+00  0.00000000E+00
  1.80000000E+01  2.00000000E+00  0.00000000E+00
  1.80000000E+01  1.00000000E+00  0.00000000E+00
  1.80000000E+01 -2.66453526E-15  0.00000000E+00
  1.90000000E+01  2.40000000E+01  0.00000000E+00
  1.90000000E+01  2.30000000E+01  0.00000000E+00
  1.90000000E+01  2.20000000E+01  0.00000000E+00
  1.90000000E+01  2.10000000E+01  0.00000000E+00
  1.90000000E+01  2.00000000E+01  0.00000000E+00
  1.90000000E+01  1.90000000E+01  0.00000000E+00
  1.90000000E+01  1.80000000E+01  0.00000000E+00
  1.90000000E+01  1.70000000E+01  0.00000000E+00
  1.90000000E+01  1.60000000E+01  0.00000000E+00
  1.90000000E+01  1.50000000E+01  0.00000000E+00
  1.90000000E+01  1.40000000E+01  0.00000000E+00
  1.90000000E+01  1.30000000E+01  0.00000000E+00
  1.90000000E+01  1.20000000E+01  0.00000000E+00
  1.90000000E+01  1.10000000E+01  0.00000000E+00
  1.90000000E+01  1.00000000E+01  0.00000000E+00
  1.90000000E+01  9.00000000E+00  0.00000000E+00
  1.90000000E+01  8.00000000E+00  0.00000000E+00
  1.90000000E+01  7.00000000E+00  0.00000000E+00
  1.90000000E+01  6.00000000E+00  0.00000000E+00
  1.90000000E+01  5.00000000E+00  0.00000000E+00
  1.90000000E+01  4.00000000E+00  0.00000000E+00
  1.90000000E+01  3.00000000E+00  0.00000000E+00
  1.90000000E+01  2.00000000E+00  0.00000000E+00
  1.90000000E+01  1.00000000E+00  0.00000000E+00
  1.90000000E+01 -2.66453526E-15  0.00000000E+00
  2.00000000E+01  2.40000000E+01  0.00000000E+00
  2.00000000E+01  2.30000000E+01  0.00000000E+00
  2.00000000E+01  2.20000000E+01  0.00000000E+00
  2.00000000E+01  2.10000000E+01  0.00000000E+00
  2.00000000E+01  2.00000000E+01  0.00000000E+00
  2.00000000E+01  1.90000000E+01  0.00000000E+00
  2.00000000E+01  1.80000000E+01  0.00000000E+00
  2.00000000E+01  1.70000000E+01  0.00000000E+00
  2.00000000E+01  1.60000000E+01  0.00000000E+00
  2.00000000E+01  1.50000000E+01  0.00000000E+00
  2.00000000E+01  1.40000000E+01  0.00000000E+00
  2.00000000E+01  1.30000000E+01  0.00000000E+00
  2.00000000E+01  1.20000000E+01  0.00000000E+00
  2.00000000E+01  1.10000000E+01  0.00000000E+00
  2.00000000E+01  1.00000000E+01  0.00000000E+00
  2.00000000E+01  9.00000000E+00  0.00000000E+00
  2.00000000E+01  8.00000000E+00  0.00000000E+00
  2.00000000E+01  7.00000000E+00  0.00000000E+00
  2.00000000E+01  6.00000000E+00  0.00000000E+00
  2.00000000E+01  5.00000000E+00  0.00000000E+00
  2.00000000E+01  4.00000000E+00  0.00000000E+00
  2.00000000E+01  3.00000000E+00  0.00000000E+00
  2.00000000E+01  2.00000000E+00  0.00000000E+00
  2.00000000E+01  1.00000000E+00  0.00000000E+00
  2.00000000E+01 -2.66453526E-15  0.00000000E+00
  2.10000000E+01  2.40000000E+01  0.00000000E+00
  2.10000000E+01  2.30000000E+01  0.00000000E+00
  2.10000000E+01  2.20000000E+01  0.00000000E+00
  2.10000000E+01  2.10000000E+01  0.00000000E+00
  2.10000000E+01  2.00000000E+01  0.00000000E+00
  2.10000000E+01  1.90000000E+01  0.00000000E+00
  2.10000000E+01  1.80000000E+01  0.00000000E+00
  2.10000000E+01  1.70000000E+01  0.00000000E+00
  2.10000000E+01  1.60000000E+01  0.00000000E+00
  2.10000000E+01  1.50000000E+01  0.00000000E+00
  2.10000000E+01  1.40000000E+01  0.00000000E+00
  2.10000000E+01  1.30000000E+01  0.00000000E+00
  2.10000000E+01  1.20000000E+01  0.00000000E+00
  2.10000000E+01  1.10000000E+01  0.00000000E+00
  2.10000000E+01  1.00000000E+01  0.00000000E+00
  2.10000000E+01  9.00000000E+00  0.00000000E+00
  2.10000000E+01  8.00000000E+00  0.00000000E+00
  2.10000000E+01  7.00000000E+00  0.00000000E+00
  2.10000000E+01  6.00000000E+00  0.00000000E+00
  2.10000000E+01  5.00000000E+00  0.00000000E+00
  2.10000000E+01  4.00000000E+00  0.00000000E+00
  2.10000000E+01  3.00000000E+00  0.00000000E+00
  2.10000000E+01  2.00000000E+00  0.00000000E+00
  2.10000000E+01  1.00000000E+00  0.00000000E+00
  2.10000000E+01 -2.66453526E-15  0.00000000E+00
  2.20000000E+01  2.40000000E+01  0.00000000E+00
  2.20000000E+01  2.30000000E+01  0.00000000E+00
  2.20000000E+01  2.20000000E+01  0.00000000E+00
  2.20000000E+01  2.10000000E+01  0.00000000E+00
  2.20000000E+01  2.00000000E+01  0.00000000E+00
  2.20000000E+01  1.90000000E+01  0.00000000E+00
  2.20000000E+01  1.80000000E+01  0.00000000E+00
  2.20000000E+01  1.70000000E+01  0.00000000E+00
  2.20000000E+01  1.60000000E+01  0.00000000E+00
  2.20000000E+01  1.50000000E+01  0.00000000E+00
  2.20000000E+01  1.40000000E+01  0.00000000E+00
  2.20000000E+01  1.30000000E+01  0.00000000E+00
  2.20000000E+01  1.20000000E+01  0.00000000E+00
  2.20000000E+01  1.10000000E+01  0.00000000E+00
  2.20000000E+01  1.00000000E+01  0.00000000E+00
  2.20000000E+01  9.00000000E+00  0.00000000E+00
  2.20000000E+01  8.00000000E+00  0.00000000E+00
  2.20000000E+01  7.00000000E+00  0.00000000E+00
  2.20000000E+01  6.00000000E+00  0.00000000E+00
  2.20000000E+01  5.00000000E+00  0.00000000E+00
  2.20000000E+01  4.00000000E+00  0.00000000E+00
  2.20000000E+01  3.00000000E+00  0.00000000E+00
  2.20000000E+01  2.00000000E+00  0.00000000E+00
  2.20000000E+01  1.00000000E+00  0.00000000E+00
  2.20000000E+01 -2.66453526E-15  0.00000000E+00
  2.30000000E+01  2.40000000E+01  0.00000000E+00
  2.30000000E+01  2.30000000E+01  0.00000000E+00
  2.30000000E+01  2.20000000E+01  0.00000000E+00
  2.30000000E+01  2.10000000E+01  0.00000000E+00
  2.30000000E+01  2.00000000E+01  0.00000000E+00
  2.30000000E+01  1.90000000E+01  0.00000000E+00
  2.30000000E+01  1.80000000E+01  0.00000000E+00
  2.30000000E+01  1.70000000E+01  0.00000000E+00
  2.30000000E+01  1.60000000E+01  0.00000000E+00
  2.30000000E+01  1.50000000E+01  0.00000000E+00
  2.30000000E+01  1.40000000E+01  0.00000000E+00
  2.30000000E+01  1.30000000E+01  0.00000000E+00
  2.30000000E+01  1.20000000E+01  0.00000000E+00
  2.30000000E+01  1.10000000E+01  0.00000000E+00
  2.30000000E+01  1.00000000E+01  0.00000000E+00
  2.30000000E+01  9.00000000E+00  0.00000000E+00
  2.30000000E+01  8.00000000E+00  0.00000000E+00
  2.30000000E+01  7.00000000E+00  0.00000000E+00
  2.30000000E+01  6.00000000E+00  0.00000000E+00
  2.30000000E+01  5.00000000E+00  0.00000000E+00
  2.30000000E+01  4.00000000E+00  0.00000000E+00
  2.30000000E+01  3.00000000E+00  0.00000000E+00
  2.30000000E+01  2.00000000E+00  0.00000000E+00
  2.30000000E+01  1.00000000E+00  0.00000000E+00
  2.30000000E+01 -2.66453526E-15  0.00000000E+00
  2.40000000E+01  2.40000000E+01  0.00000000E+00
  2.40000000E+01  2.30000000E+01  0.00000000E+00
  2.40000000E+01  2.20000000E+01  0.00000000E+00
  2.40000000E+01  2.10000000E+01  0.00000000E+00
  2.40000000E+01  2.00000000E+01  0.00000000E+00
  2.40000000E+01  1.90000000E+01  0.00000000E+00
  2.40000000E+01  1.80000000E+01  0.00000000E+00
  2.40000000E+01  1.70000000E+01  0.00000000E+00
  2.40000000E+01  1.60000000E+01  0.00000000E+00
  2.40000000E+01  1.50000000E+01  0.00000000E+00
  2.40000000E+01  1.40000000E+01  0.00000000E+00
  2.40000000E+01  1.30000000E+01  0.00000000E+00
  2.40000000E+01  1.20000000E+01  0.00000000E+00
  2.40000000E+01  1.10000000E+01  0.00000000E+00
  2.40000000E+01  1.00000000E+01  0.00000000E+00
  2.40000000E+01  9.00000000E+00  0.00000000E+00
  2.40000000E+01  8.00000000E+00  0.00000000E+00
  2.40000000E+01  7.00000000E+00  0.00000000E+00
  2.40000000E+01  6.00000000E+00  0.00000000E+00
  2.40000000E+01  5.00000000E+00  0.00000000E+00
  2.40000000E+01  4.00000000E+00  0.00000000E+00
  2.40000000E+01  3.00000000E+00  0.00000000E+00
  2.40000000E+01  2.00000000E+00  0.00000000E+00
  2.40000000E+01  1.00000000E+00  0.00000000E+00
  2.40000000E+01 -2.66453526E-15  0.00000000E+00
  2.50000000E+01  2.40000000E+01  0.00000000E+00
  2.50000000E+01  2.30000000E+01  0.00000000E+00
  2.50000000E+01  2.20000000E+01  0.00000000E+00
  2.50000000E+01  2.10000000E+01  0.00000000E+00
  2.50000000E+01  2.00000000E+01  0.00000000E+00
  2.50000000E+01  1.90000000E+01  0.00000000E+00
  2.50000000E+01  1.80000000E+01  0.00000000E+00
  2.50000000E+01  1.70000000E+01  0.00000000E+00
  2.50000000E+01  1.60000000E+01  0.00000000E+00
  2.50000000E+01  1.50000000E+01  0.00000000E+00
  2.50000000E+01  1.40000000E+01  0.00000000E+00
  2.50000000E+01  1.30000000E+01  0.00000000E+00
  2.50000000E+01  1.20000000E+01  0.00000000E+00
  2.50000000E+01  1.10000000E+01  0.00000000E+00
  2.50000000E+01  1.00000000E+01  0.00000000E+00
  2.50000000E+01  9.00000000E+00  0.00000000E+00
  2.50000000E+01  8.00000000E+00  0.00000000E+00
  2.50000000E+01  7.00000000E+00  0.00000000E+00
  2.50000000E+01  6.00000000E+00  0.00000000E+00
  2.50000000E+01  5.00000000E+00  0.00000000E+00
  2.50000000E+01  4.00000000E+00  0.00000000E+00
  2.50000000E+01  3.00000000E+00  0.00000000E+00
  2.50000000E+01  2.00000000E+00  0.00000000E+00
  2.50000000E+01  1.00000000E+00  0.00000000E+00
  2.50000000E+01 -2.66453526E-15  0.00000000E+00
  2.60000000E+01  2.40000000E+01  0.00000000E+00
  2.60000000E+01  2.30000000E+01  0.00000000E+00
  2.60000000E+01  2.20000000E+01  0.00000000E+00
  2.60000000E+01  2.10000000E+01  0.00000000E+00
  2.60000000E+01  2.00000000E+01  0.00000000E+00
  2.60000000E+01  1.90000000E+01  0.00000000E+00
  2.60000000E+01  1.80000000E+01  0.00000000E+00
  2.60000000E+01  1.70000000E+01  0.00000000E+00
  2.60000000E+01  1.60000000E+01  0.00000000E+00
  2.60000000E+01  1.50000000E+01  0.00000000E+00
  2.60000000E+01  1.40000000E+01  0.00000000E+00
  2.60000000E+01  1.30000000E+01  0.00000000E+00
  2.60000000E+01  1.20000000E+01  0.00000000E+00
  2.60000000E+01  1.10000000E+01  0.00000000E+00
  2.60000000E+01  1.00000000E+01  0.00000000E+00
  2.60000000E+01  9.00000000E+00  0.00000000E+00
  2.60000000E+01  8.00000000E+00  0.00000000E+00
  2.60000000E+01  7.00000000E+00  0.00000000E+00
  2.60000000E+01  6.00000000E+00  0.00000000E+00
  2.60000000E+01  5.00000000E+00  0.00000000E+00
  2.60000000E+01  4.00000000E+00  0.00000000E+00
  2.60000000E+01  3.00000000E+00  0.00000000E+00
  2.60000000E+01  2.00000000E+00  0.00000000E+00
  2.60000000E+01  1.00000000E+00  0.00000000E+00
  2.60000000E+01 -2.66453526E-15  0.00000000E+00
  2.70000000E+01  2.40000000E+01  0.00000000E+00
  2.70000000E+01  2.30000000E+01  0.00000000E+00
  2.70000000E+01  2.20000000E+01  0.00000000E+00
  2.70000000E+01  2.10000000E+01  0.00000000E+00
  2.70000000E+01  2.00000000E+01  0.00000000E+00
  2.70000000E+01  1.90000000E+01  0.00000000E+00
  2.70000000E+01  1.80000000E+01  0.00000000E+00
  2.70000000E+01  1.70000000E+01  0.00000000E+00
  2.70000000E+01  1.60000000E+01  0.00000000E+00
  2.70000000E+01  1.50000000E+01  0.00000000E+00
  2.70000000E+01  1.40000000E+01  0.00000000E+00
  2.70000000E+01  1.30000000E+01  0.00000000E+00
  2.70000000E+01  1.20000000E+01  0.00000000E+00
  2.70000000E+01  1.10000000E+01  0.00000000E+00
  2.70000000E+01  1.00000000E+01  0.00000000E+00
  2.70000000E+01  9.00000000E+00  0.00000000E+00
  2.70000000E+01  8.00000000E+00  0.00000000E+00
  2.70000000E+01  7.00000000E+00  0.00000000E+00
  2.70000000E+01  6.00000000E+00  0.00000000E+00
  2.70000000E+01  5.00000000E+00  0.00000000E+00
  2.70000000E+01  4.00000000E+00  0.00000000E+00
  2.70000000E+01  3.00000000E+00  0.00000000E+00
  2.70000000E+01  2.00000000E+00  0.00000000E+00
  2.70000000E+01  1.00000000E+00  0.00000000E+00
  2.70000000E+01 -2.66453526E-15  0.00000000E+00
  2.80000000E+01  2.40000000E+01  0.00000000E+00
  2.80000000E+01  2.30000000E+01  0.00000000E+00
  2.80000000E+01  2.20000000E+01  0.00000000E+00
  2.80000000E+01  2.10000000E+01  0.00000000E+00
  2.80000000E+01  2.00000000E+01  0.00000000E+00
  2.80000000E+01  1.90000000E+01  0.00000000E+00
  2.80000000E+01  1.80000000E+01  0.00000000E+00
  2.80000000E+01  1.70000000E+01  0.00000000E+00
  2.80000000E+01  1.60000000E+01  0.00000000E+00
  2.80000000E+01  1.50000000E+01  0.00000000E+00
  2.80000000E+01  1.40000000E+01  0.00000000E+00
  2.80000000E+01  1.30000000E+01  0.00000000E+00
  2.80000000E+01  1.20000000E+01  0.00000000E+00
  2.80000000E+01  1.10000000E+01  0.00000000E+00
  2.80000000E+01  1.00000000E+01  0.00000000E+00
  2.80000000E+01  9.00000000E+00  0.00000000E+00
  2.80000000E+01  8.00000000E+00  0.00000000E+00
  2.80000000E+01  7.00000000E+00  0.00000000E+00
  2.80000000E+01  6.00000000E+00  0.00000000E+00
  2.80000000E+01  5.00000000E+00  0.00000000E+00
  2.80000000E+01  4.00000000E+00  0.00000000E+00
  2.80000000E+01  3.00000000E+00  0.00000000E+00
  2.80000000E+01  2.00000000E+00  0.00000000E+00
  2.80000000E+01  1.00000000E+00  0.00000000E+00
  2.80000000E+01 -2.66453526E-15  0.00000000E+00
  2.90000000E+01  2.40000000E+01  0.00000000E+00
  2.90000000E+01  2.30000000E+01  0.00000000E+00
  2.90000000E+01  2.20000000E+01  0.00000000E+00
  2.90000000E+01  2.10000000E+01  0.00000000E+00
  2.90000000E+01  2.00000000E+01  0.00000000E+00
  2.90000000E+01  1.90000000E+01  0.00000000E+00
  2.90000000E+01  1.80000000E+01  0.00000000E+00
  2.90000000E+01  1.70000000E+01  0.00000000E+00
  2.90000000E+01  1.60000000E+01  0.00000000E+00
  2.90000000E+01  1.50000000E+01  0.00000000E+00
  2.90000000E+01  1.40000000E+01  0.00000000E+00
  2.90000000E+01  1.30000000E+01  0.00000000E+00
  2.90000000E+01  1.20000000E+01  0.00000000E+00
  2.90000000E+01  1.10000000E+01  0.00000000E+00
  2.90000000E+01  1.00000000E+01  0.00000000E+00
  2.90000000E+01  9.00000000E+00  0.00000000E+00
  2.90000000E+01  8.00000000E+00  0.00000000E+00
  2.90000000E+01  7.00000000E+00  0.00000000E+00
  2.90000000E+01  6.00000000E+00  0.00000000E+00
  2.90000000E+01  5.00000000E+00  0.00000000E+00
  2.90000000E+01  4.00000000E+00  0.00000000E+00
  2.90000000E+01  3.00000000E+00  0.00000000E+00
  2.90000000E+01  2.00000000E+00  0.00000000E+00
  2.90000000E+01  1.00000000E+00  0.00000000E+00
  2.90000000E+01 -2.66453526E-15  0.00000000E+00
  3.00000000E+01  2.40000000E+01  0.00000000E+00
  3.00000000E+01  2.30000000E+01  0.00000000E+00
  3.00000000E+01  2.20000000E+01  0.00000000E+00
  3.00000000E+01  2.10000000E+01  0.00000000E+00
  3.00000000E+01  2.00000000E+01  0.00000000E+00
  3.00000000E+01  1.90000000E+01  0.00000000E+00
  3.00000000E+01  1.80000000E+01  0.00000000E+00
  3.00000000E+01  1.70000000E+01  0.00000000E+00
  3.00000000E+01  1.60000000E+01  0.00000000E+00
  3.00000000E+01  1.50000000E+01  0.00000000E+00
  3.00000000E+01  1.40000000E+01  0.00000000E+00
  3.00000000E+01  1.30000000E+01  0.00000000E+00
  3.00000000E+01  1.20000000E+01  0.00000000E+00
  3.00000000E+01  1.10000000E+01  0.00000000E+00
  3.00000000E+01  1.00000000E+01  0.00000000E+00
  3.00000000E+01  9.00000000E+00  0.00000000E+00
  3.00000000E+01  8.00000000E+00  0.00000000E+00
  3.00000000E+01  7.00000000E+00  0.00000000E+00
  3.00000000E+01  6.00000000E+00  0.00000000E+00
  3.00000000E+01  5.00000000E+00  0.00000000E+00
  3.00000000E+01  4.00000000E+00  0.00000000E+00
  3.00000000E+01  3.00000000E+00  0.00000000E+00
  3.00000000E+01  2.00000000E+00  0.00000000E+00
  3.00000000E+01  1.00000000E+00  0.00000000E+00
  3.00000000E+01 -2.66453526E-15  0.00000000E+00
  3.10000000E+01  2.40000000E+01  0.00000000E+00
  3.10000000E+01  2.30000000E+01  0.00000000E+00
  3.10000000E+01  2.20000000E+01  0.00000000E+00
  3.10000000E+01  2.10000000E+01  0.00000000E+00
  3.10000000E+01  2.00000000E+01  0.00000000E+00
  3.10000000E+01  1.90000000E+01  0.00000000E+00
  3.10000000E+01  1.80000000E+01  0.00000000E+00
  3.10000000E+01  1.70000000E+01  0.00000000E+00
  3.10000000E+01  1.60000000E+01  0.00000000E+00
  3.10000000E+01  1.50000000E+01  0.00000000E+00
  3.10000000E+01  1.40000000E+01  0.00000000E+00
  3.10000000E+01  1.30000000E+01  0.00000000E+00
  3.10000000E+01  1.20000000E+01  0.00000000E+00
  3.10000000E+01  1.10000000E+01  0.00000000E+00
  3.10000000E+01  1.00000000E+01  0.00000000E+00
  3.10000000E+01  9.00000000E+00  0.00000000E+00
  3.10000000E+01  8.00000000E+00  0.00000000E+00
  3.10000000E+01  7.00000000E+00  0.00000000E+00
  3.10000000E+01  6.00000000E+00  0.00000000E+00
  3.10000000E+01  5.00000000E+00  0.00000000E+00
  3.10000000E+01  4.00000000E+00  0.00000000E+00
  3.10000000E+01  3.00000000E+00  0.00000000E+00
  3.10000000E+01  2.00000000E+00  0.00000000E+00
  3.10000000E+01  1.00000000E+00  0.00000000E+00
  3.10000000E+01 -2.66453526E-15  0.00000000E+00
  3.20000000E+01  2.40000000E+01  0.00000000E+00
  3.20000000E+01  2.30000000E+01  0.00000000E+00
  3.20000000E+01  2.20000000E+01  0.00000000E+00
  3.20000000E+01  2.10000000E+01  0.00000000E+00
  3.20000000E+01  2.00000000E+01  0.00000000E+00
  3.20000000E+01  1.90000000E+01  0.00000000E+00
  3.20000000E+01  1.80000000E+01  0.00000000E+00
  3.20000000E+01  1.70000000E+01  0.00000000E+00
  3.20000000E+01  1.60000000E+01  0.00000000E+00
  3.20000000E+01  1.50000000E+01  0.00000000E+00
  3.20000000E+01  1.40000000E+01  0.00000000E+00
  3.20000000E+01  1.30000000E+01  0.00000000E+00
  3.20000000E+01  1.20000000E+01  0.00000000E+00
  3.20000000E+01  1.10000000E+01  0.00000000E+00
  3.20000000E+01  1.00000000E+01  0.00000000E+00
  3.20000000E+01  9.00000000E+00  0.00000000E+00
  3.20000000E+01  8.00000000E+00  0.00000000E+00
  3.20000000E+01  7.00000000E+00  0.00000000E+00
  3.20000000E+01  6.00000000E+00  0.00000000E+00
  3.20000000E+01  5.00000000E+00  0.00000000E+00
  3.20000000E+01  4.00000000E+00  0.00000000E+00
  3.20000000E+01  3.00000000E+00  0.00000000E+00
  3.20000000E+01  2.00000000E+00  0.00000000E+00
  3.20000000E+01  1.00000000E+00  0.00000000E+00
  3.20000000E+01 -2.66453526E-15  0.00000000E+00
  3.30000000E+01  2.40000000E+01  0.00000000E+00
  3.30000000E+01  2.30000000E+01  0.00000000E+00
  3.30000000E+01  2.20000000E+01  0.00000000E+00
  3.30000000E+01  2.10000000E+01  0.00000000E+00
  3.30000000E+01  2.00000000E+01  0.00000000E+00
  3.30000000E+01  1.90000000E+01  0.00000000E+00
  3.30000000E+01  1.80000000E+01  0.00000000E+00
  3.30000000E+01  1.70000000E+01  0.00000000E+00
  3.30000000E+01  1.60000000E+01  0.00000000E+00
  3.30000000E+01  1.50000000E+01  0.00000000E+00
  3.30000000E+01  1.40000000E+01  0.00000000E+00
  3.30000000E+01  1.30000000E+01  0.00000000E+00
  3.30000000E+01  1.20000000E+01  0.00000000E+00
  3.30000000E+01  1.10000000E+01  0.00000000E+00
  3.30000000E+01  1.00000000E+01  0.00000000E+00
  3.30000000E+01  9.00000000E+00  0.00000000E+00
  3.30000000E+01  8.00000000E+00  0.00000000E+00
  3.30000000E+01  7.00000000E+00  0.00000000E+00
  3.30000000E+01  6.00000000E+00  0.00000000E+00
  3.30000000E+01  5.00000000E+00  0.00000000E+00
  3.30000000E+01  4.00000000E+00  0.00000000E+00
  3.30000000E+01  3.00000000E+00  0.00000000E+00
  3.30000000E+01  2.00000000E+00  0.00000000E+00
  3.30000000E+01  1.00000000E+00  0.00000000E+00
  3.30000000E+01 -2.66453526E-15  0.00000000E+00
  3.40000000E+01  2.40000000E+01  0.00000000E+00
  3.40000000E+01  2.30000000E+01  0.00000000E+00
  3.40000000E+01  2.20000000E+01  0.00000000E+00
  3.40000000E+01  2.10000000E+01  0.00000000E+00
  3.40000000E+01  2.00000000E+01  0.00000000E+00
  3.40000000E+01  1.90000000E+01  0.00000000E+00
  3.40000000E+01  1.80000000E+01  0.00000000E+00
  3.40000000E+01  1.70000000E+01  0.00000000E+00
  3.40000000E+01  1.60000000E+01  0.00000000E+00
  3.40000000E+01  1.50000000E+01  0.00000000E+00
  3.40000000E+01  1.40000000E+01  0.00000000E+00
  3.40000000E+01  1.30000000E+01  0.00000000E+00
  3.40000000E+01  1.20000000E+01  0.00000000E+00
  3.40000000E+01  1.10000000E+01  0.00000000E+00
  3.40000000E+01  1.00000000E+01  0.00000000E+00
  3.40000000E+01  9.00000000E+00  0.00000000E+00
  3.40000000E+01  8.00000000E+00  0.00000000E+00
  3.40000000E+01  7.00000000E+00  0.00000000E+00
  3.40000000E+01  6.00000000E+00  0.00000000E+00
  3.40000000E+01  5.00000000E+00  0.00000000E+00
  3.40000000E+01  4.00000000E+00  0.00000000E+00
  3.40000000E+01  3.00000000E+00  0.00000000E+00
  3.40000000E+01  2.00000000E+00  0.00000000E+00
  3.40000000E+01  1.00000000E+00  0.00000000E+00
  3.40000000E+01 -2.66453526E-15  0.00000000E+00
  3.50000000E+01  2.40000000E+01  0.00000000E+00
  3.50000000E+01  2.30000000E+01  0.00000000E+00
  3.50000000E+01  2.20000000E+01  0.00000000E+00
  3.50000000E+01  2.10000000E+01  0.00000000E+00
  3.50000000E+01  2.00000000E+01  0.00000000E+00
  3.50000000E+01  1.90000000E+01  0.00000000E+00
  3.50000000E+01  1.80000000E+01  0.00000000E+00
  3.50000000E+01  1.70000000E+01  0.00000000E+00
  3.50000000E+01  1.60000000E+01  0.00000000E+00
  3.50000000E+01  1.50000000E+01  0.00000000E+00
  3.50000000E+01  1.40000000E+01  0.00000000E+00
  3.50000000E+01  1.30000000E+01  0.00000000E+00
  3.50000000E+01  1.20000000E+01  0.00000000E+00
  3.50000000E+01  1.10000000E+01  0.00000000E+00
  3.50000000E+01  1.00000000E+01  0.00000000E+00
  3.50000000E+01  9.00000000E+00  0.00000000E+00
  3.50000000E+01  8.00000000E+00  0.00000000E+00
  3.50000000E+01  7.00000000E+00  0.00000000E+00
  3.50000000E+01  6.00000000E+00  0.00000000E+00
  3.50000000E+01  5.00000000E+00  0.00000000E+00
  3.50000000E+01  4.00000000E+00  0.00000000E+00
  3.50000000E+01  3.00000000E+00  0.00000000E+00
  3.50000000E+01  2.00000000E+00  0.00000000E+00
  3.50000000E+01  1.00000000E+00  0.00000000E+00
  3.50000000E+01 -2.66453526E-15  0.00000000E+00
  3.60000000E+01  2.40000000E+01  0.00000000E+00
  3.60000000E+01  2.30000000E+01  0.00000000E+00
  3.60000000E+01  2.20000000E+01  0.00000000E+00
  3.60000000E+01  2.10000000E+01  0.00000000E+00
  3.60000000E+01  2.00000000E+01  0.00000000E+00
  3.60000000E+01  1.90000000E+01  0.00000000E+00
  3.60000000E+01  1.80000000E+01  0.00000000E+00
  3.60000000E+01  1.70000000E+01  0.00000000E+00
  3.60000000E+01  1.60000000E+01  0.00000000E+00
  3.60000000E+01  1.50000000E+01  0.00000000E+00
  3.60000000E+01  1.40000000E+01  0.00000000E+00
  3.60000000E+01  1.30000000E+01  0.00000000E+00
  3.60000000E+01  1.20000000E+01  0.00000000E+00
  3.60000000E+01  1.10000000E+01  0.00000000E+00
  3.60000000E+01  1.00000000E+01  0.00000000E+00
  3.60000000E+01  9.00000000E+00  0.00000000E+00
  3.60000000E+01  8.00000000E+00  0.00000000E+00
  3.60000000E+01  7.00000000E+00  0.00000000E+00
  3.60000000E+01  6.00000000E+00  0.00000000E+00
  3.60000000E+01  5.00000000E+00  0.00000000E+00
  3.60000000E+01  4.00000000E+00  0.00000000E+00
  3.60000000E+01  3.00000000E+00  0.00000000E+00
  3.60000000E+01  2.00000000E+00  0.00000000E+00
  3.60000000E+01  1.00000000E+00  0.00000000E+00
  3.60000000E+01 -2.66453526E-15  0.00000000E+00
  3.70000000E+01  2.40000000E+01  0.00000000E+00
  3.70000000E+01  2.30000000E+01  0.00000000E+00
  3.70000000E+01  2.20000000E+01  0.00000000E+00
  3.70000000E+01  2.10000000E+01  0.00000000E+00
  3.70000000E+01  2.00000000E+01  0.00000000E+00
  3.70000000E+01  1.90000000E+01  0.00000000E+00
  3.70000000E+01  1.80000000E+01  0.00000000E+00
  3.70000000E+01  1.70000000E+01  0.00000000E+00
  3.70000000E+01  1.60000000E+01  0.00000000E+00
  3.70000000E+01  1.50000000E+01  0.00000000E+00
  3.70000000E+01  1.40000000E+01  0.00000000E+00
  3.70000000E+01  1.30000000E+01  0.00000000E+00
  3.70000000E+01  1.20000000E+01  0.00000000E+00
  3.70000000E+01  1.10000000E+01  0.00000000E+00
  3.70000000E+01  1.00000000E+01  0.00000000E+00
  3.70000000E+01  9.00000000E+00  0.00000000E+00
  3.70000000E+01  8.00000000E+00  0.00000000E+00
  3.70000000E+01  7.00000000E+00  0.00000000E+00
  3.70000000E+01  6.00000000E+00  0.00000000E+00
  3.70000000E+01  5.00000000E+00  0.00000000E+00
  3.70000000E+01  4.00000000E+00  0.00000000E+00
  3.70000000E+01  3.00000000E+00  0.00000000E+00
  3.70000000E+01  2.00000000E+00  0.00000000E+00
  3.70000000E+01  1.00000000E+00  0.00000000E+00
  3.70000000E+01 -2.66453526E-15  0.00000000E+00
  3.80000000E+01  2.40000000E+01  0.00000000E+00
  3.80000000E+01  2.30000000E+01  0.00000000E+00
  3.80000000E+01  2.20000000E+01  0.00000000E+00
  3.80000000E+01  2.10000000E+01  0.00000000E+00
  3.80000000E+01  2.00000000E+01  0.00000000E+00
  3.80000000E+01  1.90000000E+01  0.00000000E+00
  3.80000000E+01  1.80000000E+01  0.00000000E+00
  3.80000000E+01  1.70000000E+01  0.00000000E+00
  3.80000000E+01  1.60000000E+01  0.00000000E+00
  3.80000000E+01  1.50000000E+01  0.00000000E+00
  3.80000000E+01  1.40000000E+01  0.00000000E+00
  3.80000000E+01  1.30000000E+01  0.00000000E+00
  3.80000000E+01  1.20000000E+01  0.00000000E+00
  3.80000000E+01  1.10000000E+01  0.00000000E+00
  3.80000000E+01  1.00000000E+01  0.00000000E+00
  3.80000000E+01  9.00000000E+00  0.00000000E+00
  3.80000000E+01  8.00000000E+00  0.00000000E+00
  3.80000000E+01  7.00000000E+00  0.00000000E+00
  3.80000000E+01  6.00000000E+00  0.00000000E+00
  3.80000000E+01  5.00000000E+00  0.00000000E+00
  3.80000000E+01  4.00000000E+00  0.00000000E+00
  3.80000000E+01  3.00000000E+00  0.00000000E+00
  3.80000000E+01  2.00000000E+00  0.00000000E+00
  3.80000000E+01  1.00000000E+00  0.00000000E+00
  3.80000000E+01 -2.66453526E-15  0.00000000E+00
  3.90000000E+01  2.40000000E+01  0.00000000E+00
  3.90000000E+01  2.30000000E+01  0.00000000E+00
  3.90000000E+01  2.20000000E+01  0.00000000E+00
  3.90000000E+01  2.10000000E+01  0.00000000E+00
  3.90000000E+01  2.00000000E+01  0.00000000E+00
  3.90000000E+01  1.90000000E+01  0.00000000E+00
  3.90000000E+01  1.80000000E+01  0.00000000E+00
  3.90000000E+01  1.70000000E+01  0.00000000E+00
  3.90000000E+01  1.60000000E+01  0.00000000E+00
  3.90000000E+01  1.50000000E+01  0.00000000E+00
  3.90000000E+01  1.40000000E+01  0.00000000E+00
  3.90000000E+01  1.30000000E+01  0.00000000E+00
  3.90000000E+01  1.20000000E+01  0.00000000E+00
  3.90000000E+01  1.10000000E+01  0.00000000E+00
  3.90000000E+01  1.00000000E+01  0.00000000E+00
  3.90000000E+01  9.00000000E+00  0.00000000E+00
  3.90000000E+01  8.00000000E+00  0.00000000E+00
  3.90000000E+01  7.00000000E+00  0.00000000E+00
  3.90000000E+01  6.00000000E+00  0.00000000E+00
  3.90000000E+01  5.00000000E+00  0.00000000E+00
  3.90000000E+01  4.00000000E+00  0.00000000E+00
  3.90000000E+01  3.00000000E+00  0.00000000E+00
  3.90000000E+01  2.00000000E+00  0.00000000E+00
  3.90000000E+01  1.00000000E+00  0.00000000E+00
  3.90000000E+01 -2.66453526E-15  0.00000000E+00
  4.00000000E+01  2.40000000E+01  0.00000000E+00
  4.00000000E+01  2.30000000E+01  0.00000000E+00
  4.00000000E+01  2.20000000E+01  0.00000000E+00
  4.00000000E+01  2.10000000E+01  0.00000000E+00
  4.00000000E+01  2.00000000E+01  0.00000000E+00
  4.00000000E+01  1.90000000E+01  0.00000000E+00
  4.00000000E+01  1.80000000E+01  0.00000000E+00
  4.00000000E+01  1.70000000E+01  0.00000000E+00
  4.00000000E+01  1.60000000E+01  0.00000000E+00
  4.00000000E+01  1.50000000E+01  0.00000000E+00
  4.00000000E+01  1.40000000E+01  0.00000000E+00
  4.00000000E+01  1.30000000E+01  0.00000000E+00
  4.00000000E+01  1.20000000E+01  0.00000000E+00
  4.00000000E+01  1.10000000E+01  0.00000000E+00
  4.00000000E+01  1.00000000E+01  0.00000000E+00
  4.00000000E+01  9.00000000E+00  0.00000000E+00
  4.00000000E+01  8.00000000E+00  0.00000000E+00
  4.00000000E+01  7.00000000E+00  0.00000000E+00
  4.00000000E+01  6.00000000E+00  0.00000000E+00
  4.00000000E+01  5.00000000E+00  0.00000000E+00
  4.00000000E+01  4.00000000E+00  0.00000000E+00
  4.00000000E+01  3.00000000E+00  0.00000000E+00
  4.00000000E+01  2.00000000E+00  0.00000000E+00
  4.00000000E+01  1.00000000E+00  0.00000000E+00
  4.00000000E+01 -2.66453526E-15  0.00000000E+00
  4.10000000E+01  2.40000000E+01  0.00000000E+00
  4.10000000E+01  2.30000000E+01  0.00000000E+00
  4.10000000E+01  2.20000000E+01  0.00000000E+00
  4.10000000E+01  2.10000000E+01  0.00000000E+00
  4.10000000E+01  2.00000000E+01  0.00000000E+00
  4.10000000E+01  1.90000000E+01  0.00000000E+00
  4.10000000E+01  1.80000000E+01  0.00000000E+00
  4.10000000E+01  1.70000000E+01  0.00000000E+00
  4.10000000E+01  1.60000000E+01  0.00000000E+00
  4.10000000E+01  1.50000000E+01  0.00000000E+00
  4.10000000E+01  1.40000000E+01  0.00000000E+00
  4.10000000E+01  1.30000000E+01  0.00000000E+00
  4.10000000E+01  1.20000000E+01  0.00000000E+00
  4.10000000E+01  1.10000000E+01  0.00000000E+00
  4.10000000E+01  1.00000000E+01  0.00000000E+00
  4.10000000E+01  9.00000000E+00  0.00000000E+00
  4.10000000E+01  8.00000000E+00  0.00000000E+00
  4.10000000E+01  7.00000000E+00  0.00000000E+00
  4.10000000E+01  6.00000000E+00  0.00000000E+00
  4.10000000E+01  5.00000000E+00  0.00000000E+00
  4.10000000E+01  4.00000000E+00  0.00000000E+00
  4.10000000E+01  3.00000000E+00  0.00000000E+00
  4.10000000E+01  2.00000000E+00  0.00000000E+00
  4.10000000E+01  1.00000000E+00  0.00000000E+00
  4.10000000E+01 -2.66453526E-15  0.00000000E+00
  4.20000000E+01  2.40000000E+01  0.00000000E+00
  4.20000000E+01  2.30000000E+01  0.00000000E+00
  4.20000000E+01  2.20000000E+01  0.00000000E+00
  4.20000000E+01  2.10000000E+01  0.00000000E+00
  4.20000000E+01  2.00000000E+01  0.00000000E+00
  4.20000000E+01  1.90000000E+01  0.00000000E+00
  4.20000000E+01  1.80000000E+01  0.00000000E+00
  4.20000000E+01  1.70000000E+01  0.00000000E+00
  4.20000000E+01  1.60000000E+01  0.00000000E+00
  4.20000000E+01  1.50000000E+01  0.00000000E+00
  4.20000000E+01  1.40000000E+01  0.00000000E+00
  4.20000000E+01  1.30000000E+01  0.00000000E+00
  4.20000000E+01  1.20000000E+01  0.00000000E+00
  4.20000000E+01  1.10000000E+01  0.00000000E+00
  4.20000000E+01  1.00000000E+01  0.00000000E+00
  4.20000000E+01  9.00000000E+00  0.00000000E+00
  4.20000000E+01  8.00000000E+00  0.00000000E+00
  4.20000000E+01  7.00000000E+00  0.00000000E+00
  4.20000000E+01  6.00000000E+00  0.00000000E+00
  4.20000000E+01  5.00000000E+00  0.00000000E+00
  4.20000000E+01  4.00000000E+00  0.00000000E+00
  4.20000000E+01  3.00000000E+00  0.00000000E+00
  4.20000000E+01  2.00000000E+00  0.00000000E+00
  4.20000000E+01  1.00000000E+00  0.00000000E+00
  4.20000000E+01 -2.66453526E-15  0.00000000E+00
  4.30000000E+01  2.40000000E+01  0.00000000E+00
  4.30000000E+01  2.30000000E+01  0.00000000E+00
  4.30000000E+01  2.20000000E+01  0.00000000E+00
  4.30000000E+01  2.10000000E+01  0.00000000E+00
  4.30000000E+01  2.00000000E+01  0.00000000E+00
  4.30000000E+01  1.90000000E+01  0.00000000E+00
  4.30000000E+01  1.80000000E+01  0.00000000E+00
  4.30000000E+01  1.70000000E+01  0.00000000E+00
  4.30000000E+01  1.60000000E+01  0.00000000E+00
  4.30000000E+01  1.50000000E+01  0.00000000E+00
  4.30000000E+01  1.40000000E+01  0.00000000E+00
  4.30000000E+01  1.30000000E+01  0.00000000E+00
  4.30000000E+01  1.20000000E+01  0.00000000E+00
  4.30000000E+01  1.10000000E+01  0.00000000E+00
  4.30000000E+01  1.00000000E+01  0.00000000E+00
  4.30000000E+01  9.00000000E+00  0.00000000E+00
  4.30000000E+01  8.00000000E+00  0.00000000E+00
  4.30000000E+01  7.00000000E+00  0.00000000E+00
  4.30000000E+01  6.00000000E+00  0.00000000E+00
  4.30000000E+01  5.00000000E+00  0.00000000E+00
  4.30000000E+01  4.00000000E+00  0.00000000E+00
  4.30000000E+01  3.00000000E+00  0.00000000E+00
  4.30000000E+01  2.00000000E+00  0.00000000E+00
  4.30000000E+01  1.00000000E+00  0.00000000E+00
  4.30000000E+01 -2.66453526E-15  0.00000000E+00
  4.40000000E+01  2.40000000E+01  0.00000000E+00
  4.40000000E+01  2.30000000E+01  0.00000000E+00
  4.40000000E+01  2.20000000E+01  0.00000000E+00
  4.40000000E+01  2.10000000E+01  0.00000000E+00
  4.40000000E+01  2.00000000E+01  0.00000000E+00
  4.40000000E+01  1.90000000E+01  0.00000000E+00
  4.40000000E+01  1.80000000E+01  0.00000000E+00
  4.40000000E+01  1.70000000E+01  0.00000000E+00
  4.40000000E+01  1.60000000E+01  0.00000000E+00
  4.40000000E+01  1.50000000E+01  0.00000000E+00
  4.40000000E+01  1.40000000E+01  0.00000000E+00
  4.40000000E+01  1.30000000E+01  0.00000000E+00
  4.40000000E+01  1.20000000E+01  0.00000000E+00
  4.40000000E+01  1.10000000E+01  0.00000000E+00
  4.40000000E+01  1.00000000E+01  0.00000000E+00
  4.40000000E+01  9.00000000E+00  0.00000000E+00
  4.40000000E+01  8.00000000E+00  0.00000000E+00
  4.40000000E+01  7.00000000E+00  0.00000000E+00
  4.40000000E+01  6.00000000E+00  0.00000000E+00
  4.40000000E+01  5.00000000E+00  0.00000000E+00
  4.40000000E+01  4.00000000E+00  0.00000000E+00
  4.40000000E+01  3.00000000E+00  0.00000000E+00
  4.40000000E+01  2.00000000E+00  0.00000000E+00
  4.40000000E+01  1.00000000E+00  0.00000000E+00
  4.40000000E+01 -2.66453526E-15  0.00000000E+00
  4.50000000E+01  2.40000000E+01  0.00000000E+00
  4.50000000E+01  2.30000000E+01  0.00000000E+00
  4.50000000E+01  2.20000000E+01  0.00000000E+00
  4.50000000E+01  2.10000000E+01  0.00000000E+00
  4.50000000E+01  2.00000000E+01  0.00000000E+00
  4.50000000E+01  1.90000000E+01  0.00000000E+00
  4.50000000E+01  1.80000000E+01  0.00000000E+00
  4.50000000E+01  1.70000000E+01  0.00000000E+00
  4.50000000E+01  1.60000000E+01  0.00000000E+00
  4.50000000E+01  1.50000000E+01  0.00000000E+00
  4.50000000E+01  1.40000000E+01  0.00000000E+00
  4.50000000E+01  1.30000000E+01  0.00000000E+00
  4.50000000E+01  1.20000000E+01  0.00000000E+00
  4.50000000E+01  1.10000000E+01  0.00000000E+00
  4.50000000E+01  1.00000000E+01  0.00000000E+00
  4.50000000E+01  9.00000000E+00  0.00000000E+00
  4.50000000E+01  8.00000000E+00  0.00000000E+00
  4.50000000E+01  7.00000000E+00  0.00000000E+00
  4.50000000E+01  6.00000000E+00  0.00000000E+00
  4.50000000E+01  5.00000000E+00  0.00000000E+00
  4.50000000E+01  4.00000000E+00  0.00000000E+00
  4.50000000E+01  3.00000000E+00  0.00000000E+00
  4.50000000E+01  2.00000000E+00  0.00000000E+00
  4.50000000E+01  1.00000000E+00  0.00000000E+00
  4.50000000E+01 -2.66453526E-15  0.00000000E+00
  4.60000000E+01  2.40000000E+01  0.00000000E+00
  4.60000000E+01  2.30000000E+01  0.00000000E+00
  4.60000000E+01  2.20000000E+01  0.00000000E+00
  4.60000000E+01  2.10000000E+01  0.00000000E+00
  4.60000000E+01  2.00000000E+01  0.00000000E+00
  4.60000000E+01  1.90000000E+01  0.00000000E+00
  4.60000000E+01  1.80000000E+01  0.00000000E+00
  4.60000000E+01  1.70000000E+01  0.00000000E+00
  4.60000000E+01  1.60000000E+01  0.00000000E+00
  4.60000000E+01  1.50000000E+01  0.00000000E+00
  4.60000000E+01  1.40000000E+01  0.00000000E+00
  4.60000000E+01  1.30000000E+01  0.00000000E+00
  4.60000000E+01  1.20000000E+01  0.00000000E+00
  4.60000000E+01  1.10000000E+01  0.00000000E+00
  4.60000000E+01  1.00000000E+01  0.00000000E+00
  4.60000000E+01  9.00000000E+00  0.00000000E+00
  4.60000000E+01  8.00000000E+00  0.00000000E+00
  4.60000000E+01  7.00000000E+00  0.00000000E+00
  4.60000000E+01  6.00000000E+00  0.00000000E+00
  4.60000000E+01  5.00000000E+00  0.00000000E+00
  4.60000000E+01  4.00000000E+00  0.00000000E+00
  4.60000000E+01  3.00000000E+00  0.00000000E+00
  4.60000000E+01  2.00000000E+00  0.00000000E+00
  4.60000000E+01  1.00000000E+00  0.00000000E+00
  4.60000000E+01 -2.66453526E-15  0.00000000E+00
  4.70000000E+01  2.40000000E+01  0.00000000E+00
  4.70000000E+01  2.30000000E+01  0.00000000E+00
  4.70000000E+01  2.20000000E+01  0.00000000E+00
  4.70000000E+01  2.10000000E+01  0.00000000E+00
  4.70000000E+01  2.00000000E+01  0.00000000E+00
  4.70000000E+01  1.90000000E+01  0.00000000E+00
  4.70000000E+01  1.80000000E+01  0.00000000E+00
  4.70000000E+01  1.70000000E+01  0.00000000E+00
  4.70000000E+01  1.60000000E+01  0.00000000E+00
  4.70000000E+01  1.50000000E+01  0.00000000E+00
  4.70000000E+01  1.40000000E+01  0.00000000E+00
  4.70000000E+01  1.30000000E+01  0.00000000E+00
  4.70000000E+01  1.20000000E+01  0.00000000E+00
  4.70000000E+01  1.10000000E+01  0.00000000E+00
  4.70000000E+01  1.00000000E+01  0.00000000E+00
  4.70000000E+01  9.00000000E+00  0.00000000E+00
  4.70000000E+01  8.00000000E+00  0.00000000E+00
  4.70000000E+01  7.00000000E+00  0.00000000E+00
  4.70000000E+01  6.00000000E+00  0.00000000E+00
  4.70000000E+01  5.00000000E+00  0.00000000E+00
  4.70000000E+01  4.00000000E+00  0.00000000E+00
  4.70000000E+01  3.00000000E+00  0.00000000E+00
  4.70000000E+01  2.00000000E+00  0.00000000E+00
  4.70000000E+01  1.00000000E+00  0.00000000E+00
  4.70000000E+01 -2.66453526E-15  0.00000000E+00
  4.80000000E+01  2.40000000E+01  0.00000000E+00
  4.80000000E+01  2.30000000E+01  0.00000000E+00
  4.80000000E+01  2.20000000E+01  0.00000000E+00
  4.80000000E+01  2.10000000E+01  0.00000000E+00
  4.80000000E+01  2.00000000E+01  0.00000000E+00
  4.80000000E+01  1.90000000E+01  0.00000000E+00
  4.80000000E+01  1.80000000E+01  0.00000000E+00
  4.80000000E+01  1.70000000E+01  0.00000000E+00
  4.80000000E+01  1.60000000E+01  0.00000000E+00
  4.80000000E+01  1.50000000E+01  0.00000000E+00
  4.80000000E+01  1.40000000E+01  0.00000000E+00
  4.80000000E+01  1.30000000E+01  0.00000000E+00
  4.80000000E+01  1.20000000E+01  0.00000000E+00
  4.80000000E+01  1.10000000E+01  0.00000000E+00
  4.80000000E+01  1.00000000E+01  0.00000000E+00
  4.80000000E+01  9.00000000E+00  0.00000000E+00
  4.80000000E+01  8.00000000E+00  0.00000000E+00
  4.80000000E+01  7.00000000E+00  0.00000000E+00
  4.80000000E+01  6.00000000E+00  0.00000000E+00
  4.80000000E+01  5.00000000E+00  0.00000000E+00
  4.80000000E+01  4.00000000E+00  0.00000000E+00
  4.80000000E+01  3.00000000E+00  0.00000000E+00
  4.80000000E+01  2.00000000E+00  0.00000000E+00
  4.80000000E+01  1.00000000E+00  0.00000000E+00
  4.80000000E+01 -2.66453526E-15  0.00000000E+00
CELLS      1152      5760
         4           0           1          26          25
         4           1           2          27          26
         4           2           3          28          27
         4           3           4          29          28
         4           4           5          30          29
         4           5           6          31          30
         4           6           7          32          31
         4           7           8          33          32
         4           8           9          34          33
         4           9          10          35          34
         4          10          11          36          35
         4          11          12          37          36
         4          12          13          38          37
         4          13          14          39          38
         4          14          15          40          39
         4          15          16          41          40
         4          16          17          42          41
         4          17          18          43          42
         4          18          19          44          43
         4          19          20          45          44
         4          20          21          46          45
         4          21          22          47          46
         4          22          23          48          47
         4          23          24          49          48
         4          25          26          51          50
         4          26          27          52          51
         4          27          28          53          52
         4          28          29          54          53
         4          29          30          55          54
         4          30          31          56          55
         4          31          32          57          56
         4          32          33          58          57
         4          33          34          59          58
         4          34          35          60          59
         4          35          36          61          60
         4          36          37          62          61
         4          37          38          63          62
         4          38          39          64          63
         4          39          40          65          64
         4          40          41          66          65
         4          41          42          67          66
         4          42          43          68          67
         4          43          44          69          68
         4          44          45          70          69
         4          45          46          71          70
         4          46          47          72          71
         4          47          48          73          72
         4          48          49          74          73
         4          50          51          76          75
         4          51          52          77          76
         4          52          53          78          77
         4          53          54          79          78
         4          54          55          80          79
         4          55          56          81          80
         4          56          57          82          81
         4          57          58          83          82
         4          58          59          84          83
         4          59          60          85          84
         4          60          61          86          85
         4          61          62          87          86
         4          62          63          88          87
         4          63          64          89          88
         4          64          65          90          89
         4          65          66          91          90
         4          66          67          92          91
         4          67          68          93          92
         4          68          69          94          93
         4          69          70          95          94
         4          70          71          96          95
         4          71          72          97          96
         4          72          73          98          97
         4          73          74          99          98
         4          75          76         101         100
         4          76          77         102         101
         4          77          78         103         102
         4          78          79         104         103
         4          79          80         105         104
         4          80          81         106         105
         4          81          82         107         106
         4          82          83         108         107
         4          83          84         109         108
         4          84          85         110         109
         4          85          86         111         110
         4          86          87         112         111
         4          87          88         113         112
         4          88          89         114         113
         4          89          90         115         114
         4          90          91         116         115
         4          91          92         117         116
         4          92          93         118         117
         4          93          94         119         118
         4          94          95         120         119
         4          95          96         121         120
         4          96          97         122         121
         4          97          98         123         122
         4          98          99         124         123
         4         100         101         126         125
         4         101         102         127         126
         4         102         103         128         127
         4         103         104         129         128
         4         104         105         130         129
         4         105         106         131         130
         4         106         107         132         131
         4         107         108         133         132
         4         108         109         134         133
         4         109         110         135         134
         4         110         111         136         135
         4         111         112         137         136
         4         112         113         138         137
         4         113         114         139         138
         4         114         115         140         139
         4         115         116         141         140
         4         116         117         142         141
         4         117         118         143         142
         4         118         119         144         143
         4         119         120         145         144
         4         120         121         146         145
         4         121         122         147         146
         4         122         123         148         147
         4         123         124         149         148
         4         125         126         151         150
         4         126         127         152         151
         4         127         128         153         152
         4         128         129         154         153
         4         129         130         155         154
         4         130         131         156         155
         4         131         132         157         156
         4         132         133         158         157
         4         133         134         159         158
         4         134         135         160         159
         4         135         136         161         160
         4         136         137         162         161
         4         137         138         163         162
         4         138         139         164         163
         4         139         140         165         164
         4         140         141         166         165
         4         141         142         167         166
         4         142         143         168         167
         4         143         144         169         168
         4         144         145         170         169
         4         145         146         171         170
         4         146         147         172         171
         4         147         148         173         172
         4         148         149         174         173
         4         150         151         176         175
         4         151         152         177         176
         4         152         153         178         177
         4         153         154         179         178
         4         154         155         180         179
         4         155         156         181         180
         4         156         157         182         181
         4         157         158         183         182
         4         158         159         184         183
         4         159         160         185         184
         4         160         161         186         185
         4         161         162         187         186
         4         162         163         188         187
         4         163         164         189         188
         4         164         165         190         189
         4         165         166         191         190
         4         166         167         192         191
         4         167         168         193         192
         4         168         169         194         193
         4         169         170         195         194
         4         170         171         196         195
         4         171         172         197         196
         4         172         173         198         197
         4         173         174         199         198
         4         175         176         201         200
         4         176         177         202         201
         4         177         178         203         202
         4         178         179         204         203
         4         179         180         205         204
         4         180         181         206         205
         4         181         182         207         206
         4         182         183         208         207
         4         183         184         209         208
         4         184         185         210         209
         4         185         186         211         210
         4         186         187         212         211
         4         187         188         213         212
         4         188         189         214         213
         4         189         190         215         214
         4         190         191         216         215
         4         191         192         217         216
         4         192         193         218         217
         4         193         194         219         218
         4         194         195         220         219
         4         195         196         221         220
         4         196         197         222         221
         4         197         198         223         222
         4         198         199         224         223
         4         200         201         226         225
         4         201         202         227         226
         4         202         203         228         227
         4         203         204         229         228
         4         204         205         230         229
         4         205         206         231         230
         4         206         207         232         231
         4         207         208         233         232
         4         208         209         234         233
         4         209         210         235         234
         4         210         211         236         235
         4         211         212         237         236
         4         212         213         238         237
         4         213         214         239         238
         4         214         215         240         239
         4         215         216         241         240
         4         216         217         242         241
         4         217         218         243         242
         4         218         219         244         243
         4         219         220         245         244
         4         220         221         246         245
         4         221         222         247         246
         4         222         223         248         247
         4         223         224         249         248
         4         225         226         251         250
         4         226         227         252         251
         4         227         228         253         252
         4         228         229         254         253
         4         229         230         255         254
         4         230         231         256         255
         4         231         232         257         256
         4         232         233         258         257
         4         233         234         259         258
         4         234         235         260         259
         4         235         236         261         260
         4         236         237         262         261
         4         237         238         263         262
         4         238         239         264         263
         4         239         240         265         264
         4         240         241         266         265
         4         241         242         267         266
         4         242         243         268         267
         4         243         244         269         268
         4         244         245         270         269
         4         245         246         271         270
         4         246         247         272         271
         4         247         248         273         272
         4         248         249         274         273
         4         250         251         276         275
         4         251         252         277         276
         4         252         253         278         277
         4         253         254         279         278
         4         254         255         280         279
         4         255         256         281         280
         4         256         257         282         281
         4         257         258         283         282
         4         258         259         284         283
         4         259         260         285         284
         4         260         261         286         285
         4         261         262         287         286
         4         262         263         288         287
         4         263         264         289         288
         4         264         265         290         289
         4         265         266         291         290
         4         266         267         292         291
         4         267         268         293         292
         4         268         269         294         293
         4         269         270         295         294
         4         270         271         296         295
         4         271         272         297         296
         4         272         273         298         297
         4         273         274         299         298
         4         275         276         301         300
         4         276         277         302         301
         4         277         278         303         302
         4         278         279         304         303
         4         279         280         305         304
         4         280         281         306         305
         4         281         282         307         306
         4         282         283         308         307
         4         283         284         309         308
         4         284         285         310         309
         4         285         286         311         310
         4         286         287         312         311
         4         287         288         313         312
         4         288         289         314         313
         4         289         290         315         314
         4         290         291         316         315
         4         291         292         317         316
         4         292         293         318         317
         4         293         294         319         318
         4         294         295         320         319
         4         295         296         321         320
         4         296         297         322         321
         4         297         298         323         322
         4         298         299         324         323
         4         300         301         326         325
         4         301         302         327         326
         4         302         303         328         327
         4         303         304         329         328
         4         304         305         330         329
         4         305         306         331         330
         4         306         307         332         331
         4         307         308         333         332
         4         308         309         334         333
         4         309         310         335         334
         4         310         311         336         335
         4         311         312         337         336
         4         312         313         338         337
         4         313         314         339         338
         4         314         315         340         339
         4         315         316         341         340
         4         316         317         342         341
         4         317         318         343         342
         4         318         319         344         343
         4         319         320         345         344
         4         320         321         346         345
         4         321         322         347         346
         4         322         323         348         347
         4         323         324         349         348
         4         325         326         351         350
         4         326         327         352         351
         4         327         328         353         352
         4         328         329         354         353
         4         329         330         355         354
         4         330         331         356         355
         4         331         332         357         356
         4         332         333         358         357
         4         333         334         359         358
         4         334         335         360         359
         4         335         336         361         360
         4         336         337         362         361
         4         337         338         363         362
         4         338         339         364         363
         4         339         340         365         364
         4         340         341         366         365
         4         341         342         367         366
         4         342         343         368         367
         4         343         344         369         368
         4         344         345         370         369
         4         345         346         371         370
         4         346         347         372         371
         4         347         348         373         372
         4         348         349         374         373
         4         350         351         376         375
         4         351         352         377         376
         4         352         353         378         377
         4         353         354         379         378
         4         354         355         380         379
         4         355         356         381         380
         4         356         357         382         381
         4         357         358         383         382
         4         358         359         384         383
         4         359         360         385         384
         4         360         361         386         385
         4         361         362         387         386
         4         362         363         388         387
         4         363         364         389         388
         4         364         365         390         389
         4         365         366         391         390
         4         366         367         392         391
         4         367         368         393         392
         4         368         369         394         393
         4         369         370         395         394
         4         370         371         396         395
         4         371         372         397         396
         4         372         373         398         397
         4         373         374         399         398
         4         375         376         401         400
         4         376         377         402         401
         4         377         378         403         402
         4         378         379         404         403
         4         379         380         405         404
         4         380         381         406         405
         4         381         382         407         406
         4         382         383         408         407
         4         383         384         409         408
         4         384         385         410         409
         4         385         386         411         410
         4         386         387         412         411
         4         387         388         413         412
         4         388         389         414         413
         4         389         390         415         414
         4         390         391         416         415
         4         391         392         417         416
         4         392         393         418         417
         4         393         394         419         418
         4         394         395         420         419
         4         395         396         421         420
         4         396         397         422         421
         4         397         398         423         422
         4         398         399         424         423
         4         400         401         426         425
         4         401         402         427         426
         4         402         403         428         427
         4         403         404         429         428
         4         404         405         430         429
         4         405         406         431         430
         4         406         407         432         431
         4         407         408         433         432
         4         408         409         434         433
         4         409         410         435         434
         4         410         411         436         435
         4         411         412         437         436
         4         412         413         438         437
         4         413         414         439         438
         4         414         415         440         439
         4         415         416         441         440
         4         416         417         442         441
         4         417         418         443         442
         4         418         419         444         443
         4         419         420         445         444
         4         420         421         446         445
         4         421         422         447         446
         4         422         423         448         447
         4         423         424         449         448
         4         425         426         451         450
         4         426         427         452         451
         4         427         428         453         452
         4         428         429         454         453
         4         429         430         455         454
         4         430         431         456         455
         4         431         432         457         456
         4         432         433         458         457
         4         433         434         459         458
         4         434         435         460         459
         4         435         436         461         460
         4         436         437         462         461
         4         437         438         463         462
         4         438         439         464         463
         4         439         440         465         464
         4         440         441         466         465
         4         441         442         467         466
         4         442         443         468         467
         4         443         444         469         468
         4         444         445         470         469
         4         445         446         471         470
         4         446         447         472         471
         4         447         448         473         472
         4         448         449         474         473
         4         450         451         476         475
         4         451         452         477         476
         4         452         453         478         477
         4         453         454         479         478
         4         454         455         480         479
         4         455         456         481         480
         4         456         457         482         481
         4         457         458         483         482
         4         458         459         484         483
         4         459         460         485         484
         4         460         461         486         485
         4         461         462         487         486
         4         462         463         488         487
         4         463         464         489         488
         4         464         465         490         489
         4         465         466         491         490
         4         466         467         492         491
         4         467         468         493         492
         4         468         469         494         493
         4         469         470         495         494
         4         470         471         496         495
         4         471         472         497         496
         4         472         473         498         497
         4         473         474         499         498
         4         475         476         501         500
         4         476         477         502         501
         4         477         478         503         502
         4         478         479         504         503
         4         479         480         505         504
         4         480         481         506         505
         4         481         482         507         506
         4         482         483         508         507
         4         483         484         509         508
         4         484         485         510         509
         4         485         486         511         510
         4         486         487         512         511
         4         487         488         513         512
         4         488         489         514         513
         4         489         490         515         514
         4         490         491         516         515
         4         491         492         517         516
         4         492         493         518         517
         4         493         494         519         518
         4         494         495         520         519
         4         495         496         521         520
         4         496         497         522         521
         4         497         498         523         522
         4         498         499         524         523
         4         500         501         526         525
         4         501         502         527         526
         4         502         503         528         527
         4         503         504         529         528
         4         504         505         530         529
         4         505         506         531         530
         4         506         507         532         531
         4         507         508         533         532
         4         508         509         534         533
         4         509         510         535         534
         4         510         511         536         535
         4         511         512         537         536
         4         512         513         538         537
         4         513         514         539         538
         4         514         515         540         539
         4         515         516         541         540
         4         516         517         542         541
         4         517         518         543         542
         4         518         519         544         543
         4         519         520         545         544
         4         520         521         546         545
         4         521         522         547         546
         4         522         523         548         547
         4         523         524         549         548
         4         525         526         551         550
         4         526         527         552         551
         4         527         528         553         552
         4         528         529         554         553
         4         529         530         555         554
         4         530         531         556         555
         4         531         532         557         556
         4         532         533         558         557
         4         533         534         559         558
         4         534         535         560         559
         4         535         536         561         560
         4         536         537         562         561
         4         537         538         563         562
         4         538         539         564         563
         4         539         540         565         564
         4         540         541         566         565
         4         541         542         567         566
         4         542         543         568         567
         4         543         544         569         568
         4         544         545         570         569
         4         545         546         571         570
         4         546         547         572         571
         4         547         548         573         572
         4         548         549         574         573
         4         550         551         576         575
         4         551         552         577         576
         4         552         553         578         577
         4         553         554         579         578
         4         554         555         580         579
         4         555         556         581         580
         4         556         557         582         581
         4         557         558         583         582
         4         558         559         584         583
         4         559         560         585         584
         4         560         561         586         585
         4         561         562         587         586
         4         562         563         588         587
         4         563         564         589         588
         4         564         565         590         589
         4         565         566         591         590
         4         566         567         592         591
         4         567         568         593         592
         4         568         569         594         593
         4         569         570         595         594
         4         570         571         596         595
         4         571         572         597         596
         4         572         573         598         597
         4         573         574         599         598
         4         575         576         601         600
         4         576         577         602         601
         4         577         578         603         602
         4         578         579         604         603
         4         579         580         605         604
         4         580         581         606         605
         4         581         582         607         606
         4         582         583         608         607
         4         583         584         609         608
         4         584         585         610         609
         4         585         586         611         610
         4         586         587         612         611
         4         587         588         613         612
         4         588         589         614         613
         4         589         590         615         614
         4         590         591         616         615
         4         591         592         617         616
         4         592         593         618         617
         4         593         594         619         618
         4         594         595         620         619
         4         595         596         621         620
         4         596         597         622         621
         4         597         598         623         622
         4         598         599         624         623
         4         600         601         626         625
         4         601         602         627         626
         4         602         603         628         627
         4         603         604         629         628
         4         604         605         630         629
         4         605         606         631         630
         4         606         607         632         631
         4         607         608         633         632
         4         608         609         634         633
         4         609         610         635         634
         4         610         611         636         635
         4         611         612         637         636
         4         612         613         638         637
         4         613         614         639         638
         4         614         615         640         639
         4         615         616         641         640
         4         616         617         642         641
         4         617         618         643         642
         4         618         619         644         643
         4         619         620         645         644
         4         620         621         646         645
         4         621         622         647         646
         4         622         623         648         647
         4         623         624         649         648
         4         625         626         651         650
         4         626         627         652         651
         4         627         628         653         652
         4         628         629         654         653
         4         629         630         655         654
         4         630         631         656         655
         4         631         632         657         656
         4         632         633         658         657
         4         633         634         659         658
         4         634         635         660         659
         4         635         636         661         660
         4         636         637         662         661
         4         637         638         663         662
         4         638         639         664         663
         4         639         640         665         664
         4         640         641         666         665
         4         641         642         667         666
         4         642         643         668         667
         4         643         644         669         668
         4         644         645         670         669
         4         645         646         671         670
         4         646         647         672         671
         4         647         648         673         672
         4         648         649         674         673
         4         650         651         676         675
         4         651         652         677         676
         4         652         653         678         677
         4         653         654         679         678
         4         654         655         680         679
         4         655         656         681         680
         4         656         657         682         681
         4         657         658         683         682
         4         658         659         684         683
         4         659         660         685         684
         4         660         661         686         685
         4         661         662         687         686
         4         662         663         688         687
         4         663         664         689         688
         4         664         665         690         689
         4         665         666         691         690
         4         666         667         692         691
         4         667         668         693         692
         4         668         669         694         693
         4         669         670         695         694
         4         670         671         696         695
         4         671         672         697         696
         4         672         673         698         697
         4         673         674         699         698
         4         675         676         701         700
         4         676         677         702         701
         4         677         678         703         702
         4         678         679         704         703
         4         679         680         705         704
         4         680         681         706         705
         4         681         682         707         706
         4         682         683         708         707
         4         683         684         709         708
         4         684         685         710         709
         4         685         686         711         710
         4         686         687         712         711
         4         687         688         713         712
         4         688         689         714         713
         4         689         690         715         714
         4         690         691         716         715
         4         691         692         717         716
         4         692         693         718         717
         4         693         694         719         718
         4         694         695         720         719
         4         695         696         721         720
         4         696         697         722         721
         4         697         698         723         722
         4         698         699         724         723
         4         700         701         726         725
         4         701         702         727         726
         4         702         703         728         727
         4         703         704         729         728
         4         704         705         730         729
         4         705         706         731         730
         4         706         707         732         731
         4         707         708         733         732
         4         708         709         734         733
         4         709         710         735         734
         4         710         711         736         735
         4         711         712         737         736
         4         712         713         738         737
         4         713         714         739         738
         4         714         715         740         739
         4         715         716         741         740
         4         716         717         742         741
         4         717         718         743         742
         4         718         719         744         743
         4         719         720         745         744
         4         720         721         746         745
         4         721         722         747         746
         4         722         723         748         747
         4         723         724         749         748
         4         725         726         751         750
         4         726         727         752         751
         4         727         728         753         752
         4         728         729         754         753
         4         729         730         755         754
         4         730         731         756         755
         4         731         732         757         756
         4         732         733         758         757
         4         733         734         759         758
         4         734         735         760         759
         4         735         736         761         760
         4         736         737         762         761
         4         737         738         763         762
         4         738         739         764         763
         4         739         740         765         764
         4         740         741         766         765
         4         741         742         767         766
         4         742         743         768         767
         4         743         744         769         768
         4         744         745         770         769
         4         745         746         771         770
         4         746         747         772         771
         4         747         748         773         772
         4         748         749         774         773
         4         750         751         776         775
         4         751         752         777         776
         4         752         753         778         777
         4         753         754         779         778
         4         754         755         780         779
         4         755         756         781         780
         4         756         757         782         781
         4         757         758         783         782
         4         758         759         784         783
         4         759         760         785         784
         4         760         761         786         785
         4         761         762         787         786
         4         762         763         788         787
         4         763         764         789         788
         4         764         765         790         789
         4         765         766         791         790
         4         766         767         792         791
         4         767         768         793         792
         4         768         769         794         793
         4         769         770         795         794
         4         770         771         796         795
         4         771         772         797         796
         4         772         773         798         797
         4         773         774         799         798
         4         775         776         801         800
         4         776         777         802         801
         4         777         778         803         802
         4         778         779         804         803
         4         779         780         805         804
         4         780         781         806         805
         4         781         782         807         806
         4         782         783         808         807
         4         783         784         809         808
         4         784         785         810         809
         4         785         786         811         810
         4         786         787         812         811
         4         787         788         813         812
         4         788         789         814         813
         4         789         790         815         814
         4         790         791         816         815
         4         791         792         817         816
         4         792         793         818         817
         4         793         794         819         818
         4         794         795         820         819
         4         795         796         821         820
         4         796         797         822         821
         4         797         798         823         822
         4         798         799         824         823
         4         800         801         826         825
         4         801         802         827         826
         4         802         803         828         827
         4         803         804         829         828
         4         804         805         830         829
         4         805         806         831         830
         4         806         807         832         831
         4         807         808         833         832
         4         808         809         834         833
         4         809         810         835         834
         4         810         811         836         835
         4         811         812         837         836
         4         812         813         838         837
         4         813         814         839         838
         4         814         815         840         839
         4         815         816         841         840
         4         816         817         842         841
         4         817         818         843         842
         4         818         819         844         843
         4         819         820         845         844
         4         820         821         846         845
         4         821         822         847         846
         4         822         823         848         847
         4         823         824         849         848
         4         825         826         851         850
         4         826         827         852         851
         4         827         828         853         852
         4         828         829         854         853
         4         829         830         855         854
         4         830         831         856         855
         4         831         832         857         856
         4         832         833         858         857
         4         833         834         859         858
         4         834         835         860         859
         4         835         836         861         860
         4         836         837         862         861
         4         837         838         863         862
         4         838         839         864         863
         4         839         840         865         864
         4         840         841         866         865
         4         841         842         867         866
         4         842         843         868         867
         4         843         844         869         868
         4         844         845         870         869
         4         845         846         871         870
         4         846         847         872         871
         4         847         848         873         872
         4         848         849         874         873
         4         850         851         876         875
         4         851         852         877         876
         4         852         853         878         877
         4         853         854         879         878
         4         854         855         880         879
         4         855         856         881         880
         4         856         857         882         881
         4         857         858         883         882
         4         858         859         884         883
         4         859         860         885         884
         4         860         861         886         885
         4         861         862         887         886
         4         862         863         888         887
         4         863         864         889         888
         4         864         865         890         889
         4         865         866         891         890
         4         866         867         892         891
         4         867         868         893         892
         4         868         869         894         893
         4         869         870         895         894
         4         870         871         896         895
         4         871         872         897         896
         4         872         873         898         897
         4         873         874         899         898
         4         875         876         901         900
         4         876         877         902         901
         4         877         878         903         902
         4         878         879         904         903
         4         879         880         905         904
         4         880         881         906         905
         4         881         882         907         906
         4         882         883         908         907
         4         883         884         909         908
         4         884         885         910         909
         4         885         886         911         910
         4         886         887         912         911
         4         887         888         913         912
         4         888         889         914         913
         4         889         890         915         914
         4         890         891         916         915
         4         891         892         917         916
         4         892         893         918         917
         4         893         894         919         918
         4         894         895         920         919
         4         895         896         921         920
         4         896         897         922         921
         4         897         898         923         922
         4         898         899         924         923
         4         900         901         926         925
         4         901         902         927         926
         4         902         903         928         927
         4         903         904         929         928
         4         904         905         930         929
         4         905         906         931         930
         4         906         907         932         931
         4         907         908         933         932
         4         908         909         934         933
         4         909         910         935         934
         4         910         911         936         935
         4         911         912         937         936
         4         912         913         938         937
         4         913         914         939         938
         4         914         915         940         939
         4         915         916         941         940
         4         916         917         942         941
         4         917         918         943         942
         4         918         919         944         943
         4         919         920         945         944
         4         920         921         946         945
         4         921         922         947         946
         4         922         923         948         947
         4         923         924         949         948
         4         925         926         951         950
         4         926         927         952         951
         4         927         928         953         952
         4         928         929         954         953
         4         929         930         955         954
         4         930         931         956         955
         4         931         932         957         956
         4         932         933         958         957
         4         933         934         959         958
         4         934         935         960         959
         4         935         936         961         960
         4         936         937         962         961
         4         937         938         963         962
         4         938         939         964         963
         4         939         940         965         964
         4         940         941         966         965
         4         941         942         967         966
         4         942         943         968         967
         4         943         944         969         968
         4         944         945         970         969
         4         945         946         971         970
         4         946         947         972         971
         4         947         948         973         972
         4         948         949         974         973
         4         950         951         976         975
         4         951         952         977         976
         4         952         953         978         977
         4         953         954         979         978
         4         954         955         980         979
         4         955         956         981         980
         4         956         957         982         981
         4         957         958         983         982
         4         958         959         984         983
         4         959         960         985         984
         4         960         961         986         985
         4         961         962         987         986
         4         962         963         988         987
         4         963         964         989         988
         4         964         965         990         989
         4         965         966         991         990
         4         966         967         992         991
         4         967         968         993         992
         4         968         969         994         993
         4         969         970         995         994
         4         970         971         996         995
         4         971         972         997         996
         4         972         973         998         997
         4         973         974         999         998
         4         975         976        1001        1000
         4         976         977        1002        1001
         4         977         978        1003        1002
         4         978         979        1004        1003
         4         979         980        1005        1004
         4         980         981        1006        1005
         4         981         982        1007        1006
         4         982         983        1008        1007
         4         983         984        1009        1008
         4         984         985        1010        1009
         4         985         986        1011        1010
         4         986         987        1012        1011
         4         987         988        1013        1012
         4         988         989        1014        1013
         4         989         990        1015        1014
         4         990         991        1016        1015
         4         991         992        1017        1016
         4         992         993        1018        1017
         4         993         994        1019        1018
         4         994         995        1020        1019
         4         995         996        1021        1020
         4         996         997        1022        1021
         4         997         998        1023        1022
         4         998         999        1024        1023
         4        1000        1001        1026        1025
         4        1001        1002        1027        1026
         4        1002        1003        1028        1027
         4        1003        1004        1029        1028
         4        1004        1005        1030        1029
         4        1005        1006        1031        1030
         4        1006        1007        1032        1031
         4        1007        1008        1033        1032
         4        1008        1009        1034        1033
         4        1009        1010        1035        1034
         4        1010        1011        1036        1035
         4        1011        1012        1037        1036
         4        1012        1013        1038        1037
         4        1013        1014        1039        1038
         4        1014        1015        1040        1039
         4        1015        1016        1041        1040
         4        1016        1017        1042        1041
         4        1017        1018        1043        1042
         4        1018        1019        1044        1043
         4        1019        1020        1045        1044
         4        1020        1021        1046        1045
         4        1021        1022        1047        1046
         4        1022        1023        1048        1047
         4        1023        1024        1049        1048
         4        1025        1026        1051        1050
         4        1026        1027        1052        1051
         4        1027        1028        1053        1052
         4        1028        1029        1054        1053
         4        1029        1030        1055        1054
         4        1030        1031        1056        1055
         4        1031        1032        1057        1056
         4        1032        1033        1058        1057
         4        1033        1034        1059        1058
         4        1034        1035        1060        1059
         4        1035        1036        1061        1060
         4        1036        1037        1062        1061
         4        1037        1038        1063        1062
         4        1038        1039        1064        1063
         4        1039        1040        1065        1064
         4        1040        1041        1066        1065
         4        1041        1042        1067        1066
         4        1042        1043        1068        1067
         4        1043        1044        1069        1068
         4        1044        1045        1070        1069
         4        1045        1046        1071        1070
         4        1046        1047        1072        1071
         4        1047        1048        1073        1072
         4        1048        1049        1074        1073
         4        1050        1051        1076        1075
         4        1051        1052        1077        1076
         4        1052        1053        1078        1077
         4        1053        1054        1079        1078
         4        1054        1055        1080        1079
         4        1055        1056        1081        1080
         4        1056        1057        1082        1081
         4        1057        1058        1083        1082
         4        1058        1059        1084        1083
         4        1059        1060        1085        1084
         4        1060        1061        1086        1085
         4        1061        1062        1087        1086
         4        1062        1063        1088        1087
         4        1063        1064        1089        1088
         4        1064        1065        1090        1089
         4        1065        1066        1091        1090
         4        1066        1067        1092        1091
         4        1067        1068        1093        1092
         4        1068        1069        1094        1093
         4        1069        1070        1095        1094
         4        1070        1071        1096        1095
         4        1071        1072        1097        1096
         4        1072        1073        1098        1097
         4        1073        1074        1099        1098
         4        1075        1076        1101        1100
         4        1076        1077        1102        1101
         4        1077        1078        1103        1102
         4        1078        1079        1104        1103
         4        1079        1080        1105        1104
         4        1080        1081        1106        1105
         4        1081        1082        1107        1106
         4        1082        1083        1108        1107
         4        1083        1084        1109        1108
         4        1084        1085        1110        1109
         4        1085        1086        1111        1110
         4        1086        1087        1112        1111
         4        1087        1088        1113        1112
         4        1088        1089        1114        1113
         4        1089        1090        1115        1114
         4        1090        1091        1116        1115
         4        1091        1092        1117        1116
         4        1092        1093        1118        1117
         4        1093        1094        1119        1118
         4        1094        1095        1120        1119
         4        1095        1096        1121        1120
         4        1096        1097        1122        1121
         4        1097        1098        1123        1122
         4        1098        1099        1124        1123
         4        1100        1101        1126        1125
         4        1101        1102        1127        1126
         4        1102        1103        1128        1127
         4        1103        1104        1129        1128
         4        1104        1105        1130        1129
         4        1105        1106        1131        1130
         4        1106        1107        1132        1131
         4        1107        1108        1133        1132
         4        1108        1109        1134        1133
         4        1109        1110        1135        1134
         4        1110        1111        1136        1135
         4        1111        1112        1137        1136
         4        1112        1113        1138        1137
         4        1113        1114        1139        1138
         4        1114        1115        1140        1139
         4        1115        1116        1141        1140
         4        1116        1117        1142        1141
         4        1117        1118        1143        1142
         4        1118        1119        1144        1143
         4        1119        1120        1145        1144
         4        1120        1121        1146        1145
         4        1121        1122        1147        1146
         4        1122        1123        1148        1147
         4        1123        1124        1149        1148
         4        1125        1126        1151        1150
         4        1126        1127        1152        1151
         4        1127        1128        1153        1152
         4        1128        1129        1154        1153
         4        1129        1130        1155        1154
         4        1130        1131        1156        1155
         4        1131        1132        1157        1156
         4        1132        1133        1158        1157
         4        1133        1134        1159        1158
         4        1134        1135        1160        1159
         4        1135        1136        1161        1160
         4        1136        1137        1162        1161
         4        1137        1138        1163        1162
         4        1138        1139        1164        1163
         4        1139        1140        1165        1164
         4        1140        1141        1166        1165
         4        1141        1142        1167        1166
         4        1142        1143        1168        1167
         4        1143        1144        1169        1168
         4        1144        1145        1170        1169
         4        1145        1146        1171        1170
         4        1146        1147        1172        1171
         4        1147        1148        1173        1172
         4        1148        1149        1174        1173
         4        1150        1151        1176        1175
         4        1151        1152        1177        1176
         4        1152        1153        1178        1177
         4        1153        1154        1179        1178
         4        1154        1155        1180        1179
         4        1155        1156        1181        1180
         4        1156        1157        1182        1181
         4        1157        1158        1183        1182
         4        1158        1159        1184        1183
         4        1159        1160        1185        1184
         4        1160        1161        1186        1185
         4        1161        1162        1187        1186
         4        1162        1163        1188        1187
         4        1163        1164        1189        1188
         4        1164        1165        1190        1189
         4        1165        1166        1191        1190
         4        1166        1167        1192        1191
         4        1167        1168        1193        1192
         4        1168        1169        1194        1193
         4        1169        1170        1195        1194
         4        1170        1171        1196        1195
         4        1171        1172        1197        1196
         4        1172        1173        1198        1197
         4        1173        1174        1199        1198
         4        1175        1176        1201        1200
         4        1176        1177        1202        1201
         4        1177        1178        1203        1202
         4        1178        1179        1204        1203
         4        1179        1180        1205        1204
         4        1180        1181        1206        1205
         4        1181        1182        1207        1206
         4        1182        1183        1208        1207
         4        1183        1184        1209        1208
         4        1184        1185        1210        1209
         4        1185        1186        1211        1210
         4        1186        1187        1212        1211
         4        1187        1188        1213        1212
         4        1188        1189        1214        1213
         4        1189        1190        1215        1214
         4        1190        1191        1216        1215
         4        1191        1192        1217        1216
         4        1192        1193        1218        1217
         4        1193        1194        1219        1218
         4        1194        1195        1220        1219
         4        1195        1196        1221        1220
         4        1196        1197        1222        1221
         4        1197        1198        1223        1222
         4        1198        1199        1224        1223
CELL_TYPES       1152
9
9
9
9
9
9
9
9
9
9
9
9
9
9
9
9
9
9
9
9
9
9
9
9
9
9
9
9
9
9
9
9
9
9
9
9
9
9
9
9
9
9
9
9
9
9
9
9
9
9
9
9
9
9
9
9
9
9
9
9
9
9
9
9
9
9
9
9
9
9
9
9
9
9
9
9
9
9
9
9
9
9
9
9
9
9
9
9
9
9
9
9
9
9
9
9
9
9
9
9
9
9
9
9
9
9
9
9
9
9
9
9
9
9
9
9
9
9
9
9
9
9
9
9
9
9
9
9
9
9
9
9
9
9
9
9
9
9
9
9
9
9
9
9
9
9
9
9
9
9
9
9
9
9
9
9
9
9
9
9
9
9
9
9
9
9
9
9
9
9
9
9
9
9
9
9
9
9
9
9
9
9
9
9
9
9
9
9
9
9
9
9
9
9
9
9
9
9
9
9
9
9
9
9
9
9
9
9
9
9
9
9
9
9
9
9
9
9
9
9
9
9
9
9
9
9
9
9
9
9
9
9
9
9
9
9
9
9
9
9
9
9
9
9
9
9
9
9
9
9
9
9
9
9
9
9
9
9
9
9
9
9
9
9
9
9
9
9
9
9
9
9
9
9
9
9
9
9
9
9
9
9
9
9
9
9
9
9
9
9
9
9
9
9
9
9
9
9
9
9
9
9
9
9
9
9
9
9
9
9
9
9
9
9
9
9
9
9
9
9
9
9
9
9
9
9
9
9
9
9
9
9
9
9
9
9
9
9
9
9
9
9
9
9
9
9
9
9
9
9
9
9
9
9
9
9
9
9
9
9
9
9
9
9
9
9
9
9
9
9
9
9
9
9
9
9
9
9
9
9
9
9
9
9
9
9
9
9
9
9
9
9
9
9
9
9
9
9
9
9
9
9
9
9
9
9
9
9
9
9
9
9
9
9
9
9
9
9
9
9
9
9
9
9
9
9
9
9
9
9
9
9
9
9
9
9
9
9
9
9
9
9
9
9
9
9
9
9
9
9
9
9
9
9
9
9
9
9
9
9
9
9
9
9
9
9
9
9
9
9
9
9
9
9
9
9
9
9
9
9
9
9
9
9
9
9
9
9
9
9
9
9
9
9
9
9
9
9
9
9
9
9
9
9
9
9
9
9
9
9
9
9
9
9
9
9
9
9
9
9
9
9
9
9
9
9
9
9
9
9
9
9
9
9
9
9
9
9
9
9
9
9
9
9
9
9
9
9
9
9
9
9
9
9
9
9
9
9
9
9
9
9
9
9
9
9
9
9
9
9
9
9
9
9
9
9
9
9
9
9
9
9
9
9
9
9
9
9
9
9
9
9
9
9
9
9
9
9
9
9
9
9
9
9
9
9
9
9
9
9
9
9
9
9
9
9
9
9
9
9
9
9
9
9
9
9
9
9
9
9
9
9
9
9
9
9
9
9
9
9
9
9
9
9
9
9
9
9
9
9
9
9
9
9
9
9
9
9
9
9
9
9
9
9
9
9
9
9
9
9
9
9
9
9
9
9
9
9
9
9
9
9
9
9
9
9
9
9
9
9
9
9
9
9
9
9
9
9
9
9
9
9
9
9
9
9
9
9
9
9
9
9
9
9
9
9
9
9
9
9
9
9
9
9
9
9
9
9
9
9
9
9
9
9
9
9
9
9
9
9
9
9
9
9
9
9
9
9
9
9
9
9
9
9
9
9
9
9
9
9
9
9
9
9
9
9
9
9
9
9
9
9
9
9
9
9
9
9
9
9
9
9
9
9
9
9
9
9
9
9
9
9
9
9
9
9
9
9
9
9
9
9
9
9
9
9
9
9
9
9
9
9
9
9
9
9
9
9
9
9
9
9
9
9
9
9
9
9
9
9
9
9
9
9
9
9
9
9
9
9
9
9
9
9
9
9
9
9
9
9
9
9
9
9
9
9
9
9
9
9
9
9
9
9
9
9
9
9
9
9
9
9
9
9
9
9
9
9
9
9
9
9
9
9
9
9
9
9
9
9
9
9
9
9
9
9
9
9
9
9
9
9
9
9
9
9
9
9
9
9
9
9
9
9
9
9
9
9
9
9
9
9
9
9
9
9
9
9
9
9
9
9
9
9
9
9
9
9
9
9
9
9
9
9
9
9
9
9
9
9
9
9
9
9
9
9
9
9
9
9
9
9
9
9
9
9
9
9
9
9
9
9
9
9
9
9
9
9
9
9
9
9
9
9
9
9
9
9
9
9
9
9
9
9
9
9
9
9
9
9
9
9
9
9
9
9
9
9
9
9
9
9
9
9
9
9
9
9
9
9
9
9
9
9
9
9
9
9
9
9
9
9
9
9
9
9
9
9
9
9
9
9
9
9
9
9
9
9
9
9
9
9
9
9
9
9
9
9
9
9
9
9
9
9
9
9
9
9
9
9
9
9
9
9
9
9
9
9
9
9
9
9
9
9
9
9
9
9
9
9
9
9
9
9
9
9
9
9
9
9
9
9
9
9
9
9
9
9
9
9
9
9
9
9
9
9
9
9
9
9
9
9
9
9
9
9
9
9
9
9
9
9
9
9
9
9
9
9
9
9
9
9
9
9
9
9
9
9
9
9
9
9
POINT_DATA      1225
SCALARS p double 
LOOKUP_TABLE default
  1.290455639593720E-012
  1.364670496923075E-012
  1.501658313588092E-012
  1.700639997559109E-012
  1.971023579959872E-012
  2.262513395264454E-012
  2.556480224019087E-012
  2.846762792015825E-012
  3.140046608928169E-012
  3.421347644318660E-012
  3.701943874271155E-012
  3.982186257993568E-012
  4.245551213098393E-012
  4.485436206872860E-012
  4.704925983005436E-012
  4.909575578256148E-012
  5.094295771453327E-012
  5.258409107525656E-012
  5.403518490530558E-012
  5.527287996460009E-012
  5.631021361552217E-012
  5.711643586463328E-012
  5.769563981238001E-012
  5.804225689662545E-012
  5.815431493539143E-012
  1.178650211196233E-012
  1.261342645085967E-012
  1.452796715987467E-012
  1.694358543883769E-012
  1.950395571386457E-012
  2.245117035936114E-012
  2.546385631206853E-012
  2.844944604728330E-012
  3.138926026061967E-012
  3.423220192172249E-012
  3.709393365217709E-012
  3.979762256915081E-012
  4.241138659744019E-012
  4.481604919266690E-012
  4.702321807049164E-012
  4.911026381712386E-012
  5.094375790709555E-012
  5.256900806174538E-012
  5.402128625599690E-012
  5.526847190453286E-012
  5.630653576835653E-012
  5.712231406556461E-012
  5.769081722788444E-012
  5.803589337250561E-012
  5.814928820548701E-012
  8.731448960101706E-013
  9.844977516137016E-013
  1.307152287893849E-012
  1.626534250360068E-012
  1.922433337693322E-012
  2.218655312027963E-012
  2.532412914961333E-012
  2.844223913966861E-012
  3.138058553597035E-012
  3.421189529183155E-012
  3.706875466217771E-012
  3.975753425004179E-012
  4.233376430485199E-012
  4.475092411972275E-012
  4.702347950770162E-012
  4.911381757224222E-012
  5.091474245359627E-012
  5.254780667733910E-012
  5.399456119824141E-012
  5.524542969222022E-012
  5.629497764089736E-012
  5.710981172605255E-012
  5.767788533971559E-012
  5.801614856778754E-012
  5.812903331661707E-012
  0.000000000000000E+000
  7.275024252411081E-013
  1.148737970170820E-012
  1.534770763560628E-012
  1.867931740266422E-012
  2.187216876904312E-012
  2.523901724264338E-012
  2.847094347463522E-012
  3.136353069231934E-012
  3.411489407998949E-012
  3.691898086573358E-012
  3.968423738567728E-012
  4.231950348870713E-012
  4.473270797459045E-012
  4.694461724153822E-012
  4.901828947685391E-012
  5.088901218970253E-012
  5.248620807942646E-012
  5.391934786519400E-012
  5.522429755518008E-012
  5.626528948829870E-012
  5.705774839367244E-012
  5.764363885659566E-012
  5.798217251337720E-012
  5.809160935947718E-012
  0.000000000000000E+000
  5.333503188904231E-013
  1.018141827062530E-012
  1.429609308199576E-012
  1.810942736241063E-012
  2.159845563844893E-012
  2.492975657404782E-012
  2.821986586898907E-012
  3.119648028134320E-012
  3.398180538533944E-012
  3.681367342324332E-012
  3.954716798815494E-012
  4.217307483186641E-012
  4.466197586487374E-012
  4.689349643101819E-012
  4.896315903950127E-012
  5.081718417132093E-012
  5.243968759970694E-012
  5.387977382371369E-012
  5.514110562520355E-012
  5.619743972564090E-012
  5.700224175162061E-012
  5.757732032486757E-012
  5.792332213277077E-012
  5.804319901286194E-012
  0.000000000000000E+000
  4.745636895847057E-013
  9.370514444048267E-013
  1.367730875503678E-012
  1.754706320161235E-012
  2.108781024365655E-012
  2.454831619077114E-012
  2.781937637340331E-012
  3.089575893894575E-012
  3.384205412004905E-012
  3.669405735917990E-012
  3.941393967291493E-012
  4.199365152158828E-012
  4.451613499234892E-012
  4.682403689463268E-012
  4.890950040124570E-012
  5.076295531933981E-012
  5.241152976472547E-012
  5.383336148426587E-012
  5.506574221089746E-012
  5.611035959311797E-012
  5.693446442552722E-012
  5.751206739149014E-012
  5.786103693953051E-012
  5.797856152060149E-012
  0.000000000000000E+000
  4.448415113365763E-013
  8.869215434292372E-013
  1.312127286971922E-012
  1.701071563665549E-012
  2.070211394084888E-012
  2.422941756575314E-012
  2.741844835756296E-012
  3.057972371669821E-012
  3.361733163807462E-012
  3.648710771372166E-012
  3.921636383596595E-012
  4.180486762404690E-012
  4.434724021214302E-012
  4.668542499560656E-012
  4.878828141845160E-012
  5.068402349299278E-012
  5.234509583479137E-012
  5.379569824361231E-012
  5.501310541104389E-012
  5.603213842282837E-012
  5.685819241699329E-012
  5.743972799089396E-012
  5.778873805703426E-012
  5.790507669357751E-012
  0.000000000000000E+000
  4.271829520729769E-013
  8.558746718828645E-013
  1.268609085091167E-012
  1.654861190717873E-012
  2.031189848437206E-012
  2.386173880581129E-012
  2.709137786278982E-012
  3.023955857038732E-012
  3.330535347052397E-012
  3.621499499946609E-012
  3.900344698957250E-012
  4.165379956127876E-012
  4.421607334569109E-012
  4.655395345379849E-012
  4.867323169420760E-012
  5.057809468119074E-012
  5.225800876104668E-012
  5.372973872151188E-012
  5.494801003883304E-012
  5.595794090905488E-012
  5.676158453865992E-012
  5.735093610827679E-012
  5.770396448868938E-012
  5.781990494394916E-012
  0.000000000000000E+000
  4.116282213461402E-013
  8.244737638618448E-013
  1.226903582800661E-012
  1.618078322079900E-012
  1.994763263654947E-012
  2.346743520691483E-012
  2.677933541486985E-012
  2.989515052102987E-012
  3.295923592410838E-012
  3.596802287571277E-012
  3.877964738931230E-012
  4.148028884174420E-012
  4.407460756494212E-012
  4.641457397240093E-012
  4.856071935383603E-012
  5.047490236297215E-012
  5.214816642198267E-012
  5.360580044877809E-012
  5.483023512657048E-012
  5.584985959792063E-012
  5.666647620737819E-012
  5.724874535421465E-012
  5.759918265048536E-012
  5.771612627732746E-012
  0.000000000000000E+000
  3.976906991804981E-013
  7.989921554958185E-013
  1.195959897911714E-012
  1.581599724557033E-012
  1.955814551957056E-012
  2.310850351458014E-012
  2.643420156983839E-012
  2.960934819706857E-012
  3.270118397956504E-012
  3.570601200657423E-012
  3.855411744763966E-012
  4.130117082315627E-012
  4.391309810553303E-012
  4.628170374670008E-012
  4.841600309543188E-012
  5.032585724307382E-012
  5.199110480711714E-012
  5.346012671952967E-012
  5.470946228563657E-012
  5.574242127279489E-012
  5.655235696423761E-012
  5.713235591395746E-012
  5.747961785021157E-012
  5.759389472483075E-012
  0.000000000000000E+000
  3.892731994479749E-013
  7.817968158227192E-013
  1.170713051951718E-012
  1.554439425952109E-012
  1.923636749780374E-012
  2.273859206356038E-012
  2.616243563523114E-012
  2.938313218829296E-012
  3.251721229006115E-012
  3.550985853161426E-012
  3.839915547651590E-012
  4.116808200641613E-012
  4.374721769135446E-012
  4.612579541416988E-012
  4.825565380753782E-012
  5.013995122718541E-012
  5.183383321569730E-012
  5.330483628799603E-012
  5.457121450277097E-012
  5.563739535318738E-012
  5.643194052373000E-012
  5.699102231988713E-012
  5.735179803341450E-012
  5.747155423665095E-012
  0.000000000000000E+000
  3.819460504421551E-013
  7.700738638970773E-013
  1.155650548942865E-012
  1.535291249119141E-012
  1.902045220121580E-012
  2.255675866046806E-012
  2.599234211504932E-012
  2.926038231489967E-012
  3.237216622503359E-012
  3.540568221036551E-012
  3.830648506592234E-012
  4.101899192509833E-012
  4.360021063812471E-012
  4.595816570763367E-012
  4.807281695847286E-012
  4.998589954781410E-012
  5.169527045951828E-012
  5.319287159536394E-012
  5.444708218187742E-012
  5.549966617784404E-012
  5.631141272258878E-012
  5.686987397565017E-012
  5.721901276187514E-012
  5.733993246984223E-012
  0.000000000000000E+000
  3.820449984782995E-013
  7.620559498508428E-013
  1.143921017212826E-012
  1.519980942070761E-012
  1.884757075908037E-012
  2.238997763123435E-012
  2.585111644486252E-012
  2.914460750056809E-012
  3.227621970666571E-012
  3.531015745373027E-012
  3.816722772850808E-012
  4.088216065948757E-012
  4.344970412038529E-012
  4.582409769038842E-012
  4.794964462944687E-012
  4.984450410366910E-012
  5.156795391545904E-012
  5.305462678013901E-012
  5.433657230497119E-012
  5.536989621854160E-012
  5.617261100353304E-012
  5.673672563993285E-012
  5.708394849578802E-012
  5.720376919252874E-012
  0.000000000000000E+000
  3.835597198581883E-013
  7.605290309388271E-013
  1.135839942597288E-012
  1.507115147029193E-012
  1.870859718792610E-012
  2.225253888156843E-012
  2.569422728916512E-012
  2.900152233418347E-012
  3.216466722402393E-012
  3.518051959446601E-012
  3.803670305959037E-012
  4.075541935633356E-012
  4.332500374338905E-012
  4.566899855062491E-012
  4.780758777312356E-012
  4.972525115252247E-012
  5.145641965677545E-012
  5.294566297653321E-012
  5.420563311127206E-012
  5.524038815493186E-012
  5.603931413668867E-012
  5.660492654430646E-012
  5.694924891667269E-012
  5.706758980381883E-012
  0.000000000000000E+000
  3.813259216673378E-013
  7.569638353596458E-013
  1.127968714541136E-012
  1.498507447995602E-012
  1.860921185719519E-012
  2.214534682449317E-012
  2.555540151334626E-012
  2.885157170778382E-012
  3.203318966869142E-012
  3.505618931332162E-012
  3.795136257783166E-012
  4.067171240916578E-012
  4.320294220927526E-012
  4.554198475227204E-012
  4.767677385429047E-012
  4.962033755066846E-012
  5.134760591130163E-012
  5.282680568159776E-012
  5.407026970653709E-012
  5.509565862420780E-012
  5.591325860781357E-012
  5.648304165906310E-012
  5.682473878145369E-012
  5.693916998413511E-012
  0.000000000000000E+000
  3.770721031657031E-013
  7.528342554308149E-013
  1.124289400925662E-012
  1.491274343870315E-012
  1.851875449883116E-012
  2.202620211968899E-012
  2.542795278889529E-012
  2.874462062935054E-012
  3.190221301239820E-012
  3.493849762778618E-012
  3.784098748660169E-012
  4.055685081625111E-012
  4.309387022904821E-012
  4.542289840566575E-012
  4.755832529641106E-012
  4.950411191056813E-012
  5.121469968448695E-012
  5.267889204662574E-012
  5.392499062794608E-012
  5.495128753952976E-012
  5.577491716173529E-012
  5.635431006746876E-012
  5.669690772250094E-012
  5.681460409877077E-012
  0.000000000000000E+000
  3.744007119290622E-013
  7.490117570842365E-013
  1.120531566027590E-012
  1.485908723834031E-012
  1.843870252588465E-012
  2.192487657012898E-012
  2.533830914266236E-012
  2.864065556540219E-012
  3.179478091989301E-012
  3.483055893371819E-012
  3.771083278570161E-012
  4.041761452570029E-012
  4.295084753073592E-012
  4.529355131973646E-012
  4.742341259262365E-012
  4.935106586102730E-012
  5.105718594692991E-012
  5.253449976868767E-012
  5.378235377125541E-012
  5.481409849970109E-012
  5.562952256072523E-012
  5.621438727345521E-012
  5.656564570246936E-012
  5.668254748219187E-012
  0.000000000000000E+000
  3.732121703191333E-013
  7.461722976896469E-013
  1.114939988889369E-012
  1.478045137861202E-012
  1.834322487236088E-012
  2.183956841372677E-012
  2.524560195763709E-012
  2.852132718410657E-012
  3.169374597185974E-012
  3.472359469651226E-012
  3.758007566678196E-012
  4.026684636403180E-012
  4.280241217555391E-012
  4.515869765532729E-012
  4.729225302350057E-012
  4.920955393898083E-012
  5.090676233828897E-012
  5.237670916237898E-012
  5.364289980628166E-012
  5.467574560351062E-012
  5.549098104827516E-012
  5.607095380858860E-012
  5.642420061987507E-012
  5.654215414180146E-012
  0.000000000000000E+000
  3.721473611608477E-013
  7.426415520029778E-013
  1.109559133647006E-012
  1.471281431166244E-012
  1.826632348656740E-012
  2.174960684111387E-012
  2.513650671039931E-012
  2.840451459389537E-012
  3.157870005784146E-012
  3.459656607144560E-012
  3.743877732225471E-012
  4.013850512459640E-012
  4.265572033919268E-012
  4.501365795979028E-012
  4.716674061809139E-012
  4.908170771085585E-012
  5.076206777251386E-012
  5.221631019454316E-012
  5.347943424030711E-012
  5.452736657199592E-012
  5.534275710880704E-012
  5.592813723705388E-012
  5.628091372488124E-012
  5.639914406086241E-012
  0.000000000000000E+000
  3.706479042868630E-013
  7.391897828846667E-013
  1.105091703192392E-012
  1.466042856513275E-012
  1.820819711064398E-012
  2.167215008609753E-012
  2.505008532858445E-012
  2.830596779569589E-012
  3.145973313472477E-012
  3.448223243506267E-012
  3.731524943723621E-012
  3.999816162725895E-012
  4.251573965862404E-012
  4.486807293821353E-012
  4.700885618575897E-012
  4.892124340475336E-012
  5.061084961700648E-012
  5.206985323784904E-012
  5.332657251170934E-012
  5.436569382982873E-012
  5.519120529588744E-012
  5.578479119646881E-012
  5.613802942070889E-012
  5.625207067122910E-012
  0.000000000000000E+000
  3.690294488271689E-013
  7.360955794504913E-013
  1.100483168279643E-012
  1.460327113134614E-012
  1.814195835380242E-012
  2.159434943070126E-012
  2.495827215940109E-012
  2.821663956594773E-012
  3.135360157217023E-012
  3.436088777488189E-012
  3.720676898923261E-012
  3.987533646211561E-012
  4.238980461549626E-012
  4.471240083078075E-012
  4.683834450430734E-012
  4.874707354381481E-012
  5.043861035053117E-012
  5.191177997367816E-012
  5.317014942998943E-012
  5.421025186834273E-012
  5.503947161287041E-012
  5.563438137429559E-012
  5.598893110836352E-012
  5.610351103957581E-012
  0.000000000000000E+000
  3.675530221983220E-013
  7.334574011858120E-013
  1.096332925601164E-012
  1.454745836724256E-012
  1.806674303400038E-012
  2.151667035396284E-012
  2.486726112761726E-012
  2.811455199201180E-012
  3.125261914325425E-012
  3.425785590823829E-012
  3.708641064136738E-012
  3.975261012772315E-012
  4.225285419927280E-012
  4.457092782551574E-012
  4.667669860326301E-012
  4.859465347050781E-012
  5.028539642022875E-012
  5.175095959777228E-012
  5.301685377925758E-012
  5.406608510204841E-012
  5.488543683698404E-012
  5.547922326323360E-012
  5.583405573869734E-012
  5.595203246287622E-012
  0.000000000000000E+000
  3.662623112821669E-013
  7.308619394189200E-013
  1.092433709145028E-012
  1.449111948228815E-012
  1.800001956754784E-012
  2.144519611553283E-012
  2.479450807322368E-012
  2.802466511491052E-012
  3.114042593579737E-012
  3.413111160765103E-012
  3.696260642493410E-012
  3.961902634421398E-012
  4.211112809310959E-012
  4.442078654293760E-012
  4.653322937805721E-012
  4.843987395238929E-012
  5.013285955367026E-012
  5.160939748323017E-012
  5.287519444960149E-012
  5.391859604889550E-012
  5.473855733424472E-012
  5.532945097121412E-012
  5.568476901962898E-012
  5.580395336621454E-012
  0.000000000000000E+000
  3.649212963600793E-013
  7.283220213103849E-013
  1.088720742396664E-012
  1.444782648449183E-012
  1.794777581528033E-012
  2.137541055067015E-012
  2.471189204251418E-012
  2.793776340798946E-012
  3.103568209539775E-012
  3.399935742241281E-012
  3.683125796101753E-012
  3.949360612738890E-012
  4.197387134412708E-012
  4.427867642195800E-012
  4.639576679849064E-012
  4.828729402013036E-012
  4.998400299603438E-012
  5.147552792308836E-012
  5.273852888410987E-012
  5.377734602698918E-012
  5.459534960886267E-012
  5.518441479726926E-012
  5.554286637277060E-012
  5.565982837445964E-012
  0.000000000000000E+000
  3.637185688390732E-013
  7.259932205617247E-013
  1.085280701397838E-012
  1.440345291171916E-012
  1.789406881887339E-012
  2.130970200610279E-012
  2.462656872865921E-012
  2.784004201934782E-012
  3.094127478291930E-012
  3.389468881498877E-012
  3.670923851239157E-012
  3.936750152832898E-012
  4.184768416441586E-012
  4.414503203350780E-012
  4.625187938557222E-012
  4.815526769520846E-012
  4.985207117094715E-012
  5.133338733917459E-012
  5.259931283651504E-012
  5.364723872634798E-012
  5.445913886196187E-012
  5.504506134020901E-012
  5.539931867148386E-012
  5.551743849540473E-012
  0.000000000000000E+000
  3.625864474626916E-013
  7.238549144533509E-013
  1.082117948654272E-012
  1.435969984690698E-012
  1.783530023405431E-012
  2.123594229069310E-012
  2.454506085497818E-012
  2.774996939860327E-012
  3.084078080279734E-012
  3.379512225456212E-012
  3.659335492388632E-012
  3.923614392005424E-012
  4.172212527553765E-012
  4.402157751995832E-012
  4.612163044737930E-012
  4.801835373851264E-012
  4.970995425631320E-012
  5.118914858807197E-012
  5.246286659306835E-012
  5.351653851541070E-012
  5.432881037605680E-012
  5.491000988566818E-012
  5.526289617383859E-012
  5.538129762656955E-012
  0.000000000000000E+000
  3.616169026842833E-013
  7.217560762532240E-013
  1.079122743338073E-012
  1.431444699599572E-012
  1.777812447408060E-012
  2.116757647002736E-012
  2.446721336770049E-012
  2.766164708341099E-012
  3.074538913261969E-012
  3.369557868465260E-012
  3.648343628182895E-012
  3.912283329144452E-012
  4.159956493388944E-012
  4.388744926613537E-012
  4.599218982021863E-012
  4.788588805196135E-012
  4.957034430106930E-012
  5.105270575010899E-012
  5.233210783016873E-012
  5.337568550089797E-012
  5.419141371365400E-012
  5.477811123687002E-012
  5.512994986585344E-012
  5.524726584919071E-012
  0.000000000000000E+000
  3.608852776115764E-013
  7.199638204655937E-013
  1.076145845044472E-012
  1.427699868213519E-012
  1.772899698626351E-012
  2.110575654209957E-012
  2.439225759127728E-012
  2.757678853071136E-012
  3.065017679920457E-012
  3.358942924743667E-012
  3.638188376154641E-012
  3.901871032969687E-012
  4.148520001450174E-012
  4.376955071059839E-012
  4.585963847516382E-012
  4.775410131422240E-012
  4.944904535013518E-012
  5.093551907717772E-012
  5.220163084138711E-012
  5.324110360133716E-012
  5.405810398194483E-012
  5.464357364078648E-012
  5.499650057532841E-012
  5.511425471732386E-012
  0.000000000000000E+000
  3.599513288782814E-013
  7.183959468761154E-013
  1.073407674497144E-012
  1.423962392184195E-012
  1.768276376826270E-012
  2.105012718455705E-012
  2.432519546254721E-012
  2.750134411702321E-012
  3.055830326243448E-012
  3.349108311846341E-012
  3.628203747355000E-012
  3.891732609787966E-012
  4.138074463643265E-012
  4.365613732991481E-012
  4.573610747317799E-012
  4.762846153454777E-012
  4.933056128724386E-012
  5.081562157120741E-012
  5.208311981508110E-012
  5.312191923192263E-012
  5.392875391371895E-012
  5.451298448977609E-012
  5.486653844973896E-012
  5.498485572896987E-012
  0.000000000000000E+000
  3.591741949006366E-013
  7.167014085412951E-013
  1.071122802945672E-012
  1.420450432939373E-012
  1.763728322910737E-012
  2.099625927218882E-012
  2.426317110953399E-012
  2.742871507491497E-012
  3.047727049834528E-012
  3.340414713980735E-012
  3.618550450807824E-012
  3.881349873705159E-012
  4.127001567755458E-012
  4.354316708134275E-012
  4.563570585720956E-012
  4.752725031731283E-012
  4.921950921121468E-012
  5.069999477382127E-012
  5.196459189221098E-012
  5.300324531683444E-012
  5.380854608591007E-012
  5.439125480531783E-012
  5.474312855922291E-012
  5.486120268687703E-012
  0.000000000000000E+000
  3.584121816822100E-013
  7.148562540674213E-013
  1.068744390714631E-012
  1.417110975752055E-012
  1.759696435372221E-012
  2.094893362948267E-012
  2.421104764946631E-012
  2.737200221534126E-012
  3.041330176053725E-012
  3.332791303668372E-012
  3.610061697320519E-012
  3.872249462001967E-012
  4.117740299004404E-012
  4.344985735730265E-012
  4.554022798328898E-012
  4.743093255039553E-012
  4.911461621281564E-012
  5.058977867181054E-012
  5.185312486568025E-012
  5.288853132106611E-012
  5.370003894323712E-012
  5.427685867566418E-012
  5.462673422632275E-012
  5.474469477783655E-012
  0.000000000000000E+000
  3.575599479853108E-013
  7.133762197987846E-013
  1.066118530731399E-012
  1.414052506059658E-012
  1.755826670431577E-012
  2.090612187153538E-012
  2.416199191989176E-012
  2.731192829055914E-012
  3.035292069776749E-012
  3.326316471537052E-012
  3.603195186810590E-012
  3.864463224777040E-012
  4.109512713113817E-012
  4.336823650832400E-012
  4.545217288726624E-012
  4.733554804048976E-012
  4.901567512858881E-012
  5.048753074196745E-012
  5.174423815916436E-012
  5.277880658065691E-012
  5.358710296110536E-012
  5.417032867575517E-012
  5.451893765849453E-012
  5.463575915356078E-012
  0.000000000000000E+000
  3.565865992200152E-013
  7.120463679109721E-013
  1.063655224591408E-012
  1.411188422558737E-012
  1.752764565693588E-012
  2.086622639020915E-012
  2.411508252119859E-012
  2.725705490409763E-012
  3.029124417413991E-012
  3.320037443892679E-012
  3.596541193781716E-012
  3.857753994296370E-012
  4.101408266188636E-012
  4.328235273205810E-012
  4.536430584680175E-012
  4.723755013311189E-012
  4.891562082146856E-012
  5.038443602724873E-012
  5.163881171291204E-012
  5.267397929222498E-012
  5.348435802620417E-012
  5.406709614560468E-012
  5.441630594013861E-012
  5.453264430526698E-012
  0.000000000000000E+000
  3.557406181691986E-013
  7.100203121404130E-013
  1.061532744936639E-012
  1.408585953067673E-012
  1.749280895795448E-012
  2.082588518410570E-012
  2.406941791050642E-012
  2.721057966086126E-012
  3.023870228946897E-012
  3.313729131722571E-012
  3.589608211706943E-012
  3.850115432976182E-012
  4.093579017024195E-012
  4.319928789637836E-012
  4.527108111090735E-012
  4.714438627224654E-012
  4.882165627440373E-012
  5.029304908511313E-012
  5.154684011401967E-012
  5.258144514400652E-012
  5.339019402715435E-012
  5.396895431234366E-012
  5.431843705233179E-012
  5.443487589970081E-012
  0.000000000000000E+000
  3.551793164145019E-013
  7.084459013805070E-013
  1.058950104676736E-012
  1.405666681069073E-012
  1.745691417934674E-012
  2.078092687178216E-012
  2.402301003862638E-012
  2.716232178918624E-012
  3.018528879552872E-012
  3.307844041633938E-012
  3.582819215365778E-012
  3.842397982410459E-012
  4.085849778186682E-012
  4.311716475687037E-012
  4.518933052345396E-012
  4.706897672046737E-012
  4.874586315581045E-012
  5.021429967225114E-012
  5.146414269241689E-012
  5.249805077220515E-012
  5.330223683923422E-012
  5.387818652778629E-012
  5.422594120766781E-012
  5.434261582292244E-012
  0.000000000000000E+000
  3.542615331625232E-013
  7.069707395298297E-013
  1.056740845126765E-012
  1.402561941913232E-012
  1.742285290897550E-012
  2.074301904725104E-012
  2.398078888813718E-012
  2.711382803426130E-012
  3.013224207472840E-012
  3.301919527452921E-012
  3.576421675571414E-012
  3.836034973896048E-012
  4.079135299718764E-012
  4.304617103339554E-012
  4.511712237265991E-012
  4.700000475694454E-012
  4.867547607934484E-012
  5.014117567298954E-012
  5.138990334626443E-012
  5.241693418112712E-012
  5.321967173871301E-012
  5.379480465508240E-012
  5.414148116867260E-012
  5.425718102506272E-012
  0.000000000000000E+000
  3.534859412067493E-013
  7.055652113404740E-013
  1.055060228000721E-012
  1.400275219945289E-012
  1.739230681289404E-012
  2.070901738839455E-012
  2.394030713708261E-012
  2.706816301040623E-012
  3.008313342046681E-012
  3.296722973748726E-012
  3.570956684114073E-012
  3.830327183554639E-012
  4.073135322002259E-012
  4.298217704516649E-012
  4.505237158235293E-012
  4.693291312610951E-012
  4.860831366458982E-012
  5.007122862513030E-012
  5.131587292889752E-012
  5.233893093213362E-012
  5.314165667104969E-012
  5.371728102568930E-012
  5.406404156109904E-012
  5.417975340898270E-012
  0.000000000000000E+000
  3.527362605026668E-013
  7.041327386829167E-013
  1.053345648974074E-012
  1.398214411717634E-012
  1.736672482832286E-012
  2.067966081999287E-012
  2.390823638469363E-012
  2.703538773958667E-012
  3.004405083177777E-012
  3.292397208728226E-012
  3.566166101418014E-012
  3.825087816804450E-012
  4.067374261940751E-012
  4.292552994822397E-012
  4.499648003961662E-012
  4.687129410060651E-012
  4.854480279999608E-012
  5.000608062210172E-012
  5.124603235595875E-012
  5.226921258476046E-012
  5.307004409104147E-012
  5.364595256049057E-012
  5.399250033412310E-012
  5.410821503258802E-012
  0.000000000000000E+000
  3.522795371904948E-013
  7.033737667938300E-013
  1.052387262135959E-012
  1.396456074589500E-012
  1.734726366965365E-012
  2.065473859544967E-012
  2.387991911618732E-012
  2.700408325266543E-012
  3.000907970384220E-012
  3.288554110960812E-012
  3.561840911264988E-012
  3.819948842138193E-012
  4.062064335070764E-012
  4.286927374949596E-012
  4.493652830135193E-012
  4.680950355100203E-012
  4.847857339640220E-012
  4.993951769676225E-012
  5.118010821163485E-012
  5.220382660747894E-012
  5.300536500096980E-012
  5.357959617999535E-012
  5.392598751216789E-012
  5.404151202619096E-012
  0.000000000000000E+000
  3.521367204357942E-013
  7.028792057292754E-013
  1.051276885979664E-012
  1.395377575000675E-012
  1.733093583474641E-012
  2.063548258132182E-012
  2.385323678335861E-012
  2.697304876456507E-012
  2.997440106823950E-012
  3.284585309362527E-012
  3.557677748614773E-012
  3.815502072977848E-012
  4.057390810311306E-012
  4.281581680881190E-012
  4.487513086813749E-012
  4.674767121070538E-012
  4.841744660918510E-012
  4.987818431115469E-012
  5.112148408855506E-012
  5.214464576700755E-012
  5.294449388848569E-012
  5.351836049823969E-012
  5.386415658212114E-012
  5.398004019859047E-012
  0.000000000000000E+000
  3.520279682860571E-013
  7.024003828789274E-013
  1.050330298736759E-012
  1.393994918536019E-012
  1.731292222961145E-012
  2.061457399403917E-012
  2.383102694271882E-012
  2.694480233947971E-012
  2.994121018244685E-012
  3.281090612881207E-012
  3.554006676547623E-012
  3.812017897785963E-012
  4.053417026985289E-012
  4.277111353757824E-012
  4.482559142365050E-012
  4.669494132722003E-012
  4.836433677541365E-012
  4.982387125278194E-012
  5.106750926852464E-012
  5.209110398753147E-012
  5.289011860712188E-012
  5.346365775171840E-012
  5.380922595119856E-012
  5.392476062714758E-012
  0.000000000000000E+000
  3.518551862740935E-013
  7.020461595187605E-013
  1.049558970784410E-012
  1.392628329451880E-012
  1.729686894370078E-012
  2.059549523054688E-012
  2.381064901525086E-012
  2.692154886861329E-012
  2.991422834886374E-012
  3.278231489424474E-012
  3.550643860929687E-012
  3.808310789792233E-012
  4.049627454588707E-012
  4.273104107858825E-012
  4.478505648938493E-012
  4.664974606310629E-012
  4.831656000498542E-012
  4.977481498216188E-012
  5.101769177602555E-012
  5.204183280497736E-012
  5.284207620876047E-012
  5.341531434126844E-012
  5.376092053057511E-012
  5.387644192831302E-012
  0.000000000000000E+000
  3.514003042295650E-013
  7.014863486402395E-013
  1.049048935357956E-012
  1.391782705757270E-012
  1.728468026630552E-012
  2.057886116431935E-012
  2.378922574023017E-012
  2.689915620217499E-012
  2.989322784257816E-012
  3.275801796536471E-012
  3.547742107011025E-012
  3.804840329444591E-012
  4.045858047867212E-012
  4.269579649526957E-012
  4.475047584027832E-012
  4.661194007198432E-012
  4.827644288034521E-012
  4.973312948019657E-012
  5.097614830184118E-012
  5.199981684338409E-012
  5.280087163424219E-012
  5.337445444178635E-012
  5.371948062760968E-012
  5.383489506744911E-012
  0.000000000000000E+000
  3.513408792608667E-013
  7.013086495009404E-013
  1.048366491736810E-012
  1.390813309683138E-012
  1.727215116951410E-012
  2.056625166429652E-012
  2.377132990953070E-012
  2.687796801946534E-012
  2.987151719607192E-012
  3.273479517873861E-012
  3.545692703260765E-012
  3.802378667498990E-012
  4.043140134978175E-012
  4.266560346132215E-012
  4.471815268161157E-012
  4.658037197350614E-012
  4.824228650115617E-012
  4.969805632814432E-012
  5.094110528469761E-012
  5.196573021470412E-012
  5.276623626802932E-012
  5.333968453858079E-012
  5.368452863805697E-012
  5.379973541030617E-012
  0.000000000000000E+000
  3.511090223100225E-013
  7.012348753156225E-013
  1.047986704639549E-012
  1.390101276775510E-012
  1.726272807790320E-012
  2.055492029623362E-012
  2.375804757399697E-012
  2.686089604644570E-012
  2.985205315056819E-012
  3.271489269707793E-012
  3.543771073221103E-012
  3.800529483316227E-012
  4.041003213674128E-012
  4.264320180470277E-012
  4.469369023318514E-012
  4.655527465090440E-012
  4.821647316040814E-012
  4.967081628920005E-012
  5.091274874236837E-012
  5.193696946705402E-012
  5.273711578715040E-012
  5.331088016499505E-012
  5.365580893419764E-012
  5.377094429861890E-012
  0.000000000000000E+000
  3.509338848883530E-013
  7.008190891433828E-013
  1.047369342064843E-012
  1.389286800076430E-012
  1.725588182128140E-012
  2.054462117635406E-012
  2.374621063254111E-012
  2.684864482797742E-012
  2.983865358079073E-012
  3.270095089191311E-012
  3.542078098055093E-012
  3.798946575324289E-012
  4.039350977733337E-012
  4.262703805406571E-012
  4.467826375288545E-012
  4.653794918976732E-012
  4.819842818042511E-012
  4.965172795511419E-012
  5.089211442537743E-012
  5.191492042896868E-012
  5.271450122681226E-012
  5.328841620567885E-012
  5.363349386117093E-012
  5.374858197180621E-012
  0.000000000000000E+000
  3.508309979073346E-013
  7.000109039601538E-013
  1.046503939118300E-012
  1.388708385910635E-012
  1.724866411065835E-012
  2.053532197977693E-012
  2.373839239374434E-012
  2.684051007711201E-012
  2.982796794911650E-012
  3.268753302523557E-012
  3.540686017185359E-012
  3.797695949101197E-012
  4.038504097172190E-012
  4.261772407696247E-012
  4.466842708192030E-012
  4.652692689611763E-012
  4.818682143712077E-012
  4.963864236575428E-012
  5.087780634465456E-012
  5.189945742017506E-012
  5.269879333672674E-012
  5.327222699483396E-012
  5.361729043275636E-012
  5.373247336779101E-012
  0.000000000000000E+000
  3.504952453567012E-013
  6.995194902750869E-013
  1.045893010538541E-012
  1.388152994786248E-012
  1.724544571712150E-012
  2.053159805397161E-012
  2.373313701043245E-012
  2.683541155588954E-012
  2.982143808724294E-012
  3.268002854510342E-012
  3.540079444581691E-012
  3.797117966140996E-012
  4.037900251042732E-012
  4.261186616610548E-012
  4.466177516659087E-012
  4.652053804368857E-012
  4.817924666906350E-012
  4.963083947788410E-012
  5.086917733571716E-012
  5.189008098471108E-012
  5.268907513410108E-012
  5.326248167968514E-012
  5.360755125955774E-012
  5.372268692056773E-012
  0.000000000000000E+000
  3.502430675990781E-013
  6.992399501184951E-013
  1.045692404000638E-012
  1.388009345673463E-012
  1.724320290817791E-012
  2.053105590507524E-012
  2.373218408333588E-012
  2.683221926569758E-012
  2.981994127340351E-012
  3.267920735804229E-012
  3.539883778117707E-012
  3.796949217599343E-012
  4.037796617736616E-012
  4.261009400144748E-012
  4.465873929722770E-012
  4.651804291744921E-012
  4.817613449045913E-012
  4.962764830582366E-012
  5.086637391764491E-012
  5.188709248198765E-012
  5.268603521770180E-012
  5.325927921635344E-012
  5.360423320544372E-012
  5.371938905702348E-012
VECTORS u double 
    0.00000E+00        -0.44284E+00         0.00000E+00
    0.00000E+00        -0.41111E+00         0.00000E+00
    0.00000E+00        -0.37476E+00         0.00000E+00
    0.00000E+00        -0.33829E+00         0.00000E+00
    0.00000E+00        -0.30468E+00         0.00000E+00
    0.00000E+00        -0.27453E+00         0.00000E+00
    0.00000E+00        -0.24761E+00         0.00000E+00
    0.00000E+00        -0.22347E+00         0.00000E+00
    0.00000E+00        -0.20167E+00         0.00000E+00
    0.00000E+00        -0.18182E+00         0.00000E+00
    0.00000E+00        -0.16360E+00         0.00000E+00
    0.00000E+00        -0.14678E+00         0.00000E+00
    0.00000E+00        -0.13114E+00         0.00000E+00
    0.00000E+00        -0.11653E+00         0.00000E+00
    0.00000E+00        -0.10280E+00         0.00000E+00
    0.00000E+00        -0.89854E-01         0.00000E+00
    0.00000E+00        -0.77604E-01         0.00000E+00
    0.00000E+00        -0.65984E-01         0.00000E+00
    0.00000E+00        -0.54944E-01         0.00000E+00
    0.00000E+00        -0.44448E-01         0.00000E+00
    0.00000E+00        -0.34478E-01         0.00000E+00
    0.00000E+00        -0.25027E-01         0.00000E+00
    0.00000E+00        -0.16108E-01         0.00000E+00
    0.00000E+00        -0.77481E-02         0.00000E+00
    0.00000E+00         0.00000E+00         0.00000E+00
   -0.21284E-01        -0.43286E+00         0.00000E+00
   -0.30059E-02        -0.40120E+00         0.00000E+00
    0.73113E-02        -0.36508E+00         0.00000E+00
    0.11124E-01        -0.33026E+00         0.00000E+00
    0.12053E-01        -0.29840E+00         0.00000E+00
    0.11842E-01        -0.26967E+00         0.00000E+00
    0.11208E-01        -0.24383E+00         0.00000E+00
    0.10446E-01        -0.22050E+00         0.00000E+00
    0.96761E-02        -0.19930E+00         0.00000E+00
    0.89440E-02        -0.17990E+00         0.00000E+00
    0.82633E-02        -0.16205E+00         0.00000E+00
    0.76338E-02        -0.14551E+00         0.00000E+00
    0.70499E-02        -0.13010E+00         0.00000E+00
    0.65036E-02        -0.11566E+00         0.00000E+00
    0.59857E-02        -0.10209E+00         0.00000E+00
    0.54872E-02        -0.89266E-01         0.00000E+00
    0.49985E-02        -0.77123E-01         0.00000E+00
    0.45097E-02        -0.65596E-01         0.00000E+00
    0.40103E-02        -0.54636E-01         0.00000E+00
    0.34887E-02        -0.44210E-01         0.00000E+00
    0.29320E-02        -0.34302E-01         0.00000E+00
    0.23249E-02        -0.24905E-01         0.00000E+00
    0.16493E-02        -0.16033E-01         0.00000E+00
    0.88341E-03        -0.77142E-02         0.00000E+00
    0.00000E+00         0.00000E+00         0.00000E+00
   -0.41304E-01        -0.40152E+00         0.00000E+00
   -0.30221E-02        -0.36799E+00         0.00000E+00
    0.13731E-01        -0.33617E+00         0.00000E+00
    0.20227E-01        -0.30727E+00         0.00000E+00
    0.22177E-01        -0.28055E+00         0.00000E+00
    0.22109E-01        -0.25583E+00         0.00000E+00
    0.21190E-01        -0.23299E+00         0.00000E+00
    0.19949E-01        -0.21191E+00         0.00000E+00
    0.18624E-01        -0.19242E+00         0.00000E+00
    0.17319E-01        -0.17434E+00         0.00000E+00
    0.16077E-01        -0.15751E+00         0.00000E+00
    0.14908E-01        -0.14178E+00         0.00000E+00
    0.13808E-01        -0.12702E+00         0.00000E+00
    0.12768E-01        -0.11312E+00         0.00000E+00
    0.11773E-01        -0.99981E-01         0.00000E+00
    0.10809E-01        -0.87532E-01         0.00000E+00
    0.98576E-02        -0.75705E-01         0.00000E+00
    0.89018E-02        -0.64448E-01         0.00000E+00
    0.79216E-02        -0.53724E-01         0.00000E+00
    0.68949E-02        -0.43505E-01         0.00000E+00
    0.57966E-02        -0.33778E-01         0.00000E+00
    0.45972E-02        -0.24543E-01         0.00000E+00
    0.32615E-02        -0.15811E-01         0.00000E+00
    0.17468E-02        -0.76136E-02         0.00000E+00
    0.00000E+00         0.00000E+00         0.00000E+00
   -0.54951E-01        -0.32517E+00         0.00000E+00
   -0.39592E-02        -0.30932E+00         0.00000E+00
    0.16257E-01        -0.29181E+00         0.00000E+00
    0.25318E-01        -0.27318E+00         0.00000E+00
    0.28839E-01        -0.25406E+00         0.00000E+00
    0.29600E-01        -0.23504E+00         0.00000E+00
    0.28999E-01        -0.21650E+00         0.00000E+00
    0.27757E-01        -0.19870E+00         0.00000E+00
    0.26244E-01        -0.18172E+00         0.00000E+00
    0.24646E-01        -0.16561E+00         0.00000E+00
    0.23053E-01        -0.15033E+00         0.00000E+00
    0.21505E-01        -0.13585E+00         0.00000E+00
    0.20014E-01        -0.12210E+00         0.00000E+00
    0.18576E-01        -0.10903E+00         0.00000E+00
    0.17181E-01        -0.96595E-01         0.00000E+00
    0.15811E-01        -0.84735E-01         0.00000E+00
    0.14447E-01        -0.73411E-01         0.00000E+00
    0.13066E-01        -0.62590E-01         0.00000E+00
    0.11641E-01        -0.52245E-01         0.00000E+00
    0.10140E-01        -0.42360E-01         0.00000E+00
    0.85299E-02        -0.32928E-01         0.00000E+00
    0.67671E-02        -0.23953E-01         0.00000E+00
    0.48014E-02        -0.15450E-01         0.00000E+00
    0.25711E-02        -0.74496E-02         0.00000E+00
    0.00000E+00         0.00000E+00         0.00000E+00
   -0.58338E-01        -0.24437E+00         0.00000E+00
   -0.11222E-01        -0.24615E+00         0.00000E+00
    0.13215E-01        -0.24287E+00         0.00000E+00
    0.25557E-01        -0.23451E+00         0.00000E+00
    0.31467E-01        -0.22317E+00         0.00000E+00
    0.33803E-01        -0.21016E+00         0.00000E+00
    0.34163E-01        -0.19633E+00         0.00000E+00
    0.33447E-01        -0.18222E+00         0.00000E+00
    0.32164E-01        -0.16818E+00         0.00000E+00
    0.30600E-01        -0.15442E+00         0.00000E+00
    0.28913E-01        -0.14104E+00         0.00000E+00
    0.27187E-01        -0.12810E+00         0.00000E+00
    0.25462E-01        -0.11563E+00         0.00000E+00
    0.23752E-01        -0.10363E+00         0.00000E+00
    0.22057E-01        -0.92096E-01         0.00000E+00
    0.20365E-01        -0.81004E-01         0.00000E+00
    0.18656E-01        -0.70342E-01         0.00000E+00
    0.16906E-01        -0.60096E-01         0.00000E+00
    0.15085E-01        -0.50256E-01         0.00000E+00
    0.13156E-01        -0.40817E-01         0.00000E+00
    0.11075E-01        -0.31780E-01         0.00000E+00
    0.87895E-02        -0.23155E-01         0.00000E+00
    0.62370E-02        -0.14961E-01         0.00000E+00
    0.33392E-02        -0.72273E-02         0.00000E+00
    0.00000E+00         0.00000E+00         0.00000E+00
   -0.55389E-01        -0.19936E+00         0.00000E+00
   -0.18901E-01        -0.19914E+00         0.00000E+00
    0.69198E-02        -0.19992E+00         0.00000E+00
    0.22187E-01        -0.19758E+00         0.00000E+00
    0.30676E-01        -0.19202E+00         0.00000E+00
    0.34982E-01        -0.18406E+00         0.00000E+00
    0.36739E-01        -0.17451E+00         0.00000E+00
    0.36960E-01        -0.16397E+00         0.00000E+00
    0.36267E-01        -0.15289E+00         0.00000E+00
    0.35041E-01        -0.14157E+00         0.00000E+00
    0.33510E-01        -0.13023E+00         0.00000E+00
    0.31811E-01        -0.11900E+00         0.00000E+00
    0.30019E-01        -0.10797E+00         0.00000E+00
    0.28175E-01        -0.97189E-01         0.00000E+00
    0.26292E-01        -0.86694E-01         0.00000E+00
    0.24370E-01        -0.76502E-01         0.00000E+00
    0.22395E-01        -0.66623E-01         0.00000E+00
    0.20344E-01        -0.57065E-01         0.00000E+00
    0.18187E-01        -0.47832E-01         0.00000E+00
    0.15883E-01        -0.38932E-01         0.00000E+00
    0.13382E-01        -0.30375E-01         0.00000E+00
    0.10627E-01        -0.22177E-01         0.00000E+00
    0.75414E-02        -0.14359E-01         0.00000E+00
    0.40366E-02        -0.69534E-02         0.00000E+00
    0.00000E+00         0.00000E+00         0.00000E+00
   -0.51224E-01        -0.16553E+00         0.00000E+00
   -0.22397E-01        -0.16504E+00         0.00000E+00
    0.10354E-02        -0.16576E+00         0.00000E+00
    0.17423E-01        -0.16562E+00         0.00000E+00
    0.27812E-01        -0.16335E+00         0.00000E+00
    0.33938E-01        -0.15893E+00         0.00000E+00
    0.37186E-01        -0.15275E+00         0.00000E+00
    0.38540E-01        -0.14525E+00         0.00000E+00
    0.38664E-01        -0.13685E+00         0.00000E+00
    0.37997E-01        -0.12786E+00         0.00000E+00
    0.36825E-01        -0.11853E+00         0.00000E+00
    0.35331E-01        -0.10902E+00         0.00000E+00
    0.33626E-01        -0.99482E-01         0.00000E+00
    0.31777E-01        -0.89993E-01         0.00000E+00
    0.29819E-01        -0.80620E-01         0.00000E+00
    0.27762E-01        -0.71411E-01         0.00000E+00
    0.25604E-01        -0.62398E-01         0.00000E+00
    0.23325E-01        -0.53606E-01         0.00000E+00
    0.20896E-01        -0.45056E-01         0.00000E+00
    0.18277E-01        -0.36767E-01         0.00000E+00
    0.15416E-01        -0.28757E-01         0.00000E+00
    0.12249E-01        -0.21048E-01         0.00000E+00
    0.86936E-02        -0.13664E-01         0.00000E+00
    0.46518E-02        -0.66358E-02         0.00000E+00
    0.00000E+00         0.00000E+00         0.00000E+00
   -0.47086E-01        -0.13903E+00         0.00000E+00
   -0.23567E-01        -0.13820E+00         0.00000E+00
   -0.30188E-02        -0.13861E+00         0.00000E+00
    0.12905E-01        -0.13898E+00         0.00000E+00
    0.24179E-01        -0.13826E+00         0.00000E+00
    0.31604E-01        -0.13599E+00         0.00000E+00
    0.36140E-01        -0.13219E+00         0.00000E+00
    0.38604E-01        -0.12708E+00         0.00000E+00
    0.39616E-01        -0.12092E+00         0.00000E+00
    0.39625E-01        -0.11398E+00         0.00000E+00
    0.38944E-01        -0.10648E+00         0.00000E+00
    0.37784E-01        -0.98624E-01         0.00000E+00
    0.36289E-01        -0.90538E-01         0.00000E+00
    0.34548E-01        -0.82338E-01         0.00000E+00
    0.32613E-01        -0.74111E-01         0.00000E+00
    0.30512E-01        -0.65919E-01         0.00000E+00
    0.28249E-01        -0.57815E-01         0.00000E+00
    0.25814E-01        -0.49838E-01         0.00000E+00
    0.23181E-01        -0.42021E-01         0.00000E+00
    0.20310E-01        -0.34391E-01         0.00000E+00
    0.17151E-01        -0.26977E-01         0.00000E+00
    0.13635E-01        -0.19802E-01         0.00000E+00
    0.96786E-02        -0.12894E-01         0.00000E+00
    0.51768E-02        -0.62831E-02         0.00000E+00
    0.00000E+00         0.00000E+00         0.00000E+00
   -0.43048E-01        -0.11735E+00         0.00000E+00
   -0.23429E-01        -0.11636E+00         0.00000E+00
   -0.55475E-02        -0.11644E+00         0.00000E+00
    0.92659E-02        -0.11683E+00         0.00000E+00
    0.20608E-01        -0.11675E+00         0.00000E+00
    0.28739E-01        -0.11569E+00         0.00000E+00
    0.34208E-01        -0.11345E+00         0.00000E+00
    0.37608E-01        -0.11007E+00         0.00000E+00
    0.39453E-01        -0.10567E+00         0.00000E+00
    0.40154E-01        -0.10044E+00         0.00000E+00
    0.40019E-01        -0.94560E-01         0.00000E+00
    0.39271E-01        -0.88186E-01         0.00000E+00
    0.38069E-01        -0.81459E-01         0.00000E+00
    0.36519E-01        -0.74494E-01         0.00000E+00
    0.34690E-01        -0.67385E-01         0.00000E+00
    0.32620E-01        -0.60206E-01         0.00000E+00
    0.30325E-01        -0.53019E-01         0.00000E+00
    0.27800E-01        -0.45875E-01         0.00000E+00
    0.25027E-01        -0.38814E-01         0.00000E+00
    0.21967E-01        -0.31873E-01         0.00000E+00
    0.18572E-01        -0.25083E-01         0.00000E+00
    0.14774E-01        -0.18473E-01         0.00000E+00
    0.10488E-01        -0.12071E-01         0.00000E+00
    0.56072E-02        -0.59043E-02         0.00000E+00
    0.00000E+00         0.00000E+00         0.00000E+00
   -0.39149E-01        -0.99243E-01         0.00000E+00
   -0.22533E-01        -0.98163E-01         0.00000E+00
   -0.69596E-02        -0.98003E-01         0.00000E+00
    0.65394E-02        -0.98273E-01         0.00000E+00
    0.17476E-01        -0.98416E-01         0.00000E+00
    0.25828E-01        -0.97987E-01         0.00000E+00
    0.31861E-01        -0.96730E-01         0.00000E+00
    0.35955E-01        -0.94553E-01         0.00000E+00
    0.38498E-01        -0.91488E-01         0.00000E+00
    0.39833E-01        -0.87629E-01         0.00000E+00
    0.40237E-01        -0.83097E-01         0.00000E+00
    0.39926E-01        -0.78019E-01         0.00000E+00
    0.39061E-01        -0.72515E-01         0.00000E+00
    0.37757E-01        -0.66690E-01         0.00000E+00
    0.36092E-01        -0.60637E-01         0.00000E+00
    0.34114E-01        -0.54433E-01         0.00000E+00
    0.31846E-01        -0.48144E-01         0.00000E+00
    0.29292E-01        -0.41825E-01         0.00000E+00
    0.26436E-01        -0.35523E-01         0.00000E+00
    0.23248E-01        -0.29277E-01         0.00000E+00
    0.19679E-01        -0.23124E-01         0.00000E+00
    0.15664E-01        -0.17093E-01         0.00000E+00
    0.11120E-01        -0.11213E-01         0.00000E+00
    0.59420E-02        -0.55082E-02         0.00000E+00
    0.00000E+00         0.00000E+00         0.00000E+00
   -0.35403E-01        -0.83900E-01         0.00000E+00
   -0.21184E-01        -0.82784E-01         0.00000E+00
   -0.75853E-02        -0.82452E-01         0.00000E+00
    0.45937E-02        -0.82580E-01         0.00000E+00
    0.14881E-01        -0.82771E-01         0.00000E+00
    0.23124E-01        -0.82663E-01         0.00000E+00
    0.29410E-01        -0.82000E-01         0.00000E+00
    0.33956E-01        -0.80643E-01         0.00000E+00
    0.37029E-01        -0.78553E-01         0.00000E+00
    0.38894E-01        -0.75757E-01         0.00000E+00
    0.39786E-01        -0.72326E-01         0.00000E+00
    0.39896E-01        -0.68346E-01         0.00000E+00
    0.39379E-01        -0.63912E-01         0.00000E+00
    0.38347E-01        -0.59112E-01         0.00000E+00
    0.36882E-01        -0.54031E-01         0.00000E+00
    0.35039E-01        -0.48740E-01         0.00000E+00
    0.32845E-01        -0.43306E-01         0.00000E+00
    0.30311E-01        -0.37784E-01         0.00000E+00
    0.27426E-01        -0.32223E-01         0.00000E+00
    0.24163E-01        -0.26664E-01         0.00000E+00
    0.20478E-01        -0.21144E-01         0.00000E+00
    0.16309E-01        -0.15694E-01         0.00000E+00
    0.11578E-01        -0.10340E-01         0.00000E+00
    0.61829E-02        -0.51031E-02         0.00000E+00
    0.00000E+00         0.00000E+00         0.00000E+00
   -0.31820E-01        -0.70783E-01         0.00000E+00
   -0.19569E-01        -0.69662E-01         0.00000E+00
   -0.76614E-02        -0.69215E-01         0.00000E+00
    0.32703E-02        -0.69218E-01         0.00000E+00
    0.12802E-01        -0.69383E-01         0.00000E+00
    0.20732E-01        -0.69428E-01         0.00000E+00
    0.27038E-01        -0.69121E-01         0.00000E+00
    0.31824E-01        -0.68312E-01         0.00000E+00
    0.35260E-01        -0.66923E-01         0.00000E+00
    0.37537E-01        -0.64939E-01         0.00000E+00
    0.38838E-01        -0.62386E-01         0.00000E+00
    0.39328E-01        -0.59316E-01         0.00000E+00
    0.39141E-01        -0.55797E-01         0.00000E+00
    0.38384E-01        -0.51899E-01         0.00000E+00
    0.37137E-01        -0.47691E-01         0.00000E+00
    0.35455E-01        -0.43239E-01         0.00000E+00
    0.33369E-01        -0.38601E-01         0.00000E+00
    0.30894E-01        -0.33833E-01         0.00000E+00
    0.28022E-01        -0.28981E-01         0.00000E+00
    0.24732E-01        -0.24085E-01         0.00000E+00
    0.20984E-01        -0.19183E-01         0.00000E+00
    0.16722E-01        -0.14302E-01         0.00000E+00
    0.11870E-01        -0.94673E-02         0.00000E+00
    0.63346E-02        -0.46966E-02         0.00000E+00
    0.00000E+00         0.00000E+00         0.00000E+00
   -0.28408E-01        -0.59503E-01         0.00000E+00
   -0.17804E-01        -0.58400E-01         0.00000E+00
   -0.73563E-02        -0.57878E-01         0.00000E+00
    0.24275E-02        -0.57781E-01         0.00000E+00
    0.11176E-01        -0.57898E-01         0.00000E+00
    0.18672E-01        -0.58006E-01         0.00000E+00
    0.24837E-01        -0.57910E-01         0.00000E+00
    0.29697E-01        -0.57465E-01         0.00000E+00
    0.33348E-01        -0.56576E-01         0.00000E+00
    0.35917E-01        -0.55203E-01         0.00000E+00
    0.37541E-01        -0.53342E-01         0.00000E+00
    0.38351E-01        -0.51016E-01         0.00000E+00
    0.38460E-01        -0.48267E-01         0.00000E+00
    0.37964E-01        -0.45147E-01         0.00000E+00
    0.36935E-01        -0.41711E-01         0.00000E+00
    0.35427E-01        -0.38013E-01         0.00000E+00
    0.33471E-01        -0.34106E-01         0.00000E+00
    0.31083E-01        -0.30037E-01         0.00000E+00
    0.28261E-01        -0.25851E-01         0.00000E+00
    0.24985E-01        -0.21585E-01         0.00000E+00
    0.21221E-01        -0.17272E-01         0.00000E+00
    0.16918E-01        -0.12941E-01         0.00000E+00
    0.12008E-01        -0.86105E-02         0.00000E+00
    0.64034E-02        -0.42953E-02         0.00000E+00
    0.00000E+00         0.00000E+00         0.00000E+00
   -0.25176E-01        -0.49768E-01         0.00000E+00
   -0.15971E-01        -0.48697E-01         0.00000E+00
   -0.67908E-02        -0.48132E-01         0.00000E+00
    0.19494E-02        -0.47961E-01         0.00000E+00
    0.99269E-02        -0.48026E-01         0.00000E+00
    0.16928E-01        -0.48153E-01         0.00000E+00
    0.22845E-01        -0.48180E-01         0.00000E+00
    0.27654E-01        -0.47975E-01         0.00000E+00
    0.31397E-01        -0.47444E-01         0.00000E+00
    0.34151E-01        -0.46528E-01         0.00000E+00
    0.36012E-01        -0.45206E-01         0.00000E+00
    0.37078E-01        -0.43481E-01         0.00000E+00
    0.37440E-01        -0.41373E-01         0.00000E+00
    0.37178E-01        -0.38917E-01         0.00000E+00
    0.36356E-01        -0.36153E-01         0.00000E+00
    0.35022E-01        -0.33124E-01         0.00000E+00
    0.33207E-01        -0.29875E-01         0.00000E+00
    0.30927E-01        -0.26445E-01         0.00000E+00
    0.28181E-01        -0.22875E-01         0.00000E+00
    0.24954E-01        -0.19197E-01         0.00000E+00
    0.21215E-01        -0.15440E-01         0.00000E+00
    0.16919E-01        -0.11630E-01         0.00000E+00
    0.12006E-01        -0.77814E-02         0.00000E+00
    0.63972E-02        -0.39049E-02         0.00000E+00
    0.00000E+00         0.00000E+00         0.00000E+00
   -0.22127E-01        -0.41350E-01         0.00000E+00
   -0.14125E-01        -0.40321E-01         0.00000E+00
   -0.60531E-02        -0.39736E-01         0.00000E+00
    0.17434E-02        -0.39513E-01         0.00000E+00
    0.89835E-02        -0.39532E-01         0.00000E+00
    0.15465E-01        -0.39657E-01         0.00000E+00
    0.21067E-01        -0.39755E-01         0.00000E+00
    0.25737E-01        -0.39711E-01         0.00000E+00
    0.29477E-01        -0.39433E-01         0.00000E+00
    0.32325E-01        -0.38860E-01         0.00000E+00
    0.34343E-01        -0.37957E-01         0.00000E+00
    0.35600E-01        -0.36713E-01         0.00000E+00
    0.36167E-01        -0.35133E-01         0.00000E+00
    0.36107E-01        -0.33237E-01         0.00000E+00
    0.35473E-01        -0.31052E-01         0.00000E+00
    0.34307E-01        -0.28610E-01         0.00000E+00
    0.32636E-01        -0.25945E-01         0.00000E+00
    0.30475E-01        -0.23092E-01         0.00000E+00
    0.27826E-01        -0.20083E-01         0.00000E+00
    0.24674E-01        -0.16946E-01         0.00000E+00
    0.20995E-01        -0.13706E-01         0.00000E+00
    0.16748E-01        -0.10383E-01         0.00000E+00
    0.11881E-01        -0.69893E-02         0.00000E+00
    0.63251E-02        -0.35298E-02         0.00000E+00
    0.00000E+00         0.00000E+00         0.00000E+00
   -0.19266E-01        -0.34064E-01         0.00000E+00
   -0.12307E-01        -0.33085E-01         0.00000E+00
   -0.52082E-02        -0.32499E-01         0.00000E+00
    0.17369E-02        -0.32242E-01         0.00000E+00
    0.82833E-02        -0.32224E-01         0.00000E+00
    0.14244E-01        -0.32339E-01         0.00000E+00
    0.19494E-01        -0.32477E-01         0.00000E+00
    0.23963E-01        -0.32539E-01         0.00000E+00
    0.27626E-01        -0.32443E-01         0.00000E+00
    0.30494E-01        -0.32126E-01         0.00000E+00
    0.32601E-01        -0.31549E-01         0.00000E+00
    0.33991E-01        -0.30689E-01         0.00000E+00
    0.34716E-01        -0.29541E-01         0.00000E+00
    0.34822E-01        -0.28113E-01         0.00000E+00
    0.34352E-01        -0.26422E-01         0.00000E+00
    0.33341E-01        -0.24488E-01         0.00000E+00
    0.31811E-01        -0.22339E-01         0.00000E+00
    0.29776E-01        -0.19999E-01         0.00000E+00
    0.27237E-01        -0.17496E-01         0.00000E+00
    0.24182E-01        -0.14851E-01         0.00000E+00
    0.20591E-01        -0.12084E-01         0.00000E+00
    0.16428E-01        -0.92118E-02         0.00000E+00
    0.11649E-01        -0.62412E-02         0.00000E+00
    0.61963E-02        -0.31736E-02         0.00000E+00
    0.00000E+00         0.00000E+00         0.00000E+00
   -0.16594E-01        -0.27761E-01         0.00000E+00
   -0.10544E-01        -0.26838E-01         0.00000E+00
   -0.43052E-02        -0.26262E-01         0.00000E+00
    0.18725E-02        -0.25987E-01         0.00000E+00
    0.77733E-02        -0.25943E-01         0.00000E+00
    0.13226E-01        -0.26045E-01         0.00000E+00
    0.18106E-01        -0.26206E-01         0.00000E+00
    0.22333E-01        -0.26340E-01         0.00000E+00
    0.25868E-01        -0.26374E-01         0.00000E+00
    0.28698E-01        -0.26249E-01         0.00000E+00
    0.30836E-01        -0.25923E-01         0.00000E+00
    0.32308E-01        -0.25369E-01         0.00000E+00
    0.33146E-01        -0.24574E-01         0.00000E+00
    0.33384E-01        -0.23535E-01         0.00000E+00
    0.33053E-01        -0.22261E-01         0.00000E+00
    0.32181E-01        -0.20765E-01         0.00000E+00
    0.30785E-01        -0.19063E-01         0.00000E+00
    0.28877E-01        -0.17177E-01         0.00000E+00
    0.26456E-01        -0.15123E-01         0.00000E+00
    0.23514E-01        -0.12921E-01         0.00000E+00
    0.20033E-01        -0.10584E-01         0.00000E+00
    0.15985E-01        -0.81228E-02         0.00000E+00
    0.11329E-01        -0.55421E-02         0.00000E+00
    0.60201E-02        -0.28386E-02         0.00000E+00
    0.00000E+00         0.00000E+00         0.00000E+00
   -0.14112E-01        -0.22315E-01         0.00000E+00
   -0.88590E-02        -0.21452E-01         0.00000E+00
   -0.33807E-02        -0.20896E-01         0.00000E+00
    0.21054E-02        -0.20614E-01         0.00000E+00
    0.74093E-02        -0.20552E-01         0.00000E+00
    0.12374E-01        -0.20644E-01         0.00000E+00
    0.16880E-01        -0.20817E-01         0.00000E+00
    0.20844E-01        -0.21000E-01         0.00000E+00
    0.24212E-01        -0.21128E-01         0.00000E+00
    0.26960E-01        -0.21148E-01         0.00000E+00
    0.29084E-01        -0.21017E-01         0.00000E+00
    0.30593E-01        -0.20706E-01         0.00000E+00
    0.31505E-01        -0.20196E-01         0.00000E+00
    0.31842E-01        -0.19479E-01         0.00000E+00
    0.31626E-01        -0.18555E-01         0.00000E+00
    0.30875E-01        -0.17431E-01         0.00000E+00
    0.29603E-01        -0.16117E-01         0.00000E+00
    0.27819E-01        -0.14625E-01         0.00000E+00
    0.25522E-01        -0.12969E-01         0.00000E+00
    0.22705E-01        -0.11160E-01         0.00000E+00
    0.19352E-01        -0.92086E-02         0.00000E+00
    0.15440E-01        -0.71200E-02         0.00000E+00
    0.10937E-01        -0.48947E-02         0.00000E+00
    0.58056E-02        -0.25265E-02         0.00000E+00
    0.00000E+00         0.00000E+00         0.00000E+00
   -0.11819E-01        -0.17619E-01         0.00000E+00
   -0.72657E-02        -0.16817E-01         0.00000E+00
   -0.24628E-02        -0.16289E-01         0.00000E+00
    0.24004E-02        -0.16009E-01         0.00000E+00
    0.71550E-02        -0.15938E-01         0.00000E+00
    0.11658E-01        -0.16022E-01         0.00000E+00
    0.15795E-01        -0.16202E-01         0.00000E+00
    0.19482E-01        -0.16419E-01         0.00000E+00
    0.22660E-01        -0.16616E-01         0.00000E+00
    0.25295E-01        -0.16744E-01         0.00000E+00
    0.27368E-01        -0.16764E-01         0.00000E+00
    0.28878E-01        -0.16645E-01         0.00000E+00
    0.29831E-01        -0.16365E-01         0.00000E+00
    0.30238E-01        -0.15913E-01         0.00000E+00
    0.30112E-01        -0.15282E-01         0.00000E+00
    0.29465E-01        -0.14473E-01         0.00000E+00
    0.28307E-01        -0.13490E-01         0.00000E+00
    0.26642E-01        -0.12340E-01         0.00000E+00
    0.24470E-01        -0.11030E-01         0.00000E+00
    0.21784E-01        -0.95686E-02         0.00000E+00
    0.18572E-01        -0.79593E-02         0.00000E+00
    0.14815E-01        -0.62043E-02         0.00000E+00
    0.10488E-01        -0.43004E-02         0.00000E+00
    0.55613E-02        -0.22380E-02         0.00000E+00
    0.00000E+00         0.00000E+00         0.00000E+00
   -0.97112E-02        -0.13580E-01         0.00000E+00
   -0.57750E-02        -0.12841E-01         0.00000E+00
   -0.15722E-02        -0.12345E-01         0.00000E+00
    0.27299E-02        -0.12076E-01         0.00000E+00
    0.69807E-02        -0.12002E-01         0.00000E+00
    0.11050E-01        -0.12081E-01         0.00000E+00
    0.14830E-01        -0.12266E-01         0.00000E+00
    0.18238E-01        -0.12506E-01         0.00000E+00
    0.21211E-01        -0.12753E-01         0.00000E+00
    0.23708E-01        -0.12963E-01         0.00000E+00
    0.25704E-01        -0.13100E-01         0.00000E+00
    0.27187E-01        -0.13132E-01         0.00000E+00
    0.28152E-01        -0.13038E-01         0.00000E+00
    0.28604E-01        -0.12801E-01         0.00000E+00
    0.28547E-01        -0.12412E-01         0.00000E+00
    0.27987E-01        -0.11868E-01         0.00000E+00
    0.26931E-01        -0.11166E-01         0.00000E+00
    0.25380E-01        -0.10309E-01         0.00000E+00
    0.23332E-01        -0.93002E-02         0.00000E+00
    0.20782E-01        -0.81414E-02         0.00000E+00
    0.17721E-01        -0.68337E-02         0.00000E+00
    0.14132E-01        -0.53750E-02         0.00000E+00
    0.99974E-02        -0.37589E-02         0.00000E+00
    0.52950E-02        -0.19735E-02         0.00000E+00
    0.00000E+00         0.00000E+00         0.00000E+00
   -0.77863E-02        -0.10119E-01         0.00000E+00
   -0.43937E-02        -0.94424E-02         0.00000E+00
   -0.72487E-03        -0.89834E-02         0.00000E+00
    0.30722E-02        -0.87299E-02         0.00000E+00
    0.68625E-02        -0.86584E-02         0.00000E+00
    0.10527E-01        -0.87360E-02         0.00000E+00
    0.13966E-01        -0.89237E-02         0.00000E+00
    0.17097E-01        -0.91800E-02         0.00000E+00
    0.19858E-01        -0.94636E-02         0.00000E+00
    0.22204E-01        -0.97358E-02         0.00000E+00
    0.24103E-01        -0.99621E-02         0.00000E+00
    0.25535E-01        -0.10114E-01         0.00000E+00
    0.26491E-01        -0.10167E-01         0.00000E+00
    0.26966E-01        -0.10105E-01         0.00000E+00
    0.26959E-01        -0.99162E-02         0.00000E+00
    0.26472E-01        -0.95914E-02         0.00000E+00
    0.25506E-01        -0.91265E-02         0.00000E+00
    0.24062E-01        -0.85191E-02         0.00000E+00
    0.22136E-01        -0.77679E-02         0.00000E+00
    0.19724E-01        -0.68714E-02         0.00000E+00
    0.16818E-01        -0.58270E-02         0.00000E+00
    0.13407E-01        -0.46291E-02         0.00000E+00
    0.94774E-02        -0.32690E-02         0.00000E+00
    0.50137E-02        -0.17326E-02         0.00000E+00
    0.00000E+00         0.00000E+00         0.00000E+00
   -0.60394E-02        -0.71648E-02         0.00000E+00
   -0.31261E-02        -0.65507E-02         0.00000E+00
    0.67904E-04        -0.61304E-02         0.00000E+00
    0.34107E-02        -0.58967E-02         0.00000E+00
    0.67809E-02        -0.58321E-02         0.00000E+00
    0.10070E-01        -0.59108E-02         0.00000E+00
    0.13185E-01        -0.61015E-02         0.00000E+00
    0.16047E-01        -0.63695E-02         0.00000E+00
    0.18595E-01        -0.66796E-02         0.00000E+00
    0.20781E-01        -0.69976E-02         0.00000E+00
    0.22569E-01        -0.72924E-02         0.00000E+00
    0.23935E-01        -0.75368E-02         0.00000E+00
    0.24863E-01        -0.77078E-02         0.00000E+00
    0.25344E-01        -0.77870E-02         0.00000E+00
    0.25372E-01        -0.77603E-02         0.00000E+00
    0.24944E-01        -0.76172E-02         0.00000E+00
    0.24058E-01        -0.73499E-02         0.00000E+00
    0.22713E-01        -0.69526E-02         0.00000E+00
    0.20906E-01        -0.64208E-02         0.00000E+00
    0.18632E-01        -0.57494E-02         0.00000E+00
    0.15885E-01        -0.49328E-02         0.00000E+00
    0.12657E-01        -0.39630E-02         0.00000E+00
    0.89395E-02        -0.28287E-02         0.00000E+00
    0.47234E-02        -0.15146E-02         0.00000E+00
    0.00000E+00         0.00000E+00         0.00000E+00
   -0.44649E-02        -0.46558E-02         0.00000E+00
   -0.19739E-02        -0.41030E-02         0.00000E+00
    0.79790E-03        -0.37228E-02         0.00000E+00
    0.37325E-02        -0.35117E-02         0.00000E+00
    0.67206E-02        -0.34573E-02         0.00000E+00
    0.96631E-02        -0.35396E-02         0.00000E+00
    0.12473E-01        -0.37333E-02         0.00000E+00
    0.15078E-01        -0.40096E-02         0.00000E+00
    0.17415E-01        -0.43386E-02         0.00000E+00
    0.19437E-01        -0.46903E-02         0.00000E+00
    0.21105E-01        -0.50369E-02         0.00000E+00
    0.22393E-01        -0.53528E-02         0.00000E+00
    0.23281E-01        -0.56159E-02         0.00000E+00
    0.23754E-01        -0.58075E-02         0.00000E+00
    0.23803E-01        -0.59122E-02         0.00000E+00
    0.23422E-01        -0.59176E-02         0.00000E+00
    0.22608E-01        -0.58136E-02         0.00000E+00
    0.21355E-01        -0.55918E-02         0.00000E+00
    0.19662E-01        -0.52447E-02         0.00000E+00
    0.17524E-01        -0.47649E-02         0.00000E+00
    0.14936E-01        -0.41440E-02         0.00000E+00
    0.11894E-01        -0.33718E-02         0.00000E+00
    0.83934E-02        -0.24354E-02         0.00000E+00
    0.44294E-02        -0.13185E-02         0.00000E+00
    0.00000E+00         0.00000E+00         0.00000E+00
   -0.30566E-02        -0.25370E-02         0.00000E+00
   -0.93711E-03        -0.20439E-02         0.00000E+00
    0.14596E-02        -0.17043E-02         0.00000E+00
    0.40280E-02        -0.15179E-02         0.00000E+00
    0.66691E-02        -0.14761E-02         0.00000E+00
    0.92928E-02        -0.15638E-02         0.00000E+00
    0.11819E-01        -0.17606E-02         0.00000E+00
    0.14177E-01        -0.20428E-02         0.00000E+00
    0.16310E-01        -0.23849E-02         0.00000E+00
    0.18168E-01        -0.27609E-02         0.00000E+00
    0.19713E-01        -0.31457E-02         0.00000E+00
    0.20915E-01        -0.35159E-02         0.00000E+00
    0.21752E-01        -0.38502E-02         0.00000E+00
    0.22206E-01        -0.41302E-02         0.00000E+00
    0.22266E-01        -0.43398E-02         0.00000E+00
    0.21924E-01        -0.44652E-02         0.00000E+00
    0.21171E-01        -0.44947E-02         0.00000E+00
    0.20005E-01        -0.44179E-02         0.00000E+00
    0.18421E-01        -0.42252E-02         0.00000E+00
    0.16416E-01        -0.39068E-02         0.00000E+00
    0.13987E-01        -0.34525E-02         0.00000E+00
    0.11131E-01        -0.28503E-02         0.00000E+00
    0.78473E-02        -0.20861E-02         0.00000E+00
    0.41360E-02        -0.11430E-02         0.00000E+00
    0.00000E+00         0.00000E+00         0.00000E+00
   -0.18076E-02        -0.75965E-03         0.00000E+00
   -0.14395E-04        -0.32416E-03         0.00000E+00
    0.20497E-02        -0.25143E-04         0.00000E+00
    0.42900E-02         0.13547E-03         0.00000E+00
    0.66171E-02         0.16291E-03         0.00000E+00
    0.89486E-02         0.68523E-04         0.00000E+00
    0.11210E-01        -0.13159E-03         0.00000E+00
    0.13337E-01        -0.41786E-03         0.00000E+00
    0.15273E-01        -0.76864E-03         0.00000E+00
    0.16970E-01        -0.11614E-02         0.00000E+00
    0.18390E-01        -0.15736E-02         0.00000E+00
    0.19502E-01        -0.19839E-02         0.00000E+00
    0.20282E-01        -0.23723E-02         0.00000E+00
    0.20710E-01        -0.27206E-02         0.00000E+00
    0.20773E-01        -0.30126E-02         0.00000E+00
    0.20460E-01        -0.32337E-02         0.00000E+00
    0.19763E-01        -0.33711E-02         0.00000E+00
    0.18677E-01        -0.34127E-02         0.00000E+00
    0.17198E-01        -0.33473E-02         0.00000E+00
    0.15322E-01        -0.31637E-02         0.00000E+00
    0.13048E-01        -0.28499E-02         0.00000E+00
    0.10377E-01        -0.23929E-02         0.00000E+00
    0.73080E-02        -0.17776E-02         0.00000E+00
    0.38468E-02        -0.98676E-03         0.00000E+00
    0.00000E+00         0.00000E+00         0.00000E+00
   -0.71049E-03         0.71978E-03         0.00000E+00
    0.79686E-03         0.10999E-02         0.00000E+00
    0.25666E-02         0.13591E-02         0.00000E+00
    0.45135E-02         0.14933E-02         0.00000E+00
    0.65569E-02         0.15054E-02         0.00000E+00
    0.86217E-02         0.14033E-02         0.00000E+00
    0.10639E-01         0.11998E-02         0.00000E+00
    0.12549E-01         0.91090E-03         0.00000E+00
    0.14298E-01         0.55495E-03         0.00000E+00
    0.15839E-01         0.15150E-03         0.00000E+00
    0.17136E-01        -0.27950E-03         0.00000E+00
    0.18156E-01        -0.71846E-03         0.00000E+00
    0.18875E-01        -0.11467E-02         0.00000E+00
    0.19271E-01        -0.15466E-02         0.00000E+00
    0.19331E-01        -0.19020E-02         0.00000E+00
    0.19041E-01        -0.21981E-02         0.00000E+00
    0.18393E-01        -0.24212E-02         0.00000E+00
    0.17382E-01        -0.25582E-02         0.00000E+00
    0.16002E-01        -0.25968E-02         0.00000E+00
    0.14251E-01        -0.25244E-02         0.00000E+00
    0.12130E-01        -0.23281E-02         0.00000E+00
    0.96381E-02        -0.19940E-02         0.00000E+00
    0.67809E-02        -0.15065E-02         0.00000E+00
    0.35646E-02        -0.84843E-03         0.00000E+00
    0.00000E+00         0.00000E+00         0.00000E+00
    0.24253E-03         0.19401E-02         0.00000E+00
    0.15002E-02         0.22674E-02         0.00000E+00
    0.30099E-02         0.24877E-02         0.00000E+00
    0.46952E-02         0.25956E-02         0.00000E+00
    0.64831E-02         0.25916E-02         0.00000E+00
    0.83051E-02         0.24813E-02         0.00000E+00
    0.10098E-01         0.22744E-02         0.00000E+00
    0.11806E-01         0.19841E-02         0.00000E+00
    0.13378E-01         0.16258E-02         0.00000E+00
    0.14771E-01         0.12164E-02         0.00000E+00
    0.15947E-01         0.77367E-03         0.00000E+00
    0.16876E-01         0.31547E-03         0.00000E+00
    0.17532E-01        -0.14080E-03         0.00000E+00
    0.17893E-01        -0.57840E-03         0.00000E+00
    0.17944E-01        -0.98145E-03         0.00000E+00
    0.17673E-01        -0.13350E-02         0.00000E+00
    0.17070E-01        -0.16249E-02         0.00000E+00
    0.16127E-01        -0.18375E-02         0.00000E+00
    0.14842E-01        -0.19597E-02         0.00000E+00
    0.13212E-01        -0.19780E-02         0.00000E+00
    0.11238E-01        -0.18790E-02         0.00000E+00
    0.89217E-02        -0.16480E-02         0.00000E+00
    0.62700E-02        -0.12696E-02         0.00000E+00
    0.32917E-02        -0.72650E-03         0.00000E+00
    0.00000E+00         0.00000E+00         0.00000E+00
    0.10595E-02         0.29358E-02         0.00000E+00
    0.20997E-02         0.32131E-02         0.00000E+00
    0.33805E-02         0.33960E-02         0.00000E+00
    0.48331E-02         0.34779E-02         0.00000E+00
    0.63914E-02         0.34577E-02         0.00000E+00
    0.79933E-02         0.33388E-02         0.00000E+00
    0.95809E-02         0.31286E-02         0.00000E+00
    0.11102E-01         0.28378E-02         0.00000E+00
    0.12509E-01         0.24793E-02         0.00000E+00
    0.13761E-01         0.20679E-02         0.00000E+00
    0.14821E-01         0.16192E-02         0.00000E+00
    0.15661E-01         0.11494E-02         0.00000E+00
    0.16253E-01         0.67465E-03         0.00000E+00
    0.16578E-01         0.21091E-03         0.00000E+00
    0.16618E-01        -0.22648E-03         0.00000E+00
    0.16362E-01        -0.62268E-03         0.00000E+00
    0.15798E-01        -0.96339E-03         0.00000E+00
    0.14920E-01        -0.12347E-02         0.00000E+00
    0.13725E-01        -0.14229E-02         0.00000E+00
    0.12211E-01        -0.15143E-02         0.00000E+00
    0.10378E-01        -0.14948E-02         0.00000E+00
    0.82318E-02        -0.13497E-02         0.00000E+00
    0.57787E-02        -0.10635E-02         0.00000E+00
    0.30297E-02        -0.61955E-03         0.00000E+00
    0.00000E+00         0.00000E+00         0.00000E+00
    0.17485E-02         0.37379E-02         0.00000E+00
    0.26004E-02         0.39680E-02         0.00000E+00
    0.36802E-02         0.41151E-02         0.00000E+00
    0.49263E-02         0.41717E-02         0.00000E+00
    0.62791E-02         0.41354E-02         0.00000E+00
    0.76820E-02         0.40079E-02         0.00000E+00
    0.90821E-02         0.37946E-02         0.00000E+00
    0.10431E-01         0.35041E-02         0.00000E+00
    0.11684E-01         0.31473E-02         0.00000E+00
    0.12804E-01         0.27369E-02         0.00000E+00
    0.13755E-01         0.22867E-02         0.00000E+00
    0.14508E-01         0.18115E-02         0.00000E+00
    0.15039E-01         0.13262E-02         0.00000E+00
    0.15326E-01         0.84584E-03         0.00000E+00
    0.15354E-01         0.38514E-03         0.00000E+00
    0.15109E-01        -0.41362E-04         0.00000E+00
    0.14582E-01        -0.41943E-03         0.00000E+00
    0.13765E-01        -0.73509E-03         0.00000E+00
    0.12655E-01        -0.97444E-03         0.00000E+00
    0.11251E-01        -0.11236E-02         0.00000E+00
    0.95550E-02        -0.11682E-02         0.00000E+00
    0.75716E-02        -0.10939E-02         0.00000E+00
    0.53091E-02        -0.88516E-03         0.00000E+00
    0.27797E-02        -0.52615E-03         0.00000E+00
    0.00000E+00         0.00000E+00         0.00000E+00
    0.23178E-02         0.43739E-02         0.00000E+00
    0.30072E-02         0.45597E-02         0.00000E+00
    0.39113E-02         0.46727E-02         0.00000E+00
    0.49749E-02         0.47050E-02         0.00000E+00
    0.61443E-02         0.46530E-02         0.00000E+00
    0.73680E-02         0.45170E-02         0.00000E+00
    0.85978E-02         0.43009E-02         0.00000E+00
    0.97889E-02         0.40114E-02         0.00000E+00
    0.10901E-01         0.36577E-02         0.00000E+00
    0.11897E-01         0.32507E-02         0.00000E+00
    0.12744E-01         0.28028E-02         0.00000E+00
    0.13416E-01         0.23272E-02         0.00000E+00
    0.13887E-01         0.18377E-02         0.00000E+00
    0.14138E-01         0.13484E-02         0.00000E+00
    0.14152E-01         0.87350E-03         0.00000E+00
    0.13917E-01         0.42695E-03         0.00000E+00
    0.13423E-01         0.22777E-04         0.00000E+00
    0.12664E-01        -0.32515E-03         0.00000E+00
    0.11635E-01        -0.60298E-03         0.00000E+00
    0.10336E-01        -0.79680E-03         0.00000E+00
    0.87706E-02        -0.89252E-03         0.00000E+00
    0.69430E-02        -0.87573E-03         0.00000E+00
    0.48627E-02        -0.73164E-03         0.00000E+00
    0.25426E-02        -0.44497E-03         0.00000E+00
    0.00000E+00         0.00000E+00         0.00000E+00
    0.27756E-02         0.48681E-02         0.00000E+00
    0.33256E-02         0.50126E-02         0.00000E+00
    0.40768E-02         0.50936E-02         0.00000E+00
    0.49796E-02         0.51027E-02         0.00000E+00
    0.59858E-02         0.50355E-02         0.00000E+00
    0.70487E-02         0.48914E-02         0.00000E+00
    0.81245E-02         0.46727E-02         0.00000E+00
    0.91719E-02         0.43848E-02         0.00000E+00
    0.10153E-01         0.40353E-02         0.00000E+00
    0.11035E-01         0.36337E-02         0.00000E+00
    0.11786E-01         0.31909E-02         0.00000E+00
    0.12381E-01         0.27189E-02         0.00000E+00
    0.12795E-01         0.22304E-02         0.00000E+00
    0.13011E-01         0.17385E-02         0.00000E+00
    0.13012E-01         0.12567E-02         0.00000E+00
    0.12786E-01         0.79847E-03         0.00000E+00
    0.12323E-01         0.37751E-03         0.00000E+00
    0.11618E-01         0.73726E-05         0.00000E+00
    0.10666E-01        -0.29831E-03         0.00000E+00
    0.94682E-02        -0.52584E-03         0.00000E+00
    0.80266E-02        -0.66136E-03         0.00000E+00
    0.63474E-02        -0.69088E-03         0.00000E+00
    0.44403E-02        -0.60015E-03         0.00000E+00
    0.23186E-02        -0.37473E-03         0.00000E+00
    0.00000E+00         0.00000E+00         0.00000E+00
    0.31301E-02         0.52426E-02         0.00000E+00
    0.35613E-02         0.53486E-02         0.00000E+00
    0.41799E-02         0.53995E-02         0.00000E+00
    0.49417E-02         0.53867E-02         0.00000E+00
    0.58033E-02         0.53051E-02         0.00000E+00
    0.67225E-02         0.51532E-02         0.00000E+00
    0.76594E-02         0.49323E-02         0.00000E+00
    0.85765E-02         0.46465E-02         0.00000E+00
    0.94391E-02         0.43021E-02         0.00000E+00
    0.10216E-01         0.39074E-02         0.00000E+00
    0.10878E-01         0.34719E-02         0.00000E+00
    0.11401E-01         0.30065E-02         0.00000E+00
    0.11762E-01         0.25230E-02         0.00000E+00
    0.11945E-01         0.20335E-02         0.00000E+00
    0.11933E-01         0.15507E-02         0.00000E+00
    0.11715E-01         0.10877E-02         0.00000E+00
    0.11282E-01         0.65761E-03         0.00000E+00
    0.10628E-01         0.27353E-03         0.00000E+00
    0.97494E-02        -0.51184E-04         0.00000E+00
    0.86468E-02        -0.30319E-03         0.00000E+00
    0.73233E-02        -0.46903E-03         0.00000E+00
    0.57851E-02        -0.53521E-03         0.00000E+00
    0.40421E-02        -0.48814E-03         0.00000E+00
    0.21079E-02        -0.31424E-03         0.00000E+00
    0.00000E+00         0.00000E+00         0.00000E+00
    0.33891E-02         0.55164E-02         0.00000E+00
    0.37199E-02         0.55869E-02         0.00000E+00
    0.42243E-02         0.56099E-02         0.00000E+00
    0.48630E-02         0.55765E-02         0.00000E+00
    0.55969E-02         0.54813E-02         0.00000E+00
    0.63881E-02         0.53221E-02         0.00000E+00
    0.72005E-02         0.50993E-02         0.00000E+00
    0.79998E-02         0.48160E-02         0.00000E+00
    0.87543E-02         0.44774E-02         0.00000E+00
    0.94348E-02         0.40906E-02         0.00000E+00
    0.10015E-01         0.36641E-02         0.00000E+00
    0.10472E-01         0.32077E-02         0.00000E+00
    0.10785E-01         0.27322E-02         0.00000E+00
    0.10937E-01         0.22490E-02         0.00000E+00
    0.10913E-01         0.17701E-02         0.00000E+00
    0.10703E-01         0.13077E-02         0.00000E+00
    0.10298E-01         0.87454E-03         0.00000E+00
    0.96928E-02         0.48326E-03         0.00000E+00
    0.88840E-02         0.14675E-03         0.00000E+00
    0.78721E-02        -0.12209E-03         0.00000E+00
    0.66607E-02        -0.31031E-03         0.00000E+00
    0.52560E-02        -0.40498E-03         0.00000E+00
    0.36680E-02        -0.39324E-03         0.00000E+00
    0.19102E-02        -0.26238E-03         0.00000E+00
    0.00000E+00         0.00000E+00         0.00000E+00
    0.35603E-02         0.57067E-02         0.00000E+00
    0.38070E-02         0.57447E-02         0.00000E+00
    0.42137E-02         0.57417E-02         0.00000E+00
    0.47453E-02         0.56891E-02         0.00000E+00
    0.53670E-02         0.55812E-02         0.00000E+00
    0.60448E-02         0.54152E-02         0.00000E+00
    0.67460E-02         0.51908E-02         0.00000E+00
    0.74394E-02         0.49104E-02         0.00000E+00
    0.80961E-02         0.45780E-02         0.00000E+00
    0.86893E-02         0.41999E-02         0.00000E+00
    0.91949E-02         0.37836E-02         0.00000E+00
    0.95913E-02         0.33380E-02         0.00000E+00
    0.98596E-02         0.28729E-02         0.00000E+00
    0.99836E-02         0.23989E-02         0.00000E+00
    0.99501E-02         0.19274E-02         0.00000E+00
    0.97483E-02         0.14699E-02         0.00000E+00
    0.93705E-02         0.10385E-02         0.00000E+00
    0.88114E-02         0.64540E-03         0.00000E+00
    0.80687E-02         0.30294E-03         0.00000E+00
    0.71430E-02         0.23513E-04         0.00000E+00
    0.60377E-02        -0.18050E-03         0.00000E+00
    0.47593E-02        -0.29681E-03         0.00000E+00
    0.33175E-02        -0.31330E-03         0.00000E+00
    0.17254E-02        -0.21815E-03         0.00000E+00
    0.00000E+00         0.00000E+00         0.00000E+00
    0.36514E-02         0.58287E-02         0.00000E+00
    0.38283E-02         0.58367E-02         0.00000E+00
    0.41519E-02         0.58100E-02         0.00000E+00
    0.45910E-02         0.57397E-02         0.00000E+00
    0.51147E-02         0.56200E-02         0.00000E+00
    0.56923E-02         0.54477E-02         0.00000E+00
    0.62944E-02         0.52221E-02         0.00000E+00
    0.68930E-02         0.49446E-02         0.00000E+00
    0.74617E-02         0.46188E-02         0.00000E+00
    0.79761E-02         0.42499E-02         0.00000E+00
    0.84141E-02         0.38445E-02         0.00000E+00
    0.87557E-02         0.34108E-02         0.00000E+00
    0.89835E-02         0.29577E-02         0.00000E+00
    0.90826E-02         0.24952E-02         0.00000E+00
    0.90405E-02         0.20337E-02         0.00000E+00
    0.88474E-02         0.15844E-02         0.00000E+00
    0.84959E-02         0.11585E-02         0.00000E+00
    0.79814E-02         0.76780E-03         0.00000E+00
    0.73019E-02         0.42404E-03         0.00000E+00
    0.64580E-02         0.13905E-03         0.00000E+00
    0.54532E-02        -0.75391E-04         0.00000E+00
    0.42939E-02        -0.20765E-03         0.00000E+00
    0.29895E-02        -0.24637E-03         0.00000E+00
    0.15529E-02        -0.18060E-03         0.00000E+00
    0.00000E+00         0.00000E+00         0.00000E+00
    0.36693E-02         0.58955E-02         0.00000E+00
    0.37894E-02         0.58764E-02         0.00000E+00
    0.40429E-02         0.58278E-02         0.00000E+00
    0.44026E-02         0.57412E-02         0.00000E+00
    0.48408E-02         0.56107E-02         0.00000E+00
    0.53303E-02         0.54327E-02         0.00000E+00
    0.58448E-02         0.52062E-02         0.00000E+00
    0.63589E-02         0.49319E-02         0.00000E+00
    0.68488E-02         0.46128E-02         0.00000E+00
    0.72924E-02         0.42532E-02         0.00000E+00
    0.76695E-02         0.38593E-02         0.00000E+00
    0.79618E-02         0.34381E-02         0.00000E+00
    0.81533E-02         0.29982E-02         0.00000E+00
    0.82304E-02         0.25485E-02         0.00000E+00
    0.81815E-02         0.20990E-02         0.00000E+00
    0.79976E-02         0.16600E-02         0.00000E+00
    0.76720E-02         0.12425E-02         0.00000E+00
    0.72004E-02         0.85737E-03         0.00000E+00
    0.65811E-02         0.51590E-03         0.00000E+00
    0.58149E-02         0.22932E-03         0.00000E+00
    0.49052E-02         0.87852E-05         0.00000E+00
    0.38583E-02        -0.13475E-03         0.00000E+00
    0.26832E-02        -0.19068E-03         0.00000E+00
    0.13920E-02        -0.14890E-03         0.00000E+00
    0.00000E+00         0.00000E+00         0.00000E+00
    0.36212E-02         0.59189E-02         0.00000E+00
    0.36955E-02         0.58751E-02         0.00000E+00
    0.38906E-02         0.58067E-02         0.00000E+00
    0.41825E-02         0.57052E-02         0.00000E+00
    0.45468E-02         0.55648E-02         0.00000E+00
    0.49592E-02         0.53818E-02         0.00000E+00
    0.53963E-02         0.51545E-02         0.00000E+00
    0.58354E-02         0.48835E-02         0.00000E+00
    0.62551E-02         0.45710E-02         0.00000E+00
    0.66354E-02         0.42209E-02         0.00000E+00
    0.69579E-02         0.38384E-02         0.00000E+00
    0.72062E-02         0.34302E-02         0.00000E+00
    0.73656E-02         0.30039E-02         0.00000E+00
    0.74237E-02         0.25680E-02         0.00000E+00
    0.73699E-02         0.21316E-02         0.00000E+00
    0.71960E-02         0.17047E-02         0.00000E+00
    0.68958E-02         0.12974E-02         0.00000E+00
    0.64656E-02         0.92020E-03         0.00000E+00
    0.59039E-02         0.58371E-03         0.00000E+00
    0.52115E-02         0.29858E-03         0.00000E+00
    0.43919E-02         0.75358E-04         0.00000E+00
    0.34509E-02        -0.75686E-04         0.00000E+00
    0.23972E-02        -0.14467E-03         0.00000E+00
    0.12421E-02        -0.12229E-03         0.00000E+00
    0.00000E+00         0.00000E+00         0.00000E+00
    0.35135E-02         0.59089E-02         0.00000E+00
    0.35519E-02         0.58430E-02         0.00000E+00
    0.36988E-02         0.57566E-02         0.00000E+00
    0.39333E-02         0.56418E-02         0.00000E+00
    0.42339E-02         0.54924E-02         0.00000E+00
    0.45793E-02         0.53048E-02         0.00000E+00
    0.49484E-02         0.50771E-02         0.00000E+00
    0.53212E-02         0.48094E-02         0.00000E+00
    0.56785E-02         0.45034E-02         0.00000E+00
    0.60025E-02         0.41625E-02         0.00000E+00
    0.62765E-02         0.37914E-02         0.00000E+00
    0.64857E-02         0.33960E-02         0.00000E+00
    0.66170E-02         0.29835E-02         0.00000E+00
    0.66590E-02         0.25617E-02         0.00000E+00
    0.66021E-02         0.21391E-02         0.00000E+00
    0.64390E-02         0.17252E-02         0.00000E+00
    0.61640E-02         0.13293E-02         0.00000E+00
    0.57739E-02         0.96160E-03         0.00000E+00
    0.52673E-02         0.63199E-03         0.00000E+00
    0.46452E-02         0.35057E-03         0.00000E+00
    0.39108E-02         0.12727E-03         0.00000E+00
    0.30698E-02        -0.28290E-04         0.00000E+00
    0.21301E-02        -0.10692E-03         0.00000E+00
    0.11024E-02        -0.10007E-03         0.00000E+00
    0.00000E+00         0.00000E+00         0.00000E+00
    0.33527E-02         0.58743E-02         0.00000E+00
    0.33636E-02         0.57887E-02         0.00000E+00
    0.34714E-02         0.56863E-02         0.00000E+00
    0.36577E-02         0.55594E-02         0.00000E+00
    0.39038E-02         0.54020E-02         0.00000E+00
    0.41909E-02         0.52104E-02         0.00000E+00
    0.45006E-02         0.49824E-02         0.00000E+00
    0.48150E-02         0.47179E-02         0.00000E+00
    0.51172E-02         0.44182E-02         0.00000E+00
    0.53912E-02         0.40861E-02         0.00000E+00
    0.56223E-02         0.37260E-02         0.00000E+00
    0.57972E-02         0.33432E-02         0.00000E+00
    0.59040E-02         0.29443E-02         0.00000E+00
    0.59326E-02         0.25365E-02         0.00000E+00
    0.58746E-02         0.21279E-02         0.00000E+00
    0.57230E-02         0.17272E-02         0.00000E+00
    0.54731E-02         0.13435E-02         0.00000E+00
    0.51218E-02         0.98619E-03         0.00000E+00
    0.46682E-02         0.66470E-03         0.00000E+00
    0.41131E-02         0.38855E-03         0.00000E+00
    0.34596E-02         0.16710E-03         0.00000E+00
    0.27129E-02         0.93388E-05         0.00000E+00
    0.18806E-02        -0.76191E-04         0.00000E+00
    0.97222E-03        -0.81634E-04         0.00000E+00
    0.00000E+00         0.00000E+00         0.00000E+00
    0.31445E-02         0.58230E-02         0.00000E+00
    0.31354E-02         0.57199E-02         0.00000E+00
    0.32120E-02         0.56032E-02         0.00000E+00
    0.33582E-02         0.54655E-02         0.00000E+00
    0.35579E-02         0.53010E-02         0.00000E+00
    0.37948E-02         0.51059E-02         0.00000E+00
    0.40526E-02         0.48778E-02         0.00000E+00
    0.43158E-02         0.46164E-02         0.00000E+00
    0.45693E-02         0.43226E-02         0.00000E+00
    0.47992E-02         0.39990E-02         0.00000E+00
    0.49925E-02         0.36493E-02         0.00000E+00
    0.51373E-02         0.32785E-02         0.00000E+00
    0.52232E-02         0.28925E-02         0.00000E+00
    0.52412E-02         0.24983E-02         0.00000E+00
    0.51835E-02         0.21034E-02         0.00000E+00
    0.50444E-02         0.17160E-02         0.00000E+00
    0.48195E-02         0.13445E-02         0.00000E+00
    0.45061E-02         0.99794E-03         0.00000E+00
    0.41033E-02         0.68524E-03         0.00000E+00
    0.36122E-02         0.41536E-03         0.00000E+00
    0.30356E-02         0.19709E-03         0.00000E+00
    0.23783E-02         0.38866E-04         0.00000E+00
    0.16470E-02        -0.51390E-04         0.00000E+00
    0.85058E-03        -0.66454E-04         0.00000E+00
    0.00000E+00         0.00000E+00         0.00000E+00
    0.28948E-02         0.57613E-02         0.00000E+00
    0.28721E-02         0.56429E-02         0.00000E+00
    0.29242E-02         0.55137E-02         0.00000E+00
    0.30375E-02         0.53666E-02         0.00000E+00
    0.31979E-02         0.51958E-02         0.00000E+00
    0.33915E-02         0.49976E-02         0.00000E+00
    0.36042E-02         0.47695E-02         0.00000E+00
    0.38224E-02         0.45110E-02         0.00000E+00
    0.40333E-02         0.42227E-02         0.00000E+00
    0.42244E-02         0.39069E-02         0.00000E+00
    0.43845E-02         0.35669E-02         0.00000E+00
    0.45032E-02         0.32073E-02         0.00000E+00
    0.45713E-02         0.28337E-02         0.00000E+00
    0.45809E-02         0.24523E-02         0.00000E+00
    0.45254E-02         0.20704E-02         0.00000E+00
    0.43995E-02         0.16957E-02         0.00000E+00
    0.41995E-02         0.13362E-02         0.00000E+00
    0.39230E-02         0.10003E-02         0.00000E+00
    0.35694E-02         0.69657E-03         0.00000E+00
    0.31397E-02         0.43345E-03         0.00000E+00
    0.26363E-02         0.21920E-03         0.00000E+00
    0.20637E-02         0.61740E-04         0.00000E+00
    0.14278E-02        -0.31562E-04         0.00000E+00
    0.73667E-03        -0.54052E-04         0.00000E+00
    0.00000E+00         0.00000E+00         0.00000E+00
    0.26089E-02         0.56950E-02         0.00000E+00
    0.25781E-02         0.55633E-02         0.00000E+00
    0.26116E-02         0.54232E-02         0.00000E+00
    0.26980E-02         0.52679E-02         0.00000E+00
    0.28254E-02         0.50917E-02         0.00000E+00
    0.29818E-02         0.48908E-02         0.00000E+00
    0.31553E-02         0.46629E-02         0.00000E+00
    0.33342E-02         0.44070E-02         0.00000E+00
    0.35075E-02         0.41238E-02         0.00000E+00
    0.36645E-02         0.38151E-02         0.00000E+00
    0.37955E-02         0.34839E-02         0.00000E+00
    0.38916E-02         0.31346E-02         0.00000E+00
    0.39448E-02         0.27722E-02         0.00000E+00
    0.39483E-02         0.24027E-02         0.00000E+00
    0.38964E-02         0.20329E-02         0.00000E+00
    0.37845E-02         0.16700E-02         0.00000E+00
    0.36093E-02         0.13218E-02         0.00000E+00
    0.33690E-02         0.99618E-03         0.00000E+00
    0.30631E-02         0.70120E-03         0.00000E+00
    0.26922E-02         0.44490E-03         0.00000E+00
    0.22589E-02         0.23509E-03         0.00000E+00
    0.17668E-02         0.79206E-04         0.00000E+00
    0.12214E-02        -0.15879E-04         0.00000E+00
    0.62964E-03        -0.44019E-04         0.00000E+00
    0.00000E+00         0.00000E+00         0.00000E+00
    0.22919E-02         0.56287E-02         0.00000E+00
    0.22575E-02         0.54857E-02         0.00000E+00
    0.22775E-02         0.53363E-02         0.00000E+00
    0.23422E-02         0.51739E-02         0.00000E+00
    0.24419E-02         0.49931E-02         0.00000E+00
    0.25664E-02         0.47901E-02         0.00000E+00
    0.27058E-02         0.45623E-02         0.00000E+00
    0.28503E-02         0.43089E-02         0.00000E+00
    0.29905E-02         0.40301E-02         0.00000E+00
    0.31176E-02         0.37277E-02         0.00000E+00
    0.32231E-02         0.34044E-02         0.00000E+00
    0.32997E-02         0.30642E-02         0.00000E+00
    0.33405E-02         0.27118E-02         0.00000E+00
    0.33398E-02         0.23531E-02         0.00000E+00
    0.32928E-02         0.19942E-02         0.00000E+00
    0.31955E-02         0.16421E-02         0.00000E+00
    0.30453E-02         0.13042E-02         0.00000E+00
    0.28406E-02         0.98803E-03         0.00000E+00
    0.25808E-02         0.70125E-03         0.00000E+00
    0.22668E-02         0.45150E-03         0.00000E+00
    0.19006E-02         0.24619E-03         0.00000E+00
    0.14856E-02         0.92328E-04         0.00000E+00
    0.10262E-02        -0.36370E-05         0.00000E+00
    0.52860E-03        -0.36002E-04         0.00000E+00
    0.00000E+00         0.00000E+00         0.00000E+00
    0.19489E-02         0.55663E-02         0.00000E+00
    0.19147E-02         0.54139E-02         0.00000E+00
    0.19252E-02         0.52568E-02         0.00000E+00
    0.19727E-02         0.50886E-02         0.00000E+00
    0.20491E-02         0.49039E-02         0.00000E+00
    0.21462E-02         0.46990E-02         0.00000E+00
    0.22558E-02         0.44714E-02         0.00000E+00
    0.23700E-02         0.42201E-02         0.00000E+00
    0.24810E-02         0.39452E-02         0.00000E+00
    0.25815E-02         0.36483E-02         0.00000E+00
    0.26648E-02         0.33318E-02         0.00000E+00
    0.27245E-02         0.29995E-02         0.00000E+00
    0.27551E-02         0.26559E-02         0.00000E+00
    0.27520E-02         0.23064E-02         0.00000E+00
    0.27109E-02         0.19570E-02         0.00000E+00
    0.26289E-02         0.16145E-02         0.00000E+00
    0.25037E-02         0.12857E-02         0.00000E+00
    0.23339E-02         0.97789E-03         0.00000E+00
    0.21192E-02         0.69848E-03         0.00000E+00
    0.18603E-02         0.45473E-03         0.00000E+00
    0.15588E-02         0.25368E-03         0.00000E+00
    0.12177E-02         0.10200E-03         0.00000E+00
    0.84062E-03         0.57596E-05         0.00000E+00
    0.43270E-03        -0.29702E-04         0.00000E+00
    0.00000E+00         0.00000E+00         0.00000E+00
    0.15843E-02         0.55111E-02         0.00000E+00
    0.15534E-02         0.53511E-02         0.00000E+00
    0.15579E-02         0.51878E-02         0.00000E+00
    0.15917E-02         0.50148E-02         0.00000E+00
    0.16485E-02         0.48270E-02         0.00000E+00
    0.17219E-02         0.46206E-02         0.00000E+00
    0.18053E-02         0.43933E-02         0.00000E+00
    0.18926E-02         0.41437E-02         0.00000E+00
    0.19776E-02         0.38720E-02         0.00000E+00
    0.20545E-02         0.35796E-02         0.00000E+00
    0.21180E-02         0.32688E-02         0.00000E+00
    0.21631E-02         0.29431E-02         0.00000E+00
    0.21854E-02         0.26068E-02         0.00000E+00
    0.21812E-02         0.22651E-02         0.00000E+00
    0.21472E-02         0.19238E-02         0.00000E+00
    0.20809E-02         0.15892E-02         0.00000E+00
    0.19807E-02         0.12681E-02         0.00000E+00
    0.18454E-02         0.96744E-03         0.00000E+00
    0.16748E-02         0.69434E-03         0.00000E+00
    0.14694E-02         0.45579E-03         0.00000E+00
    0.12307E-02         0.25853E-03         0.00000E+00
    0.96084E-03         0.10894E-03         0.00000E+00
    0.66297E-03         0.12801E-04         0.00000E+00
    0.34106E-03        -0.24875E-04         0.00000E+00
    0.00000E+00         0.00000E+00         0.00000E+00
    0.12029E-02         0.54656E-02         0.00000E+00
    0.11777E-02         0.52998E-02         0.00000E+00
    0.11787E-02         0.51316E-02         0.00000E+00
    0.12017E-02         0.49550E-02         0.00000E+00
    0.12418E-02         0.47648E-02         0.00000E+00
    0.12943E-02         0.45573E-02         0.00000E+00
    0.13544E-02         0.43301E-02         0.00000E+00
    0.14175E-02         0.40820E-02         0.00000E+00
    0.14790E-02         0.38129E-02         0.00000E+00
    0.15347E-02         0.35240E-02         0.00000E+00
    0.15805E-02         0.32177E-02         0.00000E+00
    0.16127E-02         0.28972E-02         0.00000E+00
    0.16282E-02         0.25666E-02         0.00000E+00
    0.16240E-02         0.22311E-02         0.00000E+00
    0.15978E-02         0.18961E-02         0.00000E+00
    0.15477E-02         0.15679E-02         0.00000E+00
    0.14725E-02         0.12529E-02         0.00000E+00
    0.13714E-02         0.95799E-03         0.00000E+00
    0.12441E-02         0.68997E-03         0.00000E+00
    0.10911E-02         0.45564E-03         0.00000E+00
    0.91347E-03         0.26153E-03         0.00000E+00
    0.71289E-03         0.11376E-03         0.00000E+00
    0.49167E-03         0.17881E-04         0.00000E+00
    0.25282E-03        -0.21321E-04         0.00000E+00
    0.00000E+00         0.00000E+00         0.00000E+00
    0.80884E-03         0.54318E-02         0.00000E+00
    0.79107E-03         0.52618E-02         0.00000E+00
    0.79072E-03         0.50902E-02         0.00000E+00
    0.80485E-03         0.49110E-02         0.00000E+00
    0.83039E-03         0.47191E-02         0.00000E+00
    0.86420E-03         0.45109E-02         0.00000E+00
    0.90313E-03         0.42838E-02         0.00000E+00
    0.94408E-03         0.40367E-02         0.00000E+00
    0.98404E-03         0.37694E-02         0.00000E+00
    0.10202E-02         0.34831E-02         0.00000E+00
    0.10498E-02         0.31800E-02         0.00000E+00
    0.10706E-02         0.28632E-02         0.00000E+00
    0.10803E-02         0.25369E-02         0.00000E+00
    0.10770E-02         0.22058E-02         0.00000E+00
    0.10592E-02         0.18754E-02         0.00000E+00
    0.10257E-02         0.15518E-02         0.00000E+00
    0.97550E-03         0.12413E-02         0.00000E+00
    0.90820E-03         0.95054E-03         0.00000E+00
    0.82367E-03         0.68625E-03         0.00000E+00
    0.72218E-03         0.45503E-03         0.00000E+00
    0.60444E-03         0.26325E-03         0.00000E+00
    0.47157E-03         0.11688E-03         0.00000E+00
    0.32514E-03         0.21298E-04         0.00000E+00
    0.16714E-03        -0.18889E-04         0.00000E+00
    0.00000E+00         0.00000E+00         0.00000E+00
    0.40649E-03         0.54110E-02         0.00000E+00
    0.39732E-03         0.52385E-02         0.00000E+00
    0.39682E-03         0.50649E-02         0.00000E+00
    0.40355E-03         0.48841E-02         0.00000E+00
    0.41596E-03         0.46912E-02         0.00000E+00
    0.43251E-03         0.44825E-02         0.00000E+00
    0.45163E-03         0.42555E-02         0.00000E+00
    0.47176E-03         0.40090E-02         0.00000E+00
    0.49143E-03         0.37428E-02         0.00000E+00
    0.50921E-03         0.34581E-02         0.00000E+00
    0.52378E-03         0.31569E-02         0.00000E+00
    0.53394E-03         0.28424E-02         0.00000E+00
    0.53859E-03         0.25186E-02         0.00000E+00
    0.53681E-03         0.21902E-02         0.00000E+00
    0.52781E-03         0.18626E-02         0.00000E+00
    0.51099E-03         0.15418E-02         0.00000E+00
    0.48590E-03         0.12340E-02         0.00000E+00
    0.45229E-03         0.94579E-03         0.00000E+00
    0.41012E-03         0.68377E-03         0.00000E+00
    0.35953E-03         0.45446E-03         0.00000E+00
    0.30086E-03         0.26412E-03         0.00000E+00
    0.23468E-03         0.11863E-03         0.00000E+00
    0.16178E-03         0.23264E-04         0.00000E+00
    0.83145E-04        -0.17472E-04         0.00000E+00
    0.00000E+00         0.00000E+00         0.00000E+00
    0.00000E+00         0.54039E-02         0.00000E+00
    0.00000E+00         0.52306E-02         0.00000E+00
    0.00000E+00         0.50564E-02         0.00000E+00
    0.00000E+00         0.48751E-02         0.00000E+00
    0.00000E+00         0.46818E-02         0.00000E+00
    0.00000E+00         0.44730E-02         0.00000E+00
    0.00000E+00         0.42460E-02         0.00000E+00
    0.00000E+00         0.39997E-02         0.00000E+00
    0.00000E+00         0.37339E-02         0.00000E+00
    0.00000E+00         0.34497E-02         0.00000E+00
    0.00000E+00         0.31492E-02         0.00000E+00
    0.00000E+00         0.28354E-02         0.00000E+00
    0.00000E+00         0.25124E-02         0.00000E+00
    0.00000E+00         0.21849E-02         0.00000E+00
    0.00000E+00         0.18583E-02         0.00000E+00
    0.00000E+00         0.15384E-02         0.00000E+00
    0.00000E+00         0.12315E-02         0.00000E+00
    0.00000E+00         0.94417E-03         0.00000E+00
    0.00000E+00         0.68291E-03         0.00000E+00
    0.00000E+00         0.45423E-03         0.00000E+00
    0.00000E+00         0.26439E-03         0.00000E+00
    0.00000E+00         0.11920E-03         0.00000E+00
    0.00000E+00         0.23906E-04         0.00000E+00
    0.00000E+00        -0.17007E-04         0.00000E+00
    0.00000E+00         0.00000E+00         0.00000E+00
CELL_DATA       1152
VECTORS vDarcy double 
    0.10757E-17         0.78454E-18         0.00000E+00
    0.76095E-18         0.16422E-17         0.00000E+00
    0.27572E-18         0.22027E-17         0.00000E+00
    0.13455E-18         0.26321E-17         0.00000E+00
    0.19012E-18         0.29311E-17         0.00000E+00
    0.13745E-18         0.29762E-17         0.00000E+00
    0.59564E-19         0.29442E-17         0.00000E+00
    0.14694E-19         0.29363E-17         0.00000E+00
   -0.37598E-20         0.28280E-17         0.00000E+00
   -0.46610E-19         0.28338E-17         0.00000E+00
   -0.25127E-19         0.27531E-17         0.00000E+00
    0.34183E-19         0.26237E-17         0.00000E+00
    0.41219E-19         0.24018E-17         0.00000E+00
    0.32177E-19         0.22010E-17         0.00000E+00
    0.57669E-20         0.20668E-17         0.00000E+00
   -0.76541E-20         0.18403E-17         0.00000E+00
    0.71414E-20         0.16332E-17         0.00000E+00
    0.14491E-19         0.14517E-17         0.00000E+00
    0.91534E-20         0.12424E-17         0.00000E+00
    0.40430E-20         0.10377E-17         0.00000E+00
   -0.11002E-20         0.81100E-18         0.00000E+00
   -0.52781E-21         0.57385E-18         0.00000E+00
    0.55931E-20         0.34585E-18         0.00000E+00
    0.56951E-20         0.11273E-18         0.00000E+00
    0.29118E-17         0.97023E-18         0.00000E+00
    0.21124E-17         0.25705E-17         0.00000E+00
    0.10673E-17         0.28047E-17         0.00000E+00
    0.47893E-18         0.27597E-17         0.00000E+00
    0.27212E-18         0.29547E-17         0.00000E+00
    0.20217E-18         0.30751E-17         0.00000E+00
    0.73467E-19         0.30518E-17         0.00000E+00
    0.79408E-20         0.29391E-17         0.00000E+00
    0.14491E-19         0.28371E-17         0.00000E+00
    0.22743E-19         0.28593E-17         0.00000E+00
    0.32634E-19         0.26962E-17         0.00000E+00
    0.58855E-19         0.25950E-17         0.00000E+00
    0.71374E-19         0.24109E-17         0.00000E+00
    0.32432E-19         0.22399E-17         0.00000E+00
   -0.19076E-20         0.20887E-17         0.00000E+00
    0.12731E-19         0.18172E-17         0.00000E+00
    0.25108E-19         0.16292E-17         0.00000E+00
    0.23963E-19         0.14495E-17         0.00000E+00
    0.24884E-19         0.12490E-17         0.00000E+00
    0.17300E-19         0.10438E-17         0.00000E+00
    0.12030E-19         0.81531E-18         0.00000E+00
    0.12717E-19         0.56829E-18         0.00000E+00
    0.16338E-19         0.34167E-18         0.00000E+00
    0.20000E-19         0.11314E-18         0.00000E+00
    0.56507E-17         0.41943E-17         0.00000E+00
    0.20770E-17         0.37195E-17         0.00000E+00
    0.12509E-17         0.35271E-17         0.00000E+00
    0.73133E-18         0.31453E-17         0.00000E+00
    0.42970E-18         0.30775E-17         0.00000E+00
    0.19975E-18         0.32522E-17         0.00000E+00
    0.28204E-19         0.31750E-17         0.00000E+00
   -0.58247E-20         0.29155E-17         0.00000E+00
    0.57028E-19         0.27913E-17         0.00000E+00
    0.12339E-18         0.28305E-17         0.00000E+00
    0.11154E-18         0.27270E-17         0.00000E+00
    0.43779E-19         0.26057E-17         0.00000E+00
    0.16238E-19         0.24152E-17         0.00000E+00
    0.48539E-19         0.22422E-17         0.00000E+00
    0.87195E-19         0.20820E-17         0.00000E+00
    0.60629E-19         0.18358E-17         0.00000E+00
    0.43664E-19         0.16151E-17         0.00000E+00
    0.68406E-19         0.14399E-17         0.00000E+00
    0.48173E-19         0.12779E-17         0.00000E+00
    0.25410E-19         0.10453E-17         0.00000E+00
    0.40876E-19         0.80365E-18         0.00000E+00
    0.43155E-19         0.57698E-18         0.00000E+00
    0.34111E-19         0.33840E-18         0.00000E+00
    0.35700E-19         0.11116E-18         0.00000E+00
    0.97076E-18         0.63043E-17         0.00000E+00
    0.16237E-17         0.45301E-17         0.00000E+00
    0.11788E-17         0.39875E-17         0.00000E+00
    0.81075E-18         0.35725E-17         0.00000E+00
    0.42180E-18         0.33409E-17         0.00000E+00
    0.29149E-18         0.33491E-17         0.00000E+00
    0.28017E-18         0.32610E-17         0.00000E+00
    0.20906E-18         0.29346E-17         0.00000E+00
    0.15007E-18         0.27683E-17         0.00000E+00
    0.11920E-18         0.28180E-17         0.00000E+00
    0.12119E-18         0.27494E-17         0.00000E+00
    0.14175E-18         0.26306E-17         0.00000E+00
    0.10858E-18         0.24511E-17         0.00000E+00
    0.60926E-19         0.22217E-17         0.00000E+00
    0.53126E-19         0.20717E-17         0.00000E+00
    0.63479E-19         0.18624E-17         0.00000E+00
    0.59174E-19         0.16098E-17         0.00000E+00
    0.43047E-19         0.14366E-17         0.00000E+00
    0.61383E-19         0.12831E-17         0.00000E+00
    0.75521E-19         0.10487E-17         0.00000E+00
    0.61678E-19         0.79863E-18         0.00000E+00
    0.60913E-19         0.58048E-18         0.00000E+00
    0.62584E-19         0.34227E-18         0.00000E+00
    0.53630E-19         0.11466E-18         0.00000E+00
    0.29393E-18         0.50396E-17         0.00000E+00
    0.69939E-18         0.47364E-17         0.00000E+00
    0.71484E-18         0.42107E-17         0.00000E+00
    0.59057E-18         0.38415E-17         0.00000E+00
    0.53650E-18         0.35149E-17         0.00000E+00
    0.44604E-18         0.33959E-17         0.00000E+00
    0.39096E-18         0.32806E-17         0.00000E+00
    0.35061E-18         0.30265E-17         0.00000E+00
    0.22024E-18         0.28658E-17         0.00000E+00
    0.12968E-18         0.28419E-17         0.00000E+00
    0.12642E-18         0.27267E-17         0.00000E+00
    0.15633E-18         0.26028E-17         0.00000E+00
    0.16263E-18         0.25057E-17         0.00000E+00
    0.10765E-18         0.22697E-17         0.00000E+00
    0.61559E-19         0.20776E-17         0.00000E+00
    0.53944E-19         0.18537E-17         0.00000E+00
    0.41193E-19         0.16355E-17         0.00000E+00
    0.37285E-19         0.14310E-17         0.00000E+00
    0.60888E-19         0.12469E-17         0.00000E+00
    0.81222E-19         0.10505E-17         0.00000E+00
    0.77429E-19         0.81445E-18         0.00000E+00
    0.66515E-19         0.57634E-18         0.00000E+00
    0.63769E-19         0.34749E-18         0.00000E+00
    0.63461E-19         0.11870E-18         0.00000E+00
    0.14861E-18         0.45970E-17         0.00000E+00
    0.39926E-18         0.45228E-17         0.00000E+00
    0.52867E-18         0.42794E-17         0.00000E+00
    0.54619E-18         0.38796E-17         0.00000E+00
    0.46102E-18         0.36161E-17         0.00000E+00
    0.35230E-18         0.34939E-17         0.00000E+00
    0.35991E-18         0.32300E-17         0.00000E+00
    0.35848E-18         0.31188E-17         0.00000E+00
    0.27038E-18         0.29920E-17         0.00000E+00
    0.21584E-18         0.28609E-17         0.00000E+00
    0.20226E-18         0.27246E-17         0.00000E+00
    0.19318E-18         0.25841E-17         0.00000E+00
    0.17884E-18         0.25324E-17         0.00000E+00
    0.15375E-18         0.23230E-17         0.00000E+00
    0.12992E-18         0.20942E-17         0.00000E+00
    0.10008E-18         0.18746E-17         0.00000E+00
    0.72683E-19         0.16548E-17         0.00000E+00
    0.52049E-19         0.14362E-17         0.00000E+00
    0.45150E-19         0.12249E-17         0.00000E+00
    0.65429E-19         0.10318E-17         0.00000E+00
    0.77247E-19         0.82508E-18         0.00000E+00
    0.74306E-19         0.57957E-18         0.00000E+00
    0.72319E-19         0.34899E-18         0.00000E+00
    0.72892E-19         0.11693E-18         0.00000E+00
    0.88293E-19         0.43601E-17         0.00000E+00
    0.24353E-18         0.43539E-17         0.00000E+00
    0.37283E-18         0.41897E-17         0.00000E+00
    0.44864E-18         0.38760E-17         0.00000E+00
    0.42616E-18         0.37273E-17         0.00000E+00
    0.37895E-18         0.35386E-17         0.00000E+00
    0.34737E-18         0.32093E-17         0.00000E+00
    0.33362E-18         0.31547E-17         0.00000E+00
    0.32607E-18         0.30517E-17         0.00000E+00
    0.29205E-18         0.28897E-17         0.00000E+00
    0.24251E-18         0.27589E-17         0.00000E+00
    0.18199E-18         0.26194E-17         0.00000E+00
    0.14112E-18         0.25523E-17         0.00000E+00
    0.13132E-18         0.23380E-17         0.00000E+00
    0.12326E-18         0.21111E-17         0.00000E+00
    0.11049E-18         0.19003E-17         0.00000E+00
    0.96508E-19         0.16705E-17         0.00000E+00
    0.76523E-19         0.14612E-17         0.00000E+00
    0.65527E-19         0.12178E-17         0.00000E+00
    0.69646E-19         0.10145E-17         0.00000E+00
    0.85403E-19         0.81485E-18         0.00000E+00
    0.92700E-19         0.58544E-18         0.00000E+00
    0.86783E-19         0.35102E-18         0.00000E+00
    0.84973E-19         0.11614E-18         0.00000E+00
    0.77774E-19         0.41941E-17         0.00000E+00
    0.23478E-18         0.42077E-17         0.00000E+00
    0.36553E-18         0.40758E-17         0.00000E+00
    0.39244E-18         0.38871E-17         0.00000E+00
    0.36605E-18         0.37651E-17         0.00000E+00
    0.37928E-18         0.35348E-17         0.00000E+00
    0.35317E-18         0.32708E-17         0.00000E+00
    0.32823E-18         0.31320E-17         0.00000E+00
    0.34526E-18         0.30649E-17         0.00000E+00
    0.29654E-18         0.29592E-17         0.00000E+00
    0.23539E-18         0.28000E-17         0.00000E+00
    0.19866E-18         0.26755E-17         0.00000E+00
    0.15749E-18         0.25783E-17         0.00000E+00
    0.14042E-18         0.23389E-17         0.00000E+00
    0.12595E-18         0.21327E-17         0.00000E+00
    0.10785E-18         0.19095E-17         0.00000E+00
    0.10652E-18         0.16766E-17         0.00000E+00
    0.11689E-18         0.14647E-17         0.00000E+00
    0.12086E-18         0.12214E-17         0.00000E+00
    0.11293E-18         0.10148E-17         0.00000E+00
    0.10159E-18         0.81013E-18         0.00000E+00
    0.98650E-19         0.58581E-18         0.00000E+00
    0.10349E-18         0.35173E-18         0.00000E+00
    0.10428E-18         0.11644E-18         0.00000E+00
    0.69688E-19         0.40466E-17         0.00000E+00
    0.19710E-18         0.40707E-17         0.00000E+00
    0.28213E-18         0.39970E-17         0.00000E+00
    0.33711E-18         0.38841E-17         0.00000E+00
    0.37714E-18         0.37545E-17         0.00000E+00
    0.37421E-18         0.35351E-17         0.00000E+00
    0.35203E-18         0.33188E-17         0.00000E+00
    0.31547E-18         0.31455E-17         0.00000E+00
    0.27193E-18         0.30780E-17         0.00000E+00
    0.26003E-18         0.30068E-17         0.00000E+00
    0.24377E-18         0.28299E-17         0.00000E+00
    0.20232E-18         0.27238E-17         0.00000E+00
    0.17031E-18         0.26031E-17         0.00000E+00
    0.14719E-18         0.23543E-17         0.00000E+00
    0.13879E-18         0.21402E-17         0.00000E+00
    0.14688E-18         0.19120E-17         0.00000E+00
    0.15305E-18         0.16693E-17         0.00000E+00
    0.15137E-18         0.14633E-17         0.00000E+00
    0.13322E-18         0.12369E-17         0.00000E+00
    0.11411E-18         0.10263E-17         0.00000E+00
    0.11078E-18         0.81328E-18         0.00000E+00
    0.11525E-18         0.58113E-18         0.00000E+00
    0.11798E-18         0.34885E-18         0.00000E+00
    0.12090E-18         0.11561E-18         0.00000E+00
    0.42087E-19         0.39348E-17         0.00000E+00
    0.12806E-18         0.39691E-17         0.00000E+00
    0.21221E-18         0.39294E-17         0.00000E+00
    0.26204E-18         0.38468E-17         0.00000E+00
    0.29669E-18         0.37171E-17         0.00000E+00
    0.34584E-18         0.35263E-17         0.00000E+00
    0.32084E-18         0.33748E-17         0.00000E+00
    0.24899E-18         0.31979E-17         0.00000E+00
    0.20509E-18         0.31130E-17         0.00000E+00
    0.19006E-18         0.29987E-17         0.00000E+00
    0.17556E-18         0.28687E-17         0.00000E+00
    0.14403E-18         0.27580E-17         0.00000E+00
    0.14948E-18         0.25955E-17         0.00000E+00
    0.16089E-18         0.23736E-17         0.00000E+00
    0.15813E-18         0.21321E-17         0.00000E+00
    0.17313E-18         0.18971E-17         0.00000E+00
    0.17159E-18         0.16796E-17         0.00000E+00
    0.15628E-18         0.14700E-17         0.00000E+00
    0.14677E-18         0.12579E-17         0.00000E+00
    0.12164E-18         0.10496E-17         0.00000E+00
    0.11272E-18         0.80224E-18         0.00000E+00
    0.13088E-18         0.56954E-18         0.00000E+00
    0.13458E-18         0.35402E-18         0.00000E+00
    0.12508E-18         0.11702E-18         0.00000E+00
    0.36636E-19         0.38561E-17         0.00000E+00
    0.95251E-19         0.39033E-17         0.00000E+00
    0.13393E-18         0.38725E-17         0.00000E+00
    0.17105E-18         0.38168E-17         0.00000E+00
    0.20370E-18         0.36798E-17         0.00000E+00
    0.19887E-18         0.35193E-17         0.00000E+00
    0.17596E-18         0.34297E-17         0.00000E+00
    0.14642E-18         0.32444E-17         0.00000E+00
    0.13390E-18         0.31229E-17         0.00000E+00
    0.12461E-18         0.30131E-17         0.00000E+00
    0.98423E-19         0.28950E-17         0.00000E+00
    0.12088E-18         0.27407E-17         0.00000E+00
    0.14805E-18         0.25802E-17         0.00000E+00
    0.15732E-18         0.23683E-17         0.00000E+00
    0.17523E-18         0.21223E-17         0.00000E+00
    0.16844E-18         0.18987E-17         0.00000E+00
    0.14631E-18         0.17016E-17         0.00000E+00
    0.12526E-18         0.14843E-17         0.00000E+00
    0.11805E-18         0.12603E-17         0.00000E+00
    0.13093E-18         0.10594E-17         0.00000E+00
    0.12913E-18         0.80315E-18         0.00000E+00
    0.12084E-18         0.55877E-18         0.00000E+00
    0.12697E-18         0.35496E-18         0.00000E+00
    0.13220E-18         0.12034E-18         0.00000E+00
   -0.49474E-21         0.38200E-17         0.00000E+00
    0.39595E-19         0.38407E-17         0.00000E+00
    0.98737E-19         0.38372E-17         0.00000E+00
    0.13520E-18         0.37785E-17         0.00000E+00
    0.16299E-18         0.36577E-17         0.00000E+00
    0.16983E-18         0.35394E-17         0.00000E+00
    0.15400E-18         0.34484E-17         0.00000E+00
    0.12850E-18         0.32808E-17         0.00000E+00
    0.10586E-18         0.31217E-17         0.00000E+00
    0.95736E-19         0.30337E-17         0.00000E+00
    0.11739E-18         0.28789E-17         0.00000E+00
    0.13804E-18         0.27137E-17         0.00000E+00
    0.14367E-18         0.25744E-17         0.00000E+00
    0.14229E-18         0.23662E-17         0.00000E+00
    0.12862E-18         0.21201E-17         0.00000E+00
    0.13228E-18         0.19040E-17         0.00000E+00
    0.13436E-18         0.17164E-17         0.00000E+00
    0.13278E-18         0.14921E-17         0.00000E+00
    0.12438E-18         0.12681E-17         0.00000E+00
    0.12014E-18         0.10430E-17         0.00000E+00
    0.13429E-18         0.80723E-18         0.00000E+00
    0.13598E-18         0.56129E-18         0.00000E+00
    0.13411E-18         0.34818E-18         0.00000E+00
    0.13561E-18         0.12037E-18         0.00000E+00
   -0.75736E-20         0.38280E-17         0.00000E+00
    0.60988E-22         0.37849E-17         0.00000E+00
    0.48040E-19         0.37859E-17         0.00000E+00
    0.10473E-18         0.37367E-17         0.00000E+00
    0.13382E-18         0.36426E-17         0.00000E+00
    0.13821E-18         0.35432E-17         0.00000E+00
    0.14716E-18         0.34514E-17         0.00000E+00
    0.14999E-18         0.33004E-17         0.00000E+00
    0.12732E-18         0.31474E-17         0.00000E+00
    0.12060E-18         0.30249E-17         0.00000E+00
    0.13008E-18         0.28566E-17         0.00000E+00
    0.12863E-18         0.27168E-17         0.00000E+00
    0.12572E-18         0.25686E-17         0.00000E+00
    0.13990E-18         0.23592E-17         0.00000E+00
    0.14858E-18         0.21321E-17         0.00000E+00
    0.13065E-18         0.19063E-17         0.00000E+00
    0.11539E-18         0.17273E-17         0.00000E+00
    0.11025E-18         0.14880E-17         0.00000E+00
    0.11995E-18         0.12710E-17         0.00000E+00
    0.13022E-18         0.10340E-17         0.00000E+00
    0.13140E-18         0.80082E-18         0.00000E+00
    0.13255E-18         0.56486E-18         0.00000E+00
    0.13325E-18         0.34577E-18         0.00000E+00
    0.13544E-18         0.11908E-18         0.00000E+00
    0.11169E-19         0.38244E-17         0.00000E+00
    0.28995E-19         0.37630E-17         0.00000E+00
    0.57182E-19         0.37316E-17         0.00000E+00
    0.82395E-19         0.37091E-17         0.00000E+00
    0.92731E-19         0.36308E-17         0.00000E+00
    0.10329E-18         0.35400E-17         0.00000E+00
    0.12301E-18         0.34259E-17         0.00000E+00
    0.14439E-18         0.33017E-17         0.00000E+00
    0.14071E-18         0.31724E-17         0.00000E+00
    0.12790E-18         0.30194E-17         0.00000E+00
    0.10484E-18         0.28757E-17         0.00000E+00
    0.84524E-19         0.27195E-17         0.00000E+00
    0.10288E-18         0.25504E-17         0.00000E+00
    0.12454E-18         0.23415E-17         0.00000E+00
    0.12891E-18         0.21367E-17         0.00000E+00
    0.11786E-18         0.19306E-17         0.00000E+00
    0.10686E-18         0.17292E-17         0.00000E+00
    0.11384E-18         0.14842E-17         0.00000E+00
    0.12711E-18         0.12517E-17         0.00000E+00
    0.14005E-18         0.10301E-17         0.00000E+00
    0.13539E-18         0.80826E-18         0.00000E+00
    0.12397E-18         0.56770E-18         0.00000E+00
    0.12320E-18         0.34301E-18         0.00000E+00
    0.12646E-18         0.11639E-18         0.00000E+00
    0.21269E-19         0.37920E-17         0.00000E+00
    0.41917E-19         0.37570E-17         0.00000E+00
    0.39044E-19         0.37123E-17         0.00000E+00
    0.54562E-19         0.36876E-17         0.00000E+00
    0.81394E-19         0.36151E-17         0.00000E+00
    0.10480E-18         0.35218E-17         0.00000E+00
    0.12330E-18         0.34059E-17         0.00000E+00
    0.11720E-18         0.33064E-17         0.00000E+00
    0.11896E-18         0.31696E-17         0.00000E+00
    0.12433E-18         0.30296E-17         0.00000E+00
    0.11403E-18         0.28988E-17         0.00000E+00
    0.11262E-18         0.27181E-17         0.00000E+00
    0.11197E-18         0.25341E-17         0.00000E+00
    0.11408E-18         0.23340E-17         0.00000E+00
    0.11877E-18         0.21351E-17         0.00000E+00
    0.11734E-18         0.19447E-17         0.00000E+00
    0.12457E-18         0.17189E-17         0.00000E+00
    0.14041E-18         0.14717E-17         0.00000E+00
    0.14660E-18         0.12448E-17         0.00000E+00
    0.14483E-18         0.10258E-17         0.00000E+00
    0.14136E-18         0.82061E-18         0.00000E+00
    0.13354E-18         0.57459E-18         0.00000E+00
    0.12828E-18         0.34215E-18         0.00000E+00
    0.12620E-18         0.11606E-18         0.00000E+00
    0.13357E-19         0.37574E-17         0.00000E+00
    0.32469E-19         0.37519E-17         0.00000E+00
    0.37902E-19         0.37149E-17         0.00000E+00
    0.45617E-19         0.36618E-17         0.00000E+00
    0.66854E-19         0.35928E-17         0.00000E+00
    0.90689E-19         0.34968E-17         0.00000E+00
    0.95485E-19         0.34076E-17         0.00000E+00
    0.96804E-19         0.33095E-17         0.00000E+00
    0.10570E-18         0.31559E-17         0.00000E+00
    0.10769E-18         0.30360E-17         0.00000E+00
    0.11905E-18         0.28914E-17         0.00000E+00
    0.13470E-18         0.27113E-17         0.00000E+00
    0.14113E-18         0.25351E-17         0.00000E+00
    0.13618E-18         0.23359E-17         0.00000E+00
    0.13213E-18         0.21326E-17         0.00000E+00
    0.14398E-18         0.19367E-17         0.00000E+00
    0.15528E-18         0.17084E-17         0.00000E+00
    0.15095E-18         0.14708E-17         0.00000E+00
    0.14351E-18         0.12470E-17         0.00000E+00
    0.13991E-18         0.10290E-17         0.00000E+00
    0.14129E-18         0.81953E-18         0.00000E+00
    0.14266E-18         0.58213E-18         0.00000E+00
    0.13559E-18         0.34693E-18         0.00000E+00
    0.13166E-18         0.11730E-18         0.00000E+00
    0.59427E-20         0.37381E-17         0.00000E+00
    0.20140E-19         0.37379E-17         0.00000E+00
    0.42155E-19         0.37014E-17         0.00000E+00
    0.67276E-19         0.36424E-17         0.00000E+00
    0.87057E-19         0.35712E-17         0.00000E+00
    0.90393E-19         0.34913E-17         0.00000E+00
    0.89008E-19         0.34097E-17         0.00000E+00
    0.10602E-18         0.32890E-17         0.00000E+00
    0.11018E-18         0.31633E-17         0.00000E+00
    0.10400E-18         0.30328E-17         0.00000E+00
    0.11886E-18         0.28684E-17         0.00000E+00
    0.14076E-18         0.26968E-17         0.00000E+00
    0.14960E-18         0.25344E-17         0.00000E+00
    0.14164E-18         0.23495E-17         0.00000E+00
    0.13301E-18         0.21317E-17         0.00000E+00
    0.13634E-18         0.19225E-17         0.00000E+00
    0.14597E-18         0.17017E-17         0.00000E+00
    0.15411E-18         0.14736E-17         0.00000E+00
    0.14862E-18         0.12570E-17         0.00000E+00
    0.13890E-18         0.10323E-17         0.00000E+00
    0.13845E-18         0.81533E-18         0.00000E+00
    0.14099E-18         0.58242E-18         0.00000E+00
    0.14244E-18         0.35225E-18         0.00000E+00
    0.14092E-18         0.11743E-18         0.00000E+00
    0.53240E-20         0.37268E-17         0.00000E+00
    0.22978E-19         0.37173E-17         0.00000E+00
    0.44558E-19         0.36784E-17         0.00000E+00
    0.60723E-19         0.36241E-17         0.00000E+00
    0.72269E-19         0.35581E-17         0.00000E+00
    0.83431E-19         0.34898E-17         0.00000E+00
    0.99528E-19         0.33965E-17         0.00000E+00
    0.11295E-18         0.32719E-17         0.00000E+00
    0.11593E-18         0.31733E-17         0.00000E+00
    0.12104E-18         0.30239E-17         0.00000E+00
    0.13416E-18         0.28493E-17         0.00000E+00
    0.13482E-18         0.26932E-17         0.00000E+00
    0.13752E-18         0.25264E-17         0.00000E+00
    0.14587E-18         0.23571E-17         0.00000E+00
    0.13528E-18         0.21433E-17         0.00000E+00
    0.12668E-18         0.19161E-17         0.00000E+00
    0.13627E-18         0.16888E-17         0.00000E+00
    0.15255E-18         0.14621E-17         0.00000E+00
    0.16193E-18         0.12647E-17         0.00000E+00
    0.15592E-18         0.10404E-17         0.00000E+00
    0.14830E-18         0.81531E-18         0.00000E+00
    0.14552E-18         0.58268E-18         0.00000E+00
    0.14305E-18         0.35301E-18         0.00000E+00
    0.14315E-18         0.11809E-18         0.00000E+00
    0.74973E-20         0.37140E-17         0.00000E+00
    0.24756E-19         0.36952E-17         0.00000E+00
    0.39596E-19         0.36641E-17         0.00000E+00
    0.48530E-19         0.36134E-17         0.00000E+00
    0.55256E-19         0.35506E-17         0.00000E+00
    0.67792E-19         0.34736E-17         0.00000E+00
    0.81939E-19         0.33824E-17         0.00000E+00
    0.92484E-19         0.32619E-17         0.00000E+00
    0.10876E-18         0.31640E-17         0.00000E+00
    0.11665E-18         0.30202E-17         0.00000E+00
    0.11893E-18         0.28376E-17         0.00000E+00
    0.13194E-18         0.26913E-17         0.00000E+00
    0.14016E-18         0.25174E-17         0.00000E+00
    0.14278E-18         0.23551E-17         0.00000E+00
    0.15173E-18         0.21469E-17         0.00000E+00
    0.15917E-18         0.19137E-17         0.00000E+00
    0.15584E-18         0.16850E-17         0.00000E+00
    0.14884E-18         0.14566E-17         0.00000E+00
    0.14966E-18         0.12599E-17         0.00000E+00
    0.15727E-18         0.10435E-17         0.00000E+00
    0.15661E-18         0.82045E-18         0.00000E+00
    0.14745E-18         0.58948E-18         0.00000E+00
    0.14312E-18         0.35301E-18         0.00000E+00
    0.14498E-18         0.11614E-18         0.00000E+00
    0.80923E-20         0.36984E-17         0.00000E+00
    0.23563E-19         0.36780E-17         0.00000E+00
    0.38514E-19         0.36514E-17         0.00000E+00
    0.51621E-19         0.36040E-17         0.00000E+00
    0.61698E-19         0.35432E-17         0.00000E+00
    0.72020E-19         0.34582E-17         0.00000E+00
    0.84807E-19         0.33709E-17         0.00000E+00
    0.90571E-19         0.32571E-17         0.00000E+00
    0.97730E-19         0.31454E-17         0.00000E+00
    0.11374E-18         0.30149E-17         0.00000E+00
    0.11491E-18         0.28394E-17         0.00000E+00
    0.11565E-18         0.26757E-17         0.00000E+00
    0.12438E-18         0.25160E-17         0.00000E+00
    0.14080E-18         0.23375E-17         0.00000E+00
    0.16309E-18         0.21334E-17         0.00000E+00
    0.17234E-18         0.19106E-17         0.00000E+00
    0.17320E-18         0.16906E-17         0.00000E+00
    0.16516E-18         0.14661E-17         0.00000E+00
    0.15725E-18         0.12575E-17         0.00000E+00
    0.15593E-18         0.10396E-17         0.00000E+00
    0.15359E-18         0.82737E-18         0.00000E+00
    0.15107E-18         0.59425E-18         0.00000E+00
    0.14975E-18         0.35389E-18         0.00000E+00
    0.14883E-18         0.11431E-18         0.00000E+00
    0.73821E-20         0.36829E-17         0.00000E+00
    0.20573E-19         0.36649E-17         0.00000E+00
    0.33942E-19         0.36363E-17         0.00000E+00
    0.48658E-19         0.35913E-17         0.00000E+00
    0.65514E-19         0.35290E-17         0.00000E+00
    0.76447E-19         0.34512E-17         0.00000E+00
    0.84345E-19         0.33573E-17         0.00000E+00
    0.96549E-19         0.32528E-17         0.00000E+00
    0.10154E-18         0.31375E-17         0.00000E+00
    0.10201E-18         0.30063E-17         0.00000E+00
    0.11170E-18         0.28372E-17         0.00000E+00
    0.12154E-18         0.26674E-17         0.00000E+00
    0.12984E-18         0.25074E-17         0.00000E+00
    0.13921E-18         0.23203E-17         0.00000E+00
    0.15156E-18         0.21159E-17         0.00000E+00
    0.15703E-18         0.19133E-17         0.00000E+00
    0.15282E-18         0.16911E-17         0.00000E+00
    0.15702E-18         0.14694E-17         0.00000E+00
    0.15706E-18         0.12621E-17         0.00000E+00
    0.14873E-18         0.10447E-17         0.00000E+00
    0.14910E-18         0.82429E-18         0.00000E+00
    0.15460E-18         0.59435E-18         0.00000E+00
    0.15502E-18         0.35469E-18         0.00000E+00
    0.15318E-18         0.11628E-18         0.00000E+00
    0.64536E-20         0.36691E-17         0.00000E+00
    0.19431E-19         0.36525E-17         0.00000E+00
    0.32473E-19         0.36222E-17         0.00000E+00
    0.47666E-19         0.35755E-17         0.00000E+00
    0.61531E-19         0.35141E-17         0.00000E+00
    0.69099E-19         0.34476E-17         0.00000E+00
    0.72114E-19         0.33500E-17         0.00000E+00
    0.81320E-19         0.32387E-17         0.00000E+00
    0.10104E-18         0.31269E-17         0.00000E+00
    0.11947E-18         0.29980E-17         0.00000E+00
    0.12527E-18         0.28300E-17         0.00000E+00
    0.12869E-18         0.26613E-17         0.00000E+00
    0.13765E-18         0.24962E-17         0.00000E+00
    0.14593E-18         0.23139E-17         0.00000E+00
    0.14681E-18         0.21091E-17         0.00000E+00
    0.14912E-18         0.19123E-17         0.00000E+00
    0.15366E-18         0.16919E-17         0.00000E+00
    0.14705E-18         0.14711E-17         0.00000E+00
    0.14161E-18         0.12658E-17         0.00000E+00
    0.14457E-18         0.10463E-17         0.00000E+00
    0.14718E-18         0.81966E-18         0.00000E+00
    0.14833E-18         0.59234E-18         0.00000E+00
    0.14953E-18         0.35508E-18         0.00000E+00
    0.14868E-18         0.11858E-18         0.00000E+00
    0.67051E-20         0.36559E-17         0.00000E+00
    0.19405E-19         0.36400E-17         0.00000E+00
    0.31264E-19         0.36099E-17         0.00000E+00
    0.40211E-19         0.35637E-17         0.00000E+00
    0.47768E-19         0.35044E-17         0.00000E+00
    0.61015E-19         0.34364E-17         0.00000E+00
    0.76201E-19         0.33429E-17         0.00000E+00
    0.84759E-19         0.32280E-17         0.00000E+00
    0.95823E-19         0.31068E-17         0.00000E+00
    0.11825E-18         0.29772E-17         0.00000E+00
    0.13155E-18         0.28317E-17         0.00000E+00
    0.12838E-18         0.26594E-17         0.00000E+00
    0.13134E-18         0.24862E-17         0.00000E+00
    0.13968E-18         0.23072E-17         0.00000E+00
    0.13979E-18         0.21148E-17         0.00000E+00
    0.14502E-18         0.18991E-17         0.00000E+00
    0.15072E-18         0.16948E-17         0.00000E+00
    0.14136E-18         0.14840E-17         0.00000E+00
    0.13527E-18         0.12644E-17         0.00000E+00
    0.13896E-18         0.10411E-17         0.00000E+00
    0.14223E-18         0.81898E-18         0.00000E+00
    0.14412E-18         0.58998E-18         0.00000E+00
    0.14347E-18         0.35688E-18         0.00000E+00
    0.14301E-18         0.11807E-18         0.00000E+00
    0.60136E-20         0.36432E-17         0.00000E+00
    0.17658E-19         0.36284E-17         0.00000E+00
    0.28844E-19         0.35984E-17         0.00000E+00
    0.39387E-19         0.35556E-17         0.00000E+00
    0.49040E-19         0.34953E-17         0.00000E+00
    0.59708E-19         0.34216E-17         0.00000E+00
    0.75516E-19         0.33267E-17         0.00000E+00
    0.91522E-19         0.32197E-17         0.00000E+00
    0.96064E-19         0.30996E-17         0.00000E+00
    0.99538E-19         0.29585E-17         0.00000E+00
    0.11334E-18         0.28232E-17         0.00000E+00
    0.12406E-18         0.26603E-17         0.00000E+00
    0.12615E-18         0.24802E-17         0.00000E+00
    0.12992E-18         0.23011E-17         0.00000E+00
    0.13877E-18         0.21120E-17         0.00000E+00
    0.13796E-18         0.18975E-17         0.00000E+00
    0.13198E-18         0.16968E-17         0.00000E+00
    0.13704E-18         0.14864E-17         0.00000E+00
    0.14068E-18         0.12645E-17         0.00000E+00
    0.13466E-18         0.10434E-17         0.00000E+00
    0.13316E-18         0.81495E-18         0.00000E+00
    0.13778E-18         0.58749E-18         0.00000E+00
    0.14145E-18         0.35635E-18         0.00000E+00
    0.14297E-18         0.11754E-18         0.00000E+00
    0.56606E-20         0.36315E-17         0.00000E+00
    0.16352E-19         0.36177E-17         0.00000E+00
    0.26505E-19         0.35878E-17         0.00000E+00
    0.37690E-19         0.35446E-17         0.00000E+00
    0.51261E-19         0.34831E-17         0.00000E+00
    0.66264E-19         0.34081E-17         0.00000E+00
    0.77634E-19         0.33130E-17         0.00000E+00
    0.85790E-19         0.32092E-17         0.00000E+00
    0.95283E-19         0.30960E-17         0.00000E+00
    0.10003E-18         0.29539E-17         0.00000E+00
    0.10773E-18         0.28064E-17         0.00000E+00
    0.12362E-18         0.26505E-17         0.00000E+00
    0.12846E-18         0.24831E-17         0.00000E+00
    0.12451E-18         0.22984E-17         0.00000E+00
    0.12685E-18         0.21035E-17         0.00000E+00
    0.13358E-18         0.19001E-17         0.00000E+00
    0.13952E-18         0.16942E-17         0.00000E+00
    0.14318E-18         0.14803E-17         0.00000E+00
    0.14034E-18         0.12698E-17         0.00000E+00
    0.13357E-18         0.10508E-17         0.00000E+00
    0.13051E-18         0.81209E-18         0.00000E+00
    0.13269E-18         0.58356E-18         0.00000E+00
    0.13574E-18         0.35357E-18         0.00000E+00
    0.13628E-18         0.11826E-18         0.00000E+00
    0.48477E-20         0.36210E-17         0.00000E+00
    0.15342E-19         0.36070E-17         0.00000E+00
    0.25470E-19         0.35781E-17         0.00000E+00
    0.37602E-19         0.35309E-17         0.00000E+00
    0.51214E-19         0.34696E-17         0.00000E+00
    0.62771E-19         0.33950E-17         0.00000E+00
    0.73107E-19         0.33044E-17         0.00000E+00
    0.83085E-19         0.31997E-17         0.00000E+00
    0.91857E-19         0.30873E-17         0.00000E+00
    0.97468E-19         0.29523E-17         0.00000E+00
    0.10473E-18         0.27930E-17         0.00000E+00
    0.11161E-18         0.26411E-17         0.00000E+00
    0.11794E-18         0.24814E-17         0.00000E+00
    0.12834E-18         0.22937E-17         0.00000E+00
    0.13178E-18         0.21024E-17         0.00000E+00
    0.13095E-18         0.18952E-17         0.00000E+00
    0.13604E-18         0.16880E-17         0.00000E+00
    0.13803E-18         0.14808E-17         0.00000E+00
    0.13360E-18         0.12766E-17         0.00000E+00
    0.13581E-18         0.10486E-17         0.00000E+00
    0.13912E-18         0.81400E-18         0.00000E+00
    0.13465E-18         0.58395E-18         0.00000E+00
    0.13242E-18         0.35236E-18         0.00000E+00
    0.13349E-18         0.11786E-18         0.00000E+00
    0.36581E-20         0.36125E-17         0.00000E+00
    0.12619E-19         0.35961E-17         0.00000E+00
    0.23846E-19         0.35677E-17         0.00000E+00
    0.33609E-19         0.35194E-17         0.00000E+00
    0.43288E-19         0.34578E-17         0.00000E+00
    0.55474E-19         0.33831E-17         0.00000E+00
    0.68388E-19         0.32931E-17         0.00000E+00
    0.79907E-19         0.31895E-17         0.00000E+00
    0.90035E-19         0.30786E-17         0.00000E+00
    0.10068E-18         0.29447E-17         0.00000E+00
    0.10385E-18         0.27902E-17         0.00000E+00
    0.10284E-18         0.26381E-17         0.00000E+00
    0.10924E-18         0.24716E-17         0.00000E+00
    0.11613E-18         0.22861E-17         0.00000E+00
    0.12522E-18         0.20974E-17         0.00000E+00
    0.13217E-18         0.18941E-17         0.00000E+00
    0.12654E-18         0.16897E-17         0.00000E+00
    0.11924E-18         0.14844E-17         0.00000E+00
    0.12383E-18         0.12728E-17         0.00000E+00
    0.13253E-18         0.10415E-17         0.00000E+00
    0.13395E-18         0.81636E-18         0.00000E+00
    0.13392E-18         0.58608E-18         0.00000E+00
    0.13399E-18         0.35238E-18         0.00000E+00
    0.13323E-18         0.11754E-18         0.00000E+00
    0.46697E-20         0.36042E-17         0.00000E+00
    0.12509E-19         0.35876E-17         0.00000E+00
    0.21530E-19         0.35560E-17         0.00000E+00
    0.32378E-19         0.35105E-17         0.00000E+00
    0.41804E-19         0.34476E-17         0.00000E+00
    0.50931E-19         0.33721E-17         0.00000E+00
    0.61346E-19         0.32808E-17         0.00000E+00
    0.71253E-19         0.31803E-17         0.00000E+00
    0.83659E-19         0.30652E-17         0.00000E+00
    0.95110E-19         0.29360E-17         0.00000E+00
    0.99096E-19         0.27917E-17         0.00000E+00
    0.10062E-18         0.26361E-17         0.00000E+00
    0.10292E-18         0.24650E-17         0.00000E+00
    0.10893E-18         0.22799E-17         0.00000E+00
    0.11847E-18         0.20850E-17         0.00000E+00
    0.12459E-18         0.18934E-17         0.00000E+00
    0.12206E-18         0.16985E-17         0.00000E+00
    0.11919E-18         0.14858E-17         0.00000E+00
    0.11920E-18         0.12668E-17         0.00000E+00
    0.11885E-18         0.10391E-17         0.00000E+00
    0.12427E-18         0.81192E-18         0.00000E+00
    0.12997E-18         0.58485E-18         0.00000E+00
    0.13028E-18         0.35324E-18         0.00000E+00
    0.12968E-18         0.11804E-18         0.00000E+00
    0.38857E-20         0.35956E-17         0.00000E+00
    0.12358E-19         0.35799E-17         0.00000E+00
    0.19897E-19         0.35472E-17         0.00000E+00
    0.28984E-19         0.34994E-17         0.00000E+00
    0.40300E-19         0.34380E-17         0.00000E+00
    0.49674E-19         0.33632E-17         0.00000E+00
    0.57946E-19         0.32710E-17         0.00000E+00
    0.67327E-19         0.31708E-17         0.00000E+00
    0.76831E-19         0.30528E-17         0.00000E+00
    0.83984E-19         0.29298E-17         0.00000E+00
    0.91734E-19         0.27862E-17         0.00000E+00
    0.10018E-18         0.26316E-17         0.00000E+00
    0.10728E-18         0.24600E-17         0.00000E+00
    0.11185E-18         0.22743E-17         0.00000E+00
    0.10669E-18         0.20863E-17         0.00000E+00
    0.10081E-18         0.18919E-17         0.00000E+00
    0.10613E-18         0.16972E-17         0.00000E+00
    0.11334E-18         0.14828E-17         0.00000E+00
    0.11708E-18         0.12660E-17         0.00000E+00
    0.11860E-18         0.10387E-17         0.00000E+00
    0.11944E-18         0.80607E-18         0.00000E+00
    0.12097E-18         0.58347E-18         0.00000E+00
    0.12257E-18         0.35271E-18         0.00000E+00
    0.12353E-18         0.11820E-18         0.00000E+00
    0.38101E-20         0.35879E-17         0.00000E+00
    0.13036E-19         0.35699E-17         0.00000E+00
    0.21118E-19         0.35415E-17         0.00000E+00
    0.28589E-19         0.34885E-17         0.00000E+00
    0.36857E-19         0.34293E-17         0.00000E+00
    0.43822E-19         0.33555E-17         0.00000E+00
    0.49725E-19         0.32645E-17         0.00000E+00
    0.54418E-19         0.31632E-17         0.00000E+00
    0.60341E-19         0.30449E-17         0.00000E+00
    0.70101E-19         0.29207E-17         0.00000E+00
    0.80561E-19         0.27770E-17         0.00000E+00
    0.87946E-19         0.26249E-17         0.00000E+00
    0.91808E-19         0.24557E-17         0.00000E+00
    0.92961E-19         0.22728E-17         0.00000E+00
    0.94394E-19         0.20915E-17         0.00000E+00
    0.95898E-19         0.18911E-17         0.00000E+00
    0.10061E-18         0.16880E-17         0.00000E+00
    0.10755E-18         0.14778E-17         0.00000E+00
    0.11084E-18         0.12640E-17         0.00000E+00
    0.11309E-18         0.10370E-17         0.00000E+00
    0.11161E-18         0.80840E-18         0.00000E+00
    0.11145E-18         0.57976E-18         0.00000E+00
    0.11540E-18         0.35087E-18         0.00000E+00
    0.11645E-18         0.11802E-18         0.00000E+00
    0.42612E-20         0.35799E-17         0.00000E+00
    0.11661E-19         0.35613E-17         0.00000E+00
    0.20529E-19         0.35332E-17         0.00000E+00
    0.28422E-19         0.34815E-17         0.00000E+00
    0.34641E-19         0.34218E-17         0.00000E+00
    0.40755E-19         0.33499E-17         0.00000E+00
    0.45934E-19         0.32590E-17         0.00000E+00
    0.54565E-19         0.31554E-17         0.00000E+00
    0.60227E-19         0.30411E-17         0.00000E+00
    0.62565E-19         0.29124E-17         0.00000E+00
    0.66707E-19         0.27707E-17         0.00000E+00
    0.73264E-19         0.26173E-17         0.00000E+00
    0.80069E-19         0.24527E-17         0.00000E+00
    0.81948E-19         0.22728E-17         0.00000E+00
    0.84838E-19         0.20872E-17         0.00000E+00
    0.91720E-19         0.18870E-17         0.00000E+00
    0.97163E-19         0.16819E-17         0.00000E+00
    0.10059E-18         0.14735E-17         0.00000E+00
    0.10557E-18         0.12600E-17         0.00000E+00
    0.10931E-18         0.10350E-17         0.00000E+00
    0.11133E-18         0.80990E-18         0.00000E+00
    0.10973E-18         0.58002E-18         0.00000E+00
    0.10716E-18         0.34924E-18         0.00000E+00
    0.10837E-18         0.11739E-18         0.00000E+00
    0.48667E-20         0.35707E-17         0.00000E+00
    0.11516E-19         0.35564E-17         0.00000E+00
    0.18966E-19         0.35218E-17         0.00000E+00
    0.26637E-19         0.34773E-17         0.00000E+00
    0.29631E-19         0.34168E-17         0.00000E+00
    0.35258E-19         0.33432E-17         0.00000E+00
    0.43402E-19         0.32524E-17         0.00000E+00
    0.50891E-19         0.31460E-17         0.00000E+00
    0.58275E-19         0.30376E-17         0.00000E+00
    0.62233E-19         0.29097E-17         0.00000E+00
    0.64665E-19         0.27669E-17         0.00000E+00
    0.66816E-19         0.26124E-17         0.00000E+00
    0.74068E-19         0.24435E-17         0.00000E+00
    0.83464E-19         0.22707E-17         0.00000E+00
    0.86875E-19         0.20829E-17         0.00000E+00
    0.92932E-19         0.18783E-17         0.00000E+00
    0.99026E-19         0.16791E-17         0.00000E+00
    0.10157E-18         0.14703E-17         0.00000E+00
    0.10426E-18         0.12555E-17         0.00000E+00
    0.10513E-18         0.10349E-17         0.00000E+00
    0.10379E-18         0.80934E-18         0.00000E+00
    0.10299E-18         0.58298E-18         0.00000E+00
    0.10293E-18         0.34891E-18         0.00000E+00
    0.10287E-18         0.11658E-18         0.00000E+00
    0.42299E-20         0.35616E-17         0.00000E+00
    0.14360E-19         0.35487E-17         0.00000E+00
    0.20743E-19         0.35156E-17         0.00000E+00
    0.23625E-19         0.34729E-17         0.00000E+00
    0.30431E-19         0.34114E-17         0.00000E+00
    0.37589E-19         0.33358E-17         0.00000E+00
    0.43003E-19         0.32462E-17         0.00000E+00
    0.46070E-19         0.31416E-17         0.00000E+00
    0.49509E-19         0.30312E-17         0.00000E+00
    0.57813E-19         0.29039E-17         0.00000E+00
    0.66206E-19         0.27619E-17         0.00000E+00
    0.72858E-19         0.26086E-17         0.00000E+00
    0.77339E-19         0.24356E-17         0.00000E+00
    0.80679E-19         0.22659E-17         0.00000E+00
    0.88145E-19         0.20769E-17         0.00000E+00
    0.93194E-19         0.18733E-17         0.00000E+00
    0.93564E-19         0.16777E-17         0.00000E+00
    0.92676E-19         0.14701E-17         0.00000E+00
    0.91679E-19         0.12541E-17         0.00000E+00
    0.92253E-19         0.10349E-17         0.00000E+00
    0.93349E-19         0.80956E-18         0.00000E+00
    0.96153E-19         0.58075E-18         0.00000E+00
    0.98005E-19         0.34935E-18         0.00000E+00
    0.97819E-19         0.11639E-18         0.00000E+00
    0.28065E-20         0.35546E-17         0.00000E+00
    0.10679E-19         0.35377E-17         0.00000E+00
    0.20785E-19         0.35101E-17         0.00000E+00
    0.27510E-19         0.34688E-17         0.00000E+00
    0.32544E-19         0.34036E-17         0.00000E+00
    0.40427E-19         0.33285E-17         0.00000E+00
    0.45683E-19         0.32428E-17         0.00000E+00
    0.47333E-19         0.31402E-17         0.00000E+00
    0.50836E-19         0.30255E-17         0.00000E+00
    0.56132E-19         0.28959E-17         0.00000E+00
    0.63370E-19         0.27543E-17         0.00000E+00
    0.72532E-19         0.26004E-17         0.00000E+00
    0.77233E-19         0.24346E-17         0.00000E+00
    0.79708E-19         0.22611E-17         0.00000E+00
    0.81937E-19         0.20720E-17         0.00000E+00
    0.78580E-19         0.18765E-17         0.00000E+00
    0.75601E-19         0.16771E-17         0.00000E+00
    0.77271E-19         0.14699E-17         0.00000E+00
    0.80723E-19         0.12518E-17         0.00000E+00
    0.83046E-19         0.10343E-17         0.00000E+00
    0.85676E-19         0.80647E-18         0.00000E+00
    0.89362E-19         0.57735E-18         0.00000E+00
    0.91632E-19         0.34862E-18         0.00000E+00
    0.92378E-19         0.11656E-18         0.00000E+00
    0.45889E-20         0.35472E-17         0.00000E+00
    0.11965E-19         0.35299E-17         0.00000E+00
    0.18422E-19         0.35014E-17         0.00000E+00
    0.26570E-19         0.34627E-17         0.00000E+00
    0.32554E-19         0.33987E-17         0.00000E+00
    0.35985E-19         0.33221E-17         0.00000E+00
    0.40064E-19         0.32399E-17         0.00000E+00
    0.45357E-19         0.31362E-17         0.00000E+00
    0.50770E-19         0.30207E-17         0.00000E+00
    0.56146E-19         0.28901E-17         0.00000E+00
    0.61610E-19         0.27474E-17         0.00000E+00
    0.63803E-19         0.25960E-17         0.00000E+00
    0.65387E-19         0.24328E-17         0.00000E+00
    0.69069E-19         0.22567E-17         0.00000E+00
    0.71601E-19         0.20716E-17         0.00000E+00
    0.70590E-19         0.18813E-17         0.00000E+00
    0.69680E-19         0.16762E-17         0.00000E+00
    0.71756E-19         0.14671E-17         0.00000E+00
    0.73682E-19         0.12493E-17         0.00000E+00
    0.77678E-19         0.10305E-17         0.00000E+00
    0.81841E-19         0.80346E-18         0.00000E+00
    0.82973E-19         0.57554E-18         0.00000E+00
    0.83921E-19         0.34722E-18         0.00000E+00
    0.84947E-19         0.11619E-18         0.00000E+00
    0.38780E-20         0.35387E-17         0.00000E+00
    0.10906E-19         0.35239E-17         0.00000E+00
    0.15431E-19         0.34963E-17         0.00000E+00
    0.19837E-19         0.34552E-17         0.00000E+00
    0.26707E-19         0.33934E-17         0.00000E+00
    0.32274E-19         0.33184E-17         0.00000E+00
    0.37242E-19         0.32345E-17         0.00000E+00
    0.43073E-19         0.31304E-17         0.00000E+00
    0.47387E-19         0.30167E-17         0.00000E+00
    0.50537E-19         0.28855E-17         0.00000E+00
    0.53308E-19         0.27437E-17         0.00000E+00
    0.55864E-19         0.25949E-17         0.00000E+00
    0.58539E-19         0.24295E-17         0.00000E+00
    0.61997E-19         0.22528E-17         0.00000E+00
    0.64372E-19         0.20706E-17         0.00000E+00
    0.65921E-19         0.18817E-17         0.00000E+00
    0.67127E-19         0.16754E-17         0.00000E+00
    0.68555E-19         0.14643E-17         0.00000E+00
    0.71989E-19         0.12467E-17         0.00000E+00
    0.76017E-19         0.10250E-17         0.00000E+00
    0.78009E-19         0.80273E-18         0.00000E+00
    0.77769E-19         0.57538E-18         0.00000E+00
    0.77482E-19         0.34672E-18         0.00000E+00
    0.77434E-19         0.11571E-18         0.00000E+00
    0.37484E-20         0.35311E-17         0.00000E+00
    0.10911E-19         0.35174E-17         0.00000E+00
    0.15735E-19         0.34935E-17         0.00000E+00
    0.18877E-19         0.34504E-17         0.00000E+00
    0.23095E-19         0.33871E-17         0.00000E+00
    0.27469E-19         0.33148E-17         0.00000E+00
    0.30714E-19         0.32299E-17         0.00000E+00
    0.32423E-19         0.31275E-17         0.00000E+00
    0.35929E-19         0.30118E-17         0.00000E+00
    0.41170E-19         0.28820E-17         0.00000E+00
    0.45582E-19         0.27400E-17         0.00000E+00
    0.50150E-19         0.25915E-17         0.00000E+00
    0.55002E-19         0.24255E-17         0.00000E+00
    0.57129E-19         0.22513E-17         0.00000E+00
    0.56269E-19         0.20706E-17         0.00000E+00
    0.58755E-19         0.18777E-17         0.00000E+00
    0.62565E-19         0.16745E-17         0.00000E+00
    0.64329E-19         0.14621E-17         0.00000E+00
    0.67494E-19         0.12423E-17         0.00000E+00
    0.69779E-19         0.10231E-17         0.00000E+00
    0.70665E-19         0.80178E-18         0.00000E+00
    0.71471E-19         0.57577E-18         0.00000E+00
    0.71435E-19         0.34665E-18         0.00000E+00
    0.71540E-19         0.11571E-18         0.00000E+00
    0.22836E-20         0.35251E-17         0.00000E+00
    0.60785E-20         0.35125E-17         0.00000E+00
    0.85868E-20         0.34911E-17         0.00000E+00
    0.13584E-19         0.34447E-17         0.00000E+00
    0.18522E-19         0.33836E-17         0.00000E+00
    0.22192E-19         0.33102E-17         0.00000E+00
    0.26620E-19         0.32269E-17         0.00000E+00
    0.29811E-19         0.31257E-17         0.00000E+00
    0.33138E-19         0.30068E-17         0.00000E+00
    0.36701E-19         0.28782E-17         0.00000E+00
    0.40841E-19         0.27353E-17         0.00000E+00
    0.47321E-19         0.25851E-17         0.00000E+00
    0.52245E-19         0.24220E-17         0.00000E+00
    0.54678E-19         0.22502E-17         0.00000E+00
    0.58104E-19         0.20691E-17         0.00000E+00
    0.60871E-19         0.18739E-17         0.00000E+00
    0.64010E-19         0.16713E-17         0.00000E+00
    0.66396E-19         0.14611E-17         0.00000E+00
    0.66244E-19         0.12403E-17         0.00000E+00
    0.65655E-19         0.10234E-17         0.00000E+00
    0.65033E-19         0.80118E-18         0.00000E+00
    0.65518E-19         0.57507E-18         0.00000E+00
    0.66435E-19         0.34647E-18         0.00000E+00
    0.66608E-19         0.11562E-18         0.00000E+00
    0.71408E-21         0.35221E-17         0.00000E+00
    0.31869E-20         0.35092E-17         0.00000E+00
    0.80247E-20         0.34871E-17         0.00000E+00
    0.10944E-19         0.34408E-17         0.00000E+00
    0.13556E-19         0.33799E-17         0.00000E+00
    0.17792E-19         0.33060E-17         0.00000E+00
    0.22969E-19         0.32215E-17         0.00000E+00
    0.28858E-19         0.31220E-17         0.00000E+00
    0.32857E-19         0.30032E-17         0.00000E+00
    0.37183E-19         0.28740E-17         0.00000E+00
    0.40660E-19         0.27319E-17         0.00000E+00
    0.43050E-19         0.25797E-17         0.00000E+00
    0.45601E-19         0.24200E-17         0.00000E+00
    0.50096E-19         0.22453E-17         0.00000E+00
    0.57427E-19         0.20633E-17         0.00000E+00
    0.61615E-19         0.18728E-17         0.00000E+00
    0.61480E-19         0.16694E-17         0.00000E+00
    0.61230E-19         0.14608E-17         0.00000E+00
    0.59979E-19         0.12419E-17         0.00000E+00
    0.58902E-19         0.10234E-17         0.00000E+00
    0.60026E-19         0.80069E-18         0.00000E+00
    0.61053E-19         0.57405E-18         0.00000E+00
    0.61533E-19         0.34609E-18         0.00000E+00
    0.61651E-19         0.11570E-18         0.00000E+00
    0.54376E-21         0.35208E-17         0.00000E+00
    0.29379E-20         0.35056E-17         0.00000E+00
    0.71271E-20         0.34816E-17         0.00000E+00
    0.11646E-19         0.34388E-17         0.00000E+00
    0.15920E-19         0.33751E-17         0.00000E+00
    0.19461E-19         0.33031E-17         0.00000E+00
    0.21559E-19         0.32171E-17         0.00000E+00
    0.25228E-19         0.31168E-17         0.00000E+00
    0.30719E-19         0.29989E-17         0.00000E+00
    0.34069E-19         0.28706E-17         0.00000E+00
    0.35829E-19         0.27300E-17         0.00000E+00
    0.35776E-19         0.25792E-17         0.00000E+00
    0.37290E-19         0.24164E-17         0.00000E+00
    0.42221E-19         0.22394E-17         0.00000E+00
    0.47121E-19         0.20569E-17         0.00000E+00
    0.51135E-19         0.18709E-17         0.00000E+00
    0.52920E-19         0.16696E-17         0.00000E+00
    0.53711E-19         0.14601E-17         0.00000E+00
    0.54144E-19         0.12435E-17         0.00000E+00
    0.53758E-19         0.10234E-17         0.00000E+00
    0.53959E-19         0.79943E-18         0.00000E+00
    0.54539E-19         0.57370E-18         0.00000E+00
    0.54817E-19         0.34568E-18         0.00000E+00
    0.55105E-19         0.11571E-18         0.00000E+00
    0.86391E-21         0.35194E-17         0.00000E+00
    0.26350E-20         0.35028E-17         0.00000E+00
    0.56278E-20         0.34772E-17         0.00000E+00
    0.10690E-19         0.34337E-17         0.00000E+00
    0.14860E-19         0.33718E-17         0.00000E+00
    0.17566E-19         0.33001E-17         0.00000E+00
    0.19728E-19         0.32158E-17         0.00000E+00
    0.21816E-19         0.31123E-17         0.00000E+00
    0.25118E-19         0.29945E-17         0.00000E+00
    0.27787E-19         0.28689E-17         0.00000E+00
    0.31110E-19         0.27266E-17         0.00000E+00
    0.35350E-19         0.25784E-17         0.00000E+00
    0.37483E-19         0.24136E-17         0.00000E+00
    0.38984E-19         0.22359E-17         0.00000E+00
    0.40304E-19         0.20542E-17         0.00000E+00
    0.42865E-19         0.18670E-17         0.00000E+00
    0.46486E-19         0.16681E-17         0.00000E+00
    0.48417E-19         0.14589E-17         0.00000E+00
    0.49437E-19         0.12433E-17         0.00000E+00
    0.49544E-19         0.10239E-17         0.00000E+00
    0.48657E-19         0.79963E-18         0.00000E+00
    0.48193E-19         0.57339E-18         0.00000E+00
    0.48324E-19         0.34559E-18         0.00000E+00
    0.48312E-19         0.11553E-18         0.00000E+00
    0.22744E-20         0.35163E-17         0.00000E+00
    0.50735E-20         0.35014E-17         0.00000E+00
    0.53492E-20         0.34754E-17         0.00000E+00
    0.67783E-20         0.34290E-17         0.00000E+00
    0.10322E-19         0.33687E-17         0.00000E+00
    0.14411E-19         0.32964E-17         0.00000E+00
    0.19029E-19         0.32128E-17         0.00000E+00
    0.21908E-19         0.31104E-17         0.00000E+00
    0.21697E-19         0.29934E-17         0.00000E+00
    0.22649E-19         0.28664E-17         0.00000E+00
    0.26657E-19         0.27218E-17         0.00000E+00
    0.31861E-19         0.25738E-17         0.00000E+00
    0.36199E-19         0.24117E-17         0.00000E+00
    0.36469E-19         0.22360E-17         0.00000E+00
    0.34913E-19         0.20543E-17         0.00000E+00
    0.36193E-19         0.18631E-17         0.00000E+00
    0.38962E-19         0.16657E-17         0.00000E+00
    0.40901E-19         0.14575E-17         0.00000E+00
    0.41614E-19         0.12429E-17         0.00000E+00
    0.41780E-19         0.10239E-17         0.00000E+00
    0.41610E-19         0.80065E-18         0.00000E+00
    0.41032E-19         0.57341E-18         0.00000E+00
    0.41150E-19         0.34532E-18         0.00000E+00
    0.41493E-19         0.11547E-18         0.00000E+00
    0.29712E-21         0.35137E-17         0.00000E+00
    0.11856E-20         0.35003E-17         0.00000E+00
    0.43007E-20         0.34731E-17         0.00000E+00
    0.82592E-20         0.34259E-17         0.00000E+00
    0.11112E-19         0.33654E-17         0.00000E+00
    0.12569E-19         0.32941E-17         0.00000E+00
    0.15253E-19         0.32077E-17         0.00000E+00
    0.19542E-19         0.31083E-17         0.00000E+00
    0.21449E-19         0.29938E-17         0.00000E+00
    0.22467E-19         0.28640E-17         0.00000E+00
    0.21858E-19         0.27208E-17         0.00000E+00
    0.22555E-19         0.25689E-17         0.00000E+00
    0.25898E-19         0.24089E-17         0.00000E+00
    0.28686E-19         0.22357E-17         0.00000E+00
    0.31258E-19         0.20536E-17         0.00000E+00
    0.31946E-19         0.18618E-17         0.00000E+00
    0.32862E-19         0.16632E-17         0.00000E+00
    0.34615E-19         0.14562E-17         0.00000E+00
    0.35058E-19         0.12430E-17         0.00000E+00
    0.34565E-19         0.10241E-17         0.00000E+00
    0.34361E-19         0.80078E-18         0.00000E+00
    0.34703E-19         0.57352E-18         0.00000E+00
    0.34861E-19         0.34494E-18         0.00000E+00
    0.35056E-19         0.11531E-18         0.00000E+00
    0.11593E-20         0.35122E-17         0.00000E+00
    0.15282E-20         0.35005E-17         0.00000E+00
    0.22678E-20         0.34690E-17         0.00000E+00
    0.54591E-20         0.34228E-17         0.00000E+00
    0.82717E-20         0.33629E-17         0.00000E+00
    0.10377E-19         0.32931E-17         0.00000E+00
    0.12307E-19         0.32041E-17         0.00000E+00
    0.15177E-19         0.31047E-17         0.00000E+00
    0.18268E-19         0.29924E-17         0.00000E+00
    0.19683E-19         0.28631E-17         0.00000E+00
    0.19559E-19         0.27225E-17         0.00000E+00
    0.18854E-19         0.25672E-17         0.00000E+00
    0.19931E-19         0.24062E-17         0.00000E+00
    0.21885E-19         0.22337E-17         0.00000E+00
    0.23432E-19         0.20515E-17         0.00000E+00
    0.24780E-19         0.18619E-17         0.00000E+00
    0.25455E-19         0.16616E-17         0.00000E+00
    0.26527E-19         0.14551E-17         0.00000E+00
    0.27798E-19         0.12425E-17         0.00000E+00
    0.28559E-19         0.10244E-17         0.00000E+00
    0.28941E-19         0.80033E-18         0.00000E+00
    0.28962E-19         0.57361E-18         0.00000E+00
    0.28762E-19         0.34489E-18         0.00000E+00
    0.28755E-19         0.11517E-18         0.00000E+00
    0.87569E-21         0.35102E-17         0.00000E+00
    0.29546E-20         0.35001E-17         0.00000E+00
    0.51657E-20         0.34665E-17         0.00000E+00
    0.71592E-20         0.34202E-17         0.00000E+00
    0.74955E-20         0.33624E-17         0.00000E+00
    0.85727E-20         0.32905E-17         0.00000E+00
    0.11068E-19         0.32024E-17         0.00000E+00
    0.12044E-19         0.31026E-17         0.00000E+00
    0.12825E-19         0.29906E-17         0.00000E+00
    0.13671E-19         0.28626E-17         0.00000E+00
    0.15436E-19         0.27213E-17         0.00000E+00
    0.16379E-19         0.25681E-17         0.00000E+00
    0.16176E-19         0.24044E-17         0.00000E+00
    0.16343E-19         0.22333E-17         0.00000E+00
    0.15795E-19         0.20509E-17         0.00000E+00
    0.16376E-19         0.18606E-17         0.00000E+00
    0.17685E-19         0.16608E-17         0.00000E+00
    0.18567E-19         0.14538E-17         0.00000E+00
    0.19861E-19         0.12412E-17         0.00000E+00
    0.21342E-19         0.10235E-17         0.00000E+00
    0.22332E-19         0.79986E-18         0.00000E+00
    0.22539E-19         0.57384E-18         0.00000E+00
    0.22390E-19         0.34500E-18         0.00000E+00
    0.22339E-19         0.11511E-18         0.00000E+00
    0.51443E-21         0.35088E-17         0.00000E+00
    0.45554E-20         0.34953E-17         0.00000E+00
    0.83679E-20         0.34652E-17         0.00000E+00
    0.72191E-20         0.34206E-17         0.00000E+00
    0.65009E-20         0.33623E-17         0.00000E+00
    0.82585E-20         0.32877E-17         0.00000E+00
    0.85587E-20         0.32023E-17         0.00000E+00
    0.79765E-20         0.31023E-17         0.00000E+00
    0.94102E-20         0.29887E-17         0.00000E+00
    0.12052E-19         0.28609E-17         0.00000E+00
    0.13669E-19         0.27196E-17         0.00000E+00
    0.13214E-19         0.25694E-17         0.00000E+00
    0.10488E-19         0.24061E-17         0.00000E+00
    0.88914E-20         0.22331E-17         0.00000E+00
    0.95753E-20         0.20510E-17         0.00000E+00
    0.10429E-19         0.18591E-17         0.00000E+00
    0.11315E-19         0.16602E-17         0.00000E+00
    0.12346E-19         0.14526E-17         0.00000E+00
    0.13697E-19         0.12398E-17         0.00000E+00
    0.14886E-19         0.10222E-17         0.00000E+00
    0.15585E-19         0.79946E-18         0.00000E+00
    0.15949E-19         0.57367E-18         0.00000E+00
    0.16196E-19         0.34507E-18         0.00000E+00
    0.16156E-19         0.11514E-18         0.00000E+00
    0.16788E-20         0.35066E-17         0.00000E+00
    0.41358E-20         0.34910E-17         0.00000E+00
    0.55117E-20         0.34643E-17         0.00000E+00
    0.58316E-20         0.34223E-17         0.00000E+00
    0.43862E-20         0.33627E-17         0.00000E+00
    0.34712E-20         0.32864E-17         0.00000E+00
    0.44897E-20         0.32023E-17         0.00000E+00
    0.51770E-20         0.31022E-17         0.00000E+00
    0.58142E-20         0.29867E-17         0.00000E+00
    0.70172E-20         0.28591E-17         0.00000E+00
    0.67851E-20         0.27200E-17         0.00000E+00
    0.59228E-20         0.25702E-17         0.00000E+00
    0.59091E-20         0.24080E-17         0.00000E+00
    0.59482E-20         0.22328E-17         0.00000E+00
    0.62549E-20         0.20503E-17         0.00000E+00
    0.65204E-20         0.18586E-17         0.00000E+00
    0.69818E-20         0.16593E-17         0.00000E+00
    0.76888E-20         0.14517E-17         0.00000E+00
    0.82159E-20         0.12388E-17         0.00000E+00
    0.90027E-20         0.10213E-17         0.00000E+00
    0.95473E-20         0.79917E-18         0.00000E+00
    0.97318E-20         0.57342E-18         0.00000E+00
    0.97422E-20         0.34507E-18         0.00000E+00
    0.97628E-20         0.11516E-18         0.00000E+00
    0.12609E-20         0.35037E-17         0.00000E+00
    0.26586E-20         0.34901E-17         0.00000E+00
    0.24007E-20         0.34641E-17         0.00000E+00
    0.17213E-20         0.34229E-17         0.00000E+00
    0.18397E-20         0.33635E-17         0.00000E+00
    0.13925E-20         0.32870E-17         0.00000E+00
    0.74754E-21         0.32013E-17         0.00000E+00
    0.20726E-20         0.31012E-17         0.00000E+00
    0.23446E-20         0.29869E-17         0.00000E+00
    0.11590E-20         0.28589E-17         0.00000E+00
    0.13889E-20         0.27202E-17         0.00000E+00
    0.18221E-20         0.25705E-17         0.00000E+00
    0.13619E-20         0.24081E-17         0.00000E+00
    0.14042E-20         0.22325E-17         0.00000E+00
    0.24040E-20         0.20493E-17         0.00000E+00
    0.27655E-20         0.18590E-17         0.00000E+00
    0.28037E-20         0.16584E-17         0.00000E+00
    0.31517E-20         0.14516E-17         0.00000E+00
    0.29973E-20         0.12385E-17         0.00000E+00
    0.28960E-20         0.10208E-17         0.00000E+00
    0.30142E-20         0.79897E-18         0.00000E+00
    0.31212E-20         0.57333E-18         0.00000E+00
    0.32603E-20         0.34501E-18         0.00000E+00
    0.33080E-20         0.11515E-18         0.00000E+00
POINT_DATA       1225
VECTORS vDarcyNodal double 
    0.11181E-17         0.74215E-18         0.00000E+00
    0.10333E-17         0.10560E-17         0.00000E+00
    0.48862E-18         0.16798E-17         0.00000E+00
    0.62815E-19         0.23468E-17         0.00000E+00
    0.20628E-18         0.28094E-17         0.00000E+00
    0.17396E-18         0.29273E-17         0.00000E+00
    0.10095E-18         0.29212E-17         0.00000E+00
    0.18182E-19         0.29178E-17         0.00000E+00
    0.11206E-19         0.28729E-17         0.00000E+00
   -0.18725E-19         0.28095E-17         0.00000E+00
   -0.74495E-19         0.28042E-17         0.00000E+00
    0.24240E-19         0.27180E-17         0.00000E+00
    0.44126E-19         0.25162E-17         0.00000E+00
    0.38313E-19         0.22969E-17         0.00000E+00
    0.26042E-19         0.21207E-17         0.00000E+00
   -0.14508E-19         0.19468E-17         0.00000E+00
   -0.80019E-21         0.17442E-17         0.00000E+00
    0.15083E-19         0.15461E-17         0.00000E+00
    0.13899E-19         0.13444E-17         0.00000E+00
    0.44081E-20         0.11375E-17         0.00000E+00
    0.36778E-20         0.92178E-18         0.00000E+00
   -0.58782E-20         0.69271E-18         0.00000E+00
    0.48226E-20         0.46291E-18         0.00000E+00
    0.63635E-20         0.22934E-18         0.00000E+00
    0.50267E-20         0.11206E-18         0.00000E+00
    0.20866E-17         0.82692E-18         0.00000E+00
    0.19009E-17         0.13707E-17         0.00000E+00
    0.97253E-18         0.21651E-17         0.00000E+00
    0.37053E-18         0.24880E-17         0.00000E+00
    0.24295E-18         0.27538E-17         0.00000E+00
    0.21929E-18         0.29800E-17         0.00000E+00
    0.12034E-18         0.29991E-17         0.00000E+00
    0.12694E-19         0.29627E-17         0.00000E+00
    0.99403E-20         0.28914E-17         0.00000E+00
    0.79058E-21         0.28523E-17         0.00000E+00
   -0.24658E-19         0.27827E-17         0.00000E+00
    0.32164E-19         0.26587E-17         0.00000E+00
    0.60874E-19         0.25092E-17         0.00000E+00
    0.51719E-19         0.23059E-17         0.00000E+00
    0.12890E-19         0.21471E-17         0.00000E+00
   -0.90309E-20         0.19603E-17         0.00000E+00
    0.14108E-19         0.17294E-17         0.00000E+00
    0.18142E-19         0.15388E-17         0.00000E+00
    0.20312E-19         0.13497E-17         0.00000E+00
    0.13725E-19         0.11426E-17         0.00000E+00
    0.76180E-20         0.92692E-18         0.00000E+00
    0.33121E-20         0.69214E-18         0.00000E+00
    0.88772E-20         0.45679E-18         0.00000E+00
    0.13054E-19         0.22924E-18         0.00000E+00
    0.12641E-19         0.11339E-18         0.00000E+00
    0.58933E-17         0.11135E-17         0.00000E+00
    0.26692E-17         0.21700E-17         0.00000E+00
    0.15203E-17         0.32102E-17         0.00000E+00
    0.79794E-18         0.30764E-17         0.00000E+00
    0.41232E-18         0.29606E-17         0.00000E+00
    0.28950E-18         0.30499E-17         0.00000E+00
    0.11242E-18         0.31278E-17         0.00000E+00
   -0.10749E-19         0.30282E-17         0.00000E+00
    0.12865E-19         0.28848E-17         0.00000E+00
    0.58654E-19         0.28441E-17         0.00000E+00
    0.87476E-19         0.27728E-17         0.00000E+00
    0.56693E-19         0.26325E-17         0.00000E+00
    0.45942E-19         0.24967E-17         0.00000E+00
    0.41671E-19         0.23449E-17         0.00000E+00
    0.39300E-19         0.21814E-17         0.00000E+00
    0.45987E-19         0.19456E-17         0.00000E+00
    0.27373E-19         0.17170E-17         0.00000E+00
    0.41400E-19         0.15399E-17         0.00000E+00
    0.50969E-19         0.13488E-17         0.00000E+00
    0.22087E-19         0.11502E-17         0.00000E+00
    0.20623E-19         0.93219E-18         0.00000E+00
    0.32283E-19         0.69145E-18         0.00000E+00
    0.23589E-19         0.45317E-18         0.00000E+00
    0.26860E-19         0.22557E-18         0.00000E+00
    0.28839E-19         0.11288E-18         0.00000E+00
    0.43657E-17         0.72750E-17         0.00000E+00
    0.22557E-17         0.57437E-17         0.00000E+00
    0.14451E-17         0.40363E-17         0.00000E+00
    0.98462E-18         0.35960E-17         0.00000E+00
    0.55745E-18         0.32622E-17         0.00000E+00
    0.29405E-18         0.32798E-17         0.00000E+00
    0.19719E-18         0.32994E-17         0.00000E+00
    0.11119E-18         0.30623E-17         0.00000E+00
    0.92053E-19         0.28220E-17         0.00000E+00
    0.11504E-18         0.27777E-17         0.00000E+00
    0.12754E-18         0.27847E-17         0.00000E+00
    0.10518E-18         0.27003E-17         0.00000E+00
    0.80345E-19         0.25242E-17         0.00000E+00
    0.44474E-19         0.23126E-17         0.00000E+00
    0.64992E-19         0.21428E-17         0.00000E+00
    0.75329E-19         0.19722E-17         0.00000E+00
    0.48779E-19         0.17340E-17         0.00000E+00
    0.54060E-19         0.15152E-17         0.00000E+00
    0.57394E-19         0.13690E-17         0.00000E+00
    0.52162E-19         0.11730E-17         0.00000E+00
    0.48769E-19         0.91673E-18         0.00000E+00
    0.53785E-19         0.68917E-18         0.00000E+00
    0.50283E-19         0.46221E-18         0.00000E+00
    0.46413E-19         0.22399E-18         0.00000E+00
    0.42917E-19         0.10944E-18         0.00000E+00
    0.00000E+00         0.53335E-17         0.00000E+00
    0.12647E-17         0.50907E-17         0.00000E+00
    0.10584E-17         0.44813E-17         0.00000E+00
    0.83520E-18         0.39640E-17         0.00000E+00
    0.56613E-18         0.36512E-17         0.00000E+00
    0.39218E-18         0.34102E-17         0.00000E+00
    0.34535E-18         0.33107E-17         0.00000E+00
    0.32578E-18         0.31334E-17         0.00000E+00
    0.23389E-18         0.28810E-17         0.00000E+00
    0.13642E-18         0.28086E-17         0.00000E+00
    0.11246E-18         0.27827E-17         0.00000E+00
    0.13515E-18         0.26797E-17         0.00000E+00
    0.16293E-18         0.25574E-17         0.00000E+00
    0.10829E-18         0.23602E-17         0.00000E+00
    0.60290E-19         0.21506E-17         0.00000E+00
    0.54395E-19         0.19618E-17         0.00000E+00
    0.63028E-19         0.17383E-17         0.00000E+00
    0.37339E-19         0.15313E-17         0.00000E+00
    0.42993E-19         0.13507E-17         0.00000E+00
    0.79278E-19         0.11588E-17         0.00000E+00
    0.77465E-19         0.93057E-18         0.00000E+00
    0.61642E-19         0.68994E-18         0.00000E+00
    0.65786E-19         0.46054E-18         0.00000E+00
    0.60568E-19         0.23294E-18         0.00000E+00
    0.56524E-19         0.11988E-18         0.00000E+00
    0.00000E+00         0.47456E-17         0.00000E+00
    0.44254E-18         0.46853E-17         0.00000E+00
    0.65610E-18         0.44658E-17         0.00000E+00
    0.58741E-18         0.40883E-17         0.00000E+00
    0.54936E-18         0.37053E-17         0.00000E+00
    0.44817E-18         0.35006E-17         0.00000E+00
    0.35017E-18         0.33658E-17         0.00000E+00
    0.40071E-18         0.31737E-17         0.00000E+00
    0.30838E-18         0.30113E-17         0.00000E+00
    0.18224E-18         0.28991E-17         0.00000E+00
    0.16328E-18         0.27859E-17         0.00000E+00
    0.16540E-18         0.26498E-17         0.00000E+00
    0.18410E-18         0.25511E-17         0.00000E+00
    0.15737E-18         0.24152E-17         0.00000E+00
    0.10404E-18         0.21967E-17         0.00000E+00
    0.87439E-19         0.19695E-17         0.00000E+00
    0.66580E-19         0.17510E-17         0.00000E+00
    0.47296E-19         0.15352E-17         0.00000E+00
    0.42038E-19         0.13271E-17         0.00000E+00
    0.64000E-19         0.11385E-17         0.00000E+00
    0.82651E-19         0.93436E-18         0.00000E+00
    0.72025E-19         0.70085E-18         0.00000E+00
    0.68796E-19         0.46329E-18         0.00000E+00
    0.67292E-19         0.23325E-18         0.00000E+00
    0.69061E-19         0.11752E-18         0.00000E+00
    0.79020E-32         0.44484E-17         0.00000E+00
    0.23690E-18         0.44346E-17         0.00000E+00
    0.40588E-18         0.43364E-17         0.00000E+00
    0.49561E-18         0.40708E-17         0.00000E+00
    0.49923E-18         0.37904E-17         0.00000E+00
    0.38796E-18         0.36094E-17         0.00000E+00
    0.34329E-18         0.33582E-17         0.00000E+00
    0.36400E-18         0.31752E-17         0.00000E+00
    0.32810E-18         0.30994E-17         0.00000E+00
    0.26835E-18         0.29537E-17         0.00000E+00
    0.23953E-18         0.27995E-17         0.00000E+00
    0.20525E-18         0.26589E-17         0.00000E+00
    0.16993E-18         0.25654E-17         0.00000E+00
    0.15003E-18         0.24403E-17         0.00000E+00
    0.13504E-18         0.22205E-17         0.00000E+00
    0.11813E-18         0.19993E-17         0.00000E+00
    0.92430E-19         0.17784E-17         0.00000E+00
    0.76761E-19         0.15558E-17         0.00000E+00
    0.51811E-19         0.13340E-17         0.00000E+00
    0.58866E-19         0.11182E-17         0.00000E+00
    0.76209E-19         0.92254E-18         0.00000E+00
    0.86440E-19         0.70379E-18         0.00000E+00
    0.80566E-19         0.46527E-18         0.00000E+00
    0.78536E-19         0.23267E-18         0.00000E+00
    0.79328E-19         0.11634E-18         0.00000E+00
    0.00000E+00         0.42718E-17         0.00000E+00
    0.16607E-18         0.42794E-17         0.00000E+00
    0.31224E-18         0.42071E-17         0.00000E+00
    0.42612E-18         0.39949E-17         0.00000E+00
    0.41497E-18         0.38129E-17         0.00000E+00
    0.37724E-18         0.36566E-17         0.00000E+00
    0.38099E-18         0.33897E-17         0.00000E+00
    0.31956E-18         0.31889E-17         0.00000E+00
    0.34229E-18         0.31070E-17         0.00000E+00
    0.32905E-18         0.29877E-17         0.00000E+00
    0.25954E-18         0.28490E-17         0.00000E+00
    0.21836E-18         0.27194E-17         0.00000E+00
    0.16229E-18         0.26063E-17         0.00000E+00
    0.13632E-18         0.24501E-17         0.00000E+00
    0.13543E-18         0.22286E-17         0.00000E+00
    0.11378E-18         0.20121E-17         0.00000E+00
    0.10456E-18         0.17924E-17         0.00000E+00
    0.98465E-19         0.15758E-17         0.00000E+00
    0.94949E-19         0.13450E-17         0.00000E+00
    0.91435E-19         0.11141E-17         0.00000E+00
    0.91139E-19         0.90679E-18         0.00000E+00
    0.95858E-19         0.69650E-18         0.00000E+00
    0.95491E-19         0.47119E-18         0.00000E+00
    0.94778E-19         0.23448E-18         0.00000E+00
    0.94475E-19         0.11594E-18         0.00000E+00
   -0.14624E-31         0.41163E-17         0.00000E+00
    0.14746E-18         0.41224E-17         0.00000E+00
    0.28441E-18         0.40764E-17         0.00000E+00
    0.36325E-18         0.39680E-17         0.00000E+00
    0.36631E-18         0.38393E-17         0.00000E+00
    0.37688E-18         0.36433E-17         0.00000E+00
    0.37662E-18         0.34159E-17         0.00000E+00
    0.32859E-18         0.32139E-17         0.00000E+00
    0.31511E-18         0.30900E-17         0.00000E+00
    0.30208E-18         0.30364E-17         0.00000E+00
    0.25449E-18         0.29102E-17         0.00000E+00
    0.22466E-18         0.27561E-17         0.00000E+00
    0.17631E-18         0.26475E-17         0.00000E+00
    0.15149E-18         0.24671E-17         0.00000E+00
    0.13612E-18         0.22431E-17         0.00000E+00
    0.12861E-18         0.20302E-17         0.00000E+00
    0.12612E-18         0.17937E-17         0.00000E+00
    0.13345E-18         0.15654E-17         0.00000E+00
    0.13481E-18         0.13410E-17         0.00000E+00
    0.11927E-18         0.11220E-17         0.00000E+00
    0.10776E-18         0.91812E-18         0.00000E+00
    0.10461E-18         0.69944E-18         0.00000E+00
    0.10929E-18         0.46635E-18         0.00000E+00
    0.11217E-18         0.23369E-18         0.00000E+00
    0.11301E-18         0.11694E-18         0.00000E+00
    0.12316E-46         0.39769E-17         0.00000E+00
    0.11178E-18         0.39950E-17         0.00000E+00
    0.21338E-18         0.39913E-17         0.00000E+00
    0.28095E-18         0.39130E-17         0.00000E+00
    0.31819E-18         0.37993E-17         0.00000E+00
    0.35563E-18         0.36463E-17         0.00000E+00
    0.36442E-18         0.34380E-17         0.00000E+00
    0.30845E-18         0.32504E-17         0.00000E+00
    0.25601E-18         0.31335E-17         0.00000E+00
    0.22101E-18         0.30483E-17         0.00000E+00
    0.22908E-18         0.29265E-17         0.00000E+00
    0.19025E-18         0.27976E-17         0.00000E+00
    0.15610E-18         0.26795E-17         0.00000E+00
    0.16369E-18         0.24903E-17         0.00000E+00
    0.14439E-18         0.22515E-17         0.00000E+00
    0.15253E-18         0.20221E-17         0.00000E+00
    0.16748E-18         0.17876E-17         0.00000E+00
    0.15717E-18         0.15671E-17         0.00000E+00
    0.15048E-18         0.13592E-17         0.00000E+00
    0.12951E-18         0.11411E-17         0.00000E+00
    0.10623E-18         0.92145E-18         0.00000E+00
    0.11727E-18         0.69497E-18         0.00000E+00
    0.12886E-18         0.46363E-18         0.00000E+00
    0.12369E-18         0.23077E-18         0.00000E+00
    0.12229E-18         0.11428E-18         0.00000E+00
    0.69149E-32         0.38927E-17         0.00000E+00
    0.78723E-19         0.39090E-17         0.00000E+00
    0.14459E-18         0.39072E-17         0.00000E+00
    0.20155E-18         0.38632E-17         0.00000E+00
    0.23154E-18         0.37646E-17         0.00000E+00
    0.26885E-18         0.35971E-17         0.00000E+00
    0.27587E-18         0.34630E-17         0.00000E+00
    0.22093E-18         0.33223E-17         0.00000E+00
    0.17448E-18         0.31774E-17         0.00000E+00
    0.16451E-18         0.30634E-17         0.00000E+00
    0.15016E-18         0.29410E-17         0.00000E+00
    0.12382E-18         0.28291E-17         0.00000E+00
    0.14109E-18         0.26740E-17         0.00000E+00
    0.15644E-18         0.24789E-17         0.00000E+00
    0.16177E-18         0.22542E-17         0.00000E+00
    0.17159E-18         0.20071E-17         0.00000E+00
    0.16998E-18         0.17891E-17         0.00000E+00
    0.14792E-18         0.15824E-17         0.00000E+00
    0.13363E-18         0.13687E-17         0.00000E+00
    0.13119E-18         0.11663E-17         0.00000E+00
    0.12138E-18         0.93036E-18         0.00000E+00
    0.12047E-18         0.67681E-18         0.00000E+00
    0.13124E-18         0.45993E-18         0.00000E+00
    0.13030E-18         0.24027E-18         0.00000E+00
    0.12698E-18         0.11976E-18         0.00000E+00
    0.00000E+00         0.38195E-17         0.00000E+00
    0.36141E-19         0.38504E-17         0.00000E+00
    0.98704E-19         0.38685E-17         0.00000E+00
    0.13396E-18         0.38261E-17         0.00000E+00
    0.17229E-18         0.37320E-17         0.00000E+00
    0.19440E-18         0.36019E-17         0.00000E+00
    0.17431E-18         0.34859E-17         0.00000E+00
    0.15566E-18         0.33518E-17         0.00000E+00
    0.11926E-18         0.31899E-17         0.00000E+00
    0.12050E-18         0.30726E-17         0.00000E+00
    0.99851E-19         0.29672E-17         0.00000E+00
    0.11596E-18         0.28067E-17         0.00000E+00
    0.14296E-18         0.26469E-17         0.00000E+00
    0.14876E-18         0.24696E-17         0.00000E+00
    0.15085E-18         0.22363E-17         0.00000E+00
    0.15300E-18         0.20139E-17         0.00000E+00
    0.14772E-18         0.18112E-17         0.00000E+00
    0.13294E-18         0.16035E-17         0.00000E+00
    0.12510E-18         0.13759E-17         0.00000E+00
    0.11732E-18         0.11534E-17         0.00000E+00
    0.13375E-18         0.93217E-18         0.00000E+00
    0.12966E-18         0.68510E-18         0.00000E+00
    0.12715E-18         0.45380E-18         0.00000E+00
    0.13392E-18         0.23503E-18         0.00000E+00
    0.13389E-18         0.12092E-18         0.00000E+00
    0.00000E+00         0.38204E-17         0.00000E+00
   -0.80683E-20         0.38103E-17         0.00000E+00
    0.47724E-19         0.38094E-17         0.00000E+00
    0.99053E-19         0.37896E-17         0.00000E+00
    0.14088E-18         0.37042E-17         0.00000E+00
    0.15593E-18         0.35951E-17         0.00000E+00
    0.15211E-18         0.35018E-17         0.00000E+00
    0.14906E-18         0.33773E-17         0.00000E+00
    0.12943E-18         0.32126E-17         0.00000E+00
    0.10375E-18         0.30828E-17         0.00000E+00
    0.11258E-18         0.29455E-17         0.00000E+00
    0.13489E-18         0.27860E-17         0.00000E+00
    0.13179E-18         0.26412E-17         0.00000E+00
    0.13760E-18         0.24710E-17         0.00000E+00
    0.14458E-18         0.22500E-17         0.00000E+00
    0.13261E-18         0.20102E-17         0.00000E+00
    0.13032E-18         0.18092E-17         0.00000E+00
    0.11943E-18         0.16051E-17         0.00000E+00
    0.12360E-18         0.13843E-17         0.00000E+00
    0.12072E-18         0.11576E-17         0.00000E+00
    0.12964E-18         0.91802E-18         0.00000E+00
    0.13605E-18         0.68341E-18         0.00000E+00
    0.13247E-18         0.45567E-18         0.00000E+00
    0.13488E-18         0.23352E-18         0.00000E+00
    0.13617E-18         0.11982E-18         0.00000E+00
    0.00000E+00         0.38356E-17         0.00000E+00
    0.35954E-20         0.38026E-17         0.00000E+00
    0.25461E-19         0.37614E-17         0.00000E+00
    0.79762E-19         0.37329E-17         0.00000E+00
    0.10737E-18         0.36751E-17         0.00000E+00
    0.11918E-18         0.35907E-17         0.00000E+00
    0.12232E-18         0.34928E-17         0.00000E+00
    0.14786E-18         0.33745E-17         0.00000E+00
    0.14652E-18         0.32352E-17         0.00000E+00
    0.12152E-18         0.30895E-17         0.00000E+00
    0.12698E-18         0.29360E-17         0.00000E+00
    0.10793E-18         0.27874E-17         0.00000E+00
    0.10522E-18         0.26442E-17         0.00000E+00
    0.12338E-18         0.24568E-17         0.00000E+00
    0.14106E-18         0.22413E-17         0.00000E+00
    0.13644E-18         0.20281E-17         0.00000E+00
    0.11208E-18         0.18244E-17         0.00000E+00
    0.11017E-18         0.16102E-17         0.00000E+00
    0.11391E-18         0.13746E-17         0.00000E+00
    0.13315E-18         0.11474E-17         0.00000E+00
    0.13712E-18         0.91684E-18         0.00000E+00
    0.12968E-18         0.68227E-18         0.00000E+00
    0.12684E-18         0.45497E-18         0.00000E+00
    0.12960E-18         0.23133E-18         0.00000E+00
    0.13230E-18         0.11834E-18         0.00000E+00
    0.00000E+00         0.38133E-17         0.00000E+00
    0.32438E-19         0.37848E-17         0.00000E+00
    0.38474E-19         0.37332E-17         0.00000E+00
    0.57753E-19         0.37077E-17         0.00000E+00
    0.79204E-19         0.36648E-17         0.00000E+00
    0.94921E-19         0.35801E-17         0.00000E+00
    0.11317E-18         0.34731E-17         0.00000E+00
    0.13314E-18         0.33531E-17         0.00000E+00
    0.12845E-18         0.32389E-17         0.00000E+00
    0.13123E-18         0.31023E-17         0.00000E+00
    0.12101E-18         0.29591E-17         0.00000E+00
    0.97858E-19         0.28078E-17         0.00000E+00
    0.99284E-19         0.26258E-17         0.00000E+00
    0.11557E-18         0.24351E-17         0.00000E+00
    0.12305E-18         0.22369E-17         0.00000E+00
    0.12463E-18         0.20392E-17         0.00000E+00
    0.11057E-18         0.18354E-17         0.00000E+00
    0.12086E-18         0.16032E-17         0.00000E+00
    0.13339E-18         0.13613E-17         0.00000E+00
    0.14032E-18         0.11344E-17         0.00000E+00
    0.14455E-18         0.92149E-18         0.00000E+00
    0.13220E-18         0.69369E-18         0.00000E+00
    0.12531E-18         0.45574E-18         0.00000E+00
    0.12617E-18         0.22806E-18         0.00000E+00
    0.12649E-18         0.11443E-18         0.00000E+00
    0.00000E+00         0.37707E-17         0.00000E+00
    0.34626E-19         0.37642E-17         0.00000E+00
    0.39760E-19         0.37361E-17         0.00000E+00
    0.37186E-19         0.36922E-17         0.00000E+00
    0.62994E-19         0.36379E-17         0.00000E+00
    0.85255E-19         0.35567E-17         0.00000E+00
    0.11024E-18         0.34546E-17         0.00000E+00
    0.10855E-18         0.33592E-17         0.00000E+00
    0.10546E-18         0.32371E-17         0.00000E+00
    0.11920E-18         0.30969E-17         0.00000E+00
    0.11282E-18         0.29694E-17         0.00000E+00
    0.12026E-18         0.28092E-17         0.00000E+00
    0.12705E-18         0.26264E-17         0.00000E+00
    0.12605E-18         0.24330E-17         0.00000E+00
    0.12422E-18         0.22322E-17         0.00000E+00
    0.12668E-18         0.20406E-17         0.00000E+00
    0.13464E-18         0.18282E-17         0.00000E+00
    0.14521E-18         0.15874E-17         0.00000E+00
    0.14615E-18         0.13551E-17         0.00000E+00
    0.14396E-18         0.11362E-17         0.00000E+00
    0.14078E-18         0.92496E-18         0.00000E+00
    0.14187E-18         0.70151E-18         0.00000E+00
    0.13433E-18         0.46100E-18         0.00000E+00
    0.12955E-18         0.23015E-18         0.00000E+00
    0.12831E-18         0.11770E-18         0.00000E+00
    0.00000E+00         0.37440E-17         0.00000E+00
    0.19300E-19         0.37451E-17         0.00000E+00
    0.33310E-19         0.37307E-17         0.00000E+00
    0.46747E-19         0.36845E-17         0.00000E+00
    0.66146E-19         0.36167E-17         0.00000E+00
    0.87765E-19         0.35329E-17         0.00000E+00
    0.93317E-19         0.34498E-17         0.00000E+00
    0.91175E-19         0.33579E-17         0.00000E+00
    0.11165E-18         0.32282E-17         0.00000E+00
    0.10423E-18         0.30950E-17         0.00000E+00
    0.10745E-18         0.29580E-17         0.00000E+00
    0.13046E-18         0.27935E-17         0.00000E+00
    0.14500E-18         0.26200E-17         0.00000E+00
    0.14573E-18         0.24380E-17         0.00000E+00
    0.13210E-18         0.22363E-17         0.00000E+00
    0.13304E-18         0.20288E-17         0.00000E+00
    0.14728E-18         0.18169E-17         0.00000E+00
    0.15397E-18         0.15917E-17         0.00000E+00
    0.15109E-18         0.13626E-17         0.00000E+00
    0.14105E-18         0.11398E-17         0.00000E+00
    0.13777E-18         0.92358E-18         0.00000E+00
    0.14197E-18         0.70014E-18         0.00000E+00
    0.14168E-18         0.46806E-18         0.00000E+00
    0.13635E-18         0.23408E-18         0.00000E+00
    0.13622E-18         0.11690E-18         0.00000E+00
    0.00000E+00         0.37321E-17         0.00000E+00
    0.11267E-19         0.37309E-17         0.00000E+00
    0.31851E-19         0.37086E-17         0.00000E+00
    0.54862E-19         0.36594E-17         0.00000E+00
    0.73136E-19         0.35969E-17         0.00000E+00
    0.86190E-19         0.35296E-17         0.00000E+00
    0.87635E-19         0.34512E-17         0.00000E+00
    0.10090E-18         0.33409E-17         0.00000E+00
    0.11807E-18         0.32241E-17         0.00000E+00
    0.10804E-18         0.31011E-17         0.00000E+00
    0.11700E-18         0.29432E-17         0.00000E+00
    0.13603E-18         0.27716E-17         0.00000E+00
    0.13955E-18         0.26112E-17         0.00000E+00
    0.14756E-18         0.24459E-17         0.00000E+00
    0.13995E-18         0.22449E-17         0.00000E+00
    0.12834E-18         0.20254E-17         0.00000E+00
    0.13468E-18         0.18073E-17         0.00000E+00
    0.14756E-18         0.15836E-17         0.00000E+00
    0.15909E-18         0.13681E-17         0.00000E+00
    0.15146E-18         0.11495E-17         0.00000E+00
    0.14337E-18         0.92404E-18         0.00000E+00
    0.14338E-18         0.69760E-18         0.00000E+00
    0.14313E-18         0.46661E-18         0.00000E+00
    0.14237E-18         0.23560E-18         0.00000E+00
    0.14170E-18         0.11795E-18         0.00000E+00
    0.00000E+00         0.37215E-17         0.00000E+00
    0.12821E-19         0.37132E-17         0.00000E+00
    0.34913E-19         0.36871E-17         0.00000E+00
    0.49241E-19         0.36432E-17         0.00000E+00
    0.60011E-19         0.35854E-17         0.00000E+00
    0.67514E-19         0.35184E-17         0.00000E+00
    0.83709E-19         0.34351E-17         0.00000E+00
    0.97758E-19         0.33275E-17         0.00000E+00
    0.10768E-18         0.32211E-17         0.00000E+00
    0.11701E-18         0.30960E-17         0.00000E+00
    0.12068E-18         0.29300E-17         0.00000E+00
    0.13241E-18         0.27710E-17         0.00000E+00
    0.13434E-18         0.26085E-17         0.00000E+00
    0.14334E-18         0.24376E-17         0.00000E+00
    0.14531E-18         0.22555E-17         0.00000E+00
    0.14170E-18         0.20340E-17         0.00000E+00
    0.14416E-18         0.17977E-17         0.00000E+00
    0.14796E-18         0.15673E-17         0.00000E+00
    0.15343E-18         0.13587E-17         0.00000E+00
    0.15816E-18         0.11555E-17         0.00000E+00
    0.15503E-18         0.93166E-18         0.00000E+00
    0.14989E-18         0.70039E-18         0.00000E+00
    0.14308E-18         0.46908E-18         0.00000E+00
    0.14309E-18         0.23550E-18         0.00000E+00
    0.14504E-18         0.11823E-18         0.00000E+00
    0.00000E+00         0.37065E-17         0.00000E+00
    0.15590E-19         0.36959E-17         0.00000E+00
    0.32730E-19         0.36722E-17         0.00000E+00
    0.45380E-19         0.36343E-17         0.00000E+00
    0.54772E-19         0.35786E-17         0.00000E+00
    0.62183E-19         0.35059E-17         0.00000E+00
    0.77629E-19         0.34209E-17         0.00000E+00
    0.89117E-19         0.33169E-17         0.00000E+00
    0.93938E-19         0.32048E-17         0.00000E+00
    0.11255E-18         0.30881E-17         0.00000E+00
    0.11784E-18         0.29278E-17         0.00000E+00
    0.11600E-18         0.27580E-17         0.00000E+00
    0.13158E-18         0.26002E-17         0.00000E+00
    0.13296E-18         0.24350E-17         0.00000E+00
    0.15063E-18         0.22466E-17         0.00000E+00
    0.16420E-18         0.20266E-17         0.00000E+00
    0.16732E-18         0.18010E-17         0.00000E+00
    0.16173E-18         0.15743E-17         0.00000E+00
    0.15227E-18         0.13579E-17         0.00000E+00
    0.15464E-18         0.11479E-17         0.00000E+00
    0.15856E-18         0.93232E-18         0.00000E+00
    0.15164E-18         0.70955E-18         0.00000E+00
    0.14688E-18         0.47341E-18         0.00000E+00
    0.14599E-18         0.23364E-18         0.00000E+00
    0.14782E-18         0.11404E-18         0.00000E+00
    0.00000E+00         0.36903E-17         0.00000E+00
    0.15474E-19         0.36805E-17         0.00000E+00
    0.28662E-19         0.36573E-17         0.00000E+00
    0.43794E-19         0.36212E-17         0.00000E+00
    0.56485E-19         0.35686E-17         0.00000E+00
    0.70727E-19         0.34955E-17         0.00000E+00
    0.77740E-19         0.34082E-17         0.00000E+00
    0.91412E-19         0.33111E-17         0.00000E+00
    0.95708E-19         0.31977E-17         0.00000E+00
    0.10356E-18         0.30721E-17         0.00000E+00
    0.11219E-18         0.29266E-17         0.00000E+00
    0.11442E-18         0.27572E-17         0.00000E+00
    0.12278E-18         0.25915E-17         0.00000E+00
    0.13144E-18         0.24185E-17         0.00000E+00
    0.14857E-18         0.22243E-17         0.00000E+00
    0.16608E-18         0.20173E-17         0.00000E+00
    0.16329E-18         0.18001E-17         0.00000E+00
    0.16273E-18         0.15824E-17         0.00000E+00
    0.15945E-18         0.13658E-17         0.00000E+00
    0.15486E-18         0.11492E-17         0.00000E+00
    0.14980E-18         0.93466E-18         0.00000E+00
    0.15288E-18         0.71206E-18         0.00000E+00
    0.15278E-18         0.47473E-18         0.00000E+00
    0.15199E-18         0.23456E-18         0.00000E+00
    0.15002E-18         0.11458E-18         0.00000E+00
    0.00000E+00         0.36755E-17         0.00000E+00
    0.13836E-19         0.36673E-17         0.00000E+00
    0.26168E-19         0.36439E-17         0.00000E+00
    0.40247E-19         0.36064E-17         0.00000E+00
    0.56076E-19         0.35517E-17         0.00000E+00
    0.70969E-19         0.34846E-17         0.00000E+00
    0.74577E-19         0.34003E-17         0.00000E+00
    0.81882E-19         0.32989E-17         0.00000E+00
    0.95987E-19         0.31927E-17         0.00000E+00
    0.10659E-18         0.30717E-17         0.00000E+00
    0.11489E-18         0.29169E-17         0.00000E+00
    0.12208E-18         0.27474E-17         0.00000E+00
    0.12816E-18         0.25832E-17         0.00000E+00
    0.13934E-18         0.24092E-17         0.00000E+00
    0.14581E-18         0.22119E-17         0.00000E+00
    0.15256E-18         0.20119E-17         0.00000E+00
    0.15360E-18         0.18043E-17         0.00000E+00
    0.15288E-18         0.15782E-17         0.00000E+00
    0.15119E-18         0.13657E-17         0.00000E+00
    0.14748E-18         0.11576E-17         0.00000E+00
    0.14583E-18         0.93429E-18         0.00000E+00
    0.15046E-18         0.70657E-18         0.00000E+00
    0.15247E-18         0.47431E-18         0.00000E+00
    0.15208E-18         0.23640E-18         0.00000E+00
    0.14978E-18         0.11798E-18         0.00000E+00
    0.00000E+00         0.36626E-17         0.00000E+00
    0.13159E-19         0.36543E-17         0.00000E+00
    0.25677E-19         0.36309E-17         0.00000E+00
    0.38061E-19         0.35913E-17         0.00000E+00
    0.49816E-19         0.35378E-17         0.00000E+00
    0.59484E-19         0.34770E-17         0.00000E+00
    0.70630E-19         0.33972E-17         0.00000E+00
    0.77685E-19         0.32897E-17         0.00000E+00
    0.88394E-19         0.31730E-17         0.00000E+00
    0.10847E-18         0.30532E-17         0.00000E+00
    0.12925E-18         0.29111E-17         0.00000E+00
    0.12758E-18         0.27440E-17         0.00000E+00
    0.12950E-18         0.25743E-17         0.00000E+00
    0.13949E-18         0.24009E-17         0.00000E+00
    0.14613E-18         0.22111E-17         0.00000E+00
    0.14047E-18         0.20095E-17         0.00000E+00
    0.15368E-18         0.17998E-17         0.00000E+00
    0.15070E-18         0.15848E-17         0.00000E+00
    0.13772E-18         0.13712E-17         0.00000E+00
    0.13916E-18         0.11546E-17         0.00000E+00
    0.14437E-18         0.93168E-18         0.00000E+00
    0.14504E-18         0.70543E-18         0.00000E+00
    0.14740E-18         0.47311E-18         0.00000E+00
    0.14559E-18         0.23725E-18         0.00000E+00
    0.14610E-18         0.11918E-18         0.00000E+00
    0.00000E+00         0.36492E-17         0.00000E+00
    0.12719E-19         0.36416E-17         0.00000E+00
    0.24344E-19         0.36190E-17         0.00000E+00
    0.35765E-19         0.35823E-17         0.00000E+00
    0.43833E-19         0.35303E-17         0.00000E+00
    0.52975E-19         0.34638E-17         0.00000E+00
    0.67747E-19         0.33821E-17         0.00000E+00
    0.83970E-19         0.32812E-17         0.00000E+00
    0.92312E-19         0.31619E-17         0.00000E+00
    0.99576E-19         0.30308E-17         0.00000E+00
    0.11821E-18         0.28978E-17         0.00000E+00
    0.12668E-18         0.27471E-17         0.00000E+00
    0.12576E-18         0.25713E-17         0.00000E+00
    0.13172E-18         0.23925E-17         0.00000E+00
    0.13788E-18         0.22109E-17         0.00000E+00
    0.14067E-18         0.20043E-17         0.00000E+00
    0.14230E-18         0.17941E-17         0.00000E+00
    0.14039E-18         0.15941E-17         0.00000E+00
    0.13801E-18         0.13773E-17         0.00000E+00
    0.13794E-18         0.11509E-17         0.00000E+00
    0.13568E-18         0.92841E-18         0.00000E+00
    0.13971E-18         0.70353E-18         0.00000E+00
    0.14219E-18         0.47376E-18         0.00000E+00
    0.14273E-18         0.23771E-18         0.00000E+00
    0.14326E-18         0.11696E-18         0.00000E+00
    0.00000E+00         0.36372E-17         0.00000E+00
    0.11674E-19         0.36300E-17         0.00000E+00
    0.22336E-19         0.36078E-17         0.00000E+00
    0.33014E-19         0.35718E-17         0.00000E+00
    0.44063E-19         0.35206E-17         0.00000E+00
    0.56238E-19         0.34531E-17         0.00000E+00
    0.69734E-19         0.33662E-17         0.00000E+00
    0.83416E-19         0.32652E-17         0.00000E+00
    0.93897E-19         0.31574E-17         0.00000E+00
    0.97451E-19         0.30273E-17         0.00000E+00
    0.10212E-18         0.28840E-17         0.00000E+00
    0.11895E-18         0.27364E-17         0.00000E+00
    0.12873E-18         0.25692E-17         0.00000E+00
    0.12587E-18         0.23888E-17         0.00000E+00
    0.12855E-18         0.22021E-17         0.00000E+00
    0.13707E-18         0.20051E-17         0.00000E+00
    0.13447E-18         0.18001E-17         0.00000E+00
    0.13702E-18         0.15891E-17         0.00000E+00
    0.14319E-18         0.13736E-17         0.00000E+00
    0.13783E-18         0.11569E-17         0.00000E+00
    0.13040E-18         0.92991E-18         0.00000E+00
    0.13327E-18         0.69891E-18         0.00000E+00
    0.13720E-18         0.47009E-18         0.00000E+00
    0.13999E-18         0.23619E-18         0.00000E+00
    0.13927E-18         0.11812E-18         0.00000E+00
    0.00000E+00         0.36259E-17         0.00000E+00
    0.10508E-19         0.36193E-17         0.00000E+00
    0.21186E-19         0.35977E-17         0.00000E+00
    0.30790E-19         0.35606E-17         0.00000E+00
    0.44503E-19         0.35071E-17         0.00000E+00
    0.57972E-19         0.34381E-17         0.00000E+00
    0.71063E-19         0.33549E-17         0.00000E+00
    0.79678E-19         0.32570E-17         0.00000E+00
    0.89197E-19         0.31479E-17         0.00000E+00
    0.97943E-19         0.30226E-17         0.00000E+00
    0.99555E-19         0.28763E-17         0.00000E+00
    0.11290E-18         0.27205E-17         0.00000E+00
    0.12233E-18         0.25644E-17         0.00000E+00
    0.12406E-18         0.23927E-17         0.00000E+00
    0.12879E-18         0.21998E-17         0.00000E+00
    0.12984E-18         0.19984E-17         0.00000E+00
    0.13469E-18         0.17942E-17         0.00000E+00
    0.14086E-18         0.15854E-17         0.00000E+00
    0.14034E-18         0.13765E-17         0.00000E+00
    0.13360E-18         0.11637E-17         0.00000E+00
    0.13578E-18         0.93297E-18         0.00000E+00
    0.13386E-18         0.69674E-18         0.00000E+00
    0.13348E-18         0.46704E-18         0.00000E+00
    0.13468E-18         0.23564E-18         0.00000E+00
    0.13509E-18         0.11840E-18         0.00000E+00
    0.00000E+00         0.36162E-17         0.00000E+00
    0.85058E-20         0.36088E-17         0.00000E+00
    0.19455E-19         0.35875E-17         0.00000E+00
    0.29861E-19         0.35484E-17         0.00000E+00
    0.41351E-19         0.34934E-17         0.00000E+00
    0.53152E-19         0.34266E-17         0.00000E+00
    0.65093E-19         0.33445E-17         0.00000E+00
    0.76402E-19         0.32470E-17         0.00000E+00
    0.86590E-19         0.31391E-17         0.00000E+00
    0.95302E-19         0.30170E-17         0.00000E+00
    0.10285E-18         0.28690E-17         0.00000E+00
    0.10574E-18         0.27136E-17         0.00000E+00
    0.10872E-18         0.25581E-17         0.00000E+00
    0.11846E-18         0.23823E-17         0.00000E+00
    0.12601E-18         0.21963E-17         0.00000E+00
    0.13100E-18         0.19992E-17         0.00000E+00
    0.13213E-18         0.17891E-17         0.00000E+00
    0.13045E-18         0.15834E-17         0.00000E+00
    0.12681E-18         0.13809E-17         0.00000E+00
    0.13062E-18         0.11615E-17         0.00000E+00
    0.13772E-18         0.92965E-18         0.00000E+00
    0.13535E-18         0.70121E-18         0.00000E+00
    0.13322E-18         0.46927E-18         0.00000E+00
    0.13320E-18         0.23458E-18         0.00000E+00
    0.13352E-18         0.11732E-18         0.00000E+00
    0.00000E+00         0.36089E-17         0.00000E+00
    0.83279E-20         0.35998E-17         0.00000E+00
    0.16801E-19         0.35763E-17         0.00000E+00
    0.28575E-19         0.35387E-17         0.00000E+00
    0.37412E-19         0.34838E-17         0.00000E+00
    0.47680E-19         0.34144E-17         0.00000E+00
    0.58725E-19         0.33316E-17         0.00000E+00
    0.71009E-19         0.32355E-17         0.00000E+00
    0.80151E-19         0.31290E-17         0.00000E+00
    0.93543E-19         0.30063E-17         0.00000E+00
    0.10225E-18         0.28659E-17         0.00000E+00
    0.10070E-18         0.27146E-17         0.00000E+00
    0.10275E-18         0.25517E-17         0.00000E+00
    0.10941E-18         0.23754E-17         0.00000E+00
    0.11566E-18         0.21872E-17         0.00000E+00
    0.12804E-18         0.19923E-17         0.00000E+00
    0.12871E-18         0.17947E-17         0.00000E+00
    0.11989E-18         0.15907E-17         0.00000E+00
    0.11854E-18         0.13763E-17         0.00000E+00
    0.12449E-18         0.11528E-17         0.00000E+00
    0.12688E-18         0.92824E-18         0.00000E+00
    0.13133E-18         0.70124E-18         0.00000E+00
    0.13256E-18         0.46920E-18         0.00000E+00
    0.13171E-18         0.23534E-18         0.00000E+00
    0.13121E-18         0.11775E-18         0.00000E+00
    0.00000E+00         0.35995E-17         0.00000E+00
    0.85554E-20         0.35920E-17         0.00000E+00
    0.16312E-19         0.35673E-17         0.00000E+00
    0.25115E-19         0.35278E-17         0.00000E+00
    0.36247E-19         0.34743E-17         0.00000E+00
    0.45857E-19         0.34053E-17         0.00000E+00
    0.54749E-19         0.33212E-17         0.00000E+00
    0.64543E-19         0.32256E-17         0.00000E+00
    0.74037E-19         0.31166E-17         0.00000E+00
    0.86453E-19         0.29949E-17         0.00000E+00
    0.92641E-19         0.28619E-17         0.00000E+00
    0.98190E-19         0.27131E-17         0.00000E+00
    0.10261E-18         0.25494E-17         0.00000E+00
    0.10759E-18         0.23694E-17         0.00000E+00
    0.11319E-18         0.21777E-17         0.00000E+00
    0.11197E-18         0.19862E-17         0.00000E+00
    0.11343E-18         0.17972E-17         0.00000E+00
    0.11477E-18         0.15936E-17         0.00000E+00
    0.11776E-18         0.13763E-17         0.00000E+00
    0.11852E-18         0.11531E-17         0.00000E+00
    0.11893E-18         0.92282E-18         0.00000E+00
    0.12478E-18         0.69553E-18         0.00000E+00
    0.12616E-18         0.46889E-18         0.00000E+00
    0.12669E-18         0.23594E-18         0.00000E+00
    0.12653E-18         0.11832E-18         0.00000E+00
    0.00000E+00         0.35917E-17         0.00000E+00
    0.76957E-20         0.35835E-17         0.00000E+00
    0.17698E-19         0.35597E-17         0.00000E+00
    0.23316E-19         0.35187E-17         0.00000E+00
    0.34257E-19         0.34630E-17         0.00000E+00
    0.42900E-19         0.33959E-17         0.00000E+00
    0.50597E-19         0.33129E-17         0.00000E+00
    0.57074E-19         0.32162E-17         0.00000E+00
    0.64671E-19         0.31070E-17         0.00000E+00
    0.72501E-19         0.29877E-17         0.00000E+00
    0.81585E-19         0.28541E-17         0.00000E+00
    0.90710E-19         0.27047E-17         0.00000E+00
    0.97416E-19         0.25423E-17         0.00000E+00
    0.10167E-18         0.23648E-17         0.00000E+00
    0.10314E-18         0.21828E-17         0.00000E+00
    0.97940E-19         0.19920E-17         0.00000E+00
    0.98764E-19         0.17919E-17         0.00000E+00
    0.10797E-18         0.15864E-17         0.00000E+00
    0.11292E-18         0.13725E-17         0.00000E+00
    0.11500E-18         0.11516E-17         0.00000E+00
    0.11669E-18         0.92198E-18         0.00000E+00
    0.11436E-18         0.69400E-18         0.00000E+00
    0.11806E-18         0.46729E-18         0.00000E+00
    0.11990E-18         0.23497E-18         0.00000E+00
    0.12008E-18         0.11807E-18         0.00000E+00
    0.00000E+00         0.35841E-17         0.00000E+00
    0.80712E-20         0.35743E-17         0.00000E+00
    0.16626E-19         0.35517E-17         0.00000E+00
    0.25021E-19         0.35113E-17         0.00000E+00
    0.31990E-19         0.34548E-17         0.00000E+00
    0.39508E-19         0.33889E-17         0.00000E+00
    0.45069E-19         0.33070E-17         0.00000E+00
    0.50590E-19         0.32115E-17         0.00000E+00
    0.58393E-19         0.31011E-17         0.00000E+00
    0.62175E-19         0.29780E-17         0.00000E+00
    0.70491E-19         0.28437E-17         0.00000E+00
    0.76776E-19         0.26973E-17         0.00000E+00
    0.84433E-19         0.25384E-17         0.00000E+00
    0.87444E-19         0.23637E-17         0.00000E+00
    0.87465E-19         0.21814E-17         0.00000E+00
    0.91766E-19         0.19905E-17         0.00000E+00
    0.95851E-19         0.17872E-17         0.00000E+00
    0.10192E-18         0.15794E-17         0.00000E+00
    0.10623E-18         0.13693E-17         0.00000E+00
    0.11018E-18         0.11494E-17         0.00000E+00
    0.11222E-18         0.92346E-18         0.00000E+00
    0.11072E-18         0.69416E-18         0.00000E+00
    0.11046E-18         0.46335E-18         0.00000E+00
    0.11210E-18         0.23392E-18         0.00000E+00
    0.11272E-18         0.11796E-18         0.00000E+00
    0.00000E+00         0.35756E-17         0.00000E+00
    0.91279E-20         0.35669E-17         0.00000E+00
    0.14049E-19         0.35428E-17         0.00000E+00
    0.25446E-19         0.35034E-17         0.00000E+00
    0.29613E-19         0.34485E-17         0.00000E+00
    0.34659E-19         0.33828E-17         0.00000E+00
    0.41354E-19         0.33019E-17         0.00000E+00
    0.47983E-19         0.32029E-17         0.00000E+00
    0.57474E-19         0.30955E-17         0.00000E+00
    0.61029E-19         0.29756E-17         0.00000E+00
    0.63769E-19         0.28395E-17         0.00000E+00
    0.67603E-19         0.26907E-17         0.00000E+00
    0.72477E-19         0.25316E-17         0.00000E+00
    0.81660E-19         0.23618E-17         0.00000E+00
    0.83752E-19         0.21785E-17         0.00000E+00
    0.87961E-19         0.19837E-17         0.00000E+00
    0.96691E-19         0.17818E-17         0.00000E+00
    0.99498E-19         0.15760E-17         0.00000E+00
    0.10267E-18         0.13643E-17         0.00000E+00
    0.10716E-18         0.11456E-17         0.00000E+00
    0.10728E-18         0.92143E-18         0.00000E+00
    0.10784E-18         0.69576E-18         0.00000E+00
    0.10488E-18         0.46592E-18         0.00000E+00
    0.10521E-18         0.23272E-18         0.00000E+00
    0.10603E-18         0.11682E-18         0.00000E+00
    0.00000E+00         0.35659E-17         0.00000E+00
    0.90966E-20         0.35602E-17         0.00000E+00
    0.16780E-19         0.35353E-17         0.00000E+00
    0.22929E-19         0.34957E-17         0.00000E+00
    0.27333E-19         0.34455E-17         0.00000E+00
    0.32729E-19         0.33772E-17         0.00000E+00
    0.40118E-19         0.32937E-17         0.00000E+00
    0.46287E-19         0.31954E-17         0.00000E+00
    0.50674E-19         0.30881E-17         0.00000E+00
    0.57109E-19         0.29717E-17         0.00000E+00
    0.62937E-19         0.28371E-17         0.00000E+00
    0.67935E-19         0.26886E-17         0.00000E+00
    0.71739E-19         0.25243E-17         0.00000E+00
    0.79668E-19         0.23524E-17         0.00000E+00
    0.84474E-19         0.21751E-17         0.00000E+00
    0.90546E-19         0.19776E-17         0.00000E+00
    0.95581E-19         0.17757E-17         0.00000E+00
    0.97009E-19         0.15734E-17         0.00000E+00
    0.97241E-19         0.13616E-17         0.00000E+00
    0.98699E-19         0.11448E-17         0.00000E+00
    0.98681E-19         0.92277E-18         0.00000E+00
    0.98454E-19         0.69656E-18         0.00000E+00
    0.10069E-18         0.46597E-18         0.00000E+00
    0.10025E-18         0.23277E-18         0.00000E+00
    0.10044E-18         0.11634E-18         0.00000E+00
    0.00000E+00         0.35574E-17         0.00000E+00
    0.70364E-20         0.35501E-17         0.00000E+00
    0.18002E-19         0.35290E-17         0.00000E+00
    0.23526E-19         0.34928E-17         0.00000E+00
    0.27609E-19         0.34387E-17         0.00000E+00
    0.35366E-19         0.33700E-17         0.00000E+00
    0.42650E-19         0.32883E-17         0.00000E+00
    0.46036E-19         0.31923E-17         0.00000E+00
    0.47367E-19         0.30846E-17         0.00000E+00
    0.52978E-19         0.29634E-17         0.00000E+00
    0.60967E-19         0.28287E-17         0.00000E+00
    0.68610E-19         0.26819E-17         0.00000E+00
    0.76780E-19         0.25199E-17         0.00000E+00
    0.77792E-19         0.23491E-17         0.00000E+00
    0.82594E-19         0.21676E-17         0.00000E+00
    0.87488E-19         0.19725E-17         0.00000E+00
    0.84287E-19         0.17753E-17         0.00000E+00
    0.84879E-19         0.15743E-17         0.00000E+00
    0.85068E-19         0.13626E-17         0.00000E+00
    0.87335E-19         0.11442E-17         0.00000E+00
    0.87964E-19         0.92168E-18         0.00000E+00
    0.91061E-19         0.69375E-18         0.00000E+00
    0.94455E-19         0.46412E-18         0.00000E+00
    0.95182E-19         0.23296E-18         0.00000E+00
    0.95014E-19         0.11644E-18         0.00000E+00
    0.00000E+00         0.35518E-17         0.00000E+00
    0.73954E-20         0.35422E-17         0.00000E+00
    0.15248E-19         0.35189E-17         0.00000E+00
    0.23959E-19         0.34861E-17         0.00000E+00
    0.30120E-19         0.34337E-17         0.00000E+00
    0.34978E-19         0.33621E-17         0.00000E+00
    0.41433E-19         0.32830E-17         0.00000E+00
    0.44315E-19         0.31907E-17         0.00000E+00
    0.48376E-19         0.30811E-17         0.00000E+00
    0.53230E-19         0.29581E-17         0.00000E+00
    0.59048E-19         0.28215E-17         0.00000E+00
    0.65933E-19         0.26728E-17         0.00000E+00
    0.70402E-19         0.25152E-17         0.00000E+00
    0.72219E-19         0.23466E-17         0.00000E+00
    0.76558E-19         0.21654E-17         0.00000E+00
    0.76979E-19         0.19759E-17         0.00000E+00
    0.72191E-19         0.17783E-17         0.00000E+00
    0.73090E-19         0.15727E-17         0.00000E+00
    0.75937E-19         0.13591E-17         0.00000E+00
    0.78468E-19         0.11419E-17         0.00000E+00
    0.82255E-19         0.91905E-18         0.00000E+00
    0.85261E-19         0.69007E-18         0.00000E+00
    0.87075E-19         0.46185E-18         0.00000E+00
    0.88478E-19         0.23221E-18         0.00000E+00
    0.88847E-19         0.11667E-18         0.00000E+00
    0.62929E-32         0.35426E-17         0.00000E+00
    0.84669E-20         0.35349E-17         0.00000E+00
    0.14403E-19         0.35124E-17         0.00000E+00
    0.19449E-19         0.34780E-17         0.00000E+00
    0.26957E-19         0.34277E-17         0.00000E+00
    0.32304E-19         0.33587E-17         0.00000E+00
    0.35955E-19         0.32790E-17         0.00000E+00
    0.41351E-19         0.31854E-17         0.00000E+00
    0.47079E-19         0.30757E-17         0.00000E+00
    0.51078E-19         0.29527E-17         0.00000E+00
    0.55605E-19         0.28160E-17         0.00000E+00
    0.59313E-19         0.26706E-17         0.00000E+00
    0.60354E-19         0.25136E-17         0.00000E+00
    0.63572E-19         0.23429E-17         0.00000E+00
    0.67494E-19         0.21629E-17         0.00000E+00
    0.68479E-19         0.19769E-17         0.00000E+00
    0.68032E-19         0.17792E-17         0.00000E+00
    0.68775E-19         0.15706E-17         0.00000E+00
    0.71536E-19         0.13572E-17         0.00000E+00
    0.74135E-19         0.11379E-17         0.00000E+00
    0.79560E-19         0.91488E-18         0.00000E+00
    0.80290E-19         0.68894E-18         0.00000E+00
    0.80453E-19         0.46090E-18         0.00000E+00
    0.80950E-19         0.23119E-18         0.00000E+00
    0.81431E-19         0.11570E-18         0.00000E+00
    0.88950E-46         0.35349E-17         0.00000E+00
    0.76264E-20         0.35278E-17         0.00000E+00
    0.14190E-19         0.35079E-17         0.00000E+00
    0.16976E-19         0.34736E-17         0.00000E+00
    0.21738E-19         0.34209E-17         0.00000E+00
    0.28064E-19         0.33531E-17         0.00000E+00
    0.31679E-19         0.32740E-17         0.00000E+00
    0.36276E-19         0.31796E-17         0.00000E+00
    0.39220E-19         0.30714E-17         0.00000E+00
    0.44096E-19         0.29495E-17         0.00000E+00
    0.47612E-19         0.28132E-17         0.00000E+00
    0.51278E-19         0.26680E-17         0.00000E+00
    0.54736E-19         0.25109E-17         0.00000E+00
    0.58805E-19         0.23395E-17         0.00000E+00
    0.60321E-19         0.21605E-17         0.00000E+00
    0.60321E-19         0.19754E-17         0.00000E+00
    0.64355E-19         0.17780E-17         0.00000E+00
    0.65337E-19         0.15692E-17         0.00000E+00
    0.67548E-19         0.13538E-17         0.00000E+00
    0.71935E-19         0.11339E-17         0.00000E+00
    0.73861E-19         0.91289E-18         0.00000E+00
    0.74814E-19         0.68918E-18         0.00000E+00
    0.74426E-19         0.46119E-18         0.00000E+00
    0.74490E-19         0.23124E-18         0.00000E+00
    0.74483E-19         0.11571E-18         0.00000E+00
   -0.62659E-32         0.35274E-17         0.00000E+00
    0.60320E-20         0.35207E-17         0.00000E+00
    0.10957E-19         0.35030E-17         0.00000E+00
    0.13365E-19         0.34704E-17         0.00000E+00
    0.19096E-19         0.34166E-17         0.00000E+00
    0.22522E-19         0.33488E-17         0.00000E+00
    0.27139E-19         0.32708E-17         0.00000E+00
    0.30194E-19         0.31779E-17         0.00000E+00
    0.32040E-19         0.30679E-17         0.00000E+00
    0.37027E-19         0.29443E-17         0.00000E+00
    0.40844E-19         0.28088E-17         0.00000E+00
    0.45579E-19         0.26635E-17         0.00000E+00
    0.51892E-19         0.25060E-17         0.00000E+00
    0.55355E-19         0.23373E-17         0.00000E+00
    0.56452E-19         0.21614E-17         0.00000E+00
    0.57922E-19         0.19729E-17         0.00000E+00
    0.61705E-19         0.17742E-17         0.00000E+00
    0.64870E-19         0.15674E-17         0.00000E+00
    0.65855E-19         0.13506E-17         0.00000E+00
    0.67882E-19         0.11316E-17         0.00000E+00
    0.67552E-19         0.91201E-18         0.00000E+00
    0.68146E-19         0.68837E-18         0.00000E+00
    0.68842E-19         0.46123E-18         0.00000E+00
    0.69027E-19         0.23113E-18         0.00000E+00
    0.69121E-19         0.11571E-18         0.00000E+00
    0.00000E+00         0.35228E-17         0.00000E+00
    0.29977E-20         0.35169E-17         0.00000E+00
    0.62677E-20         0.35005E-17         0.00000E+00
    0.10344E-19         0.34654E-17         0.00000E+00
    0.14184E-19         0.34117E-17         0.00000E+00
    0.17894E-19         0.33451E-17         0.00000E+00
    0.22089E-19         0.32663E-17         0.00000E+00
    0.27500E-19         0.31747E-17         0.00000E+00
    0.31169E-19         0.30646E-17         0.00000E+00
    0.34825E-19         0.29407E-17         0.00000E+00
    0.39059E-19         0.28047E-17         0.00000E+00
    0.42442E-19         0.26570E-17         0.00000E+00
    0.47929E-19         0.25011E-17         0.00000E+00
    0.49917E-19         0.23349E-17         0.00000E+00
    0.54857E-19         0.21579E-17         0.00000E+00
    0.60675E-19         0.19701E-17         0.00000E+00
    0.61811E-19         0.17710E-17         0.00000E+00
    0.63678E-19         0.15650E-17         0.00000E+00
    0.63948E-19         0.13508E-17         0.00000E+00
    0.62274E-19         0.11322E-17         0.00000E+00
    0.62283E-19         0.91263E-18         0.00000E+00
    0.62775E-19         0.68788E-18         0.00000E+00
    0.63796E-19         0.46031E-18         0.00000E+00
    0.64172E-19         0.23096E-18         0.00000E+00
    0.64087E-19         0.11552E-18         0.00000E+00
    0.00000E+00         0.35214E-17         0.00000E+00
    0.12578E-20         0.35144E-17         0.00000E+00
    0.48669E-20         0.34957E-17         0.00000E+00
    0.10285E-19         0.34625E-17         0.00000E+00
    0.12306E-19         0.34091E-17         0.00000E+00
    0.17171E-19         0.33409E-17         0.00000E+00
    0.20082E-19         0.32612E-17         0.00000E+00
    0.24446E-19         0.31688E-17         0.00000E+00
    0.29640E-19         0.30606E-17         0.00000E+00
    0.33935E-19         0.29364E-17         0.00000E+00
    0.37317E-19         0.28012E-17         0.00000E+00
    0.39171E-19         0.26546E-17         0.00000E+00
    0.39655E-19         0.24986E-17         0.00000E+00
    0.43237E-19         0.23304E-17         0.00000E+00
    0.49080E-19         0.21506E-17         0.00000E+00
    0.55468E-19         0.19659E-17         0.00000E+00
    0.57281E-19         0.17712E-17         0.00000E+00
    0.57118E-19         0.15653E-17         0.00000E+00
    0.57823E-19         0.13520E-17         0.00000E+00
    0.56299E-19         0.11332E-17         0.00000E+00
    0.56361E-19         0.91150E-18         0.00000E+00
    0.57623E-19         0.68686E-18         0.00000E+00
    0.57969E-19         0.45983E-18         0.00000E+00
    0.58381E-19         0.23084E-18         0.00000E+00
    0.58376E-19         0.11588E-18         0.00000E+00
    0.00000E+00         0.35203E-17         0.00000E+00
    0.14077E-20         0.35120E-17         0.00000E+00
    0.41652E-20         0.34915E-17         0.00000E+00
    0.85896E-20         0.34580E-17         0.00000E+00
    0.13746E-19         0.34048E-17         0.00000E+00
    0.17033E-19         0.33373E-17         0.00000E+00
    0.19994E-19         0.32591E-17         0.00000E+00
    0.21294E-19         0.31651E-17         0.00000E+00
    0.25750E-19         0.30551E-17         0.00000E+00
    0.30086E-19         0.29331E-17         0.00000E+00
    0.31769E-19         0.27994E-17         0.00000E+00
    0.35169E-19         0.26546E-17         0.00000E+00
    0.35956E-19         0.24971E-17         0.00000E+00
    0.38817E-19         0.23255E-17         0.00000E+00
    0.42388E-19         0.21457E-17         0.00000E+00
    0.45037E-19         0.19619E-17         0.00000E+00
    0.48963E-19         0.17694E-17         0.00000E+00
    0.50443E-19         0.15645E-17         0.00000E+00
    0.51685E-19         0.13516E-17         0.00000E+00
    0.51896E-19         0.11336E-17         0.00000E+00
    0.51406E-19         0.91130E-18         0.00000E+00
    0.51209E-19         0.68628E-18         0.00000E+00
    0.51523E-19         0.45955E-18         0.00000E+00
    0.51618E-19         0.23055E-18         0.00000E+00
    0.51799E-19         0.11553E-18         0.00000E+00
    0.00000E+00         0.35186E-17         0.00000E+00
    0.31383E-20         0.35102E-17         0.00000E+00
    0.45702E-20         0.34885E-17         0.00000E+00
    0.64068E-20         0.34529E-17         0.00000E+00
    0.11061E-19         0.34006E-17         0.00000E+00
    0.14121E-19         0.33346E-17         0.00000E+00
    0.17856E-19         0.32569E-17         0.00000E+00
    0.20901E-19         0.31630E-17         0.00000E+00
    0.22823E-19         0.30518E-17         0.00000E+00
    0.23991E-19         0.29304E-17         0.00000E+00
    0.26444E-19         0.27961E-17         0.00000E+00
    0.31323E-19         0.26504E-17         0.00000E+00
    0.35888E-19         0.24949E-17         0.00000E+00
    0.37795E-19         0.23240E-17         0.00000E+00
    0.37659E-19         0.21444E-17         0.00000E+00
    0.37558E-19         0.19594E-17         0.00000E+00
    0.41501E-19         0.17658E-17         0.00000E+00
    0.43947E-19         0.15625E-17         0.00000E+00
    0.45371E-19         0.13506E-17         0.00000E+00
    0.45680E-19         0.11335E-17         0.00000E+00
    0.45644E-19         0.91219E-18         0.00000E+00
    0.44623E-19         0.68674E-18         0.00000E+00
    0.44602E-19         0.45942E-18         0.00000E+00
    0.44873E-19         0.23056E-18         0.00000E+00
    0.44933E-19         0.11552E-18         0.00000E+00
    0.00000E+00         0.35140E-17         0.00000E+00
    0.25715E-20         0.35074E-17         0.00000E+00
    0.36876E-20         0.34882E-17         0.00000E+00
    0.59624E-20         0.34515E-17         0.00000E+00
    0.90751E-20         0.33971E-17         0.00000E+00
    0.12359E-19         0.33305E-17         0.00000E+00
    0.14622E-19         0.32523E-17         0.00000E+00
    0.19660E-19         0.31601E-17         0.00000E+00
    0.21790E-19         0.30520E-17         0.00000E+00
    0.21356E-19         0.29294E-17         0.00000E+00
    0.23760E-19         0.27921E-17         0.00000E+00
    0.24756E-19         0.26452E-17         0.00000E+00
    0.29661E-19         0.24906E-17         0.00000E+00
    0.32437E-19         0.23237E-17         0.00000E+00
    0.32719E-19         0.21459E-17         0.00000E+00
    0.33452E-19         0.19581E-17         0.00000E+00
    0.34687E-19         0.17630E-17         0.00000E+00
    0.37137E-19         0.15606E-17         0.00000E+00
    0.38379E-19         0.13499E-17         0.00000E+00
    0.38293E-19         0.11333E-17         0.00000E+00
    0.38051E-19         0.91236E-18         0.00000E+00
    0.37920E-19         0.68732E-18         0.00000E+00
    0.37815E-19         0.45930E-18         0.00000E+00
    0.38196E-19         0.23022E-18         0.00000E+00
    0.38353E-19         0.11541E-18         0.00000E+00
    0.00000E+00         0.35134E-17         0.00000E+00
    0.14564E-20         0.35065E-17         0.00000E+00
    0.12574E-20         0.34851E-17         0.00000E+00
    0.53112E-20         0.34475E-17         0.00000E+00
    0.84071E-20         0.33942E-17         0.00000E+00
    0.10976E-19         0.33291E-17         0.00000E+00
    0.11970E-19         0.32496E-17         0.00000E+00
    0.15589E-19         0.31559E-17         0.00000E+00
    0.19130E-19         0.30501E-17         0.00000E+00
    0.20587E-19         0.29284E-17         0.00000E+00
    0.21563E-19         0.27927E-17         0.00000E+00
    0.19855E-19         0.26445E-17         0.00000E+00
    0.21554E-19         0.24872E-17         0.00000E+00
    0.24274E-19         0.23209E-17         0.00000E+00
    0.26297E-19         0.21434E-17         0.00000E+00
    0.28393E-19         0.19574E-17         0.00000E+00
    0.28333E-19         0.17621E-17         0.00000E+00
    0.29985E-19         0.15588E-17         0.00000E+00
    0.31157E-19         0.13494E-17         0.00000E+00
    0.31700E-19         0.11338E-17         0.00000E+00
    0.31424E-19         0.91257E-18         0.00000E+00
    0.31878E-19         0.68698E-18         0.00000E+00
    0.31787E-19         0.45915E-18         0.00000E+00
    0.31836E-19         0.23003E-18         0.00000E+00
    0.31975E-19         0.11521E-18         0.00000E+00
    0.00000E+00         0.35111E-17         0.00000E+00
    0.20350E-20         0.35062E-17         0.00000E+00
    0.24478E-20         0.34844E-17         0.00000E+00
    0.49857E-20         0.34443E-17         0.00000E+00
    0.76325E-20         0.33914E-17         0.00000E+00
    0.81347E-20         0.33270E-17         0.00000E+00
    0.10815E-19         0.32477E-17         0.00000E+00
    0.12560E-19         0.31530E-17         0.00000E+00
    0.14662E-19         0.30470E-17         0.00000E+00
    0.16432E-19         0.29270E-17         0.00000E+00
    0.16922E-19         0.27928E-17         0.00000E+00
    0.18073E-19         0.26452E-17         0.00000E+00
    0.17160E-19         0.24862E-17         0.00000E+00
    0.18946E-19         0.23190E-17         0.00000E+00
    0.19283E-19         0.21418E-17         0.00000E+00
    0.19944E-19         0.19560E-17         0.00000E+00
    0.21211E-19         0.17614E-17         0.00000E+00
    0.21929E-19         0.15578E-17         0.00000E+00
    0.23164E-19         0.13481E-17         0.00000E+00
    0.24495E-19         0.11331E-17         0.00000E+00
    0.25405E-19         0.91218E-18         0.00000E+00
    0.25868E-19         0.68696E-18         0.00000E+00
    0.25634E-19         0.45935E-18         0.00000E+00
    0.25517E-19         0.23003E-18         0.00000E+00
    0.25577E-19         0.11514E-18         0.00000E+00
    0.00000E+00         0.35093E-17         0.00000E+00
    0.13901E-20         0.35041E-17         0.00000E+00
    0.61199E-20         0.34822E-17         0.00000E+00
    0.74138E-20         0.34423E-17         0.00000E+00
    0.69645E-20         0.33911E-17         0.00000E+00
    0.70320E-20         0.33259E-17         0.00000E+00
    0.97992E-20         0.32452E-17         0.00000E+00
    0.98276E-20         0.31520E-17         0.00000E+00
    0.10193E-19         0.30462E-17         0.00000E+00
    0.12043E-19         0.29262E-17         0.00000E+00
    0.13680E-19         0.27911E-17         0.00000E+00
    0.15425E-19         0.26443E-17         0.00000E+00
    0.14168E-19         0.24864E-17         0.00000E+00
    0.12496E-19         0.23188E-17         0.00000E+00
    0.12739E-19         0.21424E-17         0.00000E+00
    0.12632E-19         0.19555E-17         0.00000E+00
    0.14174E-19         0.17601E-17         0.00000E+00
    0.14826E-19         0.15569E-17         0.00000E+00
    0.16087E-19         0.13468E-17         0.00000E+00
    0.17471E-19         0.11316E-17         0.00000E+00
    0.18756E-19         0.91119E-18         0.00000E+00
    0.19161E-19         0.68675E-18         0.00000E+00
    0.19327E-19         0.45950E-18         0.00000E+00
    0.19259E-19         0.23008E-18         0.00000E+00
    0.19235E-19         0.11509E-18         0.00000E+00
    0.00000E+00         0.35083E-17         0.00000E+00
    0.21932E-20         0.35001E-17         0.00000E+00
    0.64980E-20         0.34784E-17         0.00000E+00
    0.73817E-20         0.34435E-17         0.00000E+00
    0.56690E-20         0.33918E-17         0.00000E+00
    0.52181E-20         0.33241E-17         0.00000E+00
    0.65116E-20         0.32449E-17         0.00000E+00
    0.65368E-20         0.31526E-17         0.00000E+00
    0.66166E-20         0.30448E-17         0.00000E+00
    0.86077E-20         0.29235E-17         0.00000E+00
    0.10461E-19         0.27894E-17         0.00000E+00
    0.99933E-20         0.26447E-17         0.00000E+00
    0.91430E-20         0.24891E-17         0.00000E+00
    0.72536E-20         0.23204E-17         0.00000E+00
    0.75859E-20         0.21417E-17         0.00000E+00
    0.82443E-20         0.19546E-17         0.00000E+00
    0.87056E-20         0.17592E-17         0.00000E+00
    0.95908E-20         0.15559E-17         0.00000E+00
    0.10444E-19         0.13455E-17         0.00000E+00
    0.11469E-19         0.11304E-17         0.00000E+00
    0.12420E-19         0.91049E-18         0.00000E+00
    0.12713E-19         0.68638E-18         0.00000E+00
    0.12967E-19         0.45925E-18         0.00000E+00
    0.12971E-19         0.23012E-18         0.00000E+00
    0.12948E-19         0.11518E-18         0.00000E+00
    0.00000E+00         0.35050E-17         0.00000E+00
    0.29397E-20         0.34976E-17         0.00000E+00
    0.38548E-20         0.34770E-17         0.00000E+00
    0.40577E-20         0.34432E-17         0.00000E+00
    0.34952E-20         0.33933E-17         0.00000E+00
    0.27306E-20         0.33250E-17         0.00000E+00
    0.21330E-20         0.32438E-17         0.00000E+00
    0.31042E-20         0.31519E-17         0.00000E+00
    0.41454E-20         0.30442E-17         0.00000E+00
    0.40133E-20         0.29223E-17         0.00000E+00
    0.41628E-20         0.27897E-17         0.00000E+00
    0.40112E-20         0.26456E-17         0.00000E+00
    0.37337E-20         0.24891E-17         0.00000E+00
    0.35374E-20         0.23203E-17         0.00000E+00
    0.38150E-20         0.21414E-17         0.00000E+00
    0.48439E-20         0.19543E-17         0.00000E+00
    0.44420E-20         0.17587E-17         0.00000E+00
    0.53435E-20         0.15552E-17         0.00000E+00
    0.54970E-20         0.13450E-17         0.00000E+00
    0.57162E-20         0.11296E-17         0.00000E+00
    0.61825E-20         0.90995E-18         0.00000E+00
    0.63791E-20         0.68620E-18         0.00000E+00
    0.64739E-20         0.45924E-18         0.00000E+00
    0.65286E-20         0.23010E-18         0.00000E+00
    0.65422E-20         0.11514E-18         0.00000E+00
    0.00000E+00         0.35024E-17         0.00000E+00
    0.25218E-20         0.34962E-17         0.00000E+00
    0.27954E-20         0.34772E-17         0.00000E+00
    0.20061E-20         0.34438E-17         0.00000E+00
    0.14365E-20         0.33931E-17         0.00000E+00
    0.22428E-20         0.33255E-17         0.00000E+00
    0.54215E-21         0.32445E-17         0.00000E+00
    0.95293E-21         0.31506E-17         0.00000E+00
    0.31923E-20         0.30439E-17         0.00000E+00
    0.14968E-20         0.29235E-17         0.00000E+00
    0.82119E-21         0.27894E-17         0.00000E+00
    0.19567E-20         0.26451E-17         0.00000E+00
    0.16875E-20         0.24896E-17         0.00000E+00
    0.10363E-20         0.23203E-17         0.00000E+00
    0.17722E-20         0.21404E-17         0.00000E+00
    0.30359E-20         0.19540E-17         0.00000E+00
    0.24951E-20         0.17587E-17         0.00000E+00
    0.31122E-20         0.15548E-17         0.00000E+00
    0.31912E-20         0.13451E-17         0.00000E+00
    0.28034E-20         0.11297E-17         0.00000E+00
    0.29885E-20         0.90983E-18         0.00000E+00
    0.30399E-20         0.68609E-18         0.00000E+00
    0.32025E-20         0.45910E-18         0.00000E+00
    0.33181E-20         0.23005E-18         0.00000E+00
    0.32979E-20         0.11516E-18         0.00000E+00
CELL_DATA       1152
TENSORS stressef double 
   -0.69268E+05         0.61812E+03         0.00000E+00
    0.61812E+03        -0.99344E+05         0.00000E+00
    0.00000E+00         0.00000E+00        -0.50584E+05
 
   -0.36011E+05         0.35672E+04         0.00000E+00
    0.35672E+04        -0.95065E+05         0.00000E+00
    0.00000E+00         0.00000E+00        -0.39323E+05
 
   -0.16312E+05         0.53464E+04         0.00000E+00
    0.53464E+04        -0.85331E+05         0.00000E+00
    0.00000E+00         0.00000E+00        -0.30493E+05
 
   -0.65784E+04         0.51471E+04         0.00000E+00
    0.51471E+04        -0.74779E+05         0.00000E+00
    0.00000E+00         0.00000E+00        -0.24407E+05
 
   -0.17946E+04         0.43655E+04         0.00000E+00
    0.43655E+04        -0.65457E+05         0.00000E+00
    0.00000E+00         0.00000E+00        -0.20176E+05
 
    0.59132E+03         0.35678E+04         0.00000E+00
    0.35678E+04        -0.57722E+05         0.00000E+00
    0.00000E+00         0.00000E+00        -0.17139E+05
 
    0.17586E+04         0.28931E+04         0.00000E+00
    0.28931E+04        -0.51418E+05         0.00000E+00
    0.00000E+00         0.00000E+00        -0.14898E+05
 
    0.22749E+04         0.23539E+04         0.00000E+00
    0.23539E+04        -0.46287E+05         0.00000E+00
    0.00000E+00         0.00000E+00        -0.13204E+05
 
    0.24247E+04         0.19294E+04         0.00000E+00
    0.19294E+04        -0.42086E+05         0.00000E+00
    0.00000E+00         0.00000E+00        -0.11899E+05
 
    0.23569E+04         0.15951E+04         0.00000E+00
    0.15951E+04        -0.38622E+05         0.00000E+00
    0.00000E+00         0.00000E+00        -0.10879E+05
 
    0.21519E+04         0.13299E+04         0.00000E+00
    0.13299E+04        -0.35741E+05         0.00000E+00
    0.00000E+00         0.00000E+00        -0.10077E+05
 
    0.18536E+04         0.11176E+04         0.00000E+00
    0.11176E+04        -0.33326E+05         0.00000E+00
    0.00000E+00         0.00000E+00        -0.94416E+04
 
    0.14857E+04         0.94618E+03         0.00000E+00
    0.94618E+03        -0.31286E+05         0.00000E+00
    0.00000E+00         0.00000E+00        -0.89401E+04
 
    0.10595E+04         0.80664E+03         0.00000E+00
    0.80664E+03        -0.29552E+05         0.00000E+00
    0.00000E+00         0.00000E+00        -0.85476E+04
 
    0.57902E+03         0.69240E+03         0.00000E+00
    0.69240E+03        -0.28067E+05         0.00000E+00
    0.00000E+00         0.00000E+00        -0.82463E+04
 
    0.42690E+02         0.59865E+03         0.00000E+00
    0.59865E+03        -0.26787E+05         0.00000E+00
    0.00000E+00         0.00000E+00        -0.80232E+04
 
   -0.55501E+03         0.52194E+03         0.00000E+00
    0.52194E+03        -0.25675E+05         0.00000E+00
    0.00000E+00         0.00000E+00        -0.78690E+04
 
   -0.12232E+04         0.45980E+03         0.00000E+00
    0.45980E+03        -0.24700E+05         0.00000E+00
    0.00000E+00         0.00000E+00        -0.77770E+04
 
   -0.19745E+04         0.41065E+03         0.00000E+00
    0.41065E+03        -0.23836E+05         0.00000E+00
    0.00000E+00         0.00000E+00        -0.77430E+04
 
   -0.28255E+04         0.37360E+03         0.00000E+00
    0.37360E+03        -0.23056E+05         0.00000E+00
    0.00000E+00         0.00000E+00        -0.77645E+04
 
   -0.37968E+04         0.34843E+03         0.00000E+00
    0.34843E+03        -0.22338E+05         0.00000E+00
    0.00000E+00         0.00000E+00        -0.78406E+04
 
   -0.49148E+04         0.33562E+03         0.00000E+00
    0.33562E+03        -0.21658E+05         0.00000E+00
    0.00000E+00         0.00000E+00        -0.79719E+04
 
   -0.62125E+04         0.33637E+03         0.00000E+00
    0.33637E+03        -0.20990E+05         0.00000E+00
    0.00000E+00         0.00000E+00        -0.81608E+04
 
   -0.77313E+04         0.35280E+03         0.00000E+00
    0.35280E+03        -0.20305E+05         0.00000E+00
    0.00000E+00         0.00000E+00        -0.84109E+04
 
   -0.64581E+05         0.30733E+04         0.00000E+00
    0.30733E+04        -0.99316E+05         0.00000E+00
    0.00000E+00         0.00000E+00        -0.49169E+05
 
   -0.30576E+05         0.13481E+05         0.00000E+00
    0.13481E+05        -0.87764E+05         0.00000E+00
    0.00000E+00         0.00000E+00        -0.35502E+05
 
   -0.15864E+05         0.15997E+05         0.00000E+00
    0.15997E+05        -0.76817E+05         0.00000E+00
    0.00000E+00         0.00000E+00        -0.27804E+05
 
   -0.79189E+04         0.14598E+05         0.00000E+00
    0.14598E+05        -0.67775E+05         0.00000E+00
    0.00000E+00         0.00000E+00        -0.22708E+05
 
   -0.33863E+04         0.12296E+05         0.00000E+00
    0.12296E+05        -0.60185E+05         0.00000E+00
    0.00000E+00         0.00000E+00        -0.19071E+05
 
   -0.82163E+03         0.10092E+05         0.00000E+00
    0.10092E+05        -0.53839E+05         0.00000E+00
    0.00000E+00         0.00000E+00        -0.16398E+05
 
    0.60624E+03         0.82403E+04         0.00000E+00
    0.82403E+04        -0.48548E+05         0.00000E+00
    0.00000E+00         0.00000E+00        -0.14383E+05
 
    0.13593E+04         0.67507E+04         0.00000E+00
    0.67507E+04        -0.44137E+05         0.00000E+00
    0.00000E+00         0.00000E+00        -0.12833E+05
 
    0.17006E+04         0.55668E+04         0.00000E+00
    0.55668E+04        -0.40449E+05         0.00000E+00
    0.00000E+00         0.00000E+00        -0.11625E+05
 
    0.17820E+04         0.46256E+04         0.00000E+00
    0.46256E+04        -0.37352E+05         0.00000E+00
    0.00000E+00         0.00000E+00        -0.10671E+05
 
    0.16919E+04         0.38730E+04         0.00000E+00
    0.38730E+04        -0.34739E+05         0.00000E+00
    0.00000E+00         0.00000E+00        -0.99140E+04
 
    0.14824E+04         0.32663E+04         0.00000E+00
    0.32663E+04        -0.32521E+05         0.00000E+00
    0.00000E+00         0.00000E+00        -0.93115E+04
 
    0.11837E+04         0.27735E+04         0.00000E+00
    0.27735E+04        -0.30629E+05         0.00000E+00
    0.00000E+00         0.00000E+00        -0.88336E+04
 
    0.81227E+03         0.23704E+04         0.00000E+00
    0.23704E+04        -0.29007E+05         0.00000E+00
    0.00000E+00         0.00000E+00        -0.84583E+04
 
    0.37585E+03         0.20391E+04         0.00000E+00
    0.20391E+04        -0.27607E+05         0.00000E+00
    0.00000E+00         0.00000E+00        -0.81695E+04
 
   -0.12420E+03         0.17664E+04         0.00000E+00
    0.17664E+04        -0.26394E+05         0.00000E+00
    0.00000E+00         0.00000E+00        -0.79554E+04
 
   -0.69121E+03         0.15426E+04         0.00000E+00
    0.15426E+04        -0.25334E+05         0.00000E+00
    0.00000E+00         0.00000E+00        -0.78075E+04
 
   -0.13325E+04         0.13611E+04         0.00000E+00
    0.13611E+04        -0.24400E+05         0.00000E+00
    0.00000E+00         0.00000E+00        -0.77198E+04
 
   -0.20594E+04         0.12173E+04         0.00000E+00
    0.12173E+04        -0.23568E+05         0.00000E+00
    0.00000E+00         0.00000E+00        -0.76882E+04
 
   -0.28868E+04         0.11089E+04         0.00000E+00
    0.11089E+04        -0.22815E+05         0.00000E+00
    0.00000E+00         0.00000E+00        -0.77105E+04
 
   -0.38343E+04         0.10354E+04         0.00000E+00
    0.10354E+04        -0.22118E+05         0.00000E+00
    0.00000E+00         0.00000E+00        -0.77858E+04
 
   -0.49269E+04         0.99828E+03         0.00000E+00
    0.99828E+03        -0.21457E+05         0.00000E+00
    0.00000E+00         0.00000E+00        -0.79150E+04
 
   -0.61959E+04         0.10012E+04         0.00000E+00
    0.10012E+04        -0.20805E+05         0.00000E+00
    0.00000E+00         0.00000E+00        -0.81002E+04
 
   -0.76807E+04         0.10503E+04         0.00000E+00
    0.10503E+04        -0.20135E+05         0.00000E+00
    0.00000E+00         0.00000E+00        -0.83448E+04
 
   -0.48122E+05         0.17594E+05         0.00000E+00
    0.17594E+05        -0.74889E+05         0.00000E+00
    0.00000E+00         0.00000E+00        -0.36903E+05
 
   -0.26322E+05         0.25407E+05         0.00000E+00
    0.25407E+05        -0.65491E+05         0.00000E+00
    0.00000E+00         0.00000E+00        -0.27544E+05
 
   -0.17169E+05         0.24191E+05         0.00000E+00
    0.24191E+05        -0.59592E+05         0.00000E+00
    0.00000E+00         0.00000E+00        -0.23028E+05
 
   -0.10622E+05         0.21198E+05         0.00000E+00
    0.21198E+05        -0.54922E+05         0.00000E+00
    0.00000E+00         0.00000E+00        -0.19663E+05
 
   -0.61871E+04         0.17918E+05         0.00000E+00
    0.17918E+05        -0.50728E+05         0.00000E+00
    0.00000E+00         0.00000E+00        -0.17074E+05
 
   -0.32687E+04         0.14922E+05         0.00000E+00
    0.14922E+05        -0.46857E+05         0.00000E+00
    0.00000E+00         0.00000E+00        -0.15038E+05
 
   -0.14113E+04         0.12380E+05         0.00000E+00
    0.12380E+05        -0.43337E+05         0.00000E+00
    0.00000E+00         0.00000E+00        -0.13424E+05
 
   -0.26890E+03         0.10288E+05         0.00000E+00
    0.10288E+05        -0.40189E+05         0.00000E+00
    0.00000E+00         0.00000E+00        -0.12137E+05
 
    0.39331E+03         0.85882E+04         0.00000E+00
    0.85882E+04        -0.37409E+05         0.00000E+00
    0.00000E+00         0.00000E+00        -0.11105E+05
 
    0.72979E+03         0.72088E+04         0.00000E+00
    0.72088E+04        -0.34972E+05         0.00000E+00
    0.00000E+00         0.00000E+00        -0.10273E+05
 
    0.84026E+03         0.60866E+04         0.00000E+00
    0.60866E+04        -0.32844E+05         0.00000E+00
    0.00000E+00         0.00000E+00        -0.96011E+04
 
    0.78849E+03         0.51691E+04         0.00000E+00
    0.51691E+04        -0.30989E+05         0.00000E+00
    0.00000E+00         0.00000E+00        -0.90600E+04
 
    0.61470E+03         0.44149E+04         0.00000E+00
    0.44149E+04        -0.29370E+05         0.00000E+00
    0.00000E+00         0.00000E+00        -0.86267E+04
 
    0.34344E+03         0.37919E+04         0.00000E+00
    0.37919E+04        -0.27957E+05         0.00000E+00
    0.00000E+00         0.00000E+00        -0.82840E+04
 
   -0.11429E+02         0.32759E+04         0.00000E+00
    0.32759E+04        -0.26719E+05         0.00000E+00
    0.00000E+00         0.00000E+00        -0.80191E+04
 
   -0.44366E+03         0.28484E+04         0.00000E+00
    0.28484E+04        -0.25631E+05         0.00000E+00
    0.00000E+00         0.00000E+00        -0.78224E+04
 
   -0.95275E+03         0.24959E+04         0.00000E+00
    0.24959E+04        -0.24670E+05         0.00000E+00
    0.00000E+00         0.00000E+00        -0.76868E+04
 
   -0.15430E+04         0.22089E+04         0.00000E+00
    0.22089E+04        -0.23814E+05         0.00000E+00
    0.00000E+00         0.00000E+00        -0.76071E+04
 
   -0.22228E+04         0.19811E+04         0.00000E+00
    0.19811E+04        -0.23044E+05         0.00000E+00
    0.00000E+00         0.00000E+00        -0.75801E+04
 
   -0.30048E+04         0.18094E+04         0.00000E+00
    0.18094E+04        -0.22341E+05         0.00000E+00
    0.00000E+00         0.00000E+00        -0.76039E+04
 
   -0.39062E+04         0.16934E+04         0.00000E+00
    0.16934E+04        -0.21687E+05         0.00000E+00
    0.00000E+00         0.00000E+00        -0.76779E+04
 
   -0.49492E+04         0.16357E+04         0.00000E+00
    0.16357E+04        -0.21060E+05         0.00000E+00
    0.00000E+00         0.00000E+00        -0.78028E+04
 
   -0.61621E+04         0.16424E+04         0.00000E+00
    0.16424E+04        -0.20440E+05         0.00000E+00
    0.00000E+00         0.00000E+00        -0.79807E+04
 
   -0.75807E+04         0.17238E+04         0.00000E+00
    0.17238E+04        -0.19802E+05         0.00000E+00
    0.00000E+00         0.00000E+00        -0.82148E+04
 
   -0.22457E+05         0.17640E+05         0.00000E+00
    0.17640E+05        -0.25090E+05         0.00000E+00
    0.00000E+00         0.00000E+00        -0.14264E+05
 
   -0.25864E+05         0.25944E+05         0.00000E+00
    0.25944E+05        -0.33925E+05         0.00000E+00
    0.00000E+00         0.00000E+00        -0.17937E+05
 
   -0.19351E+05         0.25462E+05         0.00000E+00
    0.25462E+05        -0.37966E+05         0.00000E+00
    0.00000E+00         0.00000E+00        -0.17195E+05
 
   -0.13710E+05         0.23127E+05         0.00000E+00
    0.23127E+05        -0.39342E+05         0.00000E+00
    0.00000E+00         0.00000E+00        -0.15916E+05
 
   -0.92865E+04         0.20259E+05         0.00000E+00
    0.20259E+05        -0.39182E+05         0.00000E+00
    0.00000E+00         0.00000E+00        -0.14540E+05
 
   -0.60619E+04         0.17422E+05         0.00000E+00
    0.17422E+05        -0.38161E+05         0.00000E+00
    0.00000E+00         0.00000E+00        -0.13267E+05
 
   -0.38002E+04         0.14850E+05         0.00000E+00
    0.14850E+05        -0.36697E+05         0.00000E+00
    0.00000E+00         0.00000E+00        -0.12149E+05
 
   -0.22636E+04         0.12620E+05         0.00000E+00
    0.12620E+05        -0.35050E+05         0.00000E+00
    0.00000E+00         0.00000E+00        -0.11194E+05
 
   -0.12555E+04         0.10729E+05         0.00000E+00
    0.10729E+05        -0.33376E+05         0.00000E+00
    0.00000E+00         0.00000E+00        -0.10389E+05
 
   -0.62967E+03         0.91414E+04         0.00000E+00
    0.91414E+04        -0.31762E+05         0.00000E+00
    0.00000E+00         0.00000E+00        -0.97175E+04
 
   -0.28216E+03         0.78138E+04         0.00000E+00
    0.78138E+04        -0.30253E+05         0.00000E+00
    0.00000E+00         0.00000E+00        -0.91606E+04
 
   -0.14109E+03         0.67039E+04         0.00000E+00
    0.67039E+04        -0.28868E+05         0.00000E+00
    0.00000E+00         0.00000E+00        -0.87028E+04
 
   -0.15778E+03         0.57748E+04         0.00000E+00
    0.57748E+04        -0.27611E+05         0.00000E+00
    0.00000E+00         0.00000E+00        -0.83307E+04
 
   -0.30007E+03         0.49961E+04         0.00000E+00
    0.49961E+04        -0.26477E+05         0.00000E+00
    0.00000E+00         0.00000E+00        -0.80331E+04
 
   -0.54769E+03         0.43432E+04         0.00000E+00
    0.43432E+04        -0.25458E+05         0.00000E+00
    0.00000E+00         0.00000E+00        -0.78016E+04
 
   -0.88909E+03         0.37973E+04         0.00000E+00
    0.37973E+04        -0.24541E+05         0.00000E+00
    0.00000E+00         0.00000E+00        -0.76291E+04
 
   -0.13193E+04         0.33438E+04         0.00000E+00
    0.33438E+04        -0.23716E+05         0.00000E+00
    0.00000E+00         0.00000E+00        -0.75106E+04
 
   -0.18389E+04         0.29727E+04         0.00000E+00
    0.29727E+04        -0.22969E+05         0.00000E+00
    0.00000E+00         0.00000E+00        -0.74423E+04
 
   -0.24529E+04         0.26773E+04         0.00000E+00
    0.26773E+04        -0.22286E+05         0.00000E+00
    0.00000E+00         0.00000E+00        -0.74217E+04
 
   -0.31707E+04         0.24546E+04         0.00000E+00
    0.24546E+04        -0.21654E+05         0.00000E+00
    0.00000E+00         0.00000E+00        -0.74475E+04
 
   -0.40062E+04         0.23049E+04         0.00000E+00
    0.23049E+04        -0.21058E+05         0.00000E+00
    0.00000E+00         0.00000E+00        -0.75194E+04
 
   -0.49781E+04         0.22325E+04         0.00000E+00
    0.22325E+04        -0.20482E+05         0.00000E+00
    0.00000E+00         0.00000E+00        -0.76381E+04
 
   -0.61103E+04         0.22459E+04         0.00000E+00
    0.22459E+04        -0.19908E+05         0.00000E+00
    0.00000E+00         0.00000E+00        -0.78055E+04
 
   -0.74335E+04         0.23587E+04         0.00000E+00
    0.23587E+04        -0.19314E+05         0.00000E+00
    0.00000E+00         0.00000E+00        -0.80243E+04
 
   -0.54729E+04         0.32381E+04         0.00000E+00
    0.32381E+04        -0.64123E+03         0.00000E+00
    0.00000E+00         0.00000E+00        -0.18342E+04
 
   -0.20250E+05         0.15274E+05         0.00000E+00
    0.15274E+05        -0.11420E+05         0.00000E+00
    0.00000E+00         0.00000E+00        -0.95010E+04
 
   -0.19185E+05         0.20104E+05         0.00000E+00
    0.20104E+05        -0.19980E+05         0.00000E+00
    0.00000E+00         0.00000E+00        -0.11750E+05
 
   -0.15355E+05         0.20644E+05         0.00000E+00
    0.20644E+05        -0.25158E+05         0.00000E+00
    0.00000E+00         0.00000E+00        -0.12154E+05
 
   -0.11573E+05         0.19462E+05         0.00000E+00
    0.19462E+05        -0.27999E+05         0.00000E+00
    0.00000E+00         0.00000E+00        -0.11872E+05
 
   -0.84367E+04         0.17615E+05         0.00000E+00
    0.17615E+05        -0.29315E+05         0.00000E+00
    0.00000E+00         0.00000E+00        -0.11325E+05
 
   -0.60220E+04         0.15604E+05         0.00000E+00
    0.15604E+05        -0.29664E+05         0.00000E+00
    0.00000E+00         0.00000E+00        -0.10706E+05
 
   -0.42404E+04         0.13665E+05         0.00000E+00
    0.13665E+05        -0.29422E+05         0.00000E+00
    0.00000E+00         0.00000E+00        -0.10099E+05
 
   -0.29697E+04         0.11898E+05         0.00000E+00
    0.11898E+05        -0.28835E+05         0.00000E+00
    0.00000E+00         0.00000E+00        -0.95415E+04
 
   -0.20966E+04         0.10335E+05         0.00000E+00
    0.10335E+05        -0.28064E+05         0.00000E+00
    0.00000E+00         0.00000E+00        -0.90483E+04
 
   -0.15295E+04         0.89743E+04         0.00000E+00
    0.89743E+04        -0.27211E+05         0.00000E+00
    0.00000E+00         0.00000E+00        -0.86221E+04
 
   -0.11988E+04         0.78009E+04         0.00000E+00
    0.78009E+04        -0.26338E+05         0.00000E+00
    0.00000E+00         0.00000E+00        -0.82610E+04
 
   -0.10536E+04         0.67939E+04         0.00000E+00
    0.67939E+04        -0.25482E+05         0.00000E+00
    0.00000E+00         0.00000E+00        -0.79608E+04
 
   -0.10579E+04         0.59329E+04         0.00000E+00
    0.59329E+04        -0.24666E+05         0.00000E+00
    0.00000E+00         0.00000E+00        -0.77171E+04
 
   -0.11870E+04         0.51996E+04         0.00000E+00
    0.51996E+04        -0.23898E+05         0.00000E+00
    0.00000E+00         0.00000E+00        -0.75256E+04
 
   -0.14253E+04         0.45786E+04         0.00000E+00
    0.45786E+04        -0.23183E+05         0.00000E+00
    0.00000E+00         0.00000E+00        -0.73824E+04
 
   -0.17638E+04         0.40579E+04         0.00000E+00
    0.40579E+04        -0.22519E+05         0.00000E+00
    0.00000E+00         0.00000E+00        -0.72847E+04
 
   -0.21994E+04         0.36288E+04         0.00000E+00
    0.36288E+04        -0.21901E+05         0.00000E+00
    0.00000E+00         0.00000E+00        -0.72302E+04
 
   -0.27336E+04         0.32860E+04         0.00000E+00
    0.32860E+04        -0.21324E+05         0.00000E+00
    0.00000E+00         0.00000E+00        -0.72174E+04
 
   -0.33725E+04         0.30277E+04         0.00000E+00
    0.30277E+04        -0.20779E+05         0.00000E+00
    0.00000E+00         0.00000E+00        -0.72455E+04
 
   -0.41261E+04         0.28557E+04         0.00000E+00
    0.28557E+04        -0.20256E+05         0.00000E+00
    0.00000E+00         0.00000E+00        -0.73145E+04
 
   -0.50087E+04         0.27759E+04         0.00000E+00
    0.27759E+04        -0.19742E+05         0.00000E+00
    0.00000E+00         0.00000E+00        -0.74253E+04
 
   -0.60395E+04         0.27991E+04         0.00000E+00
    0.27991E+04        -0.19225E+05         0.00000E+00
    0.00000E+00         0.00000E+00        -0.75793E+04
 
   -0.72424E+04         0.29422E+04         0.00000E+00
    0.29422E+04        -0.18687E+05         0.00000E+00
    0.00000E+00         0.00000E+00        -0.77788E+04
 
    0.48349E+03         0.10065E+04         0.00000E+00
    0.10065E+04        -0.58769E+03         0.00000E+00
    0.00000E+00         0.00000E+00        -0.31258E+02
 
   -0.11757E+05         0.73085E+04         0.00000E+00
    0.73085E+04        -0.33812E+04         0.00000E+00
    0.00000E+00         0.00000E+00        -0.45414E+04
 
   -0.15764E+05         0.13257E+05         0.00000E+00
    0.13257E+05        -0.94797E+04         0.00000E+00
    0.00000E+00         0.00000E+00        -0.75730E+04
 
   -0.14785E+05         0.16060E+05         0.00000E+00
    0.16060E+05        -0.14942E+05         0.00000E+00
    0.00000E+00         0.00000E+00        -0.89181E+04
 
   -0.12401E+05         0.16680E+05         0.00000E+00
    0.16680E+05        -0.18915E+05         0.00000E+00
    0.00000E+00         0.00000E+00        -0.93948E+04
 
   -0.98842E+04         0.16111E+05         0.00000E+00
    0.16111E+05        -0.21533E+05         0.00000E+00
    0.00000E+00         0.00000E+00        -0.94250E+04
 
   -0.76752E+04         0.14962E+05         0.00000E+00
    0.14962E+05        -0.23107E+05         0.00000E+00
    0.00000E+00         0.00000E+00        -0.92346E+04
 
   -0.58872E+04         0.13584E+05         0.00000E+00
    0.13584E+05        -0.23933E+05         0.00000E+00
    0.00000E+00         0.00000E+00        -0.89461E+04
 
   -0.45086E+04         0.12167E+05         0.00000E+00
    0.12167E+05        -0.24245E+05         0.00000E+00
    0.00000E+00         0.00000E+00        -0.86261E+04
 
   -0.34866E+04         0.10813E+05         0.00000E+00
    0.10813E+05        -0.24215E+05         0.00000E+00
    0.00000E+00         0.00000E+00        -0.83105E+04
 
   -0.27606E+04         0.95666E+04         0.00000E+00
    0.95666E+04        -0.23966E+05         0.00000E+00
    0.00000E+00         0.00000E+00        -0.80180E+04
 
   -0.22764E+04         0.84456E+04         0.00000E+00
    0.84456E+04        -0.23584E+05         0.00000E+00
    0.00000E+00         0.00000E+00        -0.77581E+04
 
   -0.19894E+04         0.74521E+04         0.00000E+00
    0.74521E+04        -0.23126E+05         0.00000E+00
    0.00000E+00         0.00000E+00        -0.75347E+04
 
   -0.18654E+04         0.65809E+04         0.00000E+00
    0.65809E+04        -0.22632E+05         0.00000E+00
    0.00000E+00         0.00000E+00        -0.73492E+04
 
   -0.18791E+04         0.58239E+04         0.00000E+00
    0.58239E+04        -0.22126E+05         0.00000E+00
    0.00000E+00         0.00000E+00        -0.72014E+04
 
   -0.20128E+04         0.51728E+04         0.00000E+00
    0.51728E+04        -0.21623E+05         0.00000E+00
    0.00000E+00         0.00000E+00        -0.70906E+04
 
   -0.22551E+04         0.46204E+04         0.00000E+00
    0.46204E+04        -0.21131E+05         0.00000E+00
    0.00000E+00         0.00000E+00        -0.70160E+04
 
   -0.26002E+04         0.41615E+04         0.00000E+00
    0.41615E+04        -0.20656E+05         0.00000E+00
    0.00000E+00         0.00000E+00        -0.69767E+04
 
   -0.30464E+04         0.37935E+04         0.00000E+00
    0.37935E+04        -0.20195E+05         0.00000E+00
    0.00000E+00         0.00000E+00        -0.69724E+04
 
   -0.35962E+04         0.35166E+04         0.00000E+00
    0.35166E+04        -0.19746E+05         0.00000E+00
    0.00000E+00         0.00000E+00        -0.70028E+04
 
   -0.42560E+04         0.33346E+04         0.00000E+00
    0.33346E+04        -0.19305E+05         0.00000E+00
    0.00000E+00         0.00000E+00        -0.70683E+04
 
   -0.50356E+04         0.32555E+04         0.00000E+00
    0.32555E+04        -0.18863E+05         0.00000E+00
    0.00000E+00         0.00000E+00        -0.71695E+04
 
   -0.59484E+04         0.32921E+04         0.00000E+00
    0.32921E+04        -0.18411E+05         0.00000E+00
    0.00000E+00         0.00000E+00        -0.73079E+04
 
   -0.70118E+04         0.34638E+04         0.00000E+00
    0.34638E+04        -0.17938E+05         0.00000E+00
    0.00000E+00         0.00000E+00        -0.74850E+04
 
    0.32281E+04         0.38100E+03         0.00000E+00
    0.38100E+03        -0.78819E+02         0.00000E+00
    0.00000E+00         0.00000E+00         0.94478E+03
 
   -0.63738E+04         0.38495E+04         0.00000E+00
    0.38495E+04        -0.14772E+04         0.00000E+00
    0.00000E+00         0.00000E+00        -0.23553E+04
 
   -0.11415E+05         0.82619E+04         0.00000E+00
    0.82619E+04        -0.46528E+04         0.00000E+00
    0.00000E+00         0.00000E+00        -0.48203E+04
 
   -0.12696E+05         0.11567E+05         0.00000E+00
    0.11567E+05        -0.87216E+04         0.00000E+00
    0.00000E+00         0.00000E+00        -0.64252E+04
 
   -0.11889E+05         0.13263E+05         0.00000E+00
    0.13263E+05        -0.12441E+05         0.00000E+00
    0.00000E+00         0.00000E+00        -0.72991E+04
 
   -0.10311E+05         0.13734E+05         0.00000E+00
    0.13734E+05        -0.15390E+05         0.00000E+00
    0.00000E+00         0.00000E+00        -0.77103E+04
 
   -0.85983E+04         0.13429E+05         0.00000E+00
    0.13429E+05        -0.17543E+05         0.00000E+00
    0.00000E+00         0.00000E+00        -0.78425E+04
 
   -0.70324E+04         0.12684E+05         0.00000E+00
    0.12684E+05        -0.19016E+05         0.00000E+00
    0.00000E+00         0.00000E+00        -0.78145E+04
 
   -0.57149E+04         0.11723E+05         0.00000E+00
    0.11723E+05        -0.19953E+05         0.00000E+00
    0.00000E+00         0.00000E+00        -0.77004E+04
 
   -0.46640E+04         0.10685E+05         0.00000E+00
    0.10685E+05        -0.20490E+05         0.00000E+00
    0.00000E+00         0.00000E+00        -0.75462E+04
 
   -0.38626E+04         0.96526E+04         0.00000E+00
    0.96526E+04        -0.20736E+05         0.00000E+00
    0.00000E+00         0.00000E+00        -0.73796E+04
 
   -0.32815E+04         0.86711E+04         0.00000E+00
    0.86711E+04        -0.20777E+05         0.00000E+00
    0.00000E+00         0.00000E+00        -0.72177E+04
 
   -0.28904E+04         0.77649E+04         0.00000E+00
    0.77649E+04        -0.20677E+05         0.00000E+00
    0.00000E+00         0.00000E+00        -0.70703E+04
 
   -0.26624E+04         0.69449E+04         0.00000E+00
    0.69449E+04        -0.20482E+05         0.00000E+00
    0.00000E+00         0.00000E+00        -0.69433E+04
 
   -0.25754E+04         0.62150E+04         0.00000E+00
    0.62150E+04        -0.20225E+05         0.00000E+00
    0.00000E+00         0.00000E+00        -0.68402E+04
 
   -0.26126E+04         0.55754E+04         0.00000E+00
    0.55754E+04        -0.19930E+05         0.00000E+00
    0.00000E+00         0.00000E+00        -0.67627E+04
 
   -0.27622E+04         0.50252E+04         0.00000E+00
    0.50252E+04        -0.19611E+05         0.00000E+00
    0.00000E+00         0.00000E+00        -0.67120E+04
 
   -0.30164E+04         0.45640E+04         0.00000E+00
    0.45640E+04        -0.19279E+05         0.00000E+00
    0.00000E+00         0.00000E+00        -0.66885E+04
 
   -0.33715E+04         0.41926E+04         0.00000E+00
    0.41926E+04        -0.18938E+05         0.00000E+00
    0.00000E+00         0.00000E+00        -0.66928E+04
 
   -0.38270E+04         0.39142E+04         0.00000E+00
    0.39142E+04        -0.18590E+05         0.00000E+00
    0.00000E+00         0.00000E+00        -0.67252E+04
 
   -0.43857E+04         0.37347E+04         0.00000E+00
    0.37347E+04        -0.18236E+05         0.00000E+00
    0.00000E+00         0.00000E+00        -0.67864E+04
 
   -0.50528E+04         0.36643E+04         0.00000E+00
    0.36643E+04        -0.17870E+05         0.00000E+00
    0.00000E+00         0.00000E+00        -0.68770E+04
 
   -0.58363E+04         0.37176E+04         0.00000E+00
    0.37176E+04        -0.17490E+05         0.00000E+00
    0.00000E+00         0.00000E+00        -0.69979E+04
 
   -0.67464E+04         0.39159E+04         0.00000E+00
    0.39159E+04        -0.17088E+05         0.00000E+00
    0.00000E+00         0.00000E+00        -0.71503E+04
 
    0.45669E+04         0.14594E+03         0.00000E+00
    0.14594E+03        -0.52071E+02         0.00000E+00
    0.00000E+00         0.00000E+00         0.13545E+04
 
   -0.29309E+04         0.21453E+04         0.00000E+00
    0.21453E+04        -0.70813E+03         0.00000E+00
    0.00000E+00         0.00000E+00        -0.10917E+04
 
   -0.78677E+04         0.52211E+04         0.00000E+00
    0.52211E+04        -0.25444E+04         0.00000E+00
    0.00000E+00         0.00000E+00        -0.31236E+04
 
   -0.10168E+05         0.80895E+04         0.00000E+00
    0.80895E+04        -0.52415E+04         0.00000E+00
    0.00000E+00         0.00000E+00        -0.46230E+04
 
   -0.10582E+05         0.10099E+05         0.00000E+00
    0.10099E+05        -0.81899E+04         0.00000E+00
    0.00000E+00         0.00000E+00        -0.56315E+04
 
   -0.99391E+04         0.11170E+05         0.00000E+00
    0.11170E+05        -0.10892E+05         0.00000E+00
    0.00000E+00         0.00000E+00        -0.62492E+04
 
   -0.88464E+04         0.11495E+05         0.00000E+00
    0.11495E+05        -0.13134E+05         0.00000E+00
    0.00000E+00         0.00000E+00        -0.65941E+04
 
   -0.76499E+04         0.11305E+05         0.00000E+00
    0.11305E+05        -0.14878E+05         0.00000E+00
    0.00000E+00         0.00000E+00        -0.67584E+04
 
   -0.65270E+04         0.10795E+05         0.00000E+00
    0.10795E+05        -0.16168E+05         0.00000E+00
    0.00000E+00         0.00000E+00        -0.68086E+04
 
   -0.55561E+04         0.10106E+05         0.00000E+00
    0.10106E+05        -0.17078E+05         0.00000E+00
    0.00000E+00         0.00000E+00        -0.67902E+04
 
   -0.47634E+04         0.93341E+04         0.00000E+00
    0.93341E+04        -0.17684E+05         0.00000E+00
    0.00000E+00         0.00000E+00        -0.67342E+04
 
   -0.41482E+04         0.85438E+04         0.00000E+00
    0.85438E+04        -0.18055E+05         0.00000E+00
    0.00000E+00         0.00000E+00        -0.66611E+04
 
   -0.36987E+04         0.77747E+04         0.00000E+00
    0.77747E+04        -0.18249E+05         0.00000E+00
    0.00000E+00         0.00000E+00        -0.65844E+04
 
   -0.33992E+04         0.70514E+04         0.00000E+00
    0.70514E+04        -0.18311E+05         0.00000E+00
    0.00000E+00         0.00000E+00        -0.65131E+04
 
   -0.32341E+04         0.63885E+04         0.00000E+00
    0.63885E+04        -0.18276E+05         0.00000E+00
    0.00000E+00         0.00000E+00        -0.64530E+04
 
   -0.31899E+04         0.57950E+04         0.00000E+00
    0.57950E+04        -0.18170E+05         0.00000E+00
    0.00000E+00         0.00000E+00        -0.64080E+04
 
   -0.32561E+04         0.52763E+04         0.00000E+00
    0.52763E+04        -0.18013E+05         0.00000E+00
    0.00000E+00         0.00000E+00        -0.63806E+04
 
   -0.34246E+04         0.48372E+04         0.00000E+00
    0.48372E+04        -0.17817E+05         0.00000E+00
    0.00000E+00         0.00000E+00        -0.63726E+04
 
   -0.36904E+04         0.44824E+04         0.00000E+00
    0.44824E+04        -0.17593E+05         0.00000E+00
    0.00000E+00         0.00000E+00        -0.63850E+04
 
   -0.40507E+04         0.42181E+04         0.00000E+00
    0.42181E+04        -0.17346E+05         0.00000E+00
    0.00000E+00         0.00000E+00        -0.64190E+04
 
   -0.45051E+04         0.40527E+04         0.00000E+00
    0.40527E+04        -0.17079E+05         0.00000E+00
    0.00000E+00         0.00000E+00        -0.64751E+04
 
   -0.50549E+04         0.39983E+04         0.00000E+00
    0.39983E+04        -0.16792E+05         0.00000E+00
    0.00000E+00         0.00000E+00        -0.65541E+04
 
   -0.57026E+04         0.40712E+04         0.00000E+00
    0.40712E+04        -0.16486E+05         0.00000E+00
    0.00000E+00         0.00000E+00        -0.66565E+04
 
   -0.64517E+04         0.42934E+04         0.00000E+00
    0.42934E+04        -0.16158E+05         0.00000E+00
    0.00000E+00         0.00000E+00        -0.67828E+04
 
    0.52585E+04         0.27342E+02         0.00000E+00
    0.27342E+02        -0.24802E+02         0.00000E+00
    0.00000E+00         0.00000E+00         0.15701E+04
 
   -0.73847E+03         0.12238E+04         0.00000E+00
    0.12238E+04        -0.40043E+03         0.00000E+00
    0.00000E+00         0.00000E+00        -0.34167E+03
 
   -0.51908E+04         0.33417E+04         0.00000E+00
    0.33417E+04        -0.15001E+04         0.00000E+00
    0.00000E+00         0.00000E+00        -0.20073E+04
 
   -0.78533E+04         0.56212E+04         0.00000E+00
    0.56212E+04        -0.33012E+04         0.00000E+00
    0.00000E+00         0.00000E+00        -0.33463E+04
 
   -0.89950E+04         0.75193E+04         0.00000E+00
    0.75193E+04        -0.54927E+04         0.00000E+00
    0.00000E+00         0.00000E+00        -0.43463E+04
 
   -0.90935E+04         0.88149E+04         0.00000E+00
    0.88149E+04        -0.77363E+04         0.00000E+00
    0.00000E+00         0.00000E+00        -0.50489E+04
 
   -0.85924E+04         0.95157E+04         0.00000E+00
    0.95157E+04        -0.97929E+04         0.00000E+00
    0.00000E+00         0.00000E+00        -0.55156E+04
 
   -0.78144E+04         0.97335E+04         0.00000E+00
    0.97335E+04        -0.11548E+05         0.00000E+00
    0.00000E+00         0.00000E+00        -0.58086E+04
 
   -0.69613E+04         0.96006E+04         0.00000E+00
    0.96006E+04        -0.12971E+05         0.00000E+00
    0.00000E+00         0.00000E+00        -0.59796E+04
 
   -0.61478E+04         0.92343E+04         0.00000E+00
    0.92343E+04        -0.14079E+05         0.00000E+00
    0.00000E+00         0.00000E+00        -0.60681E+04
 
   -0.54322E+04         0.87268E+04         0.00000E+00
    0.87268E+04        -0.14912E+05         0.00000E+00
    0.00000E+00         0.00000E+00        -0.61034E+04
 
   -0.48398E+04         0.81458E+04         0.00000E+00
    0.81458E+04        -0.15515E+05         0.00000E+00
    0.00000E+00         0.00000E+00        -0.61064E+04
 
   -0.43769E+04         0.75393E+04         0.00000E+00
    0.75393E+04        -0.15930E+05         0.00000E+00
    0.00000E+00         0.00000E+00        -0.60921E+04
 
   -0.40404E+04         0.69405E+04         0.00000E+00
    0.69405E+04        -0.16196E+05         0.00000E+00
    0.00000E+00         0.00000E+00        -0.60709E+04
 
   -0.38232E+04         0.63723E+04         0.00000E+00
    0.63723E+04        -0.16345E+05         0.00000E+00
    0.00000E+00         0.00000E+00        -0.60503E+04
 
   -0.37166E+04         0.58502E+04         0.00000E+00
    0.58502E+04        -0.16401E+05         0.00000E+00
    0.00000E+00         0.00000E+00        -0.60354E+04
 
   -0.37127E+04         0.53860E+04         0.00000E+00
    0.53860E+04        -0.16386E+05         0.00000E+00
    0.00000E+00         0.00000E+00        -0.60297E+04
 
   -0.38045E+04         0.49888E+04         0.00000E+00
    0.49888E+04        -0.16315E+05         0.00000E+00
    0.00000E+00         0.00000E+00        -0.60360E+04
 
   -0.39865E+04         0.46672E+04         0.00000E+00
    0.46672E+04        -0.16199E+05         0.00000E+00
    0.00000E+00         0.00000E+00        -0.60558E+04
 
   -0.42546E+04         0.44303E+04         0.00000E+00
    0.44303E+04        -0.16047E+05         0.00000E+00
    0.00000E+00         0.00000E+00        -0.60905E+04
 
   -0.46056E+04         0.42890E+04         0.00000E+00
    0.42890E+04        -0.15865E+05         0.00000E+00
    0.00000E+00         0.00000E+00        -0.61410E+04
 
   -0.50373E+04         0.42568E+04         0.00000E+00
    0.42568E+04        -0.15655E+05         0.00000E+00
    0.00000E+00         0.00000E+00        -0.62078E+04
 
   -0.55475E+04         0.43511E+04         0.00000E+00
    0.43511E+04        -0.15423E+05         0.00000E+00
    0.00000E+00         0.00000E+00        -0.62911E+04
 
   -0.61335E+04         0.45944E+04         0.00000E+00
    0.45944E+04        -0.15170E+05         0.00000E+00
    0.00000E+00         0.00000E+00        -0.63910E+04
 
    0.55916E+04        -0.42965E+02         0.00000E+00
   -0.42965E+02        -0.16511E+02         0.00000E+00
    0.00000E+00         0.00000E+00         0.16725E+04
 
    0.68875E+03         0.67650E+03         0.00000E+00
    0.67650E+03        -0.24594E+03         0.00000E+00
    0.00000E+00         0.00000E+00         0.13285E+03
 
   -0.32320E+04         0.21408E+04         0.00000E+00
    0.21408E+04        -0.94805E+03         0.00000E+00
    0.00000E+00         0.00000E+00        -0.12540E+04
 
   -0.59202E+04         0.38902E+04         0.00000E+00
    0.38902E+04        -0.21706E+04         0.00000E+00
    0.00000E+00         0.00000E+00        -0.24272E+04
 
   -0.74420E+04         0.55283E+04         0.00000E+00
    0.55283E+04        -0.37781E+04         0.00000E+00
    0.00000E+00         0.00000E+00        -0.33660E+04
 
   -0.80466E+04         0.68213E+04         0.00000E+00
    0.68213E+04        -0.55591E+04         0.00000E+00
    0.00000E+00         0.00000E+00        -0.40817E+04
 
   -0.80288E+04         0.76921E+04         0.00000E+00
    0.76921E+04        -0.73233E+04         0.00000E+00
    0.00000E+00         0.00000E+00        -0.46056E+04
 
   -0.76441E+04         0.81648E+04         0.00000E+00
    0.81648E+04        -0.89417E+04         0.00000E+00
    0.00000E+00         0.00000E+00        -0.49758E+04
 
   -0.70811E+04         0.83104E+04         0.00000E+00
    0.83104E+04        -0.10348E+05         0.00000E+00
    0.00000E+00         0.00000E+00        -0.52288E+04
 
   -0.64649E+04         0.82105E+04         0.00000E+00
    0.82105E+04        -0.11522E+05         0.00000E+00
    0.00000E+00         0.00000E+00        -0.53960E+04
 
   -0.58720E+04         0.79400E+04         0.00000E+00
    0.79400E+04        -0.12470E+05         0.00000E+00
    0.00000E+00         0.00000E+00        -0.55025E+04
 
   -0.53456E+04         0.75610E+04         0.00000E+00
    0.75610E+04        -0.13212E+05         0.00000E+00
    0.00000E+00         0.00000E+00        -0.55674E+04
 
   -0.49072E+04         0.71220E+04         0.00000E+00
    0.71220E+04        -0.13778E+05         0.00000E+00
    0.00000E+00         0.00000E+00        -0.56054E+04
 
   -0.45655E+04         0.66594E+04         0.00000E+00
    0.66594E+04        -0.14193E+05         0.00000E+00
    0.00000E+00         0.00000E+00        -0.56274E+04
 
   -0.43215E+04         0.62007E+04         0.00000E+00
    0.62007E+04        -0.14483E+05         0.00000E+00
    0.00000E+00         0.00000E+00        -0.56413E+04
 
   -0.41724E+04         0.57663E+04         0.00000E+00
    0.57663E+04        -0.14671E+05         0.00000E+00
    0.00000E+00         0.00000E+00        -0.56530E+04
 
   -0.41137E+04         0.53722E+04         0.00000E+00
    0.53722E+04        -0.14775E+05         0.00000E+00
    0.00000E+00         0.00000E+00        -0.56667E+04
 
   -0.41402E+04         0.50313E+04         0.00000E+00
    0.50313E+04        -0.14811E+05         0.00000E+00
    0.00000E+00         0.00000E+00        -0.56855E+04
 
   -0.42467E+04         0.47556E+04         0.00000E+00
    0.47556E+04        -0.14792E+05         0.00000E+00
    0.00000E+00         0.00000E+00        -0.57115E+04
 
   -0.44282E+04         0.45566E+04         0.00000E+00
    0.45566E+04        -0.14726E+05         0.00000E+00
    0.00000E+00         0.00000E+00        -0.57462E+04
 
   -0.46799E+04         0.44470E+04         0.00000E+00
    0.44470E+04        -0.14622E+05         0.00000E+00
    0.00000E+00         0.00000E+00        -0.57905E+04
 
   -0.49964E+04         0.44416E+04         0.00000E+00
    0.44416E+04        -0.14487E+05         0.00000E+00
    0.00000E+00         0.00000E+00        -0.58449E+04
 
   -0.53716E+04         0.45583E+04         0.00000E+00
    0.45583E+04        -0.14326E+05         0.00000E+00
    0.00000E+00         0.00000E+00        -0.59091E+04
 
   -0.57975E+04         0.48192E+04         0.00000E+00
    0.48192E+04        -0.14145E+05         0.00000E+00
    0.00000E+00         0.00000E+00        -0.59828E+04
 
    0.57083E+04        -0.88766E+02         0.00000E+00
   -0.88766E+02        -0.11153E+02         0.00000E+00
    0.00000E+00         0.00000E+00         0.17091E+04
 
    0.16225E+04         0.32784E+03         0.00000E+00
    0.32784E+03        -0.16179E+03         0.00000E+00
    0.00000E+00         0.00000E+00         0.43821E+03
 
   -0.18083E+04         0.13418E+04         0.00000E+00
    0.13418E+04        -0.63066E+03         0.00000E+00
    0.00000E+00         0.00000E+00        -0.73169E+03
 
   -0.43736E+04         0.26656E+04         0.00000E+00
    0.26656E+04        -0.14827E+04         0.00000E+00
    0.00000E+00         0.00000E+00        -0.17569E+04
 
   -0.60552E+04         0.40190E+04         0.00000E+00
    0.40190E+04        -0.26645E+04         0.00000E+00
    0.00000E+00         0.00000E+00        -0.26159E+04
 
   -0.69736E+04         0.52009E+04         0.00000E+00
    0.52009E+04        -0.40536E+04         0.00000E+00
    0.00000E+00         0.00000E+00        -0.33082E+04
 
   -0.73123E+04         0.61069E+04         0.00000E+00
    0.61069E+04        -0.55142E+04         0.00000E+00
    0.00000E+00         0.00000E+00        -0.38480E+04
 
   -0.72576E+04         0.67121E+04         0.00000E+00
    0.67121E+04        -0.69341E+04         0.00000E+00
    0.00000E+00         0.00000E+00        -0.42575E+04
 
   -0.69661E+04         0.70409E+04         0.00000E+00
    0.70409E+04        -0.82383E+04         0.00000E+00
    0.00000E+00         0.00000E+00        -0.45613E+04
 
   -0.65555E+04         0.71407E+04         0.00000E+00
    0.71407E+04        -0.93861E+04         0.00000E+00
    0.00000E+00         0.00000E+00        -0.47825E+04
 
   -0.61074E+04         0.70652E+04         0.00000E+00
    0.70652E+04        -0.10363E+05         0.00000E+00
    0.00000E+00         0.00000E+00        -0.49412E+04
 
   -0.56743E+04         0.68649E+04         0.00000E+00
    0.68649E+04        -0.11172E+05         0.00000E+00
    0.00000E+00         0.00000E+00        -0.50539E+04
 
   -0.52882E+04         0.65830E+04         0.00000E+00
    0.65830E+04        -0.11824E+05         0.00000E+00
    0.00000E+00         0.00000E+00        -0.51338E+04
 
   -0.49667E+04         0.62554E+04         0.00000E+00
    0.62554E+04        -0.12337E+05         0.00000E+00
    0.00000E+00         0.00000E+00        -0.51912E+04
 
   -0.47182E+04         0.59105E+04         0.00000E+00
    0.59105E+04        -0.12728E+05         0.00000E+00
    0.00000E+00         0.00000E+00        -0.52340E+04
 
   -0.45453E+04         0.55712E+04         0.00000E+00
    0.55712E+04        -0.13015E+05         0.00000E+00
    0.00000E+00         0.00000E+00        -0.52682E+04
 
   -0.44471E+04         0.52560E+04         0.00000E+00
    0.52560E+04        -0.13214E+05         0.00000E+00
    0.00000E+00         0.00000E+00        -0.52983E+04
 
   -0.44204E+04         0.49806E+04         0.00000E+00
    0.49806E+04        -0.13338E+05         0.00000E+00
    0.00000E+00         0.00000E+00        -0.53276E+04
 
   -0.44612E+04         0.47591E+04         0.00000E+00
    0.47591E+04        -0.13400E+05         0.00000E+00
    0.00000E+00         0.00000E+00        -0.53583E+04
 
   -0.45640E+04         0.46050E+04         0.00000E+00
    0.46050E+04        -0.13410E+05         0.00000E+00
    0.00000E+00         0.00000E+00        -0.53921E+04
 
   -0.47228E+04         0.45324E+04         0.00000E+00
    0.45324E+04        -0.13377E+05         0.00000E+00
    0.00000E+00         0.00000E+00        -0.54299E+04
 
   -0.49301E+04         0.45567E+04         0.00000E+00
    0.45567E+04        -0.13309E+05         0.00000E+00
    0.00000E+00         0.00000E+00        -0.54718E+04
 
   -0.51764E+04         0.46958E+04         0.00000E+00
    0.46958E+04        -0.13215E+05         0.00000E+00
    0.00000E+00         0.00000E+00        -0.55175E+04
 
   -0.54495E+04         0.49708E+04         0.00000E+00
    0.49708E+04        -0.13104E+05         0.00000E+00
    0.00000E+00         0.00000E+00        -0.55662E+04
 
    0.56842E+04        -0.12027E+03         0.00000E+00
   -0.12027E+03        -0.79328E+01         0.00000E+00
    0.00000E+00         0.00000E+00         0.17029E+04
 
    0.22266E+04         0.93866E+02         0.00000E+00
    0.93866E+02        -0.11111E+03         0.00000E+00
    0.00000E+00         0.00000E+00         0.63463E+03
 
   -0.77774E+03         0.79121E+03         0.00000E+00
    0.79121E+03        -0.43617E+03         0.00000E+00
    0.00000E+00         0.00000E+00        -0.36417E+03
 
   -0.31607E+04         0.17849E+04         0.00000E+00
    0.17849E+04        -0.10442E+04         0.00000E+00
    0.00000E+00         0.00000E+00        -0.12615E+04
 
   -0.48738E+04         0.28777E+04         0.00000E+00
    0.28777E+04        -0.19213E+04         0.00000E+00
    0.00000E+00         0.00000E+00        -0.20385E+04
 
   -0.59673E+04         0.39084E+04         0.00000E+00
    0.39084E+04        -0.29991E+04         0.00000E+00
    0.00000E+00         0.00000E+00        -0.26899E+04
 
   -0.65502E+04         0.47736E+04         0.00000E+00
    0.47736E+04        -0.41865E+04         0.00000E+00
    0.00000E+00         0.00000E+00        -0.32210E+04
 
   -0.67513E+04         0.54259E+04         0.00000E+00
    0.54259E+04        -0.53958E+04         0.00000E+00
    0.00000E+00         0.00000E+00        -0.36441E+04
 
   -0.66923E+04         0.58603E+04         0.00000E+00
    0.58603E+04        -0.65578E+04         0.00000E+00
    0.00000E+00         0.00000E+00        -0.39750E+04
 
   -0.64741E+04         0.60976E+04         0.00000E+00
    0.60976E+04        -0.76260E+04         0.00000E+00
    0.00000E+00         0.00000E+00        -0.42300E+04
 
   -0.61739E+04         0.61714E+04         0.00000E+00
    0.61714E+04        -0.85745E+04         0.00000E+00
    0.00000E+00         0.00000E+00        -0.44245E+04
 
   -0.58468E+04         0.61186E+04         0.00000E+00
    0.61186E+04        -0.93931E+04         0.00000E+00
    0.00000E+00         0.00000E+00        -0.45720E+04
 
   -0.55299E+04         0.59749E+04         0.00000E+00
    0.59749E+04        -0.10082E+05         0.00000E+00
    0.00000E+00         0.00000E+00        -0.46836E+04
 
   -0.52468E+04         0.57719E+04         0.00000E+00
    0.57719E+04        -0.10649E+05         0.00000E+00
    0.00000E+00         0.00000E+00        -0.47687E+04
 
   -0.50112E+04         0.55370E+04         0.00000E+00
    0.55370E+04        -0.11104E+05         0.00000E+00
    0.00000E+00         0.00000E+00        -0.48346E+04
 
   -0.48303E+04         0.52930E+04         0.00000E+00
    0.52930E+04        -0.11460E+05         0.00000E+00
    0.00000E+00         0.00000E+00        -0.48870E+04
 
   -0.47064E+04         0.50596E+04         0.00000E+00
    0.50596E+04        -0.11728E+05         0.00000E+00
    0.00000E+00         0.00000E+00        -0.49303E+04
 
   -0.46387E+04         0.48537E+04         0.00000E+00
    0.48537E+04        -0.11921E+05         0.00000E+00
    0.00000E+00         0.00000E+00        -0.49678E+04
 
   -0.46239E+04         0.46908E+04         0.00000E+00
    0.46908E+04        -0.12049E+05         0.00000E+00
    0.00000E+00         0.00000E+00        -0.50019E+04
 
   -0.46571E+04         0.45855E+04         0.00000E+00
    0.45855E+04        -0.12123E+05         0.00000E+00
    0.00000E+00         0.00000E+00        -0.50339E+04
 
   -0.47313E+04         0.45526E+04         0.00000E+00
    0.45526E+04        -0.12151E+05         0.00000E+00
    0.00000E+00         0.00000E+00        -0.50648E+04
 
   -0.48375E+04         0.46078E+04         0.00000E+00
    0.46078E+04        -0.12144E+05         0.00000E+00
    0.00000E+00         0.00000E+00        -0.50946E+04
 
   -0.49639E+04         0.47682E+04         0.00000E+00
    0.47682E+04        -0.12112E+05         0.00000E+00
    0.00000E+00         0.00000E+00        -0.51227E+04
 
   -0.50950E+04         0.50535E+04         0.00000E+00
    0.50535E+04        -0.12065E+05         0.00000E+00
    0.00000E+00         0.00000E+00        -0.51479E+04
 
    0.55641E+04        -0.14254E+03         0.00000E+00
   -0.14254E+03        -0.56653E+01         0.00000E+00
    0.00000E+00         0.00000E+00         0.16675E+04
 
    0.26022E+04        -0.68971E+02         0.00000E+00
   -0.68971E+02        -0.78385E+02         0.00000E+00
    0.00000E+00         0.00000E+00         0.75714E+03
 
   -0.36790E+02         0.40077E+03         0.00000E+00
    0.40077E+03        -0.30986E+03         0.00000E+00
    0.00000E+00         0.00000E+00        -0.10399E+03
 
   -0.22207E+04         0.11409E+04         0.00000E+00
    0.11409E+04        -0.75255E+03         0.00000E+00
    0.00000E+00         0.00000E+00        -0.89198E+03
 
   -0.38936E+04         0.20109E+04         0.00000E+00
    0.20109E+04        -0.14104E+04         0.00000E+00
    0.00000E+00         0.00000E+00        -0.15912E+04
 
   -0.50685E+04         0.28855E+04         0.00000E+00
    0.28855E+04        -0.22472E+04         0.00000E+00
    0.00000E+00         0.00000E+00        -0.21947E+04
 
   -0.58070E+04         0.36727E+04         0.00000E+00
    0.36727E+04        -0.32037E+04         0.00000E+00
    0.00000E+00         0.00000E+00        -0.27032E+04
 
   -0.61949E+04         0.43186E+04         0.00000E+00
    0.43186E+04        -0.42154E+04         0.00000E+00
    0.00000E+00         0.00000E+00        -0.31231E+04
 
   -0.63224E+04         0.48018E+04         0.00000E+00
    0.48018E+04        -0.52243E+04         0.00000E+00
    0.00000E+00         0.00000E+00        -0.34640E+04
 
   -0.62714E+04         0.51251E+04         0.00000E+00
    0.51251E+04        -0.61861E+04         0.00000E+00
    0.00000E+00         0.00000E+00        -0.37373E+04
 
   -0.61096E+04         0.53057E+04         0.00000E+00
    0.53057E+04        -0.70706E+04         0.00000E+00
    0.00000E+00         0.00000E+00        -0.39541E+04
 
   -0.58895E+04         0.53682E+04         0.00000E+00
    0.53682E+04        -0.78605E+04         0.00000E+00
    0.00000E+00         0.00000E+00        -0.41250E+04
 
   -0.56493E+04         0.53395E+04         0.00000E+00
    0.53395E+04        -0.85485E+04         0.00000E+00
    0.00000E+00         0.00000E+00        -0.42593E+04
 
   -0.54154E+04         0.52459E+04         0.00000E+00
    0.52459E+04        -0.91343E+04         0.00000E+00
    0.00000E+00         0.00000E+00        -0.43649E+04
 
   -0.52050E+04         0.51114E+04         0.00000E+00
    0.51114E+04        -0.96224E+04         0.00000E+00
    0.00000E+00         0.00000E+00        -0.44482E+04
 
   -0.50283E+04         0.49578E+04         0.00000E+00
    0.49578E+04        -0.10020E+05         0.00000E+00
    0.00000E+00         0.00000E+00        -0.45145E+04
 
   -0.48905E+04         0.48042E+04         0.00000E+00
    0.48042E+04        -0.10336E+05         0.00000E+00
    0.00000E+00         0.00000E+00        -0.45678E+04
 
   -0.47926E+04         0.46677E+04         0.00000E+00
    0.46677E+04        -0.10578E+05         0.00000E+00
    0.00000E+00         0.00000E+00        -0.46113E+04
 
   -0.47324E+04         0.45643E+04         0.00000E+00
    0.45643E+04        -0.10758E+05         0.00000E+00
    0.00000E+00         0.00000E+00        -0.46471E+04
 
   -0.47055E+04         0.45089E+04         0.00000E+00
    0.45089E+04        -0.10883E+05         0.00000E+00
    0.00000E+00         0.00000E+00        -0.46766E+04
 
   -0.47044E+04         0.45162E+04         0.00000E+00
    0.45162E+04        -0.10964E+05         0.00000E+00
    0.00000E+00         0.00000E+00        -0.47005E+04
 
   -0.47193E+04         0.46017E+04         0.00000E+00
    0.46017E+04        -0.11010E+05         0.00000E+00
    0.00000E+00         0.00000E+00        -0.47188E+04
 
   -0.47367E+04         0.47816E+04         0.00000E+00
    0.47816E+04        -0.11032E+05         0.00000E+00
    0.00000E+00         0.00000E+00        -0.47306E+04
 
   -0.47391E+04         0.50735E+04         0.00000E+00
    0.50735E+04        -0.11042E+05         0.00000E+00
    0.00000E+00         0.00000E+00        -0.47344E+04
 
    0.53767E+04        -0.15836E+03         0.00000E+00
   -0.15836E+03        -0.39766E+01         0.00000E+00
    0.00000E+00         0.00000E+00         0.16118E+04
 
    0.28151E+04        -0.18495E+03         0.00000E+00
   -0.18495E+03        -0.55905E+02         0.00000E+00
    0.00000E+00         0.00000E+00         0.82777E+03
 
    0.48856E+03         0.11804E+03         0.00000E+00
    0.11804E+03        -0.22366E+03         0.00000E+00
    0.00000E+00         0.00000E+00         0.79470E+02
 
   -0.14991E+04         0.66310E+03         0.00000E+00
    0.66310E+03        -0.55078E+03         0.00000E+00
    0.00000E+00         0.00000E+00        -0.61496E+03
 
   -0.30935E+04         0.13485E+04         0.00000E+00
    0.13485E+04        -0.10488E+04         0.00000E+00
    0.00000E+00         0.00000E+00        -0.12427E+04
 
   -0.42888E+04         0.20777E+04         0.00000E+00
    0.20777E+04        -0.17001E+04         0.00000E+00
    0.00000E+00         0.00000E+00        -0.17967E+04
 
   -0.51172E+04         0.27732E+04         0.00000E+00
    0.27732E+04        -0.24673E+04         0.00000E+00
    0.00000E+00         0.00000E+00        -0.22754E+04
 
   -0.56339E+04         0.33820E+04         0.00000E+00
    0.33820E+04        -0.33043E+04         0.00000E+00
    0.00000E+00         0.00000E+00        -0.26814E+04
 
   -0.59035E+04         0.38758E+04         0.00000E+00
    0.38758E+04        -0.41654E+04         0.00000E+00
    0.00000E+00         0.00000E+00        -0.30207E+04
 
   -0.59900E+04         0.42459E+04         0.00000E+00
    0.42459E+04        -0.50117E+04         0.00000E+00
    0.00000E+00         0.00000E+00        -0.33005E+04
 
   -0.59498E+04         0.44978E+04         0.00000E+00
    0.44978E+04        -0.58135E+04         0.00000E+00
    0.00000E+00         0.00000E+00        -0.35290E+04
 
   -0.58298E+04         0.46457E+04         0.00000E+00
    0.46457E+04        -0.65506E+04         0.00000E+00
    0.00000E+00         0.00000E+00        -0.37141E+04
 
   -0.56663E+04         0.47085E+04         0.00000E+00
    0.47085E+04        -0.72112E+04         0.00000E+00
    0.00000E+00         0.00000E+00        -0.38632E+04
 
   -0.54862E+04         0.47065E+04         0.00000E+00
    0.47065E+04        -0.77899E+04         0.00000E+00
    0.00000E+00         0.00000E+00        -0.39828E+04
 
   -0.53082E+04         0.46600E+04         0.00000E+00
    0.46600E+04        -0.82864E+04         0.00000E+00
    0.00000E+00         0.00000E+00        -0.40784E+04
 
   -0.51446E+04         0.45883E+04         0.00000E+00
    0.45883E+04        -0.87038E+04         0.00000E+00
    0.00000E+00         0.00000E+00        -0.41545E+04
 
   -0.50020E+04         0.45090E+04         0.00000E+00
    0.45090E+04        -0.90474E+04         0.00000E+00
    0.00000E+00         0.00000E+00        -0.42148E+04
 
   -0.48832E+04         0.44387E+04         0.00000E+00
    0.44387E+04        -0.93238E+04         0.00000E+00
    0.00000E+00         0.00000E+00        -0.42621E+04
 
   -0.47870E+04         0.43927E+04         0.00000E+00
    0.43927E+04        -0.95406E+04         0.00000E+00
    0.00000E+00         0.00000E+00        -0.42983E+04
 
   -0.47093E+04         0.43856E+04         0.00000E+00
    0.43856E+04        -0.97061E+04         0.00000E+00
    0.00000E+00         0.00000E+00        -0.43246E+04
 
   -0.46428E+04         0.44320E+04         0.00000E+00
    0.44320E+04        -0.98293E+04         0.00000E+00
    0.00000E+00         0.00000E+00        -0.43416E+04
 
   -0.45770E+04         0.45461E+04         0.00000E+00
    0.45461E+04        -0.99199E+04         0.00000E+00
    0.00000E+00         0.00000E+00        -0.43491E+04
 
   -0.44978E+04         0.47427E+04         0.00000E+00
    0.47427E+04        -0.99891E+04         0.00000E+00
    0.00000E+00         0.00000E+00        -0.43460E+04
 
   -0.43864E+04         0.50375E+04         0.00000E+00
    0.50375E+04        -0.10050E+05         0.00000E+00
    0.00000E+00         0.00000E+00        -0.43309E+04
 
    0.51414E+04        -0.16939E+03         0.00000E+00
   -0.16939E+03        -0.26433E+01         0.00000E+00
    0.00000E+00         0.00000E+00         0.15416E+04
 
    0.29098E+04        -0.26846E+03         0.00000E+00
   -0.26846E+03        -0.39662E+02         0.00000E+00
    0.00000E+00         0.00000E+00         0.86105E+03
 
    0.85162E+03        -0.89490E+02         0.00000E+00
   -0.89490E+02        -0.16226E+03         0.00000E+00
    0.00000E+00         0.00000E+00         0.20681E+03
 
   -0.95074E+03         0.30481E+03         0.00000E+00
    0.30481E+03        -0.40624E+03         0.00000E+00
    0.00000E+00         0.00000E+00        -0.40709E+03
 
   -0.24480E+04         0.83950E+03         0.00000E+00
    0.83950E+03        -0.78576E+03         0.00000E+00
    0.00000E+00         0.00000E+00        -0.97012E+03
 
   -0.36252E+04         0.14401E+04         0.00000E+00
    0.14401E+04        -0.12939E+04         0.00000E+00
    0.00000E+00         0.00000E+00        -0.14757E+04
 
   -0.44964E+04         0.20427E+04         0.00000E+00
    0.20427E+04        -0.19078E+04         0.00000E+00
    0.00000E+00         0.00000E+00        -0.19212E+04
 
   -0.50958E+04         0.25993E+04         0.00000E+00
    0.25993E+04        -0.25951E+04         0.00000E+00
    0.00000E+00         0.00000E+00        -0.23073E+04
 
   -0.54686E+04         0.30794E+04         0.00000E+00
    0.30794E+04        -0.33212E+04         0.00000E+00
    0.00000E+00         0.00000E+00        -0.26369E+04
 
   -0.56629E+04         0.34682E+04         0.00000E+00
    0.34682E+04        -0.40537E+04         0.00000E+00
    0.00000E+00         0.00000E+00        -0.29150E+04
 
   -0.57243E+04         0.37633E+04         0.00000E+00
    0.37633E+04        -0.47657E+04         0.00000E+00
    0.00000E+00         0.00000E+00        -0.31470E+04
 
   -0.56928E+04         0.39711E+04         0.00000E+00
    0.39711E+04        -0.54368E+04         0.00000E+00
    0.00000E+00         0.00000E+00        -0.33389E+04
 
   -0.56010E+04         0.41036E+04         0.00000E+00
    0.41036E+04        -0.60532E+04         0.00000E+00
    0.00000E+00         0.00000E+00        -0.34963E+04
 
   -0.54746E+04         0.41757E+04         0.00000E+00
    0.41757E+04        -0.66065E+04         0.00000E+00
    0.00000E+00         0.00000E+00        -0.36243E+04
 
   -0.53323E+04         0.42034E+04         0.00000E+00
    0.42034E+04        -0.70932E+04         0.00000E+00
    0.00000E+00         0.00000E+00        -0.37276E+04
 
   -0.51869E+04         0.42031E+04         0.00000E+00
    0.42031E+04        -0.75131E+04         0.00000E+00
    0.00000E+00         0.00000E+00        -0.38100E+04
 
   -0.50465E+04         0.41905E+04         0.00000E+00
    0.41905E+04        -0.78688E+04         0.00000E+00
    0.00000E+00         0.00000E+00        -0.38746E+04
 
   -0.49143E+04         0.41807E+04         0.00000E+00
    0.41807E+04        -0.81647E+04         0.00000E+00
    0.00000E+00         0.00000E+00        -0.39237E+04
 
   -0.47903E+04         0.41880E+04         0.00000E+00
    0.41880E+04        -0.84066E+04         0.00000E+00
    0.00000E+00         0.00000E+00        -0.39591E+04
 
   -0.46707E+04         0.42261E+04         0.00000E+00
    0.42261E+04        -0.86017E+04         0.00000E+00
    0.00000E+00         0.00000E+00        -0.39817E+04
 
   -0.45486E+04         0.43085E+04         0.00000E+00
    0.43085E+04        -0.87581E+04         0.00000E+00
    0.00000E+00         0.00000E+00        -0.39920E+04
 
   -0.44132E+04         0.44484E+04         0.00000E+00
    0.44484E+04        -0.88852E+04         0.00000E+00
    0.00000E+00         0.00000E+00        -0.39895E+04
 
   -0.42503E+04         0.46588E+04         0.00000E+00
    0.46588E+04        -0.89942E+04         0.00000E+00
    0.00000E+00         0.00000E+00        -0.39734E+04
 
   -0.40408E+04         0.49529E+04         0.00000E+00
    0.49529E+04        -0.90981E+04         0.00000E+00
    0.00000E+00         0.00000E+00        -0.39417E+04
 
    0.48721E+04        -0.17668E+03         0.00000E+00
   -0.17668E+03        -0.15516E+01         0.00000E+00
    0.00000E+00         0.00000E+00         0.14612E+04
 
    0.29174E+04        -0.32847E+03         0.00000E+00
   -0.32847E+03        -0.27430E+02         0.00000E+00
    0.00000E+00         0.00000E+00         0.86698E+03
 
    0.10913E+04        -0.24271E+03         0.00000E+00
   -0.24271E+03        -0.11691E+03         0.00000E+00
    0.00000E+00         0.00000E+00         0.29232E+03
 
   -0.53974E+03         0.34477E+02         0.00000E+00
    0.34477E+02        -0.29946E+03         0.00000E+00
    0.00000E+00         0.00000E+00        -0.25176E+03
 
   -0.19323E+04         0.44692E+03         0.00000E+00
    0.44692E+03        -0.58957E+03         0.00000E+00
    0.00000E+00         0.00000E+00        -0.75657E+03
 
   -0.30676E+04         0.93684E+03         0.00000E+00
    0.93684E+03        -0.98645E+03         0.00000E+00
    0.00000E+00         0.00000E+00        -0.12162E+04
 
   -0.39488E+04         0.14520E+04         0.00000E+00
    0.14520E+04        -0.14765E+04         0.00000E+00
    0.00000E+00         0.00000E+00        -0.16276E+04
 
   -0.45958E+04         0.19506E+04         0.00000E+00
    0.19506E+04        -0.20378E+04         0.00000E+00
    0.00000E+00         0.00000E+00        -0.19901E+04
 
   -0.50392E+04         0.24029E+04         0.00000E+00
    0.24029E+04        -0.26445E+04         0.00000E+00
    0.00000E+00         0.00000E+00        -0.23051E+04
 
   -0.53145E+04         0.27914E+04         0.00000E+00
    0.27914E+04        -0.32706E+04         0.00000E+00
    0.00000E+00         0.00000E+00        -0.25755E+04
 
   -0.54572E+04         0.31087E+04         0.00000E+00
    0.31087E+04        -0.38930E+04         0.00000E+00
    0.00000E+00         0.00000E+00        -0.28051E+04
 
   -0.55004E+04         0.33558E+04         0.00000E+00
    0.33558E+04        -0.44927E+04         0.00000E+00
    0.00000E+00         0.00000E+00        -0.29979E+04
 
   -0.54723E+04         0.35391E+04         0.00000E+00
    0.35391E+04        -0.50555E+04         0.00000E+00
    0.00000E+00         0.00000E+00        -0.31583E+04
 
   -0.53961E+04         0.36688E+04         0.00000E+00
    0.36688E+04        -0.55717E+04         0.00000E+00
    0.00000E+00         0.00000E+00        -0.32903E+04
 
   -0.52894E+04         0.37571E+04         0.00000E+00
    0.37571E+04        -0.60357E+04         0.00000E+00
    0.00000E+00         0.00000E+00        -0.33975E+04
 
   -0.51650E+04         0.38171E+04         0.00000E+00
    0.38171E+04        -0.64452E+04         0.00000E+00
    0.00000E+00         0.00000E+00        -0.34831E+04
 
   -0.50310E+04         0.38623E+04         0.00000E+00
    0.38623E+04        -0.68006E+04         0.00000E+00
    0.00000E+00         0.00000E+00        -0.35495E+04
 
   -0.48915E+04         0.39060E+04         0.00000E+00
    0.39060E+04        -0.71044E+04         0.00000E+00
    0.00000E+00         0.00000E+00        -0.35988E+04
 
   -0.47468E+04         0.39609E+04         0.00000E+00
    0.39609E+04        -0.73610E+04         0.00000E+00
    0.00000E+00         0.00000E+00        -0.36323E+04
 
   -0.45935E+04         0.40397E+04         0.00000E+00
    0.40397E+04        -0.75763E+04         0.00000E+00
    0.00000E+00         0.00000E+00        -0.36510E+04
 
   -0.44251E+04         0.41542E+04         0.00000E+00
    0.41542E+04        -0.77576E+04         0.00000E+00
    0.00000E+00         0.00000E+00        -0.36548E+04
 
   -0.42312E+04         0.43163E+04         0.00000E+00
    0.43163E+04        -0.79137E+04         0.00000E+00
    0.00000E+00         0.00000E+00        -0.36435E+04
 
   -0.39976E+04         0.45371E+04         0.00000E+00
    0.45371E+04        -0.80552E+04         0.00000E+00
    0.00000E+00         0.00000E+00        -0.36159E+04
 
   -0.37057E+04         0.48274E+04         0.00000E+00
    0.48274E+04        -0.81949E+04         0.00000E+00
    0.00000E+00         0.00000E+00        -0.35702E+04
 
    0.45794E+04        -0.18096E+03         0.00000E+00
   -0.18096E+03        -0.63613E+00         0.00000E+00
    0.00000E+00         0.00000E+00         0.13736E+04
 
    0.28602E+04        -0.37088E+03         0.00000E+00
   -0.37088E+03        -0.17915E+02         0.00000E+00
    0.00000E+00         0.00000E+00         0.85270E+03
 
    0.12365E+04        -0.35554E+03         0.00000E+00
   -0.35554E+03        -0.82386E+02         0.00000E+00
    0.00000E+00         0.00000E+00         0.34625E+03
 
   -0.23766E+03        -0.16968E+03         0.00000E+00
   -0.16968E+03        -0.21847E+03         0.00000E+00
    0.00000E+00         0.00000E+00        -0.13684E+03
 
   -0.15245E+04         0.14390E+03         0.00000E+00
    0.14390E+03        -0.43999E+03         0.00000E+00
    0.00000E+00         0.00000E+00        -0.58934E+03
 
   -0.26038E+04         0.54001E+03         0.00000E+00
    0.54001E+03        -0.74952E+03         0.00000E+00
    0.00000E+00         0.00000E+00        -0.10060E+04
 
   -0.34725E+04         0.97622E+03         0.00000E+00
    0.97622E+03        -0.11397E+04         0.00000E+00
    0.00000E+00         0.00000E+00        -0.13837E+04
 
   -0.41408E+04         0.14166E+04         0.00000E+00
    0.14166E+04        -0.15957E+04         0.00000E+00
    0.00000E+00         0.00000E+00        -0.17210E+04
 
   -0.46288E+04         0.18339E+04         0.00000E+00
    0.18339E+04        -0.20987E+04         0.00000E+00
    0.00000E+00         0.00000E+00        -0.20183E+04
 
   -0.49617E+04         0.22098E+04         0.00000E+00
    0.22098E+04        -0.26285E+04         0.00000E+00
    0.00000E+00         0.00000E+00        -0.22771E+04
 
   -0.51669E+04         0.25343E+04         0.00000E+00
    0.25343E+04        -0.31658E+04         0.00000E+00
    0.00000E+00         0.00000E+00        -0.24998E+04
 
   -0.52706E+04         0.28046E+04         0.00000E+00
    0.28046E+04        -0.36938E+04         0.00000E+00
    0.00000E+00         0.00000E+00        -0.26893E+04
 
   -0.52966E+04         0.30230E+04         0.00000E+00
    0.30230E+04        -0.41990E+04         0.00000E+00
    0.00000E+00         0.00000E+00        -0.28487E+04
 
   -0.52650E+04         0.31958E+04         0.00000E+00
    0.31958E+04        -0.46715E+04         0.00000E+00
    0.00000E+00         0.00000E+00        -0.29809E+04
 
   -0.51918E+04         0.33318E+04         0.00000E+00
    0.33318E+04        -0.51045E+04         0.00000E+00
    0.00000E+00         0.00000E+00        -0.30889E+04
 
   -0.50888E+04         0.34411E+04         0.00000E+00
    0.34411E+04        -0.54945E+04         0.00000E+00
    0.00000E+00         0.00000E+00        -0.31750E+04
 
   -0.49640E+04         0.35349E+04         0.00000E+00
    0.35349E+04        -0.58402E+04         0.00000E+00
    0.00000E+00         0.00000E+00        -0.32413E+04
 
   -0.48215E+04         0.36243E+04         0.00000E+00
    0.36243E+04        -0.61430E+04         0.00000E+00
    0.00000E+00         0.00000E+00        -0.32893E+04
 
   -0.46618E+04         0.37205E+04         0.00000E+00
    0.37205E+04        -0.64058E+04         0.00000E+00
    0.00000E+00         0.00000E+00        -0.33203E+04
 
   -0.44822E+04         0.38345E+04         0.00000E+00
    0.38345E+04        -0.66334E+04         0.00000E+00
    0.00000E+00         0.00000E+00        -0.33347E+04
 
   -0.42763E+04         0.39766E+04         0.00000E+00
    0.39766E+04        -0.68322E+04         0.00000E+00
    0.00000E+00         0.00000E+00        -0.33326E+04
 
   -0.40344E+04         0.41569E+04         0.00000E+00
    0.41569E+04        -0.70103E+04         0.00000E+00
    0.00000E+00         0.00000E+00        -0.33134E+04
 
   -0.37428E+04         0.43847E+04         0.00000E+00
    0.43847E+04        -0.71775E+04         0.00000E+00
    0.00000E+00         0.00000E+00        -0.32761E+04
 
   -0.33839E+04         0.46684E+04         0.00000E+00
    0.46684E+04        -0.73459E+04         0.00000E+00
    0.00000E+00         0.00000E+00        -0.32189E+04
 
    0.42713E+04        -0.18275E+03         0.00000E+00
   -0.18275E+03         0.14148E+00         0.00000E+00
    0.00000E+00         0.00000E+00         0.12814E+04
 
    0.27552E+04        -0.39971E+03         0.00000E+00
   -0.39971E+03        -0.10335E+02         0.00000E+00
    0.00000E+00         0.00000E+00         0.82345E+03
 
    0.13092E+04        -0.43760E+03         0.00000E+00
   -0.43760E+03        -0.55472E+02         0.00000E+00
    0.00000E+00         0.00000E+00         0.37611E+03
 
   -0.22012E+02        -0.32311E+03         0.00000E+00
   -0.32311E+03        -0.15570E+03         0.00000E+00
    0.00000E+00         0.00000E+00        -0.53314E+02
 
   -0.12054E+04        -0.89323E+02         0.00000E+00
   -0.89323E+02        -0.32379E+03         0.00000E+00
    0.00000E+00         0.00000E+00        -0.45876E+03
 
   -0.22212E+04         0.22808E+03         0.00000E+00
    0.22808E+03        -0.56412E+03         0.00000E+00
    0.00000E+00         0.00000E+00        -0.83558E+03
 
   -0.30623E+04         0.59459E+03         0.00000E+00
    0.59459E+03        -0.87330E+03         0.00000E+00
    0.00000E+00         0.00000E+00        -0.11807E+04
 
   -0.37327E+04         0.97979E+03         0.00000E+00
    0.97979E+03        -0.12418E+04         0.00000E+00
    0.00000E+00         0.00000E+00        -0.14923E+04
 
   -0.42448E+04         0.13592E+04         0.00000E+00
    0.13592E+04        -0.16559E+04         0.00000E+00
    0.00000E+00         0.00000E+00        -0.17702E+04
 
   -0.46161E+04         0.17152E+04         0.00000E+00
    0.17152E+04        -0.21003E+04         0.00000E+00
    0.00000E+00         0.00000E+00        -0.20149E+04
 
   -0.48668E+04         0.20364E+04         0.00000E+00
    0.20364E+04        -0.25592E+04         0.00000E+00
    0.00000E+00         0.00000E+00        -0.22278E+04
 
   -0.50176E+04         0.23178E+04         0.00000E+00
    0.23178E+04        -0.30184E+04         0.00000E+00
    0.00000E+00         0.00000E+00        -0.24108E+04
 
   -0.50878E+04         0.25586E+04         0.00000E+00
    0.25586E+04        -0.34657E+04         0.00000E+00
    0.00000E+00         0.00000E+00        -0.25660E+04
 
   -0.50942E+04         0.27623E+04         0.00000E+00
    0.27623E+04        -0.38915E+04         0.00000E+00
    0.00000E+00         0.00000E+00        -0.26957E+04
 
   -0.50508E+04         0.29345E+04         0.00000E+00
    0.29345E+04        -0.42889E+04         0.00000E+00
    0.00000E+00         0.00000E+00        -0.28019E+04
 
   -0.49683E+04         0.30829E+04         0.00000E+00
    0.30829E+04        -0.46534E+04         0.00000E+00
    0.00000E+00         0.00000E+00        -0.28865E+04
 
   -0.48538E+04         0.32162E+04         0.00000E+00
    0.32162E+04        -0.49831E+04         0.00000E+00
    0.00000E+00         0.00000E+00        -0.29511E+04
 
   -0.47113E+04         0.33435E+04         0.00000E+00
    0.33435E+04        -0.52781E+04         0.00000E+00
    0.00000E+00         0.00000E+00        -0.29968E+04
 
   -0.45416E+04         0.34742E+04         0.00000E+00
    0.34742E+04        -0.55404E+04         0.00000E+00
    0.00000E+00         0.00000E+00        -0.30246E+04
 
   -0.43420E+04         0.36176E+04         0.00000E+00
    0.36176E+04        -0.57738E+04         0.00000E+00
    0.00000E+00         0.00000E+00        -0.30347E+04
 
   -0.41067E+04         0.37823E+04         0.00000E+00
    0.37823E+04        -0.59838E+04         0.00000E+00
    0.00000E+00         0.00000E+00        -0.30271E+04
 
   -0.38266E+04         0.39767E+04         0.00000E+00
    0.39767E+04        -0.61775E+04         0.00000E+00
    0.00000E+00         0.00000E+00        -0.30012E+04
 
   -0.34891E+04         0.42082E+04         0.00000E+00
    0.42082E+04        -0.63642E+04         0.00000E+00
    0.00000E+00         0.00000E+00        -0.29560E+04
 
   -0.30776E+04         0.44828E+04         0.00000E+00
    0.44828E+04        -0.65547E+04         0.00000E+00
    0.00000E+00         0.00000E+00        -0.28897E+04
 
    0.39544E+04        -0.18246E+03         0.00000E+00
   -0.18246E+03         0.80479E+00         0.00000E+00
    0.00000E+00         0.00000E+00         0.11866E+04
 
    0.26149E+04        -0.41783E+03         0.00000E+00
   -0.41783E+03        -0.41974E+01         0.00000E+00
    0.00000E+00         0.00000E+00         0.78322E+03
 
    0.13260E+04        -0.49573E+03         0.00000E+00
   -0.49573E+03        -0.34114E+02         0.00000E+00
    0.00000E+00         0.00000E+00         0.38757E+03
 
    0.12502E+03        -0.43697E+03         0.00000E+00
   -0.43697E+03        -0.10623E+03         0.00000E+00
    0.00000E+00         0.00000E+00         0.56367E+01
 
   -0.95923E+03        -0.26749E+03         0.00000E+00
   -0.26749E+03        -0.23215E+03         0.00000E+00
    0.00000E+00         0.00000E+00        -0.35742E+03
 
   -0.19078E+04        -0.15700E+02         0.00000E+00
   -0.15700E+02        -0.41717E+03         0.00000E+00
    0.00000E+00         0.00000E+00        -0.69749E+03
 
   -0.27116E+04         0.29026E+03         0.00000E+00
    0.29026E+03        -0.66047E+03         0.00000E+00
    0.00000E+00         0.00000E+00        -0.10116E+04
 
   -0.33703E+04         0.62478E+03         0.00000E+00
    0.62478E+03        -0.95616E+03         0.00000E+00
    0.00000E+00         0.00000E+00        -0.12979E+04
 
   -0.38908E+04         0.96633E+03         0.00000E+00
    0.96633E+03        -0.12947E+04         0.00000E+00
    0.00000E+00         0.00000E+00        -0.15556E+04
 
   -0.42847E+04         0.12984E+04         0.00000E+00
    0.12984E+04        -0.16643E+04         0.00000E+00
    0.00000E+00         0.00000E+00        -0.17847E+04
 
   -0.45667E+04         0.16095E+04         0.00000E+00
    0.16095E+04        -0.20527E+04         0.00000E+00
    0.00000E+00         0.00000E+00        -0.19858E+04
 
   -0.47524E+04         0.18930E+04         0.00000E+00
    0.18930E+04        -0.24479E+04         0.00000E+00
    0.00000E+00         0.00000E+00        -0.21601E+04
 
   -0.48571E+04         0.21465E+04         0.00000E+00
    0.21465E+04        -0.28393E+04         0.00000E+00
    0.00000E+00         0.00000E+00        -0.23089E+04
 
   -0.48947E+04         0.23707E+04         0.00000E+00
    0.23707E+04        -0.32182E+04         0.00000E+00
    0.00000E+00         0.00000E+00        -0.24339E+04
 
   -0.48768E+04         0.25693E+04         0.00000E+00
    0.25693E+04        -0.35779E+04         0.00000E+00
    0.00000E+00         0.00000E+00        -0.25364E+04
 
   -0.48127E+04         0.27475E+04         0.00000E+00
    0.27475E+04        -0.39137E+04         0.00000E+00
    0.00000E+00         0.00000E+00        -0.26179E+04
 
   -0.47087E+04         0.29117E+04         0.00000E+00
    0.29117E+04        -0.42231E+04         0.00000E+00
    0.00000E+00         0.00000E+00        -0.26795E+04
 
   -0.45684E+04         0.30694E+04         0.00000E+00
    0.30694E+04        -0.45055E+04         0.00000E+00
    0.00000E+00         0.00000E+00        -0.27222E+04
 
   -0.43924E+04         0.32279E+04         0.00000E+00
    0.32279E+04        -0.47622E+04         0.00000E+00
    0.00000E+00         0.00000E+00        -0.27464E+04
 
   -0.41782E+04         0.33948E+04         0.00000E+00
    0.33948E+04        -0.49961E+04         0.00000E+00
    0.00000E+00         0.00000E+00        -0.27523E+04
 
   -0.39208E+04         0.35772E+04         0.00000E+00
    0.35772E+04        -0.52119E+04         0.00000E+00
    0.00000E+00         0.00000E+00        -0.27398E+04
 
   -0.36116E+04         0.37817E+04         0.00000E+00
    0.37817E+04        -0.54160E+04         0.00000E+00
    0.00000E+00         0.00000E+00        -0.27083E+04
 
   -0.32390E+04         0.40136E+04         0.00000E+00
    0.40136E+04        -0.56164E+04         0.00000E+00
    0.00000E+00         0.00000E+00        -0.26566E+04
 
   -0.27882E+04         0.42772E+04         0.00000E+00
    0.42772E+04        -0.58231E+04         0.00000E+00
    0.00000E+00         0.00000E+00        -0.25834E+04
 
    0.36337E+04        -0.18041E+03         0.00000E+00
   -0.18041E+03         0.13691E+01         0.00000E+00
    0.00000E+00         0.00000E+00         0.10905E+04
 
    0.24494E+04        -0.42739E+03         0.00000E+00
   -0.42739E+03         0.81650E+00         0.00000E+00
    0.00000E+00         0.00000E+00         0.73506E+03
 
    0.13001E+04        -0.53497E+03         0.00000E+00
   -0.53497E+03        -0.16960E+02         0.00000E+00
    0.00000E+00         0.00000E+00         0.38495E+03
 
    0.21766E+03        -0.51957E+03         0.00000E+00
   -0.51957E+03        -0.66745E+02         0.00000E+00
    0.00000E+00         0.00000E+00         0.45275E+02
 
   -0.77268E+03        -0.40179E+03         0.00000E+00
   -0.40179E+03        -0.15905E+03         0.00000E+00
    0.00000E+00         0.00000E+00        -0.27952E+03
 
   -0.16531E+04        -0.20442E+03         0.00000E+00
   -0.20442E+03        -0.29952E+03         0.00000E+00
    0.00000E+00         0.00000E+00        -0.58579E+03
 
   -0.24135E+04         0.49506E+02         0.00000E+00
    0.49506E+02        -0.48902E+03         0.00000E+00
    0.00000E+00         0.00000E+00        -0.87076E+03
 
   -0.30508E+04         0.33846E+03         0.00000E+00
    0.33846E+03        -0.72424E+03         0.00000E+00
    0.00000E+00         0.00000E+00        -0.11325E+04
 
   -0.35679E+04         0.64372E+03         0.00000E+00
    0.64372E+03        -0.99862E+03         0.00000E+00
    0.00000E+00         0.00000E+00        -0.13699E+04
 
   -0.39719E+04         0.95022E+03         0.00000E+00
    0.95022E+03        -0.13035E+04         0.00000E+00
    0.00000E+00         0.00000E+00        -0.15826E+04
 
   -0.42732E+04         0.12468E+04         0.00000E+00
    0.12468E+04        -0.16293E+04         0.00000E+00
    0.00000E+00         0.00000E+00        -0.17707E+04
 
   -0.44832E+04         0.15262E+04         0.00000E+00
    0.15262E+04        -0.19662E+04         0.00000E+00
    0.00000E+00         0.00000E+00        -0.19348E+04
 
   -0.46136E+04         0.17847E+04         0.00000E+00
    0.17847E+04        -0.23054E+04         0.00000E+00
    0.00000E+00         0.00000E+00        -0.20757E+04
 
   -0.46756E+04         0.20213E+04         0.00000E+00
    0.20213E+04        -0.26390E+04         0.00000E+00
    0.00000E+00         0.00000E+00        -0.21944E+04
 
   -0.46787E+04         0.22379E+04         0.00000E+00
    0.22379E+04        -0.29608E+04         0.00000E+00
    0.00000E+00         0.00000E+00        -0.22919E+04
 
   -0.46305E+04         0.24376E+04         0.00000E+00
    0.24376E+04        -0.32664E+04         0.00000E+00
    0.00000E+00         0.00000E+00        -0.23691E+04
 
   -0.45365E+04         0.26252E+04         0.00000E+00
    0.26252E+04        -0.35531E+04         0.00000E+00
    0.00000E+00         0.00000E+00        -0.24269E+04
 
   -0.43996E+04         0.28061E+04         0.00000E+00
    0.28061E+04        -0.38198E+04         0.00000E+00
    0.00000E+00         0.00000E+00        -0.24658E+04
 
   -0.42202E+04         0.29861E+04         0.00000E+00
    0.29861E+04        -0.40672E+04         0.00000E+00
    0.00000E+00         0.00000E+00        -0.24862E+04
 
   -0.39963E+04         0.31710E+04         0.00000E+00
    0.31710E+04        -0.42975E+04         0.00000E+00
    0.00000E+00         0.00000E+00        -0.24882E+04
 
   -0.37230E+04         0.33663E+04         0.00000E+00
    0.33663E+04        -0.45149E+04         0.00000E+00
    0.00000E+00         0.00000E+00        -0.24714E+04
 
   -0.33927E+04         0.35769E+04         0.00000E+00
    0.35769E+04        -0.47246E+04         0.00000E+00
    0.00000E+00         0.00000E+00        -0.24352E+04
 
   -0.29951E+04         0.38065E+04         0.00000E+00
    0.38065E+04        -0.49338E+04         0.00000E+00
    0.00000E+00         0.00000E+00        -0.23787E+04
 
   -0.25169E+04         0.40576E+04         0.00000E+00
    0.40576E+04        -0.51514E+04         0.00000E+00
    0.00000E+00         0.00000E+00        -0.23005E+04
 
    0.33135E+04        -0.17690E+03         0.00000E+00
   -0.17690E+03         0.18453E+01         0.00000E+00
    0.00000E+00         0.00000E+00         0.99460E+03
 
    0.22663E+04        -0.43004E+03         0.00000E+00
   -0.43004E+03         0.49241E+01         0.00000E+00
    0.00000E+00         0.00000E+00         0.68137E+03
 
    0.12418E+04        -0.55911E+03         0.00000E+00
   -0.55911E+03        -0.30894E+01         0.00000E+00
    0.00000E+00         0.00000E+00         0.37162E+03
 
    0.26735E+03        -0.57722E+03         0.00000E+00
   -0.57722E+03        -0.34987E+02         0.00000E+00
    0.00000E+00         0.00000E+00         0.69708E+02
 
   -0.63472E+03        -0.50085E+03         0.00000E+00
   -0.50085E+03        -0.10027E+03         0.00000E+00
    0.00000E+00         0.00000E+00        -0.22049E+03
 
   -0.14478E+04        -0.34842E+03         0.00000E+00
   -0.34842E+03        -0.20465E+03         0.00000E+00
    0.00000E+00         0.00000E+00        -0.49574E+03
 
   -0.21614E+04        -0.13888E+03         0.00000E+00
   -0.13888E+03        -0.35008E+03         0.00000E+00
    0.00000E+00         0.00000E+00        -0.75344E+03
 
   -0.27706E+04         0.10970E+03         0.00000E+00
    0.10970E+03        -0.53505E+03         0.00000E+00
    0.00000E+00         0.00000E+00        -0.99169E+03
 
   -0.32755E+04         0.38113E+03         0.00000E+00
    0.38113E+03        -0.75526E+03         0.00000E+00
    0.00000E+00         0.00000E+00        -0.12092E+04
 
   -0.36800E+04         0.66190E+03         0.00000E+00
    0.66190E+03        -0.10045E+04         0.00000E+00
    0.00000E+00         0.00000E+00        -0.14053E+04
 
   -0.39907E+04         0.94147E+03         0.00000E+00
    0.94147E+03        -0.12753E+04         0.00000E+00
    0.00000E+00         0.00000E+00        -0.15798E+04
 
   -0.42160E+04         0.12124E+04         0.00000E+00
    0.12124E+04        -0.15600E+04         0.00000E+00
    0.00000E+00         0.00000E+00        -0.17328E+04
 
   -0.43644E+04         0.14702E+04         0.00000E+00
    0.14702E+04        -0.18512E+04         0.00000E+00
    0.00000E+00         0.00000E+00        -0.18647E+04
 
   -0.44447E+04         0.17127E+04         0.00000E+00
    0.17127E+04        -0.21422E+04         0.00000E+00
    0.00000E+00         0.00000E+00        -0.19761E+04
 
   -0.44642E+04         0.19403E+04         0.00000E+00
    0.19403E+04        -0.24275E+04         0.00000E+00
    0.00000E+00         0.00000E+00        -0.20675E+04
 
   -0.44293E+04         0.21546E+04         0.00000E+00
    0.21546E+04        -0.27029E+04         0.00000E+00
    0.00000E+00         0.00000E+00        -0.21396E+04
 
   -0.43441E+04         0.23587E+04         0.00000E+00
    0.23587E+04        -0.29657E+04         0.00000E+00
    0.00000E+00         0.00000E+00        -0.21930E+04
 
   -0.42113E+04         0.25564E+04         0.00000E+00
    0.25564E+04        -0.32148E+04         0.00000E+00
    0.00000E+00         0.00000E+00        -0.22278E+04
 
   -0.40310E+04         0.27520E+04         0.00000E+00
    0.27520E+04        -0.34504E+04         0.00000E+00
    0.00000E+00         0.00000E+00        -0.22444E+04
 
   -0.38011E+04         0.29497E+04         0.00000E+00
    0.29497E+04        -0.36742E+04         0.00000E+00
    0.00000E+00         0.00000E+00        -0.22426E+04
 
   -0.35175E+04         0.31535E+04         0.00000E+00
    0.31535E+04        -0.38895E+04         0.00000E+00
    0.00000E+00         0.00000E+00        -0.22221E+04
 
   -0.31733E+04         0.33667E+04         0.00000E+00
    0.33667E+04        -0.41011E+04         0.00000E+00
    0.00000E+00         0.00000E+00        -0.21823E+04
 
   -0.27594E+04         0.35916E+04         0.00000E+00
    0.35916E+04        -0.43150E+04         0.00000E+00
    0.00000E+00         0.00000E+00        -0.21223E+04
 
   -0.22642E+04         0.38289E+04         0.00000E+00
    0.38289E+04        -0.45388E+04         0.00000E+00
    0.00000E+00         0.00000E+00        -0.20409E+04
 
    0.29973E+04        -0.17217E+03         0.00000E+00
   -0.17217E+03         0.22415E+01         0.00000E+00
    0.00000E+00         0.00000E+00         0.89987E+03
 
    0.20719E+04        -0.42709E+03         0.00000E+00
   -0.42709E+03         0.82788E+01         0.00000E+00
    0.00000E+00         0.00000E+00         0.62406E+03
 
    0.11593E+04        -0.57112E+03         0.00000E+00
   -0.57112E+03         0.81422E+01         0.00000E+00
    0.00000E+00         0.00000E+00         0.35024E+03
 
    0.28331E+03        -0.61481E+03         0.00000E+00
   -0.61481E+03        -0.93509E+01         0.00000E+00
    0.00000E+00         0.00000E+00         0.82186E+02
 
   -0.53620E+03        -0.57142E+03         0.00000E+00
   -0.57142E+03        -0.52802E+02         0.00000E+00
    0.00000E+00         0.00000E+00        -0.17670E+03
 
   -0.12838E+04        -0.45597E+03         0.00000E+00
   -0.45597E+03        -0.12785E+03         0.00000E+00
    0.00000E+00         0.00000E+00        -0.42350E+03
 
   -0.19490E+04        -0.28405E+03         0.00000E+00
   -0.28405E+03        -0.23709E+03         0.00000E+00
    0.00000E+00         0.00000E+00        -0.65583E+03
 
   -0.25257E+04        -0.70892E+02         0.00000E+00
   -0.70892E+02        -0.38029E+03         0.00000E+00
    0.00000E+00         0.00000E+00        -0.87181E+03
 
   -0.30121E+04         0.16958E+03         0.00000E+00
    0.16958E+03        -0.55488E+03         0.00000E+00
    0.00000E+00         0.00000E+00        -0.10701E+04
 
   -0.34096E+04         0.42536E+03         0.00000E+00
    0.42536E+03        -0.75646E+03         0.00000E+00
    0.00000E+00         0.00000E+00        -0.12498E+04
 
   -0.37221E+04         0.68669E+03         0.00000E+00
    0.68669E+03        -0.97951E+03         0.00000E+00
    0.00000E+00         0.00000E+00        -0.14105E+04
 
   -0.39551E+04         0.94628E+03         0.00000E+00
    0.94628E+03        -0.12180E+04         0.00000E+00
    0.00000E+00         0.00000E+00        -0.15519E+04
 
   -0.41149E+04         0.11992E+04         0.00000E+00
    0.11992E+04        -0.14659E+04         0.00000E+00
    0.00000E+00         0.00000E+00        -0.16742E+04
 
   -0.42078E+04         0.14425E+04         0.00000E+00
    0.14425E+04        -0.17176E+04         0.00000E+00
    0.00000E+00         0.00000E+00        -0.17776E+04
 
   -0.42397E+04         0.16755E+04         0.00000E+00
    0.16755E+04        -0.19684E+04         0.00000E+00
    0.00000E+00         0.00000E+00        -0.18624E+04
 
   -0.42152E+04         0.18985E+04         0.00000E+00
    0.18985E+04        -0.22146E+04         0.00000E+00
    0.00000E+00         0.00000E+00        -0.19289E+04
 
   -0.41379E+04         0.21132E+04         0.00000E+00
    0.21132E+04        -0.24536E+04         0.00000E+00
    0.00000E+00         0.00000E+00        -0.19774E+04
 
   -0.40094E+04         0.23222E+04         0.00000E+00
    0.23222E+04        -0.26842E+04         0.00000E+00
    0.00000E+00         0.00000E+00        -0.20081E+04
 
   -0.38299E+04         0.25281E+04         0.00000E+00
    0.25281E+04        -0.29063E+04         0.00000E+00
    0.00000E+00         0.00000E+00        -0.20209E+04
 
   -0.35974E+04         0.27339E+04         0.00000E+00
    0.27339E+04        -0.31214E+04         0.00000E+00
    0.00000E+00         0.00000E+00        -0.20156E+04
 
   -0.33081E+04         0.29422E+04         0.00000E+00
    0.29422E+04        -0.33321E+04         0.00000E+00
    0.00000E+00         0.00000E+00        -0.19920E+04
 
   -0.29561E+04         0.31549E+04         0.00000E+00
    0.31549E+04        -0.35423E+04         0.00000E+00
    0.00000E+00         0.00000E+00        -0.19495E+04
 
   -0.25335E+04         0.33729E+04         0.00000E+00
    0.33729E+04        -0.37573E+04         0.00000E+00
    0.00000E+00         0.00000E+00        -0.18872E+04
 
   -0.20303E+04         0.35958E+04         0.00000E+00
    0.35958E+04        -0.39834E+04         0.00000E+00
    0.00000E+00         0.00000E+00        -0.18041E+04
 
    0.26880E+04        -0.16644E+03         0.00000E+00
   -0.16644E+03         0.25647E+01         0.00000E+00
    0.00000E+00         0.00000E+00         0.80716E+03
 
    0.18712E+04        -0.41960E+03         0.00000E+00
   -0.41960E+03         0.10994E+02         0.00000E+00
    0.00000E+00         0.00000E+00         0.56465E+03
 
    0.10592E+04        -0.57336E+03         0.00000E+00
   -0.57336E+03         0.17205E+02         0.00000E+00
    0.00000E+00         0.00000E+00         0.32293E+03
 
    0.27303E+03        -0.63621E+03         0.00000E+00
   -0.63621E+03         0.11327E+02         0.00000E+00
    0.00000E+00         0.00000E+00         0.85308E+02
 
   -0.46955E+03        -0.61891E+03         0.00000E+00
   -0.61891E+03        -0.14456E+02         0.00000E+00
    0.00000E+00         0.00000E+00        -0.14520E+03
 
   -0.11543E+04        -0.53371E+03         0.00000E+00
   -0.53371E+03        -0.65595E+02         0.00000E+00
    0.00000E+00         0.00000E+00        -0.36596E+03
 
   -0.17708E+04        -0.39355E+03         0.00000E+00
   -0.39355E+03        -0.14509E+03         0.00000E+00
    0.00000E+00         0.00000E+00        -0.57476E+03
 
   -0.23124E+04        -0.21123E+03         0.00000E+00
   -0.21123E+03        -0.25363E+03         0.00000E+00
    0.00000E+00         0.00000E+00        -0.76980E+03
 
   -0.27758E+04         0.12645E+01         0.00000E+00
    0.12645E+01        -0.38988E+03         0.00000E+00
    0.00000E+00         0.00000E+00        -0.94970E+03
 
   -0.31607E+04         0.23333E+03         0.00000E+00
    0.23333E+03        -0.55091E+03         0.00000E+00
    0.00000E+00         0.00000E+00        -0.11135E+04
 
   -0.34688E+04         0.47609E+03         0.00000E+00
    0.47609E+03        -0.73271E+03         0.00000E+00
    0.00000E+00         0.00000E+00        -0.12604E+04
 
   -0.37035E+04         0.72252E+03         0.00000E+00
    0.72252E+03        -0.93065E+03         0.00000E+00
    0.00000E+00         0.00000E+00        -0.13903E+04
 
   -0.38691E+04         0.96753E+03         0.00000E+00
    0.96753E+03        -0.11400E+04         0.00000E+00
    0.00000E+00         0.00000E+00        -0.15027E+04
 
   -0.39700E+04         0.12078E+04         0.00000E+00
    0.12078E+04        -0.13561E+04         0.00000E+00
    0.00000E+00         0.00000E+00        -0.15978E+04
 
   -0.40104E+04         0.14416E+04         0.00000E+00
    0.14416E+04        -0.15750E+04         0.00000E+00
    0.00000E+00         0.00000E+00        -0.16756E+04
 
   -0.39939E+04         0.16684E+04         0.00000E+00
    0.16684E+04        -0.17935E+04         0.00000E+00
    0.00000E+00         0.00000E+00        -0.17362E+04
 
   -0.39230E+04         0.18888E+04         0.00000E+00
    0.18888E+04        -0.20094E+04         0.00000E+00
    0.00000E+00         0.00000E+00        -0.17797E+04
 
   -0.37989E+04         0.21041E+04         0.00000E+00
    0.21041E+04        -0.22213E+04         0.00000E+00
    0.00000E+00         0.00000E+00        -0.18061E+04
 
   -0.36216E+04         0.23158E+04         0.00000E+00
    0.23158E+04        -0.24292E+04         0.00000E+00
    0.00000E+00         0.00000E+00        -0.18152E+04
 
   -0.33891E+04         0.25256E+04         0.00000E+00
    0.25256E+04        -0.26341E+04         0.00000E+00
    0.00000E+00         0.00000E+00        -0.18069E+04
 
   -0.30981E+04         0.27349E+04         0.00000E+00
    0.27349E+04        -0.28381E+04         0.00000E+00
    0.00000E+00         0.00000E+00        -0.17808E+04
 
   -0.27435E+04         0.29444E+04         0.00000E+00
    0.29444E+04        -0.30445E+04         0.00000E+00
    0.00000E+00         0.00000E+00        -0.17364E+04
 
   -0.23186E+04         0.31539E+04         0.00000E+00
    0.31539E+04        -0.32576E+04         0.00000E+00
    0.00000E+00         0.00000E+00        -0.16729E+04
 
   -0.18150E+04         0.33619E+04         0.00000E+00
    0.33619E+04        -0.34827E+04         0.00000E+00
    0.00000E+00         0.00000E+00        -0.15893E+04
 
    0.23877E+04        -0.15989E+03         0.00000E+00
   -0.15989E+03         0.28210E+01         0.00000E+00
    0.00000E+00         0.00000E+00         0.71716E+03
 
    0.16681E+04        -0.40846E+03         0.00000E+00
   -0.40846E+03         0.13158E+02         0.00000E+00
    0.00000E+00         0.00000E+00         0.50437E+03
 
    0.94685E+03        -0.56773E+03         0.00000E+00
   -0.56773E+03         0.24453E+02         0.00000E+00
    0.00000E+00         0.00000E+00         0.29139E+03
 
    0.24264E+03        -0.64455E+03         0.00000E+00
   -0.64455E+03         0.27920E+02         0.00000E+00
    0.00000E+00         0.00000E+00         0.81167E+02
 
   -0.42847E+03        -0.64765E+03         0.00000E+00
   -0.64765E+03         0.16430E+02         0.00000E+00
    0.00000E+00         0.00000E+00        -0.12361E+03
 
   -0.10533E+04        -0.58708E+03         0.00000E+00
   -0.58708E+03        -0.15238E+02         0.00000E+00
    0.00000E+00         0.00000E+00        -0.32056E+03
 
   -0.16218E+04        -0.47360E+03         0.00000E+00
   -0.47360E+03        -0.70316E+02         0.00000E+00
    0.00000E+00         0.00000E+00        -0.50763E+03
 
   -0.21268E+04        -0.31800E+03         0.00000E+00
   -0.31800E+03        -0.15012E+03         0.00000E+00
    0.00000E+00         0.00000E+00        -0.68309E+03
 
   -0.25643E+04        -0.13057E+03         0.00000E+00
   -0.13057E+03        -0.25424E+03         0.00000E+00
    0.00000E+00         0.00000E+00        -0.84558E+03
 
   -0.29325E+04         0.79361E+02         0.00000E+00
    0.79361E+02        -0.38092E+03         0.00000E+00
    0.00000E+00         0.00000E+00        -0.99403E+03
 
   -0.32316E+04         0.30376E+03         0.00000E+00
    0.30376E+03        -0.52732E+03         0.00000E+00
    0.00000E+00         0.00000E+00        -0.11277E+04
 
   -0.34632E+04         0.53602E+03         0.00000E+00
    0.53602E+03        -0.69001E+03         0.00000E+00
    0.00000E+00         0.00000E+00        -0.12460E+04
 
   -0.36300E+04         0.77108E+03         0.00000E+00
    0.77108E+03        -0.86529E+03         0.00000E+00
    0.00000E+00         0.00000E+00        -0.13486E+04
 
   -0.37348E+04         0.10053E+04         0.00000E+00
    0.10053E+04        -0.10495E+04         0.00000E+00
    0.00000E+00         0.00000E+00        -0.14353E+04
 
   -0.37806E+04         0.12364E+04         0.00000E+00
    0.12364E+04        -0.12394E+04         0.00000E+00
    0.00000E+00         0.00000E+00        -0.15060E+04
 
   -0.37698E+04         0.14630E+04         0.00000E+00
    0.14630E+04        -0.14323E+04         0.00000E+00
    0.00000E+00         0.00000E+00        -0.15606E+04
 
   -0.37041E+04         0.16850E+04         0.00000E+00
    0.16850E+04        -0.16261E+04         0.00000E+00
    0.00000E+00         0.00000E+00        -0.15991E+04
 
   -0.35844E+04         0.19025E+04         0.00000E+00
    0.19025E+04        -0.18198E+04         0.00000E+00
    0.00000E+00         0.00000E+00        -0.16212E+04
 
   -0.34101E+04         0.21161E+04         0.00000E+00
    0.21161E+04        -0.20131E+04         0.00000E+00
    0.00000E+00         0.00000E+00        -0.16270E+04
 
   -0.31798E+04         0.23264E+04         0.00000E+00
    0.23264E+04        -0.22069E+04         0.00000E+00
    0.00000E+00         0.00000E+00        -0.16160E+04
 
   -0.28904E+04         0.25337E+04         0.00000E+00
    0.25337E+04        -0.24027E+04         0.00000E+00
    0.00000E+00         0.00000E+00        -0.15879E+04
 
   -0.25376E+04         0.27378E+04         0.00000E+00
    0.27378E+04        -0.26033E+04         0.00000E+00
    0.00000E+00         0.00000E+00        -0.15423E+04
 
   -0.21157E+04         0.29375E+04         0.00000E+00
    0.29375E+04        -0.28123E+04         0.00000E+00
    0.00000E+00         0.00000E+00        -0.14784E+04
 
   -0.16180E+04         0.31304E+04         0.00000E+00
    0.31304E+04        -0.30338E+04         0.00000E+00
    0.00000E+00         0.00000E+00        -0.13955E+04
 
    0.20984E+04        -0.15272E+03         0.00000E+00
   -0.15272E+03         0.30163E+01         0.00000E+00
    0.00000E+00         0.00000E+00         0.63043E+03
 
    0.14658E+04        -0.39444E+03         0.00000E+00
   -0.39444E+03         0.14843E+02         0.00000E+00
    0.00000E+00         0.00000E+00         0.44419E+03
 
    0.82649E+03        -0.55582E+03         0.00000E+00
   -0.55582E+03         0.30164E+02         0.00000E+00
    0.00000E+00         0.00000E+00         0.25700E+03
 
    0.19711E+03        -0.64238E+03         0.00000E+00
   -0.64238E+03         0.41102E+02         0.00000E+00
    0.00000E+00         0.00000E+00         0.71464E+02
 
   -0.40776E+03        -0.66119E+03         0.00000E+00
   -0.66119E+03         0.41131E+02         0.00000E+00
    0.00000E+00         0.00000E+00        -0.10999E+03
 
   -0.97590E+03        -0.62055E+03         0.00000E+00
   -0.62055E+03         0.25281E+02         0.00000E+00
    0.00000E+00         0.00000E+00        -0.28518E+03
 
   -0.14976E+04        -0.52940E+03         0.00000E+00
   -0.52940E+03        -0.97911E+01         0.00000E+00
    0.00000E+00         0.00000E+00        -0.45222E+03
 
   -0.19658E+04        -0.39685E+03         0.00000E+00
   -0.39685E+03        -0.65834E+02         0.00000E+00
    0.00000E+00         0.00000E+00        -0.60948E+03
 
   -0.23755E+04        -0.23174E+03         0.00000E+00
   -0.23174E+03        -0.14315E+03         0.00000E+00
    0.00000E+00         0.00000E+00        -0.75560E+03
 
   -0.27241E+04        -0.42255E+02         0.00000E+00
   -0.42255E+02        -0.24084E+03         0.00000E+00
    0.00000E+00         0.00000E+00        -0.88949E+03
 
   -0.30107E+04         0.16437E+03         0.00000E+00
    0.16437E+03        -0.35704E+03         0.00000E+00
    0.00000E+00         0.00000E+00        -0.10103E+04
 
   -0.32355E+04         0.38201E+03         0.00000E+00
    0.38201E+03        -0.48931E+03         0.00000E+00
    0.00000E+00         0.00000E+00        -0.11174E+04
 
   -0.33998E+04         0.60572E+03         0.00000E+00
    0.60572E+03        -0.63484E+03         0.00000E+00
    0.00000E+00         0.00000E+00        -0.12104E+04
 
   -0.35052E+04         0.83172E+03         0.00000E+00
    0.83172E+03        -0.79080E+03         0.00000E+00
    0.00000E+00         0.00000E+00        -0.12888E+04
 
   -0.35536E+04         0.10573E+04         0.00000E+00
    0.10573E+04        -0.95458E+03         0.00000E+00
    0.00000E+00         0.00000E+00        -0.13525E+04
 
   -0.35465E+04         0.12807E+04         0.00000E+00
    0.12807E+04        -0.11239E+04         0.00000E+00
    0.00000E+00         0.00000E+00        -0.14011E+04
 
   -0.34850E+04         0.15008E+04         0.00000E+00
    0.15008E+04        -0.12972E+04         0.00000E+00
    0.00000E+00         0.00000E+00        -0.14347E+04
 
   -0.33693E+04         0.17171E+04         0.00000E+00
    0.17171E+04        -0.14734E+04         0.00000E+00
    0.00000E+00         0.00000E+00        -0.14528E+04
 
   -0.31990E+04         0.19293E+04         0.00000E+00
    0.19293E+04        -0.16523E+04         0.00000E+00
    0.00000E+00         0.00000E+00        -0.14554E+04
 
   -0.29726E+04         0.21371E+04         0.00000E+00
    0.21371E+04        -0.18345E+04         0.00000E+00
    0.00000E+00         0.00000E+00        -0.14421E+04
 
   -0.26874E+04         0.23400E+04         0.00000E+00
    0.23400E+04        -0.20212E+04         0.00000E+00
    0.00000E+00         0.00000E+00        -0.14126E+04
 
   -0.23399E+04         0.25368E+04         0.00000E+00
    0.25368E+04        -0.22146E+04         0.00000E+00
    0.00000E+00         0.00000E+00        -0.13663E+04
 
   -0.19254E+04         0.27258E+04         0.00000E+00
    0.27258E+04        -0.24174E+04         0.00000E+00
    0.00000E+00         0.00000E+00        -0.13029E+04
 
   -0.14386E+04         0.29037E+04         0.00000E+00
    0.29037E+04        -0.26332E+04         0.00000E+00
    0.00000E+00         0.00000E+00        -0.12216E+04
 
    0.18215E+04        -0.14507E+03         0.00000E+00
   -0.14507E+03         0.31565E+01         0.00000E+00
    0.00000E+00         0.00000E+00         0.54739E+03
 
    0.12669E+04        -0.37817E+03         0.00000E+00
   -0.37817E+03         0.16110E+02         0.00000E+00
    0.00000E+00         0.00000E+00         0.38491E+03
 
    0.70161E+03        -0.53895E+03         0.00000E+00
   -0.53895E+03         0.34563E+02         0.00000E+00
    0.00000E+00         0.00000E+00         0.22085E+03
 
    0.14053E+03        -0.63180E+03         0.00000E+00
   -0.63180E+03         0.51410E+02         0.00000E+00
    0.00000E+00         0.00000E+00         0.57582E+02
 
   -0.40307E+03        -0.66249E+03         0.00000E+00
   -0.66249E+03         0.60658E+02         0.00000E+00
    0.00000E+00         0.00000E+00        -0.10272E+03
 
   -0.91785E+03        -0.63783E+03         0.00000E+00
   -0.63783E+03         0.57592E+02         0.00000E+00
    0.00000E+00         0.00000E+00        -0.25808E+03
 
   -0.13946E+04        -0.56528E+03         0.00000E+00
   -0.56528E+03         0.38840E+02         0.00000E+00
    0.00000E+00         0.00000E+00        -0.40672E+03
 
   -0.18260E+04        -0.45255E+03         0.00000E+00
   -0.45255E+03         0.23566E+01         0.00000E+00
    0.00000E+00         0.00000E+00        -0.54710E+03
 
   -0.22071E+04        -0.30724E+03         0.00000E+00
   -0.30724E+03        -0.52678E+02         0.00000E+00
    0.00000E+00         0.00000E+00        -0.67793E+03
 
   -0.25343E+04        -0.13650E+03         0.00000E+00
   -0.13650E+03        -0.12603E+03         0.00000E+00
    0.00000E+00         0.00000E+00        -0.79811E+03
 
   -0.28059E+04         0.53171E+02         0.00000E+00
    0.53171E+02        -0.21663E+03         0.00000E+00
    0.00000E+00         0.00000E+00        -0.90675E+03
 
   -0.30210E+04         0.25612E+03         0.00000E+00
    0.25612E+03        -0.32280E+03         0.00000E+00
    0.00000E+00         0.00000E+00        -0.10032E+04
 
   -0.31800E+04         0.46762E+03         0.00000E+00
    0.46762E+03        -0.44252E+03         0.00000E+00
    0.00000E+00         0.00000E+00        -0.10868E+04
 
   -0.32834E+04         0.68385E+03         0.00000E+00
    0.68385E+03        -0.57366E+03         0.00000E+00
    0.00000E+00         0.00000E+00        -0.11571E+04
 
   -0.33322E+04         0.90185E+03         0.00000E+00
    0.90185E+03        -0.71417E+03         0.00000E+00
    0.00000E+00         0.00000E+00        -0.12139E+04
 
   -0.33271E+04         0.11194E+04         0.00000E+00
    0.11194E+04        -0.86227E+03         0.00000E+00
    0.00000E+00         0.00000E+00        -0.12568E+04
 
   -0.32687E+04         0.13350E+04         0.00000E+00
    0.13350E+04        -0.10166E+04         0.00000E+00
    0.00000E+00         0.00000E+00        -0.12856E+04
 
   -0.31569E+04         0.15473E+04         0.00000E+00
    0.15473E+04        -0.11763E+04         0.00000E+00
    0.00000E+00         0.00000E+00        -0.13000E+04
 
   -0.29910E+04         0.17554E+04         0.00000E+00
    0.17554E+04        -0.13412E+04         0.00000E+00
    0.00000E+00         0.00000E+00        -0.12997E+04
 
   -0.27698E+04         0.19583E+04         0.00000E+00
    0.19583E+04        -0.15116E+04         0.00000E+00
    0.00000E+00         0.00000E+00        -0.12844E+04
 
   -0.24910E+04         0.21548E+04         0.00000E+00
    0.21548E+04        -0.16885E+04         0.00000E+00
    0.00000E+00         0.00000E+00        -0.12538E+04
 
   -0.21516E+04         0.23430E+04         0.00000E+00
    0.23430E+04        -0.18737E+04         0.00000E+00
    0.00000E+00         0.00000E+00        -0.12076E+04
 
   -0.17480E+04         0.25206E+04         0.00000E+00
    0.25206E+04        -0.20691E+04         0.00000E+00
    0.00000E+00         0.00000E+00        -0.11451E+04
 
   -0.12760E+04         0.26839E+04         0.00000E+00
    0.26839E+04        -0.22775E+04         0.00000E+00
    0.00000E+00         0.00000E+00        -0.10661E+04
 
    0.15580E+04        -0.13709E+03         0.00000E+00
   -0.13709E+03         0.32472E+01         0.00000E+00
    0.00000E+00         0.00000E+00         0.46837E+03
 
    0.10735E+04        -0.36020E+03         0.00000E+00
   -0.36020E+03         0.17012E+02         0.00000E+00
    0.00000E+00         0.00000E+00         0.32714E+03
 
    0.57503E+03        -0.51821E+03         0.00000E+00
   -0.51821E+03         0.37838E+02         0.00000E+00
    0.00000E+00         0.00000E+00         0.18386E+03
 
    0.76234E+02        -0.61458E+03         0.00000E+00
   -0.61458E+03         0.59283E+02         0.00000E+00
    0.00000E+00         0.00000E+00         0.40655E+02
 
   -0.41082E+03        -0.65397E+03         0.00000E+00
   -0.65397E+03         0.75830E+02         0.00000E+00
    0.00000E+00         0.00000E+00        -0.10050E+03
 
   -0.87562E+03        -0.64200E+03         0.00000E+00
   -0.64200E+03         0.83016E+02         0.00000E+00
    0.00000E+00         0.00000E+00        -0.23778E+03
 
   -0.13093E+04        -0.58489E+03         0.00000E+00
   -0.58489E+03         0.77492E+02         0.00000E+00
    0.00000E+00         0.00000E+00        -0.36956E+03
 
   -0.17050E+04        -0.48916E+03         0.00000E+00
   -0.48916E+03         0.57024E+02         0.00000E+00
    0.00000E+00         0.00000E+00        -0.49438E+03
 
   -0.20571E+04        -0.36135E+03         0.00000E+00
   -0.36135E+03         0.20413E+02         0.00000E+00
    0.00000E+00         0.00000E+00        -0.61099E+03
 
   -0.23618E+04        -0.20772E+03         0.00000E+00
   -0.20772E+03        -0.32624E+02         0.00000E+00
    0.00000E+00         0.00000E+00        -0.71832E+03
 
   -0.26166E+04        -0.34073E+02         0.00000E+00
   -0.34073E+02        -0.10162E+03         0.00000E+00
    0.00000E+00         0.00000E+00        -0.81547E+03
 
   -0.28201E+04         0.15440E+03         0.00000E+00
    0.15440E+03        -0.18556E+03         0.00000E+00
    0.00000E+00         0.00000E+00        -0.90170E+03
 
   -0.29716E+04         0.35322E+03         0.00000E+00
    0.35322E+03        -0.28305E+03         0.00000E+00
    0.00000E+00         0.00000E+00        -0.97639E+03
 
   -0.30709E+04         0.55861E+03         0.00000E+00
    0.55861E+03        -0.39255E+03         0.00000E+00
    0.00000E+00         0.00000E+00        -0.10390E+04
 
   -0.31183E+04         0.76748E+03         0.00000E+00
    0.76748E+03        -0.51251E+03         0.00000E+00
    0.00000E+00         0.00000E+00        -0.10892E+04
 
   -0.31139E+04         0.97734E+03         0.00000E+00
    0.97734E+03        -0.64156E+03         0.00000E+00
    0.00000E+00         0.00000E+00        -0.11266E+04
 
   -0.30577E+04         0.11862E+04         0.00000E+00
    0.11862E+04        -0.77863E+03         0.00000E+00
    0.00000E+00         0.00000E+00        -0.11509E+04
 
   -0.29495E+04         0.13923E+04         0.00000E+00
    0.13923E+04        -0.92301E+03         0.00000E+00
    0.00000E+00         0.00000E+00        -0.11618E+04
 
   -0.27885E+04         0.15942E+04         0.00000E+00
    0.15942E+04        -0.10745E+04         0.00000E+00
    0.00000E+00         0.00000E+00        -0.11589E+04
 
   -0.25735E+04         0.17903E+04         0.00000E+00
    0.17903E+04        -0.12332E+04         0.00000E+00
    0.00000E+00         0.00000E+00        -0.11420E+04
 
   -0.23027E+04         0.19788E+04         0.00000E+00
    0.19788E+04        -0.14001E+04         0.00000E+00
    0.00000E+00         0.00000E+00        -0.11108E+04
 
   -0.19736E+04         0.21574E+04         0.00000E+00
    0.21574E+04        -0.15762E+04         0.00000E+00
    0.00000E+00         0.00000E+00        -0.10650E+04
 
   -0.15835E+04         0.23232E+04         0.00000E+00
    0.23232E+04        -0.17633E+04         0.00000E+00
    0.00000E+00         0.00000E+00        -0.10040E+04
 
   -0.11293E+04         0.24724E+04         0.00000E+00
    0.24724E+04        -0.19631E+04         0.00000E+00
    0.00000E+00         0.00000E+00        -0.92772E+03
 
    0.13087E+04        -0.12891E+03         0.00000E+00
   -0.12891E+03         0.32940E+01         0.00000E+00
    0.00000E+00         0.00000E+00         0.39360E+03
 
    0.88699E+03        -0.34102E+03         0.00000E+00
   -0.34102E+03         0.17598E+02         0.00000E+00
    0.00000E+00         0.00000E+00         0.27138E+03
 
    0.44898E+03        -0.49455E+03         0.00000E+00
   -0.49455E+03         0.40151E+02         0.00000E+00
    0.00000E+00         0.00000E+00         0.14674E+03
 
    0.69425E+01        -0.59219E+03         0.00000E+00
   -0.59219E+03         0.65091E+02         0.00000E+00
    0.00000E+00         0.00000E+00         0.21610E+02
 
   -0.42804E+03        -0.63769E+03         0.00000E+00
   -0.63769E+03         0.87326E+02         0.00000E+00
    0.00000E+00         0.00000E+00        -0.10221E+03
 
   -0.84618E+03        -0.63565E+03         0.00000E+00
   -0.63565E+03         0.10264E+03         0.00000E+00
    0.00000E+00         0.00000E+00        -0.22306E+03
 
   -0.12392E+04        -0.59129E+03         0.00000E+00
   -0.59129E+03         0.10775E+03         0.00000E+00
    0.00000E+00         0.00000E+00        -0.33942E+03
 
   -0.16001E+04        -0.51011E+03         0.00000E+00
   -0.51011E+03         0.10030E+03         0.00000E+00
    0.00000E+00         0.00000E+00        -0.44994E+03
 
   -0.19235E+04        -0.39775E+03         0.00000E+00
   -0.39775E+03         0.78821E+02         0.00000E+00
    0.00000E+00         0.00000E+00        -0.55341E+03
 
   -0.22053E+04        -0.25967E+03         0.00000E+00
   -0.25967E+03         0.42640E+02         0.00000E+00
    0.00000E+00         0.00000E+00        -0.64878E+03
 
   -0.24423E+04        -0.10107E+03         0.00000E+00
   -0.10107E+03        -0.82569E+01         0.00000E+00
    0.00000E+00         0.00000E+00        -0.73518E+03
 
   -0.26327E+04         0.73320E+02         0.00000E+00
    0.73320E+02        -0.73368E+02         0.00000E+00
    0.00000E+00         0.00000E+00        -0.81183E+03
 
   -0.27751E+04         0.25929E+03         0.00000E+00
    0.25929E+03        -0.15183E+03         0.00000E+00
    0.00000E+00         0.00000E+00        -0.87809E+03
 
   -0.28689E+04         0.45316E+03         0.00000E+00
    0.45316E+03        -0.24260E+03         0.00000E+00
    0.00000E+00         0.00000E+00        -0.93343E+03
 
   -0.29134E+04         0.65179E+03         0.00000E+00
    0.65179E+03        -0.34455E+03         0.00000E+00
    0.00000E+00         0.00000E+00        -0.97739E+03
 
   -0.29086E+04         0.85250E+03         0.00000E+00
    0.85250E+03        -0.45667E+03         0.00000E+00
    0.00000E+00         0.00000E+00        -0.10096E+04
 
   -0.28540E+04         0.10530E+04         0.00000E+00
    0.10530E+04        -0.57812E+03         0.00000E+00
    0.00000E+00         0.00000E+00        -0.10296E+04
 
   -0.27491E+04         0.12512E+04         0.00000E+00
    0.12512E+04        -0.70834E+03         0.00000E+00
    0.00000E+00         0.00000E+00        -0.10372E+04
 
   -0.25933E+04         0.14452E+04         0.00000E+00
    0.14452E+04        -0.84712E+03         0.00000E+00
    0.00000E+00         0.00000E+00        -0.10321E+04
 
   -0.23852E+04         0.16330E+04         0.00000E+00
    0.16330E+04        -0.99460E+03         0.00000E+00
    0.00000E+00         0.00000E+00        -0.10140E+04
 
   -0.21236E+04         0.18124E+04         0.00000E+00
    0.18124E+04        -0.11513E+04         0.00000E+00
    0.00000E+00         0.00000E+00        -0.98247E+03
 
   -0.18065E+04         0.19807E+04         0.00000E+00
    0.19807E+04        -0.13181E+04         0.00000E+00
    0.00000E+00         0.00000E+00        -0.93737E+03
 
   -0.14319E+04         0.21347E+04         0.00000E+00
    0.21347E+04        -0.14960E+04         0.00000E+00
    0.00000E+00         0.00000E+00        -0.87836E+03
 
   -0.99744E+03         0.22703E+04         0.00000E+00
    0.22703E+04        -0.16865E+04         0.00000E+00
    0.00000E+00         0.00000E+00        -0.80518E+03
 
    0.10741E+04        -0.12063E+03         0.00000E+00
   -0.12063E+03         0.33025E+01         0.00000E+00
    0.00000E+00         0.00000E+00         0.32322E+03
 
    0.70871E+03        -0.32103E+03         0.00000E+00
   -0.32103E+03         0.17911E+02         0.00000E+00
    0.00000E+00         0.00000E+00         0.21799E+03
 
    0.32525E+03        -0.46876E+03         0.00000E+00
   -0.46876E+03         0.41643E+02         0.00000E+00
    0.00000E+00         0.00000E+00         0.11007E+03
 
   -0.65136E+02        -0.56586E+03         0.00000E+00
   -0.56586E+03         0.69149E+02         0.00000E+00
    0.00000E+00         0.00000E+00         0.12039E+01
 
   -0.45226E+03        -0.61534E+03         0.00000E+00
   -0.61534E+03         0.95721E+02         0.00000E+00
    0.00000E+00         0.00000E+00        -0.10696E+03
 
   -0.82704E+03        -0.62096E+03         0.00000E+00
   -0.62096E+03         0.11738E+03         0.00000E+00
    0.00000E+00         0.00000E+00        -0.21290E+03
 
   -0.11816E+04        -0.58706E+03         0.00000E+00
   -0.58706E+03         0.13094E+03         0.00000E+00
    0.00000E+00         0.00000E+00        -0.31520E+03
 
   -0.15093E+04        -0.51832E+03         0.00000E+00
   -0.51832E+03         0.13397E+03         0.00000E+00
    0.00000E+00         0.00000E+00        -0.41261E+03
 
   -0.18047E+04        -0.41957E+03         0.00000E+00
   -0.41957E+03         0.12483E+03         0.00000E+00
    0.00000E+00         0.00000E+00        -0.50397E+03
 
   -0.20635E+04        -0.29562E+03         0.00000E+00
   -0.29562E+03         0.10253E+03         0.00000E+00
    0.00000E+00         0.00000E+00        -0.58828E+03
 
   -0.22823E+04        -0.15108E+03         0.00000E+00
   -0.15108E+03         0.66706E+02         0.00000E+00
    0.00000E+00         0.00000E+00        -0.66467E+03
 
   -0.24587E+04         0.97455E+01         0.00000E+00
    0.97455E+01         0.17433E+02         0.00000E+00
    0.00000E+00         0.00000E+00        -0.73238E+03
 
   -0.25910E+04         0.18291E+03         0.00000E+00
    0.18291E+03        -0.44852E+02         0.00000E+00
    0.00000E+00         0.00000E+00        -0.79076E+03
 
   -0.26780E+04         0.36488E+03         0.00000E+00
    0.36488E+03        -0.11950E+03         0.00000E+00
    0.00000E+00         0.00000E+00        -0.83924E+03
 
   -0.27187E+04         0.55253E+03         0.00000E+00
    0.55253E+03        -0.20577E+03         0.00000E+00
    0.00000E+00         0.00000E+00        -0.87734E+03
 
   -0.27126E+04         0.74307E+03         0.00000E+00
    0.74307E+03        -0.30293E+03         0.00000E+00
    0.00000E+00         0.00000E+00        -0.90466E+03
 
   -0.26590E+04         0.93401E+03         0.00000E+00
    0.93401E+03        -0.41037E+03         0.00000E+00
    0.00000E+00         0.00000E+00        -0.92081E+03
 
   -0.25573E+04         0.11230E+04         0.00000E+00
    0.11230E+04        -0.52765E+03         0.00000E+00
    0.00000E+00         0.00000E+00        -0.92549E+03
 
   -0.24067E+04         0.13079E+04         0.00000E+00
    0.13079E+04        -0.65458E+03         0.00000E+00
    0.00000E+00         0.00000E+00        -0.91838E+03
 
   -0.22062E+04         0.14863E+04         0.00000E+00
    0.14863E+04        -0.79121E+03         0.00000E+00
    0.00000E+00         0.00000E+00        -0.89921E+03
 
   -0.19546E+04         0.16557E+04         0.00000E+00
    0.16557E+04        -0.93785E+03         0.00000E+00
    0.00000E+00         0.00000E+00        -0.86772E+03
 
   -0.16506E+04         0.18132E+04         0.00000E+00
    0.18132E+04        -0.10951E+04         0.00000E+00
    0.00000E+00         0.00000E+00        -0.82368E+03
 
   -0.12927E+04         0.19555E+04         0.00000E+00
    0.19555E+04        -0.12635E+04         0.00000E+00
    0.00000E+00         0.00000E+00        -0.76687E+03
 
   -0.87951E+03         0.20783E+04         0.00000E+00
    0.20783E+04        -0.14441E+04         0.00000E+00
    0.00000E+00         0.00000E+00        -0.69708E+03
 
    0.85446E+03        -0.11235E+03         0.00000E+00
   -0.11235E+03         0.32781E+01         0.00000E+00
    0.00000E+00         0.00000E+00         0.25732E+03
 
    0.53950E+03        -0.30057E+03         0.00000E+00
   -0.30057E+03         0.17992E+02         0.00000E+00
    0.00000E+00         0.00000E+00         0.16725E+03
 
    0.20522E+03        -0.44150E+03         0.00000E+00
   -0.44150E+03         0.42441E+02         0.00000E+00
    0.00000E+00         0.00000E+00         0.74299E+02
 
   -0.13822E+03        -0.53665E+03         0.00000E+00
   -0.53665E+03         0.71731E+02         0.00000E+00
    0.00000E+00         0.00000E+00        -0.19945E+02
 
   -0.48146E+03        -0.58837E+03         0.00000E+00
   -0.58837E+03         0.10151E+03         0.00000E+00
    0.00000E+00         0.00000E+00        -0.11399E+03
 
   -0.81608E+03        -0.59975E+03         0.00000E+00
   -0.59975E+03         0.12802E+03         0.00000E+00
    0.00000E+00         0.00000E+00        -0.20642E+03
 
   -0.11347E+04        -0.57439E+03         0.00000E+00
   -0.57439E+03         0.14818E+03         0.00000E+00
    0.00000E+00         0.00000E+00        -0.29594E+03
 
   -0.14308E+04        -0.51626E+03         0.00000E+00
   -0.51626E+03         0.15956E+03         0.00000E+00
    0.00000E+00         0.00000E+00        -0.38137E+03
 
   -0.16991E+04        -0.42952E+03         0.00000E+00
   -0.42952E+03         0.16037E+03         0.00000E+00
    0.00000E+00         0.00000E+00        -0.46162E+03
 
   -0.19352E+04        -0.31837E+03         0.00000E+00
   -0.31837E+03         0.14943E+03         0.00000E+00
    0.00000E+00         0.00000E+00        -0.53575E+03
 
   -0.21357E+04        -0.18691E+03         0.00000E+00
   -0.18691E+03         0.12605E+03         0.00000E+00
    0.00000E+00         0.00000E+00        -0.60289E+03
 
   -0.22977E+04        -0.39070E+02         0.00000E+00
   -0.39070E+02         0.90017E+02         0.00000E+00
    0.00000E+00         0.00000E+00        -0.66230E+03
 
   -0.24192E+04         0.12150E+03         0.00000E+00
    0.12150E+03         0.41404E+02         0.00000E+00
    0.00000E+00         0.00000E+00        -0.71334E+03
 
   -0.24987E+04         0.29142E+03         0.00000E+00
    0.29142E+03        -0.19468E+02         0.00000E+00
    0.00000E+00         0.00000E+00        -0.75544E+03
 
   -0.25348E+04         0.46762E+03         0.00000E+00
    0.46762E+03        -0.92159E+02         0.00000E+00
    0.00000E+00         0.00000E+00        -0.78810E+03
 
   -0.25268E+04         0.64730E+03         0.00000E+00
    0.64730E+03        -0.17619E+03         0.00000E+00
    0.00000E+00         0.00000E+00        -0.81091E+03
 
   -0.24738E+04         0.82783E+03         0.00000E+00
    0.82783E+03        -0.27113E+03         0.00000E+00
    0.00000E+00         0.00000E+00        -0.82349E+03
 
   -0.23751E+04         0.10067E+04         0.00000E+00
    0.10067E+04        -0.37666E+03         0.00000E+00
    0.00000E+00         0.00000E+00        -0.82552E+03
 
   -0.22297E+04         0.11816E+04         0.00000E+00
    0.11816E+04        -0.49259E+03         0.00000E+00
    0.00000E+00         0.00000E+00        -0.81670E+03
 
   -0.20370E+04         0.13498E+04         0.00000E+00
    0.13498E+04        -0.61890E+03         0.00000E+00
    0.00000E+00         0.00000E+00        -0.79678E+03
 
   -0.17961E+04         0.15088E+04         0.00000E+00
    0.15088E+04        -0.75575E+03         0.00000E+00
    0.00000E+00         0.00000E+00        -0.76555E+03
 
   -0.15059E+04         0.16553E+04         0.00000E+00
    0.16553E+04        -0.90342E+03         0.00000E+00
    0.00000E+00         0.00000E+00        -0.72279E+03
 
   -0.11656E+04         0.17860E+04         0.00000E+00
    0.17860E+04        -0.10623E+04         0.00000E+00
    0.00000E+00         0.00000E+00        -0.66836E+03
 
   -0.77443E+03         0.18967E+04         0.00000E+00
    0.18967E+04        -0.12327E+04         0.00000E+00
    0.00000E+00         0.00000E+00        -0.60213E+03
 
    0.64986E+03        -0.10415E+03         0.00000E+00
   -0.10415E+03         0.32261E+01         0.00000E+00
    0.00000E+00         0.00000E+00         0.19593E+03
 
    0.37999E+03        -0.27993E+03         0.00000E+00
   -0.27993E+03         0.17878E+02         0.00000E+00
    0.00000E+00         0.00000E+00         0.11936E+03
 
    0.89992E+02        -0.41334E+03         0.00000E+00
   -0.41334E+03         0.42657E+02         0.00000E+00
    0.00000E+00         0.00000E+00         0.39795E+02
 
   -0.21087E+03        -0.50541E+03         0.00000E+00
   -0.50541E+03         0.73081E+02         0.00000E+00
    0.00000E+00         0.00000E+00        -0.41336E+02
 
   -0.51399E+03        -0.55798E+03         0.00000E+00
   -0.55798E+03         0.10511E+03         0.00000E+00
    0.00000E+00         0.00000E+00        -0.12266E+03
 
   -0.81154E+03        -0.57355E+03         0.00000E+00
   -0.57355E+03         0.13523E+03         0.00000E+00
    0.00000E+00         0.00000E+00        -0.20289E+03
 
   -0.10965E+04        -0.55511E+03         0.00000E+00
   -0.55511E+03         0.16046E+03         0.00000E+00
    0.00000E+00         0.00000E+00        -0.28082E+03
 
   -0.13629E+04        -0.50602E+03         0.00000E+00
   -0.50602E+03         0.17838E+03         0.00000E+00
    0.00000E+00         0.00000E+00        -0.35535E+03
 
   -0.16053E+04        -0.42986E+03         0.00000E+00
   -0.42986E+03         0.18713E+03         0.00000E+00
    0.00000E+00         0.00000E+00        -0.42546E+03
 
   -0.18195E+04        -0.33030E+03         0.00000E+00
   -0.33030E+03         0.18537E+03         0.00000E+00
    0.00000E+00         0.00000E+00        -0.49024E+03
 
   -0.20018E+04        -0.21101E+03         0.00000E+00
   -0.21101E+03         0.17221E+03         0.00000E+00
    0.00000E+00         0.00000E+00        -0.54887E+03
 
   -0.21493E+04        -0.75525E+02         0.00000E+00
   -0.75525E+02         0.14715E+03         0.00000E+00
    0.00000E+00         0.00000E+00        -0.60064E+03
 
   -0.22597E+04         0.72761E+02         0.00000E+00
    0.72761E+02         0.11002E+03         0.00000E+00
    0.00000E+00         0.00000E+00        -0.64490E+03
 
   -0.23312E+04         0.23066E+03         0.00000E+00
    0.23066E+03         0.60852E+02         0.00000E+00
    0.00000E+00         0.00000E+00        -0.68109E+03
 
   -0.23623E+04         0.39520E+03         0.00000E+00
    0.39520E+03        -0.14835E+00         0.00000E+00
    0.00000E+00         0.00000E+00        -0.70874E+03
 
   -0.23520E+04         0.56358E+03         0.00000E+00
    0.56358E+03        -0.72716E+02         0.00000E+00
    0.00000E+00         0.00000E+00        -0.72741E+03
 
   -0.22992E+04         0.73314E+03         0.00000E+00
    0.73314E+03        -0.15657E+03         0.00000E+00
    0.00000E+00         0.00000E+00        -0.73674E+03
 
   -0.22032E+04         0.90131E+03         0.00000E+00
    0.90131E+03        -0.25148E+03         0.00000E+00
    0.00000E+00         0.00000E+00        -0.73640E+03
 
   -0.20632E+04         0.10655E+04         0.00000E+00
    0.10655E+04        -0.35727E+03         0.00000E+00
    0.00000E+00         0.00000E+00        -0.72613E+03
 
   -0.18785E+04         0.12231E+04         0.00000E+00
    0.12231E+04        -0.47387E+03         0.00000E+00
    0.00000E+00         0.00000E+00        -0.70570E+03
 
   -0.16484E+04         0.13713E+04         0.00000E+00
    0.13713E+04        -0.60129E+03         0.00000E+00
    0.00000E+00         0.00000E+00        -0.67490E+03
 
   -0.13724E+04         0.15069E+04         0.00000E+00
    0.15069E+04        -0.73958E+03         0.00000E+00
    0.00000E+00         0.00000E+00        -0.63359E+03
 
   -0.10500E+04         0.16263E+04         0.00000E+00
    0.16263E+04        -0.88883E+03         0.00000E+00
    0.00000E+00         0.00000E+00        -0.58166E+03
 
   -0.68115E+03         0.17258E+04         0.00000E+00
    0.17258E+04        -0.10490E+04         0.00000E+00
    0.00000E+00         0.00000E+00        -0.51906E+03
 
    0.46021E+03        -0.96092E+02         0.00000E+00
   -0.96092E+02         0.31513E+01         0.00000E+00
    0.00000E+00         0.00000E+00         0.13901E+03
 
    0.23057E+03        -0.25937E+03         0.00000E+00
   -0.25937E+03         0.17604E+02         0.00000E+00
    0.00000E+00         0.00000E+00         0.74453E+02
 
   -0.19636E+02        -0.38474E+03         0.00000E+00
   -0.38474E+03         0.42394E+02         0.00000E+00
    0.00000E+00         0.00000E+00         0.68272E+01
 
   -0.28196E+03        -0.47287E+03         0.00000E+00
   -0.47287E+03         0.73412E+02         0.00000E+00
    0.00000E+00         0.00000E+00        -0.62563E+02
 
   -0.54848E+03        -0.52517E+03         0.00000E+00
   -0.52517E+03         0.10692E+03         0.00000E+00
    0.00000E+00         0.00000E+00        -0.13247E+03
 
   -0.81193E+03        -0.54364E+03         0.00000E+00
   -0.54364E+03         0.13960E+03         0.00000E+00
    0.00000E+00         0.00000E+00        -0.20170E+03
 
   -0.10658E+04        -0.53075E+03         0.00000E+00
   -0.53075E+03         0.16861E+03         0.00000E+00
    0.00000E+00         0.00000E+00        -0.26915E+03
 
   -0.13042E+04        -0.48935E+03         0.00000E+00
   -0.48935E+03         0.19156E+03         0.00000E+00
    0.00000E+00         0.00000E+00        -0.33378E+03
 
   -0.15221E+04        -0.42252E+03         0.00000E+00
   -0.42252E+03         0.20655E+03         0.00000E+00
    0.00000E+00         0.00000E+00        -0.39466E+03
 
   -0.17152E+04        -0.33348E+03         0.00000E+00
   -0.33348E+03         0.21214E+03         0.00000E+00
    0.00000E+00         0.00000E+00        -0.45091E+03
 
   -0.18798E+04        -0.22547E+03         0.00000E+00
   -0.22547E+03         0.20727E+03         0.00000E+00
    0.00000E+00         0.00000E+00        -0.50176E+03
 
   -0.20129E+04        -0.10170E+03         0.00000E+00
   -0.10170E+03         0.19125E+03         0.00000E+00
    0.00000E+00         0.00000E+00        -0.54651E+03
 
   -0.21122E+04         0.34700E+02         0.00000E+00
    0.34700E+02         0.16369E+03         0.00000E+00
    0.00000E+00         0.00000E+00        -0.58455E+03
 
   -0.21755E+04         0.18074E+03         0.00000E+00
    0.18074E+03         0.12442E+03         0.00000E+00
    0.00000E+00         0.00000E+00        -0.61533E+03
 
   -0.22013E+04         0.33357E+03         0.00000E+00
    0.33357E+03         0.73429E+02         0.00000E+00
    0.00000E+00         0.00000E+00        -0.63837E+03
 
   -0.21884E+04         0.49044E+03         0.00000E+00
    0.49044E+03         0.10827E+02         0.00000E+00
    0.00000E+00         0.00000E+00        -0.65327E+03
 
   -0.21356E+04         0.64870E+03         0.00000E+00
    0.64870E+03        -0.63238E+02         0.00000E+00
    0.00000E+00         0.00000E+00        -0.65966E+03
 
   -0.20422E+04         0.80577E+03         0.00000E+00
    0.80577E+03        -0.14860E+03         0.00000E+00
    0.00000E+00         0.00000E+00        -0.65724E+03
 
   -0.19074E+04         0.95900E+03         0.00000E+00
    0.95900E+03        -0.24510E+03         0.00000E+00
    0.00000E+00         0.00000E+00        -0.64575E+03
 
   -0.17307E+04         0.11057E+04         0.00000E+00
    0.11057E+04        -0.35262E+03         0.00000E+00
    0.00000E+00         0.00000E+00        -0.62498E+03
 
   -0.15116E+04         0.12430E+04         0.00000E+00
    0.12430E+04        -0.47105E+03         0.00000E+00
    0.00000E+00         0.00000E+00        -0.59478E+03
 
   -0.12498E+04         0.13677E+04         0.00000E+00
    0.13677E+04        -0.60026E+03         0.00000E+00
    0.00000E+00         0.00000E+00        -0.55502E+03
 
   -0.94543E+03         0.14765E+04         0.00000E+00
    0.14765E+04        -0.74009E+03         0.00000E+00
    0.00000E+00         0.00000E+00        -0.50566E+03
 
   -0.59869E+03         0.15654E+04         0.00000E+00
    0.15654E+04        -0.89023E+03         0.00000E+00
    0.00000E+00         0.00000E+00        -0.44667E+03
 
    0.28528E+03        -0.88238E+02         0.00000E+00
   -0.88238E+02         0.30586E+01         0.00000E+00
    0.00000E+00         0.00000E+00         0.86500E+02
 
    0.91464E+02        -0.23908E+03         0.00000E+00
   -0.23908E+03         0.17202E+02         0.00000E+00
    0.00000E+00         0.00000E+00         0.32600E+02
 
   -0.12307E+03        -0.35609E+03         0.00000E+00
   -0.35609E+03         0.41744E+02         0.00000E+00
    0.00000E+00         0.00000E+00        -0.24398E+02
 
   -0.35059E+03        -0.43964E+03         0.00000E+00
   -0.43964E+03         0.72916E+02         0.00000E+00
    0.00000E+00         0.00000E+00        -0.83304E+02
 
   -0.58383E+03        -0.49077E+03         0.00000E+00
   -0.49077E+03         0.10725E+03         0.00000E+00
    0.00000E+00         0.00000E+00        -0.14297E+03
 
   -0.81605E+03        -0.51108E+03         0.00000E+00
   -0.51108E+03         0.14164E+03         0.00000E+00
    0.00000E+00         0.00000E+00        -0.20232E+03
 
   -0.10411E+04        -0.50260E+03         0.00000E+00
   -0.50260E+03         0.17336E+03         0.00000E+00
    0.00000E+00         0.00000E+00        -0.26032E+03
 
   -0.12535E+04        -0.46774E+03         0.00000E+00
   -0.46774E+03         0.20008E+03         0.00000E+00
    0.00000E+00         0.00000E+00        -0.31601E+03
 
   -0.14483E+04        -0.40915E+03         0.00000E+00
   -0.40915E+03         0.21990E+03         0.00000E+00
    0.00000E+00         0.00000E+00        -0.36851E+03
 
   -0.16213E+04        -0.32964E+03         0.00000E+00
   -0.32964E+03         0.23128E+03         0.00000E+00
    0.00000E+00         0.00000E+00        -0.41701E+03
 
   -0.17690E+04        -0.23208E+03         0.00000E+00
   -0.23208E+03         0.23307E+03         0.00000E+00
    0.00000E+00         0.00000E+00        -0.46077E+03
 
   -0.18882E+04        -0.11939E+03         0.00000E+00
   -0.11939E+03         0.22443E+03         0.00000E+00
    0.00000E+00         0.00000E+00        -0.49912E+03
 
   -0.19764E+04         0.55698E+01         0.00000E+00
    0.55698E+01         0.20480E+03         0.00000E+00
    0.00000E+00         0.00000E+00        -0.53148E+03
 
   -0.20316E+04         0.14001E+03         0.00000E+00
    0.14001E+03         0.17383E+03         0.00000E+00
    0.00000E+00         0.00000E+00        -0.55732E+03
 
   -0.20520E+04         0.28122E+03         0.00000E+00
    0.28122E+03         0.13138E+03         0.00000E+00
    0.00000E+00         0.00000E+00        -0.57618E+03
 
   -0.20363E+04         0.42654E+03         0.00000E+00
    0.42654E+03         0.77399E+02         0.00000E+00
    0.00000E+00         0.00000E+00        -0.58766E+03
 
   -0.19833E+04         0.57339E+03         0.00000E+00
    0.57339E+03         0.11946E+02         0.00000E+00
    0.00000E+00         0.00000E+00        -0.59141E+03
 
   -0.18923E+04         0.71917E+03         0.00000E+00
    0.71917E+03        -0.64874E+02         0.00000E+00
    0.00000E+00         0.00000E+00        -0.58716E+03
 
   -0.17626E+04         0.86128E+03         0.00000E+00
    0.86128E+03        -0.15292E+03         0.00000E+00
    0.00000E+00         0.00000E+00        -0.57466E+03
 
   -0.15938E+04         0.99700E+03         0.00000E+00
    0.99700E+03        -0.25201E+03         0.00000E+00
    0.00000E+00         0.00000E+00        -0.55373E+03
 
   -0.13855E+04         0.11235E+04         0.00000E+00
    0.11235E+04        -0.36194E+03         0.00000E+00
    0.00000E+00         0.00000E+00        -0.52424E+03
 
   -0.11379E+04         0.12377E+04         0.00000E+00
    0.12377E+04        -0.48245E+03         0.00000E+00
    0.00000E+00         0.00000E+00        -0.48610E+03
 
   -0.85116E+03         0.13362E+04         0.00000E+00
    0.13362E+04        -0.61315E+03         0.00000E+00
    0.00000E+00         0.00000E+00        -0.43929E+03
 
   -0.52605E+03         0.14153E+04         0.00000E+00
    0.14153E+04        -0.75351E+03         0.00000E+00
    0.00000E+00         0.00000E+00        -0.38387E+03
 
    0.12473E+03        -0.80627E+02         0.00000E+00
   -0.80627E+02         0.29523E+01         0.00000E+00
    0.00000E+00         0.00000E+00         0.38305E+02
 
   -0.37270E+02        -0.21921E+03         0.00000E+00
   -0.21921E+03         0.16701E+02         0.00000E+00
    0.00000E+00         0.00000E+00        -0.61708E+01
 
   -0.21990E+03        -0.32768E+03         0.00000E+00
   -0.32768E+03         0.40791E+02         0.00000E+00
    0.00000E+00         0.00000E+00        -0.53733E+02
 
   -0.41610E+03        -0.40619E+03         0.00000E+00
   -0.40619E+03         0.71764E+02         0.00000E+00
    0.00000E+00         0.00000E+00        -0.10330E+03
 
   -0.61917E+03        -0.45546E+03         0.00000E+00
   -0.45546E+03         0.10641E+03         0.00000E+00
    0.00000E+00         0.00000E+00        -0.15383E+03
 
   -0.82287E+03        -0.47674E+03         0.00000E+00
   -0.47674E+03         0.14181E+03         0.00000E+00
    0.00000E+00         0.00000E+00        -0.20432E+03
 
   -0.10214E+04        -0.47172E+03         0.00000E+00
   -0.47172E+03         0.17536E+03         0.00000E+00
    0.00000E+00         0.00000E+00        -0.25383E+03
 
   -0.12097E+04        -0.44242E+03         0.00000E+00
   -0.44242E+03         0.20481E+03         0.00000E+00
    0.00000E+00         0.00000E+00        -0.30146E+03
 
   -0.13829E+04        -0.39111E+03         0.00000E+00
   -0.39111E+03         0.22826E+03         0.00000E+00
    0.00000E+00         0.00000E+00        -0.34640E+03
 
   -0.15371E+04        -0.32024E+03         0.00000E+00
   -0.32024E+03         0.24414E+03         0.00000E+00
    0.00000E+00         0.00000E+00        -0.38788E+03
 
   -0.16686E+04        -0.23238E+03         0.00000E+00
   -0.23238E+03         0.25122E+03         0.00000E+00
    0.00000E+00         0.00000E+00        -0.42521E+03
 
   -0.17744E+04        -0.13014E+03         0.00000E+00
   -0.13014E+03         0.24854E+03         0.00000E+00
    0.00000E+00         0.00000E+00        -0.45776E+03
 
   -0.18520E+04        -0.16136E+02         0.00000E+00
   -0.16136E+02         0.23542E+03         0.00000E+00
    0.00000E+00         0.00000E+00        -0.48496E+03
 
   -0.18991E+04         0.10704E+03         0.00000E+00
    0.10704E+03         0.21140E+03         0.00000E+00
    0.00000E+00         0.00000E+00        -0.50632E+03
 
   -0.19141E+04         0.23683E+03         0.00000E+00
    0.23683E+03         0.17618E+03         0.00000E+00
    0.00000E+00         0.00000E+00        -0.52139E+03
 
   -0.18956E+04         0.37070E+03         0.00000E+00
    0.37070E+03         0.12963E+03         0.00000E+00
    0.00000E+00         0.00000E+00        -0.52979E+03
 
   -0.18424E+04         0.50614E+03         0.00000E+00
    0.50614E+03         0.71720E+02         0.00000E+00
    0.00000E+00         0.00000E+00        -0.53120E+03
 
   -0.17537E+04         0.64064E+03         0.00000E+00
    0.64064E+03         0.25118E+01         0.00000E+00
    0.00000E+00         0.00000E+00        -0.52535E+03
 
   -0.16289E+04         0.77162E+03         0.00000E+00
    0.77162E+03        -0.77856E+02         0.00000E+00
    0.00000E+00         0.00000E+00        -0.51202E+03
 
   -0.14677E+04         0.89645E+03         0.00000E+00
    0.89645E+03        -0.16917E+03         0.00000E+00
    0.00000E+00         0.00000E+00        -0.49106E+03
 
   -0.12700E+04         0.10123E+04         0.00000E+00
    0.10123E+04        -0.27115E+03         0.00000E+00
    0.00000E+00         0.00000E+00        -0.46236E+03
 
   -0.10361E+04         0.11163E+04         0.00000E+00
    0.11163E+04        -0.38339E+03         0.00000E+00
    0.00000E+00         0.00000E+00        -0.42586E+03
 
   -0.76657E+03         0.12051E+04         0.00000E+00
    0.12051E+04        -0.50536E+03         0.00000E+00
    0.00000E+00         0.00000E+00        -0.38158E+03
 
   -0.46233E+03         0.12753E+04         0.00000E+00
    0.12753E+04        -0.63633E+03         0.00000E+00
    0.00000E+00         0.00000E+00        -0.32960E+03
 
   -0.21837E+02        -0.73289E+02         0.00000E+00
   -0.73289E+02         0.28366E+01         0.00000E+00
    0.00000E+00         0.00000E+00        -0.57002E+01
 
   -0.15568E+03        -0.19988E+03         0.00000E+00
   -0.19988E+03         0.16128E+02         0.00000E+00
    0.00000E+00         0.00000E+00        -0.41866E+02
 
   -0.30987E+03        -0.29978E+03         0.00000E+00
   -0.29978E+03         0.39609E+02         0.00000E+00
    0.00000E+00         0.00000E+00        -0.81079E+02
 
   -0.47796E+03        -0.37291E+03         0.00000E+00
   -0.37291E+03         0.70110E+02         0.00000E+00
    0.00000E+00         0.00000E+00        -0.12236E+03
 
   -0.65379E+03        -0.41977E+03         0.00000E+00
   -0.41977E+03         0.10465E+03         0.00000E+00
    0.00000E+00         0.00000E+00        -0.16474E+03
 
   -0.83158E+03        -0.44134E+03         0.00000E+00
   -0.44134E+03         0.14049E+03         0.00000E+00
    0.00000E+00         0.00000E+00        -0.20733E+03
 
   -0.10059E+04        -0.43898E+03         0.00000E+00
   -0.43898E+03         0.17517E+03         0.00000E+00
    0.00000E+00         0.00000E+00        -0.24923E+03
 
   -0.11719E+04        -0.41439E+03         0.00000E+00
   -0.41439E+03         0.20650E+03         0.00000E+00
    0.00000E+00         0.00000E+00        -0.28964E+03
 
   -0.13252E+04        -0.36952E+03         0.00000E+00
   -0.36952E+03         0.23260E+03         0.00000E+00
    0.00000E+00         0.00000E+00        -0.32778E+03
 
   -0.14617E+04        -0.30652E+03         0.00000E+00
   -0.30652E+03         0.25190E+03         0.00000E+00
    0.00000E+00         0.00000E+00        -0.36293E+03
 
   -0.15780E+04        -0.22765E+03         0.00000E+00
   -0.22765E+03         0.26311E+03         0.00000E+00
    0.00000E+00         0.00000E+00        -0.39446E+03
 
   -0.16711E+04        -0.13525E+03         0.00000E+00
   -0.13525E+03         0.26520E+03         0.00000E+00
    0.00000E+00         0.00000E+00        -0.42177E+03
 
   -0.17384E+04        -0.31714E+02         0.00000E+00
   -0.31714E+02         0.25740E+03         0.00000E+00
    0.00000E+00         0.00000E+00        -0.44431E+03
 
   -0.17779E+04         0.80576E+02         0.00000E+00
    0.80576E+02         0.23913E+03         0.00000E+00
    0.00000E+00         0.00000E+00        -0.46162E+03
 
   -0.17876E+04         0.19922E+03         0.00000E+00
    0.19922E+03         0.21002E+03         0.00000E+00
    0.00000E+00         0.00000E+00        -0.47328E+03
 
   -0.17663E+04         0.32183E+03         0.00000E+00
    0.32183E+03         0.16985E+03         0.00000E+00
    0.00000E+00         0.00000E+00        -0.47893E+03
 
   -0.17127E+04         0.44601E+03         0.00000E+00
    0.44601E+03         0.11852E+03         0.00000E+00
    0.00000E+00         0.00000E+00        -0.47827E+03
 
   -0.16262E+04         0.56934E+03         0.00000E+00
    0.56934E+03         0.56065E+02         0.00000E+00
    0.00000E+00         0.00000E+00        -0.47104E+03
 
   -0.15061E+04         0.68933E+03         0.00000E+00
    0.68933E+03        -0.17377E+02         0.00000E+00
    0.00000E+00         0.00000E+00        -0.45705E+03
 
   -0.13523E+04         0.80344E+03         0.00000E+00
    0.80344E+03        -0.10157E+03         0.00000E+00
    0.00000E+00         0.00000E+00        -0.43616E+03
 
   -0.11648E+04         0.90897E+03         0.00000E+00
    0.90897E+03        -0.19614E+03         0.00000E+00
    0.00000E+00         0.00000E+00        -0.40829E+03
 
   -0.94414E+03         0.10031E+04         0.00000E+00
    0.10031E+04        -0.30062E+03         0.00000E+00
    0.00000E+00         0.00000E+00        -0.37343E+03
 
   -0.69100E+03         0.10828E+04         0.00000E+00
    0.10828E+04        -0.41432E+03         0.00000E+00
    0.00000E+00         0.00000E+00        -0.33160E+03
 
   -0.40666E+03         0.11448E+04         0.00000E+00
    0.11448E+04        -0.53638E+03         0.00000E+00
    0.00000E+00         0.00000E+00        -0.28291E+03
 
   -0.15491E+03        -0.66247E+02         0.00000E+00
   -0.66247E+02         0.27151E+01         0.00000E+00
    0.00000E+00         0.00000E+00        -0.45659E+02
 
   -0.26391E+03        -0.18119E+03         0.00000E+00
   -0.18119E+03         0.15506E+02         0.00000E+00
    0.00000E+00         0.00000E+00        -0.74522E+02
 
   -0.39284E+03        -0.27254E+03         0.00000E+00
   -0.27254E+03         0.38268E+02         0.00000E+00
    0.00000E+00         0.00000E+00        -0.10637E+03
 
   -0.53580E+03        -0.34010E+03         0.00000E+00
   -0.34010E+03         0.68088E+02         0.00000E+00
    0.00000E+00         0.00000E+00        -0.14032E+03
 
   -0.68714E+03        -0.38415E+03         0.00000E+00
   -0.38415E+03         0.10220E+03         0.00000E+00
    0.00000E+00         0.00000E+00        -0.17548E+03
 
   -0.84147E+03        -0.40544E+03         0.00000E+00
   -0.40544E+03         0.13805E+03         0.00000E+00
    0.00000E+00         0.00000E+00        -0.21103E+03
 
   -0.99379E+03        -0.40508E+03         0.00000E+00
   -0.40508E+03         0.17328E+03         0.00000E+00
    0.00000E+00         0.00000E+00        -0.24615E+03
 
   -0.11395E+04        -0.38449E+03         0.00000E+00
   -0.38449E+03         0.20580E+03         0.00000E+00
    0.00000E+00         0.00000E+00        -0.28010E+03
 
   -0.12743E+04        -0.34535E+03         0.00000E+00
   -0.34535E+03         0.23376E+03         0.00000E+00
    0.00000E+00         0.00000E+00        -0.31215E+03
 
   -0.13944E+04        -0.28950E+03         0.00000E+00
   -0.28950E+03         0.25559E+03         0.00000E+00
    0.00000E+00         0.00000E+00        -0.34164E+03
 
   -0.14965E+04        -0.21897E+03         0.00000E+00
   -0.21897E+03         0.26998E+03         0.00000E+00
    0.00000E+00         0.00000E+00        -0.36796E+03
 
   -0.15777E+04        -0.13584E+03         0.00000E+00
   -0.13584E+03         0.27584E+03         0.00000E+00
    0.00000E+00         0.00000E+00        -0.39056E+03
 
   -0.16354E+04        -0.42269E+02         0.00000E+00
   -0.42269E+02         0.27233E+03         0.00000E+00
    0.00000E+00         0.00000E+00        -0.40892E+03
 
   -0.16675E+04         0.59541E+02         0.00000E+00
    0.59541E+02         0.25881E+03         0.00000E+00
    0.00000E+00         0.00000E+00        -0.42260E+03
 
   -0.16722E+04         0.16737E+03         0.00000E+00
    0.16737E+03         0.23482E+03         0.00000E+00
    0.00000E+00         0.00000E+00        -0.43121E+03
 
   -0.16481E+04         0.27899E+03         0.00000E+00
    0.27899E+03         0.20010E+03         0.00000E+00
    0.00000E+00         0.00000E+00        -0.43441E+03
 
   -0.15942E+04         0.39213E+03         0.00000E+00
    0.39213E+03         0.15449E+03         0.00000E+00
    0.00000E+00         0.00000E+00        -0.43192E+03
 
   -0.15097E+04         0.50449E+03         0.00000E+00
    0.50449E+03         0.98009E+02         0.00000E+00
    0.00000E+00         0.00000E+00        -0.42350E+03
 
   -0.13941E+04         0.61372E+03         0.00000E+00
    0.61372E+03         0.30787E+02         0.00000E+00
    0.00000E+00         0.00000E+00        -0.40899E+03
 
   -0.12473E+04         0.71737E+03         0.00000E+00
    0.71737E+03        -0.46906E+02         0.00000E+00
    0.00000E+00         0.00000E+00        -0.38826E+03
 
   -0.10695E+04         0.81291E+03         0.00000E+00
    0.81291E+03        -0.13466E+03         0.00000E+00
    0.00000E+00         0.00000E+00        -0.36126E+03
 
   -0.86138E+03         0.89766E+03         0.00000E+00
    0.89766E+03        -0.23189E+03         0.00000E+00
    0.00000E+00         0.00000E+00        -0.32798E+03
 
   -0.62380E+03         0.96880E+03         0.00000E+00
    0.96880E+03        -0.33785E+03         0.00000E+00
    0.00000E+00         0.00000E+00        -0.28849E+03
 
   -0.35822E+03         0.10233E+04         0.00000E+00
    0.10233E+04        -0.45154E+03         0.00000E+00
    0.00000E+00         0.00000E+00        -0.24293E+03
 
   -0.27501E+03        -0.59510E+02         0.00000E+00
   -0.59510E+02         0.25913E+01         0.00000E+00
    0.00000E+00         0.00000E+00        -0.81725E+02
 
   -0.36219E+03        -0.16319E+03         0.00000E+00
   -0.16319E+03         0.14859E+02         0.00000E+00
    0.00000E+00         0.00000E+00        -0.10420E+03
 
   -0.46877E+03        -0.24612E+03         0.00000E+00
   -0.24612E+03         0.36826E+02         0.00000E+00
    0.00000E+00         0.00000E+00        -0.12958E+03
 
   -0.58937E+03        -0.30798E+03         0.00000E+00
   -0.30798E+03         0.65819E+02         0.00000E+00
    0.00000E+00         0.00000E+00        -0.15706E+03
 
   -0.71877E+03        -0.34892E+03         0.00000E+00
   -0.34892E+03         0.99276E+02         0.00000E+00
    0.00000E+00         0.00000E+00        -0.18585E+03
 
   -0.85201E+03        -0.36949E+03         0.00000E+00
   -0.36949E+03         0.13479E+03         0.00000E+00
    0.00000E+00         0.00000E+00        -0.21517E+03
 
   -0.98439E+03        -0.37059E+03         0.00000E+00
   -0.37059E+03         0.17013E+03         0.00000E+00
    0.00000E+00         0.00000E+00        -0.24428E+03
 
   -0.11116E+04        -0.35339E+03         0.00000E+00
   -0.35339E+03         0.20329E+03         0.00000E+00
    0.00000E+00         0.00000E+00        -0.27248E+03
 
   -0.12295E+04        -0.31933E+03         0.00000E+00
   -0.31933E+03         0.23247E+03         0.00000E+00
    0.00000E+00         0.00000E+00        -0.29910E+03
 
   -0.13346E+04        -0.27002E+03         0.00000E+00
   -0.27002E+03         0.25612E+03         0.00000E+00
    0.00000E+00         0.00000E+00        -0.32354E+03
 
   -0.14236E+04        -0.20723E+03         0.00000E+00
   -0.20723E+03         0.27289E+03         0.00000E+00
    0.00000E+00         0.00000E+00        -0.34521E+03
 
   -0.14937E+04        -0.13282E+03         0.00000E+00
   -0.13282E+03         0.28168E+03         0.00000E+00
    0.00000E+00         0.00000E+00        -0.36360E+03
 
   -0.15424E+04        -0.48742E+02         0.00000E+00
   -0.48742E+02         0.28161E+03         0.00000E+00
    0.00000E+00         0.00000E+00        -0.37822E+03
 
   -0.15675E+04         0.43011E+02         0.00000E+00
    0.43011E+02         0.27197E+03         0.00000E+00
    0.00000E+00         0.00000E+00        -0.38867E+03
 
   -0.15675E+04         0.14039E+03         0.00000E+00
    0.14039E+03         0.25227E+03         0.00000E+00
    0.00000E+00         0.00000E+00        -0.39457E+03
 
   -0.15409E+04         0.24134E+03         0.00000E+00
    0.24134E+03         0.22218E+03         0.00000E+00
    0.00000E+00         0.00000E+00        -0.39561E+03
 
   -0.14866E+04         0.34372E+03         0.00000E+00
    0.34372E+03         0.18153E+03         0.00000E+00
    0.00000E+00         0.00000E+00        -0.39151E+03
 
   -0.14039E+04         0.44539E+03         0.00000E+00
    0.44539E+03         0.13030E+03         0.00000E+00
    0.00000E+00         0.00000E+00        -0.38209E+03
 
   -0.12925E+04         0.54414E+03         0.00000E+00
    0.54414E+03         0.68636E+02         0.00000E+00
    0.00000E+00         0.00000E+00        -0.36717E+03
 
   -0.11524E+04         0.63766E+03         0.00000E+00
    0.63766E+03        -0.31745E+01         0.00000E+00
    0.00000E+00         0.00000E+00        -0.34666E+03
 
   -0.98373E+03         0.72359E+03         0.00000E+00
    0.72359E+03        -0.84675E+02         0.00000E+00
    0.00000E+00         0.00000E+00        -0.32052E+03
 
   -0.78736E+03         0.79943E+03         0.00000E+00
    0.79943E+03        -0.17523E+03         0.00000E+00
    0.00000E+00         0.00000E+00        -0.28878E+03
 
   -0.56435E+03         0.86258E+03         0.00000E+00
    0.86258E+03        -0.27399E+03         0.00000E+00
    0.00000E+00         0.00000E+00        -0.25150E+03
 
   -0.31628E+03         0.91029E+03         0.00000E+00
    0.91029E+03        -0.37989E+03         0.00000E+00
    0.00000E+00         0.00000E+00        -0.20885E+03
 
   -0.38266E+03        -0.53082E+02         0.00000E+00
   -0.53082E+02         0.24682E+01         0.00000E+00
    0.00000E+00         0.00000E+00        -0.11406E+03
 
   -0.45077E+03        -0.14591E+03         0.00000E+00
   -0.14591E+03         0.14204E+02         0.00000E+00
    0.00000E+00         0.00000E+00        -0.13097E+03
 
   -0.53768E+03        -0.22058E+03         0.00000E+00
   -0.22058E+03         0.35338E+02         0.00000E+00
    0.00000E+00         0.00000E+00        -0.15070E+03
 
   -0.63848E+03        -0.27671E+03         0.00000E+00
   -0.27671E+03         0.63411E+02         0.00000E+00
    0.00000E+00         0.00000E+00        -0.17252E+03
 
   -0.74837E+03        -0.31433E+03         0.00000E+00
   -0.31433E+03         0.96044E+02         0.00000E+00
    0.00000E+00         0.00000E+00        -0.19570E+03
 
   -0.86273E+03        -0.33383E+03         0.00000E+00
   -0.33383E+03         0.13098E+03         0.00000E+00
    0.00000E+00         0.00000E+00        -0.21953E+03
 
   -0.97719E+03        -0.33593E+03         0.00000E+00
   -0.33593E+03         0.16610E+03         0.00000E+00
    0.00000E+00         0.00000E+00        -0.24333E+03
 
   -0.10876E+04        -0.32161E+03         0.00000E+00
   -0.32161E+03         0.19948E+03         0.00000E+00
    0.00000E+00         0.00000E+00        -0.26645E+03
 
   -0.11903E+04        -0.29209E+03         0.00000E+00
   -0.29209E+03         0.22938E+03         0.00000E+00
    0.00000E+00         0.00000E+00        -0.28827E+03
 
   -0.12817E+04        -0.24876E+03         0.00000E+00
   -0.24876E+03         0.25425E+03         0.00000E+00
    0.00000E+00         0.00000E+00        -0.30822E+03
 
   -0.13587E+04        -0.19317E+03         0.00000E+00
   -0.19317E+03         0.27277E+03         0.00000E+00
    0.00000E+00         0.00000E+00        -0.32577E+03
 
   -0.14185E+04        -0.12698E+03         0.00000E+00
   -0.12698E+03         0.28382E+03         0.00000E+00
    0.00000E+00         0.00000E+00        -0.34042E+03
 
   -0.14589E+04        -0.51922E+02         0.00000E+00
   -0.51922E+02         0.28646E+03         0.00000E+00
    0.00000E+00         0.00000E+00        -0.35173E+03
 
   -0.14777E+04         0.30194E+02         0.00000E+00
    0.30194E+02         0.27998E+03         0.00000E+00
    0.00000E+00         0.00000E+00        -0.35931E+03
 
   -0.14732E+04         0.11751E+03         0.00000E+00
    0.11751E+03         0.26384E+03         0.00000E+00
    0.00000E+00         0.00000E+00        -0.36282E+03
 
   -0.14442E+04         0.20812E+03         0.00000E+00
    0.20812E+03         0.23768E+03         0.00000E+00
    0.00000E+00         0.00000E+00        -0.36195E+03
 
   -0.13895E+04         0.30007E+03         0.00000E+00
    0.30007E+03         0.20129E+03         0.00000E+00
    0.00000E+00         0.00000E+00        -0.35647E+03
 
   -0.13086E+04         0.39137E+03         0.00000E+00
    0.39137E+03         0.15466E+03         0.00000E+00
    0.00000E+00         0.00000E+00        -0.34618E+03
 
   -0.12011E+04         0.47996E+03         0.00000E+00
    0.47996E+03         0.97935E+02         0.00000E+00
    0.00000E+00         0.00000E+00        -0.33096E+03
 
   -0.10671E+04         0.56371E+03         0.00000E+00
    0.56371E+03         0.31414E+02         0.00000E+00
    0.00000E+00         0.00000E+00        -0.31071E+03
 
   -0.90699E+03         0.64044E+03         0.00000E+00
    0.64044E+03        -0.44408E+02         0.00000E+00
    0.00000E+00         0.00000E+00        -0.28542E+03
 
   -0.72156E+03         0.70784E+03         0.00000E+00
    0.70784E+03        -0.12885E+03         0.00000E+00
    0.00000E+00         0.00000E+00        -0.25512E+03
 
   -0.51205E+03         0.76353E+03         0.00000E+00
    0.76353E+03        -0.22100E+03         0.00000E+00
    0.00000E+00         0.00000E+00        -0.21991E+03
 
   -0.28013E+03         0.80503E+03         0.00000E+00
    0.80503E+03        -0.31973E+03         0.00000E+00
    0.00000E+00         0.00000E+00        -0.17996E+03
 
   -0.47843E+03        -0.46960E+02         0.00000E+00
   -0.46960E+02         0.23485E+01         0.00000E+00
    0.00000E+00         0.00000E+00        -0.14282E+03
 
   -0.52995E+03        -0.12935E+03         0.00000E+00
   -0.12935E+03         0.13560E+02         0.00000E+00
    0.00000E+00         0.00000E+00        -0.15492E+03
 
   -0.59966E+03        -0.19597E+03         0.00000E+00
   -0.19597E+03         0.33850E+02         0.00000E+00
    0.00000E+00         0.00000E+00        -0.16974E+03
 
   -0.68304E+03        -0.24639E+03         0.00000E+00
   -0.24639E+03         0.60956E+02         0.00000E+00
    0.00000E+00         0.00000E+00        -0.18663E+03
 
   -0.77568E+03        -0.28054E+03         0.00000E+00
   -0.28054E+03         0.92665E+02         0.00000E+00
    0.00000E+00         0.00000E+00        -0.20490E+03
 
   -0.87328E+03        -0.29870E+03         0.00000E+00
   -0.29870E+03         0.12685E+03         0.00000E+00
    0.00000E+00         0.00000E+00        -0.22393E+03
 
   -0.97175E+03        -0.30143E+03         0.00000E+00
   -0.30143E+03         0.16152E+03         0.00000E+00
    0.00000E+00         0.00000E+00        -0.24307E+03
 
   -0.10672E+04        -0.28956E+03         0.00000E+00
   -0.28956E+03         0.19480E+03         0.00000E+00
    0.00000E+00         0.00000E+00        -0.26173E+03
 
   -0.11561E+04        -0.26410E+03         0.00000E+00
   -0.26410E+03         0.22503E+03         0.00000E+00
    0.00000E+00         0.00000E+00        -0.27932E+03
 
   -0.12351E+04        -0.22627E+03         0.00000E+00
   -0.22627E+03         0.25068E+03         0.00000E+00
    0.00000E+00         0.00000E+00        -0.29533E+03
 
   -0.13012E+04        -0.17740E+03         0.00000E+00
   -0.17740E+03         0.27043E+03         0.00000E+00
    0.00000E+00         0.00000E+00        -0.30924E+03
 
   -0.13518E+04        -0.11895E+03         0.00000E+00
   -0.11895E+03         0.28317E+03         0.00000E+00
    0.00000E+00         0.00000E+00        -0.32060E+03
 
   -0.13846E+04        -0.52472E+02         0.00000E+00
   -0.52472E+02         0.28795E+03         0.00000E+00
    0.00000E+00         0.00000E+00        -0.32899E+03
 
   -0.13975E+04         0.20420E+02         0.00000E+00
    0.20420E+02         0.28401E+03         0.00000E+00
    0.00000E+00         0.00000E+00        -0.33405E+03
 
   -0.13890E+04         0.98046E+02         0.00000E+00
    0.98046E+02         0.27081E+03         0.00000E+00
    0.00000E+00         0.00000E+00        -0.33545E+03
 
   -0.13577E+04         0.17868E+03         0.00000E+00
    0.17868E+03         0.24795E+03         0.00000E+00
    0.00000E+00         0.00000E+00        -0.33293E+03
 
   -0.13027E+04         0.26054E+03         0.00000E+00
    0.26054E+03         0.21522E+03         0.00000E+00
    0.00000E+00         0.00000E+00        -0.32625E+03
 
   -0.12234E+04         0.34181E+03         0.00000E+00
    0.34181E+03         0.17260E+03         0.00000E+00
    0.00000E+00         0.00000E+00        -0.31524E+03
 
   -0.11195E+04         0.42059E+03         0.00000E+00
    0.42059E+03         0.12023E+03         0.00000E+00
    0.00000E+00         0.00000E+00        -0.29979E+03
 
   -0.99119E+03         0.49496E+03         0.00000E+00
    0.49496E+03         0.58423E+02         0.00000E+00
    0.00000E+00         0.00000E+00        -0.27983E+03
 
   -0.83889E+03         0.56289E+03         0.00000E+00
    0.56289E+03        -0.12288E+02         0.00000E+00
    0.00000E+00         0.00000E+00        -0.25535E+03
 
   -0.66350E+03         0.62231E+03         0.00000E+00
    0.62231E+03        -0.91185E+02         0.00000E+00
    0.00000E+00         0.00000E+00        -0.22641E+03
 
   -0.46634E+03         0.67106E+03         0.00000E+00
    0.67106E+03        -0.17733E+03         0.00000E+00
    0.00000E+00         0.00000E+00        -0.19310E+03
 
   -0.24918E+03         0.70691E+03         0.00000E+00
    0.70691E+03        -0.26953E+03         0.00000E+00
    0.00000E+00         0.00000E+00        -0.15561E+03
 
   -0.56284E+03        -0.41131E+02         0.00000E+00
   -0.41131E+02         0.22345E+01         0.00000E+00
    0.00000E+00         0.00000E+00        -0.16818E+03
 
   -0.60005E+03        -0.11352E+03         0.00000E+00
   -0.11352E+03         0.12941E+02         0.00000E+00
    0.00000E+00         0.00000E+00        -0.17613E+03
 
   -0.65482E+03        -0.17231E+03         0.00000E+00
   -0.17231E+03         0.32405E+02         0.00000E+00
    0.00000E+00         0.00000E+00        -0.18673E+03
 
   -0.72301E+03        -0.21706E+03         0.00000E+00
   -0.21706E+03         0.58537E+02         0.00000E+00
    0.00000E+00         0.00000E+00        -0.19934E+03
 
   -0.80052E+03        -0.24765E+03         0.00000E+00
   -0.24765E+03         0.89275E+02         0.00000E+00
    0.00000E+00         0.00000E+00        -0.21337E+03
 
   -0.88336E+03        -0.26426E+03         0.00000E+00
   -0.26426E+03         0.12262E+03         0.00000E+00
    0.00000E+00         0.00000E+00        -0.22822E+03
 
   -0.96770E+03        -0.26733E+03         0.00000E+00
   -0.26733E+03         0.15666E+03         0.00000E+00
    0.00000E+00         0.00000E+00        -0.24331E+03
 
   -0.10499E+04        -0.25754E+03         0.00000E+00
   -0.25754E+03         0.18964E+03         0.00000E+00
    0.00000E+00         0.00000E+00        -0.25808E+03
 
   -0.11265E+04        -0.23574E+03         0.00000E+00
   -0.23574E+03         0.21990E+03         0.00000E+00
    0.00000E+00         0.00000E+00        -0.27199E+03
 
   -0.11944E+04        -0.20297E+03         0.00000E+00
   -0.20297E+03         0.24598E+03         0.00000E+00
    0.00000E+00         0.00000E+00        -0.28454E+03
 
   -0.12508E+04        -0.16038E+03         0.00000E+00
   -0.16038E+03         0.26657E+03         0.00000E+00
    0.00000E+00         0.00000E+00        -0.29527E+03
 
   -0.12931E+04        -0.10925E+03         0.00000E+00
   -0.10925E+03         0.28055E+03         0.00000E+00
    0.00000E+00         0.00000E+00        -0.30376E+03
 
   -0.13190E+04        -0.50941E+02         0.00000E+00
   -0.50941E+02         0.28697E+03         0.00000E+00
    0.00000E+00         0.00000E+00        -0.30960E+03
 
   -0.13266E+04         0.13119E+02         0.00000E+00
    0.13119E+02         0.28508E+03         0.00000E+00
    0.00000E+00         0.00000E+00        -0.31246E+03
 
   -0.13144E+04         0.81431E+02         0.00000E+00
    0.81431E+02         0.27428E+03         0.00000E+00
    0.00000E+00         0.00000E+00        -0.31204E+03
 
   -0.12811E+04         0.15245E+03         0.00000E+00
    0.15245E+03         0.25419E+03         0.00000E+00
    0.00000E+00         0.00000E+00        -0.30808E+03
 
   -0.12258E+04         0.22457E+03         0.00000E+00
    0.22457E+03         0.22458E+03         0.00000E+00
    0.00000E+00         0.00000E+00        -0.30037E+03
 
   -0.11480E+04         0.29615E+03         0.00000E+00
    0.29615E+03         0.18541E+03         0.00000E+00
    0.00000E+00         0.00000E+00        -0.28876E+03
 
   -0.10474E+04         0.36549E+03         0.00000E+00
    0.36549E+03         0.13685E+03         0.00000E+00
    0.00000E+00         0.00000E+00        -0.27315E+03
 
   -0.92418E+03         0.43083E+03         0.00000E+00
    0.43083E+03         0.79217E+02         0.00000E+00
    0.00000E+00         0.00000E+00        -0.25349E+03
 
   -0.77898E+03         0.49038E+03         0.00000E+00
    0.49038E+03         0.13061E+02         0.00000E+00
    0.00000E+00         0.00000E+00        -0.22978E+03
 
   -0.61270E+03         0.54225E+03         0.00000E+00
    0.54225E+03        -0.60873E+02         0.00000E+00
    0.00000E+00         0.00000E+00        -0.20207E+03
 
   -0.42672E+03         0.58453E+03         0.00000E+00
    0.58453E+03        -0.14161E+03         0.00000E+00
    0.00000E+00         0.00000E+00        -0.17050E+03
 
   -0.22286E+03         0.61525E+03         0.00000E+00
    0.61525E+03        -0.22793E+03         0.00000E+00
    0.00000E+00         0.00000E+00        -0.13524E+03
 
   -0.63641E+03        -0.35579E+02         0.00000E+00
   -0.35579E+02         0.21285E+01         0.00000E+00
    0.00000E+00         0.00000E+00        -0.19029E+03
 
   -0.66140E+03        -0.98363E+02         0.00000E+00
   -0.98363E+02         0.12360E+02         0.00000E+00
    0.00000E+00         0.00000E+00        -0.19471E+03
 
   -0.70332E+03        -0.14956E+03         0.00000E+00
   -0.14956E+03         0.31037E+02         0.00000E+00
    0.00000E+00         0.00000E+00        -0.20169E+03
 
   -0.75838E+03        -0.18872E+03         0.00000E+00
   -0.18872E+03         0.56225E+02         0.00000E+00
    0.00000E+00         0.00000E+00        -0.21065E+03
 
   -0.82277E+03        -0.21570E+03         0.00000E+00
   -0.21570E+03         0.85991E+02         0.00000E+00
    0.00000E+00         0.00000E+00        -0.22103E+03
 
   -0.89276E+03        -0.23061E+03         0.00000E+00
   -0.23061E+03         0.11845E+03         0.00000E+00
    0.00000E+00         0.00000E+00        -0.23229E+03
 
   -0.96474E+03        -0.23378E+03         0.00000E+00
   -0.23378E+03         0.15179E+03         0.00000E+00
    0.00000E+00         0.00000E+00        -0.24389E+03
 
   -0.10353E+04        -0.22576E+03         0.00000E+00
   -0.22576E+03         0.18430E+03         0.00000E+00
    0.00000E+00         0.00000E+00        -0.25529E+03
 
   -0.11011E+04        -0.20728E+03         0.00000E+00
   -0.20728E+03         0.21441E+03         0.00000E+00
    0.00000E+00         0.00000E+00        -0.26602E+03
 
   -0.11593E+04        -0.17919E+03         0.00000E+00
   -0.17919E+03         0.24066E+03         0.00000E+00
    0.00000E+00         0.00000E+00        -0.27559E+03
 
   -0.12070E+04        -0.14250E+03         0.00000E+00
   -0.14250E+03         0.26178E+03         0.00000E+00
    0.00000E+00         0.00000E+00        -0.28358E+03
 
   -0.12419E+04        -0.98306E+02         0.00000E+00
   -0.98306E+02         0.27665E+03         0.00000E+00
    0.00000E+00         0.00000E+00        -0.28957E+03
 
   -0.12617E+04        -0.47782E+02         0.00000E+00
   -0.47782E+02         0.28433E+03         0.00000E+00
    0.00000E+00         0.00000E+00        -0.29322E+03
 
   -0.12646E+04         0.78132E+01         0.00000E+00
    0.78132E+01         0.28404E+03         0.00000E+00
    0.00000E+00         0.00000E+00        -0.29418E+03
 
   -0.12491E+04         0.67167E+02         0.00000E+00
    0.67167E+02         0.27521E+03         0.00000E+00
    0.00000E+00         0.00000E+00        -0.29218E+03
 
   -0.12140E+04         0.12891E+03         0.00000E+00
    0.12891E+03         0.25741E+03         0.00000E+00
    0.00000E+00         0.00000E+00        -0.28699E+03
 
   -0.11585E+04         0.19163E+03         0.00000E+00
    0.19163E+03         0.23043E+03         0.00000E+00
    0.00000E+00         0.00000E+00        -0.27842E+03
 
   -0.10819E+04         0.25386E+03         0.00000E+00
    0.25386E+03         0.19423E+03         0.00000E+00
    0.00000E+00         0.00000E+00        -0.26631E+03
 
   -0.98428E+03         0.31410E+03         0.00000E+00
    0.31410E+03         0.14896E+03         0.00000E+00
    0.00000E+00         0.00000E+00        -0.25060E+03
 
   -0.86572E+03         0.37080E+03         0.00000E+00
    0.37080E+03         0.94975E+02         0.00000E+00
    0.00000E+00         0.00000E+00        -0.23122E+03
 
   -0.72686E+03         0.42233E+03         0.00000E+00
    0.42233E+03         0.32827E+02         0.00000E+00
    0.00000E+00         0.00000E+00        -0.20821E+03
 
   -0.56871E+03         0.46708E+03         0.00000E+00
    0.46708E+03        -0.36717E+02         0.00000E+00
    0.00000E+00         0.00000E+00        -0.18163E+03
 
   -0.39270E+03         0.50333E+03         0.00000E+00
    0.50333E+03        -0.11266E+03         0.00000E+00
    0.00000E+00         0.00000E+00        -0.15161E+03
 
   -0.20066E+03         0.52936E+03         0.00000E+00
    0.52936E+03        -0.19377E+03         0.00000E+00
    0.00000E+00         0.00000E+00        -0.11833E+03
 
   -0.69963E+03        -0.30283E+02         0.00000E+00
   -0.30283E+02         0.20321E+01         0.00000E+00
    0.00000E+00         0.00000E+00        -0.20928E+03
 
   -0.71429E+03        -0.83847E+02         0.00000E+00
   -0.83847E+02         0.11829E+02         0.00000E+00
    0.00000E+00         0.00000E+00        -0.21074E+03
 
   -0.74532E+03        -0.12768E+03         0.00000E+00
   -0.12768E+03         0.29779E+02         0.00000E+00
    0.00000E+00         0.00000E+00        -0.21466E+03
 
   -0.78917E+03        -0.16135E+03         0.00000E+00
   -0.16135E+03         0.54078E+02         0.00000E+00
    0.00000E+00         0.00000E+00        -0.22053E+03
 
   -0.84232E+03        -0.18470E+03         0.00000E+00
   -0.18470E+03         0.82915E+02         0.00000E+00
    0.00000E+00         0.00000E+00        -0.22782E+03
 
   -0.90127E+03        -0.19778E+03         0.00000E+00
   -0.19778E+03         0.11450E+03         0.00000E+00
    0.00000E+00         0.00000E+00        -0.23603E+03
 
   -0.96262E+03        -0.20085E+03         0.00000E+00
   -0.20085E+03         0.14710E+03         0.00000E+00
    0.00000E+00         0.00000E+00        -0.24465E+03
 
   -0.10231E+04        -0.19436E+03         0.00000E+00
   -0.19436E+03         0.17908E+03         0.00000E+00
    0.00000E+00         0.00000E+00        -0.25320E+03
 
   -0.10796E+04        -0.17889E+03         0.00000E+00
   -0.17889E+03         0.20890E+03         0.00000E+00
    0.00000E+00         0.00000E+00        -0.26121E+03
 
   -0.11293E+04        -0.15518E+03         0.00000E+00
   -0.15518E+03         0.23515E+03         0.00000E+00
    0.00000E+00         0.00000E+00        -0.26825E+03
 
   -0.11695E+04        -0.12405E+03         0.00000E+00
   -0.12405E+03         0.25657E+03         0.00000E+00
    0.00000E+00         0.00000E+00        -0.27389E+03
 
   -0.11979E+04        -0.86442E+02         0.00000E+00
   -0.86442E+02         0.27206E+03         0.00000E+00
    0.00000E+00         0.00000E+00        -0.27776E+03
 
   -0.12124E+04        -0.43366E+02         0.00000E+00
   -0.43366E+02         0.28068E+03         0.00000E+00
    0.00000E+00         0.00000E+00        -0.27952E+03
 
   -0.12112E+04         0.41009E+01         0.00000E+00
    0.41009E+01         0.28165E+03         0.00000E+00
    0.00000E+00         0.00000E+00        -0.27887E+03
 
   -0.11929E+04         0.54825E+02         0.00000E+00
    0.54825E+02         0.27439E+03         0.00000E+00
    0.00000E+00         0.00000E+00        -0.27554E+03
 
   -0.11562E+04         0.10762E+03         0.00000E+00
    0.10762E+03         0.25848E+03         0.00000E+00
    0.00000E+00         0.00000E+00        -0.26931E+03
 
   -0.11004E+04         0.16126E+03         0.00000E+00
    0.16126E+03         0.23370E+03         0.00000E+00
    0.00000E+00         0.00000E+00        -0.26001E+03
 
   -0.10250E+04         0.21447E+03         0.00000E+00
    0.21447E+03         0.20000E+03         0.00000E+00
    0.00000E+00         0.00000E+00        -0.24750E+03
 
   -0.92993E+03         0.26594E+03         0.00000E+00
    0.26594E+03         0.15755E+03         0.00000E+00
    0.00000E+00         0.00000E+00        -0.23171E+03
 
   -0.81543E+03         0.31432E+03         0.00000E+00
    0.31432E+03         0.10671E+03         0.00000E+00
    0.00000E+00         0.00000E+00        -0.21262E+03
 
   -0.68216E+03         0.35821E+03         0.00000E+00
    0.35821E+03         0.48033E+02         0.00000E+00
    0.00000E+00         0.00000E+00        -0.19024E+03
 
   -0.53115E+03         0.39619E+03         0.00000E+00
    0.39619E+03        -0.17690E+02         0.00000E+00
    0.00000E+00         0.00000E+00        -0.16465E+03
 
   -0.36386E+03         0.42680E+03         0.00000E+00
    0.42680E+03        -0.89452E+02         0.00000E+00
    0.00000E+00         0.00000E+00        -0.13599E+03
 
   -0.18217E+03         0.44856E+03         0.00000E+00
    0.44856E+03        -0.16601E+03         0.00000E+00
    0.00000E+00         0.00000E+00        -0.10446E+03
 
   -0.75294E+03        -0.25216E+02         0.00000E+00
   -0.25216E+02         0.19468E+01         0.00000E+00
    0.00000E+00         0.00000E+00        -0.22530E+03
 
   -0.75903E+03        -0.69909E+02         0.00000E+00
   -0.69909E+02         0.11358E+02         0.00000E+00
    0.00000E+00         0.00000E+00        -0.22430E+03
 
   -0.78096E+03        -0.10659E+03         0.00000E+00
   -0.10659E+03         0.28654E+02         0.00000E+00
    0.00000E+00         0.00000E+00        -0.22569E+03
 
   -0.81543E+03        -0.13487E+03         0.00000E+00
   -0.13487E+03         0.52150E+02         0.00000E+00
    0.00000E+00         0.00000E+00        -0.22898E+03
 
   -0.85914E+03        -0.15458E+03         0.00000E+00
   -0.15458E+03         0.80130E+02         0.00000E+00
    0.00000E+00         0.00000E+00        -0.23370E+03
 
   -0.90878E+03        -0.16576E+03         0.00000E+00
   -0.16576E+03         0.11089E+03         0.00000E+00
    0.00000E+00         0.00000E+00        -0.23937E+03
 
   -0.96113E+03        -0.16858E+03         0.00000E+00
   -0.16858E+03         0.14278E+03         0.00000E+00
    0.00000E+00         0.00000E+00        -0.24551E+03
 
   -0.10131E+04        -0.16341E+03         0.00000E+00
   -0.16341E+03         0.17420E+03         0.00000E+00
    0.00000E+00         0.00000E+00        -0.25166E+03
 
   -0.10617E+04        -0.15071E+03         0.00000E+00
   -0.15071E+03         0.20366E+03         0.00000E+00
    0.00000E+00         0.00000E+00        -0.25740E+03
 
   -0.11041E+04        -0.13109E+03         0.00000E+00
   -0.13109E+03         0.22980E+03         0.00000E+00
    0.00000E+00         0.00000E+00        -0.26230E+03
 
   -0.11380E+04        -0.10524E+03         0.00000E+00
   -0.10524E+03         0.25137E+03         0.00000E+00
    0.00000E+00         0.00000E+00        -0.26598E+03
 
   -0.11609E+04        -0.73921E+02         0.00000E+00
   -0.73921E+02         0.26727E+03         0.00000E+00
    0.00000E+00         0.00000E+00        -0.26807E+03
 
   -0.11708E+04        -0.37992E+02         0.00000E+00
   -0.37992E+02         0.27658E+03         0.00000E+00
    0.00000E+00         0.00000E+00        -0.26826E+03
 
   -0.11661E+04         0.16461E+01         0.00000E+00
    0.16461E+01         0.27852E+03         0.00000E+00
    0.00000E+00         0.00000E+00        -0.26626E+03
 
   -0.11452E+04         0.44037E+02         0.00000E+00
    0.44037E+02         0.27251E+03         0.00000E+00
    0.00000E+00         0.00000E+00        -0.26181E+03
 
   -0.11072E+04         0.88180E+02         0.00000E+00
    0.88180E+02         0.25813E+03         0.00000E+00
    0.00000E+00         0.00000E+00        -0.25472E+03
 
   -0.10512E+04         0.13303E+03         0.00000E+00
    0.13303E+03         0.23515E+03         0.00000E+00
    0.00000E+00         0.00000E+00        -0.24482E+03
 
   -0.97683E+03         0.17752E+03         0.00000E+00
    0.17752E+03         0.20354E+03         0.00000E+00
    0.00000E+00         0.00000E+00        -0.23199E+03
 
   -0.88399E+03         0.22052E+03         0.00000E+00
    0.22052E+03         0.16346E+03         0.00000E+00
    0.00000E+00         0.00000E+00        -0.21616E+03
 
   -0.77299E+03         0.26090E+03         0.00000E+00
    0.26090E+03         0.11527E+03         0.00000E+00
    0.00000E+00         0.00000E+00        -0.19732E+03
 
   -0.64452E+03         0.29746E+03         0.00000E+00
    0.29746E+03         0.59543E+02         0.00000E+00
    0.00000E+00         0.00000E+00        -0.17549E+03
 
   -0.49964E+03         0.32902E+03         0.00000E+00
    0.32902E+03        -0.29216E+01         0.00000E+00
    0.00000E+00         0.00000E+00        -0.15077E+03
 
   -0.33984E+03         0.35433E+03         0.00000E+00
    0.35433E+03        -0.71111E+02         0.00000E+00
    0.00000E+00         0.00000E+00        -0.12329E+03
 
   -0.16701E+03         0.37215E+03         0.00000E+00
    0.37215E+03        -0.14378E+03         0.00000E+00
    0.00000E+00         0.00000E+00        -0.93235E+02
 
   -0.79674E+03        -0.20349E+02         0.00000E+00
   -0.20349E+02         0.18739E+01         0.00000E+00
    0.00000E+00         0.00000E+00        -0.23846E+03
 
   -0.79588E+03        -0.56477E+02         0.00000E+00
   -0.56477E+02         0.10953E+02         0.00000E+00
    0.00000E+00         0.00000E+00        -0.23548E+03
 
   -0.81040E+03        -0.86198E+02         0.00000E+00
   -0.86198E+02         0.27686E+02         0.00000E+00
    0.00000E+00         0.00000E+00        -0.23481E+03
 
   -0.83721E+03        -0.10918E+03         0.00000E+00
   -0.10918E+03         0.50481E+02         0.00000E+00
    0.00000E+00         0.00000E+00        -0.23602E+03
 
   -0.87318E+03        -0.12528E+03         0.00000E+00
   -0.12528E+03         0.77707E+02         0.00000E+00
    0.00000E+00         0.00000E+00        -0.23864E+03
 
   -0.91517E+03        -0.13448E+03         0.00000E+00
   -0.13448E+03         0.10773E+03         0.00000E+00
    0.00000E+00         0.00000E+00        -0.24223E+03
 
   -0.96011E+03        -0.13694E+03         0.00000E+00
   -0.13694E+03         0.13896E+03         0.00000E+00
    0.00000E+00         0.00000E+00        -0.24635E+03
 
   -0.10050E+04        -0.13292E+03         0.00000E+00
   -0.13292E+03         0.16985E+03         0.00000E+00
    0.00000E+00         0.00000E+00        -0.25055E+03
 
   -0.10471E+04        -0.12279E+03         0.00000E+00
   -0.12279E+03         0.19895E+03         0.00000E+00
    0.00000E+00         0.00000E+00        -0.25443E+03
 
   -0.10836E+04        -0.10704E+03         0.00000E+00
   -0.10704E+03         0.22491E+03         0.00000E+00
    0.00000E+00         0.00000E+00        -0.25759E+03
 
   -0.11121E+04        -0.86215E+02         0.00000E+00
   -0.86215E+02         0.24652E+03         0.00000E+00
    0.00000E+00         0.00000E+00        -0.25966E+03
 
   -0.11304E+04        -0.60940E+02         0.00000E+00
   -0.60940E+02         0.26269E+03         0.00000E+00
    0.00000E+00         0.00000E+00        -0.26031E+03
 
   -0.11365E+04        -0.31900E+02         0.00000E+00
   -0.31900E+02         0.27250E+03         0.00000E+00
    0.00000E+00         0.00000E+00        -0.25921E+03
 
   -0.11289E+04         0.16742E+00         0.00000E+00
    0.16742E+00         0.27517E+03         0.00000E+00
    0.00000E+00         0.00000E+00        -0.25611E+03
 
   -0.11060E+04         0.34484E+02         0.00000E+00
    0.34484E+02         0.27013E+03         0.00000E+00
    0.00000E+00         0.00000E+00        -0.25075E+03
 
   -0.10668E+04         0.70232E+02         0.00000E+00
    0.70232E+02         0.25696E+03         0.00000E+00
    0.00000E+00         0.00000E+00        -0.24296E+03
 
   -0.10107E+04         0.10656E+03         0.00000E+00
    0.10656E+03         0.23544E+03         0.00000E+00
    0.00000E+00         0.00000E+00        -0.23257E+03
 
   -0.93714E+03         0.14258E+03         0.00000E+00
    0.14258E+03         0.20552E+03         0.00000E+00
    0.00000E+00         0.00000E+00        -0.21949E+03
 
   -0.84617E+03         0.17738E+03         0.00000E+00
    0.17738E+03         0.16737E+03         0.00000E+00
    0.00000E+00         0.00000E+00        -0.20364E+03
 
   -0.73810E+03         0.21003E+03         0.00000E+00
    0.21003E+03         0.12136E+03         0.00000E+00
    0.00000E+00         0.00000E+00        -0.18502E+03
 
   -0.61364E+03         0.23955E+03         0.00000E+00
    0.23955E+03         0.68080E+02         0.00000E+00
    0.00000E+00         0.00000E+00        -0.16367E+03
 
   -0.47388E+03         0.26496E+03         0.00000E+00
    0.26496E+03         0.83165E+01         0.00000E+00
    0.00000E+00         0.00000E+00        -0.13967E+03
 
   -0.32031E+03         0.28527E+03         0.00000E+00
    0.28527E+03        -0.56906E+02         0.00000E+00
    0.00000E+00         0.00000E+00        -0.11317E+03
 
   -0.15485E+03         0.29946E+03         0.00000E+00
    0.29946E+03        -0.12634E+03         0.00000E+00
    0.00000E+00         0.00000E+00        -0.84355E+02
 
   -0.83135E+03        -0.15649E+02         0.00000E+00
   -0.15649E+02         0.18144E+01         0.00000E+00
    0.00000E+00         0.00000E+00        -0.24886E+03
 
   -0.82507E+03        -0.43471E+02         0.00000E+00
   -0.43471E+02         0.10622E+02         0.00000E+00
    0.00000E+00         0.00000E+00        -0.24433E+03
 
   -0.83377E+03        -0.66404E+02         0.00000E+00
   -0.66404E+02         0.26891E+02         0.00000E+00
    0.00000E+00         0.00000E+00        -0.24206E+03
 
   -0.85455E+03        -0.84182E+02         0.00000E+00
   -0.84182E+02         0.49106E+02         0.00000E+00
    0.00000E+00         0.00000E+00        -0.24163E+03
 
   -0.88442E+03        -0.96672E+02         0.00000E+00
   -0.96672E+02         0.75704E+02         0.00000E+00
    0.00000E+00         0.00000E+00        -0.24261E+03
 
   -0.92037E+03        -0.10387E+03         0.00000E+00
   -0.10387E+03         0.10511E+03         0.00000E+00
    0.00000E+00         0.00000E+00        -0.24458E+03
 
   -0.95944E+03        -0.10586E+03         0.00000E+00
   -0.10586E+03         0.13577E+03         0.00000E+00
    0.00000E+00         0.00000E+00        -0.24710E+03
 
   -0.99877E+03        -0.10286E+03         0.00000E+00
   -0.10286E+03         0.16620E+03         0.00000E+00
    0.00000E+00         0.00000E+00        -0.24977E+03
 
   -0.10356E+04        -0.95151E+02         0.00000E+00
   -0.95151E+02         0.19496E+03         0.00000E+00
    0.00000E+00         0.00000E+00        -0.25219E+03
 
   -0.10673E+04        -0.83085E+02         0.00000E+00
   -0.83085E+02         0.22073E+03         0.00000E+00
    0.00000E+00         0.00000E+00        -0.25398E+03
 
   -0.10916E+04        -0.67090E+02         0.00000E+00
   -0.67090E+02         0.24231E+03         0.00000E+00
    0.00000E+00         0.00000E+00        -0.25479E+03
 
   -0.11063E+04        -0.47647E+02         0.00000E+00
   -0.47647E+02         0.25864E+03         0.00000E+00
    0.00000E+00         0.00000E+00        -0.25429E+03
 
   -0.11094E+04        -0.25285E+02         0.00000E+00
   -0.25285E+02         0.26880E+03         0.00000E+00
    0.00000E+00         0.00000E+00        -0.25219E+03
 
   -0.10994E+04        -0.57127E+00         0.00000E+00
   -0.57127E+00         0.27201E+03         0.00000E+00
    0.00000E+00         0.00000E+00        -0.24822E+03
 
   -0.10749E+04         0.25889E+02         0.00000E+00
    0.25889E+02         0.26771E+03         0.00000E+00
    0.00000E+00         0.00000E+00        -0.24215E+03
 
   -0.10348E+04         0.53459E+02         0.00000E+00
    0.53459E+02         0.25547E+03         0.00000E+00
    0.00000E+00         0.00000E+00        -0.23381E+03
 
   -0.97856E+03         0.81478E+02         0.00000E+00
    0.81478E+02         0.23506E+03         0.00000E+00
    0.00000E+00         0.00000E+00        -0.22305E+03
 
   -0.90570E+03         0.10926E+03         0.00000E+00
    0.10926E+03         0.20647E+03         0.00000E+00
    0.00000E+00         0.00000E+00        -0.20977E+03
 
   -0.81623E+03         0.13608E+03         0.00000E+00
    0.13608E+03         0.16985E+03         0.00000E+00
    0.00000E+00         0.00000E+00        -0.19391E+03
 
   -0.71050E+03         0.16123E+03         0.00000E+00
    0.16123E+03         0.12557E+03         0.00000E+00
    0.00000E+00         0.00000E+00        -0.17548E+03
 
   -0.58925E+03         0.18394E+03         0.00000E+00
    0.18394E+03         0.74228E+02         0.00000E+00
    0.00000E+00         0.00000E+00        -0.15451E+03
 
   -0.45359E+03         0.20345E+03         0.00000E+00
    0.20345E+03         0.16616E+02         0.00000E+00
    0.00000E+00         0.00000E+00        -0.13109E+03
 
   -0.30501E+03         0.21900E+03         0.00000E+00
    0.21900E+03        -0.46240E+02         0.00000E+00
    0.00000E+00         0.00000E+00        -0.10538E+03
 
   -0.14543E+03         0.22978E+03         0.00000E+00
    0.22978E+03        -0.11309E+03         0.00000E+00
    0.00000E+00         0.00000E+00        -0.77556E+02
 
   -0.85707E+03        -0.11082E+02         0.00000E+00
   -0.11082E+02         0.17691E+01         0.00000E+00
    0.00000E+00         0.00000E+00        -0.25659E+03
 
   -0.84678E+03        -0.30804E+02         0.00000E+00
   -0.30804E+02         0.10370E+02         0.00000E+00
    0.00000E+00         0.00000E+00        -0.25092E+03
 
   -0.85119E+03        -0.47085E+02         0.00000E+00
   -0.47085E+02         0.26284E+02         0.00000E+00
    0.00000E+00         0.00000E+00        -0.24747E+03
 
   -0.86751E+03        -0.59727E+02         0.00000E+00
   -0.59727E+02         0.48052E+02         0.00000E+00
    0.00000E+00         0.00000E+00        -0.24584E+03
 
   -0.89285E+03        -0.68633E+02         0.00000E+00
   -0.68633E+02         0.74163E+02         0.00000E+00
    0.00000E+00         0.00000E+00        -0.24561E+03
 
   -0.92431E+03        -0.73788E+02         0.00000E+00
   -0.73788E+02         0.10309E+03         0.00000E+00
    0.00000E+00         0.00000E+00        -0.24637E+03
 
   -0.95902E+03        -0.75260E+02         0.00000E+00
   -0.75260E+02         0.13330E+03         0.00000E+00
    0.00000E+00         0.00000E+00        -0.24772E+03
 
   -0.99419E+03        -0.73184E+02         0.00000E+00
   -0.73184E+02         0.16335E+03         0.00000E+00
    0.00000E+00         0.00000E+00        -0.24925E+03
 
   -0.10271E+04        -0.67761E+02         0.00000E+00
   -0.67761E+02         0.19183E+03         0.00000E+00
    0.00000E+00         0.00000E+00        -0.25059E+03
 
   -0.10553E+04        -0.59241E+02         0.00000E+00
   -0.59241E+02         0.21743E+03         0.00000E+00
    0.00000E+00         0.00000E+00        -0.25137E+03
 
   -0.10765E+04        -0.47925E+02         0.00000E+00
   -0.47925E+02         0.23897E+03         0.00000E+00
    0.00000E+00         0.00000E+00        -0.25124E+03
 
   -0.10884E+04        -0.34153E+02         0.00000E+00
   -0.34153E+02         0.25539E+03         0.00000E+00
    0.00000E+00         0.00000E+00        -0.24990E+03
 
   -0.10893E+04        -0.18300E+02         0.00000E+00
   -0.18300E+02         0.26578E+03         0.00000E+00
    0.00000E+00         0.00000E+00        -0.24704E+03
 
   -0.10775E+04        -0.77051E+00         0.00000E+00
   -0.77051E+00         0.26937E+03         0.00000E+00
    0.00000E+00         0.00000E+00        -0.24243E+03
 
   -0.10517E+04         0.18005E+02         0.00000E+00
    0.18005E+02         0.26559E+03         0.00000E+00
    0.00000E+00         0.00000E+00        -0.23584E+03
 
   -0.10110E+04         0.37572E+02         0.00000E+00
    0.37572E+02         0.25402E+03         0.00000E+00
    0.00000E+00         0.00000E+00        -0.22710E+03
 
   -0.95465E+03         0.57457E+02         0.00000E+00
    0.57457E+02         0.23444E+03         0.00000E+00
    0.00000E+00         0.00000E+00        -0.21606E+03
 
   -0.88230E+03         0.77170E+02         0.00000E+00
    0.77170E+02         0.20682E+03         0.00000E+00
    0.00000E+00         0.00000E+00        -0.20264E+03
 
   -0.79395E+03         0.96201E+02         0.00000E+00
    0.96201E+02         0.17133E+03         0.00000E+00
    0.00000E+00         0.00000E+00        -0.18679E+03
 
   -0.68999E+03         0.11403E+03         0.00000E+00
    0.11403E+03         0.12834E+03         0.00000E+00
    0.00000E+00         0.00000E+00        -0.16849E+03
 
   -0.57116E+03         0.13012E+03         0.00000E+00
    0.13012E+03         0.78446E+02         0.00000E+00
    0.00000E+00         0.00000E+00        -0.14781E+03
 
   -0.43856E+03         0.14392E+03         0.00000E+00
    0.14392E+03         0.22443E+02         0.00000E+00
    0.00000E+00         0.00000E+00        -0.12484E+03
 
   -0.29373E+03         0.15488E+03         0.00000E+00
    0.15488E+03        -0.38643E+02         0.00000E+00
    0.00000E+00         0.00000E+00        -0.99711E+02
 
   -0.13855E+03         0.16246E+03         0.00000E+00
    0.16246E+03        -0.10356E+03         0.00000E+00
    0.00000E+00         0.00000E+00        -0.72633E+02
 
   -0.87409E+03        -0.66105E+01         0.00000E+00
   -0.66105E+01         0.17386E+01         0.00000E+00
    0.00000E+00         0.00000E+00        -0.26171E+03
 
   -0.86117E+03        -0.18383E+02         0.00000E+00
   -0.18383E+02         0.10199E+02         0.00000E+00
    0.00000E+00         0.00000E+00        -0.25529E+03
 
   -0.86276E+03        -0.28111E+02         0.00000E+00
   -0.28111E+02         0.25873E+02         0.00000E+00
    0.00000E+00         0.00000E+00        -0.25107E+03
 
   -0.87612E+03        -0.35674E+02         0.00000E+00
   -0.35674E+02         0.47339E+02         0.00000E+00
    0.00000E+00         0.00000E+00        -0.24864E+03
 
   -0.89847E+03        -0.41010E+02         0.00000E+00
   -0.41010E+02         0.73118E+02         0.00000E+00
    0.00000E+00         0.00000E+00        -0.24761E+03
 
   -0.92696E+03        -0.44109E+02         0.00000E+00
   -0.44109E+02         0.10171E+03         0.00000E+00
    0.00000E+00         0.00000E+00        -0.24757E+03
 
   -0.95878E+03        -0.45010E+02         0.00000E+00
   -0.45010E+02         0.13162E+03         0.00000E+00
    0.00000E+00         0.00000E+00        -0.24815E+03
 
   -0.99119E+03        -0.43791E+02         0.00000E+00
   -0.43791E+02         0.16141E+03         0.00000E+00
    0.00000E+00         0.00000E+00        -0.24893E+03
 
   -0.10216E+04        -0.40571E+02         0.00000E+00
   -0.40571E+02         0.18968E+03         0.00000E+00
    0.00000E+00         0.00000E+00        -0.24956E+03
 
   -0.10474E+04        -0.35498E+02         0.00000E+00
   -0.35498E+02         0.21516E+03         0.00000E+00
    0.00000E+00         0.00000E+00        -0.24967E+03
 
   -0.10664E+04        -0.28752E+02         0.00000E+00
   -0.28752E+02         0.23665E+03         0.00000E+00
    0.00000E+00         0.00000E+00        -0.24893E+03
 
   -0.10765E+04        -0.20535E+02         0.00000E+00
   -0.20535E+02         0.25312E+03         0.00000E+00
    0.00000E+00         0.00000E+00        -0.24702E+03
 
   -0.10759E+04        -0.11072E+02         0.00000E+00
   -0.11072E+02         0.26365E+03         0.00000E+00
    0.00000E+00         0.00000E+00        -0.24367E+03
 
   -0.10629E+04        -0.60350E+00         0.00000E+00
   -0.60350E+00         0.26748E+03         0.00000E+00
    0.00000E+00         0.00000E+00        -0.23864E+03
 
   -0.10364E+04         0.10611E+02         0.00000E+00
    0.10611E+02         0.26403E+03         0.00000E+00
    0.00000E+00         0.00000E+00        -0.23170E+03
 
   -0.99522E+03         0.22301E+02         0.00000E+00
    0.22301E+02         0.25290E+03         0.00000E+00
    0.00000E+00         0.00000E+00        -0.22269E+03
 
   -0.93880E+03         0.34181E+02         0.00000E+00
    0.34181E+02         0.23386E+03         0.00000E+00
    0.00000E+00         0.00000E+00        -0.21148E+03
 
   -0.86678E+03         0.45956E+02         0.00000E+00
    0.45956E+02         0.20689E+03         0.00000E+00
    0.00000E+00         0.00000E+00        -0.19797E+03
 
   -0.77919E+03         0.57322E+02         0.00000E+00
    0.57322E+02         0.17214E+03         0.00000E+00
    0.00000E+00         0.00000E+00        -0.18211E+03
 
   -0.67641E+03         0.67964E+02         0.00000E+00
    0.67964E+02         0.13001E+03         0.00000E+00
    0.00000E+00         0.00000E+00        -0.16392E+03
 
   -0.55918E+03         0.77563E+02         0.00000E+00
    0.77563E+02         0.81073E+02         0.00000E+00
    0.00000E+00         0.00000E+00        -0.14343E+03
 
   -0.42864E+03         0.85790E+02         0.00000E+00
    0.85790E+02         0.26139E+02         0.00000E+00
    0.00000E+00         0.00000E+00        -0.12075E+03
 
   -0.28629E+03         0.92315E+02         0.00000E+00
    0.92315E+02        -0.33769E+02         0.00000E+00
    0.00000E+00         0.00000E+00        -0.96018E+02
 
   -0.13404E+03         0.96807E+02         0.00000E+00
    0.96807E+02        -0.97405E+02         0.00000E+00
    0.00000E+00         0.00000E+00        -0.69435E+02
 
   -0.88257E+03        -0.21970E+01         0.00000E+00
   -0.21970E+01         0.17233E+01         0.00000E+00
    0.00000E+00         0.00000E+00        -0.26425E+03
 
   -0.86835E+03        -0.61111E+01         0.00000E+00
   -0.61111E+01         0.10114E+02         0.00000E+00
    0.00000E+00         0.00000E+00        -0.25747E+03
 
   -0.86852E+03        -0.93468E+01         0.00000E+00
   -0.93468E+01         0.25666E+02         0.00000E+00
    0.00000E+00         0.00000E+00        -0.25286E+03
 
   -0.88042E+03        -0.11864E+02         0.00000E+00
   -0.11864E+02         0.46979E+02         0.00000E+00
    0.00000E+00         0.00000E+00        -0.25003E+03
 
   -0.90128E+03        -0.13641E+02         0.00000E+00
   -0.13641E+02         0.72590E+02         0.00000E+00
    0.00000E+00         0.00000E+00        -0.24861E+03
 
   -0.92829E+03        -0.14675E+02         0.00000E+00
   -0.14675E+02         0.10101E+03         0.00000E+00
    0.00000E+00         0.00000E+00        -0.24818E+03
 
   -0.95867E+03        -0.14979E+02         0.00000E+00
   -0.14979E+02         0.13077E+03         0.00000E+00
    0.00000E+00         0.00000E+00        -0.24837E+03
 
   -0.98970E+03        -0.14577E+02         0.00000E+00
   -0.14577E+02         0.16042E+03         0.00000E+00
    0.00000E+00         0.00000E+00        -0.24878E+03
 
   -0.10188E+04        -0.13509E+02         0.00000E+00
   -0.13509E+02         0.18859E+03         0.00000E+00
    0.00000E+00         0.00000E+00        -0.24906E+03
 
   -0.10434E+04        -0.11825E+02         0.00000E+00
   -0.11825E+02         0.21400E+03         0.00000E+00
    0.00000E+00         0.00000E+00        -0.24883E+03
 
   -0.10614E+04        -0.95832E+01         0.00000E+00
   -0.95832E+01         0.23547E+03         0.00000E+00
    0.00000E+00         0.00000E+00        -0.24778E+03
 
   -0.10706E+04        -0.68520E+01         0.00000E+00
   -0.68520E+01         0.25195E+03         0.00000E+00
    0.00000E+00         0.00000E+00        -0.24560E+03
 
   -0.10692E+04        -0.37055E+01         0.00000E+00
   -0.37055E+01         0.26255E+03         0.00000E+00
    0.00000E+00         0.00000E+00        -0.24201E+03
 
   -0.10557E+04        -0.22432E+00         0.00000E+00
   -0.22432E+00         0.26649E+03         0.00000E+00
    0.00000E+00         0.00000E+00        -0.23676E+03
 
   -0.10287E+04         0.35055E+01         0.00000E+00
    0.35055E+01         0.26321E+03         0.00000E+00
    0.00000E+00         0.00000E+00        -0.22965E+03
 
   -0.98735E+03         0.73935E+01         0.00000E+00
    0.73935E+01         0.25230E+03         0.00000E+00
    0.00000E+00         0.00000E+00        -0.22051E+03
 
   -0.93089E+03         0.11345E+02         0.00000E+00
    0.11345E+02         0.23353E+03         0.00000E+00
    0.00000E+00         0.00000E+00        -0.20921E+03
 
   -0.85905E+03         0.15261E+02         0.00000E+00
    0.15261E+02         0.20687E+03         0.00000E+00
    0.00000E+00         0.00000E+00        -0.19565E+03
 
   -0.77184E+03         0.19041E+02         0.00000E+00
    0.19041E+02         0.17250E+03         0.00000E+00
    0.00000E+00         0.00000E+00        -0.17980E+03
 
   -0.66964E+03         0.22580E+02         0.00000E+00
    0.22580E+02         0.13079E+03         0.00000E+00
    0.00000E+00         0.00000E+00        -0.16166E+03
 
   -0.55322E+03         0.25770E+02         0.00000E+00
    0.25770E+02         0.82331E+02         0.00000E+00
    0.00000E+00         0.00000E+00        -0.14127E+03
 
   -0.42370E+03         0.28503E+02         0.00000E+00
    0.28503E+02         0.27931E+02         0.00000E+00
    0.00000E+00         0.00000E+00        -0.11873E+03
 
   -0.28260E+03         0.30669E+02         0.00000E+00
    0.30669E+02        -0.31389E+02         0.00000E+00
    0.00000E+00         0.00000E+00        -0.94196E+02
 
   -0.13182E+03         0.32158E+02         0.00000E+00
    0.32158E+02        -0.94383E+02         0.00000E+00
    0.00000E+00         0.00000E+00        -0.67860E+02
 
TENSORS stresstot double 
   -0.69268E+05         0.61812E+03         0.00000E+00
    0.61812E+03        -0.99344E+05         0.00000E+00
    0.00000E+00         0.00000E+00        -0.50584E+05
 
   -0.36011E+05         0.35672E+04         0.00000E+00
    0.35672E+04        -0.95065E+05         0.00000E+00
    0.00000E+00         0.00000E+00        -0.39323E+05
 
   -0.16312E+05         0.53464E+04         0.00000E+00
    0.53464E+04        -0.85331E+05         0.00000E+00
    0.00000E+00         0.00000E+00        -0.30493E+05
 
   -0.65784E+04         0.51471E+04         0.00000E+00
    0.51471E+04        -0.74779E+05         0.00000E+00
    0.00000E+00         0.00000E+00        -0.24407E+05
 
   -0.17946E+04         0.43655E+04         0.00000E+00
    0.43655E+04        -0.65457E+05         0.00000E+00
    0.00000E+00         0.00000E+00        -0.20176E+05
 
    0.59132E+03         0.35678E+04         0.00000E+00
    0.35678E+04        -0.57722E+05         0.00000E+00
    0.00000E+00         0.00000E+00        -0.17139E+05
 
    0.17586E+04         0.28931E+04         0.00000E+00
    0.28931E+04        -0.51418E+05         0.00000E+00
    0.00000E+00         0.00000E+00        -0.14898E+05
 
    0.22749E+04         0.23539E+04         0.00000E+00
    0.23539E+04        -0.46287E+05         0.00000E+00
    0.00000E+00         0.00000E+00        -0.13204E+05
 
    0.24247E+04         0.19294E+04         0.00000E+00
    0.19294E+04        -0.42086E+05         0.00000E+00
    0.00000E+00         0.00000E+00        -0.11899E+05
 
    0.23569E+04         0.15951E+04         0.00000E+00
    0.15951E+04        -0.38622E+05         0.00000E+00
    0.00000E+00         0.00000E+00        -0.10879E+05
 
    0.21519E+04         0.13299E+04         0.00000E+00
    0.13299E+04        -0.35741E+05         0.00000E+00
    0.00000E+00         0.00000E+00        -0.10077E+05
 
    0.18536E+04         0.11176E+04         0.00000E+00
    0.11176E+04        -0.33326E+05         0.00000E+00
    0.00000E+00         0.00000E+00        -0.94416E+04
 
    0.14857E+04         0.94618E+03         0.00000E+00
    0.94618E+03        -0.31286E+05         0.00000E+00
    0.00000E+00         0.00000E+00        -0.89401E+04
 
    0.10595E+04         0.80664E+03         0.00000E+00
    0.80664E+03        -0.29552E+05         0.00000E+00
    0.00000E+00         0.00000E+00        -0.85476E+04
 
    0.57902E+03         0.69240E+03         0.00000E+00
    0.69240E+03        -0.28067E+05         0.00000E+00
    0.00000E+00         0.00000E+00        -0.82463E+04
 
    0.42690E+02         0.59865E+03         0.00000E+00
    0.59865E+03        -0.26787E+05         0.00000E+00
    0.00000E+00         0.00000E+00        -0.80232E+04
 
   -0.55501E+03         0.52194E+03         0.00000E+00
    0.52194E+03        -0.25675E+05         0.00000E+00
    0.00000E+00         0.00000E+00        -0.78690E+04
 
   -0.12232E+04         0.45980E+03         0.00000E+00
    0.45980E+03        -0.24700E+05         0.00000E+00
    0.00000E+00         0.00000E+00        -0.77770E+04
 
   -0.19745E+04         0.41065E+03         0.00000E+00
    0.41065E+03        -0.23836E+05         0.00000E+00
    0.00000E+00         0.00000E+00        -0.77430E+04
 
   -0.28255E+04         0.37360E+03         0.00000E+00
    0.37360E+03        -0.23056E+05         0.00000E+00
    0.00000E+00         0.00000E+00        -0.77645E+04
 
   -0.37968E+04         0.34843E+03         0.00000E+00
    0.34843E+03        -0.22338E+05         0.00000E+00
    0.00000E+00         0.00000E+00        -0.78406E+04
 
   -0.49148E+04         0.33562E+03         0.00000E+00
    0.33562E+03        -0.21658E+05         0.00000E+00
    0.00000E+00         0.00000E+00        -0.79719E+04
 
   -0.62125E+04         0.33637E+03         0.00000E+00
    0.33637E+03        -0.20990E+05         0.00000E+00
    0.00000E+00         0.00000E+00        -0.81608E+04
 
   -0.77313E+04         0.35280E+03         0.00000E+00
    0.35280E+03        -0.20305E+05         0.00000E+00
    0.00000E+00         0.00000E+00        -0.84109E+04
 
   -0.64581E+05         0.30733E+04         0.00000E+00
    0.30733E+04        -0.99316E+05         0.00000E+00
    0.00000E+00         0.00000E+00        -0.49169E+05
 
   -0.30576E+05         0.13481E+05         0.00000E+00
    0.13481E+05        -0.87764E+05         0.00000E+00
    0.00000E+00         0.00000E+00        -0.35502E+05
 
   -0.15864E+05         0.15997E+05         0.00000E+00
    0.15997E+05        -0.76817E+05         0.00000E+00
    0.00000E+00         0.00000E+00        -0.27804E+05
 
   -0.79189E+04         0.14598E+05         0.00000E+00
    0.14598E+05        -0.67775E+05         0.00000E+00
    0.00000E+00         0.00000E+00        -0.22708E+05
 
   -0.33863E+04         0.12296E+05         0.00000E+00
    0.12296E+05        -0.60185E+05         0.00000E+00
    0.00000E+00         0.00000E+00        -0.19071E+05
 
   -0.82163E+03         0.10092E+05         0.00000E+00
    0.10092E+05        -0.53839E+05         0.00000E+00
    0.00000E+00         0.00000E+00        -0.16398E+05
 
    0.60624E+03         0.82403E+04         0.00000E+00
    0.82403E+04        -0.48548E+05         0.00000E+00
    0.00000E+00         0.00000E+00        -0.14383E+05
 
    0.13593E+04         0.67507E+04         0.00000E+00
    0.67507E+04        -0.44137E+05         0.00000E+00
    0.00000E+00         0.00000E+00        -0.12833E+05
 
    0.17006E+04         0.55668E+04         0.00000E+00
    0.55668E+04        -0.40449E+05         0.00000E+00
    0.00000E+00         0.00000E+00        -0.11625E+05
 
    0.17820E+04         0.46256E+04         0.00000E+00
    0.46256E+04        -0.37352E+05         0.00000E+00
    0.00000E+00         0.00000E+00        -0.10671E+05
 
    0.16919E+04         0.38730E+04         0.00000E+00
    0.38730E+04        -0.34739E+05         0.00000E+00
    0.00000E+00         0.00000E+00        -0.99140E+04
 
    0.14824E+04         0.32663E+04         0.00000E+00
    0.32663E+04        -0.32521E+05         0.00000E+00
    0.00000E+00         0.00000E+00        -0.93115E+04
 
    0.11837E+04         0.27735E+04         0.00000E+00
    0.27735E+04        -0.30629E+05         0.00000E+00
    0.00000E+00         0.00000E+00        -0.88336E+04
 
    0.81227E+03         0.23704E+04         0.00000E+00
    0.23704E+04        -0.29007E+05         0.00000E+00
    0.00000E+00         0.00000E+00        -0.84583E+04
 
    0.37585E+03         0.20391E+04         0.00000E+00
    0.20391E+04        -0.27607E+05         0.00000E+00
    0.00000E+00         0.00000E+00        -0.81695E+04
 
   -0.12420E+03         0.17664E+04         0.00000E+00
    0.17664E+04        -0.26394E+05         0.00000E+00
    0.00000E+00         0.00000E+00        -0.79554E+04
 
   -0.69121E+03         0.15426E+04         0.00000E+00
    0.15426E+04        -0.25334E+05         0.00000E+00
    0.00000E+00         0.00000E+00        -0.78075E+04
 
   -0.13325E+04         0.13611E+04         0.00000E+00
    0.13611E+04        -0.24400E+05         0.00000E+00
    0.00000E+00         0.00000E+00        -0.77198E+04
 
   -0.20594E+04         0.12173E+04         0.00000E+00
    0.12173E+04        -0.23568E+05         0.00000E+00
    0.00000E+00         0.00000E+00        -0.76882E+04
 
   -0.28868E+04         0.11089E+04         0.00000E+00
    0.11089E+04        -0.22815E+05         0.00000E+00
    0.00000E+00         0.00000E+00        -0.77105E+04
 
   -0.38343E+04         0.10354E+04         0.00000E+00
    0.10354E+04        -0.22118E+05         0.00000E+00
    0.00000E+00         0.00000E+00        -0.77858E+04
 
   -0.49269E+04         0.99828E+03         0.00000E+00
    0.99828E+03        -0.21457E+05         0.00000E+00
    0.00000E+00         0.00000E+00        -0.79150E+04
 
   -0.61959E+04         0.10012E+04         0.00000E+00
    0.10012E+04        -0.20805E+05         0.00000E+00
    0.00000E+00         0.00000E+00        -0.81002E+04
 
   -0.76807E+04         0.10503E+04         0.00000E+00
    0.10503E+04        -0.20135E+05         0.00000E+00
    0.00000E+00         0.00000E+00        -0.83448E+04
 
   -0.48122E+05         0.17594E+05         0.00000E+00
    0.17594E+05        -0.74889E+05         0.00000E+00
    0.00000E+00         0.00000E+00        -0.36903E+05
 
   -0.26322E+05         0.25407E+05         0.00000E+00
    0.25407E+05        -0.65491E+05         0.00000E+00
    0.00000E+00         0.00000E+00        -0.27544E+05
 
   -0.17169E+05         0.24191E+05         0.00000E+00
    0.24191E+05        -0.59592E+05         0.00000E+00
    0.00000E+00         0.00000E+00        -0.23028E+05
 
   -0.10622E+05         0.21198E+05         0.00000E+00
    0.21198E+05        -0.54922E+05         0.00000E+00
    0.00000E+00         0.00000E+00        -0.19663E+05
 
   -0.61871E+04         0.17918E+05         0.00000E+00
    0.17918E+05        -0.50728E+05         0.00000E+00
    0.00000E+00         0.00000E+00        -0.17074E+05
 
   -0.32687E+04         0.14922E+05         0.00000E+00
    0.14922E+05        -0.46857E+05         0.00000E+00
    0.00000E+00         0.00000E+00        -0.15038E+05
 
   -0.14113E+04         0.12380E+05         0.00000E+00
    0.12380E+05        -0.43337E+05         0.00000E+00
    0.00000E+00         0.00000E+00        -0.13424E+05
 
   -0.26890E+03         0.10288E+05         0.00000E+00
    0.10288E+05        -0.40189E+05         0.00000E+00
    0.00000E+00         0.00000E+00        -0.12137E+05
 
    0.39331E+03         0.85882E+04         0.00000E+00
    0.85882E+04        -0.37409E+05         0.00000E+00
    0.00000E+00         0.00000E+00        -0.11105E+05
 
    0.72979E+03         0.72088E+04         0.00000E+00
    0.72088E+04        -0.34972E+05         0.00000E+00
    0.00000E+00         0.00000E+00        -0.10273E+05
 
    0.84026E+03         0.60866E+04         0.00000E+00
    0.60866E+04        -0.32844E+05         0.00000E+00
    0.00000E+00         0.00000E+00        -0.96011E+04
 
    0.78849E+03         0.51691E+04         0.00000E+00
    0.51691E+04        -0.30989E+05         0.00000E+00
    0.00000E+00         0.00000E+00        -0.90600E+04
 
    0.61470E+03         0.44149E+04         0.00000E+00
    0.44149E+04        -0.29370E+05         0.00000E+00
    0.00000E+00         0.00000E+00        -0.86267E+04
 
    0.34344E+03         0.37919E+04         0.00000E+00
    0.37919E+04        -0.27957E+05         0.00000E+00
    0.00000E+00         0.00000E+00        -0.82840E+04
 
   -0.11429E+02         0.32759E+04         0.00000E+00
    0.32759E+04        -0.26719E+05         0.00000E+00
    0.00000E+00         0.00000E+00        -0.80191E+04
 
   -0.44366E+03         0.28484E+04         0.00000E+00
    0.28484E+04        -0.25631E+05         0.00000E+00
    0.00000E+00         0.00000E+00        -0.78224E+04
 
   -0.95275E+03         0.24959E+04         0.00000E+00
    0.24959E+04        -0.24670E+05         0.00000E+00
    0.00000E+00         0.00000E+00        -0.76868E+04
 
   -0.15430E+04         0.22089E+04         0.00000E+00
    0.22089E+04        -0.23814E+05         0.00000E+00
    0.00000E+00         0.00000E+00        -0.76071E+04
 
   -0.22228E+04         0.19811E+04         0.00000E+00
    0.19811E+04        -0.23044E+05         0.00000E+00
    0.00000E+00         0.00000E+00        -0.75801E+04
 
   -0.30048E+04         0.18094E+04         0.00000E+00
    0.18094E+04        -0.22341E+05         0.00000E+00
    0.00000E+00         0.00000E+00        -0.76039E+04
 
   -0.39062E+04         0.16934E+04         0.00000E+00
    0.16934E+04        -0.21687E+05         0.00000E+00
    0.00000E+00         0.00000E+00        -0.76779E+04
 
   -0.49492E+04         0.16357E+04         0.00000E+00
    0.16357E+04        -0.21060E+05         0.00000E+00
    0.00000E+00         0.00000E+00        -0.78028E+04
 
   -0.61621E+04         0.16424E+04         0.00000E+00
    0.16424E+04        -0.20440E+05         0.00000E+00
    0.00000E+00         0.00000E+00        -0.79807E+04
 
   -0.75807E+04         0.17238E+04         0.00000E+00
    0.17238E+04        -0.19802E+05         0.00000E+00
    0.00000E+00         0.00000E+00        -0.82148E+04
 
   -0.22457E+05         0.17640E+05         0.00000E+00
    0.17640E+05        -0.25090E+05         0.00000E+00
    0.00000E+00         0.00000E+00        -0.14264E+05
 
   -0.25864E+05         0.25944E+05         0.00000E+00
    0.25944E+05        -0.33925E+05         0.00000E+00
    0.00000E+00         0.00000E+00        -0.17937E+05
 
   -0.19351E+05         0.25462E+05         0.00000E+00
    0.25462E+05        -0.37966E+05         0.00000E+00
    0.00000E+00         0.00000E+00        -0.17195E+05
 
   -0.13710E+05         0.23127E+05         0.00000E+00
    0.23127E+05        -0.39342E+05         0.00000E+00
    0.00000E+00         0.00000E+00        -0.15916E+05
 
   -0.92865E+04         0.20259E+05         0.00000E+00
    0.20259E+05        -0.39182E+05         0.00000E+00
    0.00000E+00         0.00000E+00        -0.14540E+05
 
   -0.60619E+04         0.17422E+05         0.00000E+00
    0.17422E+05        -0.38161E+05         0.00000E+00
    0.00000E+00         0.00000E+00        -0.13267E+05
 
   -0.38002E+04         0.14850E+05         0.00000E+00
    0.14850E+05        -0.36697E+05         0.00000E+00
    0.00000E+00         0.00000E+00        -0.12149E+05
 
   -0.22636E+04         0.12620E+05         0.00000E+00
    0.12620E+05        -0.35050E+05         0.00000E+00
    0.00000E+00         0.00000E+00        -0.11194E+05
 
   -0.12555E+04         0.10729E+05         0.00000E+00
    0.10729E+05        -0.33376E+05         0.00000E+00
    0.00000E+00         0.00000E+00        -0.10389E+05
 
   -0.62967E+03         0.91414E+04         0.00000E+00
    0.91414E+04        -0.31762E+05         0.00000E+00
    0.00000E+00         0.00000E+00        -0.97175E+04
 
   -0.28216E+03         0.78138E+04         0.00000E+00
    0.78138E+04        -0.30253E+05         0.00000E+00
    0.00000E+00         0.00000E+00        -0.91606E+04
 
   -0.14109E+03         0.67039E+04         0.00000E+00
    0.67039E+04        -0.28868E+05         0.00000E+00
    0.00000E+00         0.00000E+00        -0.87028E+04
 
   -0.15778E+03         0.57748E+04         0.00000E+00
    0.57748E+04        -0.27611E+05         0.00000E+00
    0.00000E+00         0.00000E+00        -0.83307E+04
 
   -0.30007E+03         0.49961E+04         0.00000E+00
    0.49961E+04        -0.26477E+05         0.00000E+00
    0.00000E+00         0.00000E+00        -0.80331E+04
 
   -0.54769E+03         0.43432E+04         0.00000E+00
    0.43432E+04        -0.25458E+05         0.00000E+00
    0.00000E+00         0.00000E+00        -0.78016E+04
 
   -0.88909E+03         0.37973E+04         0.00000E+00
    0.37973E+04        -0.24541E+05         0.00000E+00
    0.00000E+00         0.00000E+00        -0.76291E+04
 
   -0.13193E+04         0.33438E+04         0.00000E+00
    0.33438E+04        -0.23716E+05         0.00000E+00
    0.00000E+00         0.00000E+00        -0.75106E+04
 
   -0.18389E+04         0.29727E+04         0.00000E+00
    0.29727E+04        -0.22969E+05         0.00000E+00
    0.00000E+00         0.00000E+00        -0.74423E+04
 
   -0.24529E+04         0.26773E+04         0.00000E+00
    0.26773E+04        -0.22286E+05         0.00000E+00
    0.00000E+00         0.00000E+00        -0.74217E+04
 
   -0.31707E+04         0.24546E+04         0.00000E+00
    0.24546E+04        -0.21654E+05         0.00000E+00
    0.00000E+00         0.00000E+00        -0.74475E+04
 
   -0.40062E+04         0.23049E+04         0.00000E+00
    0.23049E+04        -0.21058E+05         0.00000E+00
    0.00000E+00         0.00000E+00        -0.75194E+04
 
   -0.49781E+04         0.22325E+04         0.00000E+00
    0.22325E+04        -0.20482E+05         0.00000E+00
    0.00000E+00         0.00000E+00        -0.76381E+04
 
   -0.61103E+04         0.22459E+04         0.00000E+00
    0.22459E+04        -0.19908E+05         0.00000E+00
    0.00000E+00         0.00000E+00        -0.78055E+04
 
   -0.74335E+04         0.23587E+04         0.00000E+00
    0.23587E+04        -0.19314E+05         0.00000E+00
    0.00000E+00         0.00000E+00        -0.80243E+04
 
   -0.54729E+04         0.32381E+04         0.00000E+00
    0.32381E+04        -0.64123E+03         0.00000E+00
    0.00000E+00         0.00000E+00        -0.18342E+04
 
   -0.20250E+05         0.15274E+05         0.00000E+00
    0.15274E+05        -0.11420E+05         0.00000E+00
    0.00000E+00         0.00000E+00        -0.95010E+04
 
   -0.19185E+05         0.20104E+05         0.00000E+00
    0.20104E+05        -0.19980E+05         0.00000E+00
    0.00000E+00         0.00000E+00        -0.11750E+05
 
   -0.15355E+05         0.20644E+05         0.00000E+00
    0.20644E+05        -0.25158E+05         0.00000E+00
    0.00000E+00         0.00000E+00        -0.12154E+05
 
   -0.11573E+05         0.19462E+05         0.00000E+00
    0.19462E+05        -0.27999E+05         0.00000E+00
    0.00000E+00         0.00000E+00        -0.11872E+05
 
   -0.84367E+04         0.17615E+05         0.00000E+00
    0.17615E+05        -0.29315E+05         0.00000E+00
    0.00000E+00         0.00000E+00        -0.11325E+05
 
   -0.60220E+04         0.15604E+05         0.00000E+00
    0.15604E+05        -0.29664E+05         0.00000E+00
    0.00000E+00         0.00000E+00        -0.10706E+05
 
   -0.42404E+04         0.13665E+05         0.00000E+00
    0.13665E+05        -0.29422E+05         0.00000E+00
    0.00000E+00         0.00000E+00        -0.10099E+05
 
   -0.29697E+04         0.11898E+05         0.00000E+00
    0.11898E+05        -0.28835E+05         0.00000E+00
    0.00000E+00         0.00000E+00        -0.95415E+04
 
   -0.20966E+04         0.10335E+05         0.00000E+00
    0.10335E+05        -0.28064E+05         0.00000E+00
    0.00000E+00         0.00000E+00        -0.90483E+04
 
   -0.15295E+04         0.89743E+04         0.00000E+00
    0.89743E+04        -0.27211E+05         0.00000E+00
    0.00000E+00         0.00000E+00        -0.86221E+04
 
   -0.11988E+04         0.78009E+04         0.00000E+00
    0.78009E+04        -0.26338E+05         0.00000E+00
    0.00000E+00         0.00000E+00        -0.82610E+04
 
   -0.10536E+04         0.67939E+04         0.00000E+00
    0.67939E+04        -0.25482E+05         0.00000E+00
    0.00000E+00         0.00000E+00        -0.79608E+04
 
   -0.10579E+04         0.59329E+04         0.00000E+00
    0.59329E+04        -0.24666E+05         0.00000E+00
    0.00000E+00         0.00000E+00        -0.77171E+04
 
   -0.11870E+04         0.51996E+04         0.00000E+00
    0.51996E+04        -0.23898E+05         0.00000E+00
    0.00000E+00         0.00000E+00        -0.75256E+04
 
   -0.14253E+04         0.45786E+04         0.00000E+00
    0.45786E+04        -0.23183E+05         0.00000E+00
    0.00000E+00         0.00000E+00        -0.73824E+04
 
   -0.17638E+04         0.40579E+04         0.00000E+00
    0.40579E+04        -0.22519E+05         0.00000E+00
    0.00000E+00         0.00000E+00        -0.72847E+04
 
   -0.21994E+04         0.36288E+04         0.00000E+00
    0.36288E+04        -0.21901E+05         0.00000E+00
    0.00000E+00         0.00000E+00        -0.72302E+04
 
   -0.27336E+04         0.32860E+04         0.00000E+00
    0.32860E+04        -0.21324E+05         0.00000E+00
    0.00000E+00         0.00000E+00        -0.72174E+04
 
   -0.33725E+04         0.30277E+04         0.00000E+00
    0.30277E+04        -0.20779E+05         0.00000E+00
    0.00000E+00         0.00000E+00        -0.72455E+04
 
   -0.41261E+04         0.28557E+04         0.00000E+00
    0.28557E+04        -0.20256E+05         0.00000E+00
    0.00000E+00         0.00000E+00        -0.73145E+04
 
   -0.50087E+04         0.27759E+04         0.00000E+00
    0.27759E+04        -0.19742E+05         0.00000E+00
    0.00000E+00         0.00000E+00        -0.74253E+04
 
   -0.60395E+04         0.27991E+04         0.00000E+00
    0.27991E+04        -0.19225E+05         0.00000E+00
    0.00000E+00         0.00000E+00        -0.75793E+04
 
   -0.72424E+04         0.29422E+04         0.00000E+00
    0.29422E+04        -0.18687E+05         0.00000E+00
    0.00000E+00         0.00000E+00        -0.77788E+04
 
    0.48349E+03         0.10065E+04         0.00000E+00
    0.10065E+04        -0.58769E+03         0.00000E+00
    0.00000E+00         0.00000E+00        -0.31258E+02
 
   -0.11757E+05         0.73085E+04         0.00000E+00
    0.73085E+04        -0.33812E+04         0.00000E+00
    0.00000E+00         0.00000E+00        -0.45414E+04
 
   -0.15764E+05         0.13257E+05         0.00000E+00
    0.13257E+05        -0.94797E+04         0.00000E+00
    0.00000E+00         0.00000E+00        -0.75730E+04
 
   -0.14785E+05         0.16060E+05         0.00000E+00
    0.16060E+05        -0.14942E+05         0.00000E+00
    0.00000E+00         0.00000E+00        -0.89181E+04
 
   -0.12401E+05         0.16680E+05         0.00000E+00
    0.16680E+05        -0.18915E+05         0.00000E+00
    0.00000E+00         0.00000E+00        -0.93948E+04
 
   -0.98842E+04         0.16111E+05         0.00000E+00
    0.16111E+05        -0.21533E+05         0.00000E+00
    0.00000E+00         0.00000E+00        -0.94250E+04
 
   -0.76752E+04         0.14962E+05         0.00000E+00
    0.14962E+05        -0.23107E+05         0.00000E+00
    0.00000E+00         0.00000E+00        -0.92346E+04
 
   -0.58872E+04         0.13584E+05         0.00000E+00
    0.13584E+05        -0.23933E+05         0.00000E+00
    0.00000E+00         0.00000E+00        -0.89461E+04
 
   -0.45086E+04         0.12167E+05         0.00000E+00
    0.12167E+05        -0.24245E+05         0.00000E+00
    0.00000E+00         0.00000E+00        -0.86261E+04
 
   -0.34866E+04         0.10813E+05         0.00000E+00
    0.10813E+05        -0.24215E+05         0.00000E+00
    0.00000E+00         0.00000E+00        -0.83105E+04
 
   -0.27606E+04         0.95666E+04         0.00000E+00
    0.95666E+04        -0.23966E+05         0.00000E+00
    0.00000E+00         0.00000E+00        -0.80180E+04
 
   -0.22764E+04         0.84456E+04         0.00000E+00
    0.84456E+04        -0.23584E+05         0.00000E+00
    0.00000E+00         0.00000E+00        -0.77581E+04
 
   -0.19894E+04         0.74521E+04         0.00000E+00
    0.74521E+04        -0.23126E+05         0.00000E+00
    0.00000E+00         0.00000E+00        -0.75347E+04
 
   -0.18654E+04         0.65809E+04         0.00000E+00
    0.65809E+04        -0.22632E+05         0.00000E+00
    0.00000E+00         0.00000E+00        -0.73492E+04
 
   -0.18791E+04         0.58239E+04         0.00000E+00
    0.58239E+04        -0.22126E+05         0.00000E+00
    0.00000E+00         0.00000E+00        -0.72014E+04
 
   -0.20128E+04         0.51728E+04         0.00000E+00
    0.51728E+04        -0.21623E+05         0.00000E+00
    0.00000E+00         0.00000E+00        -0.70906E+04
 
   -0.22551E+04         0.46204E+04         0.00000E+00
    0.46204E+04        -0.21131E+05         0.00000E+00
    0.00000E+00         0.00000E+00        -0.70160E+04
 
   -0.26002E+04         0.41615E+04         0.00000E+00
    0.41615E+04        -0.20656E+05         0.00000E+00
    0.00000E+00         0.00000E+00        -0.69767E+04
 
   -0.30464E+04         0.37935E+04         0.00000E+00
    0.37935E+04        -0.20195E+05         0.00000E+00
    0.00000E+00         0.00000E+00        -0.69724E+04
 
   -0.35962E+04         0.35166E+04         0.00000E+00
    0.35166E+04        -0.19746E+05         0.00000E+00
    0.00000E+00         0.00000E+00        -0.70028E+04
 
   -0.42560E+04         0.33346E+04         0.00000E+00
    0.33346E+04        -0.19305E+05         0.00000E+00
    0.00000E+00         0.00000E+00        -0.70683E+04
 
   -0.50356E+04         0.32555E+04         0.00000E+00
    0.32555E+04        -0.18863E+05         0.00000E+00
    0.00000E+00         0.00000E+00        -0.71695E+04
 
   -0.59484E+04         0.32921E+04         0.00000E+00
    0.32921E+04        -0.18411E+05         0.00000E+00
    0.00000E+00         0.00000E+00        -0.73079E+04
 
   -0.70118E+04         0.34638E+04         0.00000E+00
    0.34638E+04        -0.17938E+05         0.00000E+00
    0.00000E+00         0.00000E+00        -0.74850E+04
 
    0.32281E+04         0.38100E+03         0.00000E+00
    0.38100E+03        -0.78819E+02         0.00000E+00
    0.00000E+00         0.00000E+00         0.94478E+03
 
   -0.63738E+04         0.38495E+04         0.00000E+00
    0.38495E+04        -0.14772E+04         0.00000E+00
    0.00000E+00         0.00000E+00        -0.23553E+04
 
   -0.11415E+05         0.82619E+04         0.00000E+00
    0.82619E+04        -0.46528E+04         0.00000E+00
    0.00000E+00         0.00000E+00        -0.48203E+04
 
   -0.12696E+05         0.11567E+05         0.00000E+00
    0.11567E+05        -0.87216E+04         0.00000E+00
    0.00000E+00         0.00000E+00        -0.64252E+04
 
   -0.11889E+05         0.13263E+05         0.00000E+00
    0.13263E+05        -0.12441E+05         0.00000E+00
    0.00000E+00         0.00000E+00        -0.72991E+04
 
   -0.10311E+05         0.13734E+05         0.00000E+00
    0.13734E+05        -0.15390E+05         0.00000E+00
    0.00000E+00         0.00000E+00        -0.77103E+04
 
   -0.85983E+04         0.13429E+05         0.00000E+00
    0.13429E+05        -0.17543E+05         0.00000E+00
    0.00000E+00         0.00000E+00        -0.78425E+04
 
   -0.70324E+04         0.12684E+05         0.00000E+00
    0.12684E+05        -0.19016E+05         0.00000E+00
    0.00000E+00         0.00000E+00        -0.78145E+04
 
   -0.57149E+04         0.11723E+05         0.00000E+00
    0.11723E+05        -0.19953E+05         0.00000E+00
    0.00000E+00         0.00000E+00        -0.77004E+04
 
   -0.46640E+04         0.10685E+05         0.00000E+00
    0.10685E+05        -0.20490E+05         0.00000E+00
    0.00000E+00         0.00000E+00        -0.75462E+04
 
   -0.38626E+04         0.96526E+04         0.00000E+00
    0.96526E+04        -0.20736E+05         0.00000E+00
    0.00000E+00         0.00000E+00        -0.73796E+04
 
   -0.32815E+04         0.86711E+04         0.00000E+00
    0.86711E+04        -0.20777E+05         0.00000E+00
    0.00000E+00         0.00000E+00        -0.72177E+04
 
   -0.28904E+04         0.77649E+04         0.00000E+00
    0.77649E+04        -0.20677E+05         0.00000E+00
    0.00000E+00         0.00000E+00        -0.70703E+04
 
   -0.26624E+04         0.69449E+04         0.00000E+00
    0.69449E+04        -0.20482E+05         0.00000E+00
    0.00000E+00         0.00000E+00        -0.69433E+04
 
   -0.25754E+04         0.62150E+04         0.00000E+00
    0.62150E+04        -0.20225E+05         0.00000E+00
    0.00000E+00         0.00000E+00        -0.68402E+04
 
   -0.26126E+04         0.55754E+04         0.00000E+00
    0.55754E+04        -0.19930E+05         0.00000E+00
    0.00000E+00         0.00000E+00        -0.67627E+04
 
   -0.27622E+04         0.50252E+04         0.00000E+00
    0.50252E+04        -0.19611E+05         0.00000E+00
    0.00000E+00         0.00000E+00        -0.67120E+04
 
   -0.30164E+04         0.45640E+04         0.00000E+00
    0.45640E+04        -0.19279E+05         0.00000E+00
    0.00000E+00         0.00000E+00        -0.66885E+04
 
   -0.33715E+04         0.41926E+04         0.00000E+00
    0.41926E+04        -0.18938E+05         0.00000E+00
    0.00000E+00         0.00000E+00        -0.66928E+04
 
   -0.38270E+04         0.39142E+04         0.00000E+00
    0.39142E+04        -0.18590E+05         0.00000E+00
    0.00000E+00         0.00000E+00        -0.67252E+04
 
   -0.43857E+04         0.37347E+04         0.00000E+00
    0.37347E+04        -0.18236E+05         0.00000E+00
    0.00000E+00         0.00000E+00        -0.67864E+04
 
   -0.50528E+04         0.36643E+04         0.00000E+00
    0.36643E+04        -0.17870E+05         0.00000E+00
    0.00000E+00         0.00000E+00        -0.68770E+04
 
   -0.58363E+04         0.37176E+04         0.00000E+00
    0.37176E+04        -0.17490E+05         0.00000E+00
    0.00000E+00         0.00000E+00        -0.69979E+04
 
   -0.67464E+04         0.39159E+04         0.00000E+00
    0.39159E+04        -0.17088E+05         0.00000E+00
    0.00000E+00         0.00000E+00        -0.71503E+04
 
    0.45669E+04         0.14594E+03         0.00000E+00
    0.14594E+03        -0.52071E+02         0.00000E+00
    0.00000E+00         0.00000E+00         0.13545E+04
 
   -0.29309E+04         0.21453E+04         0.00000E+00
    0.21453E+04        -0.70813E+03         0.00000E+00
    0.00000E+00         0.00000E+00        -0.10917E+04
 
   -0.78677E+04         0.52211E+04         0.00000E+00
    0.52211E+04        -0.25444E+04         0.00000E+00
    0.00000E+00         0.00000E+00        -0.31236E+04
 
   -0.10168E+05         0.80895E+04         0.00000E+00
    0.80895E+04        -0.52415E+04         0.00000E+00
    0.00000E+00         0.00000E+00        -0.46230E+04
 
   -0.10582E+05         0.10099E+05         0.00000E+00
    0.10099E+05        -0.81899E+04         0.00000E+00
    0.00000E+00         0.00000E+00        -0.56315E+04
 
   -0.99391E+04         0.11170E+05         0.00000E+00
    0.11170E+05        -0.10892E+05         0.00000E+00
    0.00000E+00         0.00000E+00        -0.62492E+04
 
   -0.88464E+04         0.11495E+05         0.00000E+00
    0.11495E+05        -0.13134E+05         0.00000E+00
    0.00000E+00         0.00000E+00        -0.65941E+04
 
   -0.76499E+04         0.11305E+05         0.00000E+00
    0.11305E+05        -0.14878E+05         0.00000E+00
    0.00000E+00         0.00000E+00        -0.67584E+04
 
   -0.65270E+04         0.10795E+05         0.00000E+00
    0.10795E+05        -0.16168E+05         0.00000E+00
    0.00000E+00         0.00000E+00        -0.68086E+04
 
   -0.55561E+04         0.10106E+05         0.00000E+00
    0.10106E+05        -0.17078E+05         0.00000E+00
    0.00000E+00         0.00000E+00        -0.67902E+04
 
   -0.47634E+04         0.93341E+04         0.00000E+00
    0.93341E+04        -0.17684E+05         0.00000E+00
    0.00000E+00         0.00000E+00        -0.67342E+04
 
   -0.41482E+04         0.85438E+04         0.00000E+00
    0.85438E+04        -0.18055E+05         0.00000E+00
    0.00000E+00         0.00000E+00        -0.66611E+04
 
   -0.36987E+04         0.77747E+04         0.00000E+00
    0.77747E+04        -0.18249E+05         0.00000E+00
    0.00000E+00         0.00000E+00        -0.65844E+04
 
   -0.33992E+04         0.70514E+04         0.00000E+00
    0.70514E+04        -0.18311E+05         0.00000E+00
    0.00000E+00         0.00000E+00        -0.65131E+04
 
   -0.32341E+04         0.63885E+04         0.00000E+00
    0.63885E+04        -0.18276E+05         0.00000E+00
    0.00000E+00         0.00000E+00        -0.64530E+04
 
   -0.31899E+04         0.57950E+04         0.00000E+00
    0.57950E+04        -0.18170E+05         0.00000E+00
    0.00000E+00         0.00000E+00        -0.64080E+04
 
   -0.32561E+04         0.52763E+04         0.00000E+00
    0.52763E+04        -0.18013E+05         0.00000E+00
    0.00000E+00         0.00000E+00        -0.63806E+04
 
   -0.34246E+04         0.48372E+04         0.00000E+00
    0.48372E+04        -0.17817E+05         0.00000E+00
    0.00000E+00         0.00000E+00        -0.63726E+04
 
   -0.36904E+04         0.44824E+04         0.00000E+00
    0.44824E+04        -0.17593E+05         0.00000E+00
    0.00000E+00         0.00000E+00        -0.63850E+04
 
   -0.40507E+04         0.42181E+04         0.00000E+00
    0.42181E+04        -0.17346E+05         0.00000E+00
    0.00000E+00         0.00000E+00        -0.64190E+04
 
   -0.45051E+04         0.40527E+04         0.00000E+00
    0.40527E+04        -0.17079E+05         0.00000E+00
    0.00000E+00         0.00000E+00        -0.64751E+04
 
   -0.50549E+04         0.39983E+04         0.00000E+00
    0.39983E+04        -0.16792E+05         0.00000E+00
    0.00000E+00         0.00000E+00        -0.65541E+04
 
   -0.57026E+04         0.40712E+04         0.00000E+00
    0.40712E+04        -0.16486E+05         0.00000E+00
    0.00000E+00         0.00000E+00        -0.66565E+04
 
   -0.64517E+04         0.42934E+04         0.00000E+00
    0.42934E+04        -0.16158E+05         0.00000E+00
    0.00000E+00         0.00000E+00        -0.67828E+04
 
    0.52585E+04         0.27342E+02         0.00000E+00
    0.27342E+02        -0.24802E+02         0.00000E+00
    0.00000E+00         0.00000E+00         0.15701E+04
 
   -0.73847E+03         0.12238E+04         0.00000E+00
    0.12238E+04        -0.40043E+03         0.00000E+00
    0.00000E+00         0.00000E+00        -0.34167E+03
 
   -0.51908E+04         0.33417E+04         0.00000E+00
    0.33417E+04        -0.15001E+04         0.00000E+00
    0.00000E+00         0.00000E+00        -0.20073E+04
 
   -0.78533E+04         0.56212E+04         0.00000E+00
    0.56212E+04        -0.33012E+04         0.00000E+00
    0.00000E+00         0.00000E+00        -0.33463E+04
 
   -0.89950E+04         0.75193E+04         0.00000E+00
    0.75193E+04        -0.54927E+04         0.00000E+00
    0.00000E+00         0.00000E+00        -0.43463E+04
 
   -0.90935E+04         0.88149E+04         0.00000E+00
    0.88149E+04        -0.77363E+04         0.00000E+00
    0.00000E+00         0.00000E+00        -0.50489E+04
 
   -0.85924E+04         0.95157E+04         0.00000E+00
    0.95157E+04        -0.97929E+04         0.00000E+00
    0.00000E+00         0.00000E+00        -0.55156E+04
 
   -0.78144E+04         0.97335E+04         0.00000E+00
    0.97335E+04        -0.11548E+05         0.00000E+00
    0.00000E+00         0.00000E+00        -0.58086E+04
 
   -0.69613E+04         0.96006E+04         0.00000E+00
    0.96006E+04        -0.12971E+05         0.00000E+00
    0.00000E+00         0.00000E+00        -0.59796E+04
 
   -0.61478E+04         0.92343E+04         0.00000E+00
    0.92343E+04        -0.14079E+05         0.00000E+00
    0.00000E+00         0.00000E+00        -0.60681E+04
 
   -0.54322E+04         0.87268E+04         0.00000E+00
    0.87268E+04        -0.14912E+05         0.00000E+00
    0.00000E+00         0.00000E+00        -0.61034E+04
 
   -0.48398E+04         0.81458E+04         0.00000E+00
    0.81458E+04        -0.15515E+05         0.00000E+00
    0.00000E+00         0.00000E+00        -0.61064E+04
 
   -0.43769E+04         0.75393E+04         0.00000E+00
    0.75393E+04        -0.15930E+05         0.00000E+00
    0.00000E+00         0.00000E+00        -0.60921E+04
 
   -0.40404E+04         0.69405E+04         0.00000E+00
    0.69405E+04        -0.16196E+05         0.00000E+00
    0.00000E+00         0.00000E+00        -0.60709E+04
 
   -0.38232E+04         0.63723E+04         0.00000E+00
    0.63723E+04        -0.16345E+05         0.00000E+00
    0.00000E+00         0.00000E+00        -0.60503E+04
 
   -0.37166E+04         0.58502E+04         0.00000E+00
    0.58502E+04        -0.16401E+05         0.00000E+00
    0.00000E+00         0.00000E+00        -0.60354E+04
 
   -0.37127E+04         0.53860E+04         0.00000E+00
    0.53860E+04        -0.16386E+05         0.00000E+00
    0.00000E+00         0.00000E+00        -0.60297E+04
 
   -0.38045E+04         0.49888E+04         0.00000E+00
    0.49888E+04        -0.16315E+05         0.00000E+00
    0.00000E+00         0.00000E+00        -0.60360E+04
 
   -0.39865E+04         0.46672E+04         0.00000E+00
    0.46672E+04        -0.16199E+05         0.00000E+00
    0.00000E+00         0.00000E+00        -0.60558E+04
 
   -0.42546E+04         0.44303E+04         0.00000E+00
    0.44303E+04        -0.16047E+05         0.00000E+00
    0.00000E+00         0.00000E+00        -0.60905E+04
 
   -0.46056E+04         0.42890E+04         0.00000E+00
    0.42890E+04        -0.15865E+05         0.00000E+00
    0.00000E+00         0.00000E+00        -0.61410E+04
 
   -0.50373E+04         0.42568E+04         0.00000E+00
    0.42568E+04        -0.15655E+05         0.00000E+00
    0.00000E+00         0.00000E+00        -0.62078E+04
 
   -0.55475E+04         0.43511E+04         0.00000E+00
    0.43511E+04        -0.15423E+05         0.00000E+00
    0.00000E+00         0.00000E+00        -0.62911E+04
 
   -0.61335E+04         0.45944E+04         0.00000E+00
    0.45944E+04        -0.15170E+05         0.00000E+00
    0.00000E+00         0.00000E+00        -0.63910E+04
 
    0.55916E+04        -0.42965E+02         0.00000E+00
   -0.42965E+02        -0.16511E+02         0.00000E+00
    0.00000E+00         0.00000E+00         0.16725E+04
 
    0.68875E+03         0.67650E+03         0.00000E+00
    0.67650E+03        -0.24594E+03         0.00000E+00
    0.00000E+00         0.00000E+00         0.13285E+03
 
   -0.32320E+04         0.21408E+04         0.00000E+00
    0.21408E+04        -0.94805E+03         0.00000E+00
    0.00000E+00         0.00000E+00        -0.12540E+04
 
   -0.59202E+04         0.38902E+04         0.00000E+00
    0.38902E+04        -0.21706E+04         0.00000E+00
    0.00000E+00         0.00000E+00        -0.24272E+04
 
   -0.74420E+04         0.55283E+04         0.00000E+00
    0.55283E+04        -0.37781E+04         0.00000E+00
    0.00000E+00         0.00000E+00        -0.33660E+04
 
   -0.80466E+04         0.68213E+04         0.00000E+00
    0.68213E+04        -0.55591E+04         0.00000E+00
    0.00000E+00         0.00000E+00        -0.40817E+04
 
   -0.80288E+04         0.76921E+04         0.00000E+00
    0.76921E+04        -0.73233E+04         0.00000E+00
    0.00000E+00         0.00000E+00        -0.46056E+04
 
   -0.76441E+04         0.81648E+04         0.00000E+00
    0.81648E+04        -0.89417E+04         0.00000E+00
    0.00000E+00         0.00000E+00        -0.49758E+04
 
   -0.70811E+04         0.83104E+04         0.00000E+00
    0.83104E+04        -0.10348E+05         0.00000E+00
    0.00000E+00         0.00000E+00        -0.52288E+04
 
   -0.64649E+04         0.82105E+04         0.00000E+00
    0.82105E+04        -0.11522E+05         0.00000E+00
    0.00000E+00         0.00000E+00        -0.53960E+04
 
   -0.58720E+04         0.79400E+04         0.00000E+00
    0.79400E+04        -0.12470E+05         0.00000E+00
    0.00000E+00         0.00000E+00        -0.55025E+04
 
   -0.53456E+04         0.75610E+04         0.00000E+00
    0.75610E+04        -0.13212E+05         0.00000E+00
    0.00000E+00         0.00000E+00        -0.55674E+04
 
   -0.49072E+04         0.71220E+04         0.00000E+00
    0.71220E+04        -0.13778E+05         0.00000E+00
    0.00000E+00         0.00000E+00        -0.56054E+04
 
   -0.45655E+04         0.66594E+04         0.00000E+00
    0.66594E+04        -0.14193E+05         0.00000E+00
    0.00000E+00         0.00000E+00        -0.56274E+04
 
   -0.43215E+04         0.62007E+04         0.00000E+00
    0.62007E+04        -0.14483E+05         0.00000E+00
    0.00000E+00         0.00000E+00        -0.56413E+04
 
   -0.41724E+04         0.57663E+04         0.00000E+00
    0.57663E+04        -0.14671E+05         0.00000E+00
    0.00000E+00         0.00000E+00        -0.56530E+04
 
   -0.41137E+04         0.53722E+04         0.00000E+00
    0.53722E+04        -0.14775E+05         0.00000E+00
    0.00000E+00         0.00000E+00        -0.56667E+04
 
   -0.41402E+04         0.50313E+04         0.00000E+00
    0.50313E+04        -0.14811E+05         0.00000E+00
    0.00000E+00         0.00000E+00        -0.56855E+04
 
   -0.42467E+04         0.47556E+04         0.00000E+00
    0.47556E+04        -0.14792E+05         0.00000E+00
    0.00000E+00         0.00000E+00        -0.57115E+04
 
   -0.44282E+04         0.45566E+04         0.00000E+00
    0.45566E+04        -0.14726E+05         0.00000E+00
    0.00000E+00         0.00000E+00        -0.57462E+04
 
   -0.46799E+04         0.44470E+04         0.00000E+00
    0.44470E+04        -0.14622E+05         0.00000E+00
    0.00000E+00         0.00000E+00        -0.57905E+04
 
   -0.49964E+04         0.44416E+04         0.00000E+00
    0.44416E+04        -0.14487E+05         0.00000E+00
    0.00000E+00         0.00000E+00        -0.58449E+04
 
   -0.53716E+04         0.45583E+04         0.00000E+00
    0.45583E+04        -0.14326E+05         0.00000E+00
    0.00000E+00         0.00000E+00        -0.59091E+04
 
   -0.57975E+04         0.48192E+04         0.00000E+00
    0.48192E+04        -0.14145E+05         0.00000E+00
    0.00000E+00         0.00000E+00        -0.59828E+04
 
    0.57083E+04        -0.88766E+02         0.00000E+00
   -0.88766E+02        -0.11153E+02         0.00000E+00
    0.00000E+00         0.00000E+00         0.17091E+04
 
    0.16225E+04         0.32784E+03         0.00000E+00
    0.32784E+03        -0.16179E+03         0.00000E+00
    0.00000E+00         0.00000E+00         0.43821E+03
 
   -0.18083E+04         0.13418E+04         0.00000E+00
    0.13418E+04        -0.63066E+03         0.00000E+00
    0.00000E+00         0.00000E+00        -0.73169E+03
 
   -0.43736E+04         0.26656E+04         0.00000E+00
    0.26656E+04        -0.14827E+04         0.00000E+00
    0.00000E+00         0.00000E+00        -0.17569E+04
 
   -0.60552E+04         0.40190E+04         0.00000E+00
    0.40190E+04        -0.26645E+04         0.00000E+00
    0.00000E+00         0.00000E+00        -0.26159E+04
 
   -0.69736E+04         0.52009E+04         0.00000E+00
    0.52009E+04        -0.40536E+04         0.00000E+00
    0.00000E+00         0.00000E+00        -0.33082E+04
 
   -0.73123E+04         0.61069E+04         0.00000E+00
    0.61069E+04        -0.55142E+04         0.00000E+00
    0.00000E+00         0.00000E+00        -0.38480E+04
 
   -0.72576E+04         0.67121E+04         0.00000E+00
    0.67121E+04        -0.69341E+04         0.00000E+00
    0.00000E+00         0.00000E+00        -0.42575E+04
 
   -0.69661E+04         0.70409E+04         0.00000E+00
    0.70409E+04        -0.82383E+04         0.00000E+00
    0.00000E+00         0.00000E+00        -0.45613E+04
 
   -0.65555E+04         0.71407E+04         0.00000E+00
    0.71407E+04        -0.93861E+04         0.00000E+00
    0.00000E+00         0.00000E+00        -0.47825E+04
 
   -0.61074E+04         0.70652E+04         0.00000E+00
    0.70652E+04        -0.10363E+05         0.00000E+00
    0.00000E+00         0.00000E+00        -0.49412E+04
 
   -0.56743E+04         0.68649E+04         0.00000E+00
    0.68649E+04        -0.11172E+05         0.00000E+00
    0.00000E+00         0.00000E+00        -0.50539E+04
 
   -0.52882E+04         0.65830E+04         0.00000E+00
    0.65830E+04        -0.11824E+05         0.00000E+00
    0.00000E+00         0.00000E+00        -0.51338E+04
 
   -0.49667E+04         0.62554E+04         0.00000E+00
    0.62554E+04        -0.12337E+05         0.00000E+00
    0.00000E+00         0.00000E+00        -0.51912E+04
 
   -0.47182E+04         0.59105E+04         0.00000E+00
    0.59105E+04        -0.12728E+05         0.00000E+00
    0.00000E+00         0.00000E+00        -0.52340E+04
 
   -0.45453E+04         0.55712E+04         0.00000E+00
    0.55712E+04        -0.13015E+05         0.00000E+00
    0.00000E+00         0.00000E+00        -0.52682E+04
 
   -0.44471E+04         0.52560E+04         0.00000E+00
    0.52560E+04        -0.13214E+05         0.00000E+00
    0.00000E+00         0.00000E+00        -0.52983E+04
 
   -0.44204E+04         0.49806E+04         0.00000E+00
    0.49806E+04        -0.13338E+05         0.00000E+00
    0.00000E+00         0.00000E+00        -0.53276E+04
 
   -0.44612E+04         0.47591E+04         0.00000E+00
    0.47591E+04        -0.13400E+05         0.00000E+00
    0.00000E+00         0.00000E+00        -0.53583E+04
 
   -0.45640E+04         0.46050E+04         0.00000E+00
    0.46050E+04        -0.13410E+05         0.00000E+00
    0.00000E+00         0.00000E+00        -0.53921E+04
 
   -0.47228E+04         0.45324E+04         0.00000E+00
    0.45324E+04        -0.13377E+05         0.00000E+00
    0.00000E+00         0.00000E+00        -0.54299E+04
 
   -0.49301E+04         0.45567E+04         0.00000E+00
    0.45567E+04        -0.13309E+05         0.00000E+00
    0.00000E+00         0.00000E+00        -0.54718E+04
 
   -0.51764E+04         0.46958E+04         0.00000E+00
    0.46958E+04        -0.13215E+05         0.00000E+00
    0.00000E+00         0.00000E+00        -0.55175E+04
 
   -0.54495E+04         0.49708E+04         0.00000E+00
    0.49708E+04        -0.13104E+05         0.00000E+00
    0.00000E+00         0.00000E+00        -0.55662E+04
 
    0.56842E+04        -0.12027E+03         0.00000E+00
   -0.12027E+03        -0.79328E+01         0.00000E+00
    0.00000E+00         0.00000E+00         0.17029E+04
 
    0.22266E+04         0.93866E+02         0.00000E+00
    0.93866E+02        -0.11111E+03         0.00000E+00
    0.00000E+00         0.00000E+00         0.63463E+03
 
   -0.77774E+03         0.79121E+03         0.00000E+00
    0.79121E+03        -0.43617E+03         0.00000E+00
    0.00000E+00         0.00000E+00        -0.36417E+03
 
   -0.31607E+04         0.17849E+04         0.00000E+00
    0.17849E+04        -0.10442E+04         0.00000E+00
    0.00000E+00         0.00000E+00        -0.12615E+04
 
   -0.48738E+04         0.28777E+04         0.00000E+00
    0.28777E+04        -0.19213E+04         0.00000E+00
    0.00000E+00         0.00000E+00        -0.20385E+04
 
   -0.59673E+04         0.39084E+04         0.00000E+00
    0.39084E+04        -0.29991E+04         0.00000E+00
    0.00000E+00         0.00000E+00        -0.26899E+04
 
   -0.65502E+04         0.47736E+04         0.00000E+00
    0.47736E+04        -0.41865E+04         0.00000E+00
    0.00000E+00         0.00000E+00        -0.32210E+04
 
   -0.67513E+04         0.54259E+04         0.00000E+00
    0.54259E+04        -0.53958E+04         0.00000E+00
    0.00000E+00         0.00000E+00        -0.36441E+04
 
   -0.66923E+04         0.58603E+04         0.00000E+00
    0.58603E+04        -0.65578E+04         0.00000E+00
    0.00000E+00         0.00000E+00        -0.39750E+04
 
   -0.64741E+04         0.60976E+04         0.00000E+00
    0.60976E+04        -0.76260E+04         0.00000E+00
    0.00000E+00         0.00000E+00        -0.42300E+04
 
   -0.61739E+04         0.61714E+04         0.00000E+00
    0.61714E+04        -0.85745E+04         0.00000E+00
    0.00000E+00         0.00000E+00        -0.44245E+04
 
   -0.58468E+04         0.61186E+04         0.00000E+00
    0.61186E+04        -0.93931E+04         0.00000E+00
    0.00000E+00         0.00000E+00        -0.45720E+04
 
   -0.55299E+04         0.59749E+04         0.00000E+00
    0.59749E+04        -0.10082E+05         0.00000E+00
    0.00000E+00         0.00000E+00        -0.46836E+04
 
   -0.52468E+04         0.57719E+04         0.00000E+00
    0.57719E+04        -0.10649E+05         0.00000E+00
    0.00000E+00         0.00000E+00        -0.47687E+04
 
   -0.50112E+04         0.55370E+04         0.00000E+00
    0.55370E+04        -0.11104E+05         0.00000E+00
    0.00000E+00         0.00000E+00        -0.48346E+04
 
   -0.48303E+04         0.52930E+04         0.00000E+00
    0.52930E+04        -0.11460E+05         0.00000E+00
    0.00000E+00         0.00000E+00        -0.48870E+04
 
   -0.47064E+04         0.50596E+04         0.00000E+00
    0.50596E+04        -0.11728E+05         0.00000E+00
    0.00000E+00         0.00000E+00        -0.49303E+04
 
   -0.46387E+04         0.48537E+04         0.00000E+00
    0.48537E+04        -0.11921E+05         0.00000E+00
    0.00000E+00         0.00000E+00        -0.49678E+04
 
   -0.46239E+04         0.46908E+04         0.00000E+00
    0.46908E+04        -0.12049E+05         0.00000E+00
    0.00000E+00         0.00000E+00        -0.50019E+04
 
   -0.46571E+04         0.45855E+04         0.00000E+00
    0.45855E+04        -0.12123E+05         0.00000E+00
    0.00000E+00         0.00000E+00        -0.50339E+04
 
   -0.47313E+04         0.45526E+04         0.00000E+00
    0.45526E+04        -0.12151E+05         0.00000E+00
    0.00000E+00         0.00000E+00        -0.50648E+04
 
   -0.48375E+04         0.46078E+04         0.00000E+00
    0.46078E+04        -0.12144E+05         0.00000E+00
    0.00000E+00         0.00000E+00        -0.50946E+04
 
   -0.49639E+04         0.47682E+04         0.00000E+00
    0.47682E+04        -0.12112E+05         0.00000E+00
    0.00000E+00         0.00000E+00        -0.51227E+04
 
   -0.50950E+04         0.50535E+04         0.00000E+00
    0.50535E+04        -0.12065E+05         0.00000E+00
    0.00000E+00         0.00000E+00        -0.51479E+04
 
    0.55641E+04        -0.14254E+03         0.00000E+00
   -0.14254E+03        -0.56653E+01         0.00000E+00
    0.00000E+00         0.00000E+00         0.16675E+04
 
    0.26022E+04        -0.68971E+02         0.00000E+00
   -0.68971E+02        -0.78385E+02         0.00000E+00
    0.00000E+00         0.00000E+00         0.75714E+03
 
   -0.36790E+02         0.40077E+03         0.00000E+00
    0.40077E+03        -0.30986E+03         0.00000E+00
    0.00000E+00         0.00000E+00        -0.10399E+03
 
   -0.22207E+04         0.11409E+04         0.00000E+00
    0.11409E+04        -0.75255E+03         0.00000E+00
    0.00000E+00         0.00000E+00        -0.89198E+03
 
   -0.38936E+04         0.20109E+04         0.00000E+00
    0.20109E+04        -0.14104E+04         0.00000E+00
    0.00000E+00         0.00000E+00        -0.15912E+04
 
   -0.50685E+04         0.28855E+04         0.00000E+00
    0.28855E+04        -0.22472E+04         0.00000E+00
    0.00000E+00         0.00000E+00        -0.21947E+04
 
   -0.58070E+04         0.36727E+04         0.00000E+00
    0.36727E+04        -0.32037E+04         0.00000E+00
    0.00000E+00         0.00000E+00        -0.27032E+04
 
   -0.61949E+04         0.43186E+04         0.00000E+00
    0.43186E+04        -0.42154E+04         0.00000E+00
    0.00000E+00         0.00000E+00        -0.31231E+04
 
   -0.63224E+04         0.48018E+04         0.00000E+00
    0.48018E+04        -0.52243E+04         0.00000E+00
    0.00000E+00         0.00000E+00        -0.34640E+04
 
   -0.62714E+04         0.51251E+04         0.00000E+00
    0.51251E+04        -0.61861E+04         0.00000E+00
    0.00000E+00         0.00000E+00        -0.37373E+04
 
   -0.61096E+04         0.53057E+04         0.00000E+00
    0.53057E+04        -0.70706E+04         0.00000E+00
    0.00000E+00         0.00000E+00        -0.39541E+04
 
   -0.58895E+04         0.53682E+04         0.00000E+00
    0.53682E+04        -0.78605E+04         0.00000E+00
    0.00000E+00         0.00000E+00        -0.41250E+04
 
   -0.56493E+04         0.53395E+04         0.00000E+00
    0.53395E+04        -0.85485E+04         0.00000E+00
    0.00000E+00         0.00000E+00        -0.42593E+04
 
   -0.54154E+04         0.52459E+04         0.00000E+00
    0.52459E+04        -0.91343E+04         0.00000E+00
    0.00000E+00         0.00000E+00        -0.43649E+04
 
   -0.52050E+04         0.51114E+04         0.00000E+00
    0.51114E+04        -0.96224E+04         0.00000E+00
    0.00000E+00         0.00000E+00        -0.44482E+04
 
   -0.50283E+04         0.49578E+04         0.00000E+00
    0.49578E+04        -0.10020E+05         0.00000E+00
    0.00000E+00         0.00000E+00        -0.45145E+04
 
   -0.48905E+04         0.48042E+04         0.00000E+00
    0.48042E+04        -0.10336E+05         0.00000E+00
    0.00000E+00         0.00000E+00        -0.45678E+04
 
   -0.47926E+04         0.46677E+04         0.00000E+00
    0.46677E+04        -0.10578E+05         0.00000E+00
    0.00000E+00         0.00000E+00        -0.46113E+04
 
   -0.47324E+04         0.45643E+04         0.00000E+00
    0.45643E+04        -0.10758E+05         0.00000E+00
    0.00000E+00         0.00000E+00        -0.46471E+04
 
   -0.47055E+04         0.45089E+04         0.00000E+00
    0.45089E+04        -0.10883E+05         0.00000E+00
    0.00000E+00         0.00000E+00        -0.46766E+04
 
   -0.47044E+04         0.45162E+04         0.00000E+00
    0.45162E+04        -0.10964E+05         0.00000E+00
    0.00000E+00         0.00000E+00        -0.47005E+04
 
   -0.47193E+04         0.46017E+04         0.00000E+00
    0.46017E+04        -0.11010E+05         0.00000E+00
    0.00000E+00         0.00000E+00        -0.47188E+04
 
   -0.47367E+04         0.47816E+04         0.00000E+00
    0.47816E+04        -0.11032E+05         0.00000E+00
    0.00000E+00         0.00000E+00        -0.47306E+04
 
   -0.47391E+04         0.50735E+04         0.00000E+00
    0.50735E+04        -0.11042E+05         0.00000E+00
    0.00000E+00         0.00000E+00        -0.47344E+04
 
    0.53767E+04        -0.15836E+03         0.00000E+00
   -0.15836E+03        -0.39766E+01         0.00000E+00
    0.00000E+00         0.00000E+00         0.16118E+04
 
    0.28151E+04        -0.18495E+03         0.00000E+00
   -0.18495E+03        -0.55905E+02         0.00000E+00
    0.00000E+00         0.00000E+00         0.82777E+03
 
    0.48856E+03         0.11804E+03         0.00000E+00
    0.11804E+03        -0.22366E+03         0.00000E+00
    0.00000E+00         0.00000E+00         0.79470E+02
 
   -0.14991E+04         0.66310E+03         0.00000E+00
    0.66310E+03        -0.55078E+03         0.00000E+00
    0.00000E+00         0.00000E+00        -0.61496E+03
 
   -0.30935E+04         0.13485E+04         0.00000E+00
    0.13485E+04        -0.10488E+04         0.00000E+00
    0.00000E+00         0.00000E+00        -0.12427E+04
 
   -0.42888E+04         0.20777E+04         0.00000E+00
    0.20777E+04        -0.17001E+04         0.00000E+00
    0.00000E+00         0.00000E+00        -0.17967E+04
 
   -0.51172E+04         0.27732E+04         0.00000E+00
    0.27732E+04        -0.24673E+04         0.00000E+00
    0.00000E+00         0.00000E+00        -0.22754E+04
 
   -0.56339E+04         0.33820E+04         0.00000E+00
    0.33820E+04        -0.33043E+04         0.00000E+00
    0.00000E+00         0.00000E+00        -0.26814E+04
 
   -0.59035E+04         0.38758E+04         0.00000E+00
    0.38758E+04        -0.41654E+04         0.00000E+00
    0.00000E+00         0.00000E+00        -0.30207E+04
 
   -0.59900E+04         0.42459E+04         0.00000E+00
    0.42459E+04        -0.50117E+04         0.00000E+00
    0.00000E+00         0.00000E+00        -0.33005E+04
 
   -0.59498E+04         0.44978E+04         0.00000E+00
    0.44978E+04        -0.58135E+04         0.00000E+00
    0.00000E+00         0.00000E+00        -0.35290E+04
 
   -0.58298E+04         0.46457E+04         0.00000E+00
    0.46457E+04        -0.65506E+04         0.00000E+00
    0.00000E+00         0.00000E+00        -0.37141E+04
 
   -0.56663E+04         0.47085E+04         0.00000E+00
    0.47085E+04        -0.72112E+04         0.00000E+00
    0.00000E+00         0.00000E+00        -0.38632E+04
 
   -0.54862E+04         0.47065E+04         0.00000E+00
    0.47065E+04        -0.77899E+04         0.00000E+00
    0.00000E+00         0.00000E+00        -0.39828E+04
 
   -0.53082E+04         0.46600E+04         0.00000E+00
    0.46600E+04        -0.82864E+04         0.00000E+00
    0.00000E+00         0.00000E+00        -0.40784E+04
 
   -0.51446E+04         0.45883E+04         0.00000E+00
    0.45883E+04        -0.87038E+04         0.00000E+00
    0.00000E+00         0.00000E+00        -0.41545E+04
 
   -0.50020E+04         0.45090E+04         0.00000E+00
    0.45090E+04        -0.90474E+04         0.00000E+00
    0.00000E+00         0.00000E+00        -0.42148E+04
 
   -0.48832E+04         0.44387E+04         0.00000E+00
    0.44387E+04        -0.93238E+04         0.00000E+00
    0.00000E+00         0.00000E+00        -0.42621E+04
 
   -0.47870E+04         0.43927E+04         0.00000E+00
    0.43927E+04        -0.95406E+04         0.00000E+00
    0.00000E+00         0.00000E+00        -0.42983E+04
 
   -0.47093E+04         0.43856E+04         0.00000E+00
    0.43856E+04        -0.97061E+04         0.00000E+00
    0.00000E+00         0.00000E+00        -0.43246E+04
 
   -0.46428E+04         0.44320E+04         0.00000E+00
    0.44320E+04        -0.98293E+04         0.00000E+00
    0.00000E+00         0.00000E+00        -0.43416E+04
 
   -0.45770E+04         0.45461E+04         0.00000E+00
    0.45461E+04        -0.99199E+04         0.00000E+00
    0.00000E+00         0.00000E+00        -0.43491E+04
 
   -0.44978E+04         0.47427E+04         0.00000E+00
    0.47427E+04        -0.99891E+04         0.00000E+00
    0.00000E+00         0.00000E+00        -0.43460E+04
 
   -0.43864E+04         0.50375E+04         0.00000E+00
    0.50375E+04        -0.10050E+05         0.00000E+00
    0.00000E+00         0.00000E+00        -0.43309E+04
 
    0.51414E+04        -0.16939E+03         0.00000E+00
   -0.16939E+03        -0.26433E+01         0.00000E+00
    0.00000E+00         0.00000E+00         0.15416E+04
 
    0.29098E+04        -0.26846E+03         0.00000E+00
   -0.26846E+03        -0.39662E+02         0.00000E+00
    0.00000E+00         0.00000E+00         0.86105E+03
 
    0.85162E+03        -0.89490E+02         0.00000E+00
   -0.89490E+02        -0.16226E+03         0.00000E+00
    0.00000E+00         0.00000E+00         0.20681E+03
 
   -0.95074E+03         0.30481E+03         0.00000E+00
    0.30481E+03        -0.40624E+03         0.00000E+00
    0.00000E+00         0.00000E+00        -0.40709E+03
 
   -0.24480E+04         0.83950E+03         0.00000E+00
    0.83950E+03        -0.78576E+03         0.00000E+00
    0.00000E+00         0.00000E+00        -0.97012E+03
 
   -0.36252E+04         0.14401E+04         0.00000E+00
    0.14401E+04        -0.12939E+04         0.00000E+00
    0.00000E+00         0.00000E+00        -0.14757E+04
 
   -0.44964E+04         0.20427E+04         0.00000E+00
    0.20427E+04        -0.19078E+04         0.00000E+00
    0.00000E+00         0.00000E+00        -0.19212E+04
 
   -0.50958E+04         0.25993E+04         0.00000E+00
    0.25993E+04        -0.25951E+04         0.00000E+00
    0.00000E+00         0.00000E+00        -0.23073E+04
 
   -0.54686E+04         0.30794E+04         0.00000E+00
    0.30794E+04        -0.33212E+04         0.00000E+00
    0.00000E+00         0.00000E+00        -0.26369E+04
 
   -0.56629E+04         0.34682E+04         0.00000E+00
    0.34682E+04        -0.40537E+04         0.00000E+00
    0.00000E+00         0.00000E+00        -0.29150E+04
 
   -0.57243E+04         0.37633E+04         0.00000E+00
    0.37633E+04        -0.47657E+04         0.00000E+00
    0.00000E+00         0.00000E+00        -0.31470E+04
 
   -0.56928E+04         0.39711E+04         0.00000E+00
    0.39711E+04        -0.54368E+04         0.00000E+00
    0.00000E+00         0.00000E+00        -0.33389E+04
 
   -0.56010E+04         0.41036E+04         0.00000E+00
    0.41036E+04        -0.60532E+04         0.00000E+00
    0.00000E+00         0.00000E+00        -0.34963E+04
 
   -0.54746E+04         0.41757E+04         0.00000E+00
    0.41757E+04        -0.66065E+04         0.00000E+00
    0.00000E+00         0.00000E+00        -0.36243E+04
 
   -0.53323E+04         0.42034E+04         0.00000E+00
    0.42034E+04        -0.70932E+04         0.00000E+00
    0.00000E+00         0.00000E+00        -0.37276E+04
 
   -0.51869E+04         0.42031E+04         0.00000E+00
    0.42031E+04        -0.75131E+04         0.00000E+00
    0.00000E+00         0.00000E+00        -0.38100E+04
 
   -0.50465E+04         0.41905E+04         0.00000E+00
    0.41905E+04        -0.78688E+04         0.00000E+00
    0.00000E+00         0.00000E+00        -0.38746E+04
 
   -0.49143E+04         0.41807E+04         0.00000E+00
    0.41807E+04        -0.81647E+04         0.00000E+00
    0.00000E+00         0.00000E+00        -0.39237E+04
 
   -0.47903E+04         0.41880E+04         0.00000E+00
    0.41880E+04        -0.84066E+04         0.00000E+00
    0.00000E+00         0.00000E+00        -0.39591E+04
 
   -0.46707E+04         0.42261E+04         0.00000E+00
    0.42261E+04        -0.86017E+04         0.00000E+00
    0.00000E+00         0.00000E+00        -0.39817E+04
 
   -0.45486E+04         0.43085E+04         0.00000E+00
    0.43085E+04        -0.87581E+04         0.00000E+00
    0.00000E+00         0.00000E+00        -0.39920E+04
 
   -0.44132E+04         0.44484E+04         0.00000E+00
    0.44484E+04        -0.88852E+04         0.00000E+00
    0.00000E+00         0.00000E+00        -0.39895E+04
 
   -0.42503E+04         0.46588E+04         0.00000E+00
    0.46588E+04        -0.89942E+04         0.00000E+00
    0.00000E+00         0.00000E+00        -0.39734E+04
 
   -0.40408E+04         0.49529E+04         0.00000E+00
    0.49529E+04        -0.90981E+04         0.00000E+00
    0.00000E+00         0.00000E+00        -0.39417E+04
 
    0.48721E+04        -0.17668E+03         0.00000E+00
   -0.17668E+03        -0.15516E+01         0.00000E+00
    0.00000E+00         0.00000E+00         0.14612E+04
 
    0.29174E+04        -0.32847E+03         0.00000E+00
   -0.32847E+03        -0.27430E+02         0.00000E+00
    0.00000E+00         0.00000E+00         0.86698E+03
 
    0.10913E+04        -0.24271E+03         0.00000E+00
   -0.24271E+03        -0.11691E+03         0.00000E+00
    0.00000E+00         0.00000E+00         0.29232E+03
 
   -0.53974E+03         0.34477E+02         0.00000E+00
    0.34477E+02        -0.29946E+03         0.00000E+00
    0.00000E+00         0.00000E+00        -0.25176E+03
 
   -0.19323E+04         0.44692E+03         0.00000E+00
    0.44692E+03        -0.58957E+03         0.00000E+00
    0.00000E+00         0.00000E+00        -0.75657E+03
 
   -0.30676E+04         0.93684E+03         0.00000E+00
    0.93684E+03        -0.98645E+03         0.00000E+00
    0.00000E+00         0.00000E+00        -0.12162E+04
 
   -0.39488E+04         0.14520E+04         0.00000E+00
    0.14520E+04        -0.14765E+04         0.00000E+00
    0.00000E+00         0.00000E+00        -0.16276E+04
 
   -0.45958E+04         0.19506E+04         0.00000E+00
    0.19506E+04        -0.20378E+04         0.00000E+00
    0.00000E+00         0.00000E+00        -0.19901E+04
 
   -0.50392E+04         0.24029E+04         0.00000E+00
    0.24029E+04        -0.26445E+04         0.00000E+00
    0.00000E+00         0.00000E+00        -0.23051E+04
 
   -0.53145E+04         0.27914E+04         0.00000E+00
    0.27914E+04        -0.32706E+04         0.00000E+00
    0.00000E+00         0.00000E+00        -0.25755E+04
 
   -0.54572E+04         0.31087E+04         0.00000E+00
    0.31087E+04        -0.38930E+04         0.00000E+00
    0.00000E+00         0.00000E+00        -0.28051E+04
 
   -0.55004E+04         0.33558E+04         0.00000E+00
    0.33558E+04        -0.44927E+04         0.00000E+00
    0.00000E+00         0.00000E+00        -0.29979E+04
 
   -0.54723E+04         0.35391E+04         0.00000E+00
    0.35391E+04        -0.50555E+04         0.00000E+00
    0.00000E+00         0.00000E+00        -0.31583E+04
 
   -0.53961E+04         0.36688E+04         0.00000E+00
    0.36688E+04        -0.55717E+04         0.00000E+00
    0.00000E+00         0.00000E+00        -0.32903E+04
 
   -0.52894E+04         0.37571E+04         0.00000E+00
    0.37571E+04        -0.60357E+04         0.00000E+00
    0.00000E+00         0.00000E+00        -0.33975E+04
 
   -0.51650E+04         0.38171E+04         0.00000E+00
    0.38171E+04        -0.64452E+04         0.00000E+00
    0.00000E+00         0.00000E+00        -0.34831E+04
 
   -0.50310E+04         0.38623E+04         0.00000E+00
    0.38623E+04        -0.68006E+04         0.00000E+00
    0.00000E+00         0.00000E+00        -0.35495E+04
 
   -0.48915E+04         0.39060E+04         0.00000E+00
    0.39060E+04        -0.71044E+04         0.00000E+00
    0.00000E+00         0.00000E+00        -0.35988E+04
 
   -0.47468E+04         0.39609E+04         0.00000E+00
    0.39609E+04        -0.73610E+04         0.00000E+00
    0.00000E+00         0.00000E+00        -0.36323E+04
 
   -0.45935E+04         0.40397E+04         0.00000E+00
    0.40397E+04        -0.75763E+04         0.00000E+00
    0.00000E+00         0.00000E+00        -0.36510E+04
 
   -0.44251E+04         0.41542E+04         0.00000E+00
    0.41542E+04        -0.77576E+04         0.00000E+00
    0.00000E+00         0.00000E+00        -0.36548E+04
 
   -0.42312E+04         0.43163E+04         0.00000E+00
    0.43163E+04        -0.79137E+04         0.00000E+00
    0.00000E+00         0.00000E+00        -0.36435E+04
 
   -0.39976E+04         0.45371E+04         0.00000E+00
    0.45371E+04        -0.80552E+04         0.00000E+00
    0.00000E+00         0.00000E+00        -0.36159E+04
 
   -0.37057E+04         0.48274E+04         0.00000E+00
    0.48274E+04        -0.81949E+04         0.00000E+00
    0.00000E+00         0.00000E+00        -0.35702E+04
 
    0.45794E+04        -0.18096E+03         0.00000E+00
   -0.18096E+03        -0.63613E+00         0.00000E+00
    0.00000E+00         0.00000E+00         0.13736E+04
 
    0.28602E+04        -0.37088E+03         0.00000E+00
   -0.37088E+03        -0.17915E+02         0.00000E+00
    0.00000E+00         0.00000E+00         0.85270E+03
 
    0.12365E+04        -0.35554E+03         0.00000E+00
   -0.35554E+03        -0.82386E+02         0.00000E+00
    0.00000E+00         0.00000E+00         0.34625E+03
 
   -0.23766E+03        -0.16968E+03         0.00000E+00
   -0.16968E+03        -0.21847E+03         0.00000E+00
    0.00000E+00         0.00000E+00        -0.13684E+03
 
   -0.15245E+04         0.14390E+03         0.00000E+00
    0.14390E+03        -0.43999E+03         0.00000E+00
    0.00000E+00         0.00000E+00        -0.58934E+03
 
   -0.26038E+04         0.54001E+03         0.00000E+00
    0.54001E+03        -0.74952E+03         0.00000E+00
    0.00000E+00         0.00000E+00        -0.10060E+04
 
   -0.34725E+04         0.97622E+03         0.00000E+00
    0.97622E+03        -0.11397E+04         0.00000E+00
    0.00000E+00         0.00000E+00        -0.13837E+04
 
   -0.41408E+04         0.14166E+04         0.00000E+00
    0.14166E+04        -0.15957E+04         0.00000E+00
    0.00000E+00         0.00000E+00        -0.17210E+04
 
   -0.46288E+04         0.18339E+04         0.00000E+00
    0.18339E+04        -0.20987E+04         0.00000E+00
    0.00000E+00         0.00000E+00        -0.20183E+04
 
   -0.49617E+04         0.22098E+04         0.00000E+00
    0.22098E+04        -0.26285E+04         0.00000E+00
    0.00000E+00         0.00000E+00        -0.22771E+04
 
   -0.51669E+04         0.25343E+04         0.00000E+00
    0.25343E+04        -0.31658E+04         0.00000E+00
    0.00000E+00         0.00000E+00        -0.24998E+04
 
   -0.52706E+04         0.28046E+04         0.00000E+00
    0.28046E+04        -0.36938E+04         0.00000E+00
    0.00000E+00         0.00000E+00        -0.26893E+04
 
   -0.52966E+04         0.30230E+04         0.00000E+00
    0.30230E+04        -0.41990E+04         0.00000E+00
    0.00000E+00         0.00000E+00        -0.28487E+04
 
   -0.52650E+04         0.31958E+04         0.00000E+00
    0.31958E+04        -0.46715E+04         0.00000E+00
    0.00000E+00         0.00000E+00        -0.29809E+04
 
   -0.51918E+04         0.33318E+04         0.00000E+00
    0.33318E+04        -0.51045E+04         0.00000E+00
    0.00000E+00         0.00000E+00        -0.30889E+04
 
   -0.50888E+04         0.34411E+04         0.00000E+00
    0.34411E+04        -0.54945E+04         0.00000E+00
    0.00000E+00         0.00000E+00        -0.31750E+04
 
   -0.49640E+04         0.35349E+04         0.00000E+00
    0.35349E+04        -0.58402E+04         0.00000E+00
    0.00000E+00         0.00000E+00        -0.32413E+04
 
   -0.48215E+04         0.36243E+04         0.00000E+00
    0.36243E+04        -0.61430E+04         0.00000E+00
    0.00000E+00         0.00000E+00        -0.32893E+04
 
   -0.46618E+04         0.37205E+04         0.00000E+00
    0.37205E+04        -0.64058E+04         0.00000E+00
    0.00000E+00         0.00000E+00        -0.33203E+04
 
   -0.44822E+04         0.38345E+04         0.00000E+00
    0.38345E+04        -0.66334E+04         0.00000E+00
    0.00000E+00         0.00000E+00        -0.33347E+04
 
   -0.42763E+04         0.39766E+04         0.00000E+00
    0.39766E+04        -0.68322E+04         0.00000E+00
    0.00000E+00         0.00000E+00        -0.33326E+04
 
   -0.40344E+04         0.41569E+04         0.00000E+00
    0.41569E+04        -0.70103E+04         0.00000E+00
    0.00000E+00         0.00000E+00        -0.33134E+04
 
   -0.37428E+04         0.43847E+04         0.00000E+00
    0.43847E+04        -0.71775E+04         0.00000E+00
    0.00000E+00         0.00000E+00        -0.32761E+04
 
   -0.33839E+04         0.46684E+04         0.00000E+00
    0.46684E+04        -0.73459E+04         0.00000E+00
    0.00000E+00         0.00000E+00        -0.32189E+04
 
    0.42713E+04        -0.18275E+03         0.00000E+00
   -0.18275E+03         0.14148E+00         0.00000E+00
    0.00000E+00         0.00000E+00         0.12814E+04
 
    0.27552E+04        -0.39971E+03         0.00000E+00
   -0.39971E+03        -0.10335E+02         0.00000E+00
    0.00000E+00         0.00000E+00         0.82345E+03
 
    0.13092E+04        -0.43760E+03         0.00000E+00
   -0.43760E+03        -0.55472E+02         0.00000E+00
    0.00000E+00         0.00000E+00         0.37611E+03
 
   -0.22012E+02        -0.32311E+03         0.00000E+00
   -0.32311E+03        -0.15570E+03         0.00000E+00
    0.00000E+00         0.00000E+00        -0.53314E+02
 
   -0.12054E+04        -0.89323E+02         0.00000E+00
   -0.89323E+02        -0.32379E+03         0.00000E+00
    0.00000E+00         0.00000E+00        -0.45876E+03
 
   -0.22212E+04         0.22808E+03         0.00000E+00
    0.22808E+03        -0.56412E+03         0.00000E+00
    0.00000E+00         0.00000E+00        -0.83558E+03
 
   -0.30623E+04         0.59459E+03         0.00000E+00
    0.59459E+03        -0.87330E+03         0.00000E+00
    0.00000E+00         0.00000E+00        -0.11807E+04
 
   -0.37327E+04         0.97979E+03         0.00000E+00
    0.97979E+03        -0.12418E+04         0.00000E+00
    0.00000E+00         0.00000E+00        -0.14923E+04
 
   -0.42448E+04         0.13592E+04         0.00000E+00
    0.13592E+04        -0.16559E+04         0.00000E+00
    0.00000E+00         0.00000E+00        -0.17702E+04
 
   -0.46161E+04         0.17152E+04         0.00000E+00
    0.17152E+04        -0.21003E+04         0.00000E+00
    0.00000E+00         0.00000E+00        -0.20149E+04
 
   -0.48668E+04         0.20364E+04         0.00000E+00
    0.20364E+04        -0.25592E+04         0.00000E+00
    0.00000E+00         0.00000E+00        -0.22278E+04
 
   -0.50176E+04         0.23178E+04         0.00000E+00
    0.23178E+04        -0.30184E+04         0.00000E+00
    0.00000E+00         0.00000E+00        -0.24108E+04
 
   -0.50878E+04         0.25586E+04         0.00000E+00
    0.25586E+04        -0.34657E+04         0.00000E+00
    0.00000E+00         0.00000E+00        -0.25660E+04
 
   -0.50942E+04         0.27623E+04         0.00000E+00
    0.27623E+04        -0.38915E+04         0.00000E+00
    0.00000E+00         0.00000E+00        -0.26957E+04
 
   -0.50508E+04         0.29345E+04         0.00000E+00
    0.29345E+04        -0.42889E+04         0.00000E+00
    0.00000E+00         0.00000E+00        -0.28019E+04
 
   -0.49683E+04         0.30829E+04         0.00000E+00
    0.30829E+04        -0.46534E+04         0.00000E+00
    0.00000E+00         0.00000E+00        -0.28865E+04
 
   -0.48538E+04         0.32162E+04         0.00000E+00
    0.32162E+04        -0.49831E+04         0.00000E+00
    0.00000E+00         0.00000E+00        -0.29511E+04
 
   -0.47113E+04         0.33435E+04         0.00000E+00
    0.33435E+04        -0.52781E+04         0.00000E+00
    0.00000E+00         0.00000E+00        -0.29968E+04
 
   -0.45416E+04         0.34742E+04         0.00000E+00
    0.34742E+04        -0.55404E+04         0.00000E+00
    0.00000E+00         0.00000E+00        -0.30246E+04
 
   -0.43420E+04         0.36176E+04         0.00000E+00
    0.36176E+04        -0.57738E+04         0.00000E+00
    0.00000E+00         0.00000E+00        -0.30347E+04
 
   -0.41067E+04         0.37823E+04         0.00000E+00
    0.37823E+04        -0.59838E+04         0.00000E+00
    0.00000E+00         0.00000E+00        -0.30271E+04
 
   -0.38266E+04         0.39767E+04         0.00000E+00
    0.39767E+04        -0.61775E+04         0.00000E+00
    0.00000E+00         0.00000E+00        -0.30012E+04
 
   -0.34891E+04         0.42082E+04         0.00000E+00
    0.42082E+04        -0.63642E+04         0.00000E+00
    0.00000E+00         0.00000E+00        -0.29560E+04
 
   -0.30776E+04         0.44828E+04         0.00000E+00
    0.44828E+04        -0.65547E+04         0.00000E+00
    0.00000E+00         0.00000E+00        -0.28897E+04
 
    0.39544E+04        -0.18246E+03         0.00000E+00
   -0.18246E+03         0.80479E+00         0.00000E+00
    0.00000E+00         0.00000E+00         0.11866E+04
 
    0.26149E+04        -0.41783E+03         0.00000E+00
   -0.41783E+03        -0.41974E+01         0.00000E+00
    0.00000E+00         0.00000E+00         0.78322E+03
 
    0.13260E+04        -0.49573E+03         0.00000E+00
   -0.49573E+03        -0.34114E+02         0.00000E+00
    0.00000E+00         0.00000E+00         0.38757E+03
 
    0.12502E+03        -0.43697E+03         0.00000E+00
   -0.43697E+03        -0.10623E+03         0.00000E+00
    0.00000E+00         0.00000E+00         0.56367E+01
 
   -0.95923E+03        -0.26749E+03         0.00000E+00
   -0.26749E+03        -0.23215E+03         0.00000E+00
    0.00000E+00         0.00000E+00        -0.35742E+03
 
   -0.19078E+04        -0.15700E+02         0.00000E+00
   -0.15700E+02        -0.41717E+03         0.00000E+00
    0.00000E+00         0.00000E+00        -0.69749E+03
 
   -0.27116E+04         0.29026E+03         0.00000E+00
    0.29026E+03        -0.66047E+03         0.00000E+00
    0.00000E+00         0.00000E+00        -0.10116E+04
 
   -0.33703E+04         0.62478E+03         0.00000E+00
    0.62478E+03        -0.95616E+03         0.00000E+00
    0.00000E+00         0.00000E+00        -0.12979E+04
 
   -0.38908E+04         0.96633E+03         0.00000E+00
    0.96633E+03        -0.12947E+04         0.00000E+00
    0.00000E+00         0.00000E+00        -0.15556E+04
 
   -0.42847E+04         0.12984E+04         0.00000E+00
    0.12984E+04        -0.16643E+04         0.00000E+00
    0.00000E+00         0.00000E+00        -0.17847E+04
 
   -0.45667E+04         0.16095E+04         0.00000E+00
    0.16095E+04        -0.20527E+04         0.00000E+00
    0.00000E+00         0.00000E+00        -0.19858E+04
 
   -0.47524E+04         0.18930E+04         0.00000E+00
    0.18930E+04        -0.24479E+04         0.00000E+00
    0.00000E+00         0.00000E+00        -0.21601E+04
 
   -0.48571E+04         0.21465E+04         0.00000E+00
    0.21465E+04        -0.28393E+04         0.00000E+00
    0.00000E+00         0.00000E+00        -0.23089E+04
 
   -0.48947E+04         0.23707E+04         0.00000E+00
    0.23707E+04        -0.32182E+04         0.00000E+00
    0.00000E+00         0.00000E+00        -0.24339E+04
 
   -0.48768E+04         0.25693E+04         0.00000E+00
    0.25693E+04        -0.35779E+04         0.00000E+00
    0.00000E+00         0.00000E+00        -0.25364E+04
 
   -0.48127E+04         0.27475E+04         0.00000E+00
    0.27475E+04        -0.39137E+04         0.00000E+00
    0.00000E+00         0.00000E+00        -0.26179E+04
 
   -0.47087E+04         0.29117E+04         0.00000E+00
    0.29117E+04        -0.42231E+04         0.00000E+00
    0.00000E+00         0.00000E+00        -0.26795E+04
 
   -0.45684E+04         0.30694E+04         0.00000E+00
    0.30694E+04        -0.45055E+04         0.00000E+00
    0.00000E+00         0.00000E+00        -0.27222E+04
 
   -0.43924E+04         0.32279E+04         0.00000E+00
    0.32279E+04        -0.47622E+04         0.00000E+00
    0.00000E+00         0.00000E+00        -0.27464E+04
 
   -0.41782E+04         0.33948E+04         0.00000E+00
    0.33948E+04        -0.49961E+04         0.00000E+00
    0.00000E+00         0.00000E+00        -0.27523E+04
 
   -0.39208E+04         0.35772E+04         0.00000E+00
    0.35772E+04        -0.52119E+04         0.00000E+00
    0.00000E+00         0.00000E+00        -0.27398E+04
 
   -0.36116E+04         0.37817E+04         0.00000E+00
    0.37817E+04        -0.54160E+04         0.00000E+00
    0.00000E+00         0.00000E+00        -0.27083E+04
 
   -0.32390E+04         0.40136E+04         0.00000E+00
    0.40136E+04        -0.56164E+04         0.00000E+00
    0.00000E+00         0.00000E+00        -0.26566E+04
 
   -0.27882E+04         0.42772E+04         0.00000E+00
    0.42772E+04        -0.58231E+04         0.00000E+00
    0.00000E+00         0.00000E+00        -0.25834E+04
 
    0.36337E+04        -0.18041E+03         0.00000E+00
   -0.18041E+03         0.13691E+01         0.00000E+00
    0.00000E+00         0.00000E+00         0.10905E+04
 
    0.24494E+04        -0.42739E+03         0.00000E+00
   -0.42739E+03         0.81650E+00         0.00000E+00
    0.00000E+00         0.00000E+00         0.73506E+03
 
    0.13001E+04        -0.53497E+03         0.00000E+00
   -0.53497E+03        -0.16960E+02         0.00000E+00
    0.00000E+00         0.00000E+00         0.38495E+03
 
    0.21766E+03        -0.51957E+03         0.00000E+00
   -0.51957E+03        -0.66745E+02         0.00000E+00
    0.00000E+00         0.00000E+00         0.45275E+02
 
   -0.77268E+03        -0.40179E+03         0.00000E+00
   -0.40179E+03        -0.15905E+03         0.00000E+00
    0.00000E+00         0.00000E+00        -0.27952E+03
 
   -0.16531E+04        -0.20442E+03         0.00000E+00
   -0.20442E+03        -0.29952E+03         0.00000E+00
    0.00000E+00         0.00000E+00        -0.58579E+03
 
   -0.24135E+04         0.49506E+02         0.00000E+00
    0.49506E+02        -0.48902E+03         0.00000E+00
    0.00000E+00         0.00000E+00        -0.87076E+03
 
   -0.30508E+04         0.33846E+03         0.00000E+00
    0.33846E+03        -0.72424E+03         0.00000E+00
    0.00000E+00         0.00000E+00        -0.11325E+04
 
   -0.35679E+04         0.64372E+03         0.00000E+00
    0.64372E+03        -0.99862E+03         0.00000E+00
    0.00000E+00         0.00000E+00        -0.13699E+04
 
   -0.39719E+04         0.95022E+03         0.00000E+00
    0.95022E+03        -0.13035E+04         0.00000E+00
    0.00000E+00         0.00000E+00        -0.15826E+04
 
   -0.42732E+04         0.12468E+04         0.00000E+00
    0.12468E+04        -0.16293E+04         0.00000E+00
    0.00000E+00         0.00000E+00        -0.17707E+04
 
   -0.44832E+04         0.15262E+04         0.00000E+00
    0.15262E+04        -0.19662E+04         0.00000E+00
    0.00000E+00         0.00000E+00        -0.19348E+04
 
   -0.46136E+04         0.17847E+04         0.00000E+00
    0.17847E+04        -0.23054E+04         0.00000E+00
    0.00000E+00         0.00000E+00        -0.20757E+04
 
   -0.46756E+04         0.20213E+04         0.00000E+00
    0.20213E+04        -0.26390E+04         0.00000E+00
    0.00000E+00         0.00000E+00        -0.21944E+04
 
   -0.46787E+04         0.22379E+04         0.00000E+00
    0.22379E+04        -0.29608E+04         0.00000E+00
    0.00000E+00         0.00000E+00        -0.22919E+04
 
   -0.46305E+04         0.24376E+04         0.00000E+00
    0.24376E+04        -0.32664E+04         0.00000E+00
    0.00000E+00         0.00000E+00        -0.23691E+04
 
   -0.45365E+04         0.26252E+04         0.00000E+00
    0.26252E+04        -0.35531E+04         0.00000E+00
    0.00000E+00         0.00000E+00        -0.24269E+04
 
   -0.43996E+04         0.28061E+04         0.00000E+00
    0.28061E+04        -0.38198E+04         0.00000E+00
    0.00000E+00         0.00000E+00        -0.24658E+04
 
   -0.42202E+04         0.29861E+04         0.00000E+00
    0.29861E+04        -0.40672E+04         0.00000E+00
    0.00000E+00         0.00000E+00        -0.24862E+04
 
   -0.39963E+04         0.31710E+04         0.00000E+00
    0.31710E+04        -0.42975E+04         0.00000E+00
    0.00000E+00         0.00000E+00        -0.24882E+04
 
   -0.37230E+04         0.33663E+04         0.00000E+00
    0.33663E+04        -0.45149E+04         0.00000E+00
    0.00000E+00         0.00000E+00        -0.24714E+04
 
   -0.33927E+04         0.35769E+04         0.00000E+00
    0.35769E+04        -0.47246E+04         0.00000E+00
    0.00000E+00         0.00000E+00        -0.24352E+04
 
   -0.29951E+04         0.38065E+04         0.00000E+00
    0.38065E+04        -0.49338E+04         0.00000E+00
    0.00000E+00         0.00000E+00        -0.23787E+04
 
   -0.25169E+04         0.40576E+04         0.00000E+00
    0.40576E+04        -0.51514E+04         0.00000E+00
    0.00000E+00         0.00000E+00        -0.23005E+04
 
    0.33135E+04        -0.17690E+03         0.00000E+00
   -0.17690E+03         0.18453E+01         0.00000E+00
    0.00000E+00         0.00000E+00         0.99460E+03
 
    0.22663E+04        -0.43004E+03         0.00000E+00
   -0.43004E+03         0.49241E+01         0.00000E+00
    0.00000E+00         0.00000E+00         0.68137E+03
 
    0.12418E+04        -0.55911E+03         0.00000E+00
   -0.55911E+03        -0.30894E+01         0.00000E+00
    0.00000E+00         0.00000E+00         0.37162E+03
 
    0.26735E+03        -0.57722E+03         0.00000E+00
   -0.57722E+03        -0.34987E+02         0.00000E+00
    0.00000E+00         0.00000E+00         0.69708E+02
 
   -0.63472E+03        -0.50085E+03         0.00000E+00
   -0.50085E+03        -0.10027E+03         0.00000E+00
    0.00000E+00         0.00000E+00        -0.22049E+03
 
   -0.14478E+04        -0.34842E+03         0.00000E+00
   -0.34842E+03        -0.20465E+03         0.00000E+00
    0.00000E+00         0.00000E+00        -0.49574E+03
 
   -0.21614E+04        -0.13888E+03         0.00000E+00
   -0.13888E+03        -0.35008E+03         0.00000E+00
    0.00000E+00         0.00000E+00        -0.75344E+03
 
   -0.27706E+04         0.10970E+03         0.00000E+00
    0.10970E+03        -0.53505E+03         0.00000E+00
    0.00000E+00         0.00000E+00        -0.99169E+03
 
   -0.32755E+04         0.38113E+03         0.00000E+00
    0.38113E+03        -0.75526E+03         0.00000E+00
    0.00000E+00         0.00000E+00        -0.12092E+04
 
   -0.36800E+04         0.66190E+03         0.00000E+00
    0.66190E+03        -0.10045E+04         0.00000E+00
    0.00000E+00         0.00000E+00        -0.14053E+04
 
   -0.39907E+04         0.94147E+03         0.00000E+00
    0.94147E+03        -0.12753E+04         0.00000E+00
    0.00000E+00         0.00000E+00        -0.15798E+04
 
   -0.42160E+04         0.12124E+04         0.00000E+00
    0.12124E+04        -0.15600E+04         0.00000E+00
    0.00000E+00         0.00000E+00        -0.17328E+04
 
   -0.43644E+04         0.14702E+04         0.00000E+00
    0.14702E+04        -0.18512E+04         0.00000E+00
    0.00000E+00         0.00000E+00        -0.18647E+04
 
   -0.44447E+04         0.17127E+04         0.00000E+00
    0.17127E+04        -0.21422E+04         0.00000E+00
    0.00000E+00         0.00000E+00        -0.19761E+04
 
   -0.44642E+04         0.19403E+04         0.00000E+00
    0.19403E+04        -0.24275E+04         0.00000E+00
    0.00000E+00         0.00000E+00        -0.20675E+04
 
   -0.44293E+04         0.21546E+04         0.00000E+00
    0.21546E+04        -0.27029E+04         0.00000E+00
    0.00000E+00         0.00000E+00        -0.21396E+04
 
   -0.43441E+04         0.23587E+04         0.00000E+00
    0.23587E+04        -0.29657E+04         0.00000E+00
    0.00000E+00         0.00000E+00        -0.21930E+04
 
   -0.42113E+04         0.25564E+04         0.00000E+00
    0.25564E+04        -0.32148E+04         0.00000E+00
    0.00000E+00         0.00000E+00        -0.22278E+04
 
   -0.40310E+04         0.27520E+04         0.00000E+00
    0.27520E+04        -0.34504E+04         0.00000E+00
    0.00000E+00         0.00000E+00        -0.22444E+04
 
   -0.38011E+04         0.29497E+04         0.00000E+00
    0.29497E+04        -0.36742E+04         0.00000E+00
    0.00000E+00         0.00000E+00        -0.22426E+04
 
   -0.35175E+04         0.31535E+04         0.00000E+00
    0.31535E+04        -0.38895E+04         0.00000E+00
    0.00000E+00         0.00000E+00        -0.22221E+04
 
   -0.31733E+04         0.33667E+04         0.00000E+00
    0.33667E+04        -0.41011E+04         0.00000E+00
    0.00000E+00         0.00000E+00        -0.21823E+04
 
   -0.27594E+04         0.35916E+04         0.00000E+00
    0.35916E+04        -0.43150E+04         0.00000E+00
    0.00000E+00         0.00000E+00        -0.21223E+04
 
   -0.22642E+04         0.38289E+04         0.00000E+00
    0.38289E+04        -0.45388E+04         0.00000E+00
    0.00000E+00         0.00000E+00        -0.20409E+04
 
    0.29973E+04        -0.17217E+03         0.00000E+00
   -0.17217E+03         0.22415E+01         0.00000E+00
    0.00000E+00         0.00000E+00         0.89987E+03
 
    0.20719E+04        -0.42709E+03         0.00000E+00
   -0.42709E+03         0.82788E+01         0.00000E+00
    0.00000E+00         0.00000E+00         0.62406E+03
 
    0.11593E+04        -0.57112E+03         0.00000E+00
   -0.57112E+03         0.81422E+01         0.00000E+00
    0.00000E+00         0.00000E+00         0.35024E+03
 
    0.28331E+03        -0.61481E+03         0.00000E+00
   -0.61481E+03        -0.93509E+01         0.00000E+00
    0.00000E+00         0.00000E+00         0.82186E+02
 
   -0.53620E+03        -0.57142E+03         0.00000E+00
   -0.57142E+03        -0.52802E+02         0.00000E+00
    0.00000E+00         0.00000E+00        -0.17670E+03
 
   -0.12838E+04        -0.45597E+03         0.00000E+00
   -0.45597E+03        -0.12785E+03         0.00000E+00
    0.00000E+00         0.00000E+00        -0.42350E+03
 
   -0.19490E+04        -0.28405E+03         0.00000E+00
   -0.28405E+03        -0.23709E+03         0.00000E+00
    0.00000E+00         0.00000E+00        -0.65583E+03
 
   -0.25257E+04        -0.70892E+02         0.00000E+00
   -0.70892E+02        -0.38029E+03         0.00000E+00
    0.00000E+00         0.00000E+00        -0.87181E+03
 
   -0.30121E+04         0.16958E+03         0.00000E+00
    0.16958E+03        -0.55488E+03         0.00000E+00
    0.00000E+00         0.00000E+00        -0.10701E+04
 
   -0.34096E+04         0.42536E+03         0.00000E+00
    0.42536E+03        -0.75646E+03         0.00000E+00
    0.00000E+00         0.00000E+00        -0.12498E+04
 
   -0.37221E+04         0.68669E+03         0.00000E+00
    0.68669E+03        -0.97951E+03         0.00000E+00
    0.00000E+00         0.00000E+00        -0.14105E+04
 
   -0.39551E+04         0.94628E+03         0.00000E+00
    0.94628E+03        -0.12180E+04         0.00000E+00
    0.00000E+00         0.00000E+00        -0.15519E+04
 
   -0.41149E+04         0.11992E+04         0.00000E+00
    0.11992E+04        -0.14659E+04         0.00000E+00
    0.00000E+00         0.00000E+00        -0.16742E+04
 
   -0.42078E+04         0.14425E+04         0.00000E+00
    0.14425E+04        -0.17176E+04         0.00000E+00
    0.00000E+00         0.00000E+00        -0.17776E+04
 
   -0.42397E+04         0.16755E+04         0.00000E+00
    0.16755E+04        -0.19684E+04         0.00000E+00
    0.00000E+00         0.00000E+00        -0.18624E+04
 
   -0.42152E+04         0.18985E+04         0.00000E+00
    0.18985E+04        -0.22146E+04         0.00000E+00
    0.00000E+00         0.00000E+00        -0.19289E+04
 
   -0.41379E+04         0.21132E+04         0.00000E+00
    0.21132E+04        -0.24536E+04         0.00000E+00
    0.00000E+00         0.00000E+00        -0.19774E+04
 
   -0.40094E+04         0.23222E+04         0.00000E+00
    0.23222E+04        -0.26842E+04         0.00000E+00
    0.00000E+00         0.00000E+00        -0.20081E+04
 
   -0.38299E+04         0.25281E+04         0.00000E+00
    0.25281E+04        -0.29063E+04         0.00000E+00
    0.00000E+00         0.00000E+00        -0.20209E+04
 
   -0.35974E+04         0.27339E+04         0.00000E+00
    0.27339E+04        -0.31214E+04         0.00000E+00
    0.00000E+00         0.00000E+00        -0.20156E+04
 
   -0.33081E+04         0.29422E+04         0.00000E+00
    0.29422E+04        -0.33321E+04         0.00000E+00
    0.00000E+00         0.00000E+00        -0.19920E+04
 
   -0.29561E+04         0.31549E+04         0.00000E+00
    0.31549E+04        -0.35423E+04         0.00000E+00
    0.00000E+00         0.00000E+00        -0.19495E+04
 
   -0.25335E+04         0.33729E+04         0.00000E+00
    0.33729E+04        -0.37573E+04         0.00000E+00
    0.00000E+00         0.00000E+00        -0.18872E+04
 
   -0.20303E+04         0.35958E+04         0.00000E+00
    0.35958E+04        -0.39834E+04         0.00000E+00
    0.00000E+00         0.00000E+00        -0.18041E+04
 
    0.26880E+04        -0.16644E+03         0.00000E+00
   -0.16644E+03         0.25647E+01         0.00000E+00
    0.00000E+00         0.00000E+00         0.80716E+03
 
    0.18712E+04        -0.41960E+03         0.00000E+00
   -0.41960E+03         0.10994E+02         0.00000E+00
    0.00000E+00         0.00000E+00         0.56465E+03
 
    0.10592E+04        -0.57336E+03         0.00000E+00
   -0.57336E+03         0.17205E+02         0.00000E+00
    0.00000E+00         0.00000E+00         0.32293E+03
 
    0.27303E+03        -0.63621E+03         0.00000E+00
   -0.63621E+03         0.11327E+02         0.00000E+00
    0.00000E+00         0.00000E+00         0.85308E+02
 
   -0.46955E+03        -0.61891E+03         0.00000E+00
   -0.61891E+03        -0.14456E+02         0.00000E+00
    0.00000E+00         0.00000E+00        -0.14520E+03
 
   -0.11543E+04        -0.53371E+03         0.00000E+00
   -0.53371E+03        -0.65595E+02         0.00000E+00
    0.00000E+00         0.00000E+00        -0.36596E+03
 
   -0.17708E+04        -0.39355E+03         0.00000E+00
   -0.39355E+03        -0.14509E+03         0.00000E+00
    0.00000E+00         0.00000E+00        -0.57476E+03
 
   -0.23124E+04        -0.21123E+03         0.00000E+00
   -0.21123E+03        -0.25363E+03         0.00000E+00
    0.00000E+00         0.00000E+00        -0.76980E+03
 
   -0.27758E+04         0.12645E+01         0.00000E+00
    0.12645E+01        -0.38988E+03         0.00000E+00
    0.00000E+00         0.00000E+00        -0.94970E+03
 
   -0.31607E+04         0.23333E+03         0.00000E+00
    0.23333E+03        -0.55091E+03         0.00000E+00
    0.00000E+00         0.00000E+00        -0.11135E+04
 
   -0.34688E+04         0.47609E+03         0.00000E+00
    0.47609E+03        -0.73271E+03         0.00000E+00
    0.00000E+00         0.00000E+00        -0.12604E+04
 
   -0.37035E+04         0.72252E+03         0.00000E+00
    0.72252E+03        -0.93065E+03         0.00000E+00
    0.00000E+00         0.00000E+00        -0.13903E+04
 
   -0.38691E+04         0.96753E+03         0.00000E+00
    0.96753E+03        -0.11400E+04         0.00000E+00
    0.00000E+00         0.00000E+00        -0.15027E+04
 
   -0.39700E+04         0.12078E+04         0.00000E+00
    0.12078E+04        -0.13561E+04         0.00000E+00
    0.00000E+00         0.00000E+00        -0.15978E+04
 
   -0.40104E+04         0.14416E+04         0.00000E+00
    0.14416E+04        -0.15750E+04         0.00000E+00
    0.00000E+00         0.00000E+00        -0.16756E+04
 
   -0.39939E+04         0.16684E+04         0.00000E+00
    0.16684E+04        -0.17935E+04         0.00000E+00
    0.00000E+00         0.00000E+00        -0.17362E+04
 
   -0.39230E+04         0.18888E+04         0.00000E+00
    0.18888E+04        -0.20094E+04         0.00000E+00
    0.00000E+00         0.00000E+00        -0.17797E+04
 
   -0.37989E+04         0.21041E+04         0.00000E+00
    0.21041E+04        -0.22213E+04         0.00000E+00
    0.00000E+00         0.00000E+00        -0.18061E+04
 
   -0.36216E+04         0.23158E+04         0.00000E+00
    0.23158E+04        -0.24292E+04         0.00000E+00
    0.00000E+00         0.00000E+00        -0.18152E+04
 
   -0.33891E+04         0.25256E+04         0.00000E+00
    0.25256E+04        -0.26341E+04         0.00000E+00
    0.00000E+00         0.00000E+00        -0.18069E+04
 
   -0.30981E+04         0.27349E+04         0.00000E+00
    0.27349E+04        -0.28381E+04         0.00000E+00
    0.00000E+00         0.00000E+00        -0.17808E+04
 
   -0.27435E+04         0.29444E+04         0.00000E+00
    0.29444E+04        -0.30445E+04         0.00000E+00
    0.00000E+00         0.00000E+00        -0.17364E+04
 
   -0.23186E+04         0.31539E+04         0.00000E+00
    0.31539E+04        -0.32576E+04         0.00000E+00
    0.00000E+00         0.00000E+00        -0.16729E+04
 
   -0.18150E+04         0.33619E+04         0.00000E+00
    0.33619E+04        -0.34827E+04         0.00000E+00
    0.00000E+00         0.00000E+00        -0.15893E+04
 
    0.23877E+04        -0.15989E+03         0.00000E+00
   -0.15989E+03         0.28210E+01         0.00000E+00
    0.00000E+00         0.00000E+00         0.71716E+03
 
    0.16681E+04        -0.40846E+03         0.00000E+00
   -0.40846E+03         0.13158E+02         0.00000E+00
    0.00000E+00         0.00000E+00         0.50437E+03
 
    0.94685E+03        -0.56773E+03         0.00000E+00
   -0.56773E+03         0.24453E+02         0.00000E+00
    0.00000E+00         0.00000E+00         0.29139E+03
 
    0.24264E+03        -0.64455E+03         0.00000E+00
   -0.64455E+03         0.27920E+02         0.00000E+00
    0.00000E+00         0.00000E+00         0.81167E+02
 
   -0.42847E+03        -0.64765E+03         0.00000E+00
   -0.64765E+03         0.16430E+02         0.00000E+00
    0.00000E+00         0.00000E+00        -0.12361E+03
 
   -0.10533E+04        -0.58708E+03         0.00000E+00
   -0.58708E+03        -0.15238E+02         0.00000E+00
    0.00000E+00         0.00000E+00        -0.32056E+03
 
   -0.16218E+04        -0.47360E+03         0.00000E+00
   -0.47360E+03        -0.70316E+02         0.00000E+00
    0.00000E+00         0.00000E+00        -0.50763E+03
 
   -0.21268E+04        -0.31800E+03         0.00000E+00
   -0.31800E+03        -0.15012E+03         0.00000E+00
    0.00000E+00         0.00000E+00        -0.68309E+03
 
   -0.25643E+04        -0.13057E+03         0.00000E+00
   -0.13057E+03        -0.25424E+03         0.00000E+00
    0.00000E+00         0.00000E+00        -0.84558E+03
 
   -0.29325E+04         0.79361E+02         0.00000E+00
    0.79361E+02        -0.38092E+03         0.00000E+00
    0.00000E+00         0.00000E+00        -0.99403E+03
 
   -0.32316E+04         0.30376E+03         0.00000E+00
    0.30376E+03        -0.52732E+03         0.00000E+00
    0.00000E+00         0.00000E+00        -0.11277E+04
 
   -0.34632E+04         0.53602E+03         0.00000E+00
    0.53602E+03        -0.69001E+03         0.00000E+00
    0.00000E+00         0.00000E+00        -0.12460E+04
 
   -0.36300E+04         0.77108E+03         0.00000E+00
    0.77108E+03        -0.86529E+03         0.00000E+00
    0.00000E+00         0.00000E+00        -0.13486E+04
 
   -0.37348E+04         0.10053E+04         0.00000E+00
    0.10053E+04        -0.10495E+04         0.00000E+00
    0.00000E+00         0.00000E+00        -0.14353E+04
 
   -0.37806E+04         0.12364E+04         0.00000E+00
    0.12364E+04        -0.12394E+04         0.00000E+00
    0.00000E+00         0.00000E+00        -0.15060E+04
 
   -0.37698E+04         0.14630E+04         0.00000E+00
    0.14630E+04        -0.14323E+04         0.00000E+00
    0.00000E+00         0.00000E+00        -0.15606E+04
 
   -0.37041E+04         0.16850E+04         0.00000E+00
    0.16850E+04        -0.16261E+04         0.00000E+00
    0.00000E+00         0.00000E+00        -0.15991E+04
 
   -0.35844E+04         0.19025E+04         0.00000E+00
    0.19025E+04        -0.18198E+04         0.00000E+00
    0.00000E+00         0.00000E+00        -0.16212E+04
 
   -0.34101E+04         0.21161E+04         0.00000E+00
    0.21161E+04        -0.20131E+04         0.00000E+00
    0.00000E+00         0.00000E+00        -0.16270E+04
 
   -0.31798E+04         0.23264E+04         0.00000E+00
    0.23264E+04        -0.22069E+04         0.00000E+00
    0.00000E+00         0.00000E+00        -0.16160E+04
 
   -0.28904E+04         0.25337E+04         0.00000E+00
    0.25337E+04        -0.24027E+04         0.00000E+00
    0.00000E+00         0.00000E+00        -0.15879E+04
 
   -0.25376E+04         0.27378E+04         0.00000E+00
    0.27378E+04        -0.26033E+04         0.00000E+00
    0.00000E+00         0.00000E+00        -0.15423E+04
 
   -0.21157E+04         0.29375E+04         0.00000E+00
    0.29375E+04        -0.28123E+04         0.00000E+00
    0.00000E+00         0.00000E+00        -0.14784E+04
 
   -0.16180E+04         0.31304E+04         0.00000E+00
    0.31304E+04        -0.30338E+04         0.00000E+00
    0.00000E+00         0.00000E+00        -0.13955E+04
 
    0.20984E+04        -0.15272E+03         0.00000E+00
   -0.15272E+03         0.30163E+01         0.00000E+00
    0.00000E+00         0.00000E+00         0.63043E+03
 
    0.14658E+04        -0.39444E+03         0.00000E+00
   -0.39444E+03         0.14843E+02         0.00000E+00
    0.00000E+00         0.00000E+00         0.44419E+03
 
    0.82649E+03        -0.55582E+03         0.00000E+00
   -0.55582E+03         0.30164E+02         0.00000E+00
    0.00000E+00         0.00000E+00         0.25700E+03
 
    0.19711E+03        -0.64238E+03         0.00000E+00
   -0.64238E+03         0.41102E+02         0.00000E+00
    0.00000E+00         0.00000E+00         0.71464E+02
 
   -0.40776E+03        -0.66119E+03         0.00000E+00
   -0.66119E+03         0.41131E+02         0.00000E+00
    0.00000E+00         0.00000E+00        -0.10999E+03
 
   -0.97590E+03        -0.62055E+03         0.00000E+00
   -0.62055E+03         0.25281E+02         0.00000E+00
    0.00000E+00         0.00000E+00        -0.28518E+03
 
   -0.14976E+04        -0.52940E+03         0.00000E+00
   -0.52940E+03        -0.97911E+01         0.00000E+00
    0.00000E+00         0.00000E+00        -0.45222E+03
 
   -0.19658E+04        -0.39685E+03         0.00000E+00
   -0.39685E+03        -0.65834E+02         0.00000E+00
    0.00000E+00         0.00000E+00        -0.60948E+03
 
   -0.23755E+04        -0.23174E+03         0.00000E+00
   -0.23174E+03        -0.14315E+03         0.00000E+00
    0.00000E+00         0.00000E+00        -0.75560E+03
 
   -0.27241E+04        -0.42255E+02         0.00000E+00
   -0.42255E+02        -0.24084E+03         0.00000E+00
    0.00000E+00         0.00000E+00        -0.88949E+03
 
   -0.30107E+04         0.16437E+03         0.00000E+00
    0.16437E+03        -0.35704E+03         0.00000E+00
    0.00000E+00         0.00000E+00        -0.10103E+04
 
   -0.32355E+04         0.38201E+03         0.00000E+00
    0.38201E+03        -0.48931E+03         0.00000E+00
    0.00000E+00         0.00000E+00        -0.11174E+04
 
   -0.33998E+04         0.60572E+03         0.00000E+00
    0.60572E+03        -0.63484E+03         0.00000E+00
    0.00000E+00         0.00000E+00        -0.12104E+04
 
   -0.35052E+04         0.83172E+03         0.00000E+00
    0.83172E+03        -0.79080E+03         0.00000E+00
    0.00000E+00         0.00000E+00        -0.12888E+04
 
   -0.35536E+04         0.10573E+04         0.00000E+00
    0.10573E+04        -0.95458E+03         0.00000E+00
    0.00000E+00         0.00000E+00        -0.13525E+04
 
   -0.35465E+04         0.12807E+04         0.00000E+00
    0.12807E+04        -0.11239E+04         0.00000E+00
    0.00000E+00         0.00000E+00        -0.14011E+04
 
   -0.34850E+04         0.15008E+04         0.00000E+00
    0.15008E+04        -0.12972E+04         0.00000E+00
    0.00000E+00         0.00000E+00        -0.14347E+04
 
   -0.33693E+04         0.17171E+04         0.00000E+00
    0.17171E+04        -0.14734E+04         0.00000E+00
    0.00000E+00         0.00000E+00        -0.14528E+04
 
   -0.31990E+04         0.19293E+04         0.00000E+00
    0.19293E+04        -0.16523E+04         0.00000E+00
    0.00000E+00         0.00000E+00        -0.14554E+04
 
   -0.29726E+04         0.21371E+04         0.00000E+00
    0.21371E+04        -0.18345E+04         0.00000E+00
    0.00000E+00         0.00000E+00        -0.14421E+04
 
   -0.26874E+04         0.23400E+04         0.00000E+00
    0.23400E+04        -0.20212E+04         0.00000E+00
    0.00000E+00         0.00000E+00        -0.14126E+04
 
   -0.23399E+04         0.25368E+04         0.00000E+00
    0.25368E+04        -0.22146E+04         0.00000E+00
    0.00000E+00         0.00000E+00        -0.13663E+04
 
   -0.19254E+04         0.27258E+04         0.00000E+00
    0.27258E+04        -0.24174E+04         0.00000E+00
    0.00000E+00         0.00000E+00        -0.13029E+04
 
   -0.14386E+04         0.29037E+04         0.00000E+00
    0.29037E+04        -0.26332E+04         0.00000E+00
    0.00000E+00         0.00000E+00        -0.12216E+04
 
    0.18215E+04        -0.14507E+03         0.00000E+00
   -0.14507E+03         0.31565E+01         0.00000E+00
    0.00000E+00         0.00000E+00         0.54739E+03
 
    0.12669E+04        -0.37817E+03         0.00000E+00
   -0.37817E+03         0.16110E+02         0.00000E+00
    0.00000E+00         0.00000E+00         0.38491E+03
 
    0.70161E+03        -0.53895E+03         0.00000E+00
   -0.53895E+03         0.34563E+02         0.00000E+00
    0.00000E+00         0.00000E+00         0.22085E+03
 
    0.14053E+03        -0.63180E+03         0.00000E+00
   -0.63180E+03         0.51410E+02         0.00000E+00
    0.00000E+00         0.00000E+00         0.57582E+02
 
   -0.40307E+03        -0.66249E+03         0.00000E+00
   -0.66249E+03         0.60658E+02         0.00000E+00
    0.00000E+00         0.00000E+00        -0.10272E+03
 
   -0.91785E+03        -0.63783E+03         0.00000E+00
   -0.63783E+03         0.57592E+02         0.00000E+00
    0.00000E+00         0.00000E+00        -0.25808E+03
 
   -0.13946E+04        -0.56528E+03         0.00000E+00
   -0.56528E+03         0.38840E+02         0.00000E+00
    0.00000E+00         0.00000E+00        -0.40672E+03
 
   -0.18260E+04        -0.45255E+03         0.00000E+00
   -0.45255E+03         0.23566E+01         0.00000E+00
    0.00000E+00         0.00000E+00        -0.54710E+03
 
   -0.22071E+04        -0.30724E+03         0.00000E+00
   -0.30724E+03        -0.52678E+02         0.00000E+00
    0.00000E+00         0.00000E+00        -0.67793E+03
 
   -0.25343E+04        -0.13650E+03         0.00000E+00
   -0.13650E+03        -0.12603E+03         0.00000E+00
    0.00000E+00         0.00000E+00        -0.79811E+03
 
   -0.28059E+04         0.53171E+02         0.00000E+00
    0.53171E+02        -0.21663E+03         0.00000E+00
    0.00000E+00         0.00000E+00        -0.90675E+03
 
   -0.30210E+04         0.25612E+03         0.00000E+00
    0.25612E+03        -0.32280E+03         0.00000E+00
    0.00000E+00         0.00000E+00        -0.10032E+04
 
   -0.31800E+04         0.46762E+03         0.00000E+00
    0.46762E+03        -0.44252E+03         0.00000E+00
    0.00000E+00         0.00000E+00        -0.10868E+04
 
   -0.32834E+04         0.68385E+03         0.00000E+00
    0.68385E+03        -0.57366E+03         0.00000E+00
    0.00000E+00         0.00000E+00        -0.11571E+04
 
   -0.33322E+04         0.90185E+03         0.00000E+00
    0.90185E+03        -0.71417E+03         0.00000E+00
    0.00000E+00         0.00000E+00        -0.12139E+04
 
   -0.33271E+04         0.11194E+04         0.00000E+00
    0.11194E+04        -0.86227E+03         0.00000E+00
    0.00000E+00         0.00000E+00        -0.12568E+04
 
   -0.32687E+04         0.13350E+04         0.00000E+00
    0.13350E+04        -0.10166E+04         0.00000E+00
    0.00000E+00         0.00000E+00        -0.12856E+04
 
   -0.31569E+04         0.15473E+04         0.00000E+00
    0.15473E+04        -0.11763E+04         0.00000E+00
    0.00000E+00         0.00000E+00        -0.13000E+04
 
   -0.29910E+04         0.17554E+04         0.00000E+00
    0.17554E+04        -0.13412E+04         0.00000E+00
    0.00000E+00         0.00000E+00        -0.12997E+04
 
   -0.27698E+04         0.19583E+04         0.00000E+00
    0.19583E+04        -0.15116E+04         0.00000E+00
    0.00000E+00         0.00000E+00        -0.12844E+04
 
   -0.24910E+04         0.21548E+04         0.00000E+00
    0.21548E+04        -0.16885E+04         0.00000E+00
    0.00000E+00         0.00000E+00        -0.12538E+04
 
   -0.21516E+04         0.23430E+04         0.00000E+00
    0.23430E+04        -0.18737E+04         0.00000E+00
    0.00000E+00         0.00000E+00        -0.12076E+04
 
   -0.17480E+04         0.25206E+04         0.00000E+00
    0.25206E+04        -0.20691E+04         0.00000E+00
    0.00000E+00         0.00000E+00        -0.11451E+04
 
   -0.12760E+04         0.26839E+04         0.00000E+00
    0.26839E+04        -0.22775E+04         0.00000E+00
    0.00000E+00         0.00000E+00        -0.10661E+04
 
    0.15580E+04        -0.13709E+03         0.00000E+00
   -0.13709E+03         0.32472E+01         0.00000E+00
    0.00000E+00         0.00000E+00         0.46837E+03
 
    0.10735E+04        -0.36020E+03         0.00000E+00
   -0.36020E+03         0.17012E+02         0.00000E+00
    0.00000E+00         0.00000E+00         0.32714E+03
 
    0.57503E+03        -0.51821E+03         0.00000E+00
   -0.51821E+03         0.37838E+02         0.00000E+00
    0.00000E+00         0.00000E+00         0.18386E+03
 
    0.76234E+02        -0.61458E+03         0.00000E+00
   -0.61458E+03         0.59283E+02         0.00000E+00
    0.00000E+00         0.00000E+00         0.40655E+02
 
   -0.41082E+03        -0.65397E+03         0.00000E+00
   -0.65397E+03         0.75830E+02         0.00000E+00
    0.00000E+00         0.00000E+00        -0.10050E+03
 
   -0.87562E+03        -0.64200E+03         0.00000E+00
   -0.64200E+03         0.83016E+02         0.00000E+00
    0.00000E+00         0.00000E+00        -0.23778E+03
 
   -0.13093E+04        -0.58489E+03         0.00000E+00
   -0.58489E+03         0.77492E+02         0.00000E+00
    0.00000E+00         0.00000E+00        -0.36956E+03
 
   -0.17050E+04        -0.48916E+03         0.00000E+00
   -0.48916E+03         0.57024E+02         0.00000E+00
    0.00000E+00         0.00000E+00        -0.49438E+03
 
   -0.20571E+04        -0.36135E+03         0.00000E+00
   -0.36135E+03         0.20413E+02         0.00000E+00
    0.00000E+00         0.00000E+00        -0.61099E+03
 
   -0.23618E+04        -0.20772E+03         0.00000E+00
   -0.20772E+03        -0.32624E+02         0.00000E+00
    0.00000E+00         0.00000E+00        -0.71832E+03
 
   -0.26166E+04        -0.34073E+02         0.00000E+00
   -0.34073E+02        -0.10162E+03         0.00000E+00
    0.00000E+00         0.00000E+00        -0.81547E+03
 
   -0.28201E+04         0.15440E+03         0.00000E+00
    0.15440E+03        -0.18556E+03         0.00000E+00
    0.00000E+00         0.00000E+00        -0.90170E+03
 
   -0.29716E+04         0.35322E+03         0.00000E+00
    0.35322E+03        -0.28305E+03         0.00000E+00
    0.00000E+00         0.00000E+00        -0.97639E+03
 
   -0.30709E+04         0.55861E+03         0.00000E+00
    0.55861E+03        -0.39255E+03         0.00000E+00
    0.00000E+00         0.00000E+00        -0.10390E+04
 
   -0.31183E+04         0.76748E+03         0.00000E+00
    0.76748E+03        -0.51251E+03         0.00000E+00
    0.00000E+00         0.00000E+00        -0.10892E+04
 
   -0.31139E+04         0.97734E+03         0.00000E+00
    0.97734E+03        -0.64156E+03         0.00000E+00
    0.00000E+00         0.00000E+00        -0.11266E+04
 
   -0.30577E+04         0.11862E+04         0.00000E+00
    0.11862E+04        -0.77863E+03         0.00000E+00
    0.00000E+00         0.00000E+00        -0.11509E+04
 
   -0.29495E+04         0.13923E+04         0.00000E+00
    0.13923E+04        -0.92301E+03         0.00000E+00
    0.00000E+00         0.00000E+00        -0.11618E+04
 
   -0.27885E+04         0.15942E+04         0.00000E+00
    0.15942E+04        -0.10745E+04         0.00000E+00
    0.00000E+00         0.00000E+00        -0.11589E+04
 
   -0.25735E+04         0.17903E+04         0.00000E+00
    0.17903E+04        -0.12332E+04         0.00000E+00
    0.00000E+00         0.00000E+00        -0.11420E+04
 
   -0.23027E+04         0.19788E+04         0.00000E+00
    0.19788E+04        -0.14001E+04         0.00000E+00
    0.00000E+00         0.00000E+00        -0.11108E+04
 
   -0.19736E+04         0.21574E+04         0.00000E+00
    0.21574E+04        -0.15762E+04         0.00000E+00
    0.00000E+00         0.00000E+00        -0.10650E+04
 
   -0.15835E+04         0.23232E+04         0.00000E+00
    0.23232E+04        -0.17633E+04         0.00000E+00
    0.00000E+00         0.00000E+00        -0.10040E+04
 
   -0.11293E+04         0.24724E+04         0.00000E+00
    0.24724E+04        -0.19631E+04         0.00000E+00
    0.00000E+00         0.00000E+00        -0.92772E+03
 
    0.13087E+04        -0.12891E+03         0.00000E+00
   -0.12891E+03         0.32940E+01         0.00000E+00
    0.00000E+00         0.00000E+00         0.39360E+03
 
    0.88699E+03        -0.34102E+03         0.00000E+00
   -0.34102E+03         0.17598E+02         0.00000E+00
    0.00000E+00         0.00000E+00         0.27138E+03
 
    0.44898E+03        -0.49455E+03         0.00000E+00
   -0.49455E+03         0.40151E+02         0.00000E+00
    0.00000E+00         0.00000E+00         0.14674E+03
 
    0.69425E+01        -0.59219E+03         0.00000E+00
   -0.59219E+03         0.65091E+02         0.00000E+00
    0.00000E+00         0.00000E+00         0.21610E+02
 
   -0.42804E+03        -0.63769E+03         0.00000E+00
   -0.63769E+03         0.87326E+02         0.00000E+00
    0.00000E+00         0.00000E+00        -0.10221E+03
 
   -0.84618E+03        -0.63565E+03         0.00000E+00
   -0.63565E+03         0.10264E+03         0.00000E+00
    0.00000E+00         0.00000E+00        -0.22306E+03
 
   -0.12392E+04        -0.59129E+03         0.00000E+00
   -0.59129E+03         0.10775E+03         0.00000E+00
    0.00000E+00         0.00000E+00        -0.33942E+03
 
   -0.16001E+04        -0.51011E+03         0.00000E+00
   -0.51011E+03         0.10030E+03         0.00000E+00
    0.00000E+00         0.00000E+00        -0.44994E+03
 
   -0.19235E+04        -0.39775E+03         0.00000E+00
   -0.39775E+03         0.78821E+02         0.00000E+00
    0.00000E+00         0.00000E+00        -0.55341E+03
 
   -0.22053E+04        -0.25967E+03         0.00000E+00
   -0.25967E+03         0.42640E+02         0.00000E+00
    0.00000E+00         0.00000E+00        -0.64878E+03
 
   -0.24423E+04        -0.10107E+03         0.00000E+00
   -0.10107E+03        -0.82569E+01         0.00000E+00
    0.00000E+00         0.00000E+00        -0.73518E+03
 
   -0.26327E+04         0.73320E+02         0.00000E+00
    0.73320E+02        -0.73368E+02         0.00000E+00
    0.00000E+00         0.00000E+00        -0.81183E+03
 
   -0.27751E+04         0.25929E+03         0.00000E+00
    0.25929E+03        -0.15183E+03         0.00000E+00
    0.00000E+00         0.00000E+00        -0.87809E+03
 
   -0.28689E+04         0.45316E+03         0.00000E+00
    0.45316E+03        -0.24260E+03         0.00000E+00
    0.00000E+00         0.00000E+00        -0.93343E+03
 
   -0.29134E+04         0.65179E+03         0.00000E+00
    0.65179E+03        -0.34455E+03         0.00000E+00
    0.00000E+00         0.00000E+00        -0.97739E+03
 
   -0.29086E+04         0.85250E+03         0.00000E+00
    0.85250E+03        -0.45667E+03         0.00000E+00
    0.00000E+00         0.00000E+00        -0.10096E+04
 
   -0.28540E+04         0.10530E+04         0.00000E+00
    0.10530E+04        -0.57812E+03         0.00000E+00
    0.00000E+00         0.00000E+00        -0.10296E+04
 
   -0.27491E+04         0.12512E+04         0.00000E+00
    0.12512E+04        -0.70834E+03         0.00000E+00
    0.00000E+00         0.00000E+00        -0.10372E+04
 
   -0.25933E+04         0.14452E+04         0.00000E+00
    0.14452E+04        -0.84712E+03         0.00000E+00
    0.00000E+00         0.00000E+00        -0.10321E+04
 
   -0.23852E+04         0.16330E+04         0.00000E+00
    0.16330E+04        -0.99460E+03         0.00000E+00
    0.00000E+00         0.00000E+00        -0.10140E+04
 
   -0.21236E+04         0.18124E+04         0.00000E+00
    0.18124E+04        -0.11513E+04         0.00000E+00
    0.00000E+00         0.00000E+00        -0.98247E+03
 
   -0.18065E+04         0.19807E+04         0.00000E+00
    0.19807E+04        -0.13181E+04         0.00000E+00
    0.00000E+00         0.00000E+00        -0.93737E+03
 
   -0.14319E+04         0.21347E+04         0.00000E+00
    0.21347E+04        -0.14960E+04         0.00000E+00
    0.00000E+00         0.00000E+00        -0.87836E+03
 
   -0.99744E+03         0.22703E+04         0.00000E+00
    0.22703E+04        -0.16865E+04         0.00000E+00
    0.00000E+00         0.00000E+00        -0.80518E+03
 
    0.10741E+04        -0.12063E+03         0.00000E+00
   -0.12063E+03         0.33025E+01         0.00000E+00
    0.00000E+00         0.00000E+00         0.32322E+03
 
    0.70871E+03        -0.32103E+03         0.00000E+00
   -0.32103E+03         0.17911E+02         0.00000E+00
    0.00000E+00         0.00000E+00         0.21799E+03
 
    0.32525E+03        -0.46876E+03         0.00000E+00
   -0.46876E+03         0.41643E+02         0.00000E+00
    0.00000E+00         0.00000E+00         0.11007E+03
 
   -0.65136E+02        -0.56586E+03         0.00000E+00
   -0.56586E+03         0.69149E+02         0.00000E+00
    0.00000E+00         0.00000E+00         0.12039E+01
 
   -0.45226E+03        -0.61534E+03         0.00000E+00
   -0.61534E+03         0.95721E+02         0.00000E+00
    0.00000E+00         0.00000E+00        -0.10696E+03
 
   -0.82704E+03        -0.62096E+03         0.00000E+00
   -0.62096E+03         0.11738E+03         0.00000E+00
    0.00000E+00         0.00000E+00        -0.21290E+03
 
   -0.11816E+04        -0.58706E+03         0.00000E+00
   -0.58706E+03         0.13094E+03         0.00000E+00
    0.00000E+00         0.00000E+00        -0.31520E+03
 
   -0.15093E+04        -0.51832E+03         0.00000E+00
   -0.51832E+03         0.13397E+03         0.00000E+00
    0.00000E+00         0.00000E+00        -0.41261E+03
 
   -0.18047E+04        -0.41957E+03         0.00000E+00
   -0.41957E+03         0.12483E+03         0.00000E+00
    0.00000E+00         0.00000E+00        -0.50397E+03
 
   -0.20635E+04        -0.29562E+03         0.00000E+00
   -0.29562E+03         0.10253E+03         0.00000E+00
    0.00000E+00         0.00000E+00        -0.58828E+03
 
   -0.22823E+04        -0.15108E+03         0.00000E+00
   -0.15108E+03         0.66706E+02         0.00000E+00
    0.00000E+00         0.00000E+00        -0.66467E+03
 
   -0.24587E+04         0.97455E+01         0.00000E+00
    0.97455E+01         0.17433E+02         0.00000E+00
    0.00000E+00         0.00000E+00        -0.73238E+03
 
   -0.25910E+04         0.18291E+03         0.00000E+00
    0.18291E+03        -0.44852E+02         0.00000E+00
    0.00000E+00         0.00000E+00        -0.79076E+03
 
   -0.26780E+04         0.36488E+03         0.00000E+00
    0.36488E+03        -0.11950E+03         0.00000E+00
    0.00000E+00         0.00000E+00        -0.83924E+03
 
   -0.27187E+04         0.55253E+03         0.00000E+00
    0.55253E+03        -0.20577E+03         0.00000E+00
    0.00000E+00         0.00000E+00        -0.87734E+03
 
   -0.27126E+04         0.74307E+03         0.00000E+00
    0.74307E+03        -0.30293E+03         0.00000E+00
    0.00000E+00         0.00000E+00        -0.90466E+03
 
   -0.26590E+04         0.93401E+03         0.00000E+00
    0.93401E+03        -0.41037E+03         0.00000E+00
    0.00000E+00         0.00000E+00        -0.92081E+03
 
   -0.25573E+04         0.11230E+04         0.00000E+00
    0.11230E+04        -0.52765E+03         0.00000E+00
    0.00000E+00         0.00000E+00        -0.92549E+03
 
   -0.24067E+04         0.13079E+04         0.00000E+00
    0.13079E+04        -0.65458E+03         0.00000E+00
    0.00000E+00         0.00000E+00        -0.91838E+03
 
   -0.22062E+04         0.14863E+04         0.00000E+00
    0.14863E+04        -0.79121E+03         0.00000E+00
    0.00000E+00         0.00000E+00        -0.89921E+03
 
   -0.19546E+04         0.16557E+04         0.00000E+00
    0.16557E+04        -0.93785E+03         0.00000E+00
    0.00000E+00         0.00000E+00        -0.86772E+03
 
   -0.16506E+04         0.18132E+04         0.00000E+00
    0.18132E+04        -0.10951E+04         0.00000E+00
    0.00000E+00         0.00000E+00        -0.82368E+03
 
   -0.12927E+04         0.19555E+04         0.00000E+00
    0.19555E+04        -0.12635E+04         0.00000E+00
    0.00000E+00         0.00000E+00        -0.76687E+03
 
   -0.87951E+03         0.20783E+04         0.00000E+00
    0.20783E+04        -0.14441E+04         0.00000E+00
    0.00000E+00         0.00000E+00        -0.69708E+03
 
    0.85446E+03        -0.11235E+03         0.00000E+00
   -0.11235E+03         0.32781E+01         0.00000E+00
    0.00000E+00         0.00000E+00         0.25732E+03
 
    0.53950E+03        -0.30057E+03         0.00000E+00
   -0.30057E+03         0.17992E+02         0.00000E+00
    0.00000E+00         0.00000E+00         0.16725E+03
 
    0.20522E+03        -0.44150E+03         0.00000E+00
   -0.44150E+03         0.42441E+02         0.00000E+00
    0.00000E+00         0.00000E+00         0.74299E+02
 
   -0.13822E+03        -0.53665E+03         0.00000E+00
   -0.53665E+03         0.71731E+02         0.00000E+00
    0.00000E+00         0.00000E+00        -0.19945E+02
 
   -0.48146E+03        -0.58837E+03         0.00000E+00
   -0.58837E+03         0.10151E+03         0.00000E+00
    0.00000E+00         0.00000E+00        -0.11399E+03
 
   -0.81608E+03        -0.59975E+03         0.00000E+00
   -0.59975E+03         0.12802E+03         0.00000E+00
    0.00000E+00         0.00000E+00        -0.20642E+03
 
   -0.11347E+04        -0.57439E+03         0.00000E+00
   -0.57439E+03         0.14818E+03         0.00000E+00
    0.00000E+00         0.00000E+00        -0.29594E+03
 
   -0.14308E+04        -0.51626E+03         0.00000E+00
   -0.51626E+03         0.15956E+03         0.00000E+00
    0.00000E+00         0.00000E+00        -0.38137E+03
 
   -0.16991E+04        -0.42952E+03         0.00000E+00
   -0.42952E+03         0.16037E+03         0.00000E+00
    0.00000E+00         0.00000E+00        -0.46162E+03
 
   -0.19352E+04        -0.31837E+03         0.00000E+00
   -0.31837E+03         0.14943E+03         0.00000E+00
    0.00000E+00         0.00000E+00        -0.53575E+03
 
   -0.21357E+04        -0.18691E+03         0.00000E+00
   -0.18691E+03         0.12605E+03         0.00000E+00
    0.00000E+00         0.00000E+00        -0.60289E+03
 
   -0.22977E+04        -0.39070E+02         0.00000E+00
   -0.39070E+02         0.90017E+02         0.00000E+00
    0.00000E+00         0.00000E+00        -0.66230E+03
 
   -0.24192E+04         0.12150E+03         0.00000E+00
    0.12150E+03         0.41404E+02         0.00000E+00
    0.00000E+00         0.00000E+00        -0.71334E+03
 
   -0.24987E+04         0.29142E+03         0.00000E+00
    0.29142E+03        -0.19468E+02         0.00000E+00
    0.00000E+00         0.00000E+00        -0.75544E+03
 
   -0.25348E+04         0.46762E+03         0.00000E+00
    0.46762E+03        -0.92159E+02         0.00000E+00
    0.00000E+00         0.00000E+00        -0.78810E+03
 
   -0.25268E+04         0.64730E+03         0.00000E+00
    0.64730E+03        -0.17619E+03         0.00000E+00
    0.00000E+00         0.00000E+00        -0.81091E+03
 
   -0.24738E+04         0.82783E+03         0.00000E+00
    0.82783E+03        -0.27113E+03         0.00000E+00
    0.00000E+00         0.00000E+00        -0.82349E+03
 
   -0.23751E+04         0.10067E+04         0.00000E+00
    0.10067E+04        -0.37666E+03         0.00000E+00
    0.00000E+00         0.00000E+00        -0.82552E+03
 
   -0.22297E+04         0.11816E+04         0.00000E+00
    0.11816E+04        -0.49259E+03         0.00000E+00
    0.00000E+00         0.00000E+00        -0.81670E+03
 
   -0.20370E+04         0.13498E+04         0.00000E+00
    0.13498E+04        -0.61890E+03         0.00000E+00
    0.00000E+00         0.00000E+00        -0.79678E+03
 
   -0.17961E+04         0.15088E+04         0.00000E+00
    0.15088E+04        -0.75575E+03         0.00000E+00
    0.00000E+00         0.00000E+00        -0.76555E+03
 
   -0.15059E+04         0.16553E+04         0.00000E+00
    0.16553E+04        -0.90342E+03         0.00000E+00
    0.00000E+00         0.00000E+00        -0.72279E+03
 
   -0.11656E+04         0.17860E+04         0.00000E+00
    0.17860E+04        -0.10623E+04         0.00000E+00
    0.00000E+00         0.00000E+00        -0.66836E+03
 
   -0.77443E+03         0.18967E+04         0.00000E+00
    0.18967E+04        -0.12327E+04         0.00000E+00
    0.00000E+00         0.00000E+00        -0.60213E+03
 
    0.64986E+03        -0.10415E+03         0.00000E+00
   -0.10415E+03         0.32261E+01         0.00000E+00
    0.00000E+00         0.00000E+00         0.19593E+03
 
    0.37999E+03        -0.27993E+03         0.00000E+00
   -0.27993E+03         0.17878E+02         0.00000E+00
    0.00000E+00         0.00000E+00         0.11936E+03
 
    0.89992E+02        -0.41334E+03         0.00000E+00
   -0.41334E+03         0.42657E+02         0.00000E+00
    0.00000E+00         0.00000E+00         0.39795E+02
 
   -0.21087E+03        -0.50541E+03         0.00000E+00
   -0.50541E+03         0.73081E+02         0.00000E+00
    0.00000E+00         0.00000E+00        -0.41336E+02
 
   -0.51399E+03        -0.55798E+03         0.00000E+00
   -0.55798E+03         0.10511E+03         0.00000E+00
    0.00000E+00         0.00000E+00        -0.12266E+03
 
   -0.81154E+03        -0.57355E+03         0.00000E+00
   -0.57355E+03         0.13523E+03         0.00000E+00
    0.00000E+00         0.00000E+00        -0.20289E+03
 
   -0.10965E+04        -0.55511E+03         0.00000E+00
   -0.55511E+03         0.16046E+03         0.00000E+00
    0.00000E+00         0.00000E+00        -0.28082E+03
 
   -0.13629E+04        -0.50602E+03         0.00000E+00
   -0.50602E+03         0.17838E+03         0.00000E+00
    0.00000E+00         0.00000E+00        -0.35535E+03
 
   -0.16053E+04        -0.42986E+03         0.00000E+00
   -0.42986E+03         0.18713E+03         0.00000E+00
    0.00000E+00         0.00000E+00        -0.42546E+03
 
   -0.18195E+04        -0.33030E+03         0.00000E+00
   -0.33030E+03         0.18537E+03         0.00000E+00
    0.00000E+00         0.00000E+00        -0.49024E+03
 
   -0.20018E+04        -0.21101E+03         0.00000E+00
   -0.21101E+03         0.17221E+03         0.00000E+00
    0.00000E+00         0.00000E+00        -0.54887E+03
 
   -0.21493E+04        -0.75525E+02         0.00000E+00
   -0.75525E+02         0.14715E+03         0.00000E+00
    0.00000E+00         0.00000E+00        -0.60064E+03
 
   -0.22597E+04         0.72761E+02         0.00000E+00
    0.72761E+02         0.11002E+03         0.00000E+00
    0.00000E+00         0.00000E+00        -0.64490E+03
 
   -0.23312E+04         0.23066E+03         0.00000E+00
    0.23066E+03         0.60852E+02         0.00000E+00
    0.00000E+00         0.00000E+00        -0.68109E+03
 
   -0.23623E+04         0.39520E+03         0.00000E+00
    0.39520E+03        -0.14835E+00         0.00000E+00
    0.00000E+00         0.00000E+00        -0.70874E+03
 
   -0.23520E+04         0.56358E+03         0.00000E+00
    0.56358E+03        -0.72716E+02         0.00000E+00
    0.00000E+00         0.00000E+00        -0.72741E+03
 
   -0.22992E+04         0.73314E+03         0.00000E+00
    0.73314E+03        -0.15657E+03         0.00000E+00
    0.00000E+00         0.00000E+00        -0.73674E+03
 
   -0.22032E+04         0.90131E+03         0.00000E+00
    0.90131E+03        -0.25148E+03         0.00000E+00
    0.00000E+00         0.00000E+00        -0.73640E+03
 
   -0.20632E+04         0.10655E+04         0.00000E+00
    0.10655E+04        -0.35727E+03         0.00000E+00
    0.00000E+00         0.00000E+00        -0.72613E+03
 
   -0.18785E+04         0.12231E+04         0.00000E+00
    0.12231E+04        -0.47387E+03         0.00000E+00
    0.00000E+00         0.00000E+00        -0.70570E+03
 
   -0.16484E+04         0.13713E+04         0.00000E+00
    0.13713E+04        -0.60129E+03         0.00000E+00
    0.00000E+00         0.00000E+00        -0.67490E+03
 
   -0.13724E+04         0.15069E+04         0.00000E+00
    0.15069E+04        -0.73958E+03         0.00000E+00
    0.00000E+00         0.00000E+00        -0.63359E+03
 
   -0.10500E+04         0.16263E+04         0.00000E+00
    0.16263E+04        -0.88883E+03         0.00000E+00
    0.00000E+00         0.00000E+00        -0.58166E+03
 
   -0.68115E+03         0.17258E+04         0.00000E+00
    0.17258E+04        -0.10490E+04         0.00000E+00
    0.00000E+00         0.00000E+00        -0.51906E+03
 
    0.46021E+03        -0.96092E+02         0.00000E+00
   -0.96092E+02         0.31513E+01         0.00000E+00
    0.00000E+00         0.00000E+00         0.13901E+03
 
    0.23057E+03        -0.25937E+03         0.00000E+00
   -0.25937E+03         0.17604E+02         0.00000E+00
    0.00000E+00         0.00000E+00         0.74453E+02
 
   -0.19636E+02        -0.38474E+03         0.00000E+00
   -0.38474E+03         0.42394E+02         0.00000E+00
    0.00000E+00         0.00000E+00         0.68272E+01
 
   -0.28196E+03        -0.47287E+03         0.00000E+00
   -0.47287E+03         0.73412E+02         0.00000E+00
    0.00000E+00         0.00000E+00        -0.62563E+02
 
   -0.54848E+03        -0.52517E+03         0.00000E+00
   -0.52517E+03         0.10692E+03         0.00000E+00
    0.00000E+00         0.00000E+00        -0.13247E+03
 
   -0.81193E+03        -0.54364E+03         0.00000E+00
   -0.54364E+03         0.13960E+03         0.00000E+00
    0.00000E+00         0.00000E+00        -0.20170E+03
 
   -0.10658E+04        -0.53075E+03         0.00000E+00
   -0.53075E+03         0.16861E+03         0.00000E+00
    0.00000E+00         0.00000E+00        -0.26915E+03
 
   -0.13042E+04        -0.48935E+03         0.00000E+00
   -0.48935E+03         0.19156E+03         0.00000E+00
    0.00000E+00         0.00000E+00        -0.33378E+03
 
   -0.15221E+04        -0.42252E+03         0.00000E+00
   -0.42252E+03         0.20655E+03         0.00000E+00
    0.00000E+00         0.00000E+00        -0.39466E+03
 
   -0.17152E+04        -0.33348E+03         0.00000E+00
   -0.33348E+03         0.21214E+03         0.00000E+00
    0.00000E+00         0.00000E+00        -0.45091E+03
 
   -0.18798E+04        -0.22547E+03         0.00000E+00
   -0.22547E+03         0.20727E+03         0.00000E+00
    0.00000E+00         0.00000E+00        -0.50176E+03
 
   -0.20129E+04        -0.10170E+03         0.00000E+00
   -0.10170E+03         0.19125E+03         0.00000E+00
    0.00000E+00         0.00000E+00        -0.54651E+03
 
   -0.21122E+04         0.34700E+02         0.00000E+00
    0.34700E+02         0.16369E+03         0.00000E+00
    0.00000E+00         0.00000E+00        -0.58455E+03
 
   -0.21755E+04         0.18074E+03         0.00000E+00
    0.18074E+03         0.12442E+03         0.00000E+00
    0.00000E+00         0.00000E+00        -0.61533E+03
 
   -0.22013E+04         0.33357E+03         0.00000E+00
    0.33357E+03         0.73429E+02         0.00000E+00
    0.00000E+00         0.00000E+00        -0.63837E+03
 
   -0.21884E+04         0.49044E+03         0.00000E+00
    0.49044E+03         0.10827E+02         0.00000E+00
    0.00000E+00         0.00000E+00        -0.65327E+03
 
   -0.21356E+04         0.64870E+03         0.00000E+00
    0.64870E+03        -0.63238E+02         0.00000E+00
    0.00000E+00         0.00000E+00        -0.65966E+03
 
   -0.20422E+04         0.80577E+03         0.00000E+00
    0.80577E+03        -0.14860E+03         0.00000E+00
    0.00000E+00         0.00000E+00        -0.65724E+03
 
   -0.19074E+04         0.95900E+03         0.00000E+00
    0.95900E+03        -0.24510E+03         0.00000E+00
    0.00000E+00         0.00000E+00        -0.64575E+03
 
   -0.17307E+04         0.11057E+04         0.00000E+00
    0.11057E+04        -0.35262E+03         0.00000E+00
    0.00000E+00         0.00000E+00        -0.62498E+03
 
   -0.15116E+04         0.12430E+04         0.00000E+00
    0.12430E+04        -0.47105E+03         0.00000E+00
    0.00000E+00         0.00000E+00        -0.59478E+03
 
   -0.12498E+04         0.13677E+04         0.00000E+00
    0.13677E+04        -0.60026E+03         0.00000E+00
    0.00000E+00         0.00000E+00        -0.55502E+03
 
   -0.94543E+03         0.14765E+04         0.00000E+00
    0.14765E+04        -0.74009E+03         0.00000E+00
    0.00000E+00         0.00000E+00        -0.50566E+03
 
   -0.59869E+03         0.15654E+04         0.00000E+00
    0.15654E+04        -0.89023E+03         0.00000E+00
    0.00000E+00         0.00000E+00        -0.44667E+03
 
    0.28528E+03        -0.88238E+02         0.00000E+00
   -0.88238E+02         0.30586E+01         0.00000E+00
    0.00000E+00         0.00000E+00         0.86500E+02
 
    0.91464E+02        -0.23908E+03         0.00000E+00
   -0.23908E+03         0.17202E+02         0.00000E+00
    0.00000E+00         0.00000E+00         0.32600E+02
 
   -0.12307E+03        -0.35609E+03         0.00000E+00
   -0.35609E+03         0.41744E+02         0.00000E+00
    0.00000E+00         0.00000E+00        -0.24398E+02
 
   -0.35059E+03        -0.43964E+03         0.00000E+00
   -0.43964E+03         0.72916E+02         0.00000E+00
    0.00000E+00         0.00000E+00        -0.83304E+02
 
   -0.58383E+03        -0.49077E+03         0.00000E+00
   -0.49077E+03         0.10725E+03         0.00000E+00
    0.00000E+00         0.00000E+00        -0.14297E+03
 
   -0.81605E+03        -0.51108E+03         0.00000E+00
   -0.51108E+03         0.14164E+03         0.00000E+00
    0.00000E+00         0.00000E+00        -0.20232E+03
 
   -0.10411E+04        -0.50260E+03         0.00000E+00
   -0.50260E+03         0.17336E+03         0.00000E+00
    0.00000E+00         0.00000E+00        -0.26032E+03
 
   -0.12535E+04        -0.46774E+03         0.00000E+00
   -0.46774E+03         0.20008E+03         0.00000E+00
    0.00000E+00         0.00000E+00        -0.31601E+03
 
   -0.14483E+04        -0.40915E+03         0.00000E+00
   -0.40915E+03         0.21990E+03         0.00000E+00
    0.00000E+00         0.00000E+00        -0.36851E+03
 
   -0.16213E+04        -0.32964E+03         0.00000E+00
   -0.32964E+03         0.23128E+03         0.00000E+00
    0.00000E+00         0.00000E+00        -0.41701E+03
 
   -0.17690E+04        -0.23208E+03         0.00000E+00
   -0.23208E+03         0.23307E+03         0.00000E+00
    0.00000E+00         0.00000E+00        -0.46077E+03
 
   -0.18882E+04        -0.11939E+03         0.00000E+00
   -0.11939E+03         0.22443E+03         0.00000E+00
    0.00000E+00         0.00000E+00        -0.49912E+03
 
   -0.19764E+04         0.55698E+01         0.00000E+00
    0.55698E+01         0.20480E+03         0.00000E+00
    0.00000E+00         0.00000E+00        -0.53148E+03
 
   -0.20316E+04         0.14001E+03         0.00000E+00
    0.14001E+03         0.17383E+03         0.00000E+00
    0.00000E+00         0.00000E+00        -0.55732E+03
 
   -0.20520E+04         0.28122E+03         0.00000E+00
    0.28122E+03         0.13138E+03         0.00000E+00
    0.00000E+00         0.00000E+00        -0.57618E+03
 
   -0.20363E+04         0.42654E+03         0.00000E+00
    0.42654E+03         0.77399E+02         0.00000E+00
    0.00000E+00         0.00000E+00        -0.58766E+03
 
   -0.19833E+04         0.57339E+03         0.00000E+00
    0.57339E+03         0.11946E+02         0.00000E+00
    0.00000E+00         0.00000E+00        -0.59141E+03
 
   -0.18923E+04         0.71917E+03         0.00000E+00
    0.71917E+03        -0.64874E+02         0.00000E+00
    0.00000E+00         0.00000E+00        -0.58716E+03
 
   -0.17626E+04         0.86128E+03         0.00000E+00
    0.86128E+03        -0.15292E+03         0.00000E+00
    0.00000E+00         0.00000E+00        -0.57466E+03
 
   -0.15938E+04         0.99700E+03         0.00000E+00
    0.99700E+03        -0.25201E+03         0.00000E+00
    0.00000E+00         0.00000E+00        -0.55373E+03
 
   -0.13855E+04         0.11235E+04         0.00000E+00
    0.11235E+04        -0.36194E+03         0.00000E+00
    0.00000E+00         0.00000E+00        -0.52424E+03
 
   -0.11379E+04         0.12377E+04         0.00000E+00
    0.12377E+04        -0.48245E+03         0.00000E+00
    0.00000E+00         0.00000E+00        -0.48610E+03
 
   -0.85116E+03         0.13362E+04         0.00000E+00
    0.13362E+04        -0.61315E+03         0.00000E+00
    0.00000E+00         0.00000E+00        -0.43929E+03
 
   -0.52605E+03         0.14153E+04         0.00000E+00
    0.14153E+04        -0.75351E+03         0.00000E+00
    0.00000E+00         0.00000E+00        -0.38387E+03
 
    0.12473E+03        -0.80627E+02         0.00000E+00
   -0.80627E+02         0.29523E+01         0.00000E+00
    0.00000E+00         0.00000E+00         0.38305E+02
 
   -0.37270E+02        -0.21921E+03         0.00000E+00
   -0.21921E+03         0.16701E+02         0.00000E+00
    0.00000E+00         0.00000E+00        -0.61708E+01
 
   -0.21990E+03        -0.32768E+03         0.00000E+00
   -0.32768E+03         0.40791E+02         0.00000E+00
    0.00000E+00         0.00000E+00        -0.53733E+02
 
   -0.41610E+03        -0.40619E+03         0.00000E+00
   -0.40619E+03         0.71764E+02         0.00000E+00
    0.00000E+00         0.00000E+00        -0.10330E+03
 
   -0.61917E+03        -0.45546E+03         0.00000E+00
   -0.45546E+03         0.10641E+03         0.00000E+00
    0.00000E+00         0.00000E+00        -0.15383E+03
 
   -0.82287E+03        -0.47674E+03         0.00000E+00
   -0.47674E+03         0.14181E+03         0.00000E+00
    0.00000E+00         0.00000E+00        -0.20432E+03
 
   -0.10214E+04        -0.47172E+03         0.00000E+00
   -0.47172E+03         0.17536E+03         0.00000E+00
    0.00000E+00         0.00000E+00        -0.25383E+03
 
   -0.12097E+04        -0.44242E+03         0.00000E+00
   -0.44242E+03         0.20481E+03         0.00000E+00
    0.00000E+00         0.00000E+00        -0.30146E+03
 
   -0.13829E+04        -0.39111E+03         0.00000E+00
   -0.39111E+03         0.22826E+03         0.00000E+00
    0.00000E+00         0.00000E+00        -0.34640E+03
 
   -0.15371E+04        -0.32024E+03         0.00000E+00
   -0.32024E+03         0.24414E+03         0.00000E+00
    0.00000E+00         0.00000E+00        -0.38788E+03
 
   -0.16686E+04        -0.23238E+03         0.00000E+00
   -0.23238E+03         0.25122E+03         0.00000E+00
    0.00000E+00         0.00000E+00        -0.42521E+03
 
   -0.17744E+04        -0.13014E+03         0.00000E+00
   -0.13014E+03         0.24854E+03         0.00000E+00
    0.00000E+00         0.00000E+00        -0.45776E+03
 
   -0.18520E+04        -0.16136E+02         0.00000E+00
   -0.16136E+02         0.23542E+03         0.00000E+00
    0.00000E+00         0.00000E+00        -0.48496E+03
 
   -0.18991E+04         0.10704E+03         0.00000E+00
    0.10704E+03         0.21140E+03         0.00000E+00
    0.00000E+00         0.00000E+00        -0.50632E+03
 
   -0.19141E+04         0.23683E+03         0.00000E+00
    0.23683E+03         0.17618E+03         0.00000E+00
    0.00000E+00         0.00000E+00        -0.52139E+03
 
   -0.18956E+04         0.37070E+03         0.00000E+00
    0.37070E+03         0.12963E+03         0.00000E+00
    0.00000E+00         0.00000E+00        -0.52979E+03
 
   -0.18424E+04         0.50614E+03         0.00000E+00
    0.50614E+03         0.71720E+02         0.00000E+00
    0.00000E+00         0.00000E+00        -0.53120E+03
 
   -0.17537E+04         0.64064E+03         0.00000E+00
    0.64064E+03         0.25118E+01         0.00000E+00
    0.00000E+00         0.00000E+00        -0.52535E+03
 
   -0.16289E+04         0.77162E+03         0.00000E+00
    0.77162E+03        -0.77856E+02         0.00000E+00
    0.00000E+00         0.00000E+00        -0.51202E+03
 
   -0.14677E+04         0.89645E+03         0.00000E+00
    0.89645E+03        -0.16917E+03         0.00000E+00
    0.00000E+00         0.00000E+00        -0.49106E+03
 
   -0.12700E+04         0.10123E+04         0.00000E+00
    0.10123E+04        -0.27115E+03         0.00000E+00
    0.00000E+00         0.00000E+00        -0.46236E+03
 
   -0.10361E+04         0.11163E+04         0.00000E+00
    0.11163E+04        -0.38339E+03         0.00000E+00
    0.00000E+00         0.00000E+00        -0.42586E+03
 
   -0.76657E+03         0.12051E+04         0.00000E+00
    0.12051E+04        -0.50536E+03         0.00000E+00
    0.00000E+00         0.00000E+00        -0.38158E+03
 
   -0.46233E+03         0.12753E+04         0.00000E+00
    0.12753E+04        -0.63633E+03         0.00000E+00
    0.00000E+00         0.00000E+00        -0.32960E+03
 
   -0.21837E+02        -0.73289E+02         0.00000E+00
   -0.73289E+02         0.28366E+01         0.00000E+00
    0.00000E+00         0.00000E+00        -0.57002E+01
 
   -0.15568E+03        -0.19988E+03         0.00000E+00
   -0.19988E+03         0.16128E+02         0.00000E+00
    0.00000E+00         0.00000E+00        -0.41866E+02
 
   -0.30987E+03        -0.29978E+03         0.00000E+00
   -0.29978E+03         0.39609E+02         0.00000E+00
    0.00000E+00         0.00000E+00        -0.81079E+02
 
   -0.47796E+03        -0.37291E+03         0.00000E+00
   -0.37291E+03         0.70110E+02         0.00000E+00
    0.00000E+00         0.00000E+00        -0.12236E+03
 
   -0.65379E+03        -0.41977E+03         0.00000E+00
   -0.41977E+03         0.10465E+03         0.00000E+00
    0.00000E+00         0.00000E+00        -0.16474E+03
 
   -0.83158E+03        -0.44134E+03         0.00000E+00
   -0.44134E+03         0.14049E+03         0.00000E+00
    0.00000E+00         0.00000E+00        -0.20733E+03
 
   -0.10059E+04        -0.43898E+03         0.00000E+00
   -0.43898E+03         0.17517E+03         0.00000E+00
    0.00000E+00         0.00000E+00        -0.24923E+03
 
   -0.11719E+04        -0.41439E+03         0.00000E+00
   -0.41439E+03         0.20650E+03         0.00000E+00
    0.00000E+00         0.00000E+00        -0.28964E+03
 
   -0.13252E+04        -0.36952E+03         0.00000E+00
   -0.36952E+03         0.23260E+03         0.00000E+00
    0.00000E+00         0.00000E+00        -0.32778E+03
 
   -0.14617E+04        -0.30652E+03         0.00000E+00
   -0.30652E+03         0.25190E+03         0.00000E+00
    0.00000E+00         0.00000E+00        -0.36293E+03
 
   -0.15780E+04        -0.22765E+03         0.00000E+00
   -0.22765E+03         0.26311E+03         0.00000E+00
    0.00000E+00         0.00000E+00        -0.39446E+03
 
   -0.16711E+04        -0.13525E+03         0.00000E+00
   -0.13525E+03         0.26520E+03         0.00000E+00
    0.00000E+00         0.00000E+00        -0.42177E+03
 
   -0.17384E+04        -0.31714E+02         0.00000E+00
   -0.31714E+02         0.25740E+03         0.00000E+00
    0.00000E+00         0.00000E+00        -0.44431E+03
 
   -0.17779E+04         0.80576E+02         0.00000E+00
    0.80576E+02         0.23913E+03         0.00000E+00
    0.00000E+00         0.00000E+00        -0.46162E+03
 
   -0.17876E+04         0.19922E+03         0.00000E+00
    0.19922E+03         0.21002E+03         0.00000E+00
    0.00000E+00         0.00000E+00        -0.47328E+03
 
   -0.17663E+04         0.32183E+03         0.00000E+00
    0.32183E+03         0.16985E+03         0.00000E+00
    0.00000E+00         0.00000E+00        -0.47893E+03
 
   -0.17127E+04         0.44601E+03         0.00000E+00
    0.44601E+03         0.11852E+03         0.00000E+00
    0.00000E+00         0.00000E+00        -0.47827E+03
 
   -0.16262E+04         0.56934E+03         0.00000E+00
    0.56934E+03         0.56065E+02         0.00000E+00
    0.00000E+00         0.00000E+00        -0.47104E+03
 
   -0.15061E+04         0.68933E+03         0.00000E+00
    0.68933E+03        -0.17377E+02         0.00000E+00
    0.00000E+00         0.00000E+00        -0.45705E+03
 
   -0.13523E+04         0.80344E+03         0.00000E+00
    0.80344E+03        -0.10157E+03         0.00000E+00
    0.00000E+00         0.00000E+00        -0.43616E+03
 
   -0.11648E+04         0.90897E+03         0.00000E+00
    0.90897E+03        -0.19614E+03         0.00000E+00
    0.00000E+00         0.00000E+00        -0.40829E+03
 
   -0.94414E+03         0.10031E+04         0.00000E+00
    0.10031E+04        -0.30062E+03         0.00000E+00
    0.00000E+00         0.00000E+00        -0.37343E+03
 
   -0.69100E+03         0.10828E+04         0.00000E+00
    0.10828E+04        -0.41432E+03         0.00000E+00
    0.00000E+00         0.00000E+00        -0.33160E+03
 
   -0.40666E+03         0.11448E+04         0.00000E+00
    0.11448E+04        -0.53638E+03         0.00000E+00
    0.00000E+00         0.00000E+00        -0.28291E+03
 
   -0.15491E+03        -0.66247E+02         0.00000E+00
   -0.66247E+02         0.27151E+01         0.00000E+00
    0.00000E+00         0.00000E+00        -0.45659E+02
 
   -0.26391E+03        -0.18119E+03         0.00000E+00
   -0.18119E+03         0.15506E+02         0.00000E+00
    0.00000E+00         0.00000E+00        -0.74522E+02
 
   -0.39284E+03        -0.27254E+03         0.00000E+00
   -0.27254E+03         0.38268E+02         0.00000E+00
    0.00000E+00         0.00000E+00        -0.10637E+03
 
   -0.53580E+03        -0.34010E+03         0.00000E+00
   -0.34010E+03         0.68088E+02         0.00000E+00
    0.00000E+00         0.00000E+00        -0.14032E+03
 
   -0.68714E+03        -0.38415E+03         0.00000E+00
   -0.38415E+03         0.10220E+03         0.00000E+00
    0.00000E+00         0.00000E+00        -0.17548E+03
 
   -0.84147E+03        -0.40544E+03         0.00000E+00
   -0.40544E+03         0.13805E+03         0.00000E+00
    0.00000E+00         0.00000E+00        -0.21103E+03
 
   -0.99379E+03        -0.40508E+03         0.00000E+00
   -0.40508E+03         0.17328E+03         0.00000E+00
    0.00000E+00         0.00000E+00        -0.24615E+03
 
   -0.11395E+04        -0.38449E+03         0.00000E+00
   -0.38449E+03         0.20580E+03         0.00000E+00
    0.00000E+00         0.00000E+00        -0.28010E+03
 
   -0.12743E+04        -0.34535E+03         0.00000E+00
   -0.34535E+03         0.23376E+03         0.00000E+00
    0.00000E+00         0.00000E+00        -0.31215E+03
 
   -0.13944E+04        -0.28950E+03         0.00000E+00
   -0.28950E+03         0.25559E+03         0.00000E+00
    0.00000E+00         0.00000E+00        -0.34164E+03
 
   -0.14965E+04        -0.21897E+03         0.00000E+00
   -0.21897E+03         0.26998E+03         0.00000E+00
    0.00000E+00         0.00000E+00        -0.36796E+03
 
   -0.15777E+04        -0.13584E+03         0.00000E+00
   -0.13584E+03         0.27584E+03         0.00000E+00
    0.00000E+00         0.00000E+00        -0.39056E+03
 
   -0.16354E+04        -0.42269E+02         0.00000E+00
   -0.42269E+02         0.27233E+03         0.00000E+00
    0.00000E+00         0.00000E+00        -0.40892E+03
 
   -0.16675E+04         0.59541E+02         0.00000E+00
    0.59541E+02         0.25881E+03         0.00000E+00
    0.00000E+00         0.00000E+00        -0.42260E+03
 
   -0.16722E+04         0.16737E+03         0.00000E+00
    0.16737E+03         0.23482E+03         0.00000E+00
    0.00000E+00         0.00000E+00        -0.43121E+03
 
   -0.16481E+04         0.27899E+03         0.00000E+00
    0.27899E+03         0.20010E+03         0.00000E+00
    0.00000E+00         0.00000E+00        -0.43441E+03
 
   -0.15942E+04         0.39213E+03         0.00000E+00
    0.39213E+03         0.15449E+03         0.00000E+00
    0.00000E+00         0.00000E+00        -0.43192E+03
 
   -0.15097E+04         0.50449E+03         0.00000E+00
    0.50449E+03         0.98009E+02         0.00000E+00
    0.00000E+00         0.00000E+00        -0.42350E+03
 
   -0.13941E+04         0.61372E+03         0.00000E+00
    0.61372E+03         0.30787E+02         0.00000E+00
    0.00000E+00         0.00000E+00        -0.40899E+03
 
   -0.12473E+04         0.71737E+03         0.00000E+00
    0.71737E+03        -0.46906E+02         0.00000E+00
    0.00000E+00         0.00000E+00        -0.38826E+03
 
   -0.10695E+04         0.81291E+03         0.00000E+00
    0.81291E+03        -0.13466E+03         0.00000E+00
    0.00000E+00         0.00000E+00        -0.36126E+03
 
   -0.86138E+03         0.89766E+03         0.00000E+00
    0.89766E+03        -0.23189E+03         0.00000E+00
    0.00000E+00         0.00000E+00        -0.32798E+03
 
   -0.62380E+03         0.96880E+03         0.00000E+00
    0.96880E+03        -0.33785E+03         0.00000E+00
    0.00000E+00         0.00000E+00        -0.28849E+03
 
   -0.35822E+03         0.10233E+04         0.00000E+00
    0.10233E+04        -0.45154E+03         0.00000E+00
    0.00000E+00         0.00000E+00        -0.24293E+03
 
   -0.27501E+03        -0.59510E+02         0.00000E+00
   -0.59510E+02         0.25913E+01         0.00000E+00
    0.00000E+00         0.00000E+00        -0.81725E+02
 
   -0.36219E+03        -0.16319E+03         0.00000E+00
   -0.16319E+03         0.14859E+02         0.00000E+00
    0.00000E+00         0.00000E+00        -0.10420E+03
 
   -0.46877E+03        -0.24612E+03         0.00000E+00
   -0.24612E+03         0.36826E+02         0.00000E+00
    0.00000E+00         0.00000E+00        -0.12958E+03
 
   -0.58937E+03        -0.30798E+03         0.00000E+00
   -0.30798E+03         0.65819E+02         0.00000E+00
    0.00000E+00         0.00000E+00        -0.15706E+03
 
   -0.71877E+03        -0.34892E+03         0.00000E+00
   -0.34892E+03         0.99276E+02         0.00000E+00
    0.00000E+00         0.00000E+00        -0.18585E+03
 
   -0.85201E+03        -0.36949E+03         0.00000E+00
   -0.36949E+03         0.13479E+03         0.00000E+00
    0.00000E+00         0.00000E+00        -0.21517E+03
 
   -0.98439E+03        -0.37059E+03         0.00000E+00
   -0.37059E+03         0.17013E+03         0.00000E+00
    0.00000E+00         0.00000E+00        -0.24428E+03
 
   -0.11116E+04        -0.35339E+03         0.00000E+00
   -0.35339E+03         0.20329E+03         0.00000E+00
    0.00000E+00         0.00000E+00        -0.27248E+03
 
   -0.12295E+04        -0.31933E+03         0.00000E+00
   -0.31933E+03         0.23247E+03         0.00000E+00
    0.00000E+00         0.00000E+00        -0.29910E+03
 
   -0.13346E+04        -0.27002E+03         0.00000E+00
   -0.27002E+03         0.25612E+03         0.00000E+00
    0.00000E+00         0.00000E+00        -0.32354E+03
 
   -0.14236E+04        -0.20723E+03         0.00000E+00
   -0.20723E+03         0.27289E+03         0.00000E+00
    0.00000E+00         0.00000E+00        -0.34521E+03
 
   -0.14937E+04        -0.13282E+03         0.00000E+00
   -0.13282E+03         0.28168E+03         0.00000E+00
    0.00000E+00         0.00000E+00        -0.36360E+03
 
   -0.15424E+04        -0.48742E+02         0.00000E+00
   -0.48742E+02         0.28161E+03         0.00000E+00
    0.00000E+00         0.00000E+00        -0.37822E+03
 
   -0.15675E+04         0.43011E+02         0.00000E+00
    0.43011E+02         0.27197E+03         0.00000E+00
    0.00000E+00         0.00000E+00        -0.38867E+03
 
   -0.15675E+04         0.14039E+03         0.00000E+00
    0.14039E+03         0.25227E+03         0.00000E+00
    0.00000E+00         0.00000E+00        -0.39457E+03
 
   -0.15409E+04         0.24134E+03         0.00000E+00
    0.24134E+03         0.22218E+03         0.00000E+00
    0.00000E+00         0.00000E+00        -0.39561E+03
 
   -0.14866E+04         0.34372E+03         0.00000E+00
    0.34372E+03         0.18153E+03         0.00000E+00
    0.00000E+00         0.00000E+00        -0.39151E+03
 
   -0.14039E+04         0.44539E+03         0.00000E+00
    0.44539E+03         0.13030E+03         0.00000E+00
    0.00000E+00         0.00000E+00        -0.38209E+03
 
   -0.12925E+04         0.54414E+03         0.00000E+00
    0.54414E+03         0.68636E+02         0.00000E+00
    0.00000E+00         0.00000E+00        -0.36717E+03
 
   -0.11524E+04         0.63766E+03         0.00000E+00
    0.63766E+03        -0.31745E+01         0.00000E+00
    0.00000E+00         0.00000E+00        -0.34666E+03
 
   -0.98373E+03         0.72359E+03         0.00000E+00
    0.72359E+03        -0.84675E+02         0.00000E+00
    0.00000E+00         0.00000E+00        -0.32052E+03
 
   -0.78736E+03         0.79943E+03         0.00000E+00
    0.79943E+03        -0.17523E+03         0.00000E+00
    0.00000E+00         0.00000E+00        -0.28878E+03
 
   -0.56435E+03         0.86258E+03         0.00000E+00
    0.86258E+03        -0.27399E+03         0.00000E+00
    0.00000E+00         0.00000E+00        -0.25150E+03
 
   -0.31628E+03         0.91029E+03         0.00000E+00
    0.91029E+03        -0.37989E+03         0.00000E+00
    0.00000E+00         0.00000E+00        -0.20885E+03
 
   -0.38266E+03        -0.53082E+02         0.00000E+00
   -0.53082E+02         0.24682E+01         0.00000E+00
    0.00000E+00         0.00000E+00        -0.11406E+03
 
   -0.45077E+03        -0.14591E+03         0.00000E+00
   -0.14591E+03         0.14204E+02         0.00000E+00
    0.00000E+00         0.00000E+00        -0.13097E+03
 
   -0.53768E+03        -0.22058E+03         0.00000E+00
   -0.22058E+03         0.35338E+02         0.00000E+00
    0.00000E+00         0.00000E+00        -0.15070E+03
 
   -0.63848E+03        -0.27671E+03         0.00000E+00
   -0.27671E+03         0.63411E+02         0.00000E+00
    0.00000E+00         0.00000E+00        -0.17252E+03
 
   -0.74837E+03        -0.31433E+03         0.00000E+00
   -0.31433E+03         0.96044E+02         0.00000E+00
    0.00000E+00         0.00000E+00        -0.19570E+03
 
   -0.86273E+03        -0.33383E+03         0.00000E+00
   -0.33383E+03         0.13098E+03         0.00000E+00
    0.00000E+00         0.00000E+00        -0.21953E+03
 
   -0.97719E+03        -0.33593E+03         0.00000E+00
   -0.33593E+03         0.16610E+03         0.00000E+00
    0.00000E+00         0.00000E+00        -0.24333E+03
 
   -0.10876E+04        -0.32161E+03         0.00000E+00
   -0.32161E+03         0.19948E+03         0.00000E+00
    0.00000E+00         0.00000E+00        -0.26645E+03
 
   -0.11903E+04        -0.29209E+03         0.00000E+00
   -0.29209E+03         0.22938E+03         0.00000E+00
    0.00000E+00         0.00000E+00        -0.28827E+03
 
   -0.12817E+04        -0.24876E+03         0.00000E+00
   -0.24876E+03         0.25425E+03         0.00000E+00
    0.00000E+00         0.00000E+00        -0.30822E+03
 
   -0.13587E+04        -0.19317E+03         0.00000E+00
   -0.19317E+03         0.27277E+03         0.00000E+00
    0.00000E+00         0.00000E+00        -0.32577E+03
 
   -0.14185E+04        -0.12698E+03         0.00000E+00
   -0.12698E+03         0.28382E+03         0.00000E+00
    0.00000E+00         0.00000E+00        -0.34042E+03
 
   -0.14589E+04        -0.51922E+02         0.00000E+00
   -0.51922E+02         0.28646E+03         0.00000E+00
    0.00000E+00         0.00000E+00        -0.35173E+03
 
   -0.14777E+04         0.30194E+02         0.00000E+00
    0.30194E+02         0.27998E+03         0.00000E+00
    0.00000E+00         0.00000E+00        -0.35931E+03
 
   -0.14732E+04         0.11751E+03         0.00000E+00
    0.11751E+03         0.26384E+03         0.00000E+00
    0.00000E+00         0.00000E+00        -0.36282E+03
 
   -0.14442E+04         0.20812E+03         0.00000E+00
    0.20812E+03         0.23768E+03         0.00000E+00
    0.00000E+00         0.00000E+00        -0.36195E+03
 
   -0.13895E+04         0.30007E+03         0.00000E+00
    0.30007E+03         0.20129E+03         0.00000E+00
    0.00000E+00         0.00000E+00        -0.35647E+03
 
   -0.13086E+04         0.39137E+03         0.00000E+00
    0.39137E+03         0.15466E+03         0.00000E+00
    0.00000E+00         0.00000E+00        -0.34618E+03
 
   -0.12011E+04         0.47996E+03         0.00000E+00
    0.47996E+03         0.97935E+02         0.00000E+00
    0.00000E+00         0.00000E+00        -0.33096E+03
 
   -0.10671E+04         0.56371E+03         0.00000E+00
    0.56371E+03         0.31414E+02         0.00000E+00
    0.00000E+00         0.00000E+00        -0.31071E+03
 
   -0.90699E+03         0.64044E+03         0.00000E+00
    0.64044E+03        -0.44408E+02         0.00000E+00
    0.00000E+00         0.00000E+00        -0.28542E+03
 
   -0.72156E+03         0.70784E+03         0.00000E+00
    0.70784E+03        -0.12885E+03         0.00000E+00
    0.00000E+00         0.00000E+00        -0.25512E+03
 
   -0.51205E+03         0.76353E+03         0.00000E+00
    0.76353E+03        -0.22100E+03         0.00000E+00
    0.00000E+00         0.00000E+00        -0.21991E+03
 
   -0.28013E+03         0.80503E+03         0.00000E+00
    0.80503E+03        -0.31973E+03         0.00000E+00
    0.00000E+00         0.00000E+00        -0.17996E+03
 
   -0.47843E+03        -0.46960E+02         0.00000E+00
   -0.46960E+02         0.23485E+01         0.00000E+00
    0.00000E+00         0.00000E+00        -0.14282E+03
 
   -0.52995E+03        -0.12935E+03         0.00000E+00
   -0.12935E+03         0.13560E+02         0.00000E+00
    0.00000E+00         0.00000E+00        -0.15492E+03
 
   -0.59966E+03        -0.19597E+03         0.00000E+00
   -0.19597E+03         0.33850E+02         0.00000E+00
    0.00000E+00         0.00000E+00        -0.16974E+03
 
   -0.68304E+03        -0.24639E+03         0.00000E+00
   -0.24639E+03         0.60956E+02         0.00000E+00
    0.00000E+00         0.00000E+00        -0.18663E+03
 
   -0.77568E+03        -0.28054E+03         0.00000E+00
   -0.28054E+03         0.92665E+02         0.00000E+00
    0.00000E+00         0.00000E+00        -0.20490E+03
 
   -0.87328E+03        -0.29870E+03         0.00000E+00
   -0.29870E+03         0.12685E+03         0.00000E+00
    0.00000E+00         0.00000E+00        -0.22393E+03
 
   -0.97175E+03        -0.30143E+03         0.00000E+00
   -0.30143E+03         0.16152E+03         0.00000E+00
    0.00000E+00         0.00000E+00        -0.24307E+03
 
   -0.10672E+04        -0.28956E+03         0.00000E+00
   -0.28956E+03         0.19480E+03         0.00000E+00
    0.00000E+00         0.00000E+00        -0.26173E+03
 
   -0.11561E+04        -0.26410E+03         0.00000E+00
   -0.26410E+03         0.22503E+03         0.00000E+00
    0.00000E+00         0.00000E+00        -0.27932E+03
 
   -0.12351E+04        -0.22627E+03         0.00000E+00
   -0.22627E+03         0.25068E+03         0.00000E+00
    0.00000E+00         0.00000E+00        -0.29533E+03
 
   -0.13012E+04        -0.17740E+03         0.00000E+00
   -0.17740E+03         0.27043E+03         0.00000E+00
    0.00000E+00         0.00000E+00        -0.30924E+03
 
   -0.13518E+04        -0.11895E+03         0.00000E+00
   -0.11895E+03         0.28317E+03         0.00000E+00
    0.00000E+00         0.00000E+00        -0.32060E+03
 
   -0.13846E+04        -0.52472E+02         0.00000E+00
   -0.52472E+02         0.28795E+03         0.00000E+00
    0.00000E+00         0.00000E+00        -0.32899E+03
 
   -0.13975E+04         0.20420E+02         0.00000E+00
    0.20420E+02         0.28401E+03         0.00000E+00
    0.00000E+00         0.00000E+00        -0.33405E+03
 
   -0.13890E+04         0.98046E+02         0.00000E+00
    0.98046E+02         0.27081E+03         0.00000E+00
    0.00000E+00         0.00000E+00        -0.33545E+03
 
   -0.13577E+04         0.17868E+03         0.00000E+00
    0.17868E+03         0.24795E+03         0.00000E+00
    0.00000E+00         0.00000E+00        -0.33293E+03
 
   -0.13027E+04         0.26054E+03         0.00000E+00
    0.26054E+03         0.21522E+03         0.00000E+00
    0.00000E+00         0.00000E+00        -0.32625E+03
 
   -0.12234E+04         0.34181E+03         0.00000E+00
    0.34181E+03         0.17260E+03         0.00000E+00
    0.00000E+00         0.00000E+00        -0.31524E+03
 
   -0.11195E+04         0.42059E+03         0.00000E+00
    0.42059E+03         0.12023E+03         0.00000E+00
    0.00000E+00         0.00000E+00        -0.29979E+03
 
   -0.99119E+03         0.49496E+03         0.00000E+00
    0.49496E+03         0.58423E+02         0.00000E+00
    0.00000E+00         0.00000E+00        -0.27983E+03
 
   -0.83889E+03         0.56289E+03         0.00000E+00
    0.56289E+03        -0.12288E+02         0.00000E+00
    0.00000E+00         0.00000E+00        -0.25535E+03
 
   -0.66350E+03         0.62231E+03         0.00000E+00
    0.62231E+03        -0.91185E+02         0.00000E+00
    0.00000E+00         0.00000E+00        -0.22641E+03
 
   -0.46634E+03         0.67106E+03         0.00000E+00
    0.67106E+03        -0.17733E+03         0.00000E+00
    0.00000E+00         0.00000E+00        -0.19310E+03
 
   -0.24918E+03         0.70691E+03         0.00000E+00
    0.70691E+03        -0.26953E+03         0.00000E+00
    0.00000E+00         0.00000E+00        -0.15561E+03
 
   -0.56284E+03        -0.41131E+02         0.00000E+00
   -0.41131E+02         0.22345E+01         0.00000E+00
    0.00000E+00         0.00000E+00        -0.16818E+03
 
   -0.60005E+03        -0.11352E+03         0.00000E+00
   -0.11352E+03         0.12941E+02         0.00000E+00
    0.00000E+00         0.00000E+00        -0.17613E+03
 
   -0.65482E+03        -0.17231E+03         0.00000E+00
   -0.17231E+03         0.32405E+02         0.00000E+00
    0.00000E+00         0.00000E+00        -0.18673E+03
 
   -0.72301E+03        -0.21706E+03         0.00000E+00
   -0.21706E+03         0.58537E+02         0.00000E+00
    0.00000E+00         0.00000E+00        -0.19934E+03
 
   -0.80052E+03        -0.24765E+03         0.00000E+00
   -0.24765E+03         0.89275E+02         0.00000E+00
    0.00000E+00         0.00000E+00        -0.21337E+03
 
   -0.88336E+03        -0.26426E+03         0.00000E+00
   -0.26426E+03         0.12262E+03         0.00000E+00
    0.00000E+00         0.00000E+00        -0.22822E+03
 
   -0.96770E+03        -0.26733E+03         0.00000E+00
   -0.26733E+03         0.15666E+03         0.00000E+00
    0.00000E+00         0.00000E+00        -0.24331E+03
 
   -0.10499E+04        -0.25754E+03         0.00000E+00
   -0.25754E+03         0.18964E+03         0.00000E+00
    0.00000E+00         0.00000E+00        -0.25808E+03
 
   -0.11265E+04        -0.23574E+03         0.00000E+00
   -0.23574E+03         0.21990E+03         0.00000E+00
    0.00000E+00         0.00000E+00        -0.27199E+03
 
   -0.11944E+04        -0.20297E+03         0.00000E+00
   -0.20297E+03         0.24598E+03         0.00000E+00
    0.00000E+00         0.00000E+00        -0.28454E+03
 
   -0.12508E+04        -0.16038E+03         0.00000E+00
   -0.16038E+03         0.26657E+03         0.00000E+00
    0.00000E+00         0.00000E+00        -0.29527E+03
 
   -0.12931E+04        -0.10925E+03         0.00000E+00
   -0.10925E+03         0.28055E+03         0.00000E+00
    0.00000E+00         0.00000E+00        -0.30376E+03
 
   -0.13190E+04        -0.50941E+02         0.00000E+00
   -0.50941E+02         0.28697E+03         0.00000E+00
    0.00000E+00         0.00000E+00        -0.30960E+03
 
   -0.13266E+04         0.13119E+02         0.00000E+00
    0.13119E+02         0.28508E+03         0.00000E+00
    0.00000E+00         0.00000E+00        -0.31246E+03
 
   -0.13144E+04         0.81431E+02         0.00000E+00
    0.81431E+02         0.27428E+03         0.00000E+00
    0.00000E+00         0.00000E+00        -0.31204E+03
 
   -0.12811E+04         0.15245E+03         0.00000E+00
    0.15245E+03         0.25419E+03         0.00000E+00
    0.00000E+00         0.00000E+00        -0.30808E+03
 
   -0.12258E+04         0.22457E+03         0.00000E+00
    0.22457E+03         0.22458E+03         0.00000E+00
    0.00000E+00         0.00000E+00        -0.30037E+03
 
   -0.11480E+04         0.29615E+03         0.00000E+00
    0.29615E+03         0.18541E+03         0.00000E+00
    0.00000E+00         0.00000E+00        -0.28876E+03
 
   -0.10474E+04         0.36549E+03         0.00000E+00
    0.36549E+03         0.13685E+03         0.00000E+00
    0.00000E+00         0.00000E+00        -0.27315E+03
 
   -0.92418E+03         0.43083E+03         0.00000E+00
    0.43083E+03         0.79217E+02         0.00000E+00
    0.00000E+00         0.00000E+00        -0.25349E+03
 
   -0.77898E+03         0.49038E+03         0.00000E+00
    0.49038E+03         0.13061E+02         0.00000E+00
    0.00000E+00         0.00000E+00        -0.22978E+03
 
   -0.61270E+03         0.54225E+03         0.00000E+00
    0.54225E+03        -0.60873E+02         0.00000E+00
    0.00000E+00         0.00000E+00        -0.20207E+03
 
   -0.42672E+03         0.58453E+03         0.00000E+00
    0.58453E+03        -0.14161E+03         0.00000E+00
    0.00000E+00         0.00000E+00        -0.17050E+03
 
   -0.22286E+03         0.61525E+03         0.00000E+00
    0.61525E+03        -0.22793E+03         0.00000E+00
    0.00000E+00         0.00000E+00        -0.13524E+03
 
   -0.63641E+03        -0.35579E+02         0.00000E+00
   -0.35579E+02         0.21285E+01         0.00000E+00
    0.00000E+00         0.00000E+00        -0.19029E+03
 
   -0.66140E+03        -0.98363E+02         0.00000E+00
   -0.98363E+02         0.12360E+02         0.00000E+00
    0.00000E+00         0.00000E+00        -0.19471E+03
 
   -0.70332E+03        -0.14956E+03         0.00000E+00
   -0.14956E+03         0.31037E+02         0.00000E+00
    0.00000E+00         0.00000E+00        -0.20169E+03
 
   -0.75838E+03        -0.18872E+03         0.00000E+00
   -0.18872E+03         0.56225E+02         0.00000E+00
    0.00000E+00         0.00000E+00        -0.21065E+03
 
   -0.82277E+03        -0.21570E+03         0.00000E+00
   -0.21570E+03         0.85991E+02         0.00000E+00
    0.00000E+00         0.00000E+00        -0.22103E+03
 
   -0.89276E+03        -0.23061E+03         0.00000E+00
   -0.23061E+03         0.11845E+03         0.00000E+00
    0.00000E+00         0.00000E+00        -0.23229E+03
 
   -0.96474E+03        -0.23378E+03         0.00000E+00
   -0.23378E+03         0.15179E+03         0.00000E+00
    0.00000E+00         0.00000E+00        -0.24389E+03
 
   -0.10353E+04        -0.22576E+03         0.00000E+00
   -0.22576E+03         0.18430E+03         0.00000E+00
    0.00000E+00         0.00000E+00        -0.25529E+03
 
   -0.11011E+04        -0.20728E+03         0.00000E+00
   -0.20728E+03         0.21441E+03         0.00000E+00
    0.00000E+00         0.00000E+00        -0.26602E+03
 
   -0.11593E+04        -0.17919E+03         0.00000E+00
   -0.17919E+03         0.24066E+03         0.00000E+00
    0.00000E+00         0.00000E+00        -0.27559E+03
 
   -0.12070E+04        -0.14250E+03         0.00000E+00
   -0.14250E+03         0.26178E+03         0.00000E+00
    0.00000E+00         0.00000E+00        -0.28358E+03
 
   -0.12419E+04        -0.98306E+02         0.00000E+00
   -0.98306E+02         0.27665E+03         0.00000E+00
    0.00000E+00         0.00000E+00        -0.28957E+03
 
   -0.12617E+04        -0.47782E+02         0.00000E+00
   -0.47782E+02         0.28433E+03         0.00000E+00
    0.00000E+00         0.00000E+00        -0.29322E+03
 
   -0.12646E+04         0.78132E+01         0.00000E+00
    0.78132E+01         0.28404E+03         0.00000E+00
    0.00000E+00         0.00000E+00        -0.29418E+03
 
   -0.12491E+04         0.67167E+02         0.00000E+00
    0.67167E+02         0.27521E+03         0.00000E+00
    0.00000E+00         0.00000E+00        -0.29218E+03
 
   -0.12140E+04         0.12891E+03         0.00000E+00
    0.12891E+03         0.25741E+03         0.00000E+00
    0.00000E+00         0.00000E+00        -0.28699E+03
 
   -0.11585E+04         0.19163E+03         0.00000E+00
    0.19163E+03         0.23043E+03         0.00000E+00
    0.00000E+00         0.00000E+00        -0.27842E+03
 
   -0.10819E+04         0.25386E+03         0.00000E+00
    0.25386E+03         0.19423E+03         0.00000E+00
    0.00000E+00         0.00000E+00        -0.26631E+03
 
   -0.98428E+03         0.31410E+03         0.00000E+00
    0.31410E+03         0.14896E+03         0.00000E+00
    0.00000E+00         0.00000E+00        -0.25060E+03
 
   -0.86572E+03         0.37080E+03         0.00000E+00
    0.37080E+03         0.94975E+02         0.00000E+00
    0.00000E+00         0.00000E+00        -0.23122E+03
 
   -0.72686E+03         0.42233E+03         0.00000E+00
    0.42233E+03         0.32827E+02         0.00000E+00
    0.00000E+00         0.00000E+00        -0.20821E+03
 
   -0.56871E+03         0.46708E+03         0.00000E+00
    0.46708E+03        -0.36717E+02         0.00000E+00
    0.00000E+00         0.00000E+00        -0.18163E+03
 
   -0.39270E+03         0.50333E+03         0.00000E+00
    0.50333E+03        -0.11266E+03         0.00000E+00
    0.00000E+00         0.00000E+00        -0.15161E+03
 
   -0.20066E+03         0.52936E+03         0.00000E+00
    0.52936E+03        -0.19377E+03         0.00000E+00
    0.00000E+00         0.00000E+00        -0.11833E+03
 
   -0.69963E+03        -0.30283E+02         0.00000E+00
   -0.30283E+02         0.20321E+01         0.00000E+00
    0.00000E+00         0.00000E+00        -0.20928E+03
 
   -0.71429E+03        -0.83847E+02         0.00000E+00
   -0.83847E+02         0.11829E+02         0.00000E+00
    0.00000E+00         0.00000E+00        -0.21074E+03
 
   -0.74532E+03        -0.12768E+03         0.00000E+00
   -0.12768E+03         0.29779E+02         0.00000E+00
    0.00000E+00         0.00000E+00        -0.21466E+03
 
   -0.78917E+03        -0.16135E+03         0.00000E+00
   -0.16135E+03         0.54078E+02         0.00000E+00
    0.00000E+00         0.00000E+00        -0.22053E+03
 
   -0.84232E+03        -0.18470E+03         0.00000E+00
   -0.18470E+03         0.82915E+02         0.00000E+00
    0.00000E+00         0.00000E+00        -0.22782E+03
 
   -0.90127E+03        -0.19778E+03         0.00000E+00
   -0.19778E+03         0.11450E+03         0.00000E+00
    0.00000E+00         0.00000E+00        -0.23603E+03
 
   -0.96262E+03        -0.20085E+03         0.00000E+00
   -0.20085E+03         0.14710E+03         0.00000E+00
    0.00000E+00         0.00000E+00        -0.24465E+03
 
   -0.10231E+04        -0.19436E+03         0.00000E+00
   -0.19436E+03         0.17908E+03         0.00000E+00
    0.00000E+00         0.00000E+00        -0.25320E+03
 
   -0.10796E+04        -0.17889E+03         0.00000E+00
   -0.17889E+03         0.20890E+03         0.00000E+00
    0.00000E+00         0.00000E+00        -0.26121E+03
 
   -0.11293E+04        -0.15518E+03         0.00000E+00
   -0.15518E+03         0.23515E+03         0.00000E+00
    0.00000E+00         0.00000E+00        -0.26825E+03
 
   -0.11695E+04        -0.12405E+03         0.00000E+00
   -0.12405E+03         0.25657E+03         0.00000E+00
    0.00000E+00         0.00000E+00        -0.27389E+03
 
   -0.11979E+04        -0.86442E+02         0.00000E+00
   -0.86442E+02         0.27206E+03         0.00000E+00
    0.00000E+00         0.00000E+00        -0.27776E+03
 
   -0.12124E+04        -0.43366E+02         0.00000E+00
   -0.43366E+02         0.28068E+03         0.00000E+00
    0.00000E+00         0.00000E+00        -0.27952E+03
 
   -0.12112E+04         0.41009E+01         0.00000E+00
    0.41009E+01         0.28165E+03         0.00000E+00
    0.00000E+00         0.00000E+00        -0.27887E+03
 
   -0.11929E+04         0.54825E+02         0.00000E+00
    0.54825E+02         0.27439E+03         0.00000E+00
    0.00000E+00         0.00000E+00        -0.27554E+03
 
   -0.11562E+04         0.10762E+03         0.00000E+00
    0.10762E+03         0.25848E+03         0.00000E+00
    0.00000E+00         0.00000E+00        -0.26931E+03
 
   -0.11004E+04         0.16126E+03         0.00000E+00
    0.16126E+03         0.23370E+03         0.00000E+00
    0.00000E+00         0.00000E+00        -0.26001E+03
 
   -0.10250E+04         0.21447E+03         0.00000E+00
    0.21447E+03         0.20000E+03         0.00000E+00
    0.00000E+00         0.00000E+00        -0.24750E+03
 
   -0.92993E+03         0.26594E+03         0.00000E+00
    0.26594E+03         0.15755E+03         0.00000E+00
    0.00000E+00         0.00000E+00        -0.23171E+03
 
   -0.81543E+03         0.31432E+03         0.00000E+00
    0.31432E+03         0.10671E+03         0.00000E+00
    0.00000E+00         0.00000E+00        -0.21262E+03
 
   -0.68216E+03         0.35821E+03         0.00000E+00
    0.35821E+03         0.48033E+02         0.00000E+00
    0.00000E+00         0.00000E+00        -0.19024E+03
 
   -0.53115E+03         0.39619E+03         0.00000E+00
    0.39619E+03        -0.17690E+02         0.00000E+00
    0.00000E+00         0.00000E+00        -0.16465E+03
 
   -0.36386E+03         0.42680E+03         0.00000E+00
    0.42680E+03        -0.89452E+02         0.00000E+00
    0.00000E+00         0.00000E+00        -0.13599E+03
 
   -0.18217E+03         0.44856E+03         0.00000E+00
    0.44856E+03        -0.16601E+03         0.00000E+00
    0.00000E+00         0.00000E+00        -0.10446E+03
 
   -0.75294E+03        -0.25216E+02         0.00000E+00
   -0.25216E+02         0.19468E+01         0.00000E+00
    0.00000E+00         0.00000E+00        -0.22530E+03
 
   -0.75903E+03        -0.69909E+02         0.00000E+00
   -0.69909E+02         0.11358E+02         0.00000E+00
    0.00000E+00         0.00000E+00        -0.22430E+03
 
   -0.78096E+03        -0.10659E+03         0.00000E+00
   -0.10659E+03         0.28654E+02         0.00000E+00
    0.00000E+00         0.00000E+00        -0.22569E+03
 
   -0.81543E+03        -0.13487E+03         0.00000E+00
   -0.13487E+03         0.52150E+02         0.00000E+00
    0.00000E+00         0.00000E+00        -0.22898E+03
 
   -0.85914E+03        -0.15458E+03         0.00000E+00
   -0.15458E+03         0.80130E+02         0.00000E+00
    0.00000E+00         0.00000E+00        -0.23370E+03
 
   -0.90878E+03        -0.16576E+03         0.00000E+00
   -0.16576E+03         0.11089E+03         0.00000E+00
    0.00000E+00         0.00000E+00        -0.23937E+03
 
   -0.96113E+03        -0.16858E+03         0.00000E+00
   -0.16858E+03         0.14278E+03         0.00000E+00
    0.00000E+00         0.00000E+00        -0.24551E+03
 
   -0.10131E+04        -0.16341E+03         0.00000E+00
   -0.16341E+03         0.17420E+03         0.00000E+00
    0.00000E+00         0.00000E+00        -0.25166E+03
 
   -0.10617E+04        -0.15071E+03         0.00000E+00
   -0.15071E+03         0.20366E+03         0.00000E+00
    0.00000E+00         0.00000E+00        -0.25740E+03
 
   -0.11041E+04        -0.13109E+03         0.00000E+00
   -0.13109E+03         0.22980E+03         0.00000E+00
    0.00000E+00         0.00000E+00        -0.26230E+03
 
   -0.11380E+04        -0.10524E+03         0.00000E+00
   -0.10524E+03         0.25137E+03         0.00000E+00
    0.00000E+00         0.00000E+00        -0.26598E+03
 
   -0.11609E+04        -0.73921E+02         0.00000E+00
   -0.73921E+02         0.26727E+03         0.00000E+00
    0.00000E+00         0.00000E+00        -0.26807E+03
 
   -0.11708E+04        -0.37992E+02         0.00000E+00
   -0.37992E+02         0.27658E+03         0.00000E+00
    0.00000E+00         0.00000E+00        -0.26826E+03
 
   -0.11661E+04         0.16461E+01         0.00000E+00
    0.16461E+01         0.27852E+03         0.00000E+00
    0.00000E+00         0.00000E+00        -0.26626E+03
 
   -0.11452E+04         0.44037E+02         0.00000E+00
    0.44037E+02         0.27251E+03         0.00000E+00
    0.00000E+00         0.00000E+00        -0.26181E+03
 
   -0.11072E+04         0.88180E+02         0.00000E+00
    0.88180E+02         0.25813E+03         0.00000E+00
    0.00000E+00         0.00000E+00        -0.25472E+03
 
   -0.10512E+04         0.13303E+03         0.00000E+00
    0.13303E+03         0.23515E+03         0.00000E+00
    0.00000E+00         0.00000E+00        -0.24482E+03
 
   -0.97683E+03         0.17752E+03         0.00000E+00
    0.17752E+03         0.20354E+03         0.00000E+00
    0.00000E+00         0.00000E+00        -0.23199E+03
 
   -0.88399E+03         0.22052E+03         0.00000E+00
    0.22052E+03         0.16346E+03         0.00000E+00
    0.00000E+00         0.00000E+00        -0.21616E+03
 
   -0.77299E+03         0.26090E+03         0.00000E+00
    0.26090E+03         0.11527E+03         0.00000E+00
    0.00000E+00         0.00000E+00        -0.19732E+03
 
   -0.64452E+03         0.29746E+03         0.00000E+00
    0.29746E+03         0.59543E+02         0.00000E+00
    0.00000E+00         0.00000E+00        -0.17549E+03
 
   -0.49964E+03         0.32902E+03         0.00000E+00
    0.32902E+03        -0.29216E+01         0.00000E+00
    0.00000E+00         0.00000E+00        -0.15077E+03
 
   -0.33984E+03         0.35433E+03         0.00000E+00
    0.35433E+03        -0.71111E+02         0.00000E+00
    0.00000E+00         0.00000E+00        -0.12329E+03
 
   -0.16701E+03         0.37215E+03         0.00000E+00
    0.37215E+03        -0.14378E+03         0.00000E+00
    0.00000E+00         0.00000E+00        -0.93235E+02
 
   -0.79674E+03        -0.20349E+02         0.00000E+00
   -0.20349E+02         0.18739E+01         0.00000E+00
    0.00000E+00         0.00000E+00        -0.23846E+03
 
   -0.79588E+03        -0.56477E+02         0.00000E+00
   -0.56477E+02         0.10953E+02         0.00000E+00
    0.00000E+00         0.00000E+00        -0.23548E+03
 
   -0.81040E+03        -0.86198E+02         0.00000E+00
   -0.86198E+02         0.27686E+02         0.00000E+00
    0.00000E+00         0.00000E+00        -0.23481E+03
 
   -0.83721E+03        -0.10918E+03         0.00000E+00
   -0.10918E+03         0.50481E+02         0.00000E+00
    0.00000E+00         0.00000E+00        -0.23602E+03
 
   -0.87318E+03        -0.12528E+03         0.00000E+00
   -0.12528E+03         0.77707E+02         0.00000E+00
    0.00000E+00         0.00000E+00        -0.23864E+03
 
   -0.91517E+03        -0.13448E+03         0.00000E+00
   -0.13448E+03         0.10773E+03         0.00000E+00
    0.00000E+00         0.00000E+00        -0.24223E+03
 
   -0.96011E+03        -0.13694E+03         0.00000E+00
   -0.13694E+03         0.13896E+03         0.00000E+00
    0.00000E+00         0.00000E+00        -0.24635E+03
 
   -0.10050E+04        -0.13292E+03         0.00000E+00
   -0.13292E+03         0.16985E+03         0.00000E+00
    0.00000E+00         0.00000E+00        -0.25055E+03
 
   -0.10471E+04        -0.12279E+03         0.00000E+00
   -0.12279E+03         0.19895E+03         0.00000E+00
    0.00000E+00         0.00000E+00        -0.25443E+03
 
   -0.10836E+04        -0.10704E+03         0.00000E+00
   -0.10704E+03         0.22491E+03         0.00000E+00
    0.00000E+00         0.00000E+00        -0.25759E+03
 
   -0.11121E+04        -0.86215E+02         0.00000E+00
   -0.86215E+02         0.24652E+03         0.00000E+00
    0.00000E+00         0.00000E+00        -0.25966E+03
 
   -0.11304E+04        -0.60940E+02         0.00000E+00
   -0.60940E+02         0.26269E+03         0.00000E+00
    0.00000E+00         0.00000E+00        -0.26031E+03
 
   -0.11365E+04        -0.31900E+02         0.00000E+00
   -0.31900E+02         0.27250E+03         0.00000E+00
    0.00000E+00         0.00000E+00        -0.25921E+03
 
   -0.11289E+04         0.16742E+00         0.00000E+00
    0.16742E+00         0.27517E+03         0.00000E+00
    0.00000E+00         0.00000E+00        -0.25611E+03
 
   -0.11060E+04         0.34484E+02         0.00000E+00
    0.34484E+02         0.27013E+03         0.00000E+00
    0.00000E+00         0.00000E+00        -0.25075E+03
 
   -0.10668E+04         0.70232E+02         0.00000E+00
    0.70232E+02         0.25696E+03         0.00000E+00
    0.00000E+00         0.00000E+00        -0.24296E+03
 
   -0.10107E+04         0.10656E+03         0.00000E+00
    0.10656E+03         0.23544E+03         0.00000E+00
    0.00000E+00         0.00000E+00        -0.23257E+03
 
   -0.93714E+03         0.14258E+03         0.00000E+00
    0.14258E+03         0.20552E+03         0.00000E+00
    0.00000E+00         0.00000E+00        -0.21949E+03
 
   -0.84617E+03         0.17738E+03         0.00000E+00
    0.17738E+03         0.16737E+03         0.00000E+00
    0.00000E+00         0.00000E+00        -0.20364E+03
 
   -0.73810E+03         0.21003E+03         0.00000E+00
    0.21003E+03         0.12136E+03         0.00000E+00
    0.00000E+00         0.00000E+00        -0.18502E+03
 
   -0.61364E+03         0.23955E+03         0.00000E+00
    0.23955E+03         0.68080E+02         0.00000E+00
    0.00000E+00         0.00000E+00        -0.16367E+03
 
   -0.47388E+03         0.26496E+03         0.00000E+00
    0.26496E+03         0.83165E+01         0.00000E+00
    0.00000E+00         0.00000E+00        -0.13967E+03
 
   -0.32031E+03         0.28527E+03         0.00000E+00
    0.28527E+03        -0.56906E+02         0.00000E+00
    0.00000E+00         0.00000E+00        -0.11317E+03
 
   -0.15485E+03         0.29946E+03         0.00000E+00
    0.29946E+03        -0.12634E+03         0.00000E+00
    0.00000E+00         0.00000E+00        -0.84355E+02
 
   -0.83135E+03        -0.15649E+02         0.00000E+00
   -0.15649E+02         0.18144E+01         0.00000E+00
    0.00000E+00         0.00000E+00        -0.24886E+03
 
   -0.82507E+03        -0.43471E+02         0.00000E+00
   -0.43471E+02         0.10622E+02         0.00000E+00
    0.00000E+00         0.00000E+00        -0.24433E+03
 
   -0.83377E+03        -0.66404E+02         0.00000E+00
   -0.66404E+02         0.26891E+02         0.00000E+00
    0.00000E+00         0.00000E+00        -0.24206E+03
 
   -0.85455E+03        -0.84182E+02         0.00000E+00
   -0.84182E+02         0.49106E+02         0.00000E+00
    0.00000E+00         0.00000E+00        -0.24163E+03
 
   -0.88442E+03        -0.96672E+02         0.00000E+00
   -0.96672E+02         0.75704E+02         0.00000E+00
    0.00000E+00         0.00000E+00        -0.24261E+03
 
   -0.92037E+03        -0.10387E+03         0.00000E+00
   -0.10387E+03         0.10511E+03         0.00000E+00
    0.00000E+00         0.00000E+00        -0.24458E+03
 
   -0.95944E+03        -0.10586E+03         0.00000E+00
   -0.10586E+03         0.13577E+03         0.00000E+00
    0.00000E+00         0.00000E+00        -0.24710E+03
 
   -0.99877E+03        -0.10286E+03         0.00000E+00
   -0.10286E+03         0.16620E+03         0.00000E+00
    0.00000E+00         0.00000E+00        -0.24977E+03
 
   -0.10356E+04        -0.95151E+02         0.00000E+00
   -0.95151E+02         0.19496E+03         0.00000E+00
    0.00000E+00         0.00000E+00        -0.25219E+03
 
   -0.10673E+04        -0.83085E+02         0.00000E+00
   -0.83085E+02         0.22073E+03         0.00000E+00
    0.00000E+00         0.00000E+00        -0.25398E+03
 
   -0.10916E+04        -0.67090E+02         0.00000E+00
   -0.67090E+02         0.24231E+03         0.00000E+00
    0.00000E+00         0.00000E+00        -0.25479E+03
 
   -0.11063E+04        -0.47647E+02         0.00000E+00
   -0.47647E+02         0.25864E+03         0.00000E+00
    0.00000E+00         0.00000E+00        -0.25429E+03
 
   -0.11094E+04        -0.25285E+02         0.00000E+00
   -0.25285E+02         0.26880E+03         0.00000E+00
    0.00000E+00         0.00000E+00        -0.25219E+03
 
   -0.10994E+04        -0.57127E+00         0.00000E+00
   -0.57127E+00         0.27201E+03         0.00000E+00
    0.00000E+00         0.00000E+00        -0.24822E+03
 
   -0.10749E+04         0.25889E+02         0.00000E+00
    0.25889E+02         0.26771E+03         0.00000E+00
    0.00000E+00         0.00000E+00        -0.24215E+03
 
   -0.10348E+04         0.53459E+02         0.00000E+00
    0.53459E+02         0.25547E+03         0.00000E+00
    0.00000E+00         0.00000E+00        -0.23381E+03
 
   -0.97856E+03         0.81478E+02         0.00000E+00
    0.81478E+02         0.23506E+03         0.00000E+00
    0.00000E+00         0.00000E+00        -0.22305E+03
 
   -0.90570E+03         0.10926E+03         0.00000E+00
    0.10926E+03         0.20647E+03         0.00000E+00
    0.00000E+00         0.00000E+00        -0.20977E+03
 
   -0.81623E+03         0.13608E+03         0.00000E+00
    0.13608E+03         0.16985E+03         0.00000E+00
    0.00000E+00         0.00000E+00        -0.19391E+03
 
   -0.71050E+03         0.16123E+03         0.00000E+00
    0.16123E+03         0.12557E+03         0.00000E+00
    0.00000E+00         0.00000E+00        -0.17548E+03
 
   -0.58925E+03         0.18394E+03         0.00000E+00
    0.18394E+03         0.74228E+02         0.00000E+00
    0.00000E+00         0.00000E+00        -0.15451E+03
 
   -0.45359E+03         0.20345E+03         0.00000E+00
    0.20345E+03         0.16616E+02         0.00000E+00
    0.00000E+00         0.00000E+00        -0.13109E+03
 
   -0.30501E+03         0.21900E+03         0.00000E+00
    0.21900E+03        -0.46240E+02         0.00000E+00
    0.00000E+00         0.00000E+00        -0.10538E+03
 
   -0.14543E+03         0.22978E+03         0.00000E+00
    0.22978E+03        -0.11309E+03         0.00000E+00
    0.00000E+00         0.00000E+00        -0.77556E+02
 
   -0.85707E+03        -0.11082E+02         0.00000E+00
   -0.11082E+02         0.17691E+01         0.00000E+00
    0.00000E+00         0.00000E+00        -0.25659E+03
 
   -0.84678E+03        -0.30804E+02         0.00000E+00
   -0.30804E+02         0.10370E+02         0.00000E+00
    0.00000E+00         0.00000E+00        -0.25092E+03
 
   -0.85119E+03        -0.47085E+02         0.00000E+00
   -0.47085E+02         0.26284E+02         0.00000E+00
    0.00000E+00         0.00000E+00        -0.24747E+03
 
   -0.86751E+03        -0.59727E+02         0.00000E+00
   -0.59727E+02         0.48052E+02         0.00000E+00
    0.00000E+00         0.00000E+00        -0.24584E+03
 
   -0.89285E+03        -0.68633E+02         0.00000E+00
   -0.68633E+02         0.74163E+02         0.00000E+00
    0.00000E+00         0.00000E+00        -0.24561E+03
 
   -0.92431E+03        -0.73788E+02         0.00000E+00
   -0.73788E+02         0.10309E+03         0.00000E+00
    0.00000E+00         0.00000E+00        -0.24637E+03
 
   -0.95902E+03        -0.75260E+02         0.00000E+00
   -0.75260E+02         0.13330E+03         0.00000E+00
    0.00000E+00         0.00000E+00        -0.24772E+03
 
   -0.99419E+03        -0.73184E+02         0.00000E+00
   -0.73184E+02         0.16335E+03         0.00000E+00
    0.00000E+00         0.00000E+00        -0.24925E+03
 
   -0.10271E+04        -0.67761E+02         0.00000E+00
   -0.67761E+02         0.19183E+03         0.00000E+00
    0.00000E+00         0.00000E+00        -0.25059E+03
 
   -0.10553E+04        -0.59241E+02         0.00000E+00
   -0.59241E+02         0.21743E+03         0.00000E+00
    0.00000E+00         0.00000E+00        -0.25137E+03
 
   -0.10765E+04        -0.47925E+02         0.00000E+00
   -0.47925E+02         0.23897E+03         0.00000E+00
    0.00000E+00         0.00000E+00        -0.25124E+03
 
   -0.10884E+04        -0.34153E+02         0.00000E+00
   -0.34153E+02         0.25539E+03         0.00000E+00
    0.00000E+00         0.00000E+00        -0.24990E+03
 
   -0.10893E+04        -0.18300E+02         0.00000E+00
   -0.18300E+02         0.26578E+03         0.00000E+00
    0.00000E+00         0.00000E+00        -0.24704E+03
 
   -0.10775E+04        -0.77051E+00         0.00000E+00
   -0.77051E+00         0.26937E+03         0.00000E+00
    0.00000E+00         0.00000E+00        -0.24243E+03
 
   -0.10517E+04         0.18005E+02         0.00000E+00
    0.18005E+02         0.26559E+03         0.00000E+00
    0.00000E+00         0.00000E+00        -0.23584E+03
 
   -0.10110E+04         0.37572E+02         0.00000E+00
    0.37572E+02         0.25402E+03         0.00000E+00
    0.00000E+00         0.00000E+00        -0.22710E+03
 
   -0.95465E+03         0.57457E+02         0.00000E+00
    0.57457E+02         0.23444E+03         0.00000E+00
    0.00000E+00         0.00000E+00        -0.21606E+03
 
   -0.88230E+03         0.77170E+02         0.00000E+00
    0.77170E+02         0.20682E+03         0.00000E+00
    0.00000E+00         0.00000E+00        -0.20264E+03
 
   -0.79395E+03         0.96201E+02         0.00000E+00
    0.96201E+02         0.17133E+03         0.00000E+00
    0.00000E+00         0.00000E+00        -0.18679E+03
 
   -0.68999E+03         0.11403E+03         0.00000E+00
    0.11403E+03         0.12834E+03         0.00000E+00
    0.00000E+00         0.00000E+00        -0.16849E+03
 
   -0.57116E+03         0.13012E+03         0.00000E+00
    0.13012E+03         0.78446E+02         0.00000E+00
    0.00000E+00         0.00000E+00        -0.14781E+03
 
   -0.43856E+03         0.14392E+03         0.00000E+00
    0.14392E+03         0.22443E+02         0.00000E+00
    0.00000E+00         0.00000E+00        -0.12484E+03
 
   -0.29373E+03         0.15488E+03         0.00000E+00
    0.15488E+03        -0.38643E+02         0.00000E+00
    0.00000E+00         0.00000E+00        -0.99711E+02
 
   -0.13855E+03         0.16246E+03         0.00000E+00
    0.16246E+03        -0.10356E+03         0.00000E+00
    0.00000E+00         0.00000E+00        -0.72633E+02
 
   -0.87409E+03        -0.66105E+01         0.00000E+00
   -0.66105E+01         0.17386E+01         0.00000E+00
    0.00000E+00         0.00000E+00        -0.26171E+03
 
   -0.86117E+03        -0.18383E+02         0.00000E+00
   -0.18383E+02         0.10199E+02         0.00000E+00
    0.00000E+00         0.00000E+00        -0.25529E+03
 
   -0.86276E+03        -0.28111E+02         0.00000E+00
   -0.28111E+02         0.25873E+02         0.00000E+00
    0.00000E+00         0.00000E+00        -0.25107E+03
 
   -0.87612E+03        -0.35674E+02         0.00000E+00
   -0.35674E+02         0.47339E+02         0.00000E+00
    0.00000E+00         0.00000E+00        -0.24864E+03
 
   -0.89847E+03        -0.41010E+02         0.00000E+00
   -0.41010E+02         0.73118E+02         0.00000E+00
    0.00000E+00         0.00000E+00        -0.24761E+03
 
   -0.92696E+03        -0.44109E+02         0.00000E+00
   -0.44109E+02         0.10171E+03         0.00000E+00
    0.00000E+00         0.00000E+00        -0.24757E+03
 
   -0.95878E+03        -0.45010E+02         0.00000E+00
   -0.45010E+02         0.13162E+03         0.00000E+00
    0.00000E+00         0.00000E+00        -0.24815E+03
 
   -0.99119E+03        -0.43791E+02         0.00000E+00
   -0.43791E+02         0.16141E+03         0.00000E+00
    0.00000E+00         0.00000E+00        -0.24893E+03
 
   -0.10216E+04        -0.40571E+02         0.00000E+00
   -0.40571E+02         0.18968E+03         0.00000E+00
    0.00000E+00         0.00000E+00        -0.24956E+03
 
   -0.10474E+04        -0.35498E+02         0.00000E+00
   -0.35498E+02         0.21516E+03         0.00000E+00
    0.00000E+00         0.00000E+00        -0.24967E+03
 
   -0.10664E+04        -0.28752E+02         0.00000E+00
   -0.28752E+02         0.23665E+03         0.00000E+00
    0.00000E+00         0.00000E+00        -0.24893E+03
 
   -0.10765E+04        -0.20535E+02         0.00000E+00
   -0.20535E+02         0.25312E+03         0.00000E+00
    0.00000E+00         0.00000E+00        -0.24702E+03
 
   -0.10759E+04        -0.11072E+02         0.00000E+00
   -0.11072E+02         0.26365E+03         0.00000E+00
    0.00000E+00         0.00000E+00        -0.24367E+03
 
   -0.10629E+04        -0.60350E+00         0.00000E+00
   -0.60350E+00         0.26748E+03         0.00000E+00
    0.00000E+00         0.00000E+00        -0.23864E+03
 
   -0.10364E+04         0.10611E+02         0.00000E+00
    0.10611E+02         0.26403E+03         0.00000E+00
    0.00000E+00         0.00000E+00        -0.23170E+03
 
   -0.99522E+03         0.22301E+02         0.00000E+00
    0.22301E+02         0.25290E+03         0.00000E+00
    0.00000E+00         0.00000E+00        -0.22269E+03
 
   -0.93880E+03         0.34181E+02         0.00000E+00
    0.34181E+02         0.23386E+03         0.00000E+00
    0.00000E+00         0.00000E+00        -0.21148E+03
 
   -0.86678E+03         0.45956E+02         0.00000E+00
    0.45956E+02         0.20689E+03         0.00000E+00
    0.00000E+00         0.00000E+00        -0.19797E+03
 
   -0.77919E+03         0.57322E+02         0.00000E+00
    0.57322E+02         0.17214E+03         0.00000E+00
    0.00000E+00         0.00000E+00        -0.18211E+03
 
   -0.67641E+03         0.67964E+02         0.00000E+00
    0.67964E+02         0.13001E+03         0.00000E+00
    0.00000E+00         0.00000E+00        -0.16392E+03
 
   -0.55918E+03         0.77563E+02         0.00000E+00
    0.77563E+02         0.81073E+02         0.00000E+00
    0.00000E+00         0.00000E+00        -0.14343E+03
 
   -0.42864E+03         0.85790E+02         0.00000E+00
    0.85790E+02         0.26139E+02         0.00000E+00
    0.00000E+00         0.00000E+00        -0.12075E+03
 
   -0.28629E+03         0.92315E+02         0.00000E+00
    0.92315E+02        -0.33769E+02         0.00000E+00
    0.00000E+00         0.00000E+00        -0.96018E+02
 
   -0.13404E+03         0.96807E+02         0.00000E+00
    0.96807E+02        -0.97405E+02         0.00000E+00
    0.00000E+00         0.00000E+00        -0.69435E+02
 
   -0.88257E+03        -0.21970E+01         0.00000E+00
   -0.21970E+01         0.17233E+01         0.00000E+00
    0.00000E+00         0.00000E+00        -0.26425E+03
 
   -0.86835E+03        -0.61111E+01         0.00000E+00
   -0.61111E+01         0.10114E+02         0.00000E+00
    0.00000E+00         0.00000E+00        -0.25747E+03
 
   -0.86852E+03        -0.93468E+01         0.00000E+00
   -0.93468E+01         0.25666E+02         0.00000E+00
    0.00000E+00         0.00000E+00        -0.25286E+03
 
   -0.88042E+03        -0.11864E+02         0.00000E+00
   -0.11864E+02         0.46979E+02         0.00000E+00
    0.00000E+00         0.00000E+00        -0.25003E+03
 
   -0.90128E+03        -0.13641E+02         0.00000E+00
   -0.13641E+02         0.72590E+02         0.00000E+00
    0.00000E+00         0.00000E+00        -0.24861E+03
 
   -0.92829E+03        -0.14675E+02         0.00000E+00
   -0.14675E+02         0.10101E+03         0.00000E+00
    0.00000E+00         0.00000E+00        -0.24818E+03
 
   -0.95867E+03        -0.14979E+02         0.00000E+00
   -0.14979E+02         0.13077E+03         0.00000E+00
    0.00000E+00         0.00000E+00        -0.24837E+03
 
   -0.98970E+03        -0.14577E+02         0.00000E+00
   -0.14577E+02         0.16042E+03         0.00000E+00
    0.00000E+00         0.00000E+00        -0.24878E+03
 
   -0.10188E+04        -0.13509E+02         0.00000E+00
   -0.13509E+02         0.18859E+03         0.00000E+00
    0.00000E+00         0.00000E+00        -0.24906E+03
 
   -0.10434E+04        -0.11825E+02         0.00000E+00
   -0.11825E+02         0.21400E+03         0.00000E+00
    0.00000E+00         0.00000E+00        -0.24883E+03
 
   -0.10614E+04        -0.95832E+01         0.00000E+00
   -0.95832E+01         0.23547E+03         0.00000E+00
    0.00000E+00         0.00000E+00        -0.24778E+03
 
   -0.10706E+04        -0.68520E+01         0.00000E+00
   -0.68520E+01         0.25195E+03         0.00000E+00
    0.00000E+00         0.00000E+00        -0.24560E+03
 
   -0.10692E+04        -0.37055E+01         0.00000E+00
   -0.37055E+01         0.26255E+03         0.00000E+00
    0.00000E+00         0.00000E+00        -0.24201E+03
 
   -0.10557E+04        -0.22432E+00         0.00000E+00
   -0.22432E+00         0.26649E+03         0.00000E+00
    0.00000E+00         0.00000E+00        -0.23676E+03
 
   -0.10287E+04         0.35055E+01         0.00000E+00
    0.35055E+01         0.26321E+03         0.00000E+00
    0.00000E+00         0.00000E+00        -0.22965E+03
 
   -0.98735E+03         0.73935E+01         0.00000E+00
    0.73935E+01         0.25230E+03         0.00000E+00
    0.00000E+00         0.00000E+00        -0.22051E+03
 
   -0.93089E+03         0.11345E+02         0.00000E+00
    0.11345E+02         0.23353E+03         0.00000E+00
    0.00000E+00         0.00000E+00        -0.20921E+03
 
   -0.85905E+03         0.15261E+02         0.00000E+00
    0.15261E+02         0.20687E+03         0.00000E+00
    0.00000E+00         0.00000E+00        -0.19565E+03
 
   -0.77184E+03         0.19041E+02         0.00000E+00
    0.19041E+02         0.17250E+03         0.00000E+00
    0.00000E+00         0.00000E+00        -0.17980E+03
 
   -0.66964E+03         0.22580E+02         0.00000E+00
    0.22580E+02         0.13079E+03         0.00000E+00
    0.00000E+00         0.00000E+00        -0.16166E+03
 
   -0.55322E+03         0.25770E+02         0.00000E+00
    0.25770E+02         0.82331E+02         0.00000E+00
    0.00000E+00         0.00000E+00        -0.14127E+03
 
   -0.42370E+03         0.28503E+02         0.00000E+00
    0.28503E+02         0.27931E+02         0.00000E+00
    0.00000E+00         0.00000E+00        -0.11873E+03
 
   -0.28260E+03         0.30669E+02         0.00000E+00
    0.30669E+02        -0.31389E+02         0.00000E+00
    0.00000E+00         0.00000E+00        -0.94196E+02
 
   -0.13182E+03         0.32158E+02         0.00000E+00
    0.32158E+02        -0.94383E+02         0.00000E+00
    0.00000E+00         0.00000E+00        -0.67860E+02
 
SCALARS stresss double 
LOOKUP_TABLE default
  -73065.3235689566     
  -56799.6379260709     
  -44044.9589065964     
  -35254.7482806801     
  -29142.5553799973     
  -24756.7235034935     
  -21519.2330533644     
  -19071.7729868367     
  -17186.7471157128     
  -15714.8227268799     
  -14555.1396015016     
  -13637.8276080294     
  -12913.4708648558     
  -12346.5666673646     
  -11911.3567745179     
  -11589.1101419283     
  -11366.3210746727     
  -11233.5027364797     
  -11184.3809430419     
  -11215.3677606787     
  -11325.2405538408     
  -11514.9819494373     
  -11787.7567445692     
  -12149.0173716040     
  -71021.9224136751     
  -51280.4629758975     
  -40161.7113569262     
  -32800.6841652527     
  -27547.6109647607     
  -23686.3837838671     
  -20774.9482303526     
  -18537.0998153021     
  -16791.0211712613     
  -15413.8153677381     
  -14320.2554348733     
  -13450.0089041164     
  -12759.6427783126     
  -12217.5033022009     
  -11800.3611938734     
  -11491.1737067888     
  -11277.5718172706     
  -11150.8314562247     
  -11105.1778757518     
  -11137.3278858109     
  -11246.2101606310     
  -11432.8274144050     
  -11700.2409580698     
  -12053.6711271561     
  -53304.7350831747     
  -39785.4484420193     
  -33263.0880348073     
  -28402.0933308350     
  -24662.9921911420     
  -21721.1487470070     
  -19390.8110690674     
  -17531.7468839691     
  -16040.1043805852     
  -14838.2791813813     
  -13868.2974403656     
  -13086.6888190784     
  -12460.7391512909     
  -11965.7692319342     
  -11583.1773294040     
  -11299.0352774929     
  -11103.0849557915     
  -10988.0260635114     
  -10949.0192142390     
  -10983.3523988958     
  -11090.2362942780     
  -11270.7068030702     
  -11527.6232211563     
  -11865.7587945271     
  -20603.6618314951     
  -25908.4896556783     
  -24837.2352669914     
  -22989.5501110135     
  -21002.9387280024     
  -19163.4472465962     
  -17548.7119907424     
  -16169.0525709760     
  -15006.8077980363     
  -14036.3929434295     
  -13232.0359177578     
  -12570.7527689267     
  -12033.1613335225     
  -11603.4340530010     
  -11268.9423993954     
  -11019.8352819457     
  -10848.6492463640     
  -10749.9852428580     
  -10720.2598882585     
  -10757.5289796289     
  -10861.3783372834     
  -11032.8777030301     
  -11274.5955268844     
  -11590.6752593467     
  -2649.44264166313     
  -13723.6674001356     
  -16971.5723260165     
  -17555.6814988578     
  -17147.9578662887     
  -16358.9081518383     
  -15464.0722428659     
  -14587.1159074991     
  -13782.2195206529     
  -13069.7956428420     
  -12454.2158323149     
  -11932.5534928177     
  -11498.9794767519     
  -11146.9464543253     
  -10870.2494142807     
  -10663.5132805290     
  -10522.3935686709     
  -10443.6394200266     
  -10425.0976072423     
  -10465.6990391819     
  -10565.4498508814     
  -10725.4390287033     
  -10947.8693273572     
  -11236.1156248628     
  -45.1510962030839     
  -6559.80676966547     
  -10938.8167917723     
  -12881.6545929680     
  -13570.2758081985     
  -13613.9216663537     
  -13338.9243996365     
  -12922.2103175818     
  -12459.9697931738     
  -12004.0525821117     
  -11581.6245312323     
  -11206.1307136694     
  -10883.4659230898     
  -10615.4862095480     
  -10402.0179778679     
  -10242.0116826310     
  -10134.2052300821     
  -10077.5059387115     
  -10071.2116731963     
  -10115.1413995737     
  -10209.7162503903     
  -10356.0150020018     
  -10555.8173992783     
  -10811.6419248865     
   1364.68215098988     
  -3402.08628739386     
  -6962.62453642135     
  -9280.89140362083     
  -10543.1652082851     
  -11137.1152142400     
  -11328.0166706123     
  -11287.5456164954     
  -11122.8704108446     
  -10900.0727375885     
  -10659.4941775128     
  -10425.4970622195     
  -10212.5871019081     
  -10029.2376959870     
  -9880.27981993586     
  -9768.39890885362     
  -9695.07556392284     
  -9661.17885622418     
  -9667.34169245551     
  -9714.19849815373     
  -9802.53470446454     
  -9933.37791441671     
  -10108.0476245142     
  -10328.1710573232     
   1956.43672721972     
  -1576.90611534888     
  -4511.91755925418     
  -6677.65036060001     
  -8134.44868228132     
  -9026.66860856377     
  -9524.82398674138     
  -9762.17016195141     
  -9834.59968915232     
  -9808.11793098904     
  -9727.23649073857     
  -9621.60960415687     
  -9510.84311379787     
  -9407.83348709691     
  -9321.04058671533     
  -9256.01923336916     
  -9216.44602377948     
  -9204.80534829899     
  -9222.84534229773     
  -9271.87721048332     
  -9352.96562798759     
  -9467.04003865921     
  -9614.94380984359     
  -9797.42825097925     
   2267.95468545487     
  -493.523878467982     
  -2899.38228696418     
  -4833.59063354250     
  -6278.02204547542     
  -7292.90029928610     
  -7966.95391990382     
  -8390.18204563533     
  -8637.12836087091     
  -8765.02302522836     
  -8816.00047359055     
  -8820.38428884796     
  -8799.70800599259     
  -8769.14482052088     
  -8739.34141947839     
  -8717.75640530767     
  -8709.61740767804     
  -8718.59531119545     
  -8747.27174352095     
  -8797.45527148958     
  -8870.38475713114     
  -8966.84490127880     
  -9087.20828731431     
  -9231.40920521426     
   2415.85239347902     
   191.887612520564     
  -1811.36675324444     
  -3506.02227898161     
  -4862.05802783467     
  -5895.79631864207     
  -6652.53975731951     
  -7187.20036716690     
  -7552.73313440891     
  -7794.28437377202     
  -7948.01058389939     
  -8041.81589761594     
  -8096.75778915734     
  -8128.50140508958     
  -8148.58959119075     
  -8165.46661100102     
  -8185.26630120183     
  -8212.39966853085     
  -8249.98016482253     
  -8300.11977455892     
  -8364.12136917627     
  -8442.58483678258     
  -8535.43699005023     
  -8641.88815531093     
   2468.74266581996     
   632.975181144951     
  -1056.88451940780     
  -2537.72706764582     
  -3778.53479152932     
  -4778.48138906991     
  -5558.15040914587     
  -6149.71784860650     
  -6588.54806021833     
  -6908.06673213324     
  -7137.26279281813     
  -7300.02945182490     
  -7415.42766900844     
  -7498.33342030273     
  -7560.17216179884     
  -7609.60195539272     
  -7653.09119554578     
  -7695.37898130335     
  -7739.82446316057     
  -7788.65746413019     
  -7843.14258639600     
  -7903.66612444461     
  -7969.75096838727     
  -8039.99993603010     
   2459.69726151019     
   916.691598457241     
  -526.029431425266     
  -1822.12592224215     
  -2944.54901721832     
  -3885.46209953259     
  -4652.58708341436     
  -5263.74770115443     
  -5741.67952295989     
  -6110.04798210627     
  -6391.00207978383     
  -6603.96236703160     
  -6765.24685309112     
  -6888.16363992803     
  -6983.32243252766     
  -7059.01585360299     
  -7121.59058735359     
  -7175.77008010195     
  -7224.91369976678     
  -7271.20880724297     
  -7315.79692738921     
  -7358.83608724158     
  -7399.50013060142     
  -7435.91335371728     
   2408.65654808273     
   1093.64347827035     
  -150.213807395747     
  -1288.41935844105     
  -2298.38628749292     
  -3170.12478175808     
  -3904.65297905480     
  -4511.11621137007     
  -5003.57943161695     
  -5398.25089068073     
  -5711.45220897206     
  -5958.36104533669     
  -6152.36681810408     
  -6304.84545033243     
  -6425.18231268706     
  -6520.92113795212     
  -6597.95990866349     
  -6660.74680831173     
  -6712.45034049562     
  -6755.09033153971     
  -6789.62336954475     
  -6815.97934896861     
  -6833.04659785417     
  -6838.60248489260     
   2328.17254572470     
   1195.66841324128     
   114.790534014953     
  -888.275020131300     
  -1794.98573540945     
  -2595.20915741737     
  -3286.62562019085     
  -3873.18835056167     
  -4363.18882787484     
  -4767.37856914490     
  -5097.43060713131     
  -5364.83676103590     
  -5580.21520108762     
  -5752.94017127638     
  -5890.99487426007     
  -6000.96159812777     
  -6088.08477333648     
  -6156.36282702121     
  -6208.64039658894     
  -6246.68335258468     
  -6271.22600584528     
  -6281.98388443861     
  -6277.62749029054     
  -6255.71321329024     
   2226.77884964559     
   1243.74141928742     
   298.720612996654     
  -588.024164502928     
  -1401.29042928045     
  -2131.61939001717     
  -2775.13298963789     
  -3332.72519075912     
  -3808.89575760149     
  -4210.50658372995     
  -4545.66180593243     
  -4822.81831792688     
  -5050.15086895011     
  -5235.14481892763     
  -5384.36632563570     
  -5503.35668399907     
  -5596.60453077763     
  -5667.56004240441     
  -5718.66523038991     
  -5751.38249638953     
  -5766.20947716771     
  -5762.67217719892     
  -5739.29091979746     
  -5693.51522961931     
   2110.57854834579     
   1252.30623081270     
   422.237632947884     
  -363.651519078210     
  -1092.83016366601     
  -1756.77270969113     
  -2350.98455391606     
  -2874.58567015505     
  -3329.60975837136     
  -3720.18644218292     
  -4051.74464702851     
  -4330.32567022772     
  -4562.04545222084     
  -4752.70797451735     
  -4907.54953104977     
  -5031.08431915196     
  -5127.02117315161     
  -5198.22507892897     
  -5246.70246426784     
  -5273.59449315692     
  -5279.16699099729     
  -5262.78903571234     
  -5222.89479894233     
  -5156.92517291523     
   1984.13490636867     
   1231.67306948906     
   500.132874156567     
  -197.653065443544     
  -851.261669993749     
  -1453.12094012976     
  -1998.60709041725     
  -2485.83983426521     
  -2915.26139385910     
  -3289.10002637851     
  -3610.80940400592     
  -3884.55107776871     
  -4114.75870345834     
  -4305.79773520364     
  -4461.71656038935     
  -4586.07503761679     
  -4681.83250569098     
  -4751.27743298091     
  -4795.98306862709     
  -4816.77642309747     
  -4813.71088619327     
  -4786.03545189898     
  -4732.15579995191     
  -4649.58448290253     
   1850.97751256486     
   1189.43241117242     
   543.272687068207     
  -77.0095321544764     
  -662.650098872023     
  -1206.95423461327     
  -1705.41242904865     
  -2155.60880410555     
  -2556.96880219238     
  -2910.40674311775     
  -3217.93296465724     
  -3482.26906969027     
  -3706.50386372787     
  -3893.80665480465     
  -4047.20175616791     
  -4169.39939209394     
  -4262.67352999293     
  -4328.77551387356     
  -4368.87269076744     
  -4383.50260494603     
  -4372.53516788452     
  -4335.13714417315     
  -4269.73518153465     
  -4173.97545675009     
   1713.90649349873     
   1131.31778523587     
   559.821874483007     
   8.14193387250082     
  -516.267344669009     
  -1007.48156781872     
  -1461.21823478251     
  -1874.80447522239     
  -2247.02650228707     
  -2577.89729039440     
  -2868.38124805442     
  -3120.11004250220     
  -3335.11510329972     
  -3515.59255779610     
  -3663.70754642922     
  -3781.43816912114     
  -3870.45499703552     
  -3932.02986822252     
  -3966.96704788457     
  -3975.55023571714     
  -3957.49990925240     
  -3911.93681190082     
  -3837.34887046245     
  -3731.56040932775     
   1575.18184687524     
   1061.75171551882     
   556.034719673577     
   65.3967427126776     
  -403.748120497300     
  -846.137732090338     
  -1257.76038201314     
  -1635.85257833571     
  -1978.80998656924     
  -2286.03358619103     
  -2557.73618011906     
  -2794.73296478861     
  -2998.23540741871     
  -3169.66183759935     
  -3310.47234335251     
  -3422.03067900761     
  -3505.49235347209     
  -3561.71589443971     
  -3591.19327301582     
  -3593.99533672375     
  -3569.72856250720     
  -3517.50029243934     
  -3435.89071637286     
  -3322.93114996745     
   1436.64597783003     
   984.201833769911     
   536.780158002046     
   100.689173803913     
  -318.491754784589     
  -716.065145387651     
  -1088.29852829492     
  -1432.43640574148     
  -1746.64835550377     
  -2029.92664253291     
  -2281.94964536344     
  -2502.92744108964     
  -2693.44374681403     
  -2854.30503038138     
  -2986.40386919006     
  -3090.60022039348     
  -3167.62155593448     
  -3217.98094931725     
  -3241.91114075763     
  -3239.31222367414     
  -3209.71073189898     
  -3152.22842221724     
  -3065.55983455768     
  -2947.95870462631     
   1299.80616122958     
   901.419974682710     
   505.898884962716     
   118.713664438381     
  -255.233579006724     
  -611.726611317603     
  -947.303566431469     
  -1259.27461703932     
  -1545.69253002056     
  -1805.28419889493     
  -2037.35375570195     
  -2241.66850176658     
  -2418.33800600571     
  -2567.69482984374     
  -2690.18300370044     
  -2786.25806427271     
  -2856.30047914115     
  -2900.54279769824     
  -2919.00991442485     
  -2911.47137194978     
  -2877.40458840309     
  -2815.96817964357     
  -2725.98508540183     
  -2605.93593960536     
   1165.89246608331     
   815.607191741834     
   466.451747920972     
   123.222792247990     
  -209.734192069093     
  -528.615003396985     
  -830.212416147753     
  -1111.93521643227     
  -1371.79230431894     
  -1608.34675228025     
  -1820.64673496309     
  -2008.14106426122     
  -2170.58682902092     
  -2307.95564278744     
  -2420.34358516813     
  -2507.88839378148     
  -2570.69606138415     
  -2608.77786431325     
  -2621.99806013297     
  -2610.03204975519     
  -2572.33467039599     
  -2508.11842145160     
  -2416.34177323099     
  -2295.70821944110     
   1035.90037356404     
   728.530802473707     
   420.896315832791     
   117.241717488325     
  -178.551417589524     
  -463.034390084294     
  -733.236398179745     
  -986.682853504649     
  -1221.38764821643     
  -1435.82231346935     
  -1628.86659744098     
  -1799.74580035861     
  -1947.96029295202     
  -2073.21217142964     
  -2175.33317159376     
  -2254.21698174975     
  -2309.75812935483     
  -2341.79879033186     
  -2350.08425126262     
  -2334.22736824800     
  -2293.68220581784     
  -2227.72707964603     
  -2135.45743321449     
  -2015.78931225534     
   910.623686363308     
   641.609723692184     
   371.215094107582     
   103.225138198553     
  -158.870848407901     
  -411.933846835908     
  -653.211500622442     
  -880.354852795571     
  -1091.41553750830     
  -1284.82518084736     
  -1459.35999077379     
  -1614.09423793824     
  -1748.34656059049     
  -1861.62285068034     
  -1953.55901695996     
  -2023.86630698083     
  -2072.28122273479     
  -2098.52147664485     
  -2102.24896603109     
  -2083.04042541348     
  -2040.36625320078     
  -1973.57799125868     
  -1881.90504003355     
  -1764.46138853859     
   790.681164190514     
   555.978438817660     
   319.010608275827     
   83.1741033402705     
  -148.378324852550     
  -372.780247586182     
  -587.481101617910     
  -790.261131165906     
  -979.231565921482     
  -1152.82107130369     
  -1309.75044472014     
  -1448.99814277173     
  -1569.75950241710     
  -1671.40250509702     
  -1753.42269865530     
  -1815.39952225230     
  -1856.95585607939     
  -1877.72220853942     
  -1877.30660748742     
  -1855.27100790473     
  -1811.11487686929     
  -1744.26656433738     
  -1654.08310066961     
  -1539.85915650609     
   676.539005062075     
   472.536291133717     
   265.577406816789     
   58.7244019084951     
  -145.162735611356     
  -343.460031487719     
  -533.803734185157     
  -714.103562395321     
  -882.544720674994     
  -1037.57928748389     
  -1177.90829420778     
  -1302.45631615122     
  -1410.34067271131     
  -1500.83740226106     
  -1573.34607905779     
  -1627.35532811032     
  -1662.41062435668     
  -1678.08568336395     
  -1673.95849953443     
  -1649.59288885830     
  -1604.52625812012     
  -1538.26425135441     
  -1450.28290810278     
  -1340.03898990789     
   568.530478639910     
   391.986499962585     
   211.957720997209     
   31.2145514840488     
  -147.640970456916     
  -322.202631987238     
  -490.280152613120     
  -649.910974343075     
  -799.363441726303     
  -937.131719618023     
  -1061.92333982096     
  -1172.64067331312     
  -1268.35787670171     
  -1348.29496601654     
  -1411.79065099460     
  -1458.27545170703     
  -1487.24645311242     
  -1498.24486588831     
  -1490.83738139675     
  -1464.60215418600     
  -1419.12012732772     
  -1353.97233590914     
  -1268.74377634092     
  -1163.03440155213     
   466.873509848440     
   314.867824189765     
   158.985360790159     
   1.73894763064140     
  -154.499222864797     
  -307.520205069075     
  -455.295290736065     
  -595.986618337228     
  -727.951127576262     
  -849.738057612163     
  -960.080600646915     
  -1057.88264612640     
  -1142.20176993311     
  -1212.22973763152     
  -1267.27181316973     
  -1306.72611453588     
  -1330.06415937565     
  -1336.81361977882     
  -1326.54417623260     
  -1298.85724071992     
  -1253.38021655212     
  -1189.76587994746     
  -1107.69740195213     
  -1006.89947025257     
   371.686692895794     
   241.580839342732     
   107.320997034400     
  -28.8099276422128     
  -164.646486821916     
  -298.159706991206     
  -427.471738219090     
  -550.865548916785     
  -666.789430850432     
  -773.856428397480     
  -870.839120347306     
  -956.660438721302     
  -1030.38139412168     
  -1091.18668812756     
  -1138.36923595127     
  -1171.31460877267     
  -1189.48634996802     
  -1192.41303846592     
  -1179.67787963056     
  -1150.91151006524     
  -1105.78861407574     
  -1044.02886830497     
  -965.402654993528     
  -869.741907282682     
   283.004017946878     
   172.410163461587     
   57.4810213978506     
  -59.7074775539905     
  -177.177246723692     
  -293.064399422031     
  -405.632157694458     
  -513.279865614107     
  -614.547915649241     
  -708.118656126575     
  -792.813587164830     
  -867.587354137929     
  -931.519200859562     
  -983.802645233725     
  -1023.73419013261     
  -1050.70188836891     
  -1064.17455219450     
  -1063.69234504124     
  -1048.85942575824     
  -1019.33924098240     
  -974.852984364771     
  -915.181663934542     
  -840.172139588285     
  -749.747407391927     
   200.788471816216     
   107.543547819300     
   9.86152519427141     
  -90.3691680437897     
  -191.341176097694     
  -291.342609853441     
  -388.768674599634     
  -482.130193883474     
  -570.058880412258     
  -651.309398450304     
  -724.758444629640     
  -789.401232227249     
  -844.345888859699     
  -888.806364954061     
  -922.094500290128     
  -943.611911777844     
  -952.842353046947     
  -949.345161954033     
  -932.750362133397     
  -902.755924499778     
  -859.127627676220     
  -801.701884111013     
  -730.391820466749     
  -645.196814054331     
   124.944602728342     
   47.0884683623901     
  -35.2415076453020     
  -120.327485902520     
  -206.518243466872     
  -292.242124950209     
  -376.017735716490     
  -456.462127276173     
  -532.296363363728     
  -602.348500069772     
  -665.554152657762     
  -720.954945285239     
  -767.695240588550     
  -805.017619950669     
  -832.257631225705     
  -848.838340191005     
  -854.265218220969     
  -848.121875699603     
  -830.067112676020     
  -799.833708798799     
  -757.229316150063     
  -702.139752396003     
  -634.534917415769     
  -554.477472706847     
   55.3300996614249     
  -8.91333421956147     
  -77.6150060768366     
  -149.212639132698     
  -222.198042259682     
  -295.128999377969     
  -366.639285781687     
  -435.446628982854     
  -500.358534033745     
  -560.276002136264     
  -614.195277751271     
  -661.207855760018     
  -700.499060758932     
  -731.345571685412     
  -753.112305175150     
  -765.249090646876     
  -767.287570738676     
  -758.838744800190     
  -739.591543323321     
  -709.312779858600     
  -667.848775886303     
  -615.128894226999     
  -551.171147925736     
  -476.089973362230     
  -8.23358264719772     
  -60.4730441877564     
  -117.114042752719     
  -176.736235610593     
  -237.962464491986     
  -299.469862158602     
  -359.999380579262     
  -418.363609725490     
  -473.452832152487     
  -524.239340608811     
  -569.780127324598     
  -609.218128564783     
  -641.782271930888     
  -666.786623637314     
  -683.628966934480     
  -691.789160671494     
  -690.827629376095     
  -680.384324525648     
  -660.178472516856     
  -630.009389782842     
  -589.758600805905     
  -539.393441205916     
  -478.972265896644     
  -408.651311285800     
  -65.9515290703689     
  -107.643453507514     
  -153.649066878356     
  -202.677372291460     
  -253.471058376679     
  -304.817025108939     
  -355.555559894327     
  -404.588071441971     
  -450.883345962408     
  -493.482352383139     
  -531.501685654427     
  -564.135795411201     
  -590.658197639467     
  -610.421906934041     
  -622.859354829036     
  -627.482074885185     
  -623.880437857667     
  -611.723711014433     
  -590.760695489306     
  -560.821165455830     
  -521.818293792896     
  -473.752201439828     
  -416.714712193800     
  -350.895331453154     
  -118.046575855716     
  -150.508958065875     
  -187.174821407723     
  -226.870708315023     
  -268.448571414423     
  -310.795863895167     
  -352.844460010621     
  -393.578341490697     
  -432.040028677313     
  -467.335782494471     
  -498.639651275851     
  -525.196481616679     
  -546.324051933164     
  -561.414519111038     
  -569.935391039076     
  -571.430250181763     
  -565.519455464235     
  -551.901041883058     
  -530.352019956208     
  -500.730251045989     
  -462.977040387409     
  -417.120547909171     
  -363.280068118911     
  -301.671174847037     
  -164.751401108947     
  -189.176726281998     
  -217.680701684303     
  -249.196197561192     
  -282.674299367280     
  -317.094066534397     
  -351.471264767275     
  -384.866027863539     
  -416.389437867517     
  -445.209048599236     
  -470.553414516632     
  -491.715721885033     
  -508.056650089710     
  -519.006615834623     
  -524.067570633170     
  -522.814531630442     
  -514.897027066149     
  -500.040630618688     
  -478.048743743838     
  -448.804762370044     
  -412.274734438532     
  -368.510578300141     
  -317.653889424397     
  -259.940314792282     
  -206.301461206095     
  -223.768925253605     
  -245.182366121334     
  -269.570230756317     
  -295.972949549566     
  -323.452437635084     
  -351.100685420864     
  -378.047408360696     
  -403.466751327886     
  -426.583070943527     
  -446.675847793049     
  -463.083807655509     
  -475.208354898942     
  -482.516440597653     
  -484.543001598350     
  -480.893113967787     
  -471.244004605319     
  -455.347058202489     
  -433.029943310395     
  -404.198961327465     
  -368.841696148542     
  -327.030010497682     
  -278.923398144314     
  -224.772659902942     
  -242.928735260965     
  -254.415907772696     
  -269.714448214192     
  -287.937992093217     
  -308.206792504932     
  -329.657017246537     
  -351.449229422119     
  -372.776030856234     
  -392.868867553658     
  -411.004018312257     
  -426.507809877208     
  -438.761123200751     
  -447.203274053528     
  -451.335366238653     
  -450.723226061513     
  -445.000031853279     
  -433.868751846915     
  -417.104497412285     
  -394.556886623916     
  -366.152495573577     
  -331.897452089373     
  -291.880199027379     
  -246.274422604071     
  -195.342105992814     
  -274.856235598045     
  -281.250276630391     
  -291.324247655306     
  -304.266876151471     
  -319.268925453561     
  -335.532326755127     
  -352.278571836091     
  -368.756351662339     
  -384.248441981615     
  -398.077854377142     
  -409.613288781487     
  -418.273940035179     
  -423.533725610390     
  -424.925013161434     
  -422.041934345379     
  -414.543374815748     
  -402.155729075606     
  -384.675502824096     
  -361.971834558763     
  -333.988992672878     
  -300.748884411523     
  -262.353589239358     
  -218.987901957330     
  -170.921840936911     
  -302.293239399879     
  -304.401752591679     
  -310.066299775894     
  -318.540841717770     
  -329.077508303255     
  -340.935595174602     
  -353.389884413685     
  -365.738277753045     
  -377.308743926643     
  -387.465595772198     
  -395.615126693425     
  -401.210649191461     
  -403.756989529263     
  -402.814501444597     
  -398.002667550548     
  -389.003359186227     
  -375.563823696290     
  -357.499462279385     
  -334.696451658541     
  -307.114249036507     
  -274.788002380306     
  -237.830867425457     
  -196.436209412272     
  -150.879642094605     
  -325.431195531529     
  -323.992780580251     
  -325.997739207458     
  -330.755602794944     
  -337.570861743218     
  -345.751850669947     
  -354.619009241748     
  -363.512508739648     
  -371.799245554470     
  -378.879214370309     
  -384.191285164641     
  -387.218418644115     
  -387.492363680524     
  -384.597887107276     
  -378.176590376566     
  -367.930368671961     
  -353.624565862101     
  -335.090873045267     
  -312.230009381076     
  -285.014211571065     
  -253.489542992798     
  -217.778015486068     
  -178.079496622265     
  -134.673353559166     
  -344.440261034204     
  -340.134815839153     
  -339.174387102589     
  -340.914575722764     
  -344.703339337251     
  -349.889786649093     
  -355.832388737123     
  -361.906597975656     
  -367.511874844976     
  -372.078132718592     
  -375.071620164200     
  -376.000268859863     
  -374.418542378643     
  -369.931826351342     
  -362.200403466691     
  -350.943057093070     
  -335.940344794255     
  -317.037577566424     
  -294.147532264026     
  -267.252913543123     
  -236.408567979989     
  -201.743437177242     
  -163.462219113435     
  -121.846688292549     
  -359.466423850699     
  -352.925238677055     
  -349.647502564658     
  -349.025516399738     
  -350.441903333830     
  -353.278331066256     
  -356.923683251636     
  -360.781670561931     
  -364.277880592377     
  -366.866274365547     
  -368.035145269786     
  -367.312563446237     
  -364.271334491553     
  -358.533505479463     
  -349.774453387614     
  -337.726590785253     
  -322.182720920972     
  -302.999069075150     
  -280.098009239915     
  -253.470494996747     
  -223.178191119064     
  -189.355288277566     
  -152.209967712249     
  -112.025466394269     
  -370.629171851151     
  -362.444853205501     
  -357.461148855660     
  -355.097794158633     
  -354.763348386570     
  -355.863863066012     
  -357.811023057417     
  -360.029750543321     
  -361.965270090791     
  -363.089640680809     
  -362.907767744384     
  -360.962914470123     
  -356.841736603338     
  -350.178868316812     
  -340.661088216743     
  -328.031093935943     
  -312.090910919726     
  -292.704955875451     
  -269.802767975958     
  -243.381411418903     
  -213.507541584826     
  -180.319114139058     
  -144.026702411639     
  -104.914373777647     
  -378.019672982339     
  -368.755932403273     
  -362.650133988783     
  -359.140259672608     
  -357.652129467250     
  -357.608033782523     
  -358.434854013849     
  -359.571661194335     
  -360.476790098407     
  -360.634393394940     
  -359.560487014070     
  -356.808503521401     
  -351.974374686064     
  -344.701167301956     
  -334.683297428786     
  -321.670347371838     
  -305.470506797426     
  -285.953654346177     
  -263.054089007927     
  -236.772911501198     
  -207.180045190641     
  -174.415874002865     
  -138.692461777553     
  -100.294304011882     
  -381.699437161319     
  -371.900778992495     
  -365.238493805311     
  -361.159673899383     
  -359.098760648198     
  -358.486158769930     
  -358.756346572300     
  -359.355471739130     
  -359.748429629179     
  -359.425428021851     
  -357.908048532465     
  -354.754820263368     
  -349.566325379231     
  -341.989858933038     
  -331.723666195671     
  -318.520779781502     
  -302.192475906319     
  -282.611364130793     
  -259.714117986219     
  -233.503845091379     
  -204.052084982844     
  -171.500411217314     
  -136.061601770459     
  -98.0203288380322     
SCALARS 2waySource double 
LOOKUP_TABLE default
  3.692373521639924E-018
  4.503748449357501E-018
 -9.047144991875310E-019
 -1.875539807307240E-019
 -1.902213944909923E-018
  2.889278147670758E-018
 -2.623717247056745E-018
  8.851248646868836E-019
 -1.350424664574646E-018
 -2.005567043077921E-018
  9.517504782754907E-021
 -8.879523848749527E-019
  6.244613726980270E-019
 -1.407865608758631E-018
 -9.117246966378226E-019
 -2.872633239397954E-019
 -7.511493637335258E-019
 -9.297833650046694E-019
 -6.571536639204774E-019
 -7.223195369176924E-019
 -5.601117344716734E-019
 -7.056746286448797E-019
 -7.101346183746697E-019
 -7.503331289626655E-019
 -4.150385811609827E-018
  8.657696422657771E-019
 -7.170303878093313E-021
  1.047113957685219E-018
 -1.592490565893371E-018
 -2.097055435558501E-018
 -1.410154206643410E-018
  1.103578560670534E-018
 -1.488918758277678E-018
  5.489617601471994E-019
  9.919030083661281E-019
 -2.288749193163406E-018
 -1.631841436446802E-019
 -1.629584243825726E-018
  1.460030328441960E-018
 -2.698021808961230E-019
 -1.056471356040168E-018
 -3.033107068894331E-019
 -8.676637216432117E-019
 -1.104992320764571E-018
 -1.940838588976075E-019
 -5.351443720624556E-019
 -7.608855779639667E-019
 -6.934897101018575E-019
  1.181468274514069E-018
 -1.033733988495845E-018
  3.469022417031112E-018
  3.100006914841198E-018
 -2.224559661364858E-018
 -7.426082001494332E-019
  2.001645975651417E-018
  1.256210255313910E-018
 -1.183159347075666E-018
 -1.599121947468175E-018
 -5.385694175736979E-019
 -2.024063130340129E-019
  4.302603077606498E-020
 -1.742454846776481E-018
 -5.574443207114054E-019
 -2.789408698033895E-019
 -2.797571045742499E-019
 -1.570889645975508E-018
 -6.760285670581853E-019
 -7.066080694555083E-020
 -8.654337267783163E-019
 -6.532911995138616E-019
 -4.358724477487569E-019
 -6.768448018290453E-019
 -1.750488493320983E-019
 -1.128385816651948E-018
 -1.117716161610882E-018
 -9.660451055343146E-020
  2.339441549732823E-018
 -9.837992636774059E-019
  1.511058600498830E-018
  2.964180234898418E-018
 -1.050378896768657E-018
 -2.195351018673544E-018
 -4.913021065155290E-019
 -8.704912418312817E-019
 -2.389024656431950E-019
 -1.156938331000218E-018
 -9.377270032655860E-019
 -3.091844567132580E-019
 -1.148018351540636E-018
 -9.210820949927744E-019
 -1.256428964761602E-018
  8.162347708603928E-022
 -5.381906016982109E-019
 -6.646598832860235E-019
 -6.396925208768047E-019
 -7.700242668712332E-019
 -2.790534420563350E-018
  1.823363592499573E-019
 -2.882982681583411E-019
  7.870479910195334E-019
 -2.719735727411365E-019
 -5.873090917457869E-019
 -1.428954804129371E-019
 -4.488149980427548E-019
 -1.327804503070093E-019
 -7.405969147322268E-019
  9.220584361914360E-019
 -9.249445593993925E-019
  1.494253585798212E-019
  3.682578704389612E-019
 -2.880795587106555E-019
 -1.971300885333630E-019
 -7.032259243322986E-019
 -8.729399461438600E-019
 -1.039228922444182E-018
 -5.101770096532376E-019
 -8.723424208206874E-019
 -7.367344503256091E-019
 -9.261396100457404E-019
 -7.245495317825866E-019
 -1.715825713315605E-018
  7.155709493031223E-020
  7.920197052964245E-020
  1.852119113663682E-018
 -4.947857550466570E-019
  2.705906844202261E-018
 -5.899179024861696E-019
 -4.663347441063108E-019
  1.066207570270605E-018
 -4.025826312031342E-019
  9.985929929608137E-019
 -1.123269698579104E-018
 -1.759697280372465E-018
  2.395585939862541E-019
 -3.849027787117730E-019
 -1.788527107188304E-019
 -4.941296267035995E-019
 -1.768414253016211E-019
 -7.050771033217056E-019
 -1.198171785806759E-018
 -6.471987402423510E-019
 -4.866234073380539E-019
 -6.760285670581852E-019
 -6.200013829682375E-019
 -8.022684141013006E-019
 -1.887275811830573E-019
  1.866664831989453E-018
  5.800215818279278E-019
 -7.341256395852267E-019
  1.615009223990003E-018
  2.612610173120308E-019
 -2.071549150845992E-018
  1.256428964761595E-018
 -1.593627013519839E-018
 -7.683917973295127E-019
 -9.635106004456660E-019
 -6.723848120992536E-019
 -2.651234817186464E-019
 -1.301306174527074E-018
 -3.751665644813325E-019
 -6.313700667403980E-019
 -5.298681475618046E-019
  1.887490313770722E-020
 -8.140852418658461E-019
 -6.366462912410500E-019
 -7.275957614183424E-019
 -7.245495317825870E-019
 -6.821210263296958E-019
 -1.385022926312446E-019
 -1.431725299112887E-019
  9.750286655486229E-019
 -3.680684625012156E-019
  4.935027998704857E-019
  9.405545234536574E-019
  8.254539256380032E-019
  4.413087786772098E-019
 -1.689633998750082E-018
 -3.485667325303938E-019
 -1.613915676751572E-019
 -3.406816972893601E-019
 -1.985438486273973E-019
  1.297342206712536E-019
 -4.880371674320879E-019
 -2.115450019412801E-019
 -3.646141154800311E-019
 -4.456086619791975E-019
 -1.622078024460177E-019
 -1.165479494584308E-018
 -6.041727094662849E-019
 -6.086326991960761E-019
 -5.737104131087305E-019
 -5.858953316517526E-019
  1.264592749360752E-019
 -1.006801220532119E-018
  2.285687260895793E-019
 -3.482679698688077E-019
 -1.474648248665721E-019
  8.107109480585575E-019
  5.023427261161624E-019
 -1.744356777469846E-018
 -1.316756032153535E-018
 -6.388762861059455E-019
 -3.026838800563175E-019
 -2.185425396505356E-018
  3.909952379832850E-019
 -4.401430295408033E-019
 -2.456510532577650E-019
  4.644835651169057E-019
 -4.788984785248224E-019
 -7.184570725110762E-019
 -4.752547235658930E-019
 -1.054241361175274E-018
 -8.177289968247743E-019
 -4.214575343408394E-019
 -6.654761180568836E-019
 -7.442406696911542E-019
 -7.303432283925104E-019
 -7.310601150912666E-019
 -7.455924270457810E-019
 -1.195519022801462E-018
 -4.115026106627136E-019
 -6.117589820457324E-019
 -1.098571797321525E-018
 -1.027452121286591E-018
 -8.275745657790574E-019
 -1.291569960296632E-018
 -8.177289968247736E-019
 -9.786323939005990E-019
 -3.202543778238314E-019
 -6.742867427926200E-019
  9.600698523025684E-020
 -2.809814567305402E-019
 -6.109720487848133E-019
 -1.362347973281946E-019
 -1.518914334229920E-018
 -3.578147761615033E-019
 -4.457180167030410E-019
 -1.118590999401628E-018
 -6.646598832860241E-019
 -6.571536639204775E-019
 -7.278871987024411E-019
 -5.452390953845810E-019
 -9.384631848225488E-020
 -4.505861238182601E-019
  3.920155314468602E-019
 -8.055733797916955E-019
 -1.425166645374497E-019
 -7.161470244322778E-019
 -2.656409538279196E-019
 -1.262929541418546E-018
 -7.189745446203489E-019
 -1.028049646609764E-018
 -5.873090917457871E-019
  1.783352386095568E-019
 -1.177555058403486E-018
 -7.741854939394379E-019
 -1.013445325264104E-018
 -6.768448018290456E-019
 -8.205858185227868E-019
 -8.271664483936285E-019
 -2.750784053967734E-019
 -8.186545863194781E-019
 -1.015157848019726E-018
 -7.230264169647084E-019
 -3.573266055621721E-019
 -3.825669122004613E-019
 -1.286583762296753E-018
  7.617818659487293E-019
 -4.222444676017568E-020
 -7.537953272997752E-020
 -4.217562970024263E-019
  1.166893254678345E-018
 -7.056746286448789E-019
 -4.298893432010907E-019
  9.837563632893801E-020
 -2.089068896909556E-019
 -9.598375439767909E-019
  1.397691975632817E-019
  3.332262296277728E-019
 -1.187509982081616E-018
 -9.351689442291635E-019
 -4.720991392062938E-019
 -8.089984253029379E-019
 -3.636084727714277E-019
 -7.009959294674048E-019
 -5.911715561524046E-019
 -6.965359397376129E-019
 -6.071095843781983E-019
  5.419637246844587E-019
 -2.195462291058505E-021
 -1.048260482425808E-019
 -2.309337144995186E-019
 -5.418343566571426E-019
 -2.471194907137210E-019
 -3.961367319081144E-019
  6.846497838561762E-019
 -4.387156705686757E-020
  4.330156260507464E-019
 -4.416661443586817E-019
 -9.499919750225115E-019
 -6.010171251066862E-019
 -4.927158666095657E-019
 -7.319463964242897E-019
 -3.734540417257111E-019
 -8.094065426883709E-019
 -3.511247915668183E-019
 -7.901235221652329E-019
 -6.093395792430962E-019
 -7.973309788691917E-019
 -1.008358508701199E-018
 -1.054241361175276E-018
 -7.461719018944643E-019
 -2.426728180124418E-021
  3.773055180660996E-019
 -3.381554895525198E-019
 -3.314025208039350E-019
 -1.160261873103545E-019
 -1.635815359331015E-019
 -2.513139449498310E-020
 -7.554599721325202E-019
 -6.089314618576644E-019
 -4.165894272256205E-019
 -8.010840885519602E-019
 -7.127403490057312E-021
 -5.714804182438339E-019
 -3.555847812966075E-019
 -5.142288819975977E-019
 -9.559750795701809E-019
 -8.949704336411705E-019
 -2.781246350325284E-019
 -5.362593694949024E-019
 -7.252564118296042E-019
 -5.195051064982464E-019
 -6.552224317171682E-019
 -7.461719018944617E-019
 -8.299139153677962E-019
 -1.073903197573902E-019
  1.861080453456650E-020
 -2.217376669560778E-019
 -4.898240216304715E-019
 -1.294208072546964E-019
 -2.255718112672414E-019
 -1.493160038559785E-019
 -5.430587088134314E-019
  7.070083355250113E-020
 -6.869891334449156E-019
  2.455924502378805E-020
 -3.193287883291293E-019
 -9.562816935476887E-020
 -4.691622642943812E-019
 -3.486760872542369E-019
 -5.770554054060722E-019
 -2.296036703081266E-019
 -5.290519127909444E-019
 -5.388974817452286E-019
 -6.504636793257939E-019
 -9.506988550695288E-019
 -4.010595163852549E-019
 -7.203883047143845E-019
 -6.893284830336551E-019
 -2.112589272056833E-019
 -1.054527435910873E-019
 -6.731592851722115E-020
  2.699342125820964E-020
 -6.967419612593146E-020
 -7.369971120382064E-020
 -7.781973396768490E-019
 -1.350104451719052E-019
 -3.778046767316587E-019
 -8.747364477713485E-019
 -7.593478123911210E-019
  1.615809756129018E-019
 -5.357418973856291E-019
  9.804757215740847E-020
 -5.691410686550984E-019
 -5.268219179260505E-019
 -9.886380692826894E-020
 -9.506988550695317E-019
 -8.227064586638403E-019
 -7.965147440983330E-019
 -7.492181315302188E-019
 -6.661829981039029E-019
 -7.647480423705854E-019
 -7.147039628283046E-019
 -5.139047434840323E-020
 -1.614499077258218E-019
  1.951972045970019E-019
  3.167870975230353E-020
 -2.164057836790160E-019
 -3.588477575510675E-019
 -1.622410296139229E-020
 -5.277689576147689E-020
 -5.043286356813923E-019
 -2.550338274646984E-019
  5.302098106114259E-020
 -6.693786090704530E-019
 -7.883963486546387E-019
 -8.191427569188123E-019
 -5.184994637896442E-019
 -5.912809108762481E-019
 -7.373319756487840E-019
 -6.362381738556195E-019
 -3.376061661436632E-019
 -7.776398409606234E-019
 -8.594506222306519E-019
 -6.597917761708045E-019
 -6.449687453774577E-019
 -6.707523425575370E-019
 -4.494457505338353E-020
 -9.837099222570437E-020
  4.390719491420743E-020
 -4.297747397977549E-019
 -2.472196887157080E-019
 -4.951972721516106E-019
  4.004180387971673E-020
 -4.742344301023168E-019
 -4.702772617268288E-019
  8.210954393161341E-020
 -3.962714624839352E-019
 -3.350774086171804E-019
 -4.385105599990814E-019
 -2.729977918626721E-019
 -4.741797527403952E-019
 -3.809055837293353E-019
 -4.268284628103625E-019
 -7.614030500732404E-019
 -9.260302553218976E-019
 -6.430375131741483E-019
 -4.778928358162180E-019
 -6.018333598775475E-019
 -6.812100875899610E-019
 -7.402835013156651E-019
  8.092718121125475E-020
 -1.589338381253288E-019
 -1.046246708241176E-019
 -5.640595183872810E-020
 -2.749645380543077E-019
 -2.697348156082109E-019
 -2.801852352631559E-019
 -3.023104267293331E-019
 -9.345167415440648E-019
  1.584947193701953E-019
 -5.753428826504526E-019
 -8.635571719369330E-019
 -3.632950593548689E-019
 -9.056869147282352E-019
 -1.812867642764403E-019
 -1.527156735152423E-019
 -1.999722594764029E-019
 -3.927370622488482E-019
 -6.878600455776996E-019
 -6.806525888737417E-019
 -6.658842354423139E-019
 -7.073471247935516E-019
 -5.946259031735925E-019
 -6.970934384538395E-019
  9.262196632596415E-020
  2.801359204497376E-020
 -1.957868657087381E-019
 -1.595022591654763E-019
 -2.162732436701995E-019
 -1.225960920841867E-020
 -2.329559879829560E-019
  2.334221824498280E-020
 -4.720317739183841E-019
 -4.153103977074091E-019
 -1.560606658125854E-019
 -4.050166847607431E-019
 -7.222101821938475E-019
 -5.115360923853507E-019
 -4.399243200931171E-019
 -7.376453890653457E-019
 -5.556917713488378E-019
 -6.995274920114489E-019
 -8.150908845744499E-019
 -8.161658553999481E-019
 -7.897154047798016E-019
 -6.290853945135850E-019
 -5.091567161896632E-019
 -7.234345343501412E-019
 -3.933492383269930E-020
 -4.957494083193319E-020
 -1.033416193945271E-019
 -1.583843022340017E-019
 -1.331041333445232E-020
 -2.650187710980359E-019
 -5.110332710310486E-019
 -4.642121411362781E-019
 -3.467175163699681E-019
 -4.561957750389454E-019
  8.158422050641524E-021
 -5.593501770627352E-019
 -6.067014669927668E-019
 -1.526209695463707E-019
 -5.466624371654108E-019
 -6.216738791169083E-019
 -6.717726360211068E-019
 -6.460837428099013E-019
 -9.787124471145023E-019
 -6.866903707833296E-019
 -6.141676597513631E-019
 -6.279703970811341E-019
 -6.832360237621415E-019
 -7.183076911802813E-019
 -1.753583370906943E-020
 -5.359679322108000E-020
 -8.124327590206469E-020
 -1.843996319470378E-019
 -3.138475325290730E-019
 -3.535560323655664E-019
 -1.685380030541996E-019
 -2.824972461709321E-019
 -6.205515563069757E-019
 -1.768267745466499E-019
  4.990149765053349E-021
 -4.394615253457638E-019
 -6.468453002188415E-019
 -4.649463598642567E-019
 -4.987536485191540E-019
 -8.055440782817503E-019
 -2.293049076465406E-019
 -6.147251584675883E-019
 -1.005516337758157E-018
 -6.543114929774381E-019
 -7.103933544293064E-019
 -8.558468938786675E-019
 -6.931362700783495E-019
 -7.637824262689295E-019
 -3.705757698336879E-021
 -4.605957248583077E-020
 -1.126857076316349E-019
 -1.230245655601529E-019
 -2.241908794833828E-019
 -3.290204633339938E-019
 -1.799203561668406E-019
 -2.508962763887114E-019
 -2.552452115348976E-019
 -6.119776914934187E-019
 -6.718400013090208E-019
 -1.233903507225915E-019
 -7.095224422965209E-019
 -6.382240834208475E-019
 -2.505191603729838E-019
 -4.544485882248767E-019
 -8.797539362173593E-019
 -6.546649330009411E-019
 -4.733234913625831E-019
 -8.123033909933312E-019
 -6.364422325483331E-019
 -7.450022271000935E-019
 -7.056199512829584E-019
 -7.097811783511596E-019
 -9.403768924898050E-021
 -5.926746576668103E-020
 -1.468359389510584E-019
 -1.705664655426786E-019
 -1.280430025495049E-019
 -1.553847871352728E-019
 -1.795669161433343E-019
 -3.392723183293397E-019
 -3.528573276259155E-019
 -2.944234286593193E-019
 -6.651426913368501E-019
 -5.375984389235409E-019
 -1.266806656580133E-019
 -7.532499905711035E-019
 -7.443900510219537E-019
 -5.360006334402683E-019
 -9.948545340330139E-019
 -5.897031186964510E-019
 -6.320769467874186E-019
 -7.590637004845025E-019
 -7.289148175435031E-019
 -9.574034904191890E-019
 -6.225374658722057E-019
 -7.151867708791326E-019
 -2.857475344994029E-020
 -4.947291148557569E-020
 -1.046062435113909E-019
 -1.735591257217035E-019
 -1.670927081823359E-019
 -2.373517844063308E-019
 -3.493829673012532E-019
 -3.419277626088872E-019
 -4.056825567863188E-019
 -2.619151828261083E-019
 -3.403536331178305E-019
 -3.542857384749215E-019
 -7.886750980127470E-019
 -4.815165774716723E-019
 -3.634991180475824E-019
 -6.469673428686731E-019
 -5.756889972964752E-019
 -4.604863701344661E-019
 -7.852007376880900E-019
 -6.663870567966168E-019
 -4.487095689768745E-019
 -6.980590545554920E-019
 -7.299824629915190E-019
 -7.690859894505406E-019
 -2.630375056360397E-020
 -7.826856495020917E-020
 -8.791782555420363E-020
 -1.689155320031906E-019
 -1.744032917181061E-019
 -3.651474474967935E-019
 -2.563342109235115E-019
 -3.361887433608860E-019
 -2.994072344613769E-019
 -3.550946478682977E-019
 -4.026299831875696E-019
 -6.658022193994334E-019
 -4.478933342060135E-019
 -3.800419969740406E-019
 -6.336474135897326E-019
 -5.032483023073922E-019
 -7.352860261731306E-019
 -1.000518862615621E-018
 -8.030353340587487E-019
 -5.238503789556932E-019
 -5.839914381294076E-019
 -7.309207404122107E-019
 -6.932109607437485E-019
 -6.606280242451394E-019
  1.329625328672672E-020
 -3.883527445989454E-020
 -1.543551573385209E-019
 -8.469028551408786E-020
 -2.578428634055327E-019
 -2.881369173468286E-019
 -2.926315711350635E-019
 -4.047579487061043E-019
 -5.116381217317060E-019
 -2.440869304184457E-019
 -3.703184706695858E-019
 -4.750033128887391E-019
 -6.578878826484528E-019
 -7.374413303726260E-019
 -6.052803815212457E-019
 -4.869294953771246E-019
 -2.916085963972376E-019
 -7.095024289930463E-019
 -6.314447574057935E-019
 -8.111610548799202E-019
 -8.597293715887552E-019
 -7.379988290888477E-019
 -6.292894532062956E-019
 -7.166078563506460E-019
 -5.894270506125912E-020
 -2.691909862324695E-020
 -9.378071879641049E-020
 -1.546613516188303E-019
 -1.332935521339262E-019
 -1.850219373537319E-019
 -2.158114303373384E-019
 -4.311190579058858E-019
 -3.013484733164219E-019
 -6.078811484388779E-019
 -4.570593617942425E-019
 -4.529181480295175E-019
 -3.784642047942399E-019
 -2.943213993129611E-019
 -4.991344272236254E-019
 -7.999217391350800E-019
 -7.565749695649734E-019
 -6.723228093598523E-019
 -6.846844479146293E-019
 -5.879759451858592E-019
 -7.342183807251212E-019
 -6.959784410213931E-019
 -7.739067445813302E-019
 -7.307676963926784E-019
 -5.565471217745414E-021
 -5.172774336849692E-020
 -8.170616045507581E-020
 -1.553047251135725E-019
 -3.168327079687597E-019
 -2.620645641569016E-019
 -2.927759491399907E-019
 -3.546901931716092E-019
 -5.327776837927599E-019
 -4.278997709471168E-019
 -4.439124898383082E-019
 -5.078103213835391E-019
 -5.232382028775435E-019
 -5.113393590701224E-019
 -5.977194847937807E-019
 -8.129629190559158E-019
 -6.624298884211305E-019
 -6.559839891261088E-019
 -5.938643457646487E-019
 -6.401206515657112E-019
 -7.266101320132131E-019
 -7.864177644668954E-019
 -7.208711127652114E-019
 -7.347011887759434E-019
  4.560727509746207E-020
 -7.384634551805699E-020
 -7.292503209615255E-020
  3.774437798460507E-020
 -2.063863644063455E-019
 -1.833202711797278E-019
 -3.118162250005877E-019
 -4.443337858569734E-019
 -4.371268198602590E-019
 -6.340692003156406E-019
 -4.530375094050930E-019
 -5.912599161582797E-019
 -5.617368786359059E-019
 -6.969167184420785E-019
 -7.135342880339318E-019
 -3.660625396325118E-019
 -6.758791857273877E-019
 -6.036078853725745E-019
 -7.781973396768457E-019
 -6.960531316867851E-019
 -6.880094269084891E-019
 -7.243864811113094E-019
 -7.864314338073749E-019
 -7.334704926566561E-019
  8.031158779798957E-020
 -6.730491638763946E-020
 -2.099173311532370E-019
 -1.189843777183852E-019
 -3.070998782022858E-019
 -3.511848314772461E-019
 -2.508520963857728E-019
 -2.773549023162240E-019
 -2.257622006194778E-019
 -2.823442021513973E-019
 -4.743264527969369E-019
 -5.968185527057873E-019
 -5.487904026839493E-019
 -4.490493396599045E-019
 -5.536558285249159E-019
 -7.083327541986787E-019
 -5.650345189488181E-019
 -7.501290702699529E-019
 -5.922255322599353E-019
 -6.180601441131940E-019
 -6.942512675107994E-019
 -6.694332864323714E-019
 -7.598626032261360E-019
 -7.437478549885932E-019
 -7.153940367845342E-021
 -3.332878074022394E-020
 -1.396171678293882E-020
 -1.958743100424295E-019
 -1.356551428681974E-019
 -2.331031130044357E-019
 -2.406617534225918E-019
 -3.551083172087751E-019
 -6.622495057206293E-019
 -4.715453031788128E-019
 -3.881467230772478E-019
 -4.127132934785241E-019
 -5.484369626604400E-019
 -5.854772076145839E-019
 -3.650659221611562E-019
 -4.662217266937274E-019
 -6.113455021117987E-019
 -5.618252386417843E-019
 -7.835009028584551E-019
 -7.891952513962764E-019
 -7.077925875116809E-019
 -7.364893836114561E-019
 -7.075611901380059E-019
 -7.306283217136162E-019
 -6.988734579819784E-020
 -2.847027556126584E-020
 -1.613580198871927E-019
 -1.343139967415656E-019
 -2.294399493182892E-019
 -1.422659241788611E-019
 -2.724166171542299E-019
 -2.323748132745123E-019
 -4.039435452796164E-019
 -3.185035283210207E-019
 -5.046383864092029E-019
 -4.468256887580016E-019
 -3.191530497318640E-019
 -5.741321998346412E-019
 -6.098497259748758E-019
 -5.640862348763822E-019
 -7.593424498426135E-019
 -7.488746981584411E-019
 -6.926024473543399E-019
 -7.123582692765703E-019
 -7.742128326203969E-019
 -7.556877068174505E-019
 -7.186511245520487E-019
 -7.354372388482875E-019
  6.596762022836827E-020
  4.264558341698871E-020
 -1.519549255372544E-019
 -7.025787249730732E-020
 -1.432900599424982E-019
 -2.120758322951065E-019
 -3.337646964550119E-019
 -3.887552364666541E-019
 -3.977085393475518E-019
 -4.212124676266852E-019
 -4.468056754545305E-019
 -4.062947328644662E-019
 -6.206098963576404E-019
 -4.953229774901864E-019
 -5.380985790035906E-019
 -6.500208978819175E-019
 -7.518699131210256E-019
 -6.613385669809035E-019
 -7.503841436358493E-019
 -8.327660929625753E-019
 -6.711704665947013E-019
 -7.077142341575428E-019
 -7.672144379350284E-019
 -7.279068527832881E-019
  7.676329663714643E-021
 -1.438644657230044E-020
 -1.663554828505516E-019
 -2.293429232978027E-019
 -2.099330364102822E-019
 -2.661834425665387E-019
 -3.333515757437132E-019
 -2.589249711893993E-019
 -3.309361948524541E-019
 -3.473041851115270E-019
 -4.255167320626854E-019
 -5.295583968339909E-019
 -5.404069272226248E-019
 -5.908317854693764E-019
 -6.574424199303319E-019
 -6.471377189174386E-019
 -5.663672444144591E-019
 -6.456282734400374E-019
 -6.744444309153937E-019
 -6.452611640760509E-019
 -6.802444714883114E-019
 -7.819709533703445E-019
 -7.668915085739726E-019
 -7.637824262689295E-019
 -8.136477091014547E-020
 -3.908122397508396E-020
 -1.487278718004851E-019
 -1.134388443795848E-019
 -2.329373153166054E-019
 -2.930802058346912E-019
 -3.344328905322041E-019
 -3.427366720022586E-019
 -4.859092019135469E-019
 -4.007497656574350E-019
 -4.882075434808447E-019
 -4.885136315199190E-019
 -5.038394836675686E-019
 -5.373606975868670E-019
 -6.610834936150006E-019
 -6.960768076789985E-019
 -5.865922050470289E-019
 -6.481306737000450E-019
 -6.474948216296828E-019
 -7.155675495835935E-019
 -7.604506126048165E-019
 -6.908192558446982E-019
 -7.679181460005377E-019
 -7.373342977003953E-019
 -4.019884574727737E-020
 -4.271762949317477E-020
 -1.668390838967536E-019
 -1.649028483675767E-019
 -1.789481507485711E-019
 -2.640959943621951E-019
 -3.420448019328522E-019
 -3.169344021558373E-019
 -3.939094183174698E-019
 -4.284659356779551E-019
 -4.411350029089264E-019
 -5.416868066707196E-019
 -5.052605691390903E-019
 -5.649324896024623E-019
 -6.178424160800001E-019
 -6.022104758932755E-019
 -6.302514066192137E-019
 -6.167510946397711E-019
 -6.182555367912988E-019
 -7.197866259952227E-019
 -7.203136140489875E-019
 -7.797186231503525E-019
 -7.303495723555072E-019
 -7.488992898228568E-019
  1.294098191884669E-020
 -1.909210149028301E-019
 -1.173561657594398E-019
 -1.357052418691913E-019
 -2.866019645328450E-019
 -2.687500361329639E-019
 -3.729975909413534E-019
 -2.296465096739406E-019
 -3.749830097993429E-019
 -3.940911416550959E-019
 -4.091350724631359E-019
 -4.883655908262571E-019
 -5.181710403954801E-019
 -5.701085161011261E-019
 -5.634467201172799E-019
 -4.800107946830210E-019
 -5.650600262854086E-019
 -5.519336583401927E-019
 -6.280077424138333E-019
 -6.896140670620088E-019
 -7.232373103276707E-019
 -7.000818187461831E-019
 -7.218672395293288E-019
 -7.174994521054756E-019
 -2.302887057072973E-020
 -5.814996667129828E-020
 -1.378095313955085E-019
 -9.329882641776763E-020
 -1.766463918461520E-019
 -2.317252918636684E-019
 -3.816516404534236E-019
 -3.075392992455484E-019
 -3.457437249609451E-019
 -3.917199407667675E-019
 -3.961294065306268E-019
 -5.356490247611276E-019
 -5.658776016933917E-019
 -5.681622739202055E-019
 -6.578045259684420E-019
 -6.190239288704725E-019
 -6.629823838114839E-019
 -7.187581572242792E-019
 -6.653554160441731E-019
 -7.272218173841087E-019
 -7.292582509152700E-019
 -7.360780942445163E-019
 -7.619491357582925E-019
 -7.427075482215332E-019
 -5.787286904623945E-021
 -4.299558585591196E-020
 -1.966980498020931E-019
 -6.174936201597197E-020
 -1.778975919761583E-019
 -2.382918931713958E-019
 -2.832227988842974E-019
 -3.017852700199362E-019
 -4.222391050532516E-019
 -4.401507141409241E-019
 -5.055698291596581E-019
 -5.011180147372371E-019
 -4.924776345656472E-019
 -5.751401645948602E-019
 -5.946327378438286E-019
 -6.719762040065806E-019
 -6.300355099303796E-019
 -6.542263049530539E-019
 -6.454652227687641E-019
 -6.812524362485316E-019
 -7.068506474022443E-019
 -7.377209954029247E-019
 -7.355010071897687E-019
 -7.457970421880456E-019
  6.285266928774271E-023
 -3.613064685153886E-020
 -1.500962339312657E-019
 -2.002268421350548E-019
 -2.125356346722794E-019
 -2.814837873775975E-019
 -3.166879948045511E-019
 -2.537147713395347E-019
 -4.251851366870227E-019
 -4.176224086151860E-019
 -4.433226491152544E-019
 -4.629322616881856E-019
 -4.328225554242578E-019
 -5.243313556621475E-019
 -6.205265396776307E-019
 -6.729349854379932E-019
 -6.514351486831927E-019
 -7.004999427833409E-019
 -6.872665421659042E-019
 -7.114181605115100E-019
 -6.837716778305212E-019
 -7.438464669998292E-019
 -7.586437451029668E-019
 -7.479588458985041E-019
  1.731810567587408E-020
 -2.536547314291107E-020
 -8.355345546547138E-020
 -9.406038382670723E-020
 -1.677664389935236E-019
 -2.227569790051625E-019
 -3.608536804197762E-019
 -2.443078304331389E-019
 -3.775277587179196E-019
 -3.988185334541320E-019
 -4.472119614955886E-019
 -6.182418674508150E-019
 -5.097447255683438E-019
 -6.009984524403424E-019
 -5.810148958331776E-019
 -6.293896512082848E-019
 -6.758841890532643E-019
 -6.313819047365079E-019
 -7.056641312858978E-019
 -7.374991797160503E-019
 -7.472087913263933E-019
 -7.328551445970145E-019
 -7.496829372332563E-019
 -7.496162093927630E-019
 -3.532674078403266E-020
 -8.090850854490494E-020
 -1.307858747271679E-019
 -1.325995768992683E-019
 -1.984709893063738E-019
 -2.895206574856526E-019
 -2.727687165406113E-019
 -4.050348667198482E-019
 -3.237865874919114E-019
 -3.844104547164568E-019
 -4.077258249877201E-019
 -4.830825316553654E-019
 -5.817577805757694E-019
 -5.763776953843865E-019
 -6.174429647091810E-019
 -5.916543642032332E-019
 -6.862704154017875E-019
 -6.771285545130301E-019
 -6.883952089388331E-019
 -7.004336727789306E-019
 -7.078119304965913E-019
 -7.100676780516998E-019
 -7.490072381672672E-019
 -7.407361338633184E-019
 -2.396806366360867E-020
 -1.287996059393023E-020
 -7.108161225697055E-020
 -1.235342380202718E-019
 -2.057481333498591E-019
 -2.733312185827048E-019
 -2.879415246687265E-019
 -3.598152049970910E-019
 -3.973140913026029E-019
 -4.600577487383127E-019
 -4.954760215097233E-019
 -4.369040885011937E-019
 -5.312395589972719E-019
 -5.061173212241477E-019
 -6.615476289994810E-019
 -6.494870751579068E-019
 -6.558122724402237E-019
 -6.796222887584270E-019
 -7.140070894330244E-019
 -7.211022647852649E-019
 -7.112694494992746E-019
 -7.222828619035517E-019
 -7.346587174405573E-019
 -7.491784970170552E-019
 -6.601261843053297E-020
 -3.047864697228778E-020
 -5.185778171437836E-020
 -1.281390964622316E-019
 -2.268230113972488E-019
 -1.966759598006212E-019
 -2.672984399989855E-019
 -3.513141995045638E-019
 -4.110302999708696E-019
 -4.011337163434082E-019
 -4.118055267202896E-019
 -4.769017123779768E-019
 -5.286524614201252E-019
 -6.290257138257919E-019
 -6.075532157519563E-019
 -6.358218811628268E-019
 -6.483142283820438E-019
 -6.834979317982779E-019
 -7.019720429280406E-019
 -7.062132093411321E-019
 -7.235773263643160E-019
 -7.434529346270636E-019
 -7.408551272084628E-019
 -7.437321418212642E-019
 -3.396167331155973E-020
 -2.431833170561995E-020
 -7.759536754714699E-020
 -1.708295099512565E-019
 -1.781576686679217E-019
 -2.629586615746544E-019
 -3.267681331140090E-019
 -3.411948845180351E-019
 -3.798242689408427E-019
 -4.049975213871492E-019
 -4.575521764968062E-019
 -5.478471219373872E-019
 -5.115857664214022E-019
 -5.403185672167486E-019
 -5.847579988642131E-019
 -6.237239819885520E-019
 -6.404914236184429E-019
 -6.439812846279545E-019
 -7.029205723540937E-019
 -7.090774702856429E-019
 -7.159831719578336E-019
 -7.312088261034974E-019
 -7.371723751837885E-019
 -7.457003677624257E-019
  1.017533298557436E-020
 -8.033050581796096E-020
 -1.578748586919283E-019
 -1.802246128615419E-019
 -1.791843060944924E-019
 -2.505820130422733E-019
 -3.556521465845185E-019
 -2.882594507039056E-019
 -3.971186986244965E-019
 -4.306654198803870E-019
 -5.123523271562075E-019
 -4.942284840684568E-019
 -5.411548152910801E-019
 -5.403814198860331E-019
 -6.146636464354213E-019
 -5.924414289487550E-019
 -6.413668483698440E-019
 -6.451864734106467E-019
 -6.858199493577934E-019
 -7.109745291377480E-019
 -7.280844884672210E-019
 -7.350598774789471E-019
 -7.417845261320698E-019
 -7.455227320784736E-019
 -3.532991276552995E-020
 -8.467028424228925E-020
 -1.452991547926995E-019
 -1.752968250585310E-019
 -1.805101968898939E-019
 -2.544184794050525E-019
 -2.921114177515390E-019
 -3.410231678321483E-019
 -3.794179828997820E-019
 -4.138793055841532E-019
 -4.504790911460350E-019
 -5.201614625793274E-019
 -5.069417313023668E-019
 -5.208414946526347E-019
 -6.095573072762917E-019
 -6.191496342090549E-019
 -6.366089459083475E-019
 -6.777880825756023E-019
 -6.892808856955916E-019
 -7.079547225107634E-019
 -7.246397231328338E-019
 -7.323825885515409E-019
 -7.422222385077731E-019
 -7.466773640240851E-019
SCALARS elementIsPlast double 
LOOKUP_TABLE default
  0.000000000000000E+000
  0.000000000000000E+000
  0.000000000000000E+000
  0.000000000000000E+000
  0.000000000000000E+000
  0.000000000000000E+000
  0.000000000000000E+000
  0.000000000000000E+000
  0.000000000000000E+000
  0.000000000000000E+000
  0.000000000000000E+000
  0.000000000000000E+000
  0.000000000000000E+000
  0.000000000000000E+000
  0.000000000000000E+000
  0.000000000000000E+000
  0.000000000000000E+000
  0.000000000000000E+000
  0.000000000000000E+000
  0.000000000000000E+000
  0.000000000000000E+000
  0.000000000000000E+000
  0.000000000000000E+000
  0.000000000000000E+000
  0.000000000000000E+000
  0.000000000000000E+000
  0.000000000000000E+000
  0.000000000000000E+000
  0.000000000000000E+000
  0.000000000000000E+000
  0.000000000000000E+000
  0.000000000000000E+000
  0.000000000000000E+000
  0.000000000000000E+000
  0.000000000000000E+000
  0.000000000000000E+000
  0.000000000000000E+000
  0.000000000000000E+000
  0.000000000000000E+000
  0.000000000000000E+000
  0.000000000000000E+000
  0.000000000000000E+000
  0.000000000000000E+000
  0.000000000000000E+000
  0.000000000000000E+000
  0.000000000000000E+000
  0.000000000000000E+000
  0.000000000000000E+000
  0.000000000000000E+000
  0.000000000000000E+000
  0.000000000000000E+000
  0.000000000000000E+000
  0.000000000000000E+000
  0.000000000000000E+000
  0.000000000000000E+000
  0.000000000000000E+000
  0.000000000000000E+000
  0.000000000000000E+000
  0.000000000000000E+000
  0.000000000000000E+000
  0.000000000000000E+000
  0.000000000000000E+000
  0.000000000000000E+000
  0.000000000000000E+000
  0.000000000000000E+000
  0.000000000000000E+000
  0.000000000000000E+000
  0.000000000000000E+000
  0.000000000000000E+000
  0.000000000000000E+000
  0.000000000000000E+000
  0.000000000000000E+000
  0.000000000000000E+000
  0.000000000000000E+000
  0.000000000000000E+000
  0.000000000000000E+000
  0.000000000000000E+000
  0.000000000000000E+000
  0.000000000000000E+000
  0.000000000000000E+000
  0.000000000000000E+000
  0.000000000000000E+000
  0.000000000000000E+000
  0.000000000000000E+000
  0.000000000000000E+000
  0.000000000000000E+000
  0.000000000000000E+000
  0.000000000000000E+000
  0.000000000000000E+000
  0.000000000000000E+000
  0.000000000000000E+000
  0.000000000000000E+000
  0.000000000000000E+000
  0.000000000000000E+000
  0.000000000000000E+000
  0.000000000000000E+000
  0.000000000000000E+000
  0.000000000000000E+000
  0.000000000000000E+000
  0.000000000000000E+000
  0.000000000000000E+000
  0.000000000000000E+000
  0.000000000000000E+000
  0.000000000000000E+000
  0.000000000000000E+000
  0.000000000000000E+000
  0.000000000000000E+000
  0.000000000000000E+000
  0.000000000000000E+000
  0.000000000000000E+000
  0.000000000000000E+000
  0.000000000000000E+000
  0.000000000000000E+000
  0.000000000000000E+000
  0.000000000000000E+000
  0.000000000000000E+000
  0.000000000000000E+000
  0.000000000000000E+000
  0.000000000000000E+000
  0.000000000000000E+000
  0.000000000000000E+000
  0.000000000000000E+000
  0.000000000000000E+000
  0.000000000000000E+000
  0.000000000000000E+000
  0.000000000000000E+000
  0.000000000000000E+000
  0.000000000000000E+000
  0.000000000000000E+000
  0.000000000000000E+000
  0.000000000000000E+000
  0.000000000000000E+000
  0.000000000000000E+000
  0.000000000000000E+000
  0.000000000000000E+000
  0.000000000000000E+000
  0.000000000000000E+000
  0.000000000000000E+000
  0.000000000000000E+000
  0.000000000000000E+000
  0.000000000000000E+000
  0.000000000000000E+000
  0.000000000000000E+000
  0.000000000000000E+000
  0.000000000000000E+000
  0.000000000000000E+000
  0.000000000000000E+000
  0.000000000000000E+000
  0.000000000000000E+000
  0.000000000000000E+000
  0.000000000000000E+000
  0.000000000000000E+000
  0.000000000000000E+000
  0.000000000000000E+000
  0.000000000000000E+000
  0.000000000000000E+000
  0.000000000000000E+000
  0.000000000000000E+000
  0.000000000000000E+000
  0.000000000000000E+000
  0.000000000000000E+000
  0.000000000000000E+000
  0.000000000000000E+000
  0.000000000000000E+000
  0.000000000000000E+000
  0.000000000000000E+000
  0.000000000000000E+000
  0.000000000000000E+000
  0.000000000000000E+000
  0.000000000000000E+000
  0.000000000000000E+000
  0.000000000000000E+000
  0.000000000000000E+000
  0.000000000000000E+000
  0.000000000000000E+000
  0.000000000000000E+000
  0.000000000000000E+000
  0.000000000000000E+000
  0.000000000000000E+000
  0.000000000000000E+000
  0.000000000000000E+000
  0.000000000000000E+000
  0.000000000000000E+000
  0.000000000000000E+000
  0.000000000000000E+000
  0.000000000000000E+000
  0.000000000000000E+000
  0.000000000000000E+000
  0.000000000000000E+000
  0.000000000000000E+000
  0.000000000000000E+000
  0.000000000000000E+000
  0.000000000000000E+000
  0.000000000000000E+000
  0.000000000000000E+000
  0.000000000000000E+000
  0.000000000000000E+000
  0.000000000000000E+000
  0.000000000000000E+000
  0.000000000000000E+000
  0.000000000000000E+000
  0.000000000000000E+000
  0.000000000000000E+000
  0.000000000000000E+000
  0.000000000000000E+000
  0.000000000000000E+000
  0.000000000000000E+000
  0.000000000000000E+000
  0.000000000000000E+000
  0.000000000000000E+000
  0.000000000000000E+000
  0.000000000000000E+000
  0.000000000000000E+000
  0.000000000000000E+000
  0.000000000000000E+000
  0.000000000000000E+000
  0.000000000000000E+000
  0.000000000000000E+000
  0.000000000000000E+000
  0.000000000000000E+000
  0.000000000000000E+000
  0.000000000000000E+000
  0.000000000000000E+000
  0.000000000000000E+000
  0.000000000000000E+000
  0.000000000000000E+000
  0.000000000000000E+000
  0.000000000000000E+000
  0.000000000000000E+000
  0.000000000000000E+000
  0.000000000000000E+000
  0.000000000000000E+000
  0.000000000000000E+000
  0.000000000000000E+000
  0.000000000000000E+000
  0.000000000000000E+000
  0.000000000000000E+000
  0.000000000000000E+000
  0.000000000000000E+000
  0.000000000000000E+000
  0.000000000000000E+000
  0.000000000000000E+000
  0.000000000000000E+000
  0.000000000000000E+000
  0.000000000000000E+000
  0.000000000000000E+000
  0.000000000000000E+000
  0.000000000000000E+000
  0.000000000000000E+000
  0.000000000000000E+000
  0.000000000000000E+000
  0.000000000000000E+000
  0.000000000000000E+000
  0.000000000000000E+000
  0.000000000000000E+000
  0.000000000000000E+000
  0.000000000000000E+000
  0.000000000000000E+000
  0.000000000000000E+000
  0.000000000000000E+000
  0.000000000000000E+000
  0.000000000000000E+000
  0.000000000000000E+000
  0.000000000000000E+000
  0.000000000000000E+000
  0.000000000000000E+000
  0.000000000000000E+000
  0.000000000000000E+000
  0.000000000000000E+000
  0.000000000000000E+000
  0.000000000000000E+000
  0.000000000000000E+000
  0.000000000000000E+000
  0.000000000000000E+000
  0.000000000000000E+000
  0.000000000000000E+000
  0.000000000000000E+000
  0.000000000000000E+000
  0.000000000000000E+000
  0.000000000000000E+000
  0.000000000000000E+000
  0.000000000000000E+000
  0.000000000000000E+000
  0.000000000000000E+000
  0.000000000000000E+000
  0.000000000000000E+000
  0.000000000000000E+000
  0.000000000000000E+000
  0.000000000000000E+000
  0.000000000000000E+000
  0.000000000000000E+000
  0.000000000000000E+000
  0.000000000000000E+000
  0.000000000000000E+000
  0.000000000000000E+000
  0.000000000000000E+000
  0.000000000000000E+000
  0.000000000000000E+000
  0.000000000000000E+000
  0.000000000000000E+000
  0.000000000000000E+000
  0.000000000000000E+000
  0.000000000000000E+000
  0.000000000000000E+000
  0.000000000000000E+000
  0.000000000000000E+000
  0.000000000000000E+000
  0.000000000000000E+000
  0.000000000000000E+000
  0.000000000000000E+000
  0.000000000000000E+000
  0.000000000000000E+000
  0.000000000000000E+000
  0.000000000000000E+000
  0.000000000000000E+000
  0.000000000000000E+000
  0.000000000000000E+000
  0.000000000000000E+000
  0.000000000000000E+000
  0.000000000000000E+000
  0.000000000000000E+000
  0.000000000000000E+000
  0.000000000000000E+000
  0.000000000000000E+000
  0.000000000000000E+000
  0.000000000000000E+000
  0.000000000000000E+000
  0.000000000000000E+000
  0.000000000000000E+000
  0.000000000000000E+000
  0.000000000000000E+000
  0.000000000000000E+000
  0.000000000000000E+000
  0.000000000000000E+000
  0.000000000000000E+000
  0.000000000000000E+000
  0.000000000000000E+000
  0.000000000000000E+000
  0.000000000000000E+000
  0.000000000000000E+000
  0.000000000000000E+000
  0.000000000000000E+000
  0.000000000000000E+000
  0.000000000000000E+000
  0.000000000000000E+000
  0.000000000000000E+000
  0.000000000000000E+000
  0.000000000000000E+000
  0.000000000000000E+000
  0.000000000000000E+000
  0.000000000000000E+000
  0.000000000000000E+000
  0.000000000000000E+000
  0.000000000000000E+000
  0.000000000000000E+000
  0.000000000000000E+000
  0.000000000000000E+000
  0.000000000000000E+000
  0.000000000000000E+000
  0.000000000000000E+000
  0.000000000000000E+000
  0.000000000000000E+000
  0.000000000000000E+000
  0.000000000000000E+000
  0.000000000000000E+000
  0.000000000000000E+000
  0.000000000000000E+000
  0.000000000000000E+000
  0.000000000000000E+000
  0.000000000000000E+000
  0.000000000000000E+000
  0.000000000000000E+000
  0.000000000000000E+000
  0.000000000000000E+000
  0.000000000000000E+000
  0.000000000000000E+000
  0.000000000000000E+000
  0.000000000000000E+000
  0.000000000000000E+000
  0.000000000000000E+000
  0.000000000000000E+000
  0.000000000000000E+000
  0.000000000000000E+000
  0.000000000000000E+000
  0.000000000000000E+000
  0.000000000000000E+000
  0.000000000000000E+000
  0.000000000000000E+000
  0.000000000000000E+000
  0.000000000000000E+000
  0.000000000000000E+000
  0.000000000000000E+000
  0.000000000000000E+000
  0.000000000000000E+000
  0.000000000000000E+000
  0.000000000000000E+000
  0.000000000000000E+000
  0.000000000000000E+000
  0.000000000000000E+000
  0.000000000000000E+000
  0.000000000000000E+000
  0.000000000000000E+000
  0.000000000000000E+000
  0.000000000000000E+000
  0.000000000000000E+000
  0.000000000000000E+000
  0.000000000000000E+000
  0.000000000000000E+000
  0.000000000000000E+000
  0.000000000000000E+000
  0.000000000000000E+000
  0.000000000000000E+000
  0.000000000000000E+000
  0.000000000000000E+000
  0.000000000000000E+000
  0.000000000000000E+000
  0.000000000000000E+000
  0.000000000000000E+000
  0.000000000000000E+000
  0.000000000000000E+000
  0.000000000000000E+000
  0.000000000000000E+000
  0.000000000000000E+000
  0.000000000000000E+000
  0.000000000000000E+000
  0.000000000000000E+000
  0.000000000000000E+000
  0.000000000000000E+000
  0.000000000000000E+000
  0.000000000000000E+000
  0.000000000000000E+000
  0.000000000000000E+000
  0.000000000000000E+000
  0.000000000000000E+000
  0.000000000000000E+000
  0.000000000000000E+000
  0.000000000000000E+000
  0.000000000000000E+000
  0.000000000000000E+000
  0.000000000000000E+000
  0.000000000000000E+000
  0.000000000000000E+000
  0.000000000000000E+000
  0.000000000000000E+000
  0.000000000000000E+000
  0.000000000000000E+000
  0.000000000000000E+000
  0.000000000000000E+000
  0.000000000000000E+000
  0.000000000000000E+000
  0.000000000000000E+000
  0.000000000000000E+000
  0.000000000000000E+000
  0.000000000000000E+000
  0.000000000000000E+000
  0.000000000000000E+000
  0.000000000000000E+000
  0.000000000000000E+000
  0.000000000000000E+000
  0.000000000000000E+000
  0.000000000000000E+000
  0.000000000000000E+000
  0.000000000000000E+000
  0.000000000000000E+000
  0.000000000000000E+000
  0.000000000000000E+000
  0.000000000000000E+000
  0.000000000000000E+000
  0.000000000000000E+000
  0.000000000000000E+000
  0.000000000000000E+000
  0.000000000000000E+000
  0.000000000000000E+000
  0.000000000000000E+000
  0.000000000000000E+000
  0.000000000000000E+000
  0.000000000000000E+000
  0.000000000000000E+000
  0.000000000000000E+000
  0.000000000000000E+000
  0.000000000000000E+000
  0.000000000000000E+000
  0.000000000000000E+000
  0.000000000000000E+000
  0.000000000000000E+000
  0.000000000000000E+000
  0.000000000000000E+000
  0.000000000000000E+000
  0.000000000000000E+000
  0.000000000000000E+000
  0.000000000000000E+000
  0.000000000000000E+000
  0.000000000000000E+000
  0.000000000000000E+000
  0.000000000000000E+000
  0.000000000000000E+000
  0.000000000000000E+000
  0.000000000000000E+000
  0.000000000000000E+000
  0.000000000000000E+000
  0.000000000000000E+000
  0.000000000000000E+000
  0.000000000000000E+000
  0.000000000000000E+000
  0.000000000000000E+000
  0.000000000000000E+000
  0.000000000000000E+000
  0.000000000000000E+000
  0.000000000000000E+000
  0.000000000000000E+000
  0.000000000000000E+000
  0.000000000000000E+000
  0.000000000000000E+000
  0.000000000000000E+000
  0.000000000000000E+000
  0.000000000000000E+000
  0.000000000000000E+000
  0.000000000000000E+000
  0.000000000000000E+000
  0.000000000000000E+000
  0.000000000000000E+000
  0.000000000000000E+000
  0.000000000000000E+000
  0.000000000000000E+000
  0.000000000000000E+000
  0.000000000000000E+000
  0.000000000000000E+000
  0.000000000000000E+000
  0.000000000000000E+000
  0.000000000000000E+000
  0.000000000000000E+000
  0.000000000000000E+000
  0.000000000000000E+000
  0.000000000000000E+000
  0.000000000000000E+000
  0.000000000000000E+000
  0.000000000000000E+000
  0.000000000000000E+000
  0.000000000000000E+000
  0.000000000000000E+000
  0.000000000000000E+000
  0.000000000000000E+000
  0.000000000000000E+000
  0.000000000000000E+000
  0.000000000000000E+000
  0.000000000000000E+000
  0.000000000000000E+000
  0.000000000000000E+000
  0.000000000000000E+000
  0.000000000000000E+000
  0.000000000000000E+000
  0.000000000000000E+000
  0.000000000000000E+000
  0.000000000000000E+000
  0.000000000000000E+000
  0.000000000000000E+000
  0.000000000000000E+000
  0.000000000000000E+000
  0.000000000000000E+000
  0.000000000000000E+000
  0.000000000000000E+000
  0.000000000000000E+000
  0.000000000000000E+000
  0.000000000000000E+000
  0.000000000000000E+000
  0.000000000000000E+000
  0.000000000000000E+000
  0.000000000000000E+000
  0.000000000000000E+000
  0.000000000000000E+000
  0.000000000000000E+000
  0.000000000000000E+000
  0.000000000000000E+000
  0.000000000000000E+000
  0.000000000000000E+000
  0.000000000000000E+000
  0.000000000000000E+000
  0.000000000000000E+000
  0.000000000000000E+000
  0.000000000000000E+000
  0.000000000000000E+000
  0.000000000000000E+000
  0.000000000000000E+000
  0.000000000000000E+000
  0.000000000000000E+000
  0.000000000000000E+000
  0.000000000000000E+000
  0.000000000000000E+000
  0.000000000000000E+000
  0.000000000000000E+000
  0.000000000000000E+000
  0.000000000000000E+000
  0.000000000000000E+000
  0.000000000000000E+000
  0.000000000000000E+000
  0.000000000000000E+000
  0.000000000000000E+000
  0.000000000000000E+000
  0.000000000000000E+000
  0.000000000000000E+000
  0.000000000000000E+000
  0.000000000000000E+000
  0.000000000000000E+000
  0.000000000000000E+000
  0.000000000000000E+000
  0.000000000000000E+000
  0.000000000000000E+000
  0.000000000000000E+000
  0.000000000000000E+000
  0.000000000000000E+000
  0.000000000000000E+000
  0.000000000000000E+000
  0.000000000000000E+000
  0.000000000000000E+000
  0.000000000000000E+000
  0.000000000000000E+000
  0.000000000000000E+000
  0.000000000000000E+000
  0.000000000000000E+000
  0.000000000000000E+000
  0.000000000000000E+000
  0.000000000000000E+000
  0.000000000000000E+000
  0.000000000000000E+000
  0.000000000000000E+000
  0.000000000000000E+000
  0.000000000000000E+000
  0.000000000000000E+000
  0.000000000000000E+000
  0.000000000000000E+000
  0.000000000000000E+000
  0.000000000000000E+000
  0.000000000000000E+000
  0.000000000000000E+000
  0.000000000000000E+000
  0.000000000000000E+000
  0.000000000000000E+000
  0.000000000000000E+000
  0.000000000000000E+000
  0.000000000000000E+000
  0.000000000000000E+000
  0.000000000000000E+000
  0.000000000000000E+000
  0.000000000000000E+000
  0.000000000000000E+000
  0.000000000000000E+000
  0.000000000000000E+000
  0.000000000000000E+000
  0.000000000000000E+000
  0.000000000000000E+000
  0.000000000000000E+000
  0.000000000000000E+000
  0.000000000000000E+000
  0.000000000000000E+000
  0.000000000000000E+000
  0.000000000000000E+000
  0.000000000000000E+000
  0.000000000000000E+000
  0.000000000000000E+000
  0.000000000000000E+000
  0.000000000000000E+000
  0.000000000000000E+000
  0.000000000000000E+000
  0.000000000000000E+000
  0.000000000000000E+000
  0.000000000000000E+000
  0.000000000000000E+000
  0.000000000000000E+000
  0.000000000000000E+000
  0.000000000000000E+000
  0.000000000000000E+000
  0.000000000000000E+000
  0.000000000000000E+000
  0.000000000000000E+000
  0.000000000000000E+000
  0.000000000000000E+000
  0.000000000000000E+000
  0.000000000000000E+000
  0.000000000000000E+000
  0.000000000000000E+000
  0.000000000000000E+000
  0.000000000000000E+000
  0.000000000000000E+000
  0.000000000000000E+000
  0.000000000000000E+000
  0.000000000000000E+000
  0.000000000000000E+000
  0.000000000000000E+000
  0.000000000000000E+000
  0.000000000000000E+000
  0.000000000000000E+000
  0.000000000000000E+000
  0.000000000000000E+000
  0.000000000000000E+000
  0.000000000000000E+000
  0.000000000000000E+000
  0.000000000000000E+000
  0.000000000000000E+000
  0.000000000000000E+000
  0.000000000000000E+000
  0.000000000000000E+000
  0.000000000000000E+000
  0.000000000000000E+000
  0.000000000000000E+000
  0.000000000000000E+000
  0.000000000000000E+000
  0.000000000000000E+000
  0.000000000000000E+000
  0.000000000000000E+000
  0.000000000000000E+000
  0.000000000000000E+000
  0.000000000000000E+000
  0.000000000000000E+000
  0.000000000000000E+000
  0.000000000000000E+000
  0.000000000000000E+000
  0.000000000000000E+000
  0.000000000000000E+000
  0.000000000000000E+000
  0.000000000000000E+000
  0.000000000000000E+000
  0.000000000000000E+000
  0.000000000000000E+000
  0.000000000000000E+000
  0.000000000000000E+000
  0.000000000000000E+000
  0.000000000000000E+000
  0.000000000000000E+000
  0.000000000000000E+000
  0.000000000000000E+000
  0.000000000000000E+000
  0.000000000000000E+000
  0.000000000000000E+000
  0.000000000000000E+000
  0.000000000000000E+000
  0.000000000000000E+000
  0.000000000000000E+000
  0.000000000000000E+000
  0.000000000000000E+000
  0.000000000000000E+000
  0.000000000000000E+000
  0.000000000000000E+000
  0.000000000000000E+000
  0.000000000000000E+000
  0.000000000000000E+000
  0.000000000000000E+000
  0.000000000000000E+000
  0.000000000000000E+000
  0.000000000000000E+000
  0.000000000000000E+000
  0.000000000000000E+000
  0.000000000000000E+000
  0.000000000000000E+000
  0.000000000000000E+000
  0.000000000000000E+000
  0.000000000000000E+000
  0.000000000000000E+000
  0.000000000000000E+000
  0.000000000000000E+000
  0.000000000000000E+000
  0.000000000000000E+000
  0.000000000000000E+000
  0.000000000000000E+000
  0.000000000000000E+000
  0.000000000000000E+000
  0.000000000000000E+000
  0.000000000000000E+000
  0.000000000000000E+000
  0.000000000000000E+000
  0.000000000000000E+000
  0.000000000000000E+000
  0.000000000000000E+000
  0.000000000000000E+000
  0.000000000000000E+000
  0.000000000000000E+000
  0.000000000000000E+000
  0.000000000000000E+000
  0.000000000000000E+000
  0.000000000000000E+000
  0.000000000000000E+000
  0.000000000000000E+000
  0.000000000000000E+000
  0.000000000000000E+000
  0.000000000000000E+000
  0.000000000000000E+000
  0.000000000000000E+000
  0.000000000000000E+000
  0.000000000000000E+000
  0.000000000000000E+000
  0.000000000000000E+000
  0.000000000000000E+000
  0.000000000000000E+000
  0.000000000000000E+000
  0.000000000000000E+000
  0.000000000000000E+000
  0.000000000000000E+000
  0.000000000000000E+000
  0.000000000000000E+000
  0.000000000000000E+000
  0.000000000000000E+000
  0.000000000000000E+000
  0.000000000000000E+000
  0.000000000000000E+000
  0.000000000000000E+000
  0.000000000000000E+000
  0.000000000000000E+000
  0.000000000000000E+000
  0.000000000000000E+000
  0.000000000000000E+000
  0.000000000000000E+000
  0.000000000000000E+000
  0.000000000000000E+000
  0.000000000000000E+000
  0.000000000000000E+000
  0.000000000000000E+000
  0.000000000000000E+000
  0.000000000000000E+000
  0.000000000000000E+000
  0.000000000000000E+000
  0.000000000000000E+000
  0.000000000000000E+000
  0.000000000000000E+000
  0.000000000000000E+000
  0.000000000000000E+000
  0.000000000000000E+000
  0.000000000000000E+000
  0.000000000000000E+000
  0.000000000000000E+000
  0.000000000000000E+000
  0.000000000000000E+000
  0.000000000000000E+000
  0.000000000000000E+000
  0.000000000000000E+000
  0.000000000000000E+000
  0.000000000000000E+000
  0.000000000000000E+000
  0.000000000000000E+000
  0.000000000000000E+000
  0.000000000000000E+000
  0.000000000000000E+000
  0.000000000000000E+000
  0.000000000000000E+000
  0.000000000000000E+000
  0.000000000000000E+000
  0.000000000000000E+000
  0.000000000000000E+000
  0.000000000000000E+000
  0.000000000000000E+000
  0.000000000000000E+000
  0.000000000000000E+000
  0.000000000000000E+000
  0.000000000000000E+000
  0.000000000000000E+000
  0.000000000000000E+000
  0.000000000000000E+000
  0.000000000000000E+000
  0.000000000000000E+000
  0.000000000000000E+000
  0.000000000000000E+000
  0.000000000000000E+000
  0.000000000000000E+000
  0.000000000000000E+000
  0.000000000000000E+000
  0.000000000000000E+000
  0.000000000000000E+000
  0.000000000000000E+000
  0.000000000000000E+000
  0.000000000000000E+000
  0.000000000000000E+000
  0.000000000000000E+000
  0.000000000000000E+000
  0.000000000000000E+000
  0.000000000000000E+000
  0.000000000000000E+000
  0.000000000000000E+000
  0.000000000000000E+000
  0.000000000000000E+000
  0.000000000000000E+000
  0.000000000000000E+000
  0.000000000000000E+000
  0.000000000000000E+000
  0.000000000000000E+000
  0.000000000000000E+000
  0.000000000000000E+000
  0.000000000000000E+000
  0.000000000000000E+000
  0.000000000000000E+000
  0.000000000000000E+000
  0.000000000000000E+000
  0.000000000000000E+000
  0.000000000000000E+000
  0.000000000000000E+000
  0.000000000000000E+000
  0.000000000000000E+000
  0.000000000000000E+000
  0.000000000000000E+000
  0.000000000000000E+000
  0.000000000000000E+000
  0.000000000000000E+000
  0.000000000000000E+000
  0.000000000000000E+000
  0.000000000000000E+000
  0.000000000000000E+000
  0.000000000000000E+000
  0.000000000000000E+000
  0.000000000000000E+000
  0.000000000000000E+000
  0.000000000000000E+000
  0.000000000000000E+000
  0.000000000000000E+000
  0.000000000000000E+000
  0.000000000000000E+000
  0.000000000000000E+000
  0.000000000000000E+000
  0.000000000000000E+000
  0.000000000000000E+000
  0.000000000000000E+000
  0.000000000000000E+000
  0.000000000000000E+000
  0.000000000000000E+000
  0.000000000000000E+000
  0.000000000000000E+000
  0.000000000000000E+000
  0.000000000000000E+000
  0.000000000000000E+000
  0.000000000000000E+000
  0.000000000000000E+000
  0.000000000000000E+000
  0.000000000000000E+000
  0.000000000000000E+000
  0.000000000000000E+000
  0.000000000000000E+000
  0.000000000000000E+000
  0.000000000000000E+000
  0.000000000000000E+000
  0.000000000000000E+000
  0.000000000000000E+000
  0.000000000000000E+000
  0.000000000000000E+000
  0.000000000000000E+000
  0.000000000000000E+000
  0.000000000000000E+000
  0.000000000000000E+000
  0.000000000000000E+000
  0.000000000000000E+000
  0.000000000000000E+000
  0.000000000000000E+000
  0.000000000000000E+000
  0.000000000000000E+000
  0.000000000000000E+000
  0.000000000000000E+000
  0.000000000000000E+000
  0.000000000000000E+000
  0.000000000000000E+000
  0.000000000000000E+000
  0.000000000000000E+000
  0.000000000000000E+000
  0.000000000000000E+000
  0.000000000000000E+000
  0.000000000000000E+000
  0.000000000000000E+000
  0.000000000000000E+000
  0.000000000000000E+000
  0.000000000000000E+000
  0.000000000000000E+000
  0.000000000000000E+000
  0.000000000000000E+000
  0.000000000000000E+000
  0.000000000000000E+000
  0.000000000000000E+000
  0.000000000000000E+000
  0.000000000000000E+000
  0.000000000000000E+000
  0.000000000000000E+000
  0.000000000000000E+000
  0.000000000000000E+000
  0.000000000000000E+000
  0.000000000000000E+000
  0.000000000000000E+000
  0.000000000000000E+000
  0.000000000000000E+000
  0.000000000000000E+000
  0.000000000000000E+000
  0.000000000000000E+000
  0.000000000000000E+000
  0.000000000000000E+000
  0.000000000000000E+000
  0.000000000000000E+000
  0.000000000000000E+000
  0.000000000000000E+000
  0.000000000000000E+000
  0.000000000000000E+000
  0.000000000000000E+000
  0.000000000000000E+000
  0.000000000000000E+000
  0.000000000000000E+000
  0.000000000000000E+000
  0.000000000000000E+000
  0.000000000000000E+000
  0.000000000000000E+000
  0.000000000000000E+000
  0.000000000000000E+000
  0.000000000000000E+000
  0.000000000000000E+000
  0.000000000000000E+000
  0.000000000000000E+000
  0.000000000000000E+000
  0.000000000000000E+000
  0.000000000000000E+000
  0.000000000000000E+000
  0.000000000000000E+000
  0.000000000000000E+000
  0.000000000000000E+000
  0.000000000000000E+000
  0.000000000000000E+000
  0.000000000000000E+000
  0.000000000000000E+000
  0.000000000000000E+000
  0.000000000000000E+000
  0.000000000000000E+000
  0.000000000000000E+000
  0.000000000000000E+000
  0.000000000000000E+000
  0.000000000000000E+000
  0.000000000000000E+000
  0.000000000000000E+000
  0.000000000000000E+000
  0.000000000000000E+000
  0.000000000000000E+000
  0.000000000000000E+000
  0.000000000000000E+000
  0.000000000000000E+000
  0.000000000000000E+000
  0.000000000000000E+000
  0.000000000000000E+000
  0.000000000000000E+000
  0.000000000000000E+000
  0.000000000000000E+000
  0.000000000000000E+000
  0.000000000000000E+000
  0.000000000000000E+000
  0.000000000000000E+000
  0.000000000000000E+000
  0.000000000000000E+000
  0.000000000000000E+000
  0.000000000000000E+000
  0.000000000000000E+000
  0.000000000000000E+000
  0.000000000000000E+000
  0.000000000000000E+000
  0.000000000000000E+000
  0.000000000000000E+000
  0.000000000000000E+000
  0.000000000000000E+000
  0.000000000000000E+000
  0.000000000000000E+000
  0.000000000000000E+000
  0.000000000000000E+000
  0.000000000000000E+000
  0.000000000000000E+000
  0.000000000000000E+000
  0.000000000000000E+000
  0.000000000000000E+000
  0.000000000000000E+000
  0.000000000000000E+000
  0.000000000000000E+000
  0.000000000000000E+000
  0.000000000000000E+000
  0.000000000000000E+000
  0.000000000000000E+000
  0.000000000000000E+000
  0.000000000000000E+000
  0.000000000000000E+000
  0.000000000000000E+000
  0.000000000000000E+000
  0.000000000000000E+000
  0.000000000000000E+000
  0.000000000000000E+000
  0.000000000000000E+000
  0.000000000000000E+000
  0.000000000000000E+000
  0.000000000000000E+000
  0.000000000000000E+000
  0.000000000000000E+000
  0.000000000000000E+000
  0.000000000000000E+000
  0.000000000000000E+000
  0.000000000000000E+000
  0.000000000000000E+000
  0.000000000000000E+000
  0.000000000000000E+000
  0.000000000000000E+000
  0.000000000000000E+000
  0.000000000000000E+000
  0.000000000000000E+000
  0.000000000000000E+000
  0.000000000000000E+000
  0.000000000000000E+000
  0.000000000000000E+000
  0.000000000000000E+000
  0.000000000000000E+000
  0.000000000000000E+000
  0.000000000000000E+000
  0.000000000000000E+000
  0.000000000000000E+000
  0.000000000000000E+000
  0.000000000000000E+000
  0.000000000000000E+000
  0.000000000000000E+000
  0.000000000000000E+000
  0.000000000000000E+000
  0.000000000000000E+000
  0.000000000000000E+000
  0.000000000000000E+000
  0.000000000000000E+000
  0.000000000000000E+000
  0.000000000000000E+000
  0.000000000000000E+000
  0.000000000000000E+000
  0.000000000000000E+000
  0.000000000000000E+000
  0.000000000000000E+000
  0.000000000000000E+000
  0.000000000000000E+000
  0.000000000000000E+000
  0.000000000000000E+000
  0.000000000000000E+000
  0.000000000000000E+000
  0.000000000000000E+000
  0.000000000000000E+000
  0.000000000000000E+000
  0.000000000000000E+000
  0.000000000000000E+000
  0.000000000000000E+000
  0.000000000000000E+000
  0.000000000000000E+000
  0.000000000000000E+000
  0.000000000000000E+000
  0.000000000000000E+000
  0.000000000000000E+000
  0.000000000000000E+000
  0.000000000000000E+000
  0.000000000000000E+000
  0.000000000000000E+000
  0.000000000000000E+000
  0.000000000000000E+000
  0.000000000000000E+000
  0.000000000000000E+000
  0.000000000000000E+000
  0.000000000000000E+000
  0.000000000000000E+000
  0.000000000000000E+000
