# vtk DataFile Version 3.0
vtk output
ASCII
DATASET UNSTRUCTURED_GRID
POINTS      1225 double 
  0.00000000E+00  2.40000000E+01  0.00000000E+00
  0.00000000E+00  2.30000000E+01  0.00000000E+00
  0.00000000E+00  2.20000000E+01  0.00000000E+00
  0.00000000E+00  2.10000000E+01  0.00000000E+00
  0.00000000E+00  2.00000000E+01  0.00000000E+00
  0.00000000E+00  1.90000000E+01  0.00000000E+00
  0.00000000E+00  1.80000000E+01  0.00000000E+00
  0.00000000E+00  1.70000000E+01  0.00000000E+00
  0.00000000E+00  1.60000000E+01  0.00000000E+00
  0.00000000E+00  1.50000000E+01  0.00000000E+00
  0.00000000E+00  1.40000000E+01  0.00000000E+00
  0.00000000E+00  1.30000000E+01  0.00000000E+00
  0.00000000E+00  1.20000000E+01  0.00000000E+00
  0.00000000E+00  1.10000000E+01  0.00000000E+00
  0.00000000E+00  1.00000000E+01  0.00000000E+00
  0.00000000E+00  9.00000000E+00  0.00000000E+00
  0.00000000E+00  8.00000000E+00  0.00000000E+00
  0.00000000E+00  7.00000000E+00  0.00000000E+00
  0.00000000E+00  6.00000000E+00  0.00000000E+00
  0.00000000E+00  5.00000000E+00  0.00000000E+00
  0.00000000E+00  4.00000000E+00  0.00000000E+00
  0.00000000E+00  3.00000000E+00  0.00000000E+00
  0.00000000E+00  2.00000000E+00  0.00000000E+00
  0.00000000E+00  1.00000000E+00  0.00000000E+00
  0.00000000E+00 -2.66453526E-15  0.00000000E+00
  1.00000000E+00  2.40000000E+01  0.00000000E+00
  1.00000000E+00  2.30000000E+01  0.00000000E+00
  1.00000000E+00  2.20000000E+01  0.00000000E+00
  1.00000000E+00  2.10000000E+01  0.00000000E+00
  1.00000000E+00  2.00000000E+01  0.00000000E+00
  1.00000000E+00  1.90000000E+01  0.00000000E+00
  1.00000000E+00  1.80000000E+01  0.00000000E+00
  1.00000000E+00  1.70000000E+01  0.00000000E+00
  1.00000000E+00  1.60000000E+01  0.00000000E+00
  1.00000000E+00  1.50000000E+01  0.00000000E+00
  1.00000000E+00  1.40000000E+01  0.00000000E+00
  1.00000000E+00  1.30000000E+01  0.00000000E+00
  1.00000000E+00  1.20000000E+01  0.00000000E+00
  1.00000000E+00  1.10000000E+01  0.00000000E+00
  1.00000000E+00  1.00000000E+01  0.00000000E+00
  1.00000000E+00  9.00000000E+00  0.00000000E+00
  1.00000000E+00  8.00000000E+00  0.00000000E+00
  1.00000000E+00  7.00000000E+00  0.00000000E+00
  1.00000000E+00  6.00000000E+00  0.00000000E+00
  1.00000000E+00  5.00000000E+00  0.00000000E+00
  1.00000000E+00  4.00000000E+00  0.00000000E+00
  1.00000000E+00  3.00000000E+00  0.00000000E+00
  1.00000000E+00  2.00000000E+00  0.00000000E+00
  1.00000000E+00  1.00000000E+00  0.00000000E+00
  1.00000000E+00 -2.66453526E-15  0.00000000E+00
  2.00000000E+00  2.40000000E+01  0.00000000E+00
  2.00000000E+00  2.30000000E+01  0.00000000E+00
  2.00000000E+00  2.20000000E+01  0.00000000E+00
  2.00000000E+00  2.10000000E+01  0.00000000E+00
  2.00000000E+00  2.00000000E+01  0.00000000E+00
  2.00000000E+00  1.90000000E+01  0.00000000E+00
  2.00000000E+00  1.80000000E+01  0.00000000E+00
  2.00000000E+00  1.70000000E+01  0.00000000E+00
  2.00000000E+00  1.60000000E+01  0.00000000E+00
  2.00000000E+00  1.50000000E+01  0.00000000E+00
  2.00000000E+00  1.40000000E+01  0.00000000E+00
  2.00000000E+00  1.30000000E+01  0.00000000E+00
  2.00000000E+00  1.20000000E+01  0.00000000E+00
  2.00000000E+00  1.10000000E+01  0.00000000E+00
  2.00000000E+00  1.00000000E+01  0.00000000E+00
  2.00000000E+00  9.00000000E+00  0.00000000E+00
  2.00000000E+00  8.00000000E+00  0.00000000E+00
  2.00000000E+00  7.00000000E+00  0.00000000E+00
  2.00000000E+00  6.00000000E+00  0.00000000E+00
  2.00000000E+00  5.00000000E+00  0.00000000E+00
  2.00000000E+00  4.00000000E+00  0.00000000E+00
  2.00000000E+00  3.00000000E+00  0.00000000E+00
  2.00000000E+00  2.00000000E+00  0.00000000E+00
  2.00000000E+00  1.00000000E+00  0.00000000E+00
  2.00000000E+00 -2.66453526E-15  0.00000000E+00
  3.00000000E+00  2.40000000E+01  0.00000000E+00
  3.00000000E+00  2.30000000E+01  0.00000000E+00
  3.00000000E+00  2.20000000E+01  0.00000000E+00
  3.00000000E+00  2.10000000E+01  0.00000000E+00
  3.00000000E+00  2.00000000E+01  0.00000000E+00
  3.00000000E+00  1.90000000E+01  0.00000000E+00
  3.00000000E+00  1.80000000E+01  0.00000000E+00
  3.00000000E+00  1.70000000E+01  0.00000000E+00
  3.00000000E+00  1.60000000E+01  0.00000000E+00
  3.00000000E+00  1.50000000E+01  0.00000000E+00
  3.00000000E+00  1.40000000E+01  0.00000000E+00
  3.00000000E+00  1.30000000E+01  0.00000000E+00
  3.00000000E+00  1.20000000E+01  0.00000000E+00
  3.00000000E+00  1.10000000E+01  0.00000000E+00
  3.00000000E+00  1.00000000E+01  0.00000000E+00
  3.00000000E+00  9.00000000E+00  0.00000000E+00
  3.00000000E+00  8.00000000E+00  0.00000000E+00
  3.00000000E+00  7.00000000E+00  0.00000000E+00
  3.00000000E+00  6.00000000E+00  0.00000000E+00
  3.00000000E+00  5.00000000E+00  0.00000000E+00
  3.00000000E+00  4.00000000E+00  0.00000000E+00
  3.00000000E+00  3.00000000E+00  0.00000000E+00
  3.00000000E+00  2.00000000E+00  0.00000000E+00
  3.00000000E+00  1.00000000E+00  0.00000000E+00
  3.00000000E+00 -2.66453526E-15  0.00000000E+00
  4.00000000E+00  2.40000000E+01  0.00000000E+00
  4.00000000E+00  2.30000000E+01  0.00000000E+00
  4.00000000E+00  2.20000000E+01  0.00000000E+00
  4.00000000E+00  2.10000000E+01  0.00000000E+00
  4.00000000E+00  2.00000000E+01  0.00000000E+00
  4.00000000E+00  1.90000000E+01  0.00000000E+00
  4.00000000E+00  1.80000000E+01  0.00000000E+00
  4.00000000E+00  1.70000000E+01  0.00000000E+00
  4.00000000E+00  1.60000000E+01  0.00000000E+00
  4.00000000E+00  1.50000000E+01  0.00000000E+00
  4.00000000E+00  1.40000000E+01  0.00000000E+00
  4.00000000E+00  1.30000000E+01  0.00000000E+00
  4.00000000E+00  1.20000000E+01  0.00000000E+00
  4.00000000E+00  1.10000000E+01  0.00000000E+00
  4.00000000E+00  1.00000000E+01  0.00000000E+00
  4.00000000E+00  9.00000000E+00  0.00000000E+00
  4.00000000E+00  8.00000000E+00  0.00000000E+00
  4.00000000E+00  7.00000000E+00  0.00000000E+00
  4.00000000E+00  6.00000000E+00  0.00000000E+00
  4.00000000E+00  5.00000000E+00  0.00000000E+00
  4.00000000E+00  4.00000000E+00  0.00000000E+00
  4.00000000E+00  3.00000000E+00  0.00000000E+00
  4.00000000E+00  2.00000000E+00  0.00000000E+00
  4.00000000E+00  1.00000000E+00  0.00000000E+00
  4.00000000E+00 -2.66453526E-15  0.00000000E+00
  5.00000000E+00  2.40000000E+01  0.00000000E+00
  5.00000000E+00  2.30000000E+01  0.00000000E+00
  5.00000000E+00  2.20000000E+01  0.00000000E+00
  5.00000000E+00  2.10000000E+01  0.00000000E+00
  5.00000000E+00  2.00000000E+01  0.00000000E+00
  5.00000000E+00  1.90000000E+01  0.00000000E+00
  5.00000000E+00  1.80000000E+01  0.00000000E+00
  5.00000000E+00  1.70000000E+01  0.00000000E+00
  5.00000000E+00  1.60000000E+01  0.00000000E+00
  5.00000000E+00  1.50000000E+01  0.00000000E+00
  5.00000000E+00  1.40000000E+01  0.00000000E+00
  5.00000000E+00  1.30000000E+01  0.00000000E+00
  5.00000000E+00  1.20000000E+01  0.00000000E+00
  5.00000000E+00  1.10000000E+01  0.00000000E+00
  5.00000000E+00  1.00000000E+01  0.00000000E+00
  5.00000000E+00  9.00000000E+00  0.00000000E+00
  5.00000000E+00  8.00000000E+00  0.00000000E+00
  5.00000000E+00  7.00000000E+00  0.00000000E+00
  5.00000000E+00  6.00000000E+00  0.00000000E+00
  5.00000000E+00  5.00000000E+00  0.00000000E+00
  5.00000000E+00  4.00000000E+00  0.00000000E+00
  5.00000000E+00  3.00000000E+00  0.00000000E+00
  5.00000000E+00  2.00000000E+00  0.00000000E+00
  5.00000000E+00  1.00000000E+00  0.00000000E+00
  5.00000000E+00 -2.66453526E-15  0.00000000E+00
  6.00000000E+00  2.40000000E+01  0.00000000E+00
  6.00000000E+00  2.30000000E+01  0.00000000E+00
  6.00000000E+00  2.20000000E+01  0.00000000E+00
  6.00000000E+00  2.10000000E+01  0.00000000E+00
  6.00000000E+00  2.00000000E+01  0.00000000E+00
  6.00000000E+00  1.90000000E+01  0.00000000E+00
  6.00000000E+00  1.80000000E+01  0.00000000E+00
  6.00000000E+00  1.70000000E+01  0.00000000E+00
  6.00000000E+00  1.60000000E+01  0.00000000E+00
  6.00000000E+00  1.50000000E+01  0.00000000E+00
  6.00000000E+00  1.40000000E+01  0.00000000E+00
  6.00000000E+00  1.30000000E+01  0.00000000E+00
  6.00000000E+00  1.20000000E+01  0.00000000E+00
  6.00000000E+00  1.10000000E+01  0.00000000E+00
  6.00000000E+00  1.00000000E+01  0.00000000E+00
  6.00000000E+00  9.00000000E+00  0.00000000E+00
  6.00000000E+00  8.00000000E+00  0.00000000E+00
  6.00000000E+00  7.00000000E+00  0.00000000E+00
  6.00000000E+00  6.00000000E+00  0.00000000E+00
  6.00000000E+00  5.00000000E+00  0.00000000E+00
  6.00000000E+00  4.00000000E+00  0.00000000E+00
  6.00000000E+00  3.00000000E+00  0.00000000E+00
  6.00000000E+00  2.00000000E+00  0.00000000E+00
  6.00000000E+00  1.00000000E+00  0.00000000E+00
  6.00000000E+00 -2.66453526E-15  0.00000000E+00
  7.00000000E+00  2.40000000E+01  0.00000000E+00
  7.00000000E+00  2.30000000E+01  0.00000000E+00
  7.00000000E+00  2.20000000E+01  0.00000000E+00
  7.00000000E+00  2.10000000E+01  0.00000000E+00
  7.00000000E+00  2.00000000E+01  0.00000000E+00
  7.00000000E+00  1.90000000E+01  0.00000000E+00
  7.00000000E+00  1.80000000E+01  0.00000000E+00
  7.00000000E+00  1.70000000E+01  0.00000000E+00
  7.00000000E+00  1.60000000E+01  0.00000000E+00
  7.00000000E+00  1.50000000E+01  0.00000000E+00
  7.00000000E+00  1.40000000E+01  0.00000000E+00
  7.00000000E+00  1.30000000E+01  0.00000000E+00
  7.00000000E+00  1.20000000E+01  0.00000000E+00
  7.00000000E+00  1.10000000E+01  0.00000000E+00
  7.00000000E+00  1.00000000E+01  0.00000000E+00
  7.00000000E+00  9.00000000E+00  0.00000000E+00
  7.00000000E+00  8.00000000E+00  0.00000000E+00
  7.00000000E+00  7.00000000E+00  0.00000000E+00
  7.00000000E+00  6.00000000E+00  0.00000000E+00
  7.00000000E+00  5.00000000E+00  0.00000000E+00
  7.00000000E+00  4.00000000E+00  0.00000000E+00
  7.00000000E+00  3.00000000E+00  0.00000000E+00
  7.00000000E+00  2.00000000E+00  0.00000000E+00
  7.00000000E+00  1.00000000E+00  0.00000000E+00
  7.00000000E+00 -2.66453526E-15  0.00000000E+00
  8.00000000E+00  2.40000000E+01  0.00000000E+00
  8.00000000E+00  2.30000000E+01  0.00000000E+00
  8.00000000E+00  2.20000000E+01  0.00000000E+00
  8.00000000E+00  2.10000000E+01  0.00000000E+00
  8.00000000E+00  2.00000000E+01  0.00000000E+00
  8.00000000E+00  1.90000000E+01  0.00000000E+00
  8.00000000E+00  1.80000000E+01  0.00000000E+00
  8.00000000E+00  1.70000000E+01  0.00000000E+00
  8.00000000E+00  1.60000000E+01  0.00000000E+00
  8.00000000E+00  1.50000000E+01  0.00000000E+00
  8.00000000E+00  1.40000000E+01  0.00000000E+00
  8.00000000E+00  1.30000000E+01  0.00000000E+00
  8.00000000E+00  1.20000000E+01  0.00000000E+00
  8.00000000E+00  1.10000000E+01  0.00000000E+00
  8.00000000E+00  1.00000000E+01  0.00000000E+00
  8.00000000E+00  9.00000000E+00  0.00000000E+00
  8.00000000E+00  8.00000000E+00  0.00000000E+00
  8.00000000E+00  7.00000000E+00  0.00000000E+00
  8.00000000E+00  6.00000000E+00  0.00000000E+00
  8.00000000E+00  5.00000000E+00  0.00000000E+00
  8.00000000E+00  4.00000000E+00  0.00000000E+00
  8.00000000E+00  3.00000000E+00  0.00000000E+00
  8.00000000E+00  2.00000000E+00  0.00000000E+00
  8.00000000E+00  1.00000000E+00  0.00000000E+00
  8.00000000E+00 -2.66453526E-15  0.00000000E+00
  9.00000000E+00  2.40000000E+01  0.00000000E+00
  9.00000000E+00  2.30000000E+01  0.00000000E+00
  9.00000000E+00  2.20000000E+01  0.00000000E+00
  9.00000000E+00  2.10000000E+01  0.00000000E+00
  9.00000000E+00  2.00000000E+01  0.00000000E+00
  9.00000000E+00  1.90000000E+01  0.00000000E+00
  9.00000000E+00  1.80000000E+01  0.00000000E+00
  9.00000000E+00  1.70000000E+01  0.00000000E+00
  9.00000000E+00  1.60000000E+01  0.00000000E+00
  9.00000000E+00  1.50000000E+01  0.00000000E+00
  9.00000000E+00  1.40000000E+01  0.00000000E+00
  9.00000000E+00  1.30000000E+01  0.00000000E+00
  9.00000000E+00  1.20000000E+01  0.00000000E+00
  9.00000000E+00  1.10000000E+01  0.00000000E+00
  9.00000000E+00  1.00000000E+01  0.00000000E+00
  9.00000000E+00  9.00000000E+00  0.00000000E+00
  9.00000000E+00  8.00000000E+00  0.00000000E+00
  9.00000000E+00  7.00000000E+00  0.00000000E+00
  9.00000000E+00  6.00000000E+00  0.00000000E+00
  9.00000000E+00  5.00000000E+00  0.00000000E+00
  9.00000000E+00  4.00000000E+00  0.00000000E+00
  9.00000000E+00  3.00000000E+00  0.00000000E+00
  9.00000000E+00  2.00000000E+00  0.00000000E+00
  9.00000000E+00  1.00000000E+00  0.00000000E+00
  9.00000000E+00 -2.66453526E-15  0.00000000E+00
  1.00000000E+01  2.40000000E+01  0.00000000E+00
  1.00000000E+01  2.30000000E+01  0.00000000E+00
  1.00000000E+01  2.20000000E+01  0.00000000E+00
  1.00000000E+01  2.10000000E+01  0.00000000E+00
  1.00000000E+01  2.00000000E+01  0.00000000E+00
  1.00000000E+01  1.90000000E+01  0.00000000E+00
  1.00000000E+01  1.80000000E+01  0.00000000E+00
  1.00000000E+01  1.70000000E+01  0.00000000E+00
  1.00000000E+01  1.60000000E+01  0.00000000E+00
  1.00000000E+01  1.50000000E+01  0.00000000E+00
  1.00000000E+01  1.40000000E+01  0.00000000E+00
  1.00000000E+01  1.30000000E+01  0.00000000E+00
  1.00000000E+01  1.20000000E+01  0.00000000E+00
  1.00000000E+01  1.10000000E+01  0.00000000E+00
  1.00000000E+01  1.00000000E+01  0.00000000E+00
  1.00000000E+01  9.00000000E+00  0.00000000E+00
  1.00000000E+01  8.00000000E+00  0.00000000E+00
  1.00000000E+01  7.00000000E+00  0.00000000E+00
  1.00000000E+01  6.00000000E+00  0.00000000E+00
  1.00000000E+01  5.00000000E+00  0.00000000E+00
  1.00000000E+01  4.00000000E+00  0.00000000E+00
  1.00000000E+01  3.00000000E+00  0.00000000E+00
  1.00000000E+01  2.00000000E+00  0.00000000E+00
  1.00000000E+01  1.00000000E+00  0.00000000E+00
  1.00000000E+01 -2.66453526E-15  0.00000000E+00
  1.10000000E+01  2.40000000E+01  0.00000000E+00
  1.10000000E+01  2.30000000E+01  0.00000000E+00
  1.10000000E+01  2.20000000E+01  0.00000000E+00
  1.10000000E+01  2.10000000E+01  0.00000000E+00
  1.10000000E+01  2.00000000E+01  0.00000000E+00
  1.10000000E+01  1.90000000E+01  0.00000000E+00
  1.10000000E+01  1.80000000E+01  0.00000000E+00
  1.10000000E+01  1.70000000E+01  0.00000000E+00
  1.10000000E+01  1.60000000E+01  0.00000000E+00
  1.10000000E+01  1.50000000E+01  0.00000000E+00
  1.10000000E+01  1.40000000E+01  0.00000000E+00
  1.10000000E+01  1.30000000E+01  0.00000000E+00
  1.10000000E+01  1.20000000E+01  0.00000000E+00
  1.10000000E+01  1.10000000E+01  0.00000000E+00
  1.10000000E+01  1.00000000E+01  0.00000000E+00
  1.10000000E+01  9.00000000E+00  0.00000000E+00
  1.10000000E+01  8.00000000E+00  0.00000000E+00
  1.10000000E+01  7.00000000E+00  0.00000000E+00
  1.10000000E+01  6.00000000E+00  0.00000000E+00
  1.10000000E+01  5.00000000E+00  0.00000000E+00
  1.10000000E+01  4.00000000E+00  0.00000000E+00
  1.10000000E+01  3.00000000E+00  0.00000000E+00
  1.10000000E+01  2.00000000E+00  0.00000000E+00
  1.10000000E+01  1.00000000E+00  0.00000000E+00
  1.10000000E+01 -2.66453526E-15  0.00000000E+00
  1.20000000E+01  2.40000000E+01  0.00000000E+00
  1.20000000E+01  2.30000000E+01  0.00000000E+00
  1.20000000E+01  2.20000000E+01  0.00000000E+00
  1.20000000E+01  2.10000000E+01  0.00000000E+00
  1.20000000E+01  2.00000000E+01  0.00000000E+00
  1.20000000E+01  1.90000000E+01  0.00000000E+00
  1.20000000E+01  1.80000000E+01  0.00000000E+00
  1.20000000E+01  1.70000000E+01  0.00000000E+00
  1.20000000E+01  1.60000000E+01  0.00000000E+00
  1.20000000E+01  1.50000000E+01  0.00000000E+00
  1.20000000E+01  1.40000000E+01  0.00000000E+00
  1.20000000E+01  1.30000000E+01  0.00000000E+00
  1.20000000E+01  1.20000000E+01  0.00000000E+00
  1.20000000E+01  1.10000000E+01  0.00000000E+00
  1.20000000E+01  1.00000000E+01  0.00000000E+00
  1.20000000E+01  9.00000000E+00  0.00000000E+00
  1.20000000E+01  8.00000000E+00  0.00000000E+00
  1.20000000E+01  7.00000000E+00  0.00000000E+00
  1.20000000E+01  6.00000000E+00  0.00000000E+00
  1.20000000E+01  5.00000000E+00  0.00000000E+00
  1.20000000E+01  4.00000000E+00  0.00000000E+00
  1.20000000E+01  3.00000000E+00  0.00000000E+00
  1.20000000E+01  2.00000000E+00  0.00000000E+00
  1.20000000E+01  1.00000000E+00  0.00000000E+00
  1.20000000E+01 -2.66453526E-15  0.00000000E+00
  1.30000000E+01  2.40000000E+01  0.00000000E+00
  1.30000000E+01  2.30000000E+01  0.00000000E+00
  1.30000000E+01  2.20000000E+01  0.00000000E+00
  1.30000000E+01  2.10000000E+01  0.00000000E+00
  1.30000000E+01  2.00000000E+01  0.00000000E+00
  1.30000000E+01  1.90000000E+01  0.00000000E+00
  1.30000000E+01  1.80000000E+01  0.00000000E+00
  1.30000000E+01  1.70000000E+01  0.00000000E+00
  1.30000000E+01  1.60000000E+01  0.00000000E+00
  1.30000000E+01  1.50000000E+01  0.00000000E+00
  1.30000000E+01  1.40000000E+01  0.00000000E+00
  1.30000000E+01  1.30000000E+01  0.00000000E+00
  1.30000000E+01  1.20000000E+01  0.00000000E+00
  1.30000000E+01  1.10000000E+01  0.00000000E+00
  1.30000000E+01  1.00000000E+01  0.00000000E+00
  1.30000000E+01  9.00000000E+00  0.00000000E+00
  1.30000000E+01  8.00000000E+00  0.00000000E+00
  1.30000000E+01  7.00000000E+00  0.00000000E+00
  1.30000000E+01  6.00000000E+00  0.00000000E+00
  1.30000000E+01  5.00000000E+00  0.00000000E+00
  1.30000000E+01  4.00000000E+00  0.00000000E+00
  1.30000000E+01  3.00000000E+00  0.00000000E+00
  1.30000000E+01  2.00000000E+00  0.00000000E+00
  1.30000000E+01  1.00000000E+00  0.00000000E+00
  1.30000000E+01 -2.66453526E-15  0.00000000E+00
  1.40000000E+01  2.40000000E+01  0.00000000E+00
  1.40000000E+01  2.30000000E+01  0.00000000E+00
  1.40000000E+01  2.20000000E+01  0.00000000E+00
  1.40000000E+01  2.10000000E+01  0.00000000E+00
  1.40000000E+01  2.00000000E+01  0.00000000E+00
  1.40000000E+01  1.90000000E+01  0.00000000E+00
  1.40000000E+01  1.80000000E+01  0.00000000E+00
  1.40000000E+01  1.70000000E+01  0.00000000E+00
  1.40000000E+01  1.60000000E+01  0.00000000E+00
  1.40000000E+01  1.50000000E+01  0.00000000E+00
  1.40000000E+01  1.40000000E+01  0.00000000E+00
  1.40000000E+01  1.30000000E+01  0.00000000E+00
  1.40000000E+01  1.20000000E+01  0.00000000E+00
  1.40000000E+01  1.10000000E+01  0.00000000E+00
  1.40000000E+01  1.00000000E+01  0.00000000E+00
  1.40000000E+01  9.00000000E+00  0.00000000E+00
  1.40000000E+01  8.00000000E+00  0.00000000E+00
  1.40000000E+01  7.00000000E+00  0.00000000E+00
  1.40000000E+01  6.00000000E+00  0.00000000E+00
  1.40000000E+01  5.00000000E+00  0.00000000E+00
  1.40000000E+01  4.00000000E+00  0.00000000E+00
  1.40000000E+01  3.00000000E+00  0.00000000E+00
  1.40000000E+01  2.00000000E+00  0.00000000E+00
  1.40000000E+01  1.00000000E+00  0.00000000E+00
  1.40000000E+01 -2.66453526E-15  0.00000000E+00
  1.50000000E+01  2.40000000E+01  0.00000000E+00
  1.50000000E+01  2.30000000E+01  0.00000000E+00
  1.50000000E+01  2.20000000E+01  0.00000000E+00
  1.50000000E+01  2.10000000E+01  0.00000000E+00
  1.50000000E+01  2.00000000E+01  0.00000000E+00
  1.50000000E+01  1.90000000E+01  0.00000000E+00
  1.50000000E+01  1.80000000E+01  0.00000000E+00
  1.50000000E+01  1.70000000E+01  0.00000000E+00
  1.50000000E+01  1.60000000E+01  0.00000000E+00
  1.50000000E+01  1.50000000E+01  0.00000000E+00
  1.50000000E+01  1.40000000E+01  0.00000000E+00
  1.50000000E+01  1.30000000E+01  0.00000000E+00
  1.50000000E+01  1.20000000E+01  0.00000000E+00
  1.50000000E+01  1.10000000E+01  0.00000000E+00
  1.50000000E+01  1.00000000E+01  0.00000000E+00
  1.50000000E+01  9.00000000E+00  0.00000000E+00
  1.50000000E+01  8.00000000E+00  0.00000000E+00
  1.50000000E+01  7.00000000E+00  0.00000000E+00
  1.50000000E+01  6.00000000E+00  0.00000000E+00
  1.50000000E+01  5.00000000E+00  0.00000000E+00
  1.50000000E+01  4.00000000E+00  0.00000000E+00
  1.50000000E+01  3.00000000E+00  0.00000000E+00
  1.50000000E+01  2.00000000E+00  0.00000000E+00
  1.50000000E+01  1.00000000E+00  0.00000000E+00
  1.50000000E+01 -2.66453526E-15  0.00000000E+00
  1.60000000E+01  2.40000000E+01  0.00000000E+00
  1.60000000E+01  2.30000000E+01  0.00000000E+00
  1.60000000E+01  2.20000000E+01  0.00000000E+00
  1.60000000E+01  2.10000000E+01  0.00000000E+00
  1.60000000E+01  2.00000000E+01  0.00000000E+00
  1.60000000E+01  1.90000000E+01  0.00000000E+00
  1.60000000E+01  1.80000000E+01  0.00000000E+00
  1.60000000E+01  1.70000000E+01  0.00000000E+00
  1.60000000E+01  1.60000000E+01  0.00000000E+00
  1.60000000E+01  1.50000000E+01  0.00000000E+00
  1.60000000E+01  1.40000000E+01  0.00000000E+00
  1.60000000E+01  1.30000000E+01  0.00000000E+00
  1.60000000E+01  1.20000000E+01  0.00000000E+00
  1.60000000E+01  1.10000000E+01  0.00000000E+00
  1.60000000E+01  1.00000000E+01  0.00000000E+00
  1.60000000E+01  9.00000000E+00  0.00000000E+00
  1.60000000E+01  8.00000000E+00  0.00000000E+00
  1.60000000E+01  7.00000000E+00  0.00000000E+00
  1.60000000E+01  6.00000000E+00  0.00000000E+00
  1.60000000E+01  5.00000000E+00  0.00000000E+00
  1.60000000E+01  4.00000000E+00  0.00000000E+00
  1.60000000E+01  3.00000000E+00  0.00000000E+00
  1.60000000E+01  2.00000000E+00  0.00000000E+00
  1.60000000E+01  1.00000000E+00  0.00000000E+00
  1.60000000E+01 -2.66453526E-15  0.00000000E+00
  1.70000000E+01  2.40000000E+01  0.00000000E+00
  1.70000000E+01  2.30000000E+01  0.00000000E+00
  1.70000000E+01  2.20000000E+01  0.00000000E+00
  1.70000000E+01  2.10000000E+01  0.00000000E+00
  1.70000000E+01  2.00000000E+01  0.00000000E+00
  1.70000000E+01  1.90000000E+01  0.00000000E+00
  1.70000000E+01  1.80000000E+01  0.00000000E+00
  1.70000000E+01  1.70000000E+01  0.00000000E+00
  1.70000000E+01  1.60000000E+01  0.00000000E+00
  1.70000000E+01  1.50000000E+01  0.00000000E+00
  1.70000000E+01  1.40000000E+01  0.00000000E+00
  1.70000000E+01  1.30000000E+01  0.00000000E+00
  1.70000000E+01  1.20000000E+01  0.00000000E+00
  1.70000000E+01  1.10000000E+01  0.00000000E+00
  1.70000000E+01  1.00000000E+01  0.00000000E+00
  1.70000000E+01  9.00000000E+00  0.00000000E+00
  1.70000000E+01  8.00000000E+00  0.00000000E+00
  1.70000000E+01  7.00000000E+00  0.00000000E+00
  1.70000000E+01  6.00000000E+00  0.00000000E+00
  1.70000000E+01  5.00000000E+00  0.00000000E+00
  1.70000000E+01  4.00000000E+00  0.00000000E+00
  1.70000000E+01  3.00000000E+00  0.00000000E+00
  1.70000000E+01  2.00000000E+00  0.00000000E+00
  1.70000000E+01  1.00000000E+00  0.00000000E+00
  1.70000000E+01 -2.66453526E-15  0.00000000E+00
  1.80000000E+01  2.40000000E+01  0.00000000E+00
  1.80000000E+01  2.30000000E+01  0.00000000E+00
  1.80000000E+01  2.20000000E+01  0.00000000E+00
  1.80000000E+01  2.10000000E+01  0.00000000E+00
  1.80000000E+01  2.00000000E+01  0.00000000E+00
  1.80000000E+01  1.90000000E+01  0.00000000E+00
  1.80000000E+01  1.80000000E+01  0.00000000E+00
  1.80000000E+01  1.70000000E+01  0.00000000E+00
  1.80000000E+01  1.60000000E+01  0.00000000E+00
  1.80000000E+01  1.50000000E+01  0.00000000E+00
  1.80000000E+01  1.40000000E+01  0.00000000E+00
  1.80000000E+01  1.30000000E+01  0.00000000E+00
  1.80000000E+01  1.20000000E+01  0.00000000E+00
  1.80000000E+01  1.10000000E+01  0.00000000E+00
  1.80000000E+01  1.00000000E+01  0.00000000E+00
  1.80000000E+01  9.00000000E+00  0.00000000E+00
  1.80000000E+01  8.00000000E+00  0.00000000E+00
  1.80000000E+01  7.00000000E+00  0.00000000E+00
  1.80000000E+01  6.00000000E+00  0.00000000E+00
  1.80000000E+01  5.00000000E+00  0.00000000E+00
  1.80000000E+01  4.00000000E+00  0.00000000E+00
  1.80000000E+01  3.00000000E+00  0.00000000E+00
  1.80000000E+01  2.00000000E+00  0.00000000E+00
  1.80000000E+01  1.00000000E+00  0.00000000E+00
  1.80000000E+01 -2.66453526E-15  0.00000000E+00
  1.90000000E+01  2.40000000E+01  0.00000000E+00
  1.90000000E+01  2.30000000E+01  0.00000000E+00
  1.90000000E+01  2.20000000E+01  0.00000000E+00
  1.90000000E+01  2.10000000E+01  0.00000000E+00
  1.90000000E+01  2.00000000E+01  0.00000000E+00
  1.90000000E+01  1.90000000E+01  0.00000000E+00
  1.90000000E+01  1.80000000E+01  0.00000000E+00
  1.90000000E+01  1.70000000E+01  0.00000000E+00
  1.90000000E+01  1.60000000E+01  0.00000000E+00
  1.90000000E+01  1.50000000E+01  0.00000000E+00
  1.90000000E+01  1.40000000E+01  0.00000000E+00
  1.90000000E+01  1.30000000E+01  0.00000000E+00
  1.90000000E+01  1.20000000E+01  0.00000000E+00
  1.90000000E+01  1.10000000E+01  0.00000000E+00
  1.90000000E+01  1.00000000E+01  0.00000000E+00
  1.90000000E+01  9.00000000E+00  0.00000000E+00
  1.90000000E+01  8.00000000E+00  0.00000000E+00
  1.90000000E+01  7.00000000E+00  0.00000000E+00
  1.90000000E+01  6.00000000E+00  0.00000000E+00
  1.90000000E+01  5.00000000E+00  0.00000000E+00
  1.90000000E+01  4.00000000E+00  0.00000000E+00
  1.90000000E+01  3.00000000E+00  0.00000000E+00
  1.90000000E+01  2.00000000E+00  0.00000000E+00
  1.90000000E+01  1.00000000E+00  0.00000000E+00
  1.90000000E+01 -2.66453526E-15  0.00000000E+00
  2.00000000E+01  2.40000000E+01  0.00000000E+00
  2.00000000E+01  2.30000000E+01  0.00000000E+00
  2.00000000E+01  2.20000000E+01  0.00000000E+00
  2.00000000E+01  2.10000000E+01  0.00000000E+00
  2.00000000E+01  2.00000000E+01  0.00000000E+00
  2.00000000E+01  1.90000000E+01  0.00000000E+00
  2.00000000E+01  1.80000000E+01  0.00000000E+00
  2.00000000E+01  1.70000000E+01  0.00000000E+00
  2.00000000E+01  1.60000000E+01  0.00000000E+00
  2.00000000E+01  1.50000000E+01  0.00000000E+00
  2.00000000E+01  1.40000000E+01  0.00000000E+00
  2.00000000E+01  1.30000000E+01  0.00000000E+00
  2.00000000E+01  1.20000000E+01  0.00000000E+00
  2.00000000E+01  1.10000000E+01  0.00000000E+00
  2.00000000E+01  1.00000000E+01  0.00000000E+00
  2.00000000E+01  9.00000000E+00  0.00000000E+00
  2.00000000E+01  8.00000000E+00  0.00000000E+00
  2.00000000E+01  7.00000000E+00  0.00000000E+00
  2.00000000E+01  6.00000000E+00  0.00000000E+00
  2.00000000E+01  5.00000000E+00  0.00000000E+00
  2.00000000E+01  4.00000000E+00  0.00000000E+00
  2.00000000E+01  3.00000000E+00  0.00000000E+00
  2.00000000E+01  2.00000000E+00  0.00000000E+00
  2.00000000E+01  1.00000000E+00  0.00000000E+00
  2.00000000E+01 -2.66453526E-15  0.00000000E+00
  2.10000000E+01  2.40000000E+01  0.00000000E+00
  2.10000000E+01  2.30000000E+01  0.00000000E+00
  2.10000000E+01  2.20000000E+01  0.00000000E+00
  2.10000000E+01  2.10000000E+01  0.00000000E+00
  2.10000000E+01  2.00000000E+01  0.00000000E+00
  2.10000000E+01  1.90000000E+01  0.00000000E+00
  2.10000000E+01  1.80000000E+01  0.00000000E+00
  2.10000000E+01  1.70000000E+01  0.00000000E+00
  2.10000000E+01  1.60000000E+01  0.00000000E+00
  2.10000000E+01  1.50000000E+01  0.00000000E+00
  2.10000000E+01  1.40000000E+01  0.00000000E+00
  2.10000000E+01  1.30000000E+01  0.00000000E+00
  2.10000000E+01  1.20000000E+01  0.00000000E+00
  2.10000000E+01  1.10000000E+01  0.00000000E+00
  2.10000000E+01  1.00000000E+01  0.00000000E+00
  2.10000000E+01  9.00000000E+00  0.00000000E+00
  2.10000000E+01  8.00000000E+00  0.00000000E+00
  2.10000000E+01  7.00000000E+00  0.00000000E+00
  2.10000000E+01  6.00000000E+00  0.00000000E+00
  2.10000000E+01  5.00000000E+00  0.00000000E+00
  2.10000000E+01  4.00000000E+00  0.00000000E+00
  2.10000000E+01  3.00000000E+00  0.00000000E+00
  2.10000000E+01  2.00000000E+00  0.00000000E+00
  2.10000000E+01  1.00000000E+00  0.00000000E+00
  2.10000000E+01 -2.66453526E-15  0.00000000E+00
  2.20000000E+01  2.40000000E+01  0.00000000E+00
  2.20000000E+01  2.30000000E+01  0.00000000E+00
  2.20000000E+01  2.20000000E+01  0.00000000E+00
  2.20000000E+01  2.10000000E+01  0.00000000E+00
  2.20000000E+01  2.00000000E+01  0.00000000E+00
  2.20000000E+01  1.90000000E+01  0.00000000E+00
  2.20000000E+01  1.80000000E+01  0.00000000E+00
  2.20000000E+01  1.70000000E+01  0.00000000E+00
  2.20000000E+01  1.60000000E+01  0.00000000E+00
  2.20000000E+01  1.50000000E+01  0.00000000E+00
  2.20000000E+01  1.40000000E+01  0.00000000E+00
  2.20000000E+01  1.30000000E+01  0.00000000E+00
  2.20000000E+01  1.20000000E+01  0.00000000E+00
  2.20000000E+01  1.10000000E+01  0.00000000E+00
  2.20000000E+01  1.00000000E+01  0.00000000E+00
  2.20000000E+01  9.00000000E+00  0.00000000E+00
  2.20000000E+01  8.00000000E+00  0.00000000E+00
  2.20000000E+01  7.00000000E+00  0.00000000E+00
  2.20000000E+01  6.00000000E+00  0.00000000E+00
  2.20000000E+01  5.00000000E+00  0.00000000E+00
  2.20000000E+01  4.00000000E+00  0.00000000E+00
  2.20000000E+01  3.00000000E+00  0.00000000E+00
  2.20000000E+01  2.00000000E+00  0.00000000E+00
  2.20000000E+01  1.00000000E+00  0.00000000E+00
  2.20000000E+01 -2.66453526E-15  0.00000000E+00
  2.30000000E+01  2.40000000E+01  0.00000000E+00
  2.30000000E+01  2.30000000E+01  0.00000000E+00
  2.30000000E+01  2.20000000E+01  0.00000000E+00
  2.30000000E+01  2.10000000E+01  0.00000000E+00
  2.30000000E+01  2.00000000E+01  0.00000000E+00
  2.30000000E+01  1.90000000E+01  0.00000000E+00
  2.30000000E+01  1.80000000E+01  0.00000000E+00
  2.30000000E+01  1.70000000E+01  0.00000000E+00
  2.30000000E+01  1.60000000E+01  0.00000000E+00
  2.30000000E+01  1.50000000E+01  0.00000000E+00
  2.30000000E+01  1.40000000E+01  0.00000000E+00
  2.30000000E+01  1.30000000E+01  0.00000000E+00
  2.30000000E+01  1.20000000E+01  0.00000000E+00
  2.30000000E+01  1.10000000E+01  0.00000000E+00
  2.30000000E+01  1.00000000E+01  0.00000000E+00
  2.30000000E+01  9.00000000E+00  0.00000000E+00
  2.30000000E+01  8.00000000E+00  0.00000000E+00
  2.30000000E+01  7.00000000E+00  0.00000000E+00
  2.30000000E+01  6.00000000E+00  0.00000000E+00
  2.30000000E+01  5.00000000E+00  0.00000000E+00
  2.30000000E+01  4.00000000E+00  0.00000000E+00
  2.30000000E+01  3.00000000E+00  0.00000000E+00
  2.30000000E+01  2.00000000E+00  0.00000000E+00
  2.30000000E+01  1.00000000E+00  0.00000000E+00
  2.30000000E+01 -2.66453526E-15  0.00000000E+00
  2.40000000E+01  2.40000000E+01  0.00000000E+00
  2.40000000E+01  2.30000000E+01  0.00000000E+00
  2.40000000E+01  2.20000000E+01  0.00000000E+00
  2.40000000E+01  2.10000000E+01  0.00000000E+00
  2.40000000E+01  2.00000000E+01  0.00000000E+00
  2.40000000E+01  1.90000000E+01  0.00000000E+00
  2.40000000E+01  1.80000000E+01  0.00000000E+00
  2.40000000E+01  1.70000000E+01  0.00000000E+00
  2.40000000E+01  1.60000000E+01  0.00000000E+00
  2.40000000E+01  1.50000000E+01  0.00000000E+00
  2.40000000E+01  1.40000000E+01  0.00000000E+00
  2.40000000E+01  1.30000000E+01  0.00000000E+00
  2.40000000E+01  1.20000000E+01  0.00000000E+00
  2.40000000E+01  1.10000000E+01  0.00000000E+00
  2.40000000E+01  1.00000000E+01  0.00000000E+00
  2.40000000E+01  9.00000000E+00  0.00000000E+00
  2.40000000E+01  8.00000000E+00  0.00000000E+00
  2.40000000E+01  7.00000000E+00  0.00000000E+00
  2.40000000E+01  6.00000000E+00  0.00000000E+00
  2.40000000E+01  5.00000000E+00  0.00000000E+00
  2.40000000E+01  4.00000000E+00  0.00000000E+00
  2.40000000E+01  3.00000000E+00  0.00000000E+00
  2.40000000E+01  2.00000000E+00  0.00000000E+00
  2.40000000E+01  1.00000000E+00  0.00000000E+00
  2.40000000E+01 -2.66453526E-15  0.00000000E+00
  2.50000000E+01  2.40000000E+01  0.00000000E+00
  2.50000000E+01  2.30000000E+01  0.00000000E+00
  2.50000000E+01  2.20000000E+01  0.00000000E+00
  2.50000000E+01  2.10000000E+01  0.00000000E+00
  2.50000000E+01  2.00000000E+01  0.00000000E+00
  2.50000000E+01  1.90000000E+01  0.00000000E+00
  2.50000000E+01  1.80000000E+01  0.00000000E+00
  2.50000000E+01  1.70000000E+01  0.00000000E+00
  2.50000000E+01  1.60000000E+01  0.00000000E+00
  2.50000000E+01  1.50000000E+01  0.00000000E+00
  2.50000000E+01  1.40000000E+01  0.00000000E+00
  2.50000000E+01  1.30000000E+01  0.00000000E+00
  2.50000000E+01  1.20000000E+01  0.00000000E+00
  2.50000000E+01  1.10000000E+01  0.00000000E+00
  2.50000000E+01  1.00000000E+01  0.00000000E+00
  2.50000000E+01  9.00000000E+00  0.00000000E+00
  2.50000000E+01  8.00000000E+00  0.00000000E+00
  2.50000000E+01  7.00000000E+00  0.00000000E+00
  2.50000000E+01  6.00000000E+00  0.00000000E+00
  2.50000000E+01  5.00000000E+00  0.00000000E+00
  2.50000000E+01  4.00000000E+00  0.00000000E+00
  2.50000000E+01  3.00000000E+00  0.00000000E+00
  2.50000000E+01  2.00000000E+00  0.00000000E+00
  2.50000000E+01  1.00000000E+00  0.00000000E+00
  2.50000000E+01 -2.66453526E-15  0.00000000E+00
  2.60000000E+01  2.40000000E+01  0.00000000E+00
  2.60000000E+01  2.30000000E+01  0.00000000E+00
  2.60000000E+01  2.20000000E+01  0.00000000E+00
  2.60000000E+01  2.10000000E+01  0.00000000E+00
  2.60000000E+01  2.00000000E+01  0.00000000E+00
  2.60000000E+01  1.90000000E+01  0.00000000E+00
  2.60000000E+01  1.80000000E+01  0.00000000E+00
  2.60000000E+01  1.70000000E+01  0.00000000E+00
  2.60000000E+01  1.60000000E+01  0.00000000E+00
  2.60000000E+01  1.50000000E+01  0.00000000E+00
  2.60000000E+01  1.40000000E+01  0.00000000E+00
  2.60000000E+01  1.30000000E+01  0.00000000E+00
  2.60000000E+01  1.20000000E+01  0.00000000E+00
  2.60000000E+01  1.10000000E+01  0.00000000E+00
  2.60000000E+01  1.00000000E+01  0.00000000E+00
  2.60000000E+01  9.00000000E+00  0.00000000E+00
  2.60000000E+01  8.00000000E+00  0.00000000E+00
  2.60000000E+01  7.00000000E+00  0.00000000E+00
  2.60000000E+01  6.00000000E+00  0.00000000E+00
  2.60000000E+01  5.00000000E+00  0.00000000E+00
  2.60000000E+01  4.00000000E+00  0.00000000E+00
  2.60000000E+01  3.00000000E+00  0.00000000E+00
  2.60000000E+01  2.00000000E+00  0.00000000E+00
  2.60000000E+01  1.00000000E+00  0.00000000E+00
  2.60000000E+01 -2.66453526E-15  0.00000000E+00
  2.70000000E+01  2.40000000E+01  0.00000000E+00
  2.70000000E+01  2.30000000E+01  0.00000000E+00
  2.70000000E+01  2.20000000E+01  0.00000000E+00
  2.70000000E+01  2.10000000E+01  0.00000000E+00
  2.70000000E+01  2.00000000E+01  0.00000000E+00
  2.70000000E+01  1.90000000E+01  0.00000000E+00
  2.70000000E+01  1.80000000E+01  0.00000000E+00
  2.70000000E+01  1.70000000E+01  0.00000000E+00
  2.70000000E+01  1.60000000E+01  0.00000000E+00
  2.70000000E+01  1.50000000E+01  0.00000000E+00
  2.70000000E+01  1.40000000E+01  0.00000000E+00
  2.70000000E+01  1.30000000E+01  0.00000000E+00
  2.70000000E+01  1.20000000E+01  0.00000000E+00
  2.70000000E+01  1.10000000E+01  0.00000000E+00
  2.70000000E+01  1.00000000E+01  0.00000000E+00
  2.70000000E+01  9.00000000E+00  0.00000000E+00
  2.70000000E+01  8.00000000E+00  0.00000000E+00
  2.70000000E+01  7.00000000E+00  0.00000000E+00
  2.70000000E+01  6.00000000E+00  0.00000000E+00
  2.70000000E+01  5.00000000E+00  0.00000000E+00
  2.70000000E+01  4.00000000E+00  0.00000000E+00
  2.70000000E+01  3.00000000E+00  0.00000000E+00
  2.70000000E+01  2.00000000E+00  0.00000000E+00
  2.70000000E+01  1.00000000E+00  0.00000000E+00
  2.70000000E+01 -2.66453526E-15  0.00000000E+00
  2.80000000E+01  2.40000000E+01  0.00000000E+00
  2.80000000E+01  2.30000000E+01  0.00000000E+00
  2.80000000E+01  2.20000000E+01  0.00000000E+00
  2.80000000E+01  2.10000000E+01  0.00000000E+00
  2.80000000E+01  2.00000000E+01  0.00000000E+00
  2.80000000E+01  1.90000000E+01  0.00000000E+00
  2.80000000E+01  1.80000000E+01  0.00000000E+00
  2.80000000E+01  1.70000000E+01  0.00000000E+00
  2.80000000E+01  1.60000000E+01  0.00000000E+00
  2.80000000E+01  1.50000000E+01  0.00000000E+00
  2.80000000E+01  1.40000000E+01  0.00000000E+00
  2.80000000E+01  1.30000000E+01  0.00000000E+00
  2.80000000E+01  1.20000000E+01  0.00000000E+00
  2.80000000E+01  1.10000000E+01  0.00000000E+00
  2.80000000E+01  1.00000000E+01  0.00000000E+00
  2.80000000E+01  9.00000000E+00  0.00000000E+00
  2.80000000E+01  8.00000000E+00  0.00000000E+00
  2.80000000E+01  7.00000000E+00  0.00000000E+00
  2.80000000E+01  6.00000000E+00  0.00000000E+00
  2.80000000E+01  5.00000000E+00  0.00000000E+00
  2.80000000E+01  4.00000000E+00  0.00000000E+00
  2.80000000E+01  3.00000000E+00  0.00000000E+00
  2.80000000E+01  2.00000000E+00  0.00000000E+00
  2.80000000E+01  1.00000000E+00  0.00000000E+00
  2.80000000E+01 -2.66453526E-15  0.00000000E+00
  2.90000000E+01  2.40000000E+01  0.00000000E+00
  2.90000000E+01  2.30000000E+01  0.00000000E+00
  2.90000000E+01  2.20000000E+01  0.00000000E+00
  2.90000000E+01  2.10000000E+01  0.00000000E+00
  2.90000000E+01  2.00000000E+01  0.00000000E+00
  2.90000000E+01  1.90000000E+01  0.00000000E+00
  2.90000000E+01  1.80000000E+01  0.00000000E+00
  2.90000000E+01  1.70000000E+01  0.00000000E+00
  2.90000000E+01  1.60000000E+01  0.00000000E+00
  2.90000000E+01  1.50000000E+01  0.00000000E+00
  2.90000000E+01  1.40000000E+01  0.00000000E+00
  2.90000000E+01  1.30000000E+01  0.00000000E+00
  2.90000000E+01  1.20000000E+01  0.00000000E+00
  2.90000000E+01  1.10000000E+01  0.00000000E+00
  2.90000000E+01  1.00000000E+01  0.00000000E+00
  2.90000000E+01  9.00000000E+00  0.00000000E+00
  2.90000000E+01  8.00000000E+00  0.00000000E+00
  2.90000000E+01  7.00000000E+00  0.00000000E+00
  2.90000000E+01  6.00000000E+00  0.00000000E+00
  2.90000000E+01  5.00000000E+00  0.00000000E+00
  2.90000000E+01  4.00000000E+00  0.00000000E+00
  2.90000000E+01  3.00000000E+00  0.00000000E+00
  2.90000000E+01  2.00000000E+00  0.00000000E+00
  2.90000000E+01  1.00000000E+00  0.00000000E+00
  2.90000000E+01 -2.66453526E-15  0.00000000E+00
  3.00000000E+01  2.40000000E+01  0.00000000E+00
  3.00000000E+01  2.30000000E+01  0.00000000E+00
  3.00000000E+01  2.20000000E+01  0.00000000E+00
  3.00000000E+01  2.10000000E+01  0.00000000E+00
  3.00000000E+01  2.00000000E+01  0.00000000E+00
  3.00000000E+01  1.90000000E+01  0.00000000E+00
  3.00000000E+01  1.80000000E+01  0.00000000E+00
  3.00000000E+01  1.70000000E+01  0.00000000E+00
  3.00000000E+01  1.60000000E+01  0.00000000E+00
  3.00000000E+01  1.50000000E+01  0.00000000E+00
  3.00000000E+01  1.40000000E+01  0.00000000E+00
  3.00000000E+01  1.30000000E+01  0.00000000E+00
  3.00000000E+01  1.20000000E+01  0.00000000E+00
  3.00000000E+01  1.10000000E+01  0.00000000E+00
  3.00000000E+01  1.00000000E+01  0.00000000E+00
  3.00000000E+01  9.00000000E+00  0.00000000E+00
  3.00000000E+01  8.00000000E+00  0.00000000E+00
  3.00000000E+01  7.00000000E+00  0.00000000E+00
  3.00000000E+01  6.00000000E+00  0.00000000E+00
  3.00000000E+01  5.00000000E+00  0.00000000E+00
  3.00000000E+01  4.00000000E+00  0.00000000E+00
  3.00000000E+01  3.00000000E+00  0.00000000E+00
  3.00000000E+01  2.00000000E+00  0.00000000E+00
  3.00000000E+01  1.00000000E+00  0.00000000E+00
  3.00000000E+01 -2.66453526E-15  0.00000000E+00
  3.10000000E+01  2.40000000E+01  0.00000000E+00
  3.10000000E+01  2.30000000E+01  0.00000000E+00
  3.10000000E+01  2.20000000E+01  0.00000000E+00
  3.10000000E+01  2.10000000E+01  0.00000000E+00
  3.10000000E+01  2.00000000E+01  0.00000000E+00
  3.10000000E+01  1.90000000E+01  0.00000000E+00
  3.10000000E+01  1.80000000E+01  0.00000000E+00
  3.10000000E+01  1.70000000E+01  0.00000000E+00
  3.10000000E+01  1.60000000E+01  0.00000000E+00
  3.10000000E+01  1.50000000E+01  0.00000000E+00
  3.10000000E+01  1.40000000E+01  0.00000000E+00
  3.10000000E+01  1.30000000E+01  0.00000000E+00
  3.10000000E+01  1.20000000E+01  0.00000000E+00
  3.10000000E+01  1.10000000E+01  0.00000000E+00
  3.10000000E+01  1.00000000E+01  0.00000000E+00
  3.10000000E+01  9.00000000E+00  0.00000000E+00
  3.10000000E+01  8.00000000E+00  0.00000000E+00
  3.10000000E+01  7.00000000E+00  0.00000000E+00
  3.10000000E+01  6.00000000E+00  0.00000000E+00
  3.10000000E+01  5.00000000E+00  0.00000000E+00
  3.10000000E+01  4.00000000E+00  0.00000000E+00
  3.10000000E+01  3.00000000E+00  0.00000000E+00
  3.10000000E+01  2.00000000E+00  0.00000000E+00
  3.10000000E+01  1.00000000E+00  0.00000000E+00
  3.10000000E+01 -2.66453526E-15  0.00000000E+00
  3.20000000E+01  2.40000000E+01  0.00000000E+00
  3.20000000E+01  2.30000000E+01  0.00000000E+00
  3.20000000E+01  2.20000000E+01  0.00000000E+00
  3.20000000E+01  2.10000000E+01  0.00000000E+00
  3.20000000E+01  2.00000000E+01  0.00000000E+00
  3.20000000E+01  1.90000000E+01  0.00000000E+00
  3.20000000E+01  1.80000000E+01  0.00000000E+00
  3.20000000E+01  1.70000000E+01  0.00000000E+00
  3.20000000E+01  1.60000000E+01  0.00000000E+00
  3.20000000E+01  1.50000000E+01  0.00000000E+00
  3.20000000E+01  1.40000000E+01  0.00000000E+00
  3.20000000E+01  1.30000000E+01  0.00000000E+00
  3.20000000E+01  1.20000000E+01  0.00000000E+00
  3.20000000E+01  1.10000000E+01  0.00000000E+00
  3.20000000E+01  1.00000000E+01  0.00000000E+00
  3.20000000E+01  9.00000000E+00  0.00000000E+00
  3.20000000E+01  8.00000000E+00  0.00000000E+00
  3.20000000E+01  7.00000000E+00  0.00000000E+00
  3.20000000E+01  6.00000000E+00  0.00000000E+00
  3.20000000E+01  5.00000000E+00  0.00000000E+00
  3.20000000E+01  4.00000000E+00  0.00000000E+00
  3.20000000E+01  3.00000000E+00  0.00000000E+00
  3.20000000E+01  2.00000000E+00  0.00000000E+00
  3.20000000E+01  1.00000000E+00  0.00000000E+00
  3.20000000E+01 -2.66453526E-15  0.00000000E+00
  3.30000000E+01  2.40000000E+01  0.00000000E+00
  3.30000000E+01  2.30000000E+01  0.00000000E+00
  3.30000000E+01  2.20000000E+01  0.00000000E+00
  3.30000000E+01  2.10000000E+01  0.00000000E+00
  3.30000000E+01  2.00000000E+01  0.00000000E+00
  3.30000000E+01  1.90000000E+01  0.00000000E+00
  3.30000000E+01  1.80000000E+01  0.00000000E+00
  3.30000000E+01  1.70000000E+01  0.00000000E+00
  3.30000000E+01  1.60000000E+01  0.00000000E+00
  3.30000000E+01  1.50000000E+01  0.00000000E+00
  3.30000000E+01  1.40000000E+01  0.00000000E+00
  3.30000000E+01  1.30000000E+01  0.00000000E+00
  3.30000000E+01  1.20000000E+01  0.00000000E+00
  3.30000000E+01  1.10000000E+01  0.00000000E+00
  3.30000000E+01  1.00000000E+01  0.00000000E+00
  3.30000000E+01  9.00000000E+00  0.00000000E+00
  3.30000000E+01  8.00000000E+00  0.00000000E+00
  3.30000000E+01  7.00000000E+00  0.00000000E+00
  3.30000000E+01  6.00000000E+00  0.00000000E+00
  3.30000000E+01  5.00000000E+00  0.00000000E+00
  3.30000000E+01  4.00000000E+00  0.00000000E+00
  3.30000000E+01  3.00000000E+00  0.00000000E+00
  3.30000000E+01  2.00000000E+00  0.00000000E+00
  3.30000000E+01  1.00000000E+00  0.00000000E+00
  3.30000000E+01 -2.66453526E-15  0.00000000E+00
  3.40000000E+01  2.40000000E+01  0.00000000E+00
  3.40000000E+01  2.30000000E+01  0.00000000E+00
  3.40000000E+01  2.20000000E+01  0.00000000E+00
  3.40000000E+01  2.10000000E+01  0.00000000E+00
  3.40000000E+01  2.00000000E+01  0.00000000E+00
  3.40000000E+01  1.90000000E+01  0.00000000E+00
  3.40000000E+01  1.80000000E+01  0.00000000E+00
  3.40000000E+01  1.70000000E+01  0.00000000E+00
  3.40000000E+01  1.60000000E+01  0.00000000E+00
  3.40000000E+01  1.50000000E+01  0.00000000E+00
  3.40000000E+01  1.40000000E+01  0.00000000E+00
  3.40000000E+01  1.30000000E+01  0.00000000E+00
  3.40000000E+01  1.20000000E+01  0.00000000E+00
  3.40000000E+01  1.10000000E+01  0.00000000E+00
  3.40000000E+01  1.00000000E+01  0.00000000E+00
  3.40000000E+01  9.00000000E+00  0.00000000E+00
  3.40000000E+01  8.00000000E+00  0.00000000E+00
  3.40000000E+01  7.00000000E+00  0.00000000E+00
  3.40000000E+01  6.00000000E+00  0.00000000E+00
  3.40000000E+01  5.00000000E+00  0.00000000E+00
  3.40000000E+01  4.00000000E+00  0.00000000E+00
  3.40000000E+01  3.00000000E+00  0.00000000E+00
  3.40000000E+01  2.00000000E+00  0.00000000E+00
  3.40000000E+01  1.00000000E+00  0.00000000E+00
  3.40000000E+01 -2.66453526E-15  0.00000000E+00
  3.50000000E+01  2.40000000E+01  0.00000000E+00
  3.50000000E+01  2.30000000E+01  0.00000000E+00
  3.50000000E+01  2.20000000E+01  0.00000000E+00
  3.50000000E+01  2.10000000E+01  0.00000000E+00
  3.50000000E+01  2.00000000E+01  0.00000000E+00
  3.50000000E+01  1.90000000E+01  0.00000000E+00
  3.50000000E+01  1.80000000E+01  0.00000000E+00
  3.50000000E+01  1.70000000E+01  0.00000000E+00
  3.50000000E+01  1.60000000E+01  0.00000000E+00
  3.50000000E+01  1.50000000E+01  0.00000000E+00
  3.50000000E+01  1.40000000E+01  0.00000000E+00
  3.50000000E+01  1.30000000E+01  0.00000000E+00
  3.50000000E+01  1.20000000E+01  0.00000000E+00
  3.50000000E+01  1.10000000E+01  0.00000000E+00
  3.50000000E+01  1.00000000E+01  0.00000000E+00
  3.50000000E+01  9.00000000E+00  0.00000000E+00
  3.50000000E+01  8.00000000E+00  0.00000000E+00
  3.50000000E+01  7.00000000E+00  0.00000000E+00
  3.50000000E+01  6.00000000E+00  0.00000000E+00
  3.50000000E+01  5.00000000E+00  0.00000000E+00
  3.50000000E+01  4.00000000E+00  0.00000000E+00
  3.50000000E+01  3.00000000E+00  0.00000000E+00
  3.50000000E+01  2.00000000E+00  0.00000000E+00
  3.50000000E+01  1.00000000E+00  0.00000000E+00
  3.50000000E+01 -2.66453526E-15  0.00000000E+00
  3.60000000E+01  2.40000000E+01  0.00000000E+00
  3.60000000E+01  2.30000000E+01  0.00000000E+00
  3.60000000E+01  2.20000000E+01  0.00000000E+00
  3.60000000E+01  2.10000000E+01  0.00000000E+00
  3.60000000E+01  2.00000000E+01  0.00000000E+00
  3.60000000E+01  1.90000000E+01  0.00000000E+00
  3.60000000E+01  1.80000000E+01  0.00000000E+00
  3.60000000E+01  1.70000000E+01  0.00000000E+00
  3.60000000E+01  1.60000000E+01  0.00000000E+00
  3.60000000E+01  1.50000000E+01  0.00000000E+00
  3.60000000E+01  1.40000000E+01  0.00000000E+00
  3.60000000E+01  1.30000000E+01  0.00000000E+00
  3.60000000E+01  1.20000000E+01  0.00000000E+00
  3.60000000E+01  1.10000000E+01  0.00000000E+00
  3.60000000E+01  1.00000000E+01  0.00000000E+00
  3.60000000E+01  9.00000000E+00  0.00000000E+00
  3.60000000E+01  8.00000000E+00  0.00000000E+00
  3.60000000E+01  7.00000000E+00  0.00000000E+00
  3.60000000E+01  6.00000000E+00  0.00000000E+00
  3.60000000E+01  5.00000000E+00  0.00000000E+00
  3.60000000E+01  4.00000000E+00  0.00000000E+00
  3.60000000E+01  3.00000000E+00  0.00000000E+00
  3.60000000E+01  2.00000000E+00  0.00000000E+00
  3.60000000E+01  1.00000000E+00  0.00000000E+00
  3.60000000E+01 -2.66453526E-15  0.00000000E+00
  3.70000000E+01  2.40000000E+01  0.00000000E+00
  3.70000000E+01  2.30000000E+01  0.00000000E+00
  3.70000000E+01  2.20000000E+01  0.00000000E+00
  3.70000000E+01  2.10000000E+01  0.00000000E+00
  3.70000000E+01  2.00000000E+01  0.00000000E+00
  3.70000000E+01  1.90000000E+01  0.00000000E+00
  3.70000000E+01  1.80000000E+01  0.00000000E+00
  3.70000000E+01  1.70000000E+01  0.00000000E+00
  3.70000000E+01  1.60000000E+01  0.00000000E+00
  3.70000000E+01  1.50000000E+01  0.00000000E+00
  3.70000000E+01  1.40000000E+01  0.00000000E+00
  3.70000000E+01  1.30000000E+01  0.00000000E+00
  3.70000000E+01  1.20000000E+01  0.00000000E+00
  3.70000000E+01  1.10000000E+01  0.00000000E+00
  3.70000000E+01  1.00000000E+01  0.00000000E+00
  3.70000000E+01  9.00000000E+00  0.00000000E+00
  3.70000000E+01  8.00000000E+00  0.00000000E+00
  3.70000000E+01  7.00000000E+00  0.00000000E+00
  3.70000000E+01  6.00000000E+00  0.00000000E+00
  3.70000000E+01  5.00000000E+00  0.00000000E+00
  3.70000000E+01  4.00000000E+00  0.00000000E+00
  3.70000000E+01  3.00000000E+00  0.00000000E+00
  3.70000000E+01  2.00000000E+00  0.00000000E+00
  3.70000000E+01  1.00000000E+00  0.00000000E+00
  3.70000000E+01 -2.66453526E-15  0.00000000E+00
  3.80000000E+01  2.40000000E+01  0.00000000E+00
  3.80000000E+01  2.30000000E+01  0.00000000E+00
  3.80000000E+01  2.20000000E+01  0.00000000E+00
  3.80000000E+01  2.10000000E+01  0.00000000E+00
  3.80000000E+01  2.00000000E+01  0.00000000E+00
  3.80000000E+01  1.90000000E+01  0.00000000E+00
  3.80000000E+01  1.80000000E+01  0.00000000E+00
  3.80000000E+01  1.70000000E+01  0.00000000E+00
  3.80000000E+01  1.60000000E+01  0.00000000E+00
  3.80000000E+01  1.50000000E+01  0.00000000E+00
  3.80000000E+01  1.40000000E+01  0.00000000E+00
  3.80000000E+01  1.30000000E+01  0.00000000E+00
  3.80000000E+01  1.20000000E+01  0.00000000E+00
  3.80000000E+01  1.10000000E+01  0.00000000E+00
  3.80000000E+01  1.00000000E+01  0.00000000E+00
  3.80000000E+01  9.00000000E+00  0.00000000E+00
  3.80000000E+01  8.00000000E+00  0.00000000E+00
  3.80000000E+01  7.00000000E+00  0.00000000E+00
  3.80000000E+01  6.00000000E+00  0.00000000E+00
  3.80000000E+01  5.00000000E+00  0.00000000E+00
  3.80000000E+01  4.00000000E+00  0.00000000E+00
  3.80000000E+01  3.00000000E+00  0.00000000E+00
  3.80000000E+01  2.00000000E+00  0.00000000E+00
  3.80000000E+01  1.00000000E+00  0.00000000E+00
  3.80000000E+01 -2.66453526E-15  0.00000000E+00
  3.90000000E+01  2.40000000E+01  0.00000000E+00
  3.90000000E+01  2.30000000E+01  0.00000000E+00
  3.90000000E+01  2.20000000E+01  0.00000000E+00
  3.90000000E+01  2.10000000E+01  0.00000000E+00
  3.90000000E+01  2.00000000E+01  0.00000000E+00
  3.90000000E+01  1.90000000E+01  0.00000000E+00
  3.90000000E+01  1.80000000E+01  0.00000000E+00
  3.90000000E+01  1.70000000E+01  0.00000000E+00
  3.90000000E+01  1.60000000E+01  0.00000000E+00
  3.90000000E+01  1.50000000E+01  0.00000000E+00
  3.90000000E+01  1.40000000E+01  0.00000000E+00
  3.90000000E+01  1.30000000E+01  0.00000000E+00
  3.90000000E+01  1.20000000E+01  0.00000000E+00
  3.90000000E+01  1.10000000E+01  0.00000000E+00
  3.90000000E+01  1.00000000E+01  0.00000000E+00
  3.90000000E+01  9.00000000E+00  0.00000000E+00
  3.90000000E+01  8.00000000E+00  0.00000000E+00
  3.90000000E+01  7.00000000E+00  0.00000000E+00
  3.90000000E+01  6.00000000E+00  0.00000000E+00
  3.90000000E+01  5.00000000E+00  0.00000000E+00
  3.90000000E+01  4.00000000E+00  0.00000000E+00
  3.90000000E+01  3.00000000E+00  0.00000000E+00
  3.90000000E+01  2.00000000E+00  0.00000000E+00
  3.90000000E+01  1.00000000E+00  0.00000000E+00
  3.90000000E+01 -2.66453526E-15  0.00000000E+00
  4.00000000E+01  2.40000000E+01  0.00000000E+00
  4.00000000E+01  2.30000000E+01  0.00000000E+00
  4.00000000E+01  2.20000000E+01  0.00000000E+00
  4.00000000E+01  2.10000000E+01  0.00000000E+00
  4.00000000E+01  2.00000000E+01  0.00000000E+00
  4.00000000E+01  1.90000000E+01  0.00000000E+00
  4.00000000E+01  1.80000000E+01  0.00000000E+00
  4.00000000E+01  1.70000000E+01  0.00000000E+00
  4.00000000E+01  1.60000000E+01  0.00000000E+00
  4.00000000E+01  1.50000000E+01  0.00000000E+00
  4.00000000E+01  1.40000000E+01  0.00000000E+00
  4.00000000E+01  1.30000000E+01  0.00000000E+00
  4.00000000E+01  1.20000000E+01  0.00000000E+00
  4.00000000E+01  1.10000000E+01  0.00000000E+00
  4.00000000E+01  1.00000000E+01  0.00000000E+00
  4.00000000E+01  9.00000000E+00  0.00000000E+00
  4.00000000E+01  8.00000000E+00  0.00000000E+00
  4.00000000E+01  7.00000000E+00  0.00000000E+00
  4.00000000E+01  6.00000000E+00  0.00000000E+00
  4.00000000E+01  5.00000000E+00  0.00000000E+00
  4.00000000E+01  4.00000000E+00  0.00000000E+00
  4.00000000E+01  3.00000000E+00  0.00000000E+00
  4.00000000E+01  2.00000000E+00  0.00000000E+00
  4.00000000E+01  1.00000000E+00  0.00000000E+00
  4.00000000E+01 -2.66453526E-15  0.00000000E+00
  4.10000000E+01  2.40000000E+01  0.00000000E+00
  4.10000000E+01  2.30000000E+01  0.00000000E+00
  4.10000000E+01  2.20000000E+01  0.00000000E+00
  4.10000000E+01  2.10000000E+01  0.00000000E+00
  4.10000000E+01  2.00000000E+01  0.00000000E+00
  4.10000000E+01  1.90000000E+01  0.00000000E+00
  4.10000000E+01  1.80000000E+01  0.00000000E+00
  4.10000000E+01  1.70000000E+01  0.00000000E+00
  4.10000000E+01  1.60000000E+01  0.00000000E+00
  4.10000000E+01  1.50000000E+01  0.00000000E+00
  4.10000000E+01  1.40000000E+01  0.00000000E+00
  4.10000000E+01  1.30000000E+01  0.00000000E+00
  4.10000000E+01  1.20000000E+01  0.00000000E+00
  4.10000000E+01  1.10000000E+01  0.00000000E+00
  4.10000000E+01  1.00000000E+01  0.00000000E+00
  4.10000000E+01  9.00000000E+00  0.00000000E+00
  4.10000000E+01  8.00000000E+00  0.00000000E+00
  4.10000000E+01  7.00000000E+00  0.00000000E+00
  4.10000000E+01  6.00000000E+00  0.00000000E+00
  4.10000000E+01  5.00000000E+00  0.00000000E+00
  4.10000000E+01  4.00000000E+00  0.00000000E+00
  4.10000000E+01  3.00000000E+00  0.00000000E+00
  4.10000000E+01  2.00000000E+00  0.00000000E+00
  4.10000000E+01  1.00000000E+00  0.00000000E+00
  4.10000000E+01 -2.66453526E-15  0.00000000E+00
  4.20000000E+01  2.40000000E+01  0.00000000E+00
  4.20000000E+01  2.30000000E+01  0.00000000E+00
  4.20000000E+01  2.20000000E+01  0.00000000E+00
  4.20000000E+01  2.10000000E+01  0.00000000E+00
  4.20000000E+01  2.00000000E+01  0.00000000E+00
  4.20000000E+01  1.90000000E+01  0.00000000E+00
  4.20000000E+01  1.80000000E+01  0.00000000E+00
  4.20000000E+01  1.70000000E+01  0.00000000E+00
  4.20000000E+01  1.60000000E+01  0.00000000E+00
  4.20000000E+01  1.50000000E+01  0.00000000E+00
  4.20000000E+01  1.40000000E+01  0.00000000E+00
  4.20000000E+01  1.30000000E+01  0.00000000E+00
  4.20000000E+01  1.20000000E+01  0.00000000E+00
  4.20000000E+01  1.10000000E+01  0.00000000E+00
  4.20000000E+01  1.00000000E+01  0.00000000E+00
  4.20000000E+01  9.00000000E+00  0.00000000E+00
  4.20000000E+01  8.00000000E+00  0.00000000E+00
  4.20000000E+01  7.00000000E+00  0.00000000E+00
  4.20000000E+01  6.00000000E+00  0.00000000E+00
  4.20000000E+01  5.00000000E+00  0.00000000E+00
  4.20000000E+01  4.00000000E+00  0.00000000E+00
  4.20000000E+01  3.00000000E+00  0.00000000E+00
  4.20000000E+01  2.00000000E+00  0.00000000E+00
  4.20000000E+01  1.00000000E+00  0.00000000E+00
  4.20000000E+01 -2.66453526E-15  0.00000000E+00
  4.30000000E+01  2.40000000E+01  0.00000000E+00
  4.30000000E+01  2.30000000E+01  0.00000000E+00
  4.30000000E+01  2.20000000E+01  0.00000000E+00
  4.30000000E+01  2.10000000E+01  0.00000000E+00
  4.30000000E+01  2.00000000E+01  0.00000000E+00
  4.30000000E+01  1.90000000E+01  0.00000000E+00
  4.30000000E+01  1.80000000E+01  0.00000000E+00
  4.30000000E+01  1.70000000E+01  0.00000000E+00
  4.30000000E+01  1.60000000E+01  0.00000000E+00
  4.30000000E+01  1.50000000E+01  0.00000000E+00
  4.30000000E+01  1.40000000E+01  0.00000000E+00
  4.30000000E+01  1.30000000E+01  0.00000000E+00
  4.30000000E+01  1.20000000E+01  0.00000000E+00
  4.30000000E+01  1.10000000E+01  0.00000000E+00
  4.30000000E+01  1.00000000E+01  0.00000000E+00
  4.30000000E+01  9.00000000E+00  0.00000000E+00
  4.30000000E+01  8.00000000E+00  0.00000000E+00
  4.30000000E+01  7.00000000E+00  0.00000000E+00
  4.30000000E+01  6.00000000E+00  0.00000000E+00
  4.30000000E+01  5.00000000E+00  0.00000000E+00
  4.30000000E+01  4.00000000E+00  0.00000000E+00
  4.30000000E+01  3.00000000E+00  0.00000000E+00
  4.30000000E+01  2.00000000E+00  0.00000000E+00
  4.30000000E+01  1.00000000E+00  0.00000000E+00
  4.30000000E+01 -2.66453526E-15  0.00000000E+00
  4.40000000E+01  2.40000000E+01  0.00000000E+00
  4.40000000E+01  2.30000000E+01  0.00000000E+00
  4.40000000E+01  2.20000000E+01  0.00000000E+00
  4.40000000E+01  2.10000000E+01  0.00000000E+00
  4.40000000E+01  2.00000000E+01  0.00000000E+00
  4.40000000E+01  1.90000000E+01  0.00000000E+00
  4.40000000E+01  1.80000000E+01  0.00000000E+00
  4.40000000E+01  1.70000000E+01  0.00000000E+00
  4.40000000E+01  1.60000000E+01  0.00000000E+00
  4.40000000E+01  1.50000000E+01  0.00000000E+00
  4.40000000E+01  1.40000000E+01  0.00000000E+00
  4.40000000E+01  1.30000000E+01  0.00000000E+00
  4.40000000E+01  1.20000000E+01  0.00000000E+00
  4.40000000E+01  1.10000000E+01  0.00000000E+00
  4.40000000E+01  1.00000000E+01  0.00000000E+00
  4.40000000E+01  9.00000000E+00  0.00000000E+00
  4.40000000E+01  8.00000000E+00  0.00000000E+00
  4.40000000E+01  7.00000000E+00  0.00000000E+00
  4.40000000E+01  6.00000000E+00  0.00000000E+00
  4.40000000E+01  5.00000000E+00  0.00000000E+00
  4.40000000E+01  4.00000000E+00  0.00000000E+00
  4.40000000E+01  3.00000000E+00  0.00000000E+00
  4.40000000E+01  2.00000000E+00  0.00000000E+00
  4.40000000E+01  1.00000000E+00  0.00000000E+00
  4.40000000E+01 -2.66453526E-15  0.00000000E+00
  4.50000000E+01  2.40000000E+01  0.00000000E+00
  4.50000000E+01  2.30000000E+01  0.00000000E+00
  4.50000000E+01  2.20000000E+01  0.00000000E+00
  4.50000000E+01  2.10000000E+01  0.00000000E+00
  4.50000000E+01  2.00000000E+01  0.00000000E+00
  4.50000000E+01  1.90000000E+01  0.00000000E+00
  4.50000000E+01  1.80000000E+01  0.00000000E+00
  4.50000000E+01  1.70000000E+01  0.00000000E+00
  4.50000000E+01  1.60000000E+01  0.00000000E+00
  4.50000000E+01  1.50000000E+01  0.00000000E+00
  4.50000000E+01  1.40000000E+01  0.00000000E+00
  4.50000000E+01  1.30000000E+01  0.00000000E+00
  4.50000000E+01  1.20000000E+01  0.00000000E+00
  4.50000000E+01  1.10000000E+01  0.00000000E+00
  4.50000000E+01  1.00000000E+01  0.00000000E+00
  4.50000000E+01  9.00000000E+00  0.00000000E+00
  4.50000000E+01  8.00000000E+00  0.00000000E+00
  4.50000000E+01  7.00000000E+00  0.00000000E+00
  4.50000000E+01  6.00000000E+00  0.00000000E+00
  4.50000000E+01  5.00000000E+00  0.00000000E+00
  4.50000000E+01  4.00000000E+00  0.00000000E+00
  4.50000000E+01  3.00000000E+00  0.00000000E+00
  4.50000000E+01  2.00000000E+00  0.00000000E+00
  4.50000000E+01  1.00000000E+00  0.00000000E+00
  4.50000000E+01 -2.66453526E-15  0.00000000E+00
  4.60000000E+01  2.40000000E+01  0.00000000E+00
  4.60000000E+01  2.30000000E+01  0.00000000E+00
  4.60000000E+01  2.20000000E+01  0.00000000E+00
  4.60000000E+01  2.10000000E+01  0.00000000E+00
  4.60000000E+01  2.00000000E+01  0.00000000E+00
  4.60000000E+01  1.90000000E+01  0.00000000E+00
  4.60000000E+01  1.80000000E+01  0.00000000E+00
  4.60000000E+01  1.70000000E+01  0.00000000E+00
  4.60000000E+01  1.60000000E+01  0.00000000E+00
  4.60000000E+01  1.50000000E+01  0.00000000E+00
  4.60000000E+01  1.40000000E+01  0.00000000E+00
  4.60000000E+01  1.30000000E+01  0.00000000E+00
  4.60000000E+01  1.20000000E+01  0.00000000E+00
  4.60000000E+01  1.10000000E+01  0.00000000E+00
  4.60000000E+01  1.00000000E+01  0.00000000E+00
  4.60000000E+01  9.00000000E+00  0.00000000E+00
  4.60000000E+01  8.00000000E+00  0.00000000E+00
  4.60000000E+01  7.00000000E+00  0.00000000E+00
  4.60000000E+01  6.00000000E+00  0.00000000E+00
  4.60000000E+01  5.00000000E+00  0.00000000E+00
  4.60000000E+01  4.00000000E+00  0.00000000E+00
  4.60000000E+01  3.00000000E+00  0.00000000E+00
  4.60000000E+01  2.00000000E+00  0.00000000E+00
  4.60000000E+01  1.00000000E+00  0.00000000E+00
  4.60000000E+01 -2.66453526E-15  0.00000000E+00
  4.70000000E+01  2.40000000E+01  0.00000000E+00
  4.70000000E+01  2.30000000E+01  0.00000000E+00
  4.70000000E+01  2.20000000E+01  0.00000000E+00
  4.70000000E+01  2.10000000E+01  0.00000000E+00
  4.70000000E+01  2.00000000E+01  0.00000000E+00
  4.70000000E+01  1.90000000E+01  0.00000000E+00
  4.70000000E+01  1.80000000E+01  0.00000000E+00
  4.70000000E+01  1.70000000E+01  0.00000000E+00
  4.70000000E+01  1.60000000E+01  0.00000000E+00
  4.70000000E+01  1.50000000E+01  0.00000000E+00
  4.70000000E+01  1.40000000E+01  0.00000000E+00
  4.70000000E+01  1.30000000E+01  0.00000000E+00
  4.70000000E+01  1.20000000E+01  0.00000000E+00
  4.70000000E+01  1.10000000E+01  0.00000000E+00
  4.70000000E+01  1.00000000E+01  0.00000000E+00
  4.70000000E+01  9.00000000E+00  0.00000000E+00
  4.70000000E+01  8.00000000E+00  0.00000000E+00
  4.70000000E+01  7.00000000E+00  0.00000000E+00
  4.70000000E+01  6.00000000E+00  0.00000000E+00
  4.70000000E+01  5.00000000E+00  0.00000000E+00
  4.70000000E+01  4.00000000E+00  0.00000000E+00
  4.70000000E+01  3.00000000E+00  0.00000000E+00
  4.70000000E+01  2.00000000E+00  0.00000000E+00
  4.70000000E+01  1.00000000E+00  0.00000000E+00
  4.70000000E+01 -2.66453526E-15  0.00000000E+00
  4.80000000E+01  2.40000000E+01  0.00000000E+00
  4.80000000E+01  2.30000000E+01  0.00000000E+00
  4.80000000E+01  2.20000000E+01  0.00000000E+00
  4.80000000E+01  2.10000000E+01  0.00000000E+00
  4.80000000E+01  2.00000000E+01  0.00000000E+00
  4.80000000E+01  1.90000000E+01  0.00000000E+00
  4.80000000E+01  1.80000000E+01  0.00000000E+00
  4.80000000E+01  1.70000000E+01  0.00000000E+00
  4.80000000E+01  1.60000000E+01  0.00000000E+00
  4.80000000E+01  1.50000000E+01  0.00000000E+00
  4.80000000E+01  1.40000000E+01  0.00000000E+00
  4.80000000E+01  1.30000000E+01  0.00000000E+00
  4.80000000E+01  1.20000000E+01  0.00000000E+00
  4.80000000E+01  1.10000000E+01  0.00000000E+00
  4.80000000E+01  1.00000000E+01  0.00000000E+00
  4.80000000E+01  9.00000000E+00  0.00000000E+00
  4.80000000E+01  8.00000000E+00  0.00000000E+00
  4.80000000E+01  7.00000000E+00  0.00000000E+00
  4.80000000E+01  6.00000000E+00  0.00000000E+00
  4.80000000E+01  5.00000000E+00  0.00000000E+00
  4.80000000E+01  4.00000000E+00  0.00000000E+00
  4.80000000E+01  3.00000000E+00  0.00000000E+00
  4.80000000E+01  2.00000000E+00  0.00000000E+00
  4.80000000E+01  1.00000000E+00  0.00000000E+00
  4.80000000E+01 -2.66453526E-15  0.00000000E+00
CELLS      1152      5760
         4           0           1          26          25
         4           1           2          27          26
         4           2           3          28          27
         4           3           4          29          28
         4           4           5          30          29
         4           5           6          31          30
         4           6           7          32          31
         4           7           8          33          32
         4           8           9          34          33
         4           9          10          35          34
         4          10          11          36          35
         4          11          12          37          36
         4          12          13          38          37
         4          13          14          39          38
         4          14          15          40          39
         4          15          16          41          40
         4          16          17          42          41
         4          17          18          43          42
         4          18          19          44          43
         4          19          20          45          44
         4          20          21          46          45
         4          21          22          47          46
         4          22          23          48          47
         4          23          24          49          48
         4          25          26          51          50
         4          26          27          52          51
         4          27          28          53          52
         4          28          29          54          53
         4          29          30          55          54
         4          30          31          56          55
         4          31          32          57          56
         4          32          33          58          57
         4          33          34          59          58
         4          34          35          60          59
         4          35          36          61          60
         4          36          37          62          61
         4          37          38          63          62
         4          38          39          64          63
         4          39          40          65          64
         4          40          41          66          65
         4          41          42          67          66
         4          42          43          68          67
         4          43          44          69          68
         4          44          45          70          69
         4          45          46          71          70
         4          46          47          72          71
         4          47          48          73          72
         4          48          49          74          73
         4          50          51          76          75
         4          51          52          77          76
         4          52          53          78          77
         4          53          54          79          78
         4          54          55          80          79
         4          55          56          81          80
         4          56          57          82          81
         4          57          58          83          82
         4          58          59          84          83
         4          59          60          85          84
         4          60          61          86          85
         4          61          62          87          86
         4          62          63          88          87
         4          63          64          89          88
         4          64          65          90          89
         4          65          66          91          90
         4          66          67          92          91
         4          67          68          93          92
         4          68          69          94          93
         4          69          70          95          94
         4          70          71          96          95
         4          71          72          97          96
         4          72          73          98          97
         4          73          74          99          98
         4          75          76         101         100
         4          76          77         102         101
         4          77          78         103         102
         4          78          79         104         103
         4          79          80         105         104
         4          80          81         106         105
         4          81          82         107         106
         4          82          83         108         107
         4          83          84         109         108
         4          84          85         110         109
         4          85          86         111         110
         4          86          87         112         111
         4          87          88         113         112
         4          88          89         114         113
         4          89          90         115         114
         4          90          91         116         115
         4          91          92         117         116
         4          92          93         118         117
         4          93          94         119         118
         4          94          95         120         119
         4          95          96         121         120
         4          96          97         122         121
         4          97          98         123         122
         4          98          99         124         123
         4         100         101         126         125
         4         101         102         127         126
         4         102         103         128         127
         4         103         104         129         128
         4         104         105         130         129
         4         105         106         131         130
         4         106         107         132         131
         4         107         108         133         132
         4         108         109         134         133
         4         109         110         135         134
         4         110         111         136         135
         4         111         112         137         136
         4         112         113         138         137
         4         113         114         139         138
         4         114         115         140         139
         4         115         116         141         140
         4         116         117         142         141
         4         117         118         143         142
         4         118         119         144         143
         4         119         120         145         144
         4         120         121         146         145
         4         121         122         147         146
         4         122         123         148         147
         4         123         124         149         148
         4         125         126         151         150
         4         126         127         152         151
         4         127         128         153         152
         4         128         129         154         153
         4         129         130         155         154
         4         130         131         156         155
         4         131         132         157         156
         4         132         133         158         157
         4         133         134         159         158
         4         134         135         160         159
         4         135         136         161         160
         4         136         137         162         161
         4         137         138         163         162
         4         138         139         164         163
         4         139         140         165         164
         4         140         141         166         165
         4         141         142         167         166
         4         142         143         168         167
         4         143         144         169         168
         4         144         145         170         169
         4         145         146         171         170
         4         146         147         172         171
         4         147         148         173         172
         4         148         149         174         173
         4         150         151         176         175
         4         151         152         177         176
         4         152         153         178         177
         4         153         154         179         178
         4         154         155         180         179
         4         155         156         181         180
         4         156         157         182         181
         4         157         158         183         182
         4         158         159         184         183
         4         159         160         185         184
         4         160         161         186         185
         4         161         162         187         186
         4         162         163         188         187
         4         163         164         189         188
         4         164         165         190         189
         4         165         166         191         190
         4         166         167         192         191
         4         167         168         193         192
         4         168         169         194         193
         4         169         170         195         194
         4         170         171         196         195
         4         171         172         197         196
         4         172         173         198         197
         4         173         174         199         198
         4         175         176         201         200
         4         176         177         202         201
         4         177         178         203         202
         4         178         179         204         203
         4         179         180         205         204
         4         180         181         206         205
         4         181         182         207         206
         4         182         183         208         207
         4         183         184         209         208
         4         184         185         210         209
         4         185         186         211         210
         4         186         187         212         211
         4         187         188         213         212
         4         188         189         214         213
         4         189         190         215         214
         4         190         191         216         215
         4         191         192         217         216
         4         192         193         218         217
         4         193         194         219         218
         4         194         195         220         219
         4         195         196         221         220
         4         196         197         222         221
         4         197         198         223         222
         4         198         199         224         223
         4         200         201         226         225
         4         201         202         227         226
         4         202         203         228         227
         4         203         204         229         228
         4         204         205         230         229
         4         205         206         231         230
         4         206         207         232         231
         4         207         208         233         232
         4         208         209         234         233
         4         209         210         235         234
         4         210         211         236         235
         4         211         212         237         236
         4         212         213         238         237
         4         213         214         239         238
         4         214         215         240         239
         4         215         216         241         240
         4         216         217         242         241
         4         217         218         243         242
         4         218         219         244         243
         4         219         220         245         244
         4         220         221         246         245
         4         221         222         247         246
         4         222         223         248         247
         4         223         224         249         248
         4         225         226         251         250
         4         226         227         252         251
         4         227         228         253         252
         4         228         229         254         253
         4         229         230         255         254
         4         230         231         256         255
         4         231         232         257         256
         4         232         233         258         257
         4         233         234         259         258
         4         234         235         260         259
         4         235         236         261         260
         4         236         237         262         261
         4         237         238         263         262
         4         238         239         264         263
         4         239         240         265         264
         4         240         241         266         265
         4         241         242         267         266
         4         242         243         268         267
         4         243         244         269         268
         4         244         245         270         269
         4         245         246         271         270
         4         246         247         272         271
         4         247         248         273         272
         4         248         249         274         273
         4         250         251         276         275
         4         251         252         277         276
         4         252         253         278         277
         4         253         254         279         278
         4         254         255         280         279
         4         255         256         281         280
         4         256         257         282         281
         4         257         258         283         282
         4         258         259         284         283
         4         259         260         285         284
         4         260         261         286         285
         4         261         262         287         286
         4         262         263         288         287
         4         263         264         289         288
         4         264         265         290         289
         4         265         266         291         290
         4         266         267         292         291
         4         267         268         293         292
         4         268         269         294         293
         4         269         270         295         294
         4         270         271         296         295
         4         271         272         297         296
         4         272         273         298         297
         4         273         274         299         298
         4         275         276         301         300
         4         276         277         302         301
         4         277         278         303         302
         4         278         279         304         303
         4         279         280         305         304
         4         280         281         306         305
         4         281         282         307         306
         4         282         283         308         307
         4         283         284         309         308
         4         284         285         310         309
         4         285         286         311         310
         4         286         287         312         311
         4         287         288         313         312
         4         288         289         314         313
         4         289         290         315         314
         4         290         291         316         315
         4         291         292         317         316
         4         292         293         318         317
         4         293         294         319         318
         4         294         295         320         319
         4         295         296         321         320
         4         296         297         322         321
         4         297         298         323         322
         4         298         299         324         323
         4         300         301         326         325
         4         301         302         327         326
         4         302         303         328         327
         4         303         304         329         328
         4         304         305         330         329
         4         305         306         331         330
         4         306         307         332         331
         4         307         308         333         332
         4         308         309         334         333
         4         309         310         335         334
         4         310         311         336         335
         4         311         312         337         336
         4         312         313         338         337
         4         313         314         339         338
         4         314         315         340         339
         4         315         316         341         340
         4         316         317         342         341
         4         317         318         343         342
         4         318         319         344         343
         4         319         320         345         344
         4         320         321         346         345
         4         321         322         347         346
         4         322         323         348         347
         4         323         324         349         348
         4         325         326         351         350
         4         326         327         352         351
         4         327         328         353         352
         4         328         329         354         353
         4         329         330         355         354
         4         330         331         356         355
         4         331         332         357         356
         4         332         333         358         357
         4         333         334         359         358
         4         334         335         360         359
         4         335         336         361         360
         4         336         337         362         361
         4         337         338         363         362
         4         338         339         364         363
         4         339         340         365         364
         4         340         341         366         365
         4         341         342         367         366
         4         342         343         368         367
         4         343         344         369         368
         4         344         345         370         369
         4         345         346         371         370
         4         346         347         372         371
         4         347         348         373         372
         4         348         349         374         373
         4         350         351         376         375
         4         351         352         377         376
         4         352         353         378         377
         4         353         354         379         378
         4         354         355         380         379
         4         355         356         381         380
         4         356         357         382         381
         4         357         358         383         382
         4         358         359         384         383
         4         359         360         385         384
         4         360         361         386         385
         4         361         362         387         386
         4         362         363         388         387
         4         363         364         389         388
         4         364         365         390         389
         4         365         366         391         390
         4         366         367         392         391
         4         367         368         393         392
         4         368         369         394         393
         4         369         370         395         394
         4         370         371         396         395
         4         371         372         397         396
         4         372         373         398         397
         4         373         374         399         398
         4         375         376         401         400
         4         376         377         402         401
         4         377         378         403         402
         4         378         379         404         403
         4         379         380         405         404
         4         380         381         406         405
         4         381         382         407         406
         4         382         383         408         407
         4         383         384         409         408
         4         384         385         410         409
         4         385         386         411         410
         4         386         387         412         411
         4         387         388         413         412
         4         388         389         414         413
         4         389         390         415         414
         4         390         391         416         415
         4         391         392         417         416
         4         392         393         418         417
         4         393         394         419         418
         4         394         395         420         419
         4         395         396         421         420
         4         396         397         422         421
         4         397         398         423         422
         4         398         399         424         423
         4         400         401         426         425
         4         401         402         427         426
         4         402         403         428         427
         4         403         404         429         428
         4         404         405         430         429
         4         405         406         431         430
         4         406         407         432         431
         4         407         408         433         432
         4         408         409         434         433
         4         409         410         435         434
         4         410         411         436         435
         4         411         412         437         436
         4         412         413         438         437
         4         413         414         439         438
         4         414         415         440         439
         4         415         416         441         440
         4         416         417         442         441
         4         417         418         443         442
         4         418         419         444         443
         4         419         420         445         444
         4         420         421         446         445
         4         421         422         447         446
         4         422         423         448         447
         4         423         424         449         448
         4         425         426         451         450
         4         426         427         452         451
         4         427         428         453         452
         4         428         429         454         453
         4         429         430         455         454
         4         430         431         456         455
         4         431         432         457         456
         4         432         433         458         457
         4         433         434         459         458
         4         434         435         460         459
         4         435         436         461         460
         4         436         437         462         461
         4         437         438         463         462
         4         438         439         464         463
         4         439         440         465         464
         4         440         441         466         465
         4         441         442         467         466
         4         442         443         468         467
         4         443         444         469         468
         4         444         445         470         469
         4         445         446         471         470
         4         446         447         472         471
         4         447         448         473         472
         4         448         449         474         473
         4         450         451         476         475
         4         451         452         477         476
         4         452         453         478         477
         4         453         454         479         478
         4         454         455         480         479
         4         455         456         481         480
         4         456         457         482         481
         4         457         458         483         482
         4         458         459         484         483
         4         459         460         485         484
         4         460         461         486         485
         4         461         462         487         486
         4         462         463         488         487
         4         463         464         489         488
         4         464         465         490         489
         4         465         466         491         490
         4         466         467         492         491
         4         467         468         493         492
         4         468         469         494         493
         4         469         470         495         494
         4         470         471         496         495
         4         471         472         497         496
         4         472         473         498         497
         4         473         474         499         498
         4         475         476         501         500
         4         476         477         502         501
         4         477         478         503         502
         4         478         479         504         503
         4         479         480         505         504
         4         480         481         506         505
         4         481         482         507         506
         4         482         483         508         507
         4         483         484         509         508
         4         484         485         510         509
         4         485         486         511         510
         4         486         487         512         511
         4         487         488         513         512
         4         488         489         514         513
         4         489         490         515         514
         4         490         491         516         515
         4         491         492         517         516
         4         492         493         518         517
         4         493         494         519         518
         4         494         495         520         519
         4         495         496         521         520
         4         496         497         522         521
         4         497         498         523         522
         4         498         499         524         523
         4         500         501         526         525
         4         501         502         527         526
         4         502         503         528         527
         4         503         504         529         528
         4         504         505         530         529
         4         505         506         531         530
         4         506         507         532         531
         4         507         508         533         532
         4         508         509         534         533
         4         509         510         535         534
         4         510         511         536         535
         4         511         512         537         536
         4         512         513         538         537
         4         513         514         539         538
         4         514         515         540         539
         4         515         516         541         540
         4         516         517         542         541
         4         517         518         543         542
         4         518         519         544         543
         4         519         520         545         544
         4         520         521         546         545
         4         521         522         547         546
         4         522         523         548         547
         4         523         524         549         548
         4         525         526         551         550
         4         526         527         552         551
         4         527         528         553         552
         4         528         529         554         553
         4         529         530         555         554
         4         530         531         556         555
         4         531         532         557         556
         4         532         533         558         557
         4         533         534         559         558
         4         534         535         560         559
         4         535         536         561         560
         4         536         537         562         561
         4         537         538         563         562
         4         538         539         564         563
         4         539         540         565         564
         4         540         541         566         565
         4         541         542         567         566
         4         542         543         568         567
         4         543         544         569         568
         4         544         545         570         569
         4         545         546         571         570
         4         546         547         572         571
         4         547         548         573         572
         4         548         549         574         573
         4         550         551         576         575
         4         551         552         577         576
         4         552         553         578         577
         4         553         554         579         578
         4         554         555         580         579
         4         555         556         581         580
         4         556         557         582         581
         4         557         558         583         582
         4         558         559         584         583
         4         559         560         585         584
         4         560         561         586         585
         4         561         562         587         586
         4         562         563         588         587
         4         563         564         589         588
         4         564         565         590         589
         4         565         566         591         590
         4         566         567         592         591
         4         567         568         593         592
         4         568         569         594         593
         4         569         570         595         594
         4         570         571         596         595
         4         571         572         597         596
         4         572         573         598         597
         4         573         574         599         598
         4         575         576         601         600
         4         576         577         602         601
         4         577         578         603         602
         4         578         579         604         603
         4         579         580         605         604
         4         580         581         606         605
         4         581         582         607         606
         4         582         583         608         607
         4         583         584         609         608
         4         584         585         610         609
         4         585         586         611         610
         4         586         587         612         611
         4         587         588         613         612
         4         588         589         614         613
         4         589         590         615         614
         4         590         591         616         615
         4         591         592         617         616
         4         592         593         618         617
         4         593         594         619         618
         4         594         595         620         619
         4         595         596         621         620
         4         596         597         622         621
         4         597         598         623         622
         4         598         599         624         623
         4         600         601         626         625
         4         601         602         627         626
         4         602         603         628         627
         4         603         604         629         628
         4         604         605         630         629
         4         605         606         631         630
         4         606         607         632         631
         4         607         608         633         632
         4         608         609         634         633
         4         609         610         635         634
         4         610         611         636         635
         4         611         612         637         636
         4         612         613         638         637
         4         613         614         639         638
         4         614         615         640         639
         4         615         616         641         640
         4         616         617         642         641
         4         617         618         643         642
         4         618         619         644         643
         4         619         620         645         644
         4         620         621         646         645
         4         621         622         647         646
         4         622         623         648         647
         4         623         624         649         648
         4         625         626         651         650
         4         626         627         652         651
         4         627         628         653         652
         4         628         629         654         653
         4         629         630         655         654
         4         630         631         656         655
         4         631         632         657         656
         4         632         633         658         657
         4         633         634         659         658
         4         634         635         660         659
         4         635         636         661         660
         4         636         637         662         661
         4         637         638         663         662
         4         638         639         664         663
         4         639         640         665         664
         4         640         641         666         665
         4         641         642         667         666
         4         642         643         668         667
         4         643         644         669         668
         4         644         645         670         669
         4         645         646         671         670
         4         646         647         672         671
         4         647         648         673         672
         4         648         649         674         673
         4         650         651         676         675
         4         651         652         677         676
         4         652         653         678         677
         4         653         654         679         678
         4         654         655         680         679
         4         655         656         681         680
         4         656         657         682         681
         4         657         658         683         682
         4         658         659         684         683
         4         659         660         685         684
         4         660         661         686         685
         4         661         662         687         686
         4         662         663         688         687
         4         663         664         689         688
         4         664         665         690         689
         4         665         666         691         690
         4         666         667         692         691
         4         667         668         693         692
         4         668         669         694         693
         4         669         670         695         694
         4         670         671         696         695
         4         671         672         697         696
         4         672         673         698         697
         4         673         674         699         698
         4         675         676         701         700
         4         676         677         702         701
         4         677         678         703         702
         4         678         679         704         703
         4         679         680         705         704
         4         680         681         706         705
         4         681         682         707         706
         4         682         683         708         707
         4         683         684         709         708
         4         684         685         710         709
         4         685         686         711         710
         4         686         687         712         711
         4         687         688         713         712
         4         688         689         714         713
         4         689         690         715         714
         4         690         691         716         715
         4         691         692         717         716
         4         692         693         718         717
         4         693         694         719         718
         4         694         695         720         719
         4         695         696         721         720
         4         696         697         722         721
         4         697         698         723         722
         4         698         699         724         723
         4         700         701         726         725
         4         701         702         727         726
         4         702         703         728         727
         4         703         704         729         728
         4         704         705         730         729
         4         705         706         731         730
         4         706         707         732         731
         4         707         708         733         732
         4         708         709         734         733
         4         709         710         735         734
         4         710         711         736         735
         4         711         712         737         736
         4         712         713         738         737
         4         713         714         739         738
         4         714         715         740         739
         4         715         716         741         740
         4         716         717         742         741
         4         717         718         743         742
         4         718         719         744         743
         4         719         720         745         744
         4         720         721         746         745
         4         721         722         747         746
         4         722         723         748         747
         4         723         724         749         748
         4         725         726         751         750
         4         726         727         752         751
         4         727         728         753         752
         4         728         729         754         753
         4         729         730         755         754
         4         730         731         756         755
         4         731         732         757         756
         4         732         733         758         757
         4         733         734         759         758
         4         734         735         760         759
         4         735         736         761         760
         4         736         737         762         761
         4         737         738         763         762
         4         738         739         764         763
         4         739         740         765         764
         4         740         741         766         765
         4         741         742         767         766
         4         742         743         768         767
         4         743         744         769         768
         4         744         745         770         769
         4         745         746         771         770
         4         746         747         772         771
         4         747         748         773         772
         4         748         749         774         773
         4         750         751         776         775
         4         751         752         777         776
         4         752         753         778         777
         4         753         754         779         778
         4         754         755         780         779
         4         755         756         781         780
         4         756         757         782         781
         4         757         758         783         782
         4         758         759         784         783
         4         759         760         785         784
         4         760         761         786         785
         4         761         762         787         786
         4         762         763         788         787
         4         763         764         789         788
         4         764         765         790         789
         4         765         766         791         790
         4         766         767         792         791
         4         767         768         793         792
         4         768         769         794         793
         4         769         770         795         794
         4         770         771         796         795
         4         771         772         797         796
         4         772         773         798         797
         4         773         774         799         798
         4         775         776         801         800
         4         776         777         802         801
         4         777         778         803         802
         4         778         779         804         803
         4         779         780         805         804
         4         780         781         806         805
         4         781         782         807         806
         4         782         783         808         807
         4         783         784         809         808
         4         784         785         810         809
         4         785         786         811         810
         4         786         787         812         811
         4         787         788         813         812
         4         788         789         814         813
         4         789         790         815         814
         4         790         791         816         815
         4         791         792         817         816
         4         792         793         818         817
         4         793         794         819         818
         4         794         795         820         819
         4         795         796         821         820
         4         796         797         822         821
         4         797         798         823         822
         4         798         799         824         823
         4         800         801         826         825
         4         801         802         827         826
         4         802         803         828         827
         4         803         804         829         828
         4         804         805         830         829
         4         805         806         831         830
         4         806         807         832         831
         4         807         808         833         832
         4         808         809         834         833
         4         809         810         835         834
         4         810         811         836         835
         4         811         812         837         836
         4         812         813         838         837
         4         813         814         839         838
         4         814         815         840         839
         4         815         816         841         840
         4         816         817         842         841
         4         817         818         843         842
         4         818         819         844         843
         4         819         820         845         844
         4         820         821         846         845
         4         821         822         847         846
         4         822         823         848         847
         4         823         824         849         848
         4         825         826         851         850
         4         826         827         852         851
         4         827         828         853         852
         4         828         829         854         853
         4         829         830         855         854
         4         830         831         856         855
         4         831         832         857         856
         4         832         833         858         857
         4         833         834         859         858
         4         834         835         860         859
         4         835         836         861         860
         4         836         837         862         861
         4         837         838         863         862
         4         838         839         864         863
         4         839         840         865         864
         4         840         841         866         865
         4         841         842         867         866
         4         842         843         868         867
         4         843         844         869         868
         4         844         845         870         869
         4         845         846         871         870
         4         846         847         872         871
         4         847         848         873         872
         4         848         849         874         873
         4         850         851         876         875
         4         851         852         877         876
         4         852         853         878         877
         4         853         854         879         878
         4         854         855         880         879
         4         855         856         881         880
         4         856         857         882         881
         4         857         858         883         882
         4         858         859         884         883
         4         859         860         885         884
         4         860         861         886         885
         4         861         862         887         886
         4         862         863         888         887
         4         863         864         889         888
         4         864         865         890         889
         4         865         866         891         890
         4         866         867         892         891
         4         867         868         893         892
         4         868         869         894         893
         4         869         870         895         894
         4         870         871         896         895
         4         871         872         897         896
         4         872         873         898         897
         4         873         874         899         898
         4         875         876         901         900
         4         876         877         902         901
         4         877         878         903         902
         4         878         879         904         903
         4         879         880         905         904
         4         880         881         906         905
         4         881         882         907         906
         4         882         883         908         907
         4         883         884         909         908
         4         884         885         910         909
         4         885         886         911         910
         4         886         887         912         911
         4         887         888         913         912
         4         888         889         914         913
         4         889         890         915         914
         4         890         891         916         915
         4         891         892         917         916
         4         892         893         918         917
         4         893         894         919         918
         4         894         895         920         919
         4         895         896         921         920
         4         896         897         922         921
         4         897         898         923         922
         4         898         899         924         923
         4         900         901         926         925
         4         901         902         927         926
         4         902         903         928         927
         4         903         904         929         928
         4         904         905         930         929
         4         905         906         931         930
         4         906         907         932         931
         4         907         908         933         932
         4         908         909         934         933
         4         909         910         935         934
         4         910         911         936         935
         4         911         912         937         936
         4         912         913         938         937
         4         913         914         939         938
         4         914         915         940         939
         4         915         916         941         940
         4         916         917         942         941
         4         917         918         943         942
         4         918         919         944         943
         4         919         920         945         944
         4         920         921         946         945
         4         921         922         947         946
         4         922         923         948         947
         4         923         924         949         948
         4         925         926         951         950
         4         926         927         952         951
         4         927         928         953         952
         4         928         929         954         953
         4         929         930         955         954
         4         930         931         956         955
         4         931         932         957         956
         4         932         933         958         957
         4         933         934         959         958
         4         934         935         960         959
         4         935         936         961         960
         4         936         937         962         961
         4         937         938         963         962
         4         938         939         964         963
         4         939         940         965         964
         4         940         941         966         965
         4         941         942         967         966
         4         942         943         968         967
         4         943         944         969         968
         4         944         945         970         969
         4         945         946         971         970
         4         946         947         972         971
         4         947         948         973         972
         4         948         949         974         973
         4         950         951         976         975
         4         951         952         977         976
         4         952         953         978         977
         4         953         954         979         978
         4         954         955         980         979
         4         955         956         981         980
         4         956         957         982         981
         4         957         958         983         982
         4         958         959         984         983
         4         959         960         985         984
         4         960         961         986         985
         4         961         962         987         986
         4         962         963         988         987
         4         963         964         989         988
         4         964         965         990         989
         4         965         966         991         990
         4         966         967         992         991
         4         967         968         993         992
         4         968         969         994         993
         4         969         970         995         994
         4         970         971         996         995
         4         971         972         997         996
         4         972         973         998         997
         4         973         974         999         998
         4         975         976        1001        1000
         4         976         977        1002        1001
         4         977         978        1003        1002
         4         978         979        1004        1003
         4         979         980        1005        1004
         4         980         981        1006        1005
         4         981         982        1007        1006
         4         982         983        1008        1007
         4         983         984        1009        1008
         4         984         985        1010        1009
         4         985         986        1011        1010
         4         986         987        1012        1011
         4         987         988        1013        1012
         4         988         989        1014        1013
         4         989         990        1015        1014
         4         990         991        1016        1015
         4         991         992        1017        1016
         4         992         993        1018        1017
         4         993         994        1019        1018
         4         994         995        1020        1019
         4         995         996        1021        1020
         4         996         997        1022        1021
         4         997         998        1023        1022
         4         998         999        1024        1023
         4        1000        1001        1026        1025
         4        1001        1002        1027        1026
         4        1002        1003        1028        1027
         4        1003        1004        1029        1028
         4        1004        1005        1030        1029
         4        1005        1006        1031        1030
         4        1006        1007        1032        1031
         4        1007        1008        1033        1032
         4        1008        1009        1034        1033
         4        1009        1010        1035        1034
         4        1010        1011        1036        1035
         4        1011        1012        1037        1036
         4        1012        1013        1038        1037
         4        1013        1014        1039        1038
         4        1014        1015        1040        1039
         4        1015        1016        1041        1040
         4        1016        1017        1042        1041
         4        1017        1018        1043        1042
         4        1018        1019        1044        1043
         4        1019        1020        1045        1044
         4        1020        1021        1046        1045
         4        1021        1022        1047        1046
         4        1022        1023        1048        1047
         4        1023        1024        1049        1048
         4        1025        1026        1051        1050
         4        1026        1027        1052        1051
         4        1027        1028        1053        1052
         4        1028        1029        1054        1053
         4        1029        1030        1055        1054
         4        1030        1031        1056        1055
         4        1031        1032        1057        1056
         4        1032        1033        1058        1057
         4        1033        1034        1059        1058
         4        1034        1035        1060        1059
         4        1035        1036        1061        1060
         4        1036        1037        1062        1061
         4        1037        1038        1063        1062
         4        1038        1039        1064        1063
         4        1039        1040        1065        1064
         4        1040        1041        1066        1065
         4        1041        1042        1067        1066
         4        1042        1043        1068        1067
         4        1043        1044        1069        1068
         4        1044        1045        1070        1069
         4        1045        1046        1071        1070
         4        1046        1047        1072        1071
         4        1047        1048        1073        1072
         4        1048        1049        1074        1073
         4        1050        1051        1076        1075
         4        1051        1052        1077        1076
         4        1052        1053        1078        1077
         4        1053        1054        1079        1078
         4        1054        1055        1080        1079
         4        1055        1056        1081        1080
         4        1056        1057        1082        1081
         4        1057        1058        1083        1082
         4        1058        1059        1084        1083
         4        1059        1060        1085        1084
         4        1060        1061        1086        1085
         4        1061        1062        1087        1086
         4        1062        1063        1088        1087
         4        1063        1064        1089        1088
         4        1064        1065        1090        1089
         4        1065        1066        1091        1090
         4        1066        1067        1092        1091
         4        1067        1068        1093        1092
         4        1068        1069        1094        1093
         4        1069        1070        1095        1094
         4        1070        1071        1096        1095
         4        1071        1072        1097        1096
         4        1072        1073        1098        1097
         4        1073        1074        1099        1098
         4        1075        1076        1101        1100
         4        1076        1077        1102        1101
         4        1077        1078        1103        1102
         4        1078        1079        1104        1103
         4        1079        1080        1105        1104
         4        1080        1081        1106        1105
         4        1081        1082        1107        1106
         4        1082        1083        1108        1107
         4        1083        1084        1109        1108
         4        1084        1085        1110        1109
         4        1085        1086        1111        1110
         4        1086        1087        1112        1111
         4        1087        1088        1113        1112
         4        1088        1089        1114        1113
         4        1089        1090        1115        1114
         4        1090        1091        1116        1115
         4        1091        1092        1117        1116
         4        1092        1093        1118        1117
         4        1093        1094        1119        1118
         4        1094        1095        1120        1119
         4        1095        1096        1121        1120
         4        1096        1097        1122        1121
         4        1097        1098        1123        1122
         4        1098        1099        1124        1123
         4        1100        1101        1126        1125
         4        1101        1102        1127        1126
         4        1102        1103        1128        1127
         4        1103        1104        1129        1128
         4        1104        1105        1130        1129
         4        1105        1106        1131        1130
         4        1106        1107        1132        1131
         4        1107        1108        1133        1132
         4        1108        1109        1134        1133
         4        1109        1110        1135        1134
         4        1110        1111        1136        1135
         4        1111        1112        1137        1136
         4        1112        1113        1138        1137
         4        1113        1114        1139        1138
         4        1114        1115        1140        1139
         4        1115        1116        1141        1140
         4        1116        1117        1142        1141
         4        1117        1118        1143        1142
         4        1118        1119        1144        1143
         4        1119        1120        1145        1144
         4        1120        1121        1146        1145
         4        1121        1122        1147        1146
         4        1122        1123        1148        1147
         4        1123        1124        1149        1148
         4        1125        1126        1151        1150
         4        1126        1127        1152        1151
         4        1127        1128        1153        1152
         4        1128        1129        1154        1153
         4        1129        1130        1155        1154
         4        1130        1131        1156        1155
         4        1131        1132        1157        1156
         4        1132        1133        1158        1157
         4        1133        1134        1159        1158
         4        1134        1135        1160        1159
         4        1135        1136        1161        1160
         4        1136        1137        1162        1161
         4        1137        1138        1163        1162
         4        1138        1139        1164        1163
         4        1139        1140        1165        1164
         4        1140        1141        1166        1165
         4        1141        1142        1167        1166
         4        1142        1143        1168        1167
         4        1143        1144        1169        1168
         4        1144        1145        1170        1169
         4        1145        1146        1171        1170
         4        1146        1147        1172        1171
         4        1147        1148        1173        1172
         4        1148        1149        1174        1173
         4        1150        1151        1176        1175
         4        1151        1152        1177        1176
         4        1152        1153        1178        1177
         4        1153        1154        1179        1178
         4        1154        1155        1180        1179
         4        1155        1156        1181        1180
         4        1156        1157        1182        1181
         4        1157        1158        1183        1182
         4        1158        1159        1184        1183
         4        1159        1160        1185        1184
         4        1160        1161        1186        1185
         4        1161        1162        1187        1186
         4        1162        1163        1188        1187
         4        1163        1164        1189        1188
         4        1164        1165        1190        1189
         4        1165        1166        1191        1190
         4        1166        1167        1192        1191
         4        1167        1168        1193        1192
         4        1168        1169        1194        1193
         4        1169        1170        1195        1194
         4        1170        1171        1196        1195
         4        1171        1172        1197        1196
         4        1172        1173        1198        1197
         4        1173        1174        1199        1198
         4        1175        1176        1201        1200
         4        1176        1177        1202        1201
         4        1177        1178        1203        1202
         4        1178        1179        1204        1203
         4        1179        1180        1205        1204
         4        1180        1181        1206        1205
         4        1181        1182        1207        1206
         4        1182        1183        1208        1207
         4        1183        1184        1209        1208
         4        1184        1185        1210        1209
         4        1185        1186        1211        1210
         4        1186        1187        1212        1211
         4        1187        1188        1213        1212
         4        1188        1189        1214        1213
         4        1189        1190        1215        1214
         4        1190        1191        1216        1215
         4        1191        1192        1217        1216
         4        1192        1193        1218        1217
         4        1193        1194        1219        1218
         4        1194        1195        1220        1219
         4        1195        1196        1221        1220
         4        1196        1197        1222        1221
         4        1197        1198        1223        1222
         4        1198        1199        1224        1223
CELL_TYPES       1152
9
9
9
9
9
9
9
9
9
9
9
9
9
9
9
9
9
9
9
9
9
9
9
9
9
9
9
9
9
9
9
9
9
9
9
9
9
9
9
9
9
9
9
9
9
9
9
9
9
9
9
9
9
9
9
9
9
9
9
9
9
9
9
9
9
9
9
9
9
9
9
9
9
9
9
9
9
9
9
9
9
9
9
9
9
9
9
9
9
9
9
9
9
9
9
9
9
9
9
9
9
9
9
9
9
9
9
9
9
9
9
9
9
9
9
9
9
9
9
9
9
9
9
9
9
9
9
9
9
9
9
9
9
9
9
9
9
9
9
9
9
9
9
9
9
9
9
9
9
9
9
9
9
9
9
9
9
9
9
9
9
9
9
9
9
9
9
9
9
9
9
9
9
9
9
9
9
9
9
9
9
9
9
9
9
9
9
9
9
9
9
9
9
9
9
9
9
9
9
9
9
9
9
9
9
9
9
9
9
9
9
9
9
9
9
9
9
9
9
9
9
9
9
9
9
9
9
9
9
9
9
9
9
9
9
9
9
9
9
9
9
9
9
9
9
9
9
9
9
9
9
9
9
9
9
9
9
9
9
9
9
9
9
9
9
9
9
9
9
9
9
9
9
9
9
9
9
9
9
9
9
9
9
9
9
9
9
9
9
9
9
9
9
9
9
9
9
9
9
9
9
9
9
9
9
9
9
9
9
9
9
9
9
9
9
9
9
9
9
9
9
9
9
9
9
9
9
9
9
9
9
9
9
9
9
9
9
9
9
9
9
9
9
9
9
9
9
9
9
9
9
9
9
9
9
9
9
9
9
9
9
9
9
9
9
9
9
9
9
9
9
9
9
9
9
9
9
9
9
9
9
9
9
9
9
9
9
9
9
9
9
9
9
9
9
9
9
9
9
9
9
9
9
9
9
9
9
9
9
9
9
9
9
9
9
9
9
9
9
9
9
9
9
9
9
9
9
9
9
9
9
9
9
9
9
9
9
9
9
9
9
9
9
9
9
9
9
9
9
9
9
9
9
9
9
9
9
9
9
9
9
9
9
9
9
9
9
9
9
9
9
9
9
9
9
9
9
9
9
9
9
9
9
9
9
9
9
9
9
9
9
9
9
9
9
9
9
9
9
9
9
9
9
9
9
9
9
9
9
9
9
9
9
9
9
9
9
9
9
9
9
9
9
9
9
9
9
9
9
9
9
9
9
9
9
9
9
9
9
9
9
9
9
9
9
9
9
9
9
9
9
9
9
9
9
9
9
9
9
9
9
9
9
9
9
9
9
9
9
9
9
9
9
9
9
9
9
9
9
9
9
9
9
9
9
9
9
9
9
9
9
9
9
9
9
9
9
9
9
9
9
9
9
9
9
9
9
9
9
9
9
9
9
9
9
9
9
9
9
9
9
9
9
9
9
9
9
9
9
9
9
9
9
9
9
9
9
9
9
9
9
9
9
9
9
9
9
9
9
9
9
9
9
9
9
9
9
9
9
9
9
9
9
9
9
9
9
9
9
9
9
9
9
9
9
9
9
9
9
9
9
9
9
9
9
9
9
9
9
9
9
9
9
9
9
9
9
9
9
9
9
9
9
9
9
9
9
9
9
9
9
9
9
9
9
9
9
9
9
9
9
9
9
9
9
9
9
9
9
9
9
9
9
9
9
9
9
9
9
9
9
9
9
9
9
9
9
9
9
9
9
9
9
9
9
9
9
9
9
9
9
9
9
9
9
9
9
9
9
9
9
9
9
9
9
9
9
9
9
9
9
9
9
9
9
9
9
9
9
9
9
9
9
9
9
9
9
9
9
9
9
9
9
9
9
9
9
9
9
9
9
9
9
9
9
9
9
9
9
9
9
9
9
9
9
9
9
9
9
9
9
9
9
9
9
9
9
9
9
9
9
9
9
9
9
9
9
9
9
9
9
9
9
9
9
9
9
9
9
9
9
9
9
9
9
9
9
9
9
9
9
9
9
9
9
9
9
9
9
9
9
9
9
9
9
9
9
9
9
9
9
9
9
9
9
9
9
9
9
9
9
9
9
9
9
9
9
9
9
9
9
9
9
9
9
9
9
9
9
9
9
9
9
9
9
9
9
9
9
9
9
9
9
9
9
9
9
9
9
9
9
9
9
9
9
9
9
9
9
9
9
9
9
9
9
9
9
9
9
9
9
9
9
9
9
9
9
9
9
9
9
9
9
9
9
9
9
9
9
9
9
9
9
9
9
9
9
9
9
9
9
9
9
9
9
9
9
9
9
9
9
9
9
9
9
9
9
9
9
9
9
9
9
9
9
9
9
9
9
9
9
9
9
9
9
9
9
9
9
9
9
9
9
9
9
9
9
9
9
9
9
9
9
9
9
9
9
9
9
9
9
9
9
9
9
9
9
9
9
9
9
9
9
9
9
9
9
9
9
9
9
9
9
9
9
9
9
9
9
9
9
9
9
9
9
9
9
9
9
9
9
9
9
9
9
9
9
9
9
9
9
9
9
9
9
9
9
9
9
9
9
9
9
9
9
9
9
9
9
9
9
9
9
9
9
9
9
9
9
9
9
9
9
9
9
9
9
9
9
9
9
9
9
9
9
9
9
9
9
9
9
9
POINT_DATA      1225
SCALARS p double 
LOOKUP_TABLE default
 -1.320455571705679E-014
 -1.169281276488400E-014
 -1.028473323154223E-014
 -9.218956024244387E-015
 -8.398551229494648E-015
 -8.552703802531274E-015
 -8.618035659080454E-015
 -8.158828113498352E-015
 -8.735139972865051E-015
 -9.872587472183547E-015
 -9.412961696329124E-015
 -7.814833123524611E-015
 -7.420503597501023E-015
 -7.274410743997874E-015
 -7.273501674211057E-015
 -7.744291261582364E-015
 -7.916618553948947E-015
 -7.592804099235632E-015
 -7.647626696153627E-015
 -8.221945433915238E-015
 -8.596205067554570E-015
 -8.726799148572384E-015
 -8.648456916700155E-015
 -8.653632398072861E-015
 -8.651474716916351E-015
 -1.117592103253649E-014
 -1.020734667025630E-014
 -9.751916447213800E-015
 -9.040446326266044E-015
 -8.116102051646093E-015
 -8.309077735025999E-015
 -8.509294067400131E-015
 -7.948347833659945E-015
 -8.570785999320275E-015
 -9.728944077560773E-015
 -8.811879509395619E-015
 -7.999325895634200E-015
 -7.447132467216135E-015
 -7.000208921809421E-015
 -7.562619971141287E-015
 -7.757428909586803E-015
 -7.949816151069683E-015
 -7.709002749680869E-015
 -7.667508562500327E-015
 -8.340393953847801E-015
 -8.569014205545168E-015
 -8.592777422787167E-015
 -8.658687047672432E-015
 -8.649254953422446E-015
 -8.639171181573375E-015
 -6.131243526177630E-015
 -5.504789532571687E-015
 -5.688650916431132E-015
 -6.903039470899243E-015
 -8.404981450189136E-015
 -9.273257399925827E-015
 -8.556128739008485E-015
 -8.326511067372398E-015
 -8.171620670855095E-015
 -8.617433580225739E-015
 -8.388579559179897E-015
 -7.826363298178083E-015
 -7.515031638465575E-015
 -7.410580991250813E-015
 -7.901079019619997E-015
 -7.732133955068194E-015
 -7.591722963905085E-015
 -7.822785477123670E-015
 -7.774135237825817E-015
 -8.217954753586259E-015
 -8.464371520551532E-015
 -8.481986822311117E-015
 -8.583017136560908E-015
 -8.589697111386919E-015
 -8.591342193340335E-015
  0.000000000000000E+000
 -2.503213613210473E-015
 -3.134658834517105E-015
 -4.542446302255007E-015
 -6.874172345954090E-015
 -8.592277699366757E-015
 -8.768018555235014E-015
 -8.575019595149411E-015
 -7.384752011425191E-015
 -7.794385458898308E-015
 -8.270132466467267E-015
 -7.664098273920451E-015
 -7.721060680548660E-015
 -7.830136061566126E-015
 -7.822913332509407E-015
 -7.577199417847186E-015
 -7.757448821155369E-015
 -7.878189436792166E-015
 -7.732823957279006E-015
 -8.079351023057068E-015
 -8.258796048752418E-015
 -8.394388876512796E-015
 -8.474704968903503E-015
 -8.502941037135811E-015
 -8.493227120138519E-015
  0.000000000000000E+000
 -1.852392995665540E-015
 -2.412099645731918E-015
 -3.463989284777834E-015
 -4.929403775137343E-015
 -7.248497827601629E-015
 -7.943422202047089E-015
 -8.005136208206513E-015
 -7.088383193844695E-015
 -7.058673727923463E-015
 -7.857635068847038E-015
 -7.590777076267804E-015
 -7.566350887520416E-015
 -7.722265998035482E-015
 -7.519645505476840E-015
 -7.557301510673884E-015
 -7.890363892278957E-015
 -7.921746895964070E-015
 -7.922556902968556E-015
 -8.000714408015447E-015
 -8.067769168583547E-015
 -8.160494670975790E-015
 -8.266611692170420E-015
 -8.361867022497157E-015
 -8.360030666605053E-015
  0.000000000000000E+000
 -1.668125787710708E-015
 -2.419491334235255E-015
 -3.180262976679910E-015
 -4.175706647460547E-015
 -5.903716208948093E-015
 -6.665537129309513E-015
 -7.025827334467770E-015
 -7.632515294569959E-015
 -6.902622610006057E-015
 -6.749798601277380E-015
 -7.529172592423364E-015
 -7.483257756676883E-015
 -7.535534909337653E-015
 -7.707459884607393E-015
 -7.653000370170483E-015
 -7.552776798663173E-015
 -7.865790528441326E-015
 -8.046592524333668E-015
 -7.921007757903351E-015
 -7.748056871111765E-015
 -7.989914262530998E-015
 -8.128229728625234E-015
 -8.167800704135434E-015
 -8.220697384625458E-015
  0.000000000000000E+000
 -1.265833327710719E-015
 -2.391420005207348E-015
 -3.162811993258286E-015
 -3.592105741712351E-015
 -4.805443122782602E-015
 -5.828763442768194E-015
 -6.192093087840586E-015
 -7.525166691174095E-015
 -7.329352590182355E-015
 -6.717306101379574E-015
 -6.820545357579999E-015
 -7.246354541199574E-015
 -7.218218275957449E-015
 -7.499489936588112E-015
 -7.719537286149517E-015
 -7.454332577811176E-015
 -7.518274344106552E-015
 -7.713744396726143E-015
 -7.850435779858090E-015
 -7.761333196800247E-015
 -7.884034315445623E-015
 -8.090145132975007E-015
 -8.092268311352483E-015
 -8.147985121853432E-015
  0.000000000000000E+000
 -1.406381590788100E-015
 -2.756721683608737E-015
 -3.074305534545008E-015
 -3.247191367949860E-015
 -4.206809184174534E-015
 -5.479302729810684E-015
 -5.794313981569195E-015
 -6.683029751657198E-015
 -6.934979876002961E-015
 -6.667413964288788E-015
 -6.478091289808100E-015
 -6.578860948973652E-015
 -7.067284680762855E-015
 -7.163582759157088E-015
 -7.361604344387412E-015
 -7.320632669419662E-015
 -7.401183699730934E-015
 -7.540222894286313E-015
 -7.626722047131768E-015
 -7.776177181792607E-015
 -7.895669740924338E-015
 -8.041090398927285E-015
 -8.129715297170831E-015
 -8.185525173825797E-015
  0.000000000000000E+000
 -1.447582389879757E-015
 -2.776746037723224E-015
 -3.099614856519878E-015
 -3.316571810468239E-015
 -4.144465680281788E-015
 -4.789609320847690E-015
 -5.352191721306298E-015
 -5.905665306864154E-015
 -6.187811891704589E-015
 -6.251321408176492E-015
 -6.282541697090877E-015
 -6.258982927385523E-015
 -6.460031932873723E-015
 -6.702297293180799E-015
 -6.944229698159681E-015
 -7.034510399380788E-015
 -7.172475376734711E-015
 -7.356697929086915E-015
 -7.503114018849163E-015
 -7.652368775210149E-015
 -7.838341410590491E-015
 -8.046871234004310E-015
 -8.109663861425017E-015
 -8.136593803750791E-015
  0.000000000000000E+000
 -1.000340921765992E-015
 -2.256223387454446E-015
 -3.260148799244842E-015
 -3.805770717116399E-015
 -4.030654400435364E-015
 -4.432132807796444E-015
 -5.207197779052330E-015
 -5.784351087095768E-015
 -5.905815861748783E-015
 -6.004730867081775E-015
 -5.843126292348952E-015
 -5.777912364807860E-015
 -6.100481503481321E-015
 -6.405507655519336E-015
 -6.692915705920044E-015
 -6.776092709014943E-015
 -6.928088554543999E-015
 -7.168435061126012E-015
 -7.425297033036724E-015
 -7.695345585761300E-015
 -7.902981260189233E-015
 -7.992392255244321E-015
 -8.045345155815373E-015
 -8.053896592587833E-015
  0.000000000000000E+000
 -9.740842956168483E-016
 -1.897936119517265E-015
 -2.839221904189180E-015
 -3.816248504745397E-015
 -4.052089749414045E-015
 -4.399703816669500E-015
 -4.857800232437019E-015
 -5.166645372650373E-015
 -5.580452070328256E-015
 -5.732539828569085E-015
 -5.643714471013203E-015
 -5.730152226373571E-015
 -5.651487768278935E-015
 -6.163363710983395E-015
 -6.566586021202249E-015
 -6.827194334219731E-015
 -6.872961842404511E-015
 -7.097198496400422E-015
 -7.379803436075464E-015
 -7.700835574410535E-015
 -7.771772096026231E-015
 -7.822033383595346E-015
 -7.917291774401026E-015
 -7.976964804150259E-015
  0.000000000000000E+000
 -1.012999963079955E-015
 -1.595625528990482E-015
 -2.372772056580238E-015
 -3.301448863901928E-015
 -3.651778680737922E-015
 -3.865150662055743E-015
 -4.276951201729975E-015
 -4.889856840672172E-015
 -5.237622946244359E-015
 -5.647809469001916E-015
 -5.607622312949526E-015
 -5.484015536458764E-015
 -5.866859923426540E-015
 -6.133055410786764E-015
 -6.094940415175782E-015
 -6.675203296007528E-015
 -6.956809338183713E-015
 -6.993368539596546E-015
 -7.241148717734405E-015
 -7.548103201047900E-015
 -7.597719445660557E-015
 -7.632222631052543E-015
 -7.767438676922919E-015
 -7.821501787966681E-015
  0.000000000000000E+000
 -6.237901848526831E-016
 -1.125800580378155E-015
 -1.829963013410552E-015
 -2.611218218090365E-015
 -3.142315501367954E-015
 -3.320356027295781E-015
 -3.842579181334829E-015
 -4.485087953145715E-015
 -4.949953276674599E-015
 -5.219637398591559E-015
 -5.422303331317043E-015
 -5.484516265755891E-015
 -5.610723715871991E-015
 -5.896949865610579E-015
 -5.883850194699037E-015
 -6.428036121811461E-015
 -6.858665943005001E-015
 -6.851561562637503E-015
 -7.090284041036658E-015
 -7.299601853258669E-015
 -7.430625290220509E-015
 -7.521317527356693E-015
 -7.580131444682099E-015
 -7.615311646147561E-015
  0.000000000000000E+000
 -3.048855820845817E-016
 -8.605700344612471E-016
 -1.415433204579999E-015
 -2.139215686063667E-015
 -2.687008370719306E-015
 -2.992457758102856E-015
 -3.426295576710447E-015
 -4.112793555809231E-015
 -4.459244157926775E-015
 -4.664195958538090E-015
 -4.949939537388172E-015
 -5.337460862677895E-015
 -5.435415040858310E-015
 -5.588853861217718E-015
 -5.883165854537579E-015
 -6.315458186483968E-015
 -6.496087011071322E-015
 -6.710165599878121E-015
 -7.004551051086567E-015
 -7.103089700270278E-015
 -7.204289911124835E-015
 -7.365472869912986E-015
 -7.408815171561926E-015
 -7.415089052713048E-015
  0.000000000000000E+000
 -2.154219563241786E-016
 -7.366776069584225E-016
 -1.221604399280534E-015
 -2.011881182588308E-015
 -2.463695758242599E-015
 -2.815015220356072E-015
 -3.389722964223886E-015
 -3.725846974379634E-015
 -3.930180375905445E-015
 -4.348964059291961E-015
 -4.774592691086909E-015
 -5.131927892615334E-015
 -5.307892274421678E-015
 -5.547200306856399E-015
 -5.903189941811092E-015
 -6.177989609813188E-015
 -6.333149037209651E-015
 -6.518021270989094E-015
 -6.766967137845033E-015
 -6.981913604881696E-015
 -7.028476661837228E-015
 -7.160933992560745E-015
 -7.223130496861436E-015
 -7.213996392589504E-015
  0.000000000000000E+000
 -2.945687012000109E-016
 -6.997622107078062E-016
 -1.280774738761924E-015
 -1.699934175734936E-015
 -2.064785948678845E-015
 -2.564973075614595E-015
 -3.045671513005122E-015
 -3.337064685020640E-015
 -3.746867940412627E-015
 -4.072325155060291E-015
 -4.430003630403534E-015
 -4.737263547608991E-015
 -4.967457630733574E-015
 -5.264765227219374E-015
 -5.784243765191953E-015
 -5.996194553558576E-015
 -6.068043039124241E-015
 -6.179333395215933E-015
 -6.439817667355159E-015
 -6.700941851582579E-015
 -6.832653402497745E-015
 -6.900290171077981E-015
 -6.978665975723175E-015
 -7.003408840989396E-015
  0.000000000000000E+000
 -3.952976977628057E-016
 -7.381704690093149E-016
 -1.100217055086769E-015
 -1.406225474672283E-015
 -1.797913085775937E-015
 -2.216134323971250E-015
 -2.684496229896592E-015
 -3.076098962291985E-015
 -3.371033034239107E-015
 -3.685421933185119E-015
 -3.976473897709881E-015
 -4.182242644558716E-015
 -4.600559244831116E-015
 -4.870152106138104E-015
 -5.250175759990337E-015
 -5.526677735806445E-015
 -5.683069971574690E-015
 -5.919327974066517E-015
 -6.120759282557639E-015
 -6.392904549744906E-015
 -6.629296779294661E-015
 -6.718396313114177E-015
 -6.765505736127314E-015
 -6.788943028571635E-015
  0.000000000000000E+000
 -4.405124173535570E-016
 -7.745949704643388E-016
 -9.507962935637796E-016
 -1.254763804530238E-015
 -1.625408453327709E-015
 -1.986036346646590E-015
 -2.464169899372162E-015
 -2.861785541671844E-015
 -3.197503362586864E-015
 -3.558616931849249E-015
 -3.728585994420074E-015
 -3.920282400118671E-015
 -4.251547166148146E-015
 -4.513644135590745E-015
 -4.706956167590308E-015
 -5.157213328260526E-015
 -5.378799562073637E-015
 -5.573083277936729E-015
 -5.838449912731431E-015
 -6.162740888296466E-015
 -6.422946192761348E-015
 -6.512567265539861E-015
 -6.543627058022641E-015
 -6.563126008109839E-015
  0.000000000000000E+000
 -4.632389252935119E-016
 -7.358356331762425E-016
 -1.018213719092976E-015
 -1.337787217327028E-015
 -1.616080209091449E-015
 -1.967147141168939E-015
 -2.350663178417471E-015
 -2.830695327406856E-015
 -3.124254450566427E-015
 -3.426479698803905E-015
 -3.687139922776179E-015
 -3.868354709687902E-015
 -4.082309654468115E-015
 -4.266978069200199E-015
 -4.368045807053855E-015
 -4.757703059827521E-015
 -5.134287294778773E-015
 -5.458981058599836E-015
 -5.765095073948203E-015
 -5.978770296372596E-015
 -6.178462248788909E-015
 -6.249360626051612E-015
 -6.286433157114707E-015
 -6.285453878322934E-015
  0.000000000000000E+000
 -4.302502163053715E-016
 -7.151255788891637E-016
 -1.039496099387632E-015
 -1.356589019613149E-015
 -1.621712189041692E-015
 -1.917848856854784E-015
 -2.315037868890240E-015
 -2.680740333244718E-015
 -3.022731480513497E-015
 -3.261802246642414E-015
 -3.610777785431855E-015
 -3.868290211596413E-015
 -4.208900369982309E-015
 -4.311120256522706E-015
 -4.450876170166198E-015
 -4.582305150302116E-015
 -5.029985169345084E-015
 -5.468762102832914E-015
 -5.722499986981406E-015
 -5.820529673523739E-015
 -5.874400789322746E-015
 -5.978919697947439E-015
 -5.989618772456634E-015
 -5.998563767443891E-015
  0.000000000000000E+000
 -3.766312662988745E-016
 -6.863562163847737E-016
 -1.006488822757312E-015
 -1.346798236463302E-015
 -1.638011222476118E-015
 -1.916704608366353E-015
 -2.200247540396542E-015
 -2.489124013754661E-015
 -2.817456341018550E-015
 -3.081851200018823E-015
 -3.364208716101649E-015
 -3.729293577063547E-015
 -4.108051548565983E-015
 -4.374881319022987E-015
 -4.584864613649660E-015
 -4.686424238481573E-015
 -5.014321371193769E-015
 -5.326975287748928E-015
 -5.472214697553441E-015
 -5.588696235439285E-015
 -5.696383528990335E-015
 -5.715270444357216E-015
 -5.743836077732692E-015
 -5.744360776490771E-015
  0.000000000000000E+000
 -3.201072856445941E-016
 -6.349507410863772E-016
 -9.585500111010117E-016
 -1.304142236322520E-015
 -1.632596140699710E-015
 -1.872719903334097E-015
 -2.158841043620606E-015
 -2.491810592635789E-015
 -2.685213911781226E-015
 -2.902246326354430E-015
 -3.185821891301836E-015
 -3.553952738931628E-015
 -3.992819160964478E-015
 -4.281299324343134E-015
 -4.434766339000725E-015
 -4.758239112171567E-015
 -4.975743500204070E-015
 -5.187962057779438E-015
 -5.307397774545492E-015
 -5.414419425864399E-015
 -5.512900681722168E-015
 -5.516217222061955E-015
 -5.525854547544434E-015
 -5.520692934526295E-015
  0.000000000000000E+000
 -3.310917380432678E-016
 -6.308495196700546E-016
 -9.298768763229756E-016
 -1.209145281092040E-015
 -1.565300677268340E-015
 -1.829740275742306E-015
 -2.104767347256985E-015
 -2.370169502656501E-015
 -2.624440803180315E-015
 -2.879286165262939E-015
 -3.088115168253728E-015
 -3.524886490236396E-015
 -3.966745417686843E-015
 -4.118922327798657E-015
 -4.375776638704852E-015
 -4.572967450671296E-015
 -4.780163436463356E-015
 -5.018407538658050E-015
 -5.209742749736954E-015
 -5.305607326049675E-015
 -5.324844239754635E-015
 -5.327926711693394E-015
 -5.317054100554908E-015
 -5.330642961821722E-015
  0.000000000000000E+000
 -3.180910103390904E-016
 -6.080523959797397E-016
 -8.901074209038597E-016
 -1.177065826773423E-015
 -1.487934229247992E-015
 -1.809607338577346E-015
 -2.043096974007155E-015
 -2.239083405038764E-015
 -2.555841321695732E-015
 -2.898643197158271E-015
 -3.125543850826198E-015
 -3.524535904694346E-015
 -3.863173708148356E-015
 -3.983663587432041E-015
 -4.185981244015222E-015
 -4.400481266202384E-015
 -4.595474072161893E-015
 -4.823228533663110E-015
 -5.061392592120469E-015
 -5.160690487450341E-015
 -5.146212720349259E-015
 -5.165268947797767E-015
 -5.145076487675423E-015
 -5.150327682462847E-015
  0.000000000000000E+000
 -2.966208090616970E-016
 -5.887200481999253E-016
 -8.603501171022767E-016
 -1.148868074474485E-015
 -1.443240447146304E-015
 -1.754249290895043E-015
 -2.009569222957438E-015
 -2.296913818077401E-015
 -2.563512907572661E-015
 -2.872810917441207E-015
 -3.184209272270777E-015
 -3.416581112049779E-015
 -3.733772052326616E-015
 -4.049546913229177E-015
 -4.080793495904194E-015
 -4.293340162899642E-015
 -4.486942019202929E-015
 -4.794555493534586E-015
 -4.934234437481248E-015
 -4.976145797894625E-015
 -4.984599529453464E-015
 -4.973660321927049E-015
 -4.983668808167392E-015
 -4.980242764683622E-015
  0.000000000000000E+000
 -2.882585567969272E-016
 -5.689932441934401E-016
 -8.577444699890832E-016
 -1.154907412028793E-015
 -1.464403447285404E-015
 -1.749443921233506E-015
 -2.036196842325106E-015
 -2.383222654609759E-015
 -2.603761087824628E-015
 -2.840467609110743E-015
 -3.055937196796488E-015
 -3.361170246040404E-015
 -3.657014071356671E-015
 -3.870381828371318E-015
 -4.042729672461970E-015
 -4.128832170496814E-015
 -4.296502263408731E-015
 -4.592601885075187E-015
 -4.772017675122439E-015
 -4.830964767806951E-015
 -4.849558372030022E-015
 -4.813904003395246E-015
 -4.817485932065394E-015
 -4.832680562264429E-015
  0.000000000000000E+000
 -2.798843670561432E-016
 -5.679329015754287E-016
 -8.567801195889935E-016
 -1.164675551551594E-015
 -1.466560518365298E-015
 -1.750020657757655E-015
 -2.131013424028638E-015
 -2.393915750012028E-015
 -2.602634966576197E-015
 -2.792139678555830E-015
 -3.000179978618494E-015
 -3.244007515181465E-015
 -3.409501143970967E-015
 -3.546119654936497E-015
 -3.818164002476240E-015
 -3.937982082606283E-015
 -4.100214806476301E-015
 -4.340925443431524E-015
 -4.527681729825909E-015
 -4.674492504633041E-015
 -4.669882000492231E-015
 -4.663667443893286E-015
 -4.670715736202866E-015
 -4.681356308058104E-015
  0.000000000000000E+000
 -2.751979567743178E-016
 -6.040719958869810E-016
 -8.792884190282294E-016
 -1.175924518048859E-015
 -1.460640582454570E-015
 -1.766329662815193E-015
 -2.111606973554987E-015
 -2.417340498688343E-015
 -2.634045960928088E-015
 -2.802770474206265E-015
 -3.010780394390912E-015
 -3.101252955055265E-015
 -3.236685930205261E-015
 -3.456546935993715E-015
 -3.734352874542432E-015
 -3.894188780939247E-015
 -4.041874151097337E-015
 -4.174452045676032E-015
 -4.301893876832645E-015
 -4.382279429766970E-015
 -4.439245858475630E-015
 -4.491579312373923E-015
 -4.509079584671871E-015
 -4.509161088251808E-015
  0.000000000000000E+000
 -2.807226780612899E-016
 -5.890862290916585E-016
 -8.820380898188986E-016
 -1.161258619015826E-015
 -1.442814656637301E-015
 -1.769989960718659E-015
 -2.066659295132432E-015
 -2.383827380912960E-015
 -2.622285570349688E-015
 -2.769486989390888E-015
 -2.981433653175294E-015
 -3.135554423386607E-015
 -3.258194701286755E-015
 -3.438684742170521E-015
 -3.726410142529978E-015
 -3.856944069628346E-015
 -3.879557345115005E-015
 -3.982668372001100E-015
 -4.057503073273719E-015
 -4.128729258060576E-015
 -4.228513353436056E-015
 -4.279548272696507E-015
 -4.314376431443104E-015
 -4.323453424791716E-015
  0.000000000000000E+000
 -2.531924795303040E-016
 -5.272233688296814E-016
 -8.039377081666279E-016
 -1.072321941495621E-015
 -1.399654723717249E-015
 -1.702559103204152E-015
 -1.978854701886408E-015
 -2.258087127840847E-015
 -2.524992807387868E-015
 -2.725466552451016E-015
 -2.884844798226728E-015
 -3.033010697193326E-015
 -3.203522896393799E-015
 -3.406216616058728E-015
 -3.553621900594503E-015
 -3.665182100738002E-015
 -3.722289860191869E-015
 -3.777910784190126E-015
 -3.852390228080753E-015
 -3.949528869897142E-015
 -4.036654545162267E-015
 -4.084362072476458E-015
 -4.121713461839905E-015
 -4.133452546189071E-015
  0.000000000000000E+000
 -2.234105071846203E-016
 -4.800610989162244E-016
 -7.302488921199701E-016
 -9.958063851916636E-016
 -1.285925377552161E-015
 -1.625410315751123E-015
 -1.879002337662977E-015
 -2.117539483630480E-015
 -2.379670646590708E-015
 -2.581477269096022E-015
 -2.708797208162410E-015
 -2.884425280423432E-015
 -3.050896392081744E-015
 -3.261518770456188E-015
 -3.344118242949713E-015
 -3.427681844150901E-015
 -3.528713106776740E-015
 -3.612613706514298E-015
 -3.679108099005169E-015
 -3.760791731860505E-015
 -3.838570644753135E-015
 -3.904943365878934E-015
 -3.937149731065219E-015
 -3.952340445047824E-015
  0.000000000000000E+000
 -1.994875602409927E-016
 -4.588813825694827E-016
 -6.857749317631574E-016
 -9.369464685781490E-016
 -1.231716011280131E-015
 -1.552744034304468E-015
 -1.800233414328318E-015
 -1.968087196532654E-015
 -2.159274203729847E-015
 -2.339825896674692E-015
 -2.584548465958066E-015
 -2.814803788229318E-015
 -2.925859627845064E-015
 -3.013087734901980E-015
 -3.113375105849078E-015
 -3.153831989466572E-015
 -3.300161975632248E-015
 -3.429020262018111E-015
 -3.513718949962715E-015
 -3.589000506476957E-015
 -3.659641206069046E-015
 -3.724193729600370E-015
 -3.772081901154828E-015
 -3.789056558598733E-015
  0.000000000000000E+000
 -2.125077269899880E-016
 -4.013477727767307E-016
 -6.390037621124112E-016
 -9.189080136388128E-016
 -1.207148068749243E-015
 -1.444419448972019E-015
 -1.675720204495831E-015
 -1.863252357816617E-015
 -2.003562335012481E-015
 -2.184239086391961E-015
 -2.497280024180219E-015
 -2.662337251029890E-015
 -2.682097317668342E-015
 -2.757137664881691E-015
 -2.900707105730918E-015
 -3.027374482879694E-015
 -3.150583337340432E-015
 -3.265058425646491E-015
 -3.352648344014416E-015
 -3.433886494720952E-015
 -3.502791725207697E-015
 -3.569124067944174E-015
 -3.624157928999291E-015
 -3.635777993922665E-015
  0.000000000000000E+000
 -2.229443248809594E-016
 -3.977468384608900E-016
 -6.203671686409565E-016
 -8.775440231735924E-016
 -1.091977200379965E-015
 -1.322120137946786E-015
 -1.564261854838970E-015
 -1.786027838192830E-015
 -1.906925259703339E-015
 -2.107873838516586E-015
 -2.308713581524774E-015
 -2.424331315458078E-015
 -2.511201154606537E-015
 -2.626791305104991E-015
 -2.793808525692309E-015
 -2.915067115735663E-015
 -3.020009023280909E-015
 -3.128745191769373E-015
 -3.217745504410224E-015
 -3.297408643525824E-015
 -3.375886234120316E-015
 -3.445266446443219E-015
 -3.480185984345737E-015
 -3.491382046530633E-015
  0.000000000000000E+000
 -2.089480168385128E-016
 -3.914621542995389E-016
 -6.167973096850891E-016
 -8.055324296561506E-016
 -9.594520500128232E-016
 -1.222535974544131E-015
 -1.453910754441143E-015
 -1.666832054707384E-015
 -1.876359310486437E-015
 -2.039932489947895E-015
 -2.140850039088690E-015
 -2.227689685330295E-015
 -2.388171474409235E-015
 -2.550406187157969E-015
 -2.669360219897084E-015
 -2.788738874463374E-015
 -2.898714833658619E-015
 -3.014789577490868E-015
 -3.106450758330993E-015
 -3.182576439911534E-015
 -3.254302004235364E-015
 -3.320996013554840E-015
 -3.356162833851067E-015
 -3.361031707499050E-015
  0.000000000000000E+000
 -2.126593423121009E-016
 -3.804362754518953E-016
 -5.840472273181495E-016
 -7.596237100442575E-016
 -9.270029381877622E-016
 -1.135538082467103E-015
 -1.352513925446301E-015
 -1.599733875278820E-015
 -1.806165304775750E-015
 -1.952828251921936E-015
 -2.066793335194967E-015
 -2.193718796720577E-015
 -2.308927667600216E-015
 -2.454110342512021E-015
 -2.575797439643051E-015
 -2.710503862922749E-015
 -2.823584823623362E-015
 -2.925700967246582E-015
 -3.006146779197606E-015
 -3.078245401349188E-015
 -3.143324346044474E-015
 -3.199067849242680E-015
 -3.236806585626088E-015
 -3.242530486038933E-015
  0.000000000000000E+000
 -1.870279419345501E-016
 -3.953606089080306E-016
 -5.880782136471878E-016
 -7.525036416207327E-016
 -9.450785656071971E-016
 -1.133384021988246E-015
 -1.336902392468131E-015
 -1.548405399122786E-015
 -1.710658010103099E-015
 -1.871735255749047E-015
 -2.046474841692064E-015
 -2.181466389786027E-015
 -2.320708024049085E-015
 -2.480174003125375E-015
 -2.582669198736383E-015
 -2.663651708177418E-015
 -2.764922780249507E-015
 -2.834989045013300E-015
 -2.912881555339743E-015
 -2.988736372268090E-015
 -3.048461331908232E-015
 -3.096969239021751E-015
 -3.125023374574455E-015
 -3.130495039498677E-015
  0.000000000000000E+000
 -1.812921020102806E-016
 -3.838905093194946E-016
 -5.876594895679293E-016
 -7.644834047258980E-016
 -9.490515985810879E-016
 -1.122107536418518E-015
 -1.348408244420805E-015
 -1.548115734688943E-015
 -1.675197449820282E-015
 -1.807247458406764E-015
 -1.932058969970130E-015
 -2.100401947779258E-015
 -2.291069791638500E-015
 -2.419581189117173E-015
 -2.544539853693613E-015
 -2.648592206462563E-015
 -2.705715418600853E-015
 -2.766006727320446E-015
 -2.847344567466385E-015
 -2.915513283872622E-015
 -2.973912507074679E-015
 -3.009933883705815E-015
 -3.025213240211497E-015
 -3.033070632909175E-015
  0.000000000000000E+000
 -1.959836728958364E-016
 -3.765161602736444E-016
 -5.357070776439203E-016
 -7.378161393569080E-016
 -9.387800144543296E-016
 -1.123272629793885E-015
 -1.338959744722061E-015
 -1.510546568261842E-015
 -1.636813644037447E-015
 -1.747107363914452E-015
 -1.840687751502144E-015
 -2.022740238331518E-015
 -2.201458257219359E-015
 -2.368964774622615E-015
 -2.480050682909932E-015
 -2.573399052131744E-015
 -2.648947523723197E-015
 -2.734817164053676E-015
 -2.801406876964824E-015
 -2.846833214096513E-015
 -2.889670451344412E-015
 -2.925599074466933E-015
 -2.945229326294838E-015
 -2.949561802553542E-015
  0.000000000000000E+000
 -1.838872809157678E-016
 -3.676403369014115E-016
 -4.913007715128474E-016
 -7.134721345572223E-016
 -9.185407401121928E-016
 -1.153276944608978E-015
 -1.351406368424049E-015
 -1.453581864258058E-015
 -1.569789817259794E-015
 -1.700181312058556E-015
 -1.830672044670650E-015
 -1.998248914978736E-015
 -2.146091947839727E-015
 -2.307179099632805E-015
 -2.435835552077837E-015
 -2.517477131670428E-015
 -2.593244168557309E-015
 -2.683438976595062E-015
 -2.735187931776654E-015
 -2.781967053009553E-015
 -2.814256651597037E-015
 -2.848302116686816E-015
 -2.870661258021117E-015
 -2.877899855321363E-015
  0.000000000000000E+000
 -2.086981016730663E-016
 -3.461826507266227E-016
 -5.125987337214623E-016
 -7.110870930413289E-016
 -9.104530519996258E-016
 -1.132896155548422E-015
 -1.301057259781316E-015
 -1.433695302273992E-015
 -1.572108793025490E-015
 -1.709839284399583E-015
 -1.851709923092287E-015
 -1.991170479315607E-015
 -2.134355342139268E-015
 -2.279689380760299E-015
 -2.413000114636160E-015
 -2.493215978813746E-015
 -2.551732734837416E-015
 -2.629794697480942E-015
 -2.683681536339130E-015
 -2.728797353983157E-015
 -2.770828342510606E-015
 -2.797674992379231E-015
 -2.810724025622950E-015
 -2.814802831824236E-015
  0.000000000000000E+000
 -2.207238907392330E-016
 -3.758435507730740E-016
 -5.246386987714119E-016
 -6.938348618266378E-016
 -8.762845469506410E-016
 -1.090182433339661E-015
 -1.257998357027377E-015
 -1.416700202202996E-015
 -1.577233775804288E-015
 -1.724367383021058E-015
 -1.855359764840221E-015
 -1.974266216919666E-015
 -2.108580638600947E-015
 -2.235505189266214E-015
 -2.355672535773856E-015
 -2.453723033518877E-015
 -2.514796034984658E-015
 -2.581190334108855E-015
 -2.643246743058207E-015
 -2.693113549424566E-015
 -2.732118662252033E-015
 -2.747435794469629E-015
 -2.757538287742980E-015
 -2.760708237189260E-015
  0.000000000000000E+000
 -2.028557814930148E-016
 -3.774127811618057E-016
 -5.234642477121604E-016
 -6.802456777254860E-016
 -8.551182039041173E-016
 -1.057917110608740E-015
 -1.237414650937686E-015
 -1.393066032033457E-015
 -1.565065342012139E-015
 -1.713884054084826E-015
 -1.822545450435545E-015
 -1.937352853444003E-015
 -2.060723211932192E-015
 -2.166538682176576E-015
 -2.274290664073249E-015
 -2.382617099827167E-015
 -2.464345232851389E-015
 -2.532072135100051E-015
 -2.595185534917138E-015
 -2.651648411835467E-015
 -2.679555971839342E-015
 -2.696227955436678E-015
 -2.707790410783674E-015
 -2.711514506900788E-015
  0.000000000000000E+000
 -1.609454396441140E-016
 -3.478711178215678E-016
 -5.211713229184687E-016
 -6.866611553479160E-016
 -8.607234445067512E-016
 -1.026808110583646E-015
 -1.196097765179430E-015
 -1.360957256542273E-015
 -1.532878723917508E-015
 -1.675016408263378E-015
 -1.786687756288046E-015
 -1.904337323611996E-015
 -2.023668546793439E-015
 -2.135099523150493E-015
 -2.234523910791902E-015
 -2.339980427501401E-015
 -2.429941011766955E-015
 -2.488388145298995E-015
 -2.550551158680286E-015
 -2.607427644626117E-015
 -2.632603023673024E-015
 -2.651395076154056E-015
 -2.665457413521335E-015
 -2.669017101592976E-015
  0.000000000000000E+000
 -1.486419698570161E-016
 -3.113973845275043E-016
 -5.117707515672299E-016
 -6.812527536324459E-016
 -8.429245579097113E-016
 -1.010667957436401E-015
 -1.171825737516206E-015
 -1.335226320817551E-015
 -1.480034280935616E-015
 -1.618137494590482E-015
 -1.760222092898826E-015
 -1.886821216683043E-015
 -2.003216712596565E-015
 -2.116133732835403E-015
 -2.220355176852541E-015
 -2.312247719600220E-015
 -2.390141319520789E-015
 -2.448638979597555E-015
 -2.514551041636481E-015
 -2.560577160324343E-015
 -2.592736751612306E-015
 -2.614361272836352E-015
 -2.627390833543320E-015
 -2.631080379032361E-015
  0.000000000000000E+000
 -1.408635221079370E-016
 -3.153604351504561E-016
 -4.981553247594220E-016
 -6.713695897916901E-016
 -8.348178568833595E-016
 -1.003393484951848E-015
 -1.168018569738598E-015
 -1.310694765419060E-015
 -1.450532975258706E-015
 -1.592799302032652E-015
 -1.730633175120128E-015
 -1.869425614880107E-015
 -1.989504945273143E-015
 -2.095719415348211E-015
 -2.200161931639191E-015
 -2.283145845366667E-015
 -2.354717349107338E-015
 -2.422225627831313E-015
 -2.481514628279027E-015
 -2.521488659588445E-015
 -2.556542399485387E-015
 -2.582414487214875E-015
 -2.594647807064466E-015
 -2.599867045825244E-015
  0.000000000000000E+000
 -1.550397023451030E-016
 -3.198407061733599E-016
 -4.852677855546028E-016
 -6.523131059582249E-016
 -8.332456472824547E-016
 -9.874460616139771E-016
 -1.163477035764280E-015
 -1.305952886026897E-015
 -1.430671662842251E-015
 -1.567866543468798E-015
 -1.710192875618933E-015
 -1.853475844903239E-015
 -1.973734630449946E-015
 -2.074543716318031E-015
 -2.177156633509840E-015
 -2.265529681897778E-015
 -2.338972073542259E-015
 -2.404353648342463E-015
 -2.458019641770097E-015
 -2.502426155475072E-015
 -2.535953903137995E-015
 -2.558233830723874E-015
 -2.572340350084404E-015
 -2.577700558271507E-015
  0.000000000000000E+000
 -1.731352500273952E-016
 -3.257461268607329E-016
 -4.917608685233494E-016
 -6.498902413478105E-016
 -8.270982135226730E-016
 -9.968593043723078E-016
 -1.155724058932956E-015
 -1.301175939941907E-015
 -1.432816440045793E-015
 -1.574637025120229E-015
 -1.712680081686185E-015
 -1.836271015734740E-015
 -1.957675226291204E-015
 -2.060867738468096E-015
 -2.164858441066492E-015
 -2.253654404847600E-015
 -2.325671536916471E-015
 -2.393094262437686E-015
 -2.447363690459045E-015
 -2.491055190267899E-015
 -2.523231358515770E-015
 -2.546680368039544E-015
 -2.560096274634768E-015
 -2.565013854919876E-015
  0.000000000000000E+000
 -1.871767482051679E-016
 -3.420669009952227E-016
 -4.977316986005511E-016
 -6.548899214022540E-016
 -8.303395280854443E-016
 -1.003175766222324E-015
 -1.152453482514111E-015
 -1.288345392631380E-015
 -1.431797024865512E-015
 -1.574553044008220E-015
 -1.720462773437418E-015
 -1.833588896312448E-015
 -1.952277290266682E-015
 -2.057150827024880E-015
 -2.162345715511496E-015
 -2.244002590998035E-015
 -2.321916101860369E-015
 -2.391336877491446E-015
 -2.443494986495287E-015
 -2.486272026063450E-015
 -2.518433816257559E-015
 -2.542312231899271E-015
 -2.557057283048405E-015
 -2.560869169472555E-015
VECTORS u double 
    0.00000E+00        -0.44284E+00         0.00000E+00
    0.00000E+00        -0.41111E+00         0.00000E+00
    0.00000E+00        -0.37476E+00         0.00000E+00
    0.00000E+00        -0.33829E+00         0.00000E+00
    0.00000E+00        -0.30468E+00         0.00000E+00
    0.00000E+00        -0.27453E+00         0.00000E+00
    0.00000E+00        -0.24761E+00         0.00000E+00
    0.00000E+00        -0.22347E+00         0.00000E+00
    0.00000E+00        -0.20167E+00         0.00000E+00
    0.00000E+00        -0.18182E+00         0.00000E+00
    0.00000E+00        -0.16360E+00         0.00000E+00
    0.00000E+00        -0.14678E+00         0.00000E+00
    0.00000E+00        -0.13114E+00         0.00000E+00
    0.00000E+00        -0.11653E+00         0.00000E+00
    0.00000E+00        -0.10280E+00         0.00000E+00
    0.00000E+00        -0.89854E-01         0.00000E+00
    0.00000E+00        -0.77604E-01         0.00000E+00
    0.00000E+00        -0.65984E-01         0.00000E+00
    0.00000E+00        -0.54944E-01         0.00000E+00
    0.00000E+00        -0.44448E-01         0.00000E+00
    0.00000E+00        -0.34478E-01         0.00000E+00
    0.00000E+00        -0.25027E-01         0.00000E+00
    0.00000E+00        -0.16108E-01         0.00000E+00
    0.00000E+00        -0.77481E-02         0.00000E+00
    0.00000E+00         0.00000E+00         0.00000E+00
   -0.21284E-01        -0.43286E+00         0.00000E+00
   -0.30059E-02        -0.40120E+00         0.00000E+00
    0.73113E-02        -0.36508E+00         0.00000E+00
    0.11124E-01        -0.33026E+00         0.00000E+00
    0.12053E-01        -0.29840E+00         0.00000E+00
    0.11842E-01        -0.26967E+00         0.00000E+00
    0.11208E-01        -0.24383E+00         0.00000E+00
    0.10446E-01        -0.22050E+00         0.00000E+00
    0.96761E-02        -0.19930E+00         0.00000E+00
    0.89440E-02        -0.17990E+00         0.00000E+00
    0.82633E-02        -0.16205E+00         0.00000E+00
    0.76338E-02        -0.14551E+00         0.00000E+00
    0.70499E-02        -0.13010E+00         0.00000E+00
    0.65036E-02        -0.11566E+00         0.00000E+00
    0.59857E-02        -0.10209E+00         0.00000E+00
    0.54872E-02        -0.89266E-01         0.00000E+00
    0.49985E-02        -0.77123E-01         0.00000E+00
    0.45097E-02        -0.65596E-01         0.00000E+00
    0.40103E-02        -0.54636E-01         0.00000E+00
    0.34887E-02        -0.44210E-01         0.00000E+00
    0.29320E-02        -0.34302E-01         0.00000E+00
    0.23249E-02        -0.24905E-01         0.00000E+00
    0.16493E-02        -0.16033E-01         0.00000E+00
    0.88341E-03        -0.77142E-02         0.00000E+00
    0.00000E+00         0.00000E+00         0.00000E+00
   -0.41304E-01        -0.40152E+00         0.00000E+00
   -0.30221E-02        -0.36799E+00         0.00000E+00
    0.13731E-01        -0.33617E+00         0.00000E+00
    0.20227E-01        -0.30727E+00         0.00000E+00
    0.22177E-01        -0.28055E+00         0.00000E+00
    0.22109E-01        -0.25583E+00         0.00000E+00
    0.21190E-01        -0.23299E+00         0.00000E+00
    0.19949E-01        -0.21191E+00         0.00000E+00
    0.18624E-01        -0.19242E+00         0.00000E+00
    0.17319E-01        -0.17434E+00         0.00000E+00
    0.16077E-01        -0.15751E+00         0.00000E+00
    0.14908E-01        -0.14178E+00         0.00000E+00
    0.13808E-01        -0.12702E+00         0.00000E+00
    0.12768E-01        -0.11312E+00         0.00000E+00
    0.11773E-01        -0.99981E-01         0.00000E+00
    0.10809E-01        -0.87532E-01         0.00000E+00
    0.98576E-02        -0.75705E-01         0.00000E+00
    0.89018E-02        -0.64448E-01         0.00000E+00
    0.79216E-02        -0.53724E-01         0.00000E+00
    0.68949E-02        -0.43505E-01         0.00000E+00
    0.57966E-02        -0.33778E-01         0.00000E+00
    0.45972E-02        -0.24543E-01         0.00000E+00
    0.32615E-02        -0.15811E-01         0.00000E+00
    0.17468E-02        -0.76136E-02         0.00000E+00
    0.00000E+00         0.00000E+00         0.00000E+00
   -0.54951E-01        -0.32517E+00         0.00000E+00
   -0.39592E-02        -0.30932E+00         0.00000E+00
    0.16257E-01        -0.29181E+00         0.00000E+00
    0.25318E-01        -0.27318E+00         0.00000E+00
    0.28839E-01        -0.25406E+00         0.00000E+00
    0.29600E-01        -0.23504E+00         0.00000E+00
    0.28999E-01        -0.21650E+00         0.00000E+00
    0.27757E-01        -0.19870E+00         0.00000E+00
    0.26244E-01        -0.18172E+00         0.00000E+00
    0.24646E-01        -0.16561E+00         0.00000E+00
    0.23053E-01        -0.15033E+00         0.00000E+00
    0.21505E-01        -0.13585E+00         0.00000E+00
    0.20014E-01        -0.12210E+00         0.00000E+00
    0.18576E-01        -0.10903E+00         0.00000E+00
    0.17181E-01        -0.96595E-01         0.00000E+00
    0.15811E-01        -0.84735E-01         0.00000E+00
    0.14447E-01        -0.73411E-01         0.00000E+00
    0.13066E-01        -0.62590E-01         0.00000E+00
    0.11641E-01        -0.52245E-01         0.00000E+00
    0.10140E-01        -0.42360E-01         0.00000E+00
    0.85299E-02        -0.32928E-01         0.00000E+00
    0.67671E-02        -0.23953E-01         0.00000E+00
    0.48014E-02        -0.15450E-01         0.00000E+00
    0.25711E-02        -0.74496E-02         0.00000E+00
    0.00000E+00         0.00000E+00         0.00000E+00
   -0.58338E-01        -0.24437E+00         0.00000E+00
   -0.11222E-01        -0.24615E+00         0.00000E+00
    0.13215E-01        -0.24287E+00         0.00000E+00
    0.25557E-01        -0.23451E+00         0.00000E+00
    0.31467E-01        -0.22317E+00         0.00000E+00
    0.33803E-01        -0.21016E+00         0.00000E+00
    0.34163E-01        -0.19633E+00         0.00000E+00
    0.33447E-01        -0.18222E+00         0.00000E+00
    0.32164E-01        -0.16818E+00         0.00000E+00
    0.30600E-01        -0.15442E+00         0.00000E+00
    0.28913E-01        -0.14104E+00         0.00000E+00
    0.27187E-01        -0.12810E+00         0.00000E+00
    0.25462E-01        -0.11563E+00         0.00000E+00
    0.23752E-01        -0.10363E+00         0.00000E+00
    0.22057E-01        -0.92096E-01         0.00000E+00
    0.20365E-01        -0.81004E-01         0.00000E+00
    0.18656E-01        -0.70342E-01         0.00000E+00
    0.16906E-01        -0.60096E-01         0.00000E+00
    0.15085E-01        -0.50256E-01         0.00000E+00
    0.13156E-01        -0.40817E-01         0.00000E+00
    0.11075E-01        -0.31780E-01         0.00000E+00
    0.87895E-02        -0.23155E-01         0.00000E+00
    0.62370E-02        -0.14961E-01         0.00000E+00
    0.33392E-02        -0.72273E-02         0.00000E+00
    0.00000E+00         0.00000E+00         0.00000E+00
   -0.55389E-01        -0.19936E+00         0.00000E+00
   -0.18901E-01        -0.19914E+00         0.00000E+00
    0.69198E-02        -0.19992E+00         0.00000E+00
    0.22187E-01        -0.19758E+00         0.00000E+00
    0.30676E-01        -0.19202E+00         0.00000E+00
    0.34982E-01        -0.18406E+00         0.00000E+00
    0.36739E-01        -0.17451E+00         0.00000E+00
    0.36960E-01        -0.16397E+00         0.00000E+00
    0.36267E-01        -0.15289E+00         0.00000E+00
    0.35041E-01        -0.14157E+00         0.00000E+00
    0.33510E-01        -0.13023E+00         0.00000E+00
    0.31811E-01        -0.11900E+00         0.00000E+00
    0.30019E-01        -0.10797E+00         0.00000E+00
    0.28175E-01        -0.97189E-01         0.00000E+00
    0.26292E-01        -0.86694E-01         0.00000E+00
    0.24370E-01        -0.76502E-01         0.00000E+00
    0.22395E-01        -0.66623E-01         0.00000E+00
    0.20344E-01        -0.57065E-01         0.00000E+00
    0.18187E-01        -0.47832E-01         0.00000E+00
    0.15883E-01        -0.38932E-01         0.00000E+00
    0.13382E-01        -0.30375E-01         0.00000E+00
    0.10627E-01        -0.22177E-01         0.00000E+00
    0.75414E-02        -0.14359E-01         0.00000E+00
    0.40366E-02        -0.69534E-02         0.00000E+00
    0.00000E+00         0.00000E+00         0.00000E+00
   -0.51224E-01        -0.16553E+00         0.00000E+00
   -0.22397E-01        -0.16504E+00         0.00000E+00
    0.10354E-02        -0.16576E+00         0.00000E+00
    0.17423E-01        -0.16562E+00         0.00000E+00
    0.27812E-01        -0.16335E+00         0.00000E+00
    0.33938E-01        -0.15893E+00         0.00000E+00
    0.37186E-01        -0.15275E+00         0.00000E+00
    0.38540E-01        -0.14525E+00         0.00000E+00
    0.38664E-01        -0.13685E+00         0.00000E+00
    0.37997E-01        -0.12786E+00         0.00000E+00
    0.36825E-01        -0.11853E+00         0.00000E+00
    0.35331E-01        -0.10902E+00         0.00000E+00
    0.33626E-01        -0.99482E-01         0.00000E+00
    0.31777E-01        -0.89993E-01         0.00000E+00
    0.29819E-01        -0.80620E-01         0.00000E+00
    0.27762E-01        -0.71411E-01         0.00000E+00
    0.25604E-01        -0.62398E-01         0.00000E+00
    0.23325E-01        -0.53606E-01         0.00000E+00
    0.20896E-01        -0.45056E-01         0.00000E+00
    0.18277E-01        -0.36767E-01         0.00000E+00
    0.15416E-01        -0.28757E-01         0.00000E+00
    0.12249E-01        -0.21048E-01         0.00000E+00
    0.86936E-02        -0.13664E-01         0.00000E+00
    0.46518E-02        -0.66358E-02         0.00000E+00
    0.00000E+00         0.00000E+00         0.00000E+00
   -0.47086E-01        -0.13903E+00         0.00000E+00
   -0.23567E-01        -0.13820E+00         0.00000E+00
   -0.30188E-02        -0.13861E+00         0.00000E+00
    0.12905E-01        -0.13898E+00         0.00000E+00
    0.24179E-01        -0.13826E+00         0.00000E+00
    0.31604E-01        -0.13599E+00         0.00000E+00
    0.36140E-01        -0.13219E+00         0.00000E+00
    0.38604E-01        -0.12708E+00         0.00000E+00
    0.39616E-01        -0.12092E+00         0.00000E+00
    0.39625E-01        -0.11398E+00         0.00000E+00
    0.38944E-01        -0.10648E+00         0.00000E+00
    0.37784E-01        -0.98624E-01         0.00000E+00
    0.36289E-01        -0.90538E-01         0.00000E+00
    0.34548E-01        -0.82338E-01         0.00000E+00
    0.32613E-01        -0.74111E-01         0.00000E+00
    0.30512E-01        -0.65919E-01         0.00000E+00
    0.28249E-01        -0.57815E-01         0.00000E+00
    0.25814E-01        -0.49838E-01         0.00000E+00
    0.23181E-01        -0.42021E-01         0.00000E+00
    0.20310E-01        -0.34391E-01         0.00000E+00
    0.17151E-01        -0.26977E-01         0.00000E+00
    0.13635E-01        -0.19802E-01         0.00000E+00
    0.96786E-02        -0.12894E-01         0.00000E+00
    0.51768E-02        -0.62831E-02         0.00000E+00
    0.00000E+00         0.00000E+00         0.00000E+00
   -0.43048E-01        -0.11735E+00         0.00000E+00
   -0.23429E-01        -0.11636E+00         0.00000E+00
   -0.55475E-02        -0.11644E+00         0.00000E+00
    0.92659E-02        -0.11683E+00         0.00000E+00
    0.20608E-01        -0.11675E+00         0.00000E+00
    0.28739E-01        -0.11569E+00         0.00000E+00
    0.34208E-01        -0.11345E+00         0.00000E+00
    0.37608E-01        -0.11007E+00         0.00000E+00
    0.39453E-01        -0.10567E+00         0.00000E+00
    0.40154E-01        -0.10044E+00         0.00000E+00
    0.40019E-01        -0.94560E-01         0.00000E+00
    0.39271E-01        -0.88186E-01         0.00000E+00
    0.38069E-01        -0.81459E-01         0.00000E+00
    0.36519E-01        -0.74494E-01         0.00000E+00
    0.34690E-01        -0.67385E-01         0.00000E+00
    0.32620E-01        -0.60206E-01         0.00000E+00
    0.30325E-01        -0.53019E-01         0.00000E+00
    0.27800E-01        -0.45875E-01         0.00000E+00
    0.25027E-01        -0.38814E-01         0.00000E+00
    0.21967E-01        -0.31873E-01         0.00000E+00
    0.18572E-01        -0.25083E-01         0.00000E+00
    0.14774E-01        -0.18473E-01         0.00000E+00
    0.10488E-01        -0.12071E-01         0.00000E+00
    0.56072E-02        -0.59043E-02         0.00000E+00
    0.00000E+00         0.00000E+00         0.00000E+00
   -0.39149E-01        -0.99243E-01         0.00000E+00
   -0.22533E-01        -0.98163E-01         0.00000E+00
   -0.69596E-02        -0.98003E-01         0.00000E+00
    0.65394E-02        -0.98273E-01         0.00000E+00
    0.17476E-01        -0.98416E-01         0.00000E+00
    0.25828E-01        -0.97987E-01         0.00000E+00
    0.31861E-01        -0.96730E-01         0.00000E+00
    0.35955E-01        -0.94553E-01         0.00000E+00
    0.38498E-01        -0.91488E-01         0.00000E+00
    0.39833E-01        -0.87629E-01         0.00000E+00
    0.40237E-01        -0.83097E-01         0.00000E+00
    0.39926E-01        -0.78019E-01         0.00000E+00
    0.39061E-01        -0.72515E-01         0.00000E+00
    0.37757E-01        -0.66690E-01         0.00000E+00
    0.36092E-01        -0.60637E-01         0.00000E+00
    0.34114E-01        -0.54433E-01         0.00000E+00
    0.31846E-01        -0.48144E-01         0.00000E+00
    0.29292E-01        -0.41825E-01         0.00000E+00
    0.26436E-01        -0.35523E-01         0.00000E+00
    0.23248E-01        -0.29277E-01         0.00000E+00
    0.19679E-01        -0.23124E-01         0.00000E+00
    0.15664E-01        -0.17093E-01         0.00000E+00
    0.11120E-01        -0.11213E-01         0.00000E+00
    0.59420E-02        -0.55082E-02         0.00000E+00
    0.00000E+00         0.00000E+00         0.00000E+00
   -0.35403E-01        -0.83900E-01         0.00000E+00
   -0.21184E-01        -0.82784E-01         0.00000E+00
   -0.75853E-02        -0.82452E-01         0.00000E+00
    0.45937E-02        -0.82580E-01         0.00000E+00
    0.14881E-01        -0.82771E-01         0.00000E+00
    0.23124E-01        -0.82663E-01         0.00000E+00
    0.29410E-01        -0.82000E-01         0.00000E+00
    0.33956E-01        -0.80643E-01         0.00000E+00
    0.37029E-01        -0.78553E-01         0.00000E+00
    0.38894E-01        -0.75757E-01         0.00000E+00
    0.39786E-01        -0.72326E-01         0.00000E+00
    0.39896E-01        -0.68346E-01         0.00000E+00
    0.39379E-01        -0.63912E-01         0.00000E+00
    0.38347E-01        -0.59112E-01         0.00000E+00
    0.36882E-01        -0.54031E-01         0.00000E+00
    0.35039E-01        -0.48740E-01         0.00000E+00
    0.32845E-01        -0.43306E-01         0.00000E+00
    0.30311E-01        -0.37784E-01         0.00000E+00
    0.27426E-01        -0.32223E-01         0.00000E+00
    0.24163E-01        -0.26664E-01         0.00000E+00
    0.20478E-01        -0.21144E-01         0.00000E+00
    0.16309E-01        -0.15694E-01         0.00000E+00
    0.11578E-01        -0.10340E-01         0.00000E+00
    0.61829E-02        -0.51031E-02         0.00000E+00
    0.00000E+00         0.00000E+00         0.00000E+00
   -0.31820E-01        -0.70783E-01         0.00000E+00
   -0.19569E-01        -0.69662E-01         0.00000E+00
   -0.76614E-02        -0.69215E-01         0.00000E+00
    0.32703E-02        -0.69218E-01         0.00000E+00
    0.12802E-01        -0.69383E-01         0.00000E+00
    0.20732E-01        -0.69428E-01         0.00000E+00
    0.27038E-01        -0.69121E-01         0.00000E+00
    0.31824E-01        -0.68312E-01         0.00000E+00
    0.35260E-01        -0.66923E-01         0.00000E+00
    0.37537E-01        -0.64939E-01         0.00000E+00
    0.38838E-01        -0.62386E-01         0.00000E+00
    0.39328E-01        -0.59316E-01         0.00000E+00
    0.39141E-01        -0.55797E-01         0.00000E+00
    0.38384E-01        -0.51899E-01         0.00000E+00
    0.37137E-01        -0.47691E-01         0.00000E+00
    0.35455E-01        -0.43239E-01         0.00000E+00
    0.33369E-01        -0.38601E-01         0.00000E+00
    0.30894E-01        -0.33833E-01         0.00000E+00
    0.28022E-01        -0.28981E-01         0.00000E+00
    0.24732E-01        -0.24085E-01         0.00000E+00
    0.20984E-01        -0.19183E-01         0.00000E+00
    0.16722E-01        -0.14302E-01         0.00000E+00
    0.11870E-01        -0.94673E-02         0.00000E+00
    0.63346E-02        -0.46966E-02         0.00000E+00
    0.00000E+00         0.00000E+00         0.00000E+00
   -0.28408E-01        -0.59503E-01         0.00000E+00
   -0.17804E-01        -0.58400E-01         0.00000E+00
   -0.73563E-02        -0.57878E-01         0.00000E+00
    0.24275E-02        -0.57781E-01         0.00000E+00
    0.11176E-01        -0.57898E-01         0.00000E+00
    0.18672E-01        -0.58006E-01         0.00000E+00
    0.24837E-01        -0.57910E-01         0.00000E+00
    0.29697E-01        -0.57465E-01         0.00000E+00
    0.33348E-01        -0.56576E-01         0.00000E+00
    0.35917E-01        -0.55203E-01         0.00000E+00
    0.37541E-01        -0.53342E-01         0.00000E+00
    0.38351E-01        -0.51016E-01         0.00000E+00
    0.38460E-01        -0.48267E-01         0.00000E+00
    0.37964E-01        -0.45147E-01         0.00000E+00
    0.36935E-01        -0.41711E-01         0.00000E+00
    0.35427E-01        -0.38013E-01         0.00000E+00
    0.33471E-01        -0.34106E-01         0.00000E+00
    0.31083E-01        -0.30037E-01         0.00000E+00
    0.28261E-01        -0.25851E-01         0.00000E+00
    0.24985E-01        -0.21585E-01         0.00000E+00
    0.21221E-01        -0.17272E-01         0.00000E+00
    0.16918E-01        -0.12941E-01         0.00000E+00
    0.12008E-01        -0.86105E-02         0.00000E+00
    0.64034E-02        -0.42953E-02         0.00000E+00
    0.00000E+00         0.00000E+00         0.00000E+00
   -0.25176E-01        -0.49768E-01         0.00000E+00
   -0.15971E-01        -0.48697E-01         0.00000E+00
   -0.67908E-02        -0.48132E-01         0.00000E+00
    0.19494E-02        -0.47961E-01         0.00000E+00
    0.99269E-02        -0.48026E-01         0.00000E+00
    0.16928E-01        -0.48153E-01         0.00000E+00
    0.22845E-01        -0.48180E-01         0.00000E+00
    0.27654E-01        -0.47975E-01         0.00000E+00
    0.31397E-01        -0.47444E-01         0.00000E+00
    0.34151E-01        -0.46528E-01         0.00000E+00
    0.36012E-01        -0.45206E-01         0.00000E+00
    0.37078E-01        -0.43481E-01         0.00000E+00
    0.37440E-01        -0.41373E-01         0.00000E+00
    0.37178E-01        -0.38917E-01         0.00000E+00
    0.36356E-01        -0.36153E-01         0.00000E+00
    0.35022E-01        -0.33124E-01         0.00000E+00
    0.33207E-01        -0.29875E-01         0.00000E+00
    0.30927E-01        -0.26445E-01         0.00000E+00
    0.28181E-01        -0.22875E-01         0.00000E+00
    0.24954E-01        -0.19197E-01         0.00000E+00
    0.21215E-01        -0.15440E-01         0.00000E+00
    0.16919E-01        -0.11630E-01         0.00000E+00
    0.12006E-01        -0.77814E-02         0.00000E+00
    0.63972E-02        -0.39049E-02         0.00000E+00
    0.00000E+00         0.00000E+00         0.00000E+00
   -0.22127E-01        -0.41350E-01         0.00000E+00
   -0.14125E-01        -0.40321E-01         0.00000E+00
   -0.60531E-02        -0.39736E-01         0.00000E+00
    0.17434E-02        -0.39513E-01         0.00000E+00
    0.89835E-02        -0.39532E-01         0.00000E+00
    0.15465E-01        -0.39657E-01         0.00000E+00
    0.21067E-01        -0.39755E-01         0.00000E+00
    0.25737E-01        -0.39711E-01         0.00000E+00
    0.29477E-01        -0.39433E-01         0.00000E+00
    0.32325E-01        -0.38860E-01         0.00000E+00
    0.34343E-01        -0.37957E-01         0.00000E+00
    0.35600E-01        -0.36713E-01         0.00000E+00
    0.36167E-01        -0.35133E-01         0.00000E+00
    0.36107E-01        -0.33237E-01         0.00000E+00
    0.35473E-01        -0.31052E-01         0.00000E+00
    0.34307E-01        -0.28610E-01         0.00000E+00
    0.32636E-01        -0.25945E-01         0.00000E+00
    0.30475E-01        -0.23092E-01         0.00000E+00
    0.27826E-01        -0.20083E-01         0.00000E+00
    0.24674E-01        -0.16946E-01         0.00000E+00
    0.20995E-01        -0.13706E-01         0.00000E+00
    0.16748E-01        -0.10383E-01         0.00000E+00
    0.11881E-01        -0.69893E-02         0.00000E+00
    0.63251E-02        -0.35298E-02         0.00000E+00
    0.00000E+00         0.00000E+00         0.00000E+00
   -0.19266E-01        -0.34064E-01         0.00000E+00
   -0.12307E-01        -0.33085E-01         0.00000E+00
   -0.52082E-02        -0.32499E-01         0.00000E+00
    0.17369E-02        -0.32242E-01         0.00000E+00
    0.82833E-02        -0.32224E-01         0.00000E+00
    0.14244E-01        -0.32339E-01         0.00000E+00
    0.19494E-01        -0.32477E-01         0.00000E+00
    0.23963E-01        -0.32539E-01         0.00000E+00
    0.27626E-01        -0.32443E-01         0.00000E+00
    0.30494E-01        -0.32126E-01         0.00000E+00
    0.32601E-01        -0.31549E-01         0.00000E+00
    0.33991E-01        -0.30689E-01         0.00000E+00
    0.34716E-01        -0.29541E-01         0.00000E+00
    0.34822E-01        -0.28113E-01         0.00000E+00
    0.34352E-01        -0.26422E-01         0.00000E+00
    0.33341E-01        -0.24488E-01         0.00000E+00
    0.31811E-01        -0.22339E-01         0.00000E+00
    0.29776E-01        -0.19999E-01         0.00000E+00
    0.27237E-01        -0.17496E-01         0.00000E+00
    0.24182E-01        -0.14851E-01         0.00000E+00
    0.20591E-01        -0.12084E-01         0.00000E+00
    0.16428E-01        -0.92118E-02         0.00000E+00
    0.11649E-01        -0.62412E-02         0.00000E+00
    0.61963E-02        -0.31736E-02         0.00000E+00
    0.00000E+00         0.00000E+00         0.00000E+00
   -0.16594E-01        -0.27761E-01         0.00000E+00
   -0.10544E-01        -0.26838E-01         0.00000E+00
   -0.43052E-02        -0.26262E-01         0.00000E+00
    0.18725E-02        -0.25987E-01         0.00000E+00
    0.77733E-02        -0.25943E-01         0.00000E+00
    0.13226E-01        -0.26045E-01         0.00000E+00
    0.18106E-01        -0.26206E-01         0.00000E+00
    0.22333E-01        -0.26340E-01         0.00000E+00
    0.25868E-01        -0.26374E-01         0.00000E+00
    0.28698E-01        -0.26249E-01         0.00000E+00
    0.30836E-01        -0.25923E-01         0.00000E+00
    0.32308E-01        -0.25369E-01         0.00000E+00
    0.33146E-01        -0.24574E-01         0.00000E+00
    0.33384E-01        -0.23535E-01         0.00000E+00
    0.33053E-01        -0.22261E-01         0.00000E+00
    0.32181E-01        -0.20765E-01         0.00000E+00
    0.30785E-01        -0.19063E-01         0.00000E+00
    0.28877E-01        -0.17177E-01         0.00000E+00
    0.26456E-01        -0.15123E-01         0.00000E+00
    0.23514E-01        -0.12921E-01         0.00000E+00
    0.20033E-01        -0.10584E-01         0.00000E+00
    0.15985E-01        -0.81228E-02         0.00000E+00
    0.11329E-01        -0.55421E-02         0.00000E+00
    0.60201E-02        -0.28386E-02         0.00000E+00
    0.00000E+00         0.00000E+00         0.00000E+00
   -0.14112E-01        -0.22315E-01         0.00000E+00
   -0.88590E-02        -0.21452E-01         0.00000E+00
   -0.33807E-02        -0.20896E-01         0.00000E+00
    0.21054E-02        -0.20614E-01         0.00000E+00
    0.74093E-02        -0.20552E-01         0.00000E+00
    0.12374E-01        -0.20644E-01         0.00000E+00
    0.16880E-01        -0.20817E-01         0.00000E+00
    0.20844E-01        -0.21000E-01         0.00000E+00
    0.24212E-01        -0.21128E-01         0.00000E+00
    0.26960E-01        -0.21148E-01         0.00000E+00
    0.29084E-01        -0.21017E-01         0.00000E+00
    0.30593E-01        -0.20706E-01         0.00000E+00
    0.31505E-01        -0.20196E-01         0.00000E+00
    0.31842E-01        -0.19479E-01         0.00000E+00
    0.31626E-01        -0.18555E-01         0.00000E+00
    0.30875E-01        -0.17431E-01         0.00000E+00
    0.29603E-01        -0.16117E-01         0.00000E+00
    0.27819E-01        -0.14625E-01         0.00000E+00
    0.25522E-01        -0.12969E-01         0.00000E+00
    0.22705E-01        -0.11160E-01         0.00000E+00
    0.19352E-01        -0.92086E-02         0.00000E+00
    0.15440E-01        -0.71200E-02         0.00000E+00
    0.10937E-01        -0.48947E-02         0.00000E+00
    0.58056E-02        -0.25265E-02         0.00000E+00
    0.00000E+00         0.00000E+00         0.00000E+00
   -0.11819E-01        -0.17619E-01         0.00000E+00
   -0.72657E-02        -0.16817E-01         0.00000E+00
   -0.24628E-02        -0.16289E-01         0.00000E+00
    0.24004E-02        -0.16009E-01         0.00000E+00
    0.71550E-02        -0.15938E-01         0.00000E+00
    0.11658E-01        -0.16022E-01         0.00000E+00
    0.15795E-01        -0.16202E-01         0.00000E+00
    0.19482E-01        -0.16419E-01         0.00000E+00
    0.22660E-01        -0.16616E-01         0.00000E+00
    0.25295E-01        -0.16744E-01         0.00000E+00
    0.27368E-01        -0.16764E-01         0.00000E+00
    0.28878E-01        -0.16645E-01         0.00000E+00
    0.29831E-01        -0.16365E-01         0.00000E+00
    0.30238E-01        -0.15913E-01         0.00000E+00
    0.30112E-01        -0.15282E-01         0.00000E+00
    0.29465E-01        -0.14473E-01         0.00000E+00
    0.28307E-01        -0.13490E-01         0.00000E+00
    0.26642E-01        -0.12340E-01         0.00000E+00
    0.24470E-01        -0.11030E-01         0.00000E+00
    0.21784E-01        -0.95686E-02         0.00000E+00
    0.18572E-01        -0.79593E-02         0.00000E+00
    0.14815E-01        -0.62043E-02         0.00000E+00
    0.10488E-01        -0.43004E-02         0.00000E+00
    0.55613E-02        -0.22380E-02         0.00000E+00
    0.00000E+00         0.00000E+00         0.00000E+00
   -0.97112E-02        -0.13580E-01         0.00000E+00
   -0.57750E-02        -0.12841E-01         0.00000E+00
   -0.15722E-02        -0.12345E-01         0.00000E+00
    0.27299E-02        -0.12076E-01         0.00000E+00
    0.69807E-02        -0.12002E-01         0.00000E+00
    0.11050E-01        -0.12081E-01         0.00000E+00
    0.14830E-01        -0.12266E-01         0.00000E+00
    0.18238E-01        -0.12506E-01         0.00000E+00
    0.21211E-01        -0.12753E-01         0.00000E+00
    0.23708E-01        -0.12963E-01         0.00000E+00
    0.25704E-01        -0.13100E-01         0.00000E+00
    0.27187E-01        -0.13132E-01         0.00000E+00
    0.28152E-01        -0.13038E-01         0.00000E+00
    0.28604E-01        -0.12801E-01         0.00000E+00
    0.28547E-01        -0.12412E-01         0.00000E+00
    0.27987E-01        -0.11868E-01         0.00000E+00
    0.26931E-01        -0.11166E-01         0.00000E+00
    0.25380E-01        -0.10309E-01         0.00000E+00
    0.23332E-01        -0.93002E-02         0.00000E+00
    0.20782E-01        -0.81414E-02         0.00000E+00
    0.17721E-01        -0.68337E-02         0.00000E+00
    0.14132E-01        -0.53750E-02         0.00000E+00
    0.99974E-02        -0.37589E-02         0.00000E+00
    0.52950E-02        -0.19735E-02         0.00000E+00
    0.00000E+00         0.00000E+00         0.00000E+00
   -0.77863E-02        -0.10119E-01         0.00000E+00
   -0.43937E-02        -0.94424E-02         0.00000E+00
   -0.72487E-03        -0.89834E-02         0.00000E+00
    0.30722E-02        -0.87299E-02         0.00000E+00
    0.68625E-02        -0.86584E-02         0.00000E+00
    0.10527E-01        -0.87360E-02         0.00000E+00
    0.13966E-01        -0.89237E-02         0.00000E+00
    0.17097E-01        -0.91800E-02         0.00000E+00
    0.19858E-01        -0.94636E-02         0.00000E+00
    0.22204E-01        -0.97358E-02         0.00000E+00
    0.24103E-01        -0.99621E-02         0.00000E+00
    0.25535E-01        -0.10114E-01         0.00000E+00
    0.26491E-01        -0.10167E-01         0.00000E+00
    0.26966E-01        -0.10105E-01         0.00000E+00
    0.26959E-01        -0.99162E-02         0.00000E+00
    0.26472E-01        -0.95914E-02         0.00000E+00
    0.25506E-01        -0.91265E-02         0.00000E+00
    0.24062E-01        -0.85191E-02         0.00000E+00
    0.22136E-01        -0.77679E-02         0.00000E+00
    0.19724E-01        -0.68714E-02         0.00000E+00
    0.16818E-01        -0.58270E-02         0.00000E+00
    0.13407E-01        -0.46291E-02         0.00000E+00
    0.94774E-02        -0.32690E-02         0.00000E+00
    0.50137E-02        -0.17326E-02         0.00000E+00
    0.00000E+00         0.00000E+00         0.00000E+00
   -0.60394E-02        -0.71648E-02         0.00000E+00
   -0.31261E-02        -0.65507E-02         0.00000E+00
    0.67904E-04        -0.61304E-02         0.00000E+00
    0.34107E-02        -0.58967E-02         0.00000E+00
    0.67809E-02        -0.58321E-02         0.00000E+00
    0.10070E-01        -0.59108E-02         0.00000E+00
    0.13185E-01        -0.61015E-02         0.00000E+00
    0.16047E-01        -0.63695E-02         0.00000E+00
    0.18595E-01        -0.66796E-02         0.00000E+00
    0.20781E-01        -0.69976E-02         0.00000E+00
    0.22569E-01        -0.72924E-02         0.00000E+00
    0.23935E-01        -0.75368E-02         0.00000E+00
    0.24863E-01        -0.77078E-02         0.00000E+00
    0.25344E-01        -0.77870E-02         0.00000E+00
    0.25372E-01        -0.77603E-02         0.00000E+00
    0.24944E-01        -0.76172E-02         0.00000E+00
    0.24058E-01        -0.73499E-02         0.00000E+00
    0.22713E-01        -0.69526E-02         0.00000E+00
    0.20906E-01        -0.64208E-02         0.00000E+00
    0.18632E-01        -0.57494E-02         0.00000E+00
    0.15885E-01        -0.49328E-02         0.00000E+00
    0.12657E-01        -0.39630E-02         0.00000E+00
    0.89395E-02        -0.28287E-02         0.00000E+00
    0.47234E-02        -0.15146E-02         0.00000E+00
    0.00000E+00         0.00000E+00         0.00000E+00
   -0.44649E-02        -0.46558E-02         0.00000E+00
   -0.19739E-02        -0.41030E-02         0.00000E+00
    0.79790E-03        -0.37228E-02         0.00000E+00
    0.37325E-02        -0.35117E-02         0.00000E+00
    0.67206E-02        -0.34573E-02         0.00000E+00
    0.96631E-02        -0.35396E-02         0.00000E+00
    0.12473E-01        -0.37333E-02         0.00000E+00
    0.15078E-01        -0.40096E-02         0.00000E+00
    0.17415E-01        -0.43386E-02         0.00000E+00
    0.19437E-01        -0.46903E-02         0.00000E+00
    0.21105E-01        -0.50369E-02         0.00000E+00
    0.22393E-01        -0.53528E-02         0.00000E+00
    0.23281E-01        -0.56159E-02         0.00000E+00
    0.23754E-01        -0.58075E-02         0.00000E+00
    0.23803E-01        -0.59122E-02         0.00000E+00
    0.23422E-01        -0.59176E-02         0.00000E+00
    0.22608E-01        -0.58136E-02         0.00000E+00
    0.21355E-01        -0.55918E-02         0.00000E+00
    0.19662E-01        -0.52447E-02         0.00000E+00
    0.17524E-01        -0.47649E-02         0.00000E+00
    0.14936E-01        -0.41440E-02         0.00000E+00
    0.11894E-01        -0.33718E-02         0.00000E+00
    0.83934E-02        -0.24354E-02         0.00000E+00
    0.44294E-02        -0.13185E-02         0.00000E+00
    0.00000E+00         0.00000E+00         0.00000E+00
   -0.30566E-02        -0.25370E-02         0.00000E+00
   -0.93711E-03        -0.20439E-02         0.00000E+00
    0.14596E-02        -0.17043E-02         0.00000E+00
    0.40280E-02        -0.15179E-02         0.00000E+00
    0.66691E-02        -0.14761E-02         0.00000E+00
    0.92928E-02        -0.15638E-02         0.00000E+00
    0.11819E-01        -0.17606E-02         0.00000E+00
    0.14177E-01        -0.20428E-02         0.00000E+00
    0.16310E-01        -0.23849E-02         0.00000E+00
    0.18168E-01        -0.27609E-02         0.00000E+00
    0.19713E-01        -0.31457E-02         0.00000E+00
    0.20915E-01        -0.35159E-02         0.00000E+00
    0.21752E-01        -0.38502E-02         0.00000E+00
    0.22206E-01        -0.41302E-02         0.00000E+00
    0.22266E-01        -0.43398E-02         0.00000E+00
    0.21924E-01        -0.44652E-02         0.00000E+00
    0.21171E-01        -0.44947E-02         0.00000E+00
    0.20005E-01        -0.44179E-02         0.00000E+00
    0.18421E-01        -0.42252E-02         0.00000E+00
    0.16416E-01        -0.39068E-02         0.00000E+00
    0.13987E-01        -0.34525E-02         0.00000E+00
    0.11131E-01        -0.28503E-02         0.00000E+00
    0.78473E-02        -0.20861E-02         0.00000E+00
    0.41360E-02        -0.11430E-02         0.00000E+00
    0.00000E+00         0.00000E+00         0.00000E+00
   -0.18076E-02        -0.75965E-03         0.00000E+00
   -0.14395E-04        -0.32416E-03         0.00000E+00
    0.20497E-02        -0.25143E-04         0.00000E+00
    0.42900E-02         0.13547E-03         0.00000E+00
    0.66171E-02         0.16291E-03         0.00000E+00
    0.89486E-02         0.68523E-04         0.00000E+00
    0.11210E-01        -0.13159E-03         0.00000E+00
    0.13337E-01        -0.41786E-03         0.00000E+00
    0.15273E-01        -0.76864E-03         0.00000E+00
    0.16970E-01        -0.11614E-02         0.00000E+00
    0.18390E-01        -0.15736E-02         0.00000E+00
    0.19502E-01        -0.19839E-02         0.00000E+00
    0.20282E-01        -0.23723E-02         0.00000E+00
    0.20710E-01        -0.27206E-02         0.00000E+00
    0.20773E-01        -0.30126E-02         0.00000E+00
    0.20460E-01        -0.32337E-02         0.00000E+00
    0.19763E-01        -0.33711E-02         0.00000E+00
    0.18677E-01        -0.34127E-02         0.00000E+00
    0.17198E-01        -0.33473E-02         0.00000E+00
    0.15322E-01        -0.31637E-02         0.00000E+00
    0.13048E-01        -0.28499E-02         0.00000E+00
    0.10377E-01        -0.23929E-02         0.00000E+00
    0.73080E-02        -0.17776E-02         0.00000E+00
    0.38468E-02        -0.98676E-03         0.00000E+00
    0.00000E+00         0.00000E+00         0.00000E+00
   -0.71049E-03         0.71978E-03         0.00000E+00
    0.79686E-03         0.10999E-02         0.00000E+00
    0.25666E-02         0.13591E-02         0.00000E+00
    0.45135E-02         0.14933E-02         0.00000E+00
    0.65569E-02         0.15054E-02         0.00000E+00
    0.86217E-02         0.14033E-02         0.00000E+00
    0.10639E-01         0.11998E-02         0.00000E+00
    0.12549E-01         0.91090E-03         0.00000E+00
    0.14298E-01         0.55495E-03         0.00000E+00
    0.15839E-01         0.15150E-03         0.00000E+00
    0.17136E-01        -0.27950E-03         0.00000E+00
    0.18156E-01        -0.71846E-03         0.00000E+00
    0.18875E-01        -0.11467E-02         0.00000E+00
    0.19271E-01        -0.15466E-02         0.00000E+00
    0.19331E-01        -0.19020E-02         0.00000E+00
    0.19041E-01        -0.21981E-02         0.00000E+00
    0.18393E-01        -0.24212E-02         0.00000E+00
    0.17382E-01        -0.25582E-02         0.00000E+00
    0.16002E-01        -0.25968E-02         0.00000E+00
    0.14251E-01        -0.25244E-02         0.00000E+00
    0.12130E-01        -0.23281E-02         0.00000E+00
    0.96381E-02        -0.19940E-02         0.00000E+00
    0.67809E-02        -0.15065E-02         0.00000E+00
    0.35646E-02        -0.84843E-03         0.00000E+00
    0.00000E+00         0.00000E+00         0.00000E+00
    0.24253E-03         0.19401E-02         0.00000E+00
    0.15002E-02         0.22674E-02         0.00000E+00
    0.30099E-02         0.24877E-02         0.00000E+00
    0.46952E-02         0.25956E-02         0.00000E+00
    0.64831E-02         0.25916E-02         0.00000E+00
    0.83051E-02         0.24813E-02         0.00000E+00
    0.10098E-01         0.22744E-02         0.00000E+00
    0.11806E-01         0.19841E-02         0.00000E+00
    0.13378E-01         0.16258E-02         0.00000E+00
    0.14771E-01         0.12164E-02         0.00000E+00
    0.15947E-01         0.77367E-03         0.00000E+00
    0.16876E-01         0.31547E-03         0.00000E+00
    0.17532E-01        -0.14080E-03         0.00000E+00
    0.17893E-01        -0.57840E-03         0.00000E+00
    0.17944E-01        -0.98145E-03         0.00000E+00
    0.17673E-01        -0.13350E-02         0.00000E+00
    0.17070E-01        -0.16249E-02         0.00000E+00
    0.16127E-01        -0.18375E-02         0.00000E+00
    0.14842E-01        -0.19597E-02         0.00000E+00
    0.13212E-01        -0.19780E-02         0.00000E+00
    0.11238E-01        -0.18790E-02         0.00000E+00
    0.89217E-02        -0.16480E-02         0.00000E+00
    0.62700E-02        -0.12696E-02         0.00000E+00
    0.32917E-02        -0.72650E-03         0.00000E+00
    0.00000E+00         0.00000E+00         0.00000E+00
    0.10595E-02         0.29358E-02         0.00000E+00
    0.20997E-02         0.32131E-02         0.00000E+00
    0.33805E-02         0.33960E-02         0.00000E+00
    0.48331E-02         0.34779E-02         0.00000E+00
    0.63914E-02         0.34577E-02         0.00000E+00
    0.79933E-02         0.33388E-02         0.00000E+00
    0.95809E-02         0.31286E-02         0.00000E+00
    0.11102E-01         0.28378E-02         0.00000E+00
    0.12509E-01         0.24793E-02         0.00000E+00
    0.13761E-01         0.20679E-02         0.00000E+00
    0.14821E-01         0.16192E-02         0.00000E+00
    0.15661E-01         0.11494E-02         0.00000E+00
    0.16253E-01         0.67465E-03         0.00000E+00
    0.16578E-01         0.21091E-03         0.00000E+00
    0.16618E-01        -0.22648E-03         0.00000E+00
    0.16362E-01        -0.62268E-03         0.00000E+00
    0.15798E-01        -0.96339E-03         0.00000E+00
    0.14920E-01        -0.12347E-02         0.00000E+00
    0.13725E-01        -0.14229E-02         0.00000E+00
    0.12211E-01        -0.15143E-02         0.00000E+00
    0.10378E-01        -0.14948E-02         0.00000E+00
    0.82318E-02        -0.13497E-02         0.00000E+00
    0.57787E-02        -0.10635E-02         0.00000E+00
    0.30297E-02        -0.61955E-03         0.00000E+00
    0.00000E+00         0.00000E+00         0.00000E+00
    0.17485E-02         0.37379E-02         0.00000E+00
    0.26004E-02         0.39680E-02         0.00000E+00
    0.36802E-02         0.41151E-02         0.00000E+00
    0.49263E-02         0.41717E-02         0.00000E+00
    0.62791E-02         0.41354E-02         0.00000E+00
    0.76820E-02         0.40079E-02         0.00000E+00
    0.90821E-02         0.37946E-02         0.00000E+00
    0.10431E-01         0.35041E-02         0.00000E+00
    0.11684E-01         0.31473E-02         0.00000E+00
    0.12804E-01         0.27369E-02         0.00000E+00
    0.13755E-01         0.22867E-02         0.00000E+00
    0.14508E-01         0.18115E-02         0.00000E+00
    0.15039E-01         0.13262E-02         0.00000E+00
    0.15326E-01         0.84584E-03         0.00000E+00
    0.15354E-01         0.38514E-03         0.00000E+00
    0.15109E-01        -0.41362E-04         0.00000E+00
    0.14582E-01        -0.41943E-03         0.00000E+00
    0.13765E-01        -0.73509E-03         0.00000E+00
    0.12655E-01        -0.97444E-03         0.00000E+00
    0.11251E-01        -0.11236E-02         0.00000E+00
    0.95550E-02        -0.11682E-02         0.00000E+00
    0.75716E-02        -0.10939E-02         0.00000E+00
    0.53091E-02        -0.88516E-03         0.00000E+00
    0.27797E-02        -0.52615E-03         0.00000E+00
    0.00000E+00         0.00000E+00         0.00000E+00
    0.23178E-02         0.43739E-02         0.00000E+00
    0.30072E-02         0.45597E-02         0.00000E+00
    0.39113E-02         0.46727E-02         0.00000E+00
    0.49749E-02         0.47050E-02         0.00000E+00
    0.61443E-02         0.46530E-02         0.00000E+00
    0.73680E-02         0.45170E-02         0.00000E+00
    0.85978E-02         0.43009E-02         0.00000E+00
    0.97889E-02         0.40114E-02         0.00000E+00
    0.10901E-01         0.36577E-02         0.00000E+00
    0.11897E-01         0.32507E-02         0.00000E+00
    0.12744E-01         0.28028E-02         0.00000E+00
    0.13416E-01         0.23272E-02         0.00000E+00
    0.13887E-01         0.18377E-02         0.00000E+00
    0.14138E-01         0.13484E-02         0.00000E+00
    0.14152E-01         0.87350E-03         0.00000E+00
    0.13917E-01         0.42695E-03         0.00000E+00
    0.13423E-01         0.22777E-04         0.00000E+00
    0.12664E-01        -0.32515E-03         0.00000E+00
    0.11635E-01        -0.60298E-03         0.00000E+00
    0.10336E-01        -0.79680E-03         0.00000E+00
    0.87706E-02        -0.89252E-03         0.00000E+00
    0.69430E-02        -0.87573E-03         0.00000E+00
    0.48627E-02        -0.73164E-03         0.00000E+00
    0.25426E-02        -0.44497E-03         0.00000E+00
    0.00000E+00         0.00000E+00         0.00000E+00
    0.27756E-02         0.48681E-02         0.00000E+00
    0.33256E-02         0.50126E-02         0.00000E+00
    0.40768E-02         0.50936E-02         0.00000E+00
    0.49796E-02         0.51027E-02         0.00000E+00
    0.59858E-02         0.50355E-02         0.00000E+00
    0.70487E-02         0.48914E-02         0.00000E+00
    0.81245E-02         0.46727E-02         0.00000E+00
    0.91719E-02         0.43848E-02         0.00000E+00
    0.10153E-01         0.40353E-02         0.00000E+00
    0.11035E-01         0.36337E-02         0.00000E+00
    0.11786E-01         0.31909E-02         0.00000E+00
    0.12381E-01         0.27189E-02         0.00000E+00
    0.12795E-01         0.22304E-02         0.00000E+00
    0.13011E-01         0.17385E-02         0.00000E+00
    0.13012E-01         0.12567E-02         0.00000E+00
    0.12786E-01         0.79847E-03         0.00000E+00
    0.12323E-01         0.37751E-03         0.00000E+00
    0.11618E-01         0.73726E-05         0.00000E+00
    0.10666E-01        -0.29831E-03         0.00000E+00
    0.94682E-02        -0.52584E-03         0.00000E+00
    0.80266E-02        -0.66136E-03         0.00000E+00
    0.63474E-02        -0.69088E-03         0.00000E+00
    0.44403E-02        -0.60015E-03         0.00000E+00
    0.23186E-02        -0.37473E-03         0.00000E+00
    0.00000E+00         0.00000E+00         0.00000E+00
    0.31301E-02         0.52426E-02         0.00000E+00
    0.35613E-02         0.53486E-02         0.00000E+00
    0.41799E-02         0.53995E-02         0.00000E+00
    0.49417E-02         0.53867E-02         0.00000E+00
    0.58033E-02         0.53051E-02         0.00000E+00
    0.67225E-02         0.51532E-02         0.00000E+00
    0.76594E-02         0.49323E-02         0.00000E+00
    0.85765E-02         0.46465E-02         0.00000E+00
    0.94391E-02         0.43021E-02         0.00000E+00
    0.10216E-01         0.39074E-02         0.00000E+00
    0.10878E-01         0.34719E-02         0.00000E+00
    0.11401E-01         0.30065E-02         0.00000E+00
    0.11762E-01         0.25230E-02         0.00000E+00
    0.11945E-01         0.20335E-02         0.00000E+00
    0.11933E-01         0.15507E-02         0.00000E+00
    0.11715E-01         0.10877E-02         0.00000E+00
    0.11282E-01         0.65761E-03         0.00000E+00
    0.10628E-01         0.27353E-03         0.00000E+00
    0.97494E-02        -0.51184E-04         0.00000E+00
    0.86468E-02        -0.30319E-03         0.00000E+00
    0.73233E-02        -0.46903E-03         0.00000E+00
    0.57851E-02        -0.53521E-03         0.00000E+00
    0.40421E-02        -0.48814E-03         0.00000E+00
    0.21079E-02        -0.31424E-03         0.00000E+00
    0.00000E+00         0.00000E+00         0.00000E+00
    0.33891E-02         0.55164E-02         0.00000E+00
    0.37199E-02         0.55869E-02         0.00000E+00
    0.42243E-02         0.56099E-02         0.00000E+00
    0.48630E-02         0.55765E-02         0.00000E+00
    0.55969E-02         0.54813E-02         0.00000E+00
    0.63881E-02         0.53221E-02         0.00000E+00
    0.72005E-02         0.50993E-02         0.00000E+00
    0.79998E-02         0.48160E-02         0.00000E+00
    0.87543E-02         0.44774E-02         0.00000E+00
    0.94348E-02         0.40906E-02         0.00000E+00
    0.10015E-01         0.36641E-02         0.00000E+00
    0.10472E-01         0.32077E-02         0.00000E+00
    0.10785E-01         0.27322E-02         0.00000E+00
    0.10937E-01         0.22490E-02         0.00000E+00
    0.10913E-01         0.17701E-02         0.00000E+00
    0.10703E-01         0.13077E-02         0.00000E+00
    0.10298E-01         0.87454E-03         0.00000E+00
    0.96928E-02         0.48326E-03         0.00000E+00
    0.88840E-02         0.14675E-03         0.00000E+00
    0.78721E-02        -0.12209E-03         0.00000E+00
    0.66607E-02        -0.31031E-03         0.00000E+00
    0.52560E-02        -0.40498E-03         0.00000E+00
    0.36680E-02        -0.39324E-03         0.00000E+00
    0.19102E-02        -0.26238E-03         0.00000E+00
    0.00000E+00         0.00000E+00         0.00000E+00
    0.35603E-02         0.57067E-02         0.00000E+00
    0.38070E-02         0.57447E-02         0.00000E+00
    0.42137E-02         0.57417E-02         0.00000E+00
    0.47453E-02         0.56891E-02         0.00000E+00
    0.53670E-02         0.55812E-02         0.00000E+00
    0.60448E-02         0.54152E-02         0.00000E+00
    0.67460E-02         0.51908E-02         0.00000E+00
    0.74394E-02         0.49104E-02         0.00000E+00
    0.80961E-02         0.45780E-02         0.00000E+00
    0.86893E-02         0.41999E-02         0.00000E+00
    0.91949E-02         0.37836E-02         0.00000E+00
    0.95913E-02         0.33380E-02         0.00000E+00
    0.98596E-02         0.28729E-02         0.00000E+00
    0.99836E-02         0.23989E-02         0.00000E+00
    0.99501E-02         0.19274E-02         0.00000E+00
    0.97483E-02         0.14699E-02         0.00000E+00
    0.93705E-02         0.10385E-02         0.00000E+00
    0.88114E-02         0.64540E-03         0.00000E+00
    0.80687E-02         0.30294E-03         0.00000E+00
    0.71430E-02         0.23513E-04         0.00000E+00
    0.60377E-02        -0.18050E-03         0.00000E+00
    0.47593E-02        -0.29681E-03         0.00000E+00
    0.33175E-02        -0.31330E-03         0.00000E+00
    0.17254E-02        -0.21815E-03         0.00000E+00
    0.00000E+00         0.00000E+00         0.00000E+00
    0.36514E-02         0.58287E-02         0.00000E+00
    0.38283E-02         0.58367E-02         0.00000E+00
    0.41519E-02         0.58100E-02         0.00000E+00
    0.45910E-02         0.57397E-02         0.00000E+00
    0.51147E-02         0.56200E-02         0.00000E+00
    0.56923E-02         0.54477E-02         0.00000E+00
    0.62944E-02         0.52221E-02         0.00000E+00
    0.68930E-02         0.49446E-02         0.00000E+00
    0.74617E-02         0.46188E-02         0.00000E+00
    0.79761E-02         0.42499E-02         0.00000E+00
    0.84141E-02         0.38445E-02         0.00000E+00
    0.87557E-02         0.34108E-02         0.00000E+00
    0.89835E-02         0.29577E-02         0.00000E+00
    0.90826E-02         0.24952E-02         0.00000E+00
    0.90405E-02         0.20337E-02         0.00000E+00
    0.88474E-02         0.15844E-02         0.00000E+00
    0.84959E-02         0.11585E-02         0.00000E+00
    0.79814E-02         0.76780E-03         0.00000E+00
    0.73019E-02         0.42404E-03         0.00000E+00
    0.64580E-02         0.13905E-03         0.00000E+00
    0.54532E-02        -0.75391E-04         0.00000E+00
    0.42939E-02        -0.20765E-03         0.00000E+00
    0.29895E-02        -0.24637E-03         0.00000E+00
    0.15529E-02        -0.18060E-03         0.00000E+00
    0.00000E+00         0.00000E+00         0.00000E+00
    0.36693E-02         0.58955E-02         0.00000E+00
    0.37894E-02         0.58764E-02         0.00000E+00
    0.40429E-02         0.58278E-02         0.00000E+00
    0.44026E-02         0.57412E-02         0.00000E+00
    0.48408E-02         0.56107E-02         0.00000E+00
    0.53303E-02         0.54327E-02         0.00000E+00
    0.58448E-02         0.52062E-02         0.00000E+00
    0.63589E-02         0.49319E-02         0.00000E+00
    0.68488E-02         0.46128E-02         0.00000E+00
    0.72924E-02         0.42532E-02         0.00000E+00
    0.76695E-02         0.38593E-02         0.00000E+00
    0.79618E-02         0.34381E-02         0.00000E+00
    0.81533E-02         0.29982E-02         0.00000E+00
    0.82304E-02         0.25485E-02         0.00000E+00
    0.81815E-02         0.20990E-02         0.00000E+00
    0.79976E-02         0.16600E-02         0.00000E+00
    0.76720E-02         0.12425E-02         0.00000E+00
    0.72004E-02         0.85737E-03         0.00000E+00
    0.65811E-02         0.51590E-03         0.00000E+00
    0.58149E-02         0.22932E-03         0.00000E+00
    0.49052E-02         0.87852E-05         0.00000E+00
    0.38583E-02        -0.13475E-03         0.00000E+00
    0.26832E-02        -0.19068E-03         0.00000E+00
    0.13920E-02        -0.14890E-03         0.00000E+00
    0.00000E+00         0.00000E+00         0.00000E+00
    0.36212E-02         0.59189E-02         0.00000E+00
    0.36955E-02         0.58751E-02         0.00000E+00
    0.38906E-02         0.58067E-02         0.00000E+00
    0.41825E-02         0.57052E-02         0.00000E+00
    0.45468E-02         0.55648E-02         0.00000E+00
    0.49592E-02         0.53818E-02         0.00000E+00
    0.53963E-02         0.51545E-02         0.00000E+00
    0.58354E-02         0.48835E-02         0.00000E+00
    0.62551E-02         0.45710E-02         0.00000E+00
    0.66354E-02         0.42209E-02         0.00000E+00
    0.69579E-02         0.38384E-02         0.00000E+00
    0.72062E-02         0.34302E-02         0.00000E+00
    0.73656E-02         0.30039E-02         0.00000E+00
    0.74237E-02         0.25680E-02         0.00000E+00
    0.73699E-02         0.21316E-02         0.00000E+00
    0.71960E-02         0.17047E-02         0.00000E+00
    0.68958E-02         0.12974E-02         0.00000E+00
    0.64656E-02         0.92020E-03         0.00000E+00
    0.59039E-02         0.58371E-03         0.00000E+00
    0.52115E-02         0.29858E-03         0.00000E+00
    0.43919E-02         0.75358E-04         0.00000E+00
    0.34509E-02        -0.75686E-04         0.00000E+00
    0.23972E-02        -0.14467E-03         0.00000E+00
    0.12421E-02        -0.12229E-03         0.00000E+00
    0.00000E+00         0.00000E+00         0.00000E+00
    0.35135E-02         0.59089E-02         0.00000E+00
    0.35519E-02         0.58430E-02         0.00000E+00
    0.36988E-02         0.57566E-02         0.00000E+00
    0.39333E-02         0.56418E-02         0.00000E+00
    0.42339E-02         0.54924E-02         0.00000E+00
    0.45793E-02         0.53048E-02         0.00000E+00
    0.49484E-02         0.50771E-02         0.00000E+00
    0.53212E-02         0.48094E-02         0.00000E+00
    0.56785E-02         0.45034E-02         0.00000E+00
    0.60025E-02         0.41625E-02         0.00000E+00
    0.62765E-02         0.37914E-02         0.00000E+00
    0.64857E-02         0.33960E-02         0.00000E+00
    0.66170E-02         0.29835E-02         0.00000E+00
    0.66590E-02         0.25617E-02         0.00000E+00
    0.66021E-02         0.21391E-02         0.00000E+00
    0.64390E-02         0.17252E-02         0.00000E+00
    0.61640E-02         0.13293E-02         0.00000E+00
    0.57739E-02         0.96160E-03         0.00000E+00
    0.52673E-02         0.63199E-03         0.00000E+00
    0.46452E-02         0.35057E-03         0.00000E+00
    0.39108E-02         0.12727E-03         0.00000E+00
    0.30698E-02        -0.28290E-04         0.00000E+00
    0.21301E-02        -0.10692E-03         0.00000E+00
    0.11024E-02        -0.10007E-03         0.00000E+00
    0.00000E+00         0.00000E+00         0.00000E+00
    0.33527E-02         0.58743E-02         0.00000E+00
    0.33636E-02         0.57887E-02         0.00000E+00
    0.34714E-02         0.56863E-02         0.00000E+00
    0.36577E-02         0.55594E-02         0.00000E+00
    0.39038E-02         0.54020E-02         0.00000E+00
    0.41909E-02         0.52104E-02         0.00000E+00
    0.45006E-02         0.49824E-02         0.00000E+00
    0.48150E-02         0.47179E-02         0.00000E+00
    0.51172E-02         0.44182E-02         0.00000E+00
    0.53912E-02         0.40861E-02         0.00000E+00
    0.56223E-02         0.37260E-02         0.00000E+00
    0.57972E-02         0.33432E-02         0.00000E+00
    0.59040E-02         0.29443E-02         0.00000E+00
    0.59326E-02         0.25365E-02         0.00000E+00
    0.58746E-02         0.21279E-02         0.00000E+00
    0.57230E-02         0.17272E-02         0.00000E+00
    0.54731E-02         0.13435E-02         0.00000E+00
    0.51218E-02         0.98619E-03         0.00000E+00
    0.46682E-02         0.66470E-03         0.00000E+00
    0.41131E-02         0.38855E-03         0.00000E+00
    0.34596E-02         0.16710E-03         0.00000E+00
    0.27129E-02         0.93388E-05         0.00000E+00
    0.18806E-02        -0.76191E-04         0.00000E+00
    0.97222E-03        -0.81634E-04         0.00000E+00
    0.00000E+00         0.00000E+00         0.00000E+00
    0.31445E-02         0.58230E-02         0.00000E+00
    0.31354E-02         0.57199E-02         0.00000E+00
    0.32120E-02         0.56032E-02         0.00000E+00
    0.33582E-02         0.54655E-02         0.00000E+00
    0.35579E-02         0.53010E-02         0.00000E+00
    0.37948E-02         0.51059E-02         0.00000E+00
    0.40526E-02         0.48778E-02         0.00000E+00
    0.43158E-02         0.46164E-02         0.00000E+00
    0.45693E-02         0.43226E-02         0.00000E+00
    0.47992E-02         0.39990E-02         0.00000E+00
    0.49925E-02         0.36493E-02         0.00000E+00
    0.51373E-02         0.32785E-02         0.00000E+00
    0.52232E-02         0.28925E-02         0.00000E+00
    0.52412E-02         0.24983E-02         0.00000E+00
    0.51835E-02         0.21034E-02         0.00000E+00
    0.50444E-02         0.17160E-02         0.00000E+00
    0.48195E-02         0.13445E-02         0.00000E+00
    0.45061E-02         0.99794E-03         0.00000E+00
    0.41033E-02         0.68524E-03         0.00000E+00
    0.36122E-02         0.41536E-03         0.00000E+00
    0.30356E-02         0.19709E-03         0.00000E+00
    0.23783E-02         0.38866E-04         0.00000E+00
    0.16470E-02        -0.51390E-04         0.00000E+00
    0.85058E-03        -0.66454E-04         0.00000E+00
    0.00000E+00         0.00000E+00         0.00000E+00
    0.28948E-02         0.57613E-02         0.00000E+00
    0.28721E-02         0.56429E-02         0.00000E+00
    0.29242E-02         0.55137E-02         0.00000E+00
    0.30375E-02         0.53666E-02         0.00000E+00
    0.31979E-02         0.51958E-02         0.00000E+00
    0.33915E-02         0.49976E-02         0.00000E+00
    0.36042E-02         0.47695E-02         0.00000E+00
    0.38224E-02         0.45110E-02         0.00000E+00
    0.40333E-02         0.42227E-02         0.00000E+00
    0.42244E-02         0.39069E-02         0.00000E+00
    0.43845E-02         0.35669E-02         0.00000E+00
    0.45032E-02         0.32073E-02         0.00000E+00
    0.45713E-02         0.28337E-02         0.00000E+00
    0.45809E-02         0.24523E-02         0.00000E+00
    0.45254E-02         0.20704E-02         0.00000E+00
    0.43995E-02         0.16957E-02         0.00000E+00
    0.41995E-02         0.13362E-02         0.00000E+00
    0.39230E-02         0.10003E-02         0.00000E+00
    0.35694E-02         0.69657E-03         0.00000E+00
    0.31397E-02         0.43345E-03         0.00000E+00
    0.26363E-02         0.21920E-03         0.00000E+00
    0.20637E-02         0.61740E-04         0.00000E+00
    0.14278E-02        -0.31562E-04         0.00000E+00
    0.73667E-03        -0.54052E-04         0.00000E+00
    0.00000E+00         0.00000E+00         0.00000E+00
    0.26089E-02         0.56950E-02         0.00000E+00
    0.25781E-02         0.55633E-02         0.00000E+00
    0.26116E-02         0.54232E-02         0.00000E+00
    0.26980E-02         0.52679E-02         0.00000E+00
    0.28254E-02         0.50917E-02         0.00000E+00
    0.29818E-02         0.48908E-02         0.00000E+00
    0.31553E-02         0.46629E-02         0.00000E+00
    0.33342E-02         0.44070E-02         0.00000E+00
    0.35075E-02         0.41238E-02         0.00000E+00
    0.36645E-02         0.38151E-02         0.00000E+00
    0.37955E-02         0.34839E-02         0.00000E+00
    0.38916E-02         0.31346E-02         0.00000E+00
    0.39448E-02         0.27722E-02         0.00000E+00
    0.39483E-02         0.24027E-02         0.00000E+00
    0.38964E-02         0.20329E-02         0.00000E+00
    0.37845E-02         0.16700E-02         0.00000E+00
    0.36093E-02         0.13218E-02         0.00000E+00
    0.33690E-02         0.99618E-03         0.00000E+00
    0.30631E-02         0.70120E-03         0.00000E+00
    0.26922E-02         0.44490E-03         0.00000E+00
    0.22589E-02         0.23509E-03         0.00000E+00
    0.17668E-02         0.79206E-04         0.00000E+00
    0.12214E-02        -0.15879E-04         0.00000E+00
    0.62964E-03        -0.44019E-04         0.00000E+00
    0.00000E+00         0.00000E+00         0.00000E+00
    0.22919E-02         0.56287E-02         0.00000E+00
    0.22575E-02         0.54857E-02         0.00000E+00
    0.22775E-02         0.53363E-02         0.00000E+00
    0.23422E-02         0.51739E-02         0.00000E+00
    0.24419E-02         0.49931E-02         0.00000E+00
    0.25664E-02         0.47901E-02         0.00000E+00
    0.27058E-02         0.45623E-02         0.00000E+00
    0.28503E-02         0.43089E-02         0.00000E+00
    0.29905E-02         0.40301E-02         0.00000E+00
    0.31176E-02         0.37277E-02         0.00000E+00
    0.32231E-02         0.34044E-02         0.00000E+00
    0.32997E-02         0.30642E-02         0.00000E+00
    0.33405E-02         0.27118E-02         0.00000E+00
    0.33398E-02         0.23531E-02         0.00000E+00
    0.32928E-02         0.19942E-02         0.00000E+00
    0.31955E-02         0.16421E-02         0.00000E+00
    0.30453E-02         0.13042E-02         0.00000E+00
    0.28406E-02         0.98803E-03         0.00000E+00
    0.25808E-02         0.70125E-03         0.00000E+00
    0.22668E-02         0.45150E-03         0.00000E+00
    0.19006E-02         0.24619E-03         0.00000E+00
    0.14856E-02         0.92328E-04         0.00000E+00
    0.10262E-02        -0.36370E-05         0.00000E+00
    0.52860E-03        -0.36002E-04         0.00000E+00
    0.00000E+00         0.00000E+00         0.00000E+00
    0.19489E-02         0.55663E-02         0.00000E+00
    0.19147E-02         0.54139E-02         0.00000E+00
    0.19252E-02         0.52568E-02         0.00000E+00
    0.19727E-02         0.50886E-02         0.00000E+00
    0.20491E-02         0.49039E-02         0.00000E+00
    0.21462E-02         0.46990E-02         0.00000E+00
    0.22558E-02         0.44714E-02         0.00000E+00
    0.23700E-02         0.42201E-02         0.00000E+00
    0.24810E-02         0.39452E-02         0.00000E+00
    0.25815E-02         0.36483E-02         0.00000E+00
    0.26648E-02         0.33318E-02         0.00000E+00
    0.27245E-02         0.29995E-02         0.00000E+00
    0.27551E-02         0.26559E-02         0.00000E+00
    0.27520E-02         0.23064E-02         0.00000E+00
    0.27109E-02         0.19570E-02         0.00000E+00
    0.26289E-02         0.16145E-02         0.00000E+00
    0.25037E-02         0.12857E-02         0.00000E+00
    0.23339E-02         0.97789E-03         0.00000E+00
    0.21192E-02         0.69848E-03         0.00000E+00
    0.18603E-02         0.45473E-03         0.00000E+00
    0.15588E-02         0.25368E-03         0.00000E+00
    0.12177E-02         0.10200E-03         0.00000E+00
    0.84062E-03         0.57596E-05         0.00000E+00
    0.43270E-03        -0.29702E-04         0.00000E+00
    0.00000E+00         0.00000E+00         0.00000E+00
    0.15843E-02         0.55111E-02         0.00000E+00
    0.15534E-02         0.53511E-02         0.00000E+00
    0.15579E-02         0.51878E-02         0.00000E+00
    0.15917E-02         0.50148E-02         0.00000E+00
    0.16485E-02         0.48270E-02         0.00000E+00
    0.17219E-02         0.46206E-02         0.00000E+00
    0.18053E-02         0.43933E-02         0.00000E+00
    0.18926E-02         0.41437E-02         0.00000E+00
    0.19776E-02         0.38720E-02         0.00000E+00
    0.20545E-02         0.35796E-02         0.00000E+00
    0.21180E-02         0.32688E-02         0.00000E+00
    0.21631E-02         0.29431E-02         0.00000E+00
    0.21854E-02         0.26068E-02         0.00000E+00
    0.21812E-02         0.22651E-02         0.00000E+00
    0.21472E-02         0.19238E-02         0.00000E+00
    0.20809E-02         0.15892E-02         0.00000E+00
    0.19807E-02         0.12681E-02         0.00000E+00
    0.18454E-02         0.96744E-03         0.00000E+00
    0.16748E-02         0.69434E-03         0.00000E+00
    0.14694E-02         0.45579E-03         0.00000E+00
    0.12307E-02         0.25853E-03         0.00000E+00
    0.96084E-03         0.10894E-03         0.00000E+00
    0.66297E-03         0.12801E-04         0.00000E+00
    0.34106E-03        -0.24875E-04         0.00000E+00
    0.00000E+00         0.00000E+00         0.00000E+00
    0.12029E-02         0.54656E-02         0.00000E+00
    0.11777E-02         0.52998E-02         0.00000E+00
    0.11787E-02         0.51316E-02         0.00000E+00
    0.12017E-02         0.49550E-02         0.00000E+00
    0.12418E-02         0.47648E-02         0.00000E+00
    0.12943E-02         0.45573E-02         0.00000E+00
    0.13544E-02         0.43301E-02         0.00000E+00
    0.14175E-02         0.40820E-02         0.00000E+00
    0.14790E-02         0.38129E-02         0.00000E+00
    0.15347E-02         0.35240E-02         0.00000E+00
    0.15805E-02         0.32177E-02         0.00000E+00
    0.16127E-02         0.28972E-02         0.00000E+00
    0.16282E-02         0.25666E-02         0.00000E+00
    0.16240E-02         0.22311E-02         0.00000E+00
    0.15978E-02         0.18961E-02         0.00000E+00
    0.15477E-02         0.15679E-02         0.00000E+00
    0.14725E-02         0.12529E-02         0.00000E+00
    0.13714E-02         0.95799E-03         0.00000E+00
    0.12441E-02         0.68997E-03         0.00000E+00
    0.10911E-02         0.45564E-03         0.00000E+00
    0.91347E-03         0.26153E-03         0.00000E+00
    0.71289E-03         0.11376E-03         0.00000E+00
    0.49167E-03         0.17881E-04         0.00000E+00
    0.25282E-03        -0.21321E-04         0.00000E+00
    0.00000E+00         0.00000E+00         0.00000E+00
    0.80884E-03         0.54318E-02         0.00000E+00
    0.79107E-03         0.52618E-02         0.00000E+00
    0.79072E-03         0.50902E-02         0.00000E+00
    0.80485E-03         0.49110E-02         0.00000E+00
    0.83039E-03         0.47191E-02         0.00000E+00
    0.86420E-03         0.45109E-02         0.00000E+00
    0.90313E-03         0.42838E-02         0.00000E+00
    0.94408E-03         0.40367E-02         0.00000E+00
    0.98404E-03         0.37694E-02         0.00000E+00
    0.10202E-02         0.34831E-02         0.00000E+00
    0.10498E-02         0.31800E-02         0.00000E+00
    0.10706E-02         0.28632E-02         0.00000E+00
    0.10803E-02         0.25369E-02         0.00000E+00
    0.10770E-02         0.22058E-02         0.00000E+00
    0.10592E-02         0.18754E-02         0.00000E+00
    0.10257E-02         0.15518E-02         0.00000E+00
    0.97550E-03         0.12413E-02         0.00000E+00
    0.90820E-03         0.95054E-03         0.00000E+00
    0.82367E-03         0.68625E-03         0.00000E+00
    0.72218E-03         0.45503E-03         0.00000E+00
    0.60444E-03         0.26325E-03         0.00000E+00
    0.47157E-03         0.11688E-03         0.00000E+00
    0.32514E-03         0.21298E-04         0.00000E+00
    0.16714E-03        -0.18889E-04         0.00000E+00
    0.00000E+00         0.00000E+00         0.00000E+00
    0.40649E-03         0.54110E-02         0.00000E+00
    0.39732E-03         0.52385E-02         0.00000E+00
    0.39682E-03         0.50649E-02         0.00000E+00
    0.40355E-03         0.48841E-02         0.00000E+00
    0.41596E-03         0.46912E-02         0.00000E+00
    0.43251E-03         0.44825E-02         0.00000E+00
    0.45163E-03         0.42555E-02         0.00000E+00
    0.47176E-03         0.40090E-02         0.00000E+00
    0.49143E-03         0.37428E-02         0.00000E+00
    0.50921E-03         0.34581E-02         0.00000E+00
    0.52378E-03         0.31569E-02         0.00000E+00
    0.53394E-03         0.28424E-02         0.00000E+00
    0.53859E-03         0.25186E-02         0.00000E+00
    0.53681E-03         0.21902E-02         0.00000E+00
    0.52781E-03         0.18626E-02         0.00000E+00
    0.51099E-03         0.15418E-02         0.00000E+00
    0.48590E-03         0.12340E-02         0.00000E+00
    0.45229E-03         0.94579E-03         0.00000E+00
    0.41012E-03         0.68377E-03         0.00000E+00
    0.35953E-03         0.45446E-03         0.00000E+00
    0.30086E-03         0.26412E-03         0.00000E+00
    0.23468E-03         0.11863E-03         0.00000E+00
    0.16178E-03         0.23264E-04         0.00000E+00
    0.83145E-04        -0.17472E-04         0.00000E+00
    0.00000E+00         0.00000E+00         0.00000E+00
    0.00000E+00         0.54039E-02         0.00000E+00
    0.00000E+00         0.52306E-02         0.00000E+00
    0.00000E+00         0.50564E-02         0.00000E+00
    0.00000E+00         0.48751E-02         0.00000E+00
    0.00000E+00         0.46818E-02         0.00000E+00
    0.00000E+00         0.44730E-02         0.00000E+00
    0.00000E+00         0.42460E-02         0.00000E+00
    0.00000E+00         0.39997E-02         0.00000E+00
    0.00000E+00         0.37339E-02         0.00000E+00
    0.00000E+00         0.34497E-02         0.00000E+00
    0.00000E+00         0.31492E-02         0.00000E+00
    0.00000E+00         0.28354E-02         0.00000E+00
    0.00000E+00         0.25124E-02         0.00000E+00
    0.00000E+00         0.21849E-02         0.00000E+00
    0.00000E+00         0.18583E-02         0.00000E+00
    0.00000E+00         0.15384E-02         0.00000E+00
    0.00000E+00         0.12315E-02         0.00000E+00
    0.00000E+00         0.94417E-03         0.00000E+00
    0.00000E+00         0.68291E-03         0.00000E+00
    0.00000E+00         0.45423E-03         0.00000E+00
    0.00000E+00         0.26439E-03         0.00000E+00
    0.00000E+00         0.11920E-03         0.00000E+00
    0.00000E+00         0.23906E-04         0.00000E+00
    0.00000E+00        -0.17007E-04         0.00000E+00
    0.00000E+00         0.00000E+00         0.00000E+00
CELL_DATA       1152
VECTORS vDarcy double 
   -0.17571E-19         0.12402E-19         0.00000E+00
   -0.10091E-19         0.93175E-20         0.00000E+00
   -0.35566E-20         0.88862E-20         0.00000E+00
   -0.23048E-20         0.87237E-20         0.00000E+00
   -0.26304E-20        -0.17356E-20         0.00000E+00
   -0.17618E-20        -0.13277E-20         0.00000E+00
   -0.15961E-20         0.51008E-20         0.00000E+00
   -0.18742E-20        -0.59938E-20         0.00000E+00
   -0.15400E-20        -0.11478E-19         0.00000E+00
   -0.37236E-20         0.68835E-20         0.00000E+00
   -0.20829E-20         0.12053E-19         0.00000E+00
    0.10556E-20         0.47326E-20         0.00000E+00
   -0.12379E-20         0.29651E-20         0.00000E+00
    0.74582E-22        -0.28075E-20         0.00000E+00
    0.15113E-20        -0.33280E-20         0.00000E+00
    0.23168E-21        -0.18236E-20         0.00000E+00
    0.74698E-21         0.28231E-20         0.00000E+00
    0.68040E-21        -0.66642E-22         0.00000E+00
    0.69165E-21        -0.62360E-20         0.00000E+00
    0.45629E-21        -0.30144E-20         0.00000E+00
   -0.80606E-21        -0.77179E-21         0.00000E+00
   -0.61896E-21         0.62163E-22         0.00000E+00
    0.29263E-22         0.21283E-22         0.00000E+00
   -0.83405E-22         0.61207E-22         0.00000E+00
   -0.48736E-19         0.79751E-20         0.00000E+00
   -0.43829E-19         0.13578E-20         0.00000E+00
   -0.31003E-19        -0.25146E-20         0.00000E+00
   -0.92426E-20        -0.28880E-20         0.00000E+00
    0.62653E-20        -0.53063E-20         0.00000E+00
    0.50551E-20         0.25846E-20         0.00000E+00
    0.21250E-20         0.39528E-20         0.00000E+00
   -0.10501E-21        -0.23377E-20         0.00000E+00
   -0.75534E-20        -0.80199E-20         0.00000E+00
   -0.76741E-20         0.57296E-20         0.00000E+00
   -0.29813E-20         0.68738E-20         0.00000E+00
   -0.52532E-21         0.43176E-20         0.00000E+00
    0.23914E-20         0.27569E-20         0.00000E+00
    0.37442E-20        -0.52645E-20         0.00000E+00
    0.15658E-20        -0.12932E-21         0.00000E+00
   -0.19169E-20        -0.25988E-21         0.00000E+00
   -0.12216E-20         0.48754E-22         0.00000E+00
    0.11020E-20         0.45072E-21         0.00000E+00
   -0.79063E-22        -0.55835E-20         0.00000E+00
   -0.11354E-20        -0.23752E-20         0.00000E+00
   -0.10772E-20        -0.20689E-21         0.00000E+00
   -0.93230E-21        -0.83470E-21         0.00000E+00
   -0.67614E-21         0.13761E-22         0.00000E+00
   -0.53693E-21         0.42193E-22         0.00000E+00
   -0.45664E-19        -0.93838E-20         0.00000E+00
   -0.27778E-19        -0.40765E-20         0.00000E+00
   -0.24573E-19        -0.13111E-19         0.00000E+00
   -0.19457E-19        -0.19168E-19         0.00000E+00
   -0.11059E-19        -0.12932E-19         0.00000E+00
   -0.23454E-20         0.27069E-20         0.00000E+00
    0.23020E-20         0.21131E-20         0.00000E+00
   -0.26918E-20         0.67258E-20         0.00000E+00
   -0.80496E-20        -0.42772E-20         0.00000E+00
   -0.47075E-20        -0.12345E-20         0.00000E+00
   -0.14036E-20         0.58413E-20         0.00000E+00
    0.21882E-21         0.12718E-20         0.00000E+00
    0.31279E-20        -0.23124E-22         0.00000E+00
    0.17069E-20        -0.24164E-20         0.00000E+00
   -0.11655E-20         0.20733E-20         0.00000E+00
    0.53957E-22        -0.19919E-21         0.00000E+00
    0.11056E-20        -0.17590E-20         0.00000E+00
    0.70463E-22         0.97008E-21         0.00000E+00
   -0.89958E-21        -0.39517E-20         0.00000E+00
   -0.17209E-20        -0.21293E-20         0.00000E+00
   -0.14659E-20        -0.76604E-21         0.00000E+00
   -0.97955E-21        -0.90673E-21         0.00000E+00
   -0.97534E-21        -0.17458E-21         0.00000E+00
   -0.92436E-21         0.40344E-22         0.00000E+00
   -0.32541E-20        -0.21778E-19         0.00000E+00
   -0.68669E-20        -0.59558E-20         0.00000E+00
   -0.90051E-20        -0.12298E-19         0.00000E+00
   -0.15116E-19        -0.18986E-19         0.00000E+00
   -0.16443E-19        -0.20186E-19         0.00000E+00
   -0.10842E-19        -0.43533E-20         0.00000E+00
   -0.69724E-20         0.65642E-21         0.00000E+00
   -0.43313E-20         0.10535E-19         0.00000E+00
   -0.51604E-20        -0.18996E-20         0.00000E+00
   -0.57410E-20        -0.63735E-20         0.00000E+00
   -0.24291E-20         0.43645E-20         0.00000E+00
   -0.11402E-20        -0.16268E-21         0.00000E+00
   -0.13129E-20        -0.13250E-20         0.00000E+00
   -0.20557E-20         0.10492E-20         0.00000E+00
   -0.16158E-20         0.10403E-20         0.00000E+00
    0.56509E-21        -0.25666E-20         0.00000E+00
    0.88236E-21        -0.76062E-21         0.00000E+00
    0.11665E-20         0.72278E-21         0.00000E+00
    0.55548E-21        -0.21234E-20         0.00000E+00
   -0.13483E-20        -0.12325E-20         0.00000E+00
   -0.21246E-20        -0.11416E-20         0.00000E+00
   -0.22099E-20        -0.93217E-21         0.00000E+00
   -0.17458E-20        -0.61746E-21         0.00000E+00
   -0.13714E-20         0.57751E-22         0.00000E+00
   -0.92134E-21        -0.17603E-19         0.00000E+00
   -0.88438E-21        -0.65554E-20         0.00000E+00
   -0.13817E-20        -0.90633E-20         0.00000E+00
   -0.51871E-20        -0.12304E-19         0.00000E+00
   -0.10492E-19        -0.20236E-19         0.00000E+00
   -0.13113E-19        -0.72837E-20         0.00000E+00
   -0.11286E-19        -0.21100E-20         0.00000E+00
   -0.21759E-20         0.15503E-20         0.00000E+00
    0.19404E-20         0.37980E-20         0.00000E+00
   -0.63194E-20        -0.32307E-20         0.00000E+00
   -0.58472E-20        -0.25626E-20         0.00000E+00
   -0.72349E-21         0.35171E-21         0.00000E+00
   -0.13491E-20        -0.10410E-20         0.00000E+00
    0.54165E-23         0.15348E-21         0.00000E+00
    0.14176E-20         0.84018E-22         0.00000E+00
   -0.12094E-20        -0.11642E-20         0.00000E+00
   -0.19677E-20        -0.17220E-20         0.00000E+00
    0.34040E-21        -0.90806E-21         0.00000E+00
    0.22164E-21         0.23714E-21         0.00000E+00
   -0.19971E-20         0.52948E-21         0.00000E+00
   -0.24515E-20        -0.16729E-20         0.00000E+00
   -0.15448E-20        -0.12222E-20         0.00000E+00
   -0.16622E-20        -0.67413E-21         0.00000E+00
   -0.16670E-20        -0.25530E-21         0.00000E+00
   -0.20115E-20        -0.14670E-19         0.00000E+00
   -0.21518E-20        -0.93848E-20         0.00000E+00
   -0.22761E-21        -0.76608E-20         0.00000E+00
   -0.30053E-20        -0.71237E-20         0.00000E+00
   -0.84094E-20        -0.14707E-19         0.00000E+00
   -0.96752E-20        -0.89257E-20         0.00000E+00
   -0.83525E-20        -0.36181E-20         0.00000E+00
   -0.47054E-20        -0.96988E-20         0.00000E+00
    0.15969E-20         0.46285E-20         0.00000E+00
    0.19712E-20         0.38244E-20         0.00000E+00
   -0.37056E-20        -0.44131E-20         0.00000E+00
   -0.47277E-20        -0.18995E-20         0.00000E+00
   -0.27711E-20        -0.12070E-21         0.00000E+00
   -0.26264E-20        -0.22660E-20         0.00000E+00
   -0.70717E-21        -0.82794E-21         0.00000E+00
   -0.15954E-21         0.18271E-20         0.00000E+00
   -0.22298E-20        -0.18848E-20         0.00000E+00
   -0.34018E-20        -0.18814E-20         0.00000E+00
   -0.20171E-20        -0.55533E-22         0.00000E+00
   -0.28648E-21         0.13103E-20         0.00000E+00
   -0.46302E-21        -0.18228E-20         0.00000E+00
   -0.71982E-21        -0.17221E-20         0.00000E+00
   -0.56808E-21        -0.20847E-21         0.00000E+00
   -0.74122E-21        -0.54307E-21         0.00000E+00
    0.70274E-21        -0.13361E-19         0.00000E+00
    0.25292E-20        -0.12380E-19         0.00000E+00
    0.13840E-20        -0.54449E-20         0.00000E+00
   -0.21671E-20        -0.30109E-20         0.00000E+00
   -0.47177E-20        -0.10865E-19         0.00000E+00
   -0.47405E-20        -0.11479E-19         0.00000E+00
   -0.37362E-20        -0.33917E-20         0.00000E+00
   -0.61996E-20        -0.11109E-19         0.00000E+00
   -0.61825E-20        -0.28068E-21         0.00000E+00
   -0.22213E-20         0.43981E-20         0.00000E+00
   -0.19617E-20         0.43042E-21         0.00000E+00
   -0.50497E-20        -0.26329E-20         0.00000E+00
   -0.40921E-20        -0.23014E-20         0.00000E+00
   -0.24342E-20        -0.18878E-20         0.00000E+00
   -0.34692E-20        -0.20903E-20         0.00000E+00
   -0.24582E-20         0.15309E-20         0.00000E+00
   -0.12540E-20        -0.72246E-21         0.00000E+00
   -0.14531E-20        -0.16725E-20         0.00000E+00
   -0.19862E-20        -0.11160E-20         0.00000E+00
   -0.10443E-20        -0.30176E-21         0.00000E+00
    0.13240E-21        -0.12110E-20         0.00000E+00
   -0.18710E-21        -0.17577E-20         0.00000E+00
   -0.58039E-22        -0.45374E-21         0.00000E+00
    0.37494E-21        -0.55763E-21         0.00000E+00
    0.20600E-21        -0.14270E-19         0.00000E+00
    0.30613E-21        -0.13398E-19         0.00000E+00
    0.22667E-21        -0.32023E-20         0.00000E+00
    0.47345E-21        -0.19492E-20         0.00000E+00
    0.35185E-22        -0.89376E-20         0.00000E+00
   -0.37602E-20        -0.95882E-20         0.00000E+00
   -0.56591E-20        -0.43880E-20         0.00000E+00
   -0.60974E-20        -0.72109E-20         0.00000E+00
   -0.76227E-20        -0.26705E-20         0.00000E+00
   -0.58163E-20         0.10203E-20         0.00000E+00
   -0.30582E-20         0.79051E-21         0.00000E+00
   -0.25771E-20        -0.38605E-21         0.00000E+00
   -0.46357E-20        -0.34474E-20         0.00000E+00
   -0.53427E-20        -0.16928E-20         0.00000E+00
   -0.43933E-20        -0.21998E-20         0.00000E+00
   -0.35175E-20        -0.24655E-21         0.00000E+00
   -0.25742E-20        -0.10926E-20         0.00000E+00
   -0.20612E-20        -0.16163E-20         0.00000E+00
   -0.15357E-20        -0.11646E-20         0.00000E+00
   -0.12371E-20        -0.14935E-20         0.00000E+00
   -0.90568E-21        -0.15273E-20         0.00000E+00
   -0.25774E-21        -0.17698E-20         0.00000E+00
   -0.71353E-22        -0.75709E-21         0.00000E+00
   -0.34491E-21        -0.41370E-21         0.00000E+00
   -0.22362E-20        -0.12240E-19         0.00000E+00
   -0.48388E-20        -0.12925E-19         0.00000E+00
   -0.17999E-20        -0.66340E-20         0.00000E+00
    0.32487E-20        -0.38129E-20         0.00000E+00
    0.18769E-20        -0.52639E-20         0.00000E+00
   -0.23564E-20        -0.52331E-20         0.00000E+00
   -0.25124E-20        -0.66882E-20         0.00000E+00
   -0.13315E-20        -0.56531E-20         0.00000E+00
   -0.20166E-20        -0.20181E-20         0.00000E+00
   -0.26429E-20        -0.81212E-21         0.00000E+00
   -0.34300E-20         0.65192E-21         0.00000E+00
   -0.46024E-20         0.44386E-21         0.00000E+00
   -0.42031E-20        -0.26181E-20         0.00000E+00
   -0.32817E-20        -0.27365E-20         0.00000E+00
   -0.27405E-20        -0.26467E-20         0.00000E+00
   -0.25487E-20        -0.86729E-21         0.00000E+00
   -0.25140E-20        -0.14498E-20         0.00000E+00
   -0.21632E-20        -0.21228E-20         0.00000E+00
   -0.13304E-20        -0.20164E-20         0.00000E+00
   -0.17420E-21        -0.20965E-20         0.00000E+00
    0.53808E-21        -0.19680E-20         0.00000E+00
    0.50804E-22        -0.14897E-20         0.00000E+00
   -0.59399E-21        -0.57873E-21         0.00000E+00
   -0.73508E-21        -0.17741E-21         0.00000E+00
   -0.13128E-21        -0.98721E-20         0.00000E+00
   -0.19227E-20        -0.10899E-19         0.00000E+00
   -0.38961E-20        -0.97261E-20         0.00000E+00
   -0.20522E-20        -0.76132E-20         0.00000E+00
    0.15957E-21        -0.23036E-20         0.00000E+00
   -0.54968E-22        -0.37455E-20         0.00000E+00
   -0.19091E-20        -0.61658E-20         0.00000E+00
   -0.48355E-20        -0.44300E-20         0.00000E+00
   -0.47153E-20        -0.26764E-20         0.00000E+00
   -0.29878E-20        -0.12550E-20         0.00000E+00
   -0.23580E-20         0.12521E-20         0.00000E+00
   -0.12359E-20        -0.10612E-21         0.00000E+00
   -0.24838E-20        -0.12195E-20         0.00000E+00
   -0.34557E-20        -0.40845E-20         0.00000E+00
   -0.18424E-20        -0.34532E-20         0.00000E+00
   -0.37614E-21        -0.17189E-20         0.00000E+00
   -0.20125E-22        -0.98882E-21         0.00000E+00
   -0.63182E-21        -0.23229E-20         0.00000E+00
   -0.58365E-21        -0.26973E-20         0.00000E+00
   -0.20002E-21        -0.29554E-20         0.00000E+00
   -0.62860E-21        -0.13929E-20         0.00000E+00
   -0.15078E-20        -0.69836E-21         0.00000E+00
   -0.14921E-20        -0.74106E-21         0.00000E+00
   -0.10249E-20        -0.34112E-21         0.00000E+00
    0.19458E-21        -0.99354E-20         0.00000E+00
   -0.13170E-20        -0.75324E-20         0.00000E+00
   -0.38438E-20        -0.85922E-20         0.00000E+00
   -0.49062E-20        -0.95285E-20         0.00000E+00
   -0.45756E-20        -0.29309E-20         0.00000E+00
   -0.46743E-20        -0.28049E-20         0.00000E+00
   -0.55770E-20        -0.43495E-20         0.00000E+00
   -0.42882E-20        -0.46088E-20         0.00000E+00
   -0.30981E-20        -0.38079E-20         0.00000E+00
   -0.21378E-20        -0.28114E-20         0.00000E+00
   -0.60411E-21         0.64506E-21         0.00000E+00
   -0.14111E-20         0.18585E-21         0.00000E+00
   -0.15382E-21        -0.15209E-20         0.00000E+00
    0.92532E-21        -0.38904E-20         0.00000E+00
   -0.25098E-20        -0.18255E-20         0.00000E+00
   -0.31182E-20        -0.42044E-20         0.00000E+00
   -0.34072E-21        -0.16369E-20         0.00000E+00
   -0.99912E-22        -0.13040E-20         0.00000E+00
   -0.12124E-20        -0.26519E-20         0.00000E+00
   -0.14569E-20        -0.31399E-20         0.00000E+00
   -0.16339E-20        -0.60276E-21         0.00000E+00
   -0.18193E-20        -0.42382E-21         0.00000E+00
   -0.16983E-20        -0.11524E-20         0.00000E+00
   -0.15266E-20        -0.56868E-21         0.00000E+00
   -0.19460E-20        -0.81840E-20         0.00000E+00
   -0.42952E-20        -0.54232E-20         0.00000E+00
   -0.50632E-20        -0.74065E-20         0.00000E+00
   -0.61652E-20        -0.85497E-20         0.00000E+00
   -0.59985E-20        -0.44071E-20         0.00000E+00
   -0.52713E-20        -0.19571E-20         0.00000E+00
   -0.48958E-20        -0.46701E-20         0.00000E+00
   -0.41957E-20        -0.62771E-20         0.00000E+00
   -0.34622E-20        -0.40632E-20         0.00000E+00
   -0.35792E-20        -0.33994E-20         0.00000E+00
   -0.30675E-20        -0.81239E-21         0.00000E+00
   -0.92409E-21         0.30697E-21         0.00000E+00
   -0.12782E-20        -0.25453E-20         0.00000E+00
   -0.24612E-20        -0.27621E-20         0.00000E+00
   -0.22360E-20         0.25607E-21         0.00000E+00
   -0.22913E-20        -0.56222E-20         0.00000E+00
   -0.17266E-20        -0.35612E-20         0.00000E+00
   -0.11998E-20        -0.14727E-21         0.00000E+00
   -0.14634E-20        -0.24325E-20         0.00000E+00
   -0.19968E-20        -0.25814E-20         0.00000E+00
   -0.20780E-20        -0.90320E-21         0.00000E+00
   -0.13900E-20        -0.62598E-21         0.00000E+00
   -0.14911E-20        -0.97015E-21         0.00000E+00
   -0.19675E-20        -0.44622E-21         0.00000E+00
   -0.15945E-20        -0.46434E-20         0.00000E+00
   -0.29207E-20        -0.52885E-20         0.00000E+00
   -0.33988E-20        -0.62951E-20         0.00000E+00
   -0.44327E-20        -0.75252E-20         0.00000E+00
   -0.46365E-20        -0.53944E-20         0.00000E+00
   -0.39160E-20        -0.24174E-20         0.00000E+00
   -0.37209E-20        -0.47803E-20         0.00000E+00
   -0.39429E-20        -0.66450E-20         0.00000E+00
   -0.43150E-20        -0.40566E-20         0.00000E+00
   -0.52308E-20        -0.23732E-20         0.00000E+00
   -0.51390E-20        -0.24420E-20         0.00000E+00
   -0.30971E-20        -0.22487E-20         0.00000E+00
   -0.16118E-20        -0.11208E-20         0.00000E+00
   -0.24170E-20        -0.21983E-20         0.00000E+00
   -0.15439E-20        -0.14061E-20         0.00000E+00
   -0.56631E-21        -0.48824E-20         0.00000E+00
   -0.23758E-20        -0.30563E-20         0.00000E+00
   -0.25199E-20        -0.10349E-20         0.00000E+00
   -0.11356E-20        -0.26655E-20         0.00000E+00
   -0.14112E-20        -0.15393E-20         0.00000E+00
   -0.21142E-20        -0.11611E-20         0.00000E+00
   -0.19109E-20        -0.12594E-20         0.00000E+00
   -0.16358E-20        -0.51078E-21         0.00000E+00
   -0.18577E-20        -0.20727E-21         0.00000E+00
   -0.44732E-21        -0.26015E-20         0.00000E+00
   -0.10668E-20        -0.53847E-20         0.00000E+00
   -0.15886E-20        -0.51989E-20         0.00000E+00
   -0.16058E-20        -0.75703E-20         0.00000E+00
   -0.17532E-20        -0.49980E-20         0.00000E+00
   -0.20038E-20        -0.32838E-20         0.00000E+00
   -0.10701E-20        -0.50427E-20         0.00000E+00
   -0.21176E-20        -0.51131E-20         0.00000E+00
   -0.45801E-20        -0.27539E-20         0.00000E+00
   -0.42215E-20        -0.31187E-20         0.00000E+00
   -0.24529E-20        -0.35569E-20         0.00000E+00
   -0.19044E-20        -0.37243E-20         0.00000E+00
   -0.16653E-20        -0.13696E-20         0.00000E+00
   -0.84588E-21        -0.19637E-20         0.00000E+00
   -0.10815E-21        -0.32515E-20         0.00000E+00
   -0.58722E-21        -0.35355E-20         0.00000E+00
   -0.15020E-20        -0.16789E-20         0.00000E+00
   -0.17754E-20        -0.19948E-20         0.00000E+00
   -0.21486E-20        -0.27167E-20         0.00000E+00
   -0.17938E-20        -0.15674E-20         0.00000E+00
   -0.14849E-20        -0.73882E-21         0.00000E+00
   -0.19018E-20        -0.14682E-20         0.00000E+00
   -0.19511E-20        -0.52769E-21         0.00000E+00
   -0.19339E-20         0.14301E-22         0.00000E+00
    0.39573E-21        -0.25500E-20         0.00000E+00
    0.21116E-21        -0.46322E-20         0.00000E+00
    0.11127E-21        -0.53297E-20         0.00000E+00
   -0.12639E-20        -0.60472E-20         0.00000E+00
   -0.35543E-20        -0.40833E-20         0.00000E+00
   -0.32448E-20        -0.42575E-20         0.00000E+00
   -0.29705E-20        -0.52770E-20         0.00000E+00
   -0.36642E-20        -0.31376E-20         0.00000E+00
   -0.28605E-20        -0.30707E-20         0.00000E+00
   -0.22998E-20        -0.37212E-20         0.00000E+00
   -0.31061E-20        -0.39165E-20         0.00000E+00
   -0.36963E-20        -0.33230E-20         0.00000E+00
   -0.36755E-20        -0.20308E-20         0.00000E+00
   -0.31143E-20        -0.26831E-20         0.00000E+00
   -0.20069E-20        -0.43773E-20         0.00000E+00
   -0.15037E-20        -0.24338E-20         0.00000E+00
   -0.22345E-20        -0.11350E-20         0.00000E+00
   -0.30190E-20        -0.14808E-20         0.00000E+00
   -0.33292E-20        -0.25472E-20         0.00000E+00
   -0.30406E-20        -0.23804E-20         0.00000E+00
   -0.23840E-20        -0.89137E-21         0.00000E+00
   -0.22823E-20        -0.10005E-20         0.00000E+00
   -0.25255E-20        -0.70286E-21         0.00000E+00
   -0.22753E-20        -0.78044E-22         0.00000E+00
    0.50364E-21        -0.34493E-20         0.00000E+00
    0.69569E-21        -0.37403E-20         0.00000E+00
   -0.71075E-21        -0.47153E-20         0.00000E+00
   -0.23713E-20        -0.36258E-20         0.00000E+00
   -0.28029E-20        -0.37827E-20         0.00000E+00
   -0.30786E-20        -0.45920E-20         0.00000E+00
   -0.35501E-20        -0.47453E-20         0.00000E+00
   -0.31107E-20        -0.34150E-20         0.00000E+00
   -0.31840E-20        -0.35237E-20         0.00000E+00
   -0.38137E-20        -0.31992E-20         0.00000E+00
   -0.42022E-20        -0.32437E-20         0.00000E+00
   -0.50428E-20        -0.25651E-20         0.00000E+00
   -0.46096E-20        -0.32426E-20         0.00000E+00
   -0.38076E-20        -0.28345E-20         0.00000E+00
   -0.46434E-20        -0.44975E-20         0.00000E+00
   -0.50179E-20        -0.24423E-20         0.00000E+00
   -0.42724E-20        -0.11412E-20         0.00000E+00
   -0.32249E-20        -0.17377E-20         0.00000E+00
   -0.28953E-20        -0.23096E-20         0.00000E+00
   -0.31355E-20        -0.26663E-20         0.00000E+00
   -0.25570E-20        -0.18405E-20         0.00000E+00
   -0.19263E-20        -0.78368E-21         0.00000E+00
   -0.19753E-20        -0.62743E-21         0.00000E+00
   -0.21381E-20        -0.24090E-21         0.00000E+00
    0.22607E-21        -0.41791E-20         0.00000E+00
    0.40820E-21        -0.33848E-20         0.00000E+00
   -0.56498E-21        -0.26912E-20         0.00000E+00
   -0.15044E-20        -0.30499E-20         0.00000E+00
   -0.16198E-20        -0.38117E-20         0.00000E+00
   -0.20130E-20        -0.38942E-20         0.00000E+00
   -0.22521E-20        -0.47325E-20         0.00000E+00
   -0.21732E-20        -0.39461E-20         0.00000E+00
   -0.19392E-20        -0.31533E-20         0.00000E+00
   -0.15017E-20        -0.33775E-20         0.00000E+00
   -0.18735E-20        -0.23051E-20         0.00000E+00
   -0.25492E-20        -0.19873E-20         0.00000E+00
   -0.30549E-20        -0.37479E-20         0.00000E+00
   -0.35276E-20        -0.26584E-20         0.00000E+00
   -0.44986E-20        -0.28667E-20         0.00000E+00
   -0.45634E-20        -0.36338E-20         0.00000E+00
   -0.33687E-20        -0.18899E-20         0.00000E+00
   -0.32526E-20        -0.21527E-20         0.00000E+00
   -0.31428E-20        -0.23340E-20         0.00000E+00
   -0.25624E-20        -0.29822E-20         0.00000E+00
   -0.21826E-20        -0.24830E-20         0.00000E+00
   -0.20609E-20        -0.89360E-21         0.00000E+00
   -0.21385E-20        -0.39085E-21         0.00000E+00
   -0.22385E-20        -0.21468E-21         0.00000E+00
    0.11363E-21        -0.45188E-20         0.00000E+00
   -0.80164E-22        -0.30334E-20         0.00000E+00
    0.14329E-21        -0.22929E-20         0.00000E+00
    0.75220E-21        -0.31177E-20         0.00000E+00
    0.36848E-21        -0.32447E-20         0.00000E+00
   -0.14109E-21        -0.35585E-20         0.00000E+00
   -0.66198E-21        -0.43082E-20         0.00000E+00
   -0.72298E-21        -0.43882E-20         0.00000E+00
   -0.52170E-21        -0.31464E-20         0.00000E+00
   -0.10269E-20        -0.33167E-20         0.00000E+00
   -0.86792E-21        -0.21531E-20         0.00000E+00
   -0.46687E-21        -0.18646E-20         0.00000E+00
   -0.11058E-20        -0.27261E-20         0.00000E+00
   -0.20795E-20        -0.22338E-20         0.00000E+00
   -0.29279E-20        -0.14719E-20         0.00000E+00
   -0.36921E-20        -0.41996E-20         0.00000E+00
   -0.32201E-20        -0.29909E-20         0.00000E+00
   -0.17931E-20        -0.25949E-20         0.00000E+00
   -0.93729E-21        -0.28574E-20         0.00000E+00
   -0.12866E-20        -0.26898E-20         0.00000E+00
   -0.21423E-20        -0.22995E-20         0.00000E+00
   -0.25385E-20        -0.80260E-21         0.00000E+00
   -0.26020E-20        -0.34066E-21         0.00000E+00
   -0.26743E-20        -0.92598E-22         0.00000E+00
   -0.16494E-21        -0.44674E-20         0.00000E+00
   -0.26849E-21        -0.27874E-20         0.00000E+00
    0.28616E-23        -0.30337E-20         0.00000E+00
    0.20042E-21        -0.31833E-20         0.00000E+00
    0.12217E-21        -0.27171E-20         0.00000E+00
   -0.21833E-21        -0.32360E-20         0.00000E+00
   -0.42462E-21        -0.39035E-20         0.00000E+00
   -0.92790E-21        -0.42287E-20         0.00000E+00
   -0.12574E-20        -0.31778E-20         0.00000E+00
   -0.13310E-20        -0.27065E-20         0.00000E+00
   -0.12052E-20        -0.30482E-20         0.00000E+00
   -0.38213E-21        -0.21936E-20         0.00000E+00
    0.63263E-21        -0.27728E-20         0.00000E+00
    0.85366E-21        -0.14344E-20         0.00000E+00
    0.63486E-21        -0.12041E-20         0.00000E+00
   -0.46284E-21        -0.26054E-20         0.00000E+00
   -0.13985E-20        -0.41213E-20         0.00000E+00
   -0.47261E-21        -0.38174E-20         0.00000E+00
   -0.16407E-21        -0.27993E-20         0.00000E+00
   -0.10042E-20        -0.15585E-20         0.00000E+00
   -0.23115E-20        -0.12678E-20         0.00000E+00
   -0.28725E-20        -0.87709E-21         0.00000E+00
   -0.28363E-20        -0.23886E-21         0.00000E+00
   -0.29185E-20        -0.39829E-22         0.00000E+00
   -0.26809E-21        -0.40344E-20         0.00000E+00
   -0.41194E-21        -0.29730E-20         0.00000E+00
   -0.30888E-21        -0.32225E-20         0.00000E+00
   -0.21399E-21        -0.32870E-20         0.00000E+00
    0.32541E-22        -0.27817E-20         0.00000E+00
    0.75774E-22        -0.28742E-20         0.00000E+00
   -0.57967E-21        -0.34037E-20         0.00000E+00
   -0.15320E-20        -0.32729E-20         0.00000E+00
   -0.19845E-20        -0.33516E-20         0.00000E+00
   -0.19261E-20        -0.25173E-20         0.00000E+00
   -0.21326E-20        -0.31567E-20         0.00000E+00
   -0.19278E-20        -0.31130E-20         0.00000E+00
   -0.11992E-20        -0.35968E-20         0.00000E+00
   -0.18544E-21        -0.18452E-20         0.00000E+00
    0.98875E-21        -0.17487E-20         0.00000E+00
    0.11905E-20        -0.11649E-20         0.00000E+00
    0.44228E-21        -0.38779E-20         0.00000E+00
   -0.78725E-21        -0.37572E-20         0.00000E+00
   -0.19604E-20        -0.19949E-20         0.00000E+00
   -0.24106E-20        -0.10726E-20         0.00000E+00
   -0.20493E-20        -0.80779E-21         0.00000E+00
   -0.22083E-20        -0.61703E-21         0.00000E+00
   -0.25472E-20        -0.19632E-21         0.00000E+00
   -0.24999E-20        -0.47348E-22         0.00000E+00
   -0.28262E-21        -0.34837E-20         0.00000E+00
   -0.53965E-21        -0.31228E-20         0.00000E+00
   -0.49672E-21        -0.32187E-20         0.00000E+00
   -0.45297E-21        -0.34295E-20         0.00000E+00
   -0.24036E-21        -0.30983E-20         0.00000E+00
   -0.24700E-21        -0.25941E-20         0.00000E+00
   -0.42696E-21        -0.28483E-20         0.00000E+00
   -0.19360E-21        -0.31092E-20         0.00000E+00
   -0.64778E-21        -0.26087E-20         0.00000E+00
   -0.15592E-20        -0.24071E-20         0.00000E+00
   -0.17900E-20        -0.28297E-20         0.00000E+00
   -0.17686E-20        -0.36661E-20         0.00000E+00
   -0.14529E-20        -0.40881E-20         0.00000E+00
   -0.10441E-20        -0.27765E-20         0.00000E+00
   -0.12184E-20        -0.18173E-20         0.00000E+00
   -0.39142E-21        -0.21252E-20         0.00000E+00
    0.16619E-21        -0.27270E-20         0.00000E+00
   -0.88796E-21        -0.26244E-20         0.00000E+00
   -0.15192E-20        -0.13234E-20         0.00000E+00
   -0.16955E-20        -0.11175E-20         0.00000E+00
   -0.17888E-20        -0.10308E-20         0.00000E+00
   -0.19127E-20        -0.11102E-21         0.00000E+00
   -0.20852E-20        -0.19101E-21         0.00000E+00
   -0.22082E-20         0.23185E-22         0.00000E+00
    0.54922E-22        -0.32560E-20         0.00000E+00
    0.34416E-22        -0.30730E-20         0.00000E+00
   -0.16387E-21        -0.31131E-20         0.00000E+00
   -0.61835E-21        -0.31243E-20         0.00000E+00
   -0.81146E-21        -0.34230E-20         0.00000E+00
   -0.55138E-21        -0.25228E-20         0.00000E+00
   -0.48527E-21        -0.28057E-20         0.00000E+00
   -0.87857E-21        -0.29919E-20         0.00000E+00
   -0.91207E-21        -0.22384E-20         0.00000E+00
   -0.41867E-21        -0.23594E-20         0.00000E+00
   -0.60333E-21        -0.24620E-20         0.00000E+00
   -0.63386E-21        -0.40245E-20         0.00000E+00
   -0.27570E-21        -0.44036E-20         0.00000E+00
   -0.94225E-21        -0.22033E-20         0.00000E+00
   -0.11068E-20        -0.20516E-20         0.00000E+00
   -0.12213E-20        -0.26033E-20         0.00000E+00
   -0.19043E-20        -0.21235E-20         0.00000E+00
   -0.18257E-20        -0.22523E-20         0.00000E+00
   -0.13360E-20        -0.15539E-20         0.00000E+00
   -0.10323E-20        -0.10144E-20         0.00000E+00
   -0.14843E-20        -0.58859E-21         0.00000E+00
   -0.18817E-20        -0.31995E-22         0.00000E+00
   -0.19855E-20         0.61764E-23         0.00000E+00
   -0.19943E-20        -0.42136E-22         0.00000E+00
   -0.65004E-22        -0.32459E-20         0.00000E+00
   -0.17899E-21        -0.29486E-20         0.00000E+00
   -0.31283E-21        -0.29054E-20         0.00000E+00
   -0.35924E-21        -0.28311E-20         0.00000E+00
   -0.54723E-21        -0.33351E-20         0.00000E+00
   -0.48750E-21        -0.29306E-20         0.00000E+00
   -0.40902E-21        -0.25426E-20         0.00000E+00
   -0.96378E-21        -0.23069E-20         0.00000E+00
   -0.99843E-21        -0.28551E-20         0.00000E+00
   -0.24621E-21        -0.29882E-20         0.00000E+00
    0.28393E-21        -0.21786E-20         0.00000E+00
    0.18539E-21        -0.41788E-20         0.00000E+00
   -0.51961E-21        -0.39025E-20         0.00000E+00
   -0.11942E-20        -0.13633E-20         0.00000E+00
   -0.16253E-20        -0.22959E-20         0.00000E+00
   -0.18114E-20        -0.20585E-20         0.00000E+00
   -0.17859E-20        -0.20109E-20         0.00000E+00
   -0.18993E-20        -0.23300E-20         0.00000E+00
   -0.17176E-20        -0.21475E-20         0.00000E+00
   -0.14663E-20        -0.97581E-21         0.00000E+00
   -0.16177E-20        -0.23796E-22         0.00000E+00
   -0.17064E-20        -0.11069E-21         0.00000E+00
   -0.16732E-20         0.15533E-21         0.00000E+00
   -0.17615E-20        -0.94200E-22         0.00000E+00
   -0.10735E-21        -0.30736E-20         0.00000E+00
   -0.20401E-21        -0.29103E-20         0.00000E+00
   -0.24545E-21        -0.27684E-20         0.00000E+00
   -0.28978E-21        -0.28774E-20         0.00000E+00
   -0.36446E-21        -0.30262E-20         0.00000E+00
   -0.50026E-21        -0.31634E-20         0.00000E+00
   -0.44443E-21        -0.24440E-20         0.00000E+00
    0.12151E-21        -0.24167E-20         0.00000E+00
    0.32751E-21        -0.29168E-20         0.00000E+00
   -0.90803E-22        -0.32605E-20         0.00000E+00
    0.16417E-21        -0.26915E-20         0.00000E+00
   -0.24645E-21        -0.31568E-20         0.00000E+00
   -0.11868E-20        -0.32791E-20         0.00000E+00
   -0.31759E-21        -0.21813E-20         0.00000E+00
   -0.19652E-21        -0.11678E-20         0.00000E+00
   -0.10616E-20        -0.21352E-20         0.00000E+00
   -0.10784E-20        -0.19430E-20         0.00000E+00
   -0.68603E-21        -0.26768E-20         0.00000E+00
   -0.77916E-21        -0.18892E-20         0.00000E+00
   -0.15585E-20        -0.70605E-21         0.00000E+00
   -0.17308E-20         0.30120E-22         0.00000E+00
   -0.17661E-20        -0.40585E-22         0.00000E+00
   -0.17651E-20         0.50920E-22         0.00000E+00
   -0.16575E-20        -0.91258E-23         0.00000E+00
   -0.41811E-22        -0.29244E-20         0.00000E+00
   -0.14045E-21        -0.28642E-20         0.00000E+00
   -0.11166E-21        -0.28019E-20         0.00000E+00
    0.17168E-22        -0.29284E-20         0.00000E+00
    0.13601E-21        -0.30193E-20         0.00000E+00
    0.81788E-22        -0.29802E-20         0.00000E+00
    0.10911E-21        -0.27104E-20         0.00000E+00
    0.56468E-21        -0.31719E-20         0.00000E+00
    0.63279E-21        -0.24357E-20         0.00000E+00
    0.39524E-22        -0.27300E-20         0.00000E+00
   -0.80308E-21        -0.26343E-20         0.00000E+00
   -0.91841E-21        -0.26880E-20         0.00000E+00
   -0.66084E-21        -0.30652E-20         0.00000E+00
   -0.12796E-20        -0.26457E-20         0.00000E+00
   -0.10861E-20        -0.10180E-20         0.00000E+00
   -0.10129E-20        -0.14932E-20         0.00000E+00
   -0.17747E-20        -0.18064E-20         0.00000E+00
   -0.19620E-20        -0.30186E-20         0.00000E+00
   -0.18209E-20        -0.15955E-20         0.00000E+00
   -0.15370E-20        -0.50429E-21         0.00000E+00
   -0.14011E-20        -0.13524E-21         0.00000E+00
   -0.14740E-20         0.23297E-21         0.00000E+00
   -0.16297E-20        -0.67952E-22         0.00000E+00
   -0.15687E-20        -0.58843E-22         0.00000E+00
   -0.41871E-22        -0.28407E-20         0.00000E+00
   -0.47173E-22        -0.28439E-20         0.00000E+00
   -0.10123E-22        -0.28880E-20         0.00000E+00
    0.44019E-22        -0.30253E-20         0.00000E+00
    0.59626E-22        -0.30569E-20         0.00000E+00
    0.13669E-22        -0.28425E-20         0.00000E+00
    0.47697E-21        -0.33387E-20         0.00000E+00
    0.52755E-21        -0.30496E-20         0.00000E+00
    0.47835E-22        -0.21463E-20         0.00000E+00
   -0.24727E-21        -0.21311E-20         0.00000E+00
   -0.52043E-21        -0.21175E-20         0.00000E+00
   -0.86460E-21        -0.27453E-20         0.00000E+00
   -0.18234E-20        -0.23067E-20         0.00000E+00
   -0.28589E-20        -0.17499E-20         0.00000E+00
   -0.27441E-20        -0.22220E-20         0.00000E+00
   -0.20771E-20        -0.10296E-20         0.00000E+00
   -0.19357E-20        -0.16495E-20         0.00000E+00
   -0.22398E-20        -0.26841E-20         0.00000E+00
   -0.24801E-20        -0.18309E-20         0.00000E+00
   -0.20040E-20        -0.10288E-20         0.00000E+00
   -0.16807E-20        -0.69916E-22         0.00000E+00
   -0.16496E-20         0.20934E-21         0.00000E+00
   -0.14850E-20        -0.53151E-22         0.00000E+00
   -0.14905E-20        -0.12918E-21         0.00000E+00
   -0.23432E-22        -0.27754E-20         0.00000E+00
    0.15726E-21        -0.30846E-20         0.00000E+00
    0.29324E-21        -0.28203E-20         0.00000E+00
    0.16879E-21        -0.30227E-20         0.00000E+00
    0.26645E-22        -0.29330E-20         0.00000E+00
    0.51945E-22        -0.29457E-20         0.00000E+00
   -0.15487E-22        -0.36314E-20         0.00000E+00
    0.20091E-22        -0.28432E-20         0.00000E+00
    0.27418E-21        -0.21271E-20         0.00000E+00
    0.21021E-21        -0.17911E-20         0.00000E+00
    0.10616E-21        -0.20803E-20         0.00000E+00
   -0.66077E-21        -0.16715E-20         0.00000E+00
   -0.15778E-20        -0.15046E-20         0.00000E+00
   -0.13119E-20        -0.17824E-20         0.00000E+00
   -0.86692E-21        -0.27493E-20         0.00000E+00
   -0.63802E-21        -0.13983E-20         0.00000E+00
   -0.51067E-21        -0.15496E-20         0.00000E+00
   -0.11241E-20        -0.18664E-20         0.00000E+00
   -0.19613E-20        -0.15710E-20         0.00000E+00
   -0.25900E-20        -0.11360E-20         0.00000E+00
   -0.26142E-20        -0.26178E-21         0.00000E+00
   -0.20136E-20        -0.23059E-21         0.00000E+00
   -0.16686E-20        -0.12274E-21         0.00000E+00
   -0.16692E-20        -0.53610E-22         0.00000E+00
    0.27624E-22        -0.27796E-20         0.00000E+00
   -0.47305E-22        -0.31862E-20         0.00000E+00
   -0.61180E-22        -0.28408E-20         0.00000E+00
   -0.59581E-22        -0.28793E-20         0.00000E+00
   -0.16246E-21        -0.28314E-20         0.00000E+00
   -0.70828E-22        -0.31643E-20         0.00000E+00
   -0.20644E-21        -0.32097E-20         0.00000E+00
   -0.39230E-21        -0.31145E-20         0.00000E+00
   -0.22637E-21        -0.22758E-20         0.00000E+00
   -0.22522E-21        -0.15796E-20         0.00000E+00
   -0.31315E-21        -0.20998E-20         0.00000E+00
    0.24774E-22        -0.12230E-20         0.00000E+00
    0.27905E-21        -0.12904E-20         0.00000E+00
    0.18233E-22        -0.20018E-20         0.00000E+00
   -0.12902E-21        -0.28277E-20         0.00000E+00
   -0.22594E-21        -0.14518E-20         0.00000E+00
   -0.99781E-21        -0.85149E-21         0.00000E+00
   -0.17705E-20        -0.11784E-20         0.00000E+00
   -0.21809E-20        -0.10114E-20         0.00000E+00
   -0.24897E-20        -0.75806E-21         0.00000E+00
   -0.23214E-20        -0.78375E-21         0.00000E+00
   -0.21138E-20        -0.51684E-21         0.00000E+00
   -0.20337E-20        -0.26164E-21         0.00000E+00
   -0.19021E-20        -0.45792E-22         0.00000E+00
   -0.13765E-21        -0.26696E-20         0.00000E+00
   -0.44697E-21        -0.29120E-20         0.00000E+00
   -0.69982E-21        -0.28483E-20         0.00000E+00
   -0.83519E-21        -0.27380E-20         0.00000E+00
   -0.66048E-21        -0.30444E-20         0.00000E+00
   -0.55295E-21        -0.31504E-20         0.00000E+00
   -0.77618E-21        -0.28648E-20         0.00000E+00
   -0.10677E-20        -0.29820E-20         0.00000E+00
   -0.11152E-20        -0.25268E-20         0.00000E+00
   -0.70657E-21        -0.17384E-20         0.00000E+00
   -0.70305E-21        -0.18566E-20         0.00000E+00
   -0.99566E-21        -0.15114E-20         0.00000E+00
   -0.78608E-21        -0.14658E-20         0.00000E+00
   -0.43570E-21        -0.19159E-20         0.00000E+00
   -0.10263E-20        -0.21757E-20         0.00000E+00
   -0.18228E-20        -0.12105E-20         0.00000E+00
   -0.17451E-20        -0.39861E-21         0.00000E+00
   -0.18101E-20        -0.79366E-21         0.00000E+00
   -0.20494E-20        -0.74657E-21         0.00000E+00
   -0.19216E-20        -0.84182E-21         0.00000E+00
   -0.18553E-20        -0.93455E-21         0.00000E+00
   -0.19352E-20        -0.49371E-21         0.00000E+00
   -0.19392E-20        -0.36090E-21         0.00000E+00
   -0.19133E-20        -0.10408E-21         0.00000E+00
   -0.14891E-21        -0.23830E-20         0.00000E+00
   -0.38472E-21        -0.26534E-20         0.00000E+00
   -0.60426E-21        -0.26345E-20         0.00000E+00
   -0.75102E-21        -0.26697E-20         0.00000E+00
   -0.95122E-21        -0.30873E-20         0.00000E+00
   -0.95439E-21        -0.32119E-20         0.00000E+00
   -0.88501E-21        -0.26494E-20         0.00000E+00
   -0.12020E-20        -0.25888E-20         0.00000E+00
   -0.14293E-20        -0.26452E-20         0.00000E+00
   -0.14466E-20        -0.20114E-20         0.00000E+00
   -0.16002E-20        -0.14335E-20         0.00000E+00
   -0.16232E-20        -0.16190E-20         0.00000E+00
   -0.15061E-20        -0.16849E-20         0.00000E+00
   -0.14866E-20        -0.20666E-20         0.00000E+00
   -0.17710E-20        -0.11500E-20         0.00000E+00
   -0.22350E-20        -0.97562E-21         0.00000E+00
   -0.21554E-20        -0.79070E-21         0.00000E+00
   -0.17944E-20        -0.69761E-21         0.00000E+00
   -0.16929E-20        -0.70487E-21         0.00000E+00
   -0.18101E-20        -0.89411E-21         0.00000E+00
   -0.19341E-20        -0.82452E-21         0.00000E+00
   -0.18875E-20        -0.57040E-21         0.00000E+00
   -0.18199E-20        -0.34779E-21         0.00000E+00
   -0.18284E-20        -0.13465E-21         0.00000E+00
   -0.11961E-21        -0.21145E-20         0.00000E+00
   -0.22551E-21        -0.25802E-20         0.00000E+00
   -0.32827E-21        -0.23854E-20         0.00000E+00
   -0.51667E-21        -0.25836E-20         0.00000E+00
   -0.56535E-21        -0.29244E-20         0.00000E+00
   -0.63438E-21        -0.33026E-20         0.00000E+00
   -0.75718E-21        -0.25054E-20         0.00000E+00
   -0.11411E-20        -0.20320E-20         0.00000E+00
   -0.18492E-20        -0.22666E-20         0.00000E+00
   -0.23102E-20        -0.19118E-20         0.00000E+00
   -0.18295E-20        -0.18602E-20         0.00000E+00
   -0.96935E-21        -0.20294E-20         0.00000E+00
   -0.97329E-21        -0.13876E-20         0.00000E+00
   -0.18673E-20        -0.14893E-20         0.00000E+00
   -0.23959E-20        -0.91443E-21         0.00000E+00
   -0.25230E-20        -0.62010E-21         0.00000E+00
   -0.25120E-20        -0.12368E-20         0.00000E+00
   -0.20607E-20        -0.10638E-20         0.00000E+00
   -0.17449E-20        -0.75597E-21         0.00000E+00
   -0.16859E-20        -0.78483E-21         0.00000E+00
   -0.17536E-20        -0.74210E-21         0.00000E+00
   -0.17984E-20        -0.65463E-21         0.00000E+00
   -0.17291E-20        -0.40047E-21         0.00000E+00
   -0.16418E-20        -0.16083E-21         0.00000E+00
    0.65101E-22        -0.20600E-20         0.00000E+00
   -0.22257E-21        -0.22412E-20         0.00000E+00
   -0.52152E-21        -0.23227E-20         0.00000E+00
   -0.32405E-21        -0.26554E-20         0.00000E+00
   -0.21303E-21        -0.29150E-20         0.00000E+00
   -0.66446E-21        -0.27915E-20         0.00000E+00
   -0.11642E-20        -0.23940E-20         0.00000E+00
   -0.11467E-20        -0.17769E-20         0.00000E+00
   -0.13027E-20        -0.16575E-20         0.00000E+00
   -0.15565E-20        -0.18061E-20         0.00000E+00
   -0.12143E-20        -0.27888E-20         0.00000E+00
   -0.11987E-20        -0.19766E-20         0.00000E+00
   -0.19811E-20        -0.65408E-21         0.00000E+00
   -0.24986E-20        -0.81134E-21         0.00000E+00
   -0.23431E-20        -0.12193E-20         0.00000E+00
   -0.16956E-20        -0.83562E-21         0.00000E+00
   -0.13802E-20        -0.13477E-20         0.00000E+00
   -0.15677E-20        -0.12167E-20         0.00000E+00
   -0.16252E-20        -0.86144E-21         0.00000E+00
   -0.15809E-20        -0.78260E-21         0.00000E+00
   -0.15598E-20        -0.69773E-21         0.00000E+00
   -0.15596E-20        -0.65442E-21         0.00000E+00
   -0.15150E-20        -0.51461E-21         0.00000E+00
   -0.15060E-20        -0.14297E-21         0.00000E+00
    0.52183E-22        -0.21773E-20         0.00000E+00
    0.34178E-22        -0.18182E-20         0.00000E+00
   -0.11119E-21        -0.23014E-20         0.00000E+00
   -0.30000E-21        -0.26854E-20         0.00000E+00
   -0.78267E-21        -0.25134E-20         0.00000E+00
   -0.11874E-20        -0.23371E-20         0.00000E+00
   -0.11688E-20        -0.23672E-20         0.00000E+00
   -0.94341E-21        -0.20465E-20         0.00000E+00
   -0.86931E-21        -0.13060E-20         0.00000E+00
   -0.86501E-21        -0.19081E-20         0.00000E+00
   -0.13247E-20        -0.25694E-20         0.00000E+00
   -0.21329E-20        -0.14034E-20         0.00000E+00
   -0.20445E-20        -0.53315E-21         0.00000E+00
   -0.15062E-20        -0.95315E-21         0.00000E+00
   -0.11862E-20        -0.15529E-20         0.00000E+00
   -0.10960E-20        -0.12396E-20         0.00000E+00
   -0.12144E-20        -0.11408E-20         0.00000E+00
   -0.13344E-20        -0.11161E-20         0.00000E+00
   -0.13561E-20        -0.88295E-21         0.00000E+00
   -0.13569E-20        -0.80451E-21         0.00000E+00
   -0.13169E-20        -0.73691E-21         0.00000E+00
   -0.12538E-20        -0.67856E-21         0.00000E+00
   -0.13391E-20        -0.44977E-21         0.00000E+00
   -0.14418E-20        -0.11408E-21         0.00000E+00
   -0.69982E-22        -0.21595E-20         0.00000E+00
   -0.10140E-21        -0.17866E-20         0.00000E+00
   -0.49273E-22        -0.22398E-20         0.00000E+00
   -0.37791E-21        -0.22296E-20         0.00000E+00
   -0.10227E-20        -0.18418E-20         0.00000E+00
   -0.11605E-20        -0.24661E-20         0.00000E+00
   -0.10497E-20        -0.23676E-20         0.00000E+00
   -0.11477E-20        -0.21734E-20         0.00000E+00
   -0.74881E-21        -0.16521E-20         0.00000E+00
   -0.49254E-21        -0.18226E-20         0.00000E+00
   -0.11790E-20        -0.15088E-20         0.00000E+00
   -0.18225E-20        -0.10123E-20         0.00000E+00
   -0.15984E-20        -0.12368E-20         0.00000E+00
   -0.99707E-21        -0.13891E-20         0.00000E+00
   -0.10042E-20        -0.14299E-20         0.00000E+00
   -0.12539E-20        -0.12032E-20         0.00000E+00
   -0.12381E-20        -0.10746E-20         0.00000E+00
   -0.11762E-20        -0.11241E-20         0.00000E+00
   -0.11263E-20        -0.90331E-21         0.00000E+00
   -0.11306E-20        -0.77894E-21         0.00000E+00
   -0.11821E-20        -0.75102E-21         0.00000E+00
   -0.12293E-20        -0.68037E-21         0.00000E+00
   -0.12415E-20        -0.35043E-21         0.00000E+00
   -0.12719E-20        -0.80325E-22         0.00000E+00
    0.18557E-22        -0.21080E-20         0.00000E+00
   -0.36573E-22        -0.17515E-20         0.00000E+00
   -0.21888E-21        -0.21447E-20         0.00000E+00
   -0.39329E-21        -0.18216E-20         0.00000E+00
   -0.39179E-21        -0.16065E-20         0.00000E+00
   -0.59724E-21        -0.23581E-20         0.00000E+00
   -0.94197E-21        -0.22418E-20         0.00000E+00
   -0.84248E-21        -0.23007E-20         0.00000E+00
   -0.68646E-21        -0.20798E-20         0.00000E+00
   -0.78649E-21        -0.15512E-20         0.00000E+00
   -0.80580E-21        -0.10744E-20         0.00000E+00
   -0.54014E-21        -0.10688E-20         0.00000E+00
   -0.56607E-21        -0.13785E-20         0.00000E+00
   -0.87770E-21        -0.15371E-20         0.00000E+00
   -0.94929E-21        -0.12032E-20         0.00000E+00
   -0.85899E-21        -0.12704E-20         0.00000E+00
   -0.76683E-21        -0.11153E-20         0.00000E+00
   -0.82109E-21        -0.10910E-20         0.00000E+00
   -0.94696E-21        -0.86053E-21         0.00000E+00
   -0.10232E-20        -0.74112E-21         0.00000E+00
   -0.10765E-20        -0.68402E-21         0.00000E+00
   -0.11645E-20        -0.61219E-21         0.00000E+00
   -0.12064E-20        -0.36453E-21         0.00000E+00
   -0.11893E-20        -0.52964E-22         0.00000E+00
   -0.12816E-21        -0.19984E-20         0.00000E+00
   -0.53535E-22        -0.18805E-20         0.00000E+00
    0.94777E-22        -0.19816E-20         0.00000E+00
   -0.15445E-22        -0.17000E-20         0.00000E+00
    0.54778E-22        -0.17998E-20         0.00000E+00
    0.79608E-22        -0.19842E-20         0.00000E+00
   -0.88828E-22        -0.21025E-20         0.00000E+00
   -0.33470E-21        -0.22936E-20         0.00000E+00
   -0.73418E-21        -0.18434E-20         0.00000E+00
   -0.88300E-21        -0.15387E-20         0.00000E+00
   -0.50706E-21        -0.14435E-20         0.00000E+00
   -0.16285E-21        -0.13096E-20         0.00000E+00
   -0.23603E-23        -0.12723E-20         0.00000E+00
    0.18922E-21        -0.15232E-20         0.00000E+00
    0.16468E-21        -0.11209E-20         0.00000E+00
   -0.19990E-21        -0.10784E-20         0.00000E+00
   -0.52757E-21        -0.10718E-20         0.00000E+00
   -0.74687E-21        -0.86091E-21         0.00000E+00
   -0.91989E-21        -0.79169E-21         0.00000E+00
   -0.91387E-21        -0.73977E-21         0.00000E+00
   -0.92186E-21        -0.62402E-21         0.00000E+00
   -0.98481E-21        -0.52126E-21         0.00000E+00
   -0.10694E-20        -0.32896E-21         0.00000E+00
   -0.11191E-20        -0.55978E-22         0.00000E+00
   -0.28679E-22        -0.18416E-20         0.00000E+00
   -0.86030E-22        -0.20547E-20         0.00000E+00
   -0.59444E-22        -0.19824E-20         0.00000E+00
    0.57805E-22        -0.17062E-20         0.00000E+00
    0.79764E-22        -0.18857E-20         0.00000E+00
   -0.36517E-22        -0.18068E-20         0.00000E+00
    0.11468E-23        -0.21491E-20         0.00000E+00
    0.56081E-22        -0.20561E-20         0.00000E+00
   -0.17875E-21        -0.14467E-20         0.00000E+00
   -0.49974E-21        -0.14656E-20         0.00000E+00
   -0.89452E-21        -0.14978E-20         0.00000E+00
   -0.97740E-21        -0.15167E-20         0.00000E+00
   -0.55351E-21        -0.16495E-20         0.00000E+00
   -0.45116E-21        -0.14399E-20         0.00000E+00
   -0.49361E-21        -0.11373E-20         0.00000E+00
   -0.26594E-21        -0.92517E-21         0.00000E+00
   -0.37133E-21        -0.79197E-21         0.00000E+00
   -0.64095E-21        -0.65179E-21         0.00000E+00
   -0.67260E-21        -0.79615E-21         0.00000E+00
   -0.69380E-21        -0.72012E-21         0.00000E+00
   -0.73886E-21        -0.59062E-21         0.00000E+00
   -0.80792E-21        -0.42265E-21         0.00000E+00
   -0.93423E-21        -0.21667E-21         0.00000E+00
   -0.98617E-21        -0.66645E-22         0.00000E+00
    0.73458E-22        -0.18864E-20         0.00000E+00
    0.36586E-22        -0.19157E-20         0.00000E+00
   -0.29663E-21        -0.18148E-20         0.00000E+00
   -0.39310E-21        -0.18947E-20         0.00000E+00
   -0.18469E-21        -0.19277E-20         0.00000E+00
   -0.45532E-22        -0.17877E-20         0.00000E+00
   -0.41417E-22        -0.22099E-20         0.00000E+00
   -0.23509E-21        -0.18565E-20         0.00000E+00
   -0.37976E-21        -0.12667E-20         0.00000E+00
   -0.49262E-21        -0.12117E-20         0.00000E+00
   -0.75756E-21        -0.10920E-20         0.00000E+00
   -0.84516E-21        -0.17520E-20         0.00000E+00
   -0.83637E-21        -0.18469E-20         0.00000E+00
   -0.70114E-21        -0.14801E-20         0.00000E+00
   -0.57553E-21        -0.11802E-20         0.00000E+00
   -0.69841E-21        -0.98700E-21         0.00000E+00
   -0.65981E-21        -0.66336E-21         0.00000E+00
   -0.43979E-21        -0.73080E-21         0.00000E+00
   -0.38564E-21        -0.73964E-21         0.00000E+00
   -0.57309E-21        -0.56798E-21         0.00000E+00
   -0.76461E-21        -0.50618E-21         0.00000E+00
   -0.84288E-21        -0.35975E-21         0.00000E+00
   -0.82159E-21        -0.17455E-21         0.00000E+00
   -0.81746E-21        -0.60949E-22         0.00000E+00
   -0.60482E-22        -0.18994E-20         0.00000E+00
   -0.10486E-21        -0.18214E-20         0.00000E+00
   -0.26641E-21        -0.14143E-20         0.00000E+00
   -0.34375E-21        -0.21214E-20         0.00000E+00
   -0.22292E-21        -0.20302E-20         0.00000E+00
    0.48825E-22        -0.20961E-20         0.00000E+00
    0.21225E-21        -0.20691E-20         0.00000E+00
   -0.22259E-21        -0.13688E-20         0.00000E+00
   -0.61994E-21        -0.12124E-20         0.00000E+00
   -0.56975E-21        -0.12034E-20         0.00000E+00
   -0.28471E-21        -0.11204E-20         0.00000E+00
   -0.17254E-21        -0.17481E-20         0.00000E+00
   -0.39929E-21        -0.16328E-20         0.00000E+00
   -0.58576E-21        -0.16430E-20         0.00000E+00
   -0.53000E-21        -0.11987E-20         0.00000E+00
   -0.50069E-21        -0.87495E-21         0.00000E+00
   -0.55813E-21        -0.75658E-21         0.00000E+00
   -0.53541E-21        -0.88032E-21         0.00000E+00
   -0.58799E-21        -0.59169E-21         0.00000E+00
   -0.65543E-21        -0.46103E-21         0.00000E+00
   -0.70140E-21        -0.37563E-21         0.00000E+00
   -0.76355E-21        -0.34987E-21         0.00000E+00
   -0.75933E-21        -0.20995E-21         0.00000E+00
   -0.73115E-21        -0.57855E-22         0.00000E+00
    0.12405E-21        -0.19629E-20         0.00000E+00
    0.16766E-22        -0.16062E-20         0.00000E+00
   -0.79862E-24        -0.14504E-20         0.00000E+00
    0.94565E-22        -0.21033E-20         0.00000E+00
   -0.52364E-22        -0.20222E-20         0.00000E+00
   -0.14234E-21        -0.22859E-20         0.00000E+00
   -0.35365E-21        -0.18315E-20         0.00000E+00
   -0.35118E-21        -0.11741E-20         0.00000E+00
   -0.87838E-22        -0.12731E-20         0.00000E+00
    0.59885E-22        -0.13406E-20         0.00000E+00
    0.15348E-21        -0.13618E-20         0.00000E+00
    0.69797E-22        -0.15352E-20         0.00000E+00
   -0.94075E-22        -0.14551E-20         0.00000E+00
   -0.19613E-21        -0.15321E-20         0.00000E+00
   -0.25163E-21        -0.13098E-20         0.00000E+00
   -0.23548E-21        -0.80929E-21         0.00000E+00
   -0.32886E-21        -0.67142E-21         0.00000E+00
   -0.47578E-21        -0.84128E-21         0.00000E+00
   -0.52575E-21        -0.52818E-21         0.00000E+00
   -0.52338E-21        -0.45947E-21         0.00000E+00
   -0.48299E-21        -0.37160E-21         0.00000E+00
   -0.47028E-21        -0.30446E-21         0.00000E+00
   -0.55282E-21        -0.17704E-21         0.00000E+00
   -0.61517E-21        -0.56587E-22         0.00000E+00
    0.60129E-22        -0.21471E-20         0.00000E+00
    0.20843E-21        -0.14630E-20         0.00000E+00
    0.20850E-21        -0.15761E-20         0.00000E+00
   -0.26061E-22        -0.18384E-20         0.00000E+00
   -0.25710E-21        -0.19091E-20         0.00000E+00
   -0.38441E-21        -0.21817E-20         0.00000E+00
   -0.42886E-21        -0.16799E-20         0.00000E+00
   -0.30027E-21        -0.14567E-20         0.00000E+00
   -0.59351E-22        -0.14947E-20         0.00000E+00
    0.98265E-22        -0.14243E-20         0.00000E+00
    0.90890E-22        -0.13643E-20         0.00000E+00
   -0.66272E-22        -0.12918E-20         0.00000E+00
   -0.21339E-21        -0.13875E-20         0.00000E+00
   -0.34979E-21        -0.13613E-20         0.00000E+00
   -0.50756E-21        -0.12674E-20         0.00000E+00
   -0.48410E-21        -0.89133E-21         0.00000E+00
   -0.38215E-21        -0.59795E-21         0.00000E+00
   -0.42771E-21        -0.72228E-21         0.00000E+00
   -0.44520E-21        -0.57972E-21         0.00000E+00
   -0.38059E-21        -0.47491E-21         0.00000E+00
   -0.37197E-21        -0.40518E-21         0.00000E+00
   -0.44474E-21        -0.21082E-21         0.00000E+00
   -0.51712E-21        -0.11576E-21         0.00000E+00
   -0.53640E-21        -0.36244E-22         0.00000E+00
   -0.89341E-22        -0.21179E-20         0.00000E+00
   -0.81494E-22        -0.16484E-20         0.00000E+00
    0.19739E-23        -0.14742E-20         0.00000E+00
   -0.73818E-22        -0.16299E-20         0.00000E+00
   -0.17378E-21        -0.17866E-20         0.00000E+00
   -0.26716E-21        -0.20835E-20         0.00000E+00
   -0.26425E-21        -0.17366E-20         0.00000E+00
   -0.22109E-21        -0.15718E-20         0.00000E+00
   -0.17901E-21        -0.16627E-20         0.00000E+00
   -0.11326E-21        -0.14798E-20         0.00000E+00
   -0.21649E-21        -0.11983E-20         0.00000E+00
   -0.34864E-21        -0.11686E-20         0.00000E+00
   -0.42385E-21        -0.12884E-20         0.00000E+00
   -0.58412E-21        -0.11637E-20         0.00000E+00
   -0.75174E-21        -0.11396E-20         0.00000E+00
   -0.76244E-21        -0.10319E-20         0.00000E+00
   -0.60778E-21        -0.71401E-21         0.00000E+00
   -0.49785E-21        -0.67061E-21         0.00000E+00
   -0.48590E-21        -0.62585E-21         0.00000E+00
   -0.44763E-21        -0.53165E-21         0.00000E+00
   -0.47014E-21        -0.33456E-21         0.00000E+00
   -0.51885E-21        -0.15995E-21         0.00000E+00
   -0.50478E-21        -0.10832E-21         0.00000E+00
   -0.49471E-21        -0.34470E-22         0.00000E+00
   -0.20955E-21        -0.18190E-20         0.00000E+00
   -0.35726E-21        -0.18074E-20         0.00000E+00
   -0.15917E-21        -0.15968E-20         0.00000E+00
    0.20613E-22        -0.16114E-20         0.00000E+00
    0.60104E-22        -0.17447E-20         0.00000E+00
   -0.12752E-21        -0.18444E-20         0.00000E+00
   -0.36213E-21        -0.17439E-20         0.00000E+00
   -0.36713E-21        -0.16026E-20         0.00000E+00
   -0.32148E-21        -0.17196E-20         0.00000E+00
   -0.35527E-21        -0.14548E-20         0.00000E+00
   -0.37363E-21        -0.11017E-20         0.00000E+00
   -0.34437E-21        -0.11623E-20         0.00000E+00
   -0.35035E-21        -0.12135E-20         0.00000E+00
   -0.34247E-21        -0.10862E-20         0.00000E+00
   -0.35603E-21        -0.10359E-20         0.00000E+00
   -0.41202E-21        -0.10689E-20         0.00000E+00
   -0.38520E-21        -0.85844E-21         0.00000E+00
   -0.39044E-21        -0.63087E-21         0.00000E+00
   -0.44159E-21        -0.62638E-21         0.00000E+00
   -0.44428E-21        -0.56670E-21         0.00000E+00
   -0.45587E-21        -0.26541E-21         0.00000E+00
   -0.45893E-21        -0.17732E-21         0.00000E+00
   -0.43583E-21        -0.12812E-21         0.00000E+00
   -0.42415E-21        -0.36419E-22         0.00000E+00
   -0.61517E-22        -0.15479E-20         0.00000E+00
   -0.24389E-21        -0.17484E-20         0.00000E+00
   -0.22937E-21        -0.18684E-20         0.00000E+00
   -0.74045E-22        -0.16749E-20         0.00000E+00
   -0.11604E-21        -0.16787E-20         0.00000E+00
   -0.16970E-21        -0.16691E-20         0.00000E+00
   -0.20206E-21        -0.16522E-20         0.00000E+00
   -0.25001E-21        -0.16413E-20         0.00000E+00
   -0.39288E-21        -0.15836E-20         0.00000E+00
   -0.54862E-21        -0.14012E-20         0.00000E+00
   -0.41672E-21        -0.12688E-20         0.00000E+00
   -0.21991E-21        -0.12212E-20         0.00000E+00
   -0.18984E-21        -0.11786E-20         0.00000E+00
   -0.19709E-21        -0.11217E-20         0.00000E+00
   -0.16567E-21        -0.10182E-20         0.00000E+00
   -0.20951E-21        -0.98675E-21         0.00000E+00
   -0.33766E-21        -0.83927E-21         0.00000E+00
   -0.39774E-21        -0.58472E-21         0.00000E+00
   -0.37875E-21        -0.64038E-21         0.00000E+00
   -0.41425E-21        -0.51451E-21         0.00000E+00
   -0.43358E-21        -0.28667E-21         0.00000E+00
   -0.38450E-21        -0.20208E-21         0.00000E+00
   -0.37550E-21        -0.13546E-21         0.00000E+00
   -0.38002E-21        -0.36246E-22         0.00000E+00
   -0.38892E-22        -0.14475E-20         0.00000E+00
   -0.19077E-22        -0.16863E-20         0.00000E+00
   -0.48262E-22        -0.19158E-20         0.00000E+00
   -0.11749E-21        -0.17135E-20         0.00000E+00
   -0.89949E-22        -0.16256E-20         0.00000E+00
   -0.76906E-22        -0.16816E-20         0.00000E+00
   -0.55408E-22        -0.16289E-20         0.00000E+00
   -0.14169E-21        -0.15304E-20         0.00000E+00
   -0.27016E-21        -0.14232E-20         0.00000E+00
   -0.27420E-21        -0.14018E-20         0.00000E+00
   -0.27464E-21        -0.13996E-20         0.00000E+00
   -0.23492E-21        -0.13270E-20         0.00000E+00
   -0.15554E-21        -0.11824E-20         0.00000E+00
   -0.17063E-21        -0.10957E-20         0.00000E+00
   -0.20304E-21        -0.10433E-20         0.00000E+00
   -0.24648E-21        -0.87438E-21         0.00000E+00
   -0.32263E-21        -0.74733E-21         0.00000E+00
   -0.30919E-21        -0.63003E-21         0.00000E+00
   -0.29725E-21        -0.62601E-21         0.00000E+00
   -0.36062E-21        -0.43000E-21         0.00000E+00
   -0.37641E-21        -0.33607E-21         0.00000E+00
   -0.34071E-21        -0.23748E-21         0.00000E+00
   -0.32345E-21        -0.12631E-21         0.00000E+00
   -0.31978E-21        -0.44544E-22         0.00000E+00
    0.70881E-22        -0.14795E-20         0.00000E+00
    0.93282E-22        -0.16965E-20         0.00000E+00
   -0.42036E-22        -0.17411E-20         0.00000E+00
   -0.15972E-21        -0.17013E-20         0.00000E+00
   -0.10314E-21        -0.17219E-20         0.00000E+00
   -0.87598E-22        -0.16139E-20         0.00000E+00
   -0.10244E-21        -0.17033E-20         0.00000E+00
   -0.46417E-22        -0.14258E-20         0.00000E+00
   -0.12302E-21        -0.13228E-20         0.00000E+00
   -0.22397E-21        -0.13973E-20         0.00000E+00
   -0.22687E-21        -0.14008E-20         0.00000E+00
   -0.18195E-21        -0.14104E-20         0.00000E+00
   -0.15860E-21        -0.12017E-20         0.00000E+00
   -0.18473E-21        -0.10351E-20         0.00000E+00
   -0.22090E-21        -0.10353E-20         0.00000E+00
   -0.20311E-21        -0.85678E-21         0.00000E+00
   -0.16681E-21        -0.72507E-21         0.00000E+00
   -0.16809E-21        -0.66445E-21         0.00000E+00
   -0.20683E-21        -0.56477E-21         0.00000E+00
   -0.21279E-21        -0.42190E-21         0.00000E+00
   -0.19826E-21        -0.34291E-21         0.00000E+00
   -0.22385E-21        -0.24076E-21         0.00000E+00
   -0.23244E-21        -0.13170E-21         0.00000E+00
   -0.22237E-21        -0.52897E-22         0.00000E+00
    0.90478E-22        -0.16409E-20         0.00000E+00
    0.12000E-21        -0.15871E-20         0.00000E+00
    0.61993E-22        -0.16572E-20         0.00000E+00
    0.20351E-22        -0.16259E-20         0.00000E+00
   -0.42851E-22        -0.17907E-20         0.00000E+00
    0.16329E-22        -0.16198E-20         0.00000E+00
    0.83013E-23        -0.16745E-20         0.00000E+00
   -0.62650E-22        -0.14396E-20         0.00000E+00
   -0.13161E-22        -0.12818E-20         0.00000E+00
    0.44576E-22        -0.13951E-20         0.00000E+00
    0.46288E-22        -0.14018E-20         0.00000E+00
   -0.73588E-22        -0.13344E-20         0.00000E+00
   -0.16632E-21        -0.12083E-20         0.00000E+00
   -0.14868E-21        -0.10200E-20         0.00000E+00
   -0.12987E-21        -0.10330E-20         0.00000E+00
   -0.12087E-21        -0.88585E-21         0.00000E+00
   -0.12588E-21        -0.72730E-21         0.00000E+00
   -0.12280E-21        -0.66402E-21         0.00000E+00
   -0.10958E-21        -0.53968E-21         0.00000E+00
   -0.11013E-21        -0.44049E-21         0.00000E+00
   -0.12047E-21        -0.32852E-21         0.00000E+00
   -0.12138E-21        -0.22864E-21         0.00000E+00
   -0.11899E-21        -0.13761E-21         0.00000E+00
   -0.12465E-21        -0.51389E-22         0.00000E+00
    0.70207E-22        -0.18016E-20         0.00000E+00
    0.15181E-21        -0.15375E-20         0.00000E+00
    0.11146E-21        -0.16084E-20         0.00000E+00
    0.54853E-22        -0.15764E-20         0.00000E+00
    0.41205E-22        -0.17633E-20         0.00000E+00
    0.47789E-22        -0.17130E-20         0.00000E+00
    0.15229E-22        -0.15407E-20         0.00000E+00
   -0.80506E-22        -0.14067E-20         0.00000E+00
   -0.69250E-22        -0.13755E-20         0.00000E+00
   -0.55170E-23        -0.14229E-20         0.00000E+00
    0.38494E-22        -0.14198E-20         0.00000E+00
    0.25503E-22        -0.11836E-20         0.00000E+00
   -0.40400E-22        -0.12005E-20         0.00000E+00
   -0.45574E-22        -0.10403E-20         0.00000E+00
   -0.31148E-22        -0.10459E-20         0.00000E+00
   -0.60823E-22        -0.85226E-21         0.00000E+00
   -0.67036E-22        -0.74965E-21         0.00000E+00
   -0.27564E-22        -0.68422E-21         0.00000E+00
   -0.28130E-22        -0.53214E-21         0.00000E+00
   -0.43259E-22        -0.43234E-21         0.00000E+00
   -0.47904E-22        -0.32169E-21         0.00000E+00
   -0.45828E-22        -0.23664E-21         0.00000E+00
   -0.37036E-22        -0.14080E-21         0.00000E+00
   -0.35918E-22        -0.43647E-22         0.00000E+00
POINT_DATA       1225
VECTORS vDarcyNodal double 
   -0.20286E-19         0.15117E-19         0.00000E+00
   -0.14855E-19         0.14599E-19         0.00000E+00
   -0.53282E-20         0.12369E-19         0.00000E+00
   -0.17851E-20         0.94309E-20         0.00000E+00
   -0.28245E-20         0.33313E-20         0.00000E+00
   -0.24363E-20        -0.10974E-20         0.00000E+00
   -0.10874E-20         0.19694E-20         0.00000E+00
   -0.21048E-20        -0.58552E-21         0.00000E+00
   -0.16435E-20        -0.85688E-20         0.00000E+00
   -0.14364E-20        -0.33891E-20         0.00000E+00
   -0.60108E-20         0.10289E-19         0.00000E+00
    0.18449E-20         0.99623E-20         0.00000E+00
    0.26629E-21         0.27021E-20         0.00000E+00
   -0.27420E-20         0.73501E-21         0.00000E+00
    0.28912E-20        -0.23494E-20         0.00000E+00
    0.13138E-21        -0.32156E-20         0.00000E+00
    0.33198E-21         0.75744E-21         0.00000E+00
    0.11620E-20         0.13450E-20         0.00000E+00
    0.19882E-21        -0.31457E-20         0.00000E+00
    0.11845E-20        -0.47429E-20         0.00000E+00
   -0.27191E-21        -0.25243E-20         0.00000E+00
   -0.13402E-20        -0.26126E-21         0.00000E+00
    0.10230E-21         0.36583E-21         0.00000E+00
   -0.43774E-22        -0.15089E-22         0.00000E+00
   -0.12304E-21         0.21577E-22         0.00000E+00
   -0.35367E-19         0.96857E-20         0.00000E+00
   -0.30940E-19         0.71200E-20         0.00000E+00
   -0.22980E-19         0.58345E-20         0.00000E+00
   -0.11580E-19         0.81791E-20         0.00000E+00
    0.32151E-22         0.36568E-20         0.00000E+00
    0.36028E-20        -0.19660E-20         0.00000E+00
   -0.30953E-21         0.18036E-20         0.00000E+00
    0.83841E-21        -0.30746E-21         0.00000E+00
   -0.28176E-20        -0.89030E-20         0.00000E+00
   -0.62758E-20        -0.12055E-20         0.00000E+00
   -0.51219E-20         0.86481E-20         0.00000E+00
    0.57651E-22         0.68237E-20         0.00000E+00
    0.47264E-21         0.49956E-20         0.00000E+00
    0.68085E-21        -0.57744E-21         0.00000E+00
    0.31379E-20        -0.37861E-20         0.00000E+00
   -0.60787E-22        -0.19360E-20         0.00000E+00
   -0.16245E-20         0.24213E-21         0.00000E+00
    0.11499E-20         0.14115E-20         0.00000E+00
    0.63254E-21        -0.31570E-20         0.00000E+00
   -0.19953E-22        -0.45075E-20         0.00000E+00
   -0.65917E-21        -0.12619E-20         0.00000E+00
   -0.12241E-20        -0.44836E-21         0.00000E+00
   -0.32720E-21        -0.28239E-21         0.00000E+00
   -0.31968E-21         0.97579E-22         0.00000E+00
   -0.30066E-21         0.10084E-21         0.00000E+00
   -0.55880E-19         0.62645E-20         0.00000E+00
   -0.38521E-19         0.22130E-20         0.00000E+00
   -0.33086E-19        -0.69912E-20         0.00000E+00
   -0.22490E-19        -0.13582E-19         0.00000E+00
   -0.62096E-20        -0.11851E-19         0.00000E+00
    0.14160E-20        -0.75574E-21         0.00000E+00
    0.12936E-20         0.47337E-20         0.00000E+00
    0.31334E-20         0.19225E-20         0.00000E+00
   -0.59302E-20        -0.14546E-20         0.00000E+00
   -0.96728E-20        -0.10848E-20         0.00000E+00
   -0.27087E-20         0.39554E-20         0.00000E+00
   -0.16761E-20         0.43677E-20         0.00000E+00
    0.13696E-20         0.20789E-20         0.00000E+00
    0.41496E-20        -0.19302E-20         0.00000E+00
    0.13015E-20        -0.16078E-20         0.00000E+00
   -0.90115E-21         0.15468E-20         0.00000E+00
   -0.96184E-21        -0.45326E-21         0.00000E+00
    0.84593E-21        -0.91206E-21         0.00000E+00
    0.32658E-21        -0.19758E-20         0.00000E+00
   -0.13052E-20        -0.34512E-20         0.00000E+00
   -0.15511E-20        -0.13202E-20         0.00000E+00
   -0.99194E-21        -0.59323E-21         0.00000E+00
   -0.91991E-21        -0.53855E-21         0.00000E+00
   -0.73157E-21        -0.41625E-22         0.00000E+00
   -0.72972E-21        -0.16451E-22         0.00000E+00
   -0.30656E-19        -0.25032E-19         0.00000E+00
   -0.18262E-19        -0.15673E-19         0.00000E+00
   -0.16383E-19        -0.10196E-19         0.00000E+00
   -0.17195E-19        -0.18698E-19         0.00000E+00
   -0.17378E-19        -0.20249E-19         0.00000E+00
   -0.10124E-19        -0.94692E-20         0.00000E+00
   -0.30635E-20         0.86291E-22         0.00000E+00
   -0.16069E-20         0.69163E-20         0.00000E+00
   -0.54162E-20         0.39032E-20         0.00000E+00
   -0.77938E-20        -0.44269E-20         0.00000E+00
   -0.26547E-20         0.65144E-21         0.00000E+00
   -0.11779E-20         0.27454E-20         0.00000E+00
    0.25660E-21        -0.83019E-21         0.00000E+00
    0.15584E-20        -0.50926E-21         0.00000E+00
   -0.19072E-20         0.12647E-20         0.00000E+00
   -0.87416E-21         0.32732E-21         0.00000E+00
    0.14932E-20        -0.15050E-20         0.00000E+00
    0.49481E-21         0.12312E-21         0.00000E+00
    0.74211E-21        -0.10058E-20         0.00000E+00
   -0.10862E-20        -0.26299E-20         0.00000E+00
   -0.19830E-20        -0.15752E-20         0.00000E+00
   -0.16075E-20        -0.10795E-20         0.00000E+00
   -0.15820E-20        -0.54276E-21         0.00000E+00
   -0.11392E-20        -0.92611E-22         0.00000E+00
   -0.11566E-20         0.97139E-22         0.00000E+00
    0.00000E+00        -0.18524E-19         0.00000E+00
   -0.41754E-20        -0.12060E-19         0.00000E+00
   -0.35758E-20        -0.80580E-20         0.00000E+00
   -0.68109E-20        -0.12587E-19         0.00000E+00
   -0.13492E-19        -0.18923E-19         0.00000E+00
   -0.13443E-19        -0.15070E-19         0.00000E+00
   -0.10512E-19        -0.37832E-20         0.00000E+00
   -0.77460E-20         0.42752E-20         0.00000E+00
    0.12388E-20         0.47323E-20         0.00000E+00
   -0.44588E-20        -0.38463E-20         0.00000E+00
   -0.76017E-20        -0.26605E-20         0.00000E+00
   -0.67463E-21         0.14564E-20         0.00000E+00
   -0.11890E-20        -0.65744E-21         0.00000E+00
   -0.14730E-20         0.23353E-21         0.00000E+00
   -0.57727E-21         0.82482E-21         0.00000E+00
    0.37900E-21        -0.18536E-20         0.00000E+00
   -0.10234E-20        -0.18222E-20         0.00000E+00
   -0.61995E-22        -0.16097E-21         0.00000E+00
    0.15688E-20        -0.39484E-21         0.00000E+00
   -0.79172E-21        -0.72606E-21         0.00000E+00
   -0.25537E-20        -0.79890E-21         0.00000E+00
   -0.20224E-20        -0.99421E-21         0.00000E+00
   -0.17324E-20        -0.10069E-20         0.00000E+00
   -0.16757E-20        -0.46709E-21         0.00000E+00
   -0.13626E-20         0.18364E-22         0.00000E+00
    0.00000E+00        -0.16681E-19         0.00000E+00
   -0.29328E-20        -0.12097E-19         0.00000E+00
   -0.10340E-21        -0.75607E-20         0.00000E+00
   -0.15059E-20        -0.87811E-20         0.00000E+00
   -0.66865E-20        -0.13617E-19         0.00000E+00
   -0.12215E-19        -0.12449E-19         0.00000E+00
   -0.10573E-19        -0.56106E-20         0.00000E+00
   -0.90652E-20        -0.48349E-20         0.00000E+00
    0.21839E-20         0.61602E-21         0.00000E+00
    0.13534E-20         0.44136E-20         0.00000E+00
   -0.57016E-20        -0.31327E-20         0.00000E+00
   -0.38512E-20        -0.36673E-20         0.00000E+00
   -0.16000E-20        -0.31812E-22         0.00000E+00
   -0.25202E-20        -0.11210E-20         0.00000E+00
   -0.10078E-21        -0.58733E-21         0.00000E+00
    0.81118E-21         0.77342E-21         0.00000E+00
   -0.21802E-20        -0.10640E-20         0.00000E+00
   -0.20174E-20        -0.24691E-20         0.00000E+00
   -0.10441E-20        -0.27609E-21         0.00000E+00
   -0.75139E-21         0.14927E-20         0.00000E+00
   -0.15322E-20        -0.34453E-21         0.00000E+00
   -0.13823E-20        -0.19009E-20         0.00000E+00
   -0.88233E-21        -0.88943E-21         0.00000E+00
   -0.13480E-20        -0.46234E-21         0.00000E+00
   -0.10602E-20        -0.52897E-21         0.00000E+00
   -0.22486E-34        -0.12658E-19         0.00000E+00
   -0.13087E-20        -0.11957E-19         0.00000E+00
    0.16862E-20        -0.94849E-20         0.00000E+00
   -0.52979E-21        -0.60034E-20         0.00000E+00
   -0.46426E-20        -0.82132E-20         0.00000E+00
   -0.84845E-20        -0.11183E-19         0.00000E+00
   -0.59312E-20        -0.69332E-20         0.00000E+00
   -0.61576E-20        -0.84820E-20         0.00000E+00
   -0.47474E-20        -0.56863E-20         0.00000E+00
    0.16179E-21         0.40393E-20         0.00000E+00
   -0.41192E-21         0.25440E-20         0.00000E+00
   -0.52554E-20        -0.26452E-20         0.00000E+00
   -0.45220E-20        -0.19884E-20         0.00000E+00
   -0.23413E-20        -0.12657E-20         0.00000E+00
   -0.27194E-20        -0.25066E-20         0.00000E+00
   -0.14570E-20         0.22579E-21         0.00000E+00
   -0.11607E-20         0.10063E-20         0.00000E+00
   -0.23230E-20        -0.12971E-20         0.00000E+00
   -0.25318E-20        -0.16608E-20         0.00000E+00
   -0.14714E-20        -0.23794E-21         0.00000E+00
    0.14060E-21        -0.16799E-21         0.00000E+00
   -0.47122E-21        -0.16441E-20         0.00000E+00
   -0.43570E-21        -0.10412E-20         0.00000E+00
   -0.19043E-21        -0.28920E-21         0.00000E+00
   -0.17586E-21        -0.55717E-21         0.00000E+00
    0.00000E+00        -0.14064E-19         0.00000E+00
    0.90875E-21        -0.13784E-19         0.00000E+00
    0.19266E-20        -0.83396E-20         0.00000E+00
   -0.31599E-21        -0.24523E-20         0.00000E+00
   -0.13777E-20        -0.56625E-20         0.00000E+00
   -0.33049E-20        -0.11161E-19         0.00000E+00
   -0.51958E-20        -0.79375E-20         0.00000E+00
   -0.41995E-20        -0.60186E-20         0.00000E+00
   -0.80975E-20        -0.57033E-20         0.00000E+00
   -0.57077E-20         0.78079E-22         0.00000E+00
   -0.23299E-20         0.22844E-20         0.00000E+00
   -0.26900E-20         0.44277E-21         0.00000E+00
   -0.49369E-20        -0.29460E-20         0.00000E+00
   -0.37909E-20        -0.29236E-20         0.00000E+00
   -0.39860E-20        -0.14716E-20         0.00000E+00
   -0.38765E-20        -0.78525E-21         0.00000E+00
   -0.20991E-20        -0.19790E-21         0.00000E+00
   -0.17290E-20        -0.10980E-20         0.00000E+00
   -0.17852E-20        -0.11277E-20         0.00000E+00
   -0.17366E-20        -0.11798E-20         0.00000E+00
   -0.54482E-21        -0.13447E-20         0.00000E+00
   -0.22846E-21        -0.13246E-20         0.00000E+00
   -0.21637E-21        -0.11702E-20         0.00000E+00
    0.86978E-22        -0.72217E-21         0.00000E+00
   -0.56957E-22        -0.55810E-21         0.00000E+00
    0.51428E-34        -0.14476E-19         0.00000E+00
   -0.20302E-20        -0.13884E-19         0.00000E+00
   -0.25025E-20        -0.82602E-20         0.00000E+00
    0.92922E-21        -0.26991E-20         0.00000E+00
    0.27929E-20        -0.52243E-20         0.00000E+00
   -0.88077E-21        -0.73652E-20         0.00000E+00
   -0.52358E-20        -0.60386E-20         0.00000E+00
   -0.29356E-20        -0.55803E-20         0.00000E+00
   -0.44934E-20        -0.41781E-20         0.00000E+00
   -0.51458E-20        -0.17283E-20         0.00000E+00
   -0.33134E-20        -0.47365E-21         0.00000E+00
   -0.31748E-20        -0.38308E-22         0.00000E+00
   -0.40047E-20        -0.88745E-21         0.00000E+00
   -0.48340E-20        -0.22166E-20         0.00000E+00
   -0.37904E-20        -0.24210E-20         0.00000E+00
   -0.33434E-20        -0.16611E-20         0.00000E+00
   -0.27227E-20        -0.11412E-20         0.00000E+00
   -0.23655E-20        -0.16109E-20         0.00000E+00
   -0.18589E-20        -0.16532E-20         0.00000E+00
   -0.10071E-20        -0.14784E-20         0.00000E+00
   -0.40416E-21        -0.16761E-20         0.00000E+00
    0.36558E-22        -0.19725E-20         0.00000E+00
   -0.24349E-21        -0.13566E-20         0.00000E+00
   -0.42185E-21        -0.44861E-21         0.00000E+00
   -0.65814E-21        -0.26930E-21         0.00000E+00
   -0.29400E-49        -0.10003E-19         0.00000E+00
   -0.23675E-20        -0.11281E-19         0.00000E+00
   -0.43940E-20        -0.11299E-19         0.00000E+00
   -0.13020E-20        -0.77477E-20         0.00000E+00
    0.24984E-20        -0.38525E-20         0.00000E+00
   -0.46188E-21        -0.31318E-20         0.00000E+00
   -0.19495E-20        -0.58827E-20         0.00000E+00
   -0.24720E-20        -0.67611E-20         0.00000E+00
   -0.36951E-20        -0.34931E-20         0.00000E+00
   -0.30368E-20        -0.11019E-20         0.00000E+00
   -0.25939E-20         0.31345E-21         0.00000E+00
   -0.31941E-20         0.11341E-20         0.00000E+00
   -0.26442E-20        -0.12868E-20         0.00000E+00
   -0.40427E-20        -0.31380E-20         0.00000E+00
   -0.26947E-20        -0.29622E-20         0.00000E+00
   -0.18882E-20        -0.18529E-20         0.00000E+00
   -0.10366E-20        -0.11759E-20         0.00000E+00
   -0.14976E-20        -0.19617E-20         0.00000E+00
   -0.12975E-20        -0.24860E-20         0.00000E+00
   -0.61655E-21        -0.26346E-20         0.00000E+00
    0.24233E-21        -0.23884E-20         0.00000E+00
   -0.33285E-21        -0.14852E-20         0.00000E+00
   -0.11242E-20        -0.71182E-21         0.00000E+00
   -0.96186E-21        -0.30752E-21         0.00000E+00
   -0.79814E-21        -0.85514E-22         0.00000E+00
   -0.17303E-34        -0.97408E-20         0.00000E+00
    0.63295E-22        -0.94897E-20         0.00000E+00
   -0.33030E-20        -0.93257E-20         0.00000E+00
   -0.44369E-20        -0.95916E-20         0.00000E+00
   -0.25216E-20        -0.60643E-20         0.00000E+00
   -0.18944E-20        -0.29173E-20         0.00000E+00
   -0.28349E-20        -0.40286E-20         0.00000E+00
   -0.46512E-20        -0.38347E-20         0.00000E+00
   -0.44725E-20        -0.36133E-20         0.00000E+00
   -0.33410E-20        -0.28295E-20         0.00000E+00
   -0.17846E-20        -0.31631E-21         0.00000E+00
   -0.11775E-20         0.11938E-22         0.00000E+00
   -0.14695E-20        -0.38866E-22         0.00000E+00
   -0.11681E-20        -0.21661E-20         0.00000E+00
   -0.13623E-20        -0.45755E-20         0.00000E+00
   -0.29899E-20        -0.33192E-20         0.00000E+00
   -0.50445E-21        -0.15319E-20         0.00000E+00
    0.14360E-21        -0.13500E-20         0.00000E+00
   -0.87533E-21        -0.25342E-20         0.00000E+00
   -0.92074E-21        -0.30182E-20         0.00000E+00
   -0.73621E-21        -0.19598E-20         0.00000E+00
   -0.15263E-20        -0.60599E-21         0.00000E+00
   -0.18008E-20        -0.72760E-21         0.00000E+00
   -0.13895E-20        -0.77466E-21         0.00000E+00
   -0.11620E-20        -0.59673E-21         0.00000E+00
    0.00000E+00        -0.10130E-19         0.00000E+00
   -0.17515E-20        -0.79781E-20         0.00000E+00
   -0.38607E-20        -0.67989E-20         0.00000E+00
   -0.50463E-20        -0.85291E-20         0.00000E+00
   -0.60252E-20        -0.63950E-20         0.00000E+00
   -0.45489E-20        -0.28185E-20         0.00000E+00
   -0.53967E-20        -0.31259E-20         0.00000E+00
   -0.50761E-20        -0.51235E-20         0.00000E+00
   -0.34078E-20        -0.48034E-20         0.00000E+00
   -0.31525E-20        -0.37898E-20         0.00000E+00
   -0.25645E-20        -0.18500E-20         0.00000E+00
   -0.11071E-20         0.81897E-21         0.00000E+00
   -0.12282E-20        -0.12962E-20         0.00000E+00
   -0.20382E-21        -0.32452E-20         0.00000E+00
   -0.13321E-20        -0.11404E-20         0.00000E+00
   -0.34137E-20        -0.27107E-20         0.00000E+00
   -0.19958E-20        -0.43093E-20         0.00000E+00
   -0.71479E-22        -0.15908E-20         0.00000E+00
   -0.12282E-20        -0.14217E-20         0.00000E+00
   -0.14476E-20        -0.27737E-20         0.00000E+00
   -0.20062E-20        -0.17829E-20         0.00000E+00
   -0.17057E-20        -0.42060E-21         0.00000E+00
   -0.15036E-20        -0.84860E-21         0.00000E+00
   -0.16858E-20        -0.94640E-21         0.00000E+00
   -0.18083E-20        -0.54063E-21         0.00000E+00
    0.00000E+00        -0.62379E-20         0.00000E+00
   -0.35406E-20        -0.56290E-20         0.00000E+00
   -0.36753E-20        -0.60309E-20         0.00000E+00
   -0.47867E-20        -0.74271E-20         0.00000E+00
   -0.58112E-20        -0.65618E-20         0.00000E+00
   -0.48239E-20        -0.35457E-20         0.00000E+00
   -0.43635E-20        -0.35013E-20         0.00000E+00
   -0.42533E-20        -0.58237E-20         0.00000E+00
   -0.38853E-20        -0.55369E-20         0.00000E+00
   -0.38919E-20        -0.36727E-20         0.00000E+00
   -0.49181E-20        -0.23618E-20         0.00000E+00
   -0.32884E-20        -0.13244E-20         0.00000E+00
   -0.73277E-21        -0.94210E-21         0.00000E+00
   -0.21572E-20        -0.20622E-20         0.00000E+00
   -0.27210E-20        -0.13656E-20         0.00000E+00
   -0.10589E-20        -0.26554E-20         0.00000E+00
   -0.17987E-20        -0.48741E-20         0.00000E+00
   -0.23036E-20        -0.21176E-20         0.00000E+00
   -0.14160E-20        -0.11581E-20         0.00000E+00
   -0.11830E-20        -0.22402E-20         0.00000E+00
   -0.22251E-20        -0.17017E-20         0.00000E+00
   -0.19671E-20        -0.11086E-20         0.00000E+00
   -0.13337E-20        -0.74753E-21         0.00000E+00
   -0.17931E-20        -0.46997E-21         0.00000E+00
   -0.20321E-20        -0.35180E-21         0.00000E+00
    0.00000E+00        -0.30489E-20         0.00000E+00
   -0.20418E-20        -0.43029E-20         0.00000E+00
   -0.19456E-20        -0.55527E-20         0.00000E+00
   -0.30418E-20        -0.63932E-20         0.00000E+00
   -0.29967E-20        -0.63579E-20         0.00000E+00
   -0.33931E-20        -0.42662E-20         0.00000E+00
   -0.25267E-20        -0.36964E-20         0.00000E+00
   -0.22643E-20        -0.56017E-20         0.00000E+00
   -0.37962E-20        -0.51647E-20         0.00000E+00
   -0.50989E-20        -0.27570E-20         0.00000E+00
   -0.43534E-20        -0.24535E-20         0.00000E+00
   -0.32386E-20        -0.33663E-20         0.00000E+00
   -0.17629E-20        -0.24274E-20         0.00000E+00
   -0.15142E-20        -0.12570E-20         0.00000E+00
   -0.17487E-20        -0.22388E-20         0.00000E+00
    0.96699E-22        -0.36330E-20         0.00000E+00
   -0.12502E-20        -0.30646E-20         0.00000E+00
   -0.26276E-20        -0.19735E-20         0.00000E+00
   -0.16677E-20        -0.25423E-20         0.00000E+00
   -0.16166E-20        -0.19646E-20         0.00000E+00
   -0.15884E-20        -0.99869E-21         0.00000E+00
   -0.20107E-20        -0.13119E-20         0.00000E+00
   -0.18019E-20        -0.10226E-20         0.00000E+00
   -0.17850E-20        -0.24808E-21         0.00000E+00
   -0.20066E-20        -0.62739E-22         0.00000E+00
    0.00000E+00        -0.21542E-20         0.00000E+00
   -0.51584E-22        -0.36834E-20         0.00000E+00
   -0.80404E-21        -0.50309E-20         0.00000E+00
   -0.67329E-21        -0.63760E-20         0.00000E+00
   -0.21964E-20        -0.62105E-20         0.00000E+00
   -0.31111E-20        -0.40157E-20         0.00000E+00
   -0.21374E-20        -0.46301E-20         0.00000E+00
   -0.19031E-20        -0.45542E-20         0.00000E+00
   -0.38786E-20        -0.27023E-20         0.00000E+00
   -0.35619E-20        -0.31156E-20         0.00000E+00
   -0.29594E-20        -0.42221E-20         0.00000E+00
   -0.25997E-20        -0.39148E-20         0.00000E+00
   -0.30010E-20        -0.26665E-20         0.00000E+00
   -0.23398E-20        -0.20764E-20         0.00000E+00
   -0.16204E-20        -0.29765E-20         0.00000E+00
   -0.49461E-21        -0.31539E-20         0.00000E+00
   -0.15963E-20        -0.21498E-20         0.00000E+00
   -0.21402E-20        -0.17002E-20         0.00000E+00
   -0.26542E-20        -0.21691E-20         0.00000E+00
   -0.28237E-20        -0.23195E-20         0.00000E+00
   -0.20107E-20        -0.13075E-20         0.00000E+00
   -0.18582E-20        -0.89510E-21         0.00000E+00
   -0.23259E-20        -0.97327E-21         0.00000E+00
   -0.21507E-20        -0.26531E-21         0.00000E+00
   -0.20584E-20         0.91341E-22         0.00000E+00
    0.00000E+00        -0.29457E-20         0.00000E+00
    0.89938E-21        -0.34988E-20         0.00000E+00
    0.74643E-23        -0.49310E-20         0.00000E+00
   -0.60694E-21        -0.50009E-20         0.00000E+00
   -0.30283E-20        -0.39201E-20         0.00000E+00
   -0.33289E-20        -0.43252E-20         0.00000E+00
   -0.29944E-20        -0.49044E-20         0.00000E+00
   -0.35261E-20        -0.38605E-20         0.00000E+00
   -0.32487E-20        -0.35060E-20         0.00000E+00
   -0.27957E-20        -0.36763E-20         0.00000E+00
   -0.33177E-20        -0.34157E-20         0.00000E+00
   -0.39906E-20        -0.33247E-20         0.00000E+00
   -0.47484E-20        -0.26873E-20         0.00000E+00
   -0.35367E-20        -0.26375E-20         0.00000E+00
   -0.33852E-20        -0.40839E-20         0.00000E+00
   -0.32651E-20        -0.36571E-20         0.00000E+00
   -0.32566E-20        -0.14190E-20         0.00000E+00
   -0.32504E-20        -0.91569E-21         0.00000E+00
   -0.29935E-20        -0.18589E-20         0.00000E+00
   -0.32310E-20        -0.26080E-20         0.00000E+00
   -0.29450E-20        -0.19642E-20         0.00000E+00
   -0.19959E-20        -0.99674E-21         0.00000E+00
   -0.22127E-20        -0.73006E-21         0.00000E+00
   -0.22881E-20        -0.51559E-21         0.00000E+00
   -0.21253E-20        -0.24743E-21         0.00000E+00
    0.00000E+00        -0.39530E-20         0.00000E+00
    0.72972E-21        -0.36909E-20         0.00000E+00
    0.37416E-21        -0.35246E-20         0.00000E+00
   -0.16499E-20        -0.33403E-20         0.00000E+00
   -0.22259E-20        -0.34885E-20         0.00000E+00
   -0.21969E-20        -0.40495E-20         0.00000E+00
   -0.28947E-20        -0.44329E-20         0.00000E+00
   -0.29075E-20        -0.42998E-20         0.00000E+00
   -0.23764E-20        -0.34327E-20         0.00000E+00
   -0.27468E-20        -0.30466E-20         0.00000E+00
   -0.25685E-20        -0.30272E-20         0.00000E+00
   -0.35071E-20        -0.24841E-20         0.00000E+00
   -0.40849E-20        -0.31204E-20         0.00000E+00
   -0.35796E-20        -0.34395E-20         0.00000E+00
   -0.37556E-20        -0.32481E-20         0.00000E+00
   -0.53864E-20        -0.32826E-20         0.00000E+00
   -0.41949E-20        -0.21645E-20         0.00000E+00
   -0.34462E-20        -0.19633E-20         0.00000E+00
   -0.30313E-20        -0.21884E-20         0.00000E+00
   -0.30068E-20        -0.23679E-20         0.00000E+00
   -0.26910E-20        -0.25427E-20         0.00000E+00
   -0.20485E-20        -0.16275E-20         0.00000E+00
   -0.19386E-20        -0.68104E-21         0.00000E+00
   -0.21752E-20        -0.35273E-21         0.00000E+00
   -0.22014E-20        -0.23437E-21         0.00000E+00
    0.00000E+00        -0.44051E-20         0.00000E+00
    0.33971E-21        -0.38730E-20         0.00000E+00
   -0.11674E-22        -0.25514E-20         0.00000E+00
   -0.41002E-21        -0.24008E-20         0.00000E+00
   -0.34219E-21        -0.33731E-20         0.00000E+00
   -0.90916E-21        -0.36564E-20         0.00000E+00
   -0.12449E-20        -0.41938E-20         0.00000E+00
   -0.16692E-20        -0.43787E-20         0.00000E+00
   -0.12270E-20        -0.36667E-20         0.00000E+00
   -0.12339E-20        -0.34842E-20         0.00000E+00
   -0.12947E-20        -0.26554E-20         0.00000E+00
   -0.14467E-20        -0.18083E-20         0.00000E+00
   -0.15694E-20        -0.26148E-20         0.00000E+00
   -0.25912E-20        -0.29668E-20         0.00000E+00
   -0.30159E-20        -0.22770E-20         0.00000E+00
   -0.44106E-20        -0.32178E-20         0.00000E+00
   -0.38449E-20        -0.33592E-20         0.00000E+00
   -0.27439E-20        -0.20793E-20         0.00000E+00
   -0.23017E-20        -0.22983E-20         0.00000E+00
   -0.17783E-20        -0.29483E-20         0.00000E+00
   -0.20707E-20        -0.29225E-20         0.00000E+00
   -0.22542E-20        -0.17491E-20         0.00000E+00
   -0.23452E-20        -0.60340E-21         0.00000E+00
   -0.23954E-20        -0.25279E-21         0.00000E+00
   -0.25174E-20        -0.19499E-21         0.00000E+00
    0.00000E+00        -0.46324E-20         0.00000E+00
   -0.51311E-22        -0.36792E-20         0.00000E+00
   -0.29735E-21        -0.27749E-20         0.00000E+00
    0.44350E-21        -0.30098E-20         0.00000E+00
    0.50913E-21        -0.29893E-20         0.00000E+00
   -0.18481E-22        -0.31468E-20         0.00000E+00
   -0.34094E-21        -0.36729E-20         0.00000E+00
   -0.74566E-21        -0.43177E-20         0.00000E+00
   -0.90523E-21        -0.38680E-20         0.00000E+00
   -0.87386E-21        -0.29789E-20         0.00000E+00
   -0.14841E-20        -0.28144E-20         0.00000E+00
   -0.58904E-21        -0.22094E-20         0.00000E+00
   -0.25996E-21        -0.19758E-20         0.00000E+00
   -0.21323E-21        -0.19931E-20         0.00000E+00
   -0.10126E-20        -0.14287E-20         0.00000E+00
   -0.12804E-20        -0.24536E-20         0.00000E+00
   -0.28745E-20        -0.38312E-20         0.00000E+00
   -0.17441E-20        -0.35064E-20         0.00000E+00
   -0.52161E-21        -0.31540E-20         0.00000E+00
   -0.57975E-21        -0.25989E-20         0.00000E+00
   -0.17111E-20        -0.20668E-20         0.00000E+00
   -0.27427E-20        -0.13530E-20         0.00000E+00
   -0.26682E-20        -0.53985E-21         0.00000E+00
   -0.27700E-20        -0.18047E-21         0.00000E+00
   -0.28228E-20         0.97928E-23         0.00000E+00
    0.00000E+00        -0.43025E-20         0.00000E+00
   -0.43304E-21        -0.35756E-20         0.00000E+00
   -0.24740E-21        -0.30462E-20         0.00000E+00
   -0.58624E-22        -0.32073E-20         0.00000E+00
    0.45055E-22        -0.29111E-20         0.00000E+00
    0.10966E-21        -0.28063E-20         0.00000E+00
   -0.25221E-21        -0.34666E-20         0.00000E+00
   -0.75208E-21        -0.38145E-20         0.00000E+00
   -0.17079E-20        -0.35385E-20         0.00000E+00
   -0.15340E-20        -0.29053E-20         0.00000E+00
   -0.17231E-20        -0.29402E-20         0.00000E+00
   -0.16147E-20        -0.30324E-20         0.00000E+00
   -0.69531E-21        -0.29906E-20         0.00000E+00
    0.12871E-21        -0.22142E-20         0.00000E+00
    0.53952E-21        -0.12099E-20         0.00000E+00
    0.10841E-20        -0.13559E-20         0.00000E+00
   -0.35639E-21        -0.28955E-20         0.00000E+00
   -0.59983E-21        -0.44323E-20         0.00000E+00
   -0.66003E-21        -0.34626E-20         0.00000E+00
   -0.14644E-20        -0.17588E-20         0.00000E+00
   -0.19504E-20        -0.75950E-21         0.00000E+00
   -0.24104E-20        -0.79195E-21         0.00000E+00
   -0.26705E-20        -0.57609E-21         0.00000E+00
   -0.27130E-20        -0.98220E-22         0.00000E+00
   -0.27055E-20        -0.89450E-22         0.00000E+00
    0.00000E+00        -0.37663E-20         0.00000E+00
   -0.55071E-21        -0.34318E-20         0.00000E+00
   -0.40087E-21        -0.31493E-20         0.00000E+00
   -0.40473E-21        -0.33022E-20         0.00000E+00
   -0.26223E-21        -0.31576E-20         0.00000E+00
    0.54420E-22        -0.28495E-20         0.00000E+00
   -0.22564E-21        -0.28112E-20         0.00000E+00
   -0.78098E-21        -0.28621E-20         0.00000E+00
   -0.94465E-21        -0.30860E-20         0.00000E+00
   -0.16876E-20        -0.29636E-20         0.00000E+00
   -0.17978E-20        -0.27338E-20         0.00000E+00
   -0.21248E-20        -0.32372E-20         0.00000E+00
   -0.15717E-20        -0.37192E-20         0.00000E+00
   -0.10804E-20        -0.32279E-20         0.00000E+00
   -0.14910E-21        -0.23841E-20         0.00000E+00
   -0.80549E-22        -0.15577E-20         0.00000E+00
    0.87967E-21        -0.21473E-20         0.00000E+00
   -0.27121E-21        -0.32028E-20         0.00000E+00
   -0.14040E-20        -0.22895E-20         0.00000E+00
   -0.20755E-20        -0.13086E-20         0.00000E+00
   -0.20306E-20        -0.11208E-20         0.00000E+00
   -0.18075E-20        -0.63287E-21         0.00000E+00
   -0.23135E-20        -0.23726E-21         0.00000E+00
   -0.23188E-20        -0.14545E-21         0.00000E+00
   -0.23894E-20        -0.52470E-23         0.00000E+00
    0.00000E+00        -0.32011E-20         0.00000E+00
   -0.22770E-21        -0.31748E-20         0.00000E+00
   -0.27753E-21        -0.31922E-20         0.00000E+00
   -0.38306E-21        -0.33460E-20         0.00000E+00
   -0.68826E-21        -0.33702E-20         0.00000E+00
   -0.36355E-21        -0.28429E-20         0.00000E+00
   -0.43482E-21        -0.26312E-20         0.00000E+00
   -0.47740E-21        -0.30955E-20         0.00000E+00
   -0.59477E-21        -0.26319E-20         0.00000E+00
   -0.96508E-21        -0.20522E-20         0.00000E+00
   -0.10128E-20        -0.25030E-20         0.00000E+00
   -0.13805E-20        -0.32585E-20         0.00000E+00
   -0.10220E-20        -0.40350E-20         0.00000E+00
   -0.70653E-21        -0.36367E-20         0.00000E+00
   -0.12798E-20        -0.22097E-20         0.00000E+00
   -0.10454E-20        -0.23847E-20         0.00000E+00
   -0.56728E-21        -0.27049E-20         0.00000E+00
   -0.11708E-20        -0.21486E-20         0.00000E+00
   -0.15428E-20        -0.16583E-20         0.00000E+00
   -0.13124E-20        -0.11323E-20         0.00000E+00
   -0.14154E-20        -0.10275E-20         0.00000E+00
   -0.18577E-20        -0.50899E-21         0.00000E+00
   -0.19367E-20        -0.64769E-22         0.00000E+00
   -0.21339E-20        -0.22379E-22         0.00000E+00
   -0.20686E-20         0.51616E-22         0.00000E+00
    0.00000E+00        -0.33109E-20         0.00000E+00
   -0.10081E-22        -0.31542E-20         0.00000E+00
   -0.13449E-21        -0.29939E-20         0.00000E+00
   -0.34221E-21        -0.28915E-20         0.00000E+00
   -0.63538E-21        -0.31771E-20         0.00000E+00
   -0.72331E-21        -0.31030E-20         0.00000E+00
   -0.31556E-21        -0.26973E-20         0.00000E+00
   -0.57872E-21        -0.27021E-20         0.00000E+00
   -0.12636E-20        -0.25984E-20         0.00000E+00
   -0.64686E-21        -0.25456E-20         0.00000E+00
   -0.18016E-22        -0.23184E-20         0.00000E+00
   -0.30139E-21        -0.32280E-20         0.00000E+00
   -0.14708E-21        -0.43932E-20         0.00000E+00
   -0.64823E-21        -0.29702E-20         0.00000E+00
   -0.14882E-20        -0.20452E-20         0.00000E+00
   -0.12439E-20        -0.22702E-20         0.00000E+00
   -0.17888E-20        -0.20219E-20         0.00000E+00
   -0.19013E-20        -0.22272E-20         0.00000E+00
   -0.18237E-20        -0.21479E-20         0.00000E+00
   -0.12300E-20        -0.14360E-20         0.00000E+00
   -0.12686E-20        -0.57551E-21         0.00000E+00
   -0.18334E-20        -0.11160E-21         0.00000E+00
   -0.17547E-20         0.38951E-22         0.00000E+00
   -0.19039E-20        -0.13581E-22         0.00000E+00
   -0.18518E-20        -0.13589E-21         0.00000E+00
    0.00000E+00        -0.31809E-20         0.00000E+00
   -0.17235E-21        -0.30403E-20         0.00000E+00
   -0.21065E-21        -0.28601E-20         0.00000E+00
   -0.34763E-21        -0.28451E-20         0.00000E+00
   -0.30139E-21        -0.29891E-20         0.00000E+00
   -0.61030E-21        -0.31627E-20         0.00000E+00
   -0.37745E-21        -0.27758E-20         0.00000E+00
   -0.47599E-21        -0.21474E-20         0.00000E+00
   -0.36628E-21        -0.25637E-20         0.00000E+00
   -0.30464E-21        -0.32978E-20         0.00000E+00
   -0.32376E-22        -0.28485E-20         0.00000E+00
    0.48047E-21        -0.31295E-20         0.00000E+00
   -0.54153E-21        -0.36881E-20         0.00000E+00
   -0.11649E-20        -0.22956E-20         0.00000E+00
   -0.34688E-21        -0.16140E-20         0.00000E+00
   -0.14749E-20        -0.20841E-20         0.00000E+00
   -0.13981E-20        -0.20475E-20         0.00000E+00
   -0.14661E-20        -0.21137E-20         0.00000E+00
   -0.11193E-20        -0.23296E-20         0.00000E+00
   -0.13775E-20        -0.16873E-20         0.00000E+00
   -0.16473E-20        -0.42410E-21         0.00000E+00
   -0.17012E-20        -0.22892E-22         0.00000E+00
   -0.17713E-20         0.56812E-23         0.00000E+00
   -0.16669E-20         0.74706E-22         0.00000E+00
   -0.17520E-20        -0.52512E-22         0.00000E+00
    0.00000E+00        -0.29662E-20         0.00000E+00
   -0.14916E-21        -0.29436E-20         0.00000E+00
   -0.19530E-21        -0.28186E-20         0.00000E+00
   -0.16181E-21        -0.28007E-20         0.00000E+00
   -0.11079E-21        -0.29145E-20         0.00000E+00
   -0.11765E-21        -0.30269E-20         0.00000E+00
   -0.30082E-21        -0.28316E-20         0.00000E+00
   -0.34501E-22        -0.27133E-20         0.00000E+00
    0.72070E-21        -0.27697E-20         0.00000E+00
    0.23960E-21        -0.28795E-20         0.00000E+00
   -0.29088E-21        -0.31035E-20         0.00000E+00
   -0.34803E-21        -0.27189E-20         0.00000E+00
   -0.81683E-21        -0.27478E-20         0.00000E+00
   -0.10308E-20        -0.31648E-20         0.00000E+00
   -0.56641E-21        -0.17351E-20         0.00000E+00
   -0.71626E-21        -0.12190E-20         0.00000E+00
   -0.13582E-20        -0.20307E-20         0.00000E+00
   -0.14949E-20        -0.25061E-20         0.00000E+00
   -0.11531E-20        -0.22365E-20         0.00000E+00
   -0.14469E-20        -0.90795E-21         0.00000E+00
   -0.16486E-20        -0.25183E-21         0.00000E+00
   -0.14833E-20         0.12427E-22         0.00000E+00
   -0.17568E-20         0.46536E-23         0.00000E+00
   -0.16380E-20        -0.32912E-22         0.00000E+00
   -0.15882E-20         0.34260E-22         0.00000E+00
    0.00000E+00        -0.28826E-20         0.00000E+00
   -0.83682E-22        -0.28450E-20         0.00000E+00
   -0.10394E-21        -0.28474E-20         0.00000E+00
   -0.17850E-22        -0.29296E-20         0.00000E+00
    0.79037E-22        -0.30333E-20         0.00000E+00
    0.11660E-21        -0.29727E-20         0.00000E+00
   -0.21143E-22        -0.28590E-20         0.00000E+00
    0.60722E-21        -0.31689E-20         0.00000E+00
    0.48501E-21        -0.28378E-20         0.00000E+00
    0.19561E-21        -0.22862E-20         0.00000E+00
   -0.40336E-21        -0.22609E-20         0.00000E+00
   -0.92015E-21        -0.26035E-20         0.00000E+00
   -0.86287E-21        -0.30054E-20         0.00000E+00
   -0.16214E-20        -0.25461E-20         0.00000E+00
   -0.25171E-20        -0.19286E-20         0.00000E+00
   -0.13131E-20        -0.12923E-20         0.00000E+00
   -0.17768E-20        -0.12689E-20         0.00000E+00
   -0.19336E-20        -0.23188E-20         0.00000E+00
   -0.22682E-20        -0.23776E-20         0.00000E+00
   -0.20328E-20        -0.11918E-20         0.00000E+00
   -0.15083E-20        -0.38770E-21         0.00000E+00
   -0.15736E-20         0.85304E-22         0.00000E+00
   -0.15500E-20         0.16036E-21         0.00000E+00
   -0.15648E-20        -0.93883E-22         0.00000E+00
   -0.14944E-20        -0.15195E-21         0.00000E+00
    0.00000E+00        -0.27988E-20         0.00000E+00
   -0.65303E-22        -0.28397E-20         0.00000E+00
    0.17539E-21        -0.28845E-20         0.00000E+00
    0.10772E-21        -0.29837E-20         0.00000E+00
    0.10509E-21        -0.30489E-20         0.00000E+00
   -0.18814E-22        -0.29267E-20         0.00000E+00
    0.84429E-22        -0.33223E-20         0.00000E+00
    0.37705E-21        -0.32195E-20         0.00000E+00
    0.17059E-21        -0.23581E-20         0.00000E+00
    0.15142E-21        -0.19911E-20         0.00000E+00
   -0.18849E-21        -0.19877E-20         0.00000E+00
   -0.22578E-21        -0.22593E-20         0.00000E+00
   -0.12996E-20        -0.20466E-20         0.00000E+00
   -0.21016E-20        -0.15106E-20         0.00000E+00
   -0.20692E-20        -0.20433E-20         0.00000E+00
   -0.15419E-20        -0.19593E-20         0.00000E+00
   -0.11732E-20        -0.14103E-20         0.00000E+00
   -0.12731E-20        -0.20147E-20         0.00000E+00
   -0.20907E-20        -0.21373E-20         0.00000E+00
   -0.23506E-20        -0.16678E-20         0.00000E+00
   -0.22434E-20        -0.71100E-21         0.00000E+00
   -0.20516E-20         0.54125E-22         0.00000E+00
   -0.16116E-20        -0.41687E-23         0.00000E+00
   -0.15420E-20        -0.88444E-22         0.00000E+00
   -0.16176E-20        -0.10641E-21         0.00000E+00
    0.00000E+00        -0.27520E-20         0.00000E+00
    0.41916E-23        -0.30204E-20         0.00000E+00
    0.10577E-21        -0.30205E-20         0.00000E+00
    0.12629E-21        -0.28593E-20         0.00000E+00
   -0.17085E-22        -0.29068E-20         0.00000E+00
   -0.11873E-21        -0.29520E-20         0.00000E+00
    0.99847E-22        -0.32548E-20         0.00000E+00
   -0.32177E-21        -0.32551E-20         0.00000E+00
   -0.50442E-22        -0.26122E-20         0.00000E+00
    0.98253E-22        -0.19271E-20         0.00000E+00
   -0.11326E-21        -0.18837E-20         0.00000E+00
   -0.93732E-22        -0.14924E-20         0.00000E+00
   -0.54227E-21        -0.11295E-20         0.00000E+00
   -0.75653E-21        -0.17765E-20         0.00000E+00
   -0.53717E-21        -0.24883E-20         0.00000E+00
   -0.45877E-21        -0.21882E-20         0.00000E+00
   -0.40519E-21        -0.15376E-20         0.00000E+00
   -0.11033E-20        -0.14013E-20         0.00000E+00
   -0.17913E-20        -0.13001E-20         0.00000E+00
   -0.23509E-20        -0.10391E-20         0.00000E+00
   -0.27288E-20        -0.68676E-21         0.00000E+00
   -0.22068E-20        -0.54650E-21         0.00000E+00
   -0.19206E-20        -0.34917E-21         0.00000E+00
   -0.17817E-20        -0.87909E-22         0.00000E+00
   -0.17895E-20        -0.81504E-24         0.00000E+00
    0.00000E+00        -0.28072E-20         0.00000E+00
   -0.11003E-21        -0.29454E-20         0.00000E+00
   -0.38424E-21        -0.30066E-20         0.00000E+00
   -0.37675E-21        -0.28609E-20         0.00000E+00
   -0.51801E-21        -0.28039E-20         0.00000E+00
   -0.30493E-21        -0.30437E-20         0.00000E+00
   -0.31885E-21        -0.31192E-20         0.00000E+00
   -0.66376E-21        -0.30692E-20         0.00000E+00
   -0.79627E-21        -0.27781E-20         0.00000E+00
   -0.54527E-21        -0.19283E-20         0.00000E+00
   -0.38652E-21        -0.17957E-20         0.00000E+00
   -0.62968E-21        -0.18303E-20         0.00000E+00
   -0.34121E-21        -0.13838E-20         0.00000E+00
   -0.16582E-21        -0.15157E-20         0.00000E+00
   -0.25165E-21        -0.23411E-20         0.00000E+00
   -0.90365E-21        -0.20913E-20         0.00000E+00
   -0.11450E-20        -0.76574E-21         0.00000E+00
   -0.15979E-20        -0.62862E-21         0.00000E+00
   -0.19827E-20        -0.88973E-21         0.00000E+00
   -0.22475E-20        -0.73030E-21         0.00000E+00
   -0.21638E-20        -0.85505E-21         0.00000E+00
   -0.20130E-20        -0.75410E-21         0.00000E+00
   -0.20361E-20        -0.42932E-21         0.00000E+00
   -0.19368E-20        -0.21953E-21         0.00000E+00
   -0.18785E-20        -0.90770E-22         0.00000E+00
    0.00000E+00        -0.25319E-20         0.00000E+00
   -0.28656E-21        -0.26361E-20         0.00000E+00
   -0.54513E-21        -0.27537E-20         0.00000E+00
   -0.75895E-21        -0.27255E-20         0.00000E+00
   -0.82726E-21        -0.29786E-20         0.00000E+00
   -0.78445E-21        -0.31512E-20         0.00000E+00
   -0.72290E-21        -0.28960E-20         0.00000E+00
   -0.93828E-21        -0.27776E-20         0.00000E+00
   -0.13314E-20        -0.27307E-20         0.00000E+00
   -0.12131E-20        -0.23369E-20         0.00000E+00
   -0.94005E-21        -0.17993E-20         0.00000E+00
   -0.13632E-20        -0.15377E-20         0.00000E+00
   -0.12556E-20        -0.15934E-20         0.00000E+00
   -0.10365E-20        -0.18660E-20         0.00000E+00
   -0.88583E-21        -0.17505E-20         0.00000E+00
   -0.19115E-20        -0.12948E-20         0.00000E+00
   -0.21463E-20        -0.84334E-21         0.00000E+00
   -0.17542E-20        -0.56364E-21         0.00000E+00
   -0.18503E-20        -0.65050E-21         0.00000E+00
   -0.18920E-20        -0.85809E-21         0.00000E+00
   -0.18397E-20        -0.92132E-21         0.00000E+00
   -0.19497E-20        -0.67417E-21         0.00000E+00
   -0.18730E-20        -0.42529E-21         0.00000E+00
   -0.18861E-20        -0.24545E-21         0.00000E+00
   -0.18556E-20        -0.11739E-21         0.00000E+00
    0.00000E+00        -0.22341E-20         0.00000E+00
   -0.26852E-21        -0.24003E-20         0.00000E+00
   -0.34171E-21        -0.25342E-20         0.00000E+00
   -0.59081E-21        -0.25787E-20         0.00000E+00
   -0.67688E-21        -0.27784E-20         0.00000E+00
   -0.83969E-21        -0.31480E-20         0.00000E+00
   -0.74908E-21        -0.29654E-20         0.00000E+00
   -0.89311E-21        -0.24606E-20         0.00000E+00
   -0.14500E-20        -0.25033E-20         0.00000E+00
   -0.18286E-20        -0.23197E-20         0.00000E+00
   -0.19282E-20        -0.16456E-20         0.00000E+00
   -0.15015E-20        -0.15147E-20         0.00000E+00
   -0.10910E-20        -0.17105E-20         0.00000E+00
   -0.13883E-20        -0.18855E-20         0.00000E+00
   -0.19656E-20        -0.14661E-20         0.00000E+00
   -0.22012E-20        -0.83082E-21         0.00000E+00
   -0.25568E-20        -0.92297E-21         0.00000E+00
   -0.21106E-20        -0.92466E-21         0.00000E+00
   -0.17445E-20        -0.75197E-21         0.00000E+00
   -0.16934E-20        -0.74089E-21         0.00000E+00
   -0.18026E-20        -0.79731E-21         0.00000E+00
   -0.18851E-20        -0.72076E-21         0.00000E+00
   -0.18008E-20        -0.49290E-21         0.00000E+00
   -0.17482E-20        -0.23699E-21         0.00000E+00
   -0.17220E-20        -0.15191E-21         0.00000E+00
    0.00000E+00        -0.19949E-20         0.00000E+00
   -0.54514E-22        -0.22944E-20         0.00000E+00
   -0.39357E-21        -0.24314E-20         0.00000E+00
   -0.45623E-21        -0.23903E-20         0.00000E+00
   -0.38449E-21        -0.27297E-20         0.00000E+00
   -0.39389E-21        -0.30790E-20         0.00000E+00
   -0.90495E-21        -0.28426E-20         0.00000E+00
   -0.10164E-20        -0.20767E-20         0.00000E+00
   -0.12714E-20        -0.17952E-20         0.00000E+00
   -0.18805E-20        -0.18587E-20         0.00000E+00
   -0.19862E-20        -0.21264E-20         0.00000E+00
   -0.10576E-20        -0.23749E-20         0.00000E+00
   -0.11104E-20        -0.17066E-20         0.00000E+00
   -0.18440E-20        -0.99142E-21         0.00000E+00
   -0.25219E-20        -0.93758E-21         0.00000E+00
   -0.22171E-20        -0.70372E-21         0.00000E+00
   -0.20015E-20        -0.93393E-21         0.00000E+00
   -0.18906E-20        -0.13759E-20         0.00000E+00
   -0.17378E-20        -0.10678E-20         0.00000E+00
   -0.16323E-20        -0.79990E-21         0.00000E+00
   -0.16345E-20        -0.72961E-21         0.00000E+00
   -0.16789E-20        -0.67597E-21         0.00000E+00
   -0.16791E-20        -0.56220E-21         0.00000E+00
   -0.15650E-20        -0.32431E-21         0.00000E+00
   -0.15828E-20        -0.16975E-21         0.00000E+00
    0.00000E+00        -0.21251E-20         0.00000E+00
    0.11728E-21        -0.20067E-20         0.00000E+00
   -0.30567E-21        -0.21325E-20         0.00000E+00
   -0.32704E-21        -0.25878E-20         0.00000E+00
   -0.29701E-21        -0.28407E-20         0.00000E+00
   -0.69869E-21        -0.26276E-20         0.00000E+00
   -0.11531E-20        -0.23429E-20         0.00000E+00
   -0.11799E-20        -0.20942E-20         0.00000E+00
   -0.91030E-21        -0.16392E-20         0.00000E+00
   -0.12617E-20        -0.16049E-20         0.00000E+00
   -0.11598E-20        -0.24686E-20         0.00000E+00
   -0.13792E-20        -0.23905E-20         0.00000E+00
   -0.19524E-20        -0.92409E-21         0.00000E+00
   -0.20733E-20        -0.47400E-21         0.00000E+00
   -0.19315E-20        -0.10930E-20         0.00000E+00
   -0.15978E-20        -0.13512E-20         0.00000E+00
   -0.11938E-20        -0.12494E-20         0.00000E+00
   -0.14008E-20        -0.11884E-20         0.00000E+00
   -0.15014E-20        -0.10103E-20         0.00000E+00
   -0.14799E-20        -0.84414E-21         0.00000E+00
   -0.14580E-20        -0.75072E-21         0.00000E+00
   -0.14188E-20        -0.67619E-21         0.00000E+00
   -0.13946E-20        -0.60683E-21         0.00000E+00
   -0.14595E-20        -0.33327E-21         0.00000E+00
   -0.14884E-20        -0.11620E-21         0.00000E+00
    0.00000E+00        -0.22294E-20         0.00000E+00
   -0.17799E-22        -0.19887E-20         0.00000E+00
   -0.49428E-22        -0.19871E-20         0.00000E+00
   -0.11103E-21        -0.23990E-20         0.00000E+00
   -0.56688E-21        -0.23581E-20         0.00000E+00
   -0.12385E-20        -0.22229E-20         0.00000E+00
   -0.11094E-20        -0.23614E-20         0.00000E+00
   -0.11090E-20        -0.23195E-20         0.00000E+00
   -0.98210E-21        -0.17133E-20         0.00000E+00
   -0.63602E-21        -0.16092E-20         0.00000E+00
   -0.72153E-21        -0.20089E-20         0.00000E+00
   -0.17821E-20        -0.15823E-20         0.00000E+00
   -0.21732E-20        -0.10124E-20         0.00000E+00
   -0.14696E-20        -0.10123E-20         0.00000E+00
   -0.10337E-20        -0.14130E-20         0.00000E+00
   -0.11567E-20        -0.14414E-20         0.00000E+00
   -0.11932E-20        -0.11310E-20         0.00000E+00
   -0.12593E-20        -0.10684E-20         0.00000E+00
   -0.12513E-20        -0.98868E-21         0.00000E+00
   -0.12310E-20        -0.84332E-21         0.00000E+00
   -0.12566E-20        -0.79070E-21         0.00000E+00
   -0.12424E-20        -0.73929E-21         0.00000E+00
   -0.12406E-20        -0.52150E-21         0.00000E+00
   -0.13400E-20        -0.23058E-21         0.00000E+00
   -0.13737E-20        -0.11196E-21         0.00000E+00
    0.00000E+00        -0.20895E-20         0.00000E+00
   -0.51425E-22        -0.19573E-20         0.00000E+00
   -0.86553E-22        -0.20392E-20         0.00000E+00
   -0.18160E-21        -0.20704E-20         0.00000E+00
   -0.58960E-21        -0.17133E-20         0.00000E+00
   -0.82487E-21        -0.20850E-20         0.00000E+00
   -0.93291E-21        -0.24723E-20         0.00000E+00
   -0.10587E-20        -0.22215E-20         0.00000E+00
   -0.93147E-21        -0.21122E-20         0.00000E+00
   -0.50380E-21        -0.18655E-20         0.00000E+00
   -0.77523E-21        -0.13225E-20         0.00000E+00
   -0.12096E-20        -0.93879E-21         0.00000E+00
   -0.11531E-20        -0.12366E-20         0.00000E+00
   -0.10114E-20        -0.16136E-20         0.00000E+00
   -0.86340E-21        -0.14059E-20         0.00000E+00
   -0.10901E-20        -0.11917E-20         0.00000E+00
   -0.10228E-20        -0.11468E-20         0.00000E+00
   -0.98212E-21        -0.11303E-20         0.00000E+00
   -0.10152E-20        -0.10387E-20         0.00000E+00
   -0.10580E-20        -0.83893E-21         0.00000E+00
   -0.10958E-20        -0.73926E-21         0.00000E+00
   -0.11628E-20        -0.69210E-21         0.00000E+00
   -0.12310E-20        -0.50930E-21         0.00000E+00
   -0.12169E-20        -0.20018E-21         0.00000E+00
   -0.12443E-20        -0.48689E-22         0.00000E+00
   -0.37776E-35        -0.21266E-20         0.00000E+00
   -0.10960E-21        -0.19022E-20         0.00000E+00
    0.19492E-22        -0.18569E-20         0.00000E+00
   -0.14360E-21        -0.18959E-20         0.00000E+00
   -0.26514E-21        -0.17148E-20         0.00000E+00
   -0.71867E-22        -0.18796E-20         0.00000E+00
   -0.44576E-21        -0.21276E-20         0.00000E+00
   -0.58504E-21        -0.23210E-20         0.00000E+00
   -0.59213E-21        -0.22683E-20         0.00000E+00
   -0.82851E-21        -0.17655E-20         0.00000E+00
   -0.84099E-21        -0.13031E-20         0.00000E+00
   -0.47188E-21        -0.12045E-20         0.00000E+00
   -0.23112E-21        -0.12107E-20         0.00000E+00
   -0.33732E-21        -0.13020E-20         0.00000E+00
   -0.35116E-21        -0.13343E-20         0.00000E+00
   -0.43346E-21        -0.12820E-20         0.00000E+00
   -0.62544E-21        -0.12389E-20         0.00000E+00
   -0.66896E-21        -0.10760E-20         0.00000E+00
   -0.89900E-21        -0.91281E-21         0.00000E+00
   -0.96785E-21        -0.76272E-21         0.00000E+00
   -0.96920E-21        -0.68589E-21         0.00000E+00
   -0.10292E-20        -0.60411E-21         0.00000E+00
   -0.11201E-20        -0.46741E-21         0.00000E+00
   -0.11557E-20        -0.21731E-21         0.00000E+00
   -0.11527E-20        -0.57239E-22         0.00000E+00
   -0.47442E-49        -0.18703E-20         0.00000E+00
   -0.15684E-21        -0.19768E-20         0.00000E+00
    0.17271E-22        -0.20053E-20         0.00000E+00
    0.18061E-22        -0.17857E-20         0.00000E+00
    0.24298E-22        -0.17850E-20         0.00000E+00
    0.11024E-21        -0.19044E-20         0.00000E+00
   -0.67153E-22        -0.19591E-20         0.00000E+00
   -0.20528E-22        -0.20751E-20         0.00000E+00
   -0.25809E-21        -0.18688E-20         0.00000E+00
   -0.65484E-21        -0.16166E-20         0.00000E+00
   -0.72790E-21        -0.16791E-20         0.00000E+00
   -0.67367E-21        -0.15487E-20         0.00000E+00
   -0.46658E-21        -0.13712E-20         0.00000E+00
   -0.89289E-22        -0.14935E-20         0.00000E+00
   -0.17265E-21        -0.13098E-20         0.00000E+00
   -0.15629E-21        -0.91739E-21         0.00000E+00
   -0.30956E-21        -0.91127E-21         0.00000E+00
   -0.58935E-21        -0.85669E-21         0.00000E+00
   -0.79847E-21        -0.73979E-21         0.00000E+00
   -0.79401E-21        -0.76874E-21         0.00000E+00
   -0.81366E-21        -0.67790E-21         0.00000E+00
   -0.84706E-21        -0.54116E-21         0.00000E+00
   -0.94567E-21        -0.38281E-21         0.00000E+00
   -0.10580E-20        -0.16763E-21         0.00000E+00
   -0.10473E-20        -0.54717E-22         0.00000E+00
    0.32204E-35        -0.18129E-20         0.00000E+00
    0.44779E-22        -0.19195E-20         0.00000E+00
   -0.94222E-22        -0.20318E-20         0.00000E+00
   -0.26186E-21        -0.19030E-20         0.00000E+00
   -0.73438E-22        -0.18070E-20         0.00000E+00
   -0.31493E-22        -0.17881E-20         0.00000E+00
   -0.50557E-22        -0.19968E-20         0.00000E+00
    0.10287E-22        -0.21300E-20         0.00000E+00
   -0.18929E-21        -0.16339E-20         0.00000E+00
   -0.36922E-21        -0.12957E-20         0.00000E+00
   -0.62314E-21        -0.12843E-20         0.00000E+00
   -0.10289E-20        -0.14658E-20         0.00000E+00
   -0.79363E-21        -0.17951E-20         0.00000E+00
   -0.59625E-21        -0.15959E-20         0.00000E+00
   -0.55605E-21        -0.12674E-20         0.00000E+00
   -0.51309E-21        -0.11451E-20         0.00000E+00
   -0.45126E-21        -0.80588E-21         0.00000E+00
   -0.57988E-21        -0.58707E-21         0.00000E+00
   -0.50086E-21        -0.70815E-21         0.00000E+00
   -0.55737E-21        -0.74753E-21         0.00000E+00
   -0.70952E-21        -0.63284E-21         0.00000E+00
   -0.79395E-21        -0.47210E-21         0.00000E+00
   -0.85685E-21        -0.25650E-21         0.00000E+00
   -0.89897E-21        -0.11568E-21         0.00000E+00
   -0.90467E-21        -0.78574E-22         0.00000E+00
    0.00000E+00        -0.19598E-20         0.00000E+00
    0.12976E-22        -0.18826E-20         0.00000E+00
   -0.81251E-22        -0.16986E-20         0.00000E+00
   -0.48179E-21        -0.18065E-20         0.00000E+00
   -0.25506E-21        -0.20154E-20         0.00000E+00
   -0.15255E-21        -0.19273E-20         0.00000E+00
    0.15585E-21        -0.20009E-20         0.00000E+00
    0.14991E-22        -0.19364E-20         0.00000E+00
   -0.47267E-21        -0.14893E-20         0.00000E+00
   -0.52704E-21        -0.11828E-20         0.00000E+00
   -0.53533E-21        -0.10194E-20         0.00000E+00
   -0.50693E-21        -0.13782E-20         0.00000E+00
   -0.51077E-21        -0.18039E-20         0.00000E+00
   -0.72489E-21        -0.17311E-20         0.00000E+00
   -0.56201E-21        -0.13930E-20         0.00000E+00
   -0.54352E-21        -0.10222E-20         0.00000E+00
   -0.65558E-21        -0.84448E-21         0.00000E+00
   -0.56236E-21        -0.80709E-21         0.00000E+00
   -0.41284E-21        -0.76230E-21         0.00000E+00
   -0.56078E-21        -0.56008E-21         0.00000E+00
   -0.66773E-21        -0.44132E-21         0.00000E+00
   -0.79828E-21        -0.39383E-21         0.00000E+00
   -0.80816E-21        -0.27779E-21         0.00000E+00
   -0.77276E-21        -0.11981E-21         0.00000E+00
   -0.77585E-21        -0.43325E-22         0.00000E+00
    0.00000E+00        -0.18389E-20         0.00000E+00
    0.63572E-22        -0.18382E-20         0.00000E+00
   -0.15167E-21        -0.15371E-20         0.00000E+00
   -0.11554E-21        -0.17292E-20         0.00000E+00
   -0.13365E-21        -0.21362E-20         0.00000E+00
   -0.14163E-21        -0.21990E-20         0.00000E+00
    0.48118E-22        -0.21643E-20         0.00000E+00
   -0.18951E-21        -0.15015E-20         0.00000E+00
   -0.38426E-21        -0.10919E-20         0.00000E+00
   -0.32352E-21        -0.12330E-20         0.00000E+00
   -0.18634E-21        -0.13044E-20         0.00000E+00
    0.55111E-22        -0.14903E-20         0.00000E+00
   -0.15785E-21        -0.15771E-20         0.00000E+00
   -0.33551E-21        -0.15447E-20         0.00000E+00
   -0.44638E-21        -0.14487E-20         0.00000E+00
   -0.33525E-21        -0.10515E-20         0.00000E+00
   -0.40092E-21        -0.78704E-21         0.00000E+00
   -0.48607E-21        -0.82981E-21         0.00000E+00
   -0.52511E-21        -0.70972E-21         0.00000E+00
   -0.58863E-21        -0.49264E-21         0.00000E+00
   -0.59018E-21        -0.39534E-21         0.00000E+00
   -0.59421E-21        -0.33168E-21         0.00000E+00
   -0.63962E-21        -0.28202E-21         0.00000E+00
   -0.67253E-21        -0.14799E-21         0.00000E+00
   -0.67379E-21        -0.72386E-22         0.00000E+00
    0.00000E+00        -0.20870E-20         0.00000E+00
    0.18418E-21        -0.17309E-20         0.00000E+00
    0.41016E-22        -0.15195E-20         0.00000E+00
    0.16669E-21        -0.18245E-20         0.00000E+00
   -0.98186E-22        -0.19893E-20         0.00000E+00
   -0.21128E-21        -0.21090E-20         0.00000E+00
   -0.31547E-21        -0.19530E-20         0.00000E+00
   -0.46704E-21        -0.15040E-20         0.00000E+00
   -0.18441E-21        -0.13553E-20         0.00000E+00
    0.37220E-22        -0.13807E-20         0.00000E+00
    0.12093E-21        -0.13980E-20         0.00000E+00
    0.12344E-21        -0.14067E-20         0.00000E+00
   -0.11991E-21        -0.14132E-20         0.00000E+00
   -0.18756E-21        -0.14426E-20         0.00000E+00
   -0.35837E-21        -0.13932E-20         0.00000E+00
   -0.40082E-21        -0.10676E-20         0.00000E+00
   -0.31877E-21        -0.69366E-21         0.00000E+00
   -0.39224E-21        -0.68289E-21         0.00000E+00
   -0.51124E-21        -0.65974E-21         0.00000E+00
   -0.45971E-21        -0.49501E-21         0.00000E+00
   -0.44427E-21        -0.43573E-21         0.00000E+00
   -0.41069E-21        -0.34439E-21         0.00000E+00
   -0.50433E-21        -0.19948E-21         0.00000E+00
   -0.56561E-21        -0.85639E-22         0.00000E+00
   -0.58596E-21        -0.40788E-22         0.00000E+00
    0.00000E+00        -0.22072E-20         0.00000E+00
   -0.29212E-22        -0.18792E-20         0.00000E+00
    0.15615E-21        -0.15196E-20         0.00000E+00
    0.54328E-22        -0.15900E-20         0.00000E+00
   -0.15421E-21        -0.17582E-20         0.00000E+00
   -0.27667E-21        -0.19817E-20         0.00000E+00
   -0.37490E-21        -0.19086E-20         0.00000E+00
   -0.31821E-21        -0.16326E-20         0.00000E+00
   -0.20315E-21        -0.15962E-20         0.00000E+00
   -0.35217E-22        -0.15383E-20         0.00000E+00
    0.20224E-22        -0.13906E-20         0.00000E+00
   -0.14582E-21        -0.12495E-20         0.00000E+00
   -0.26909E-21        -0.12661E-20         0.00000E+00
   -0.36816E-21        -0.13062E-20         0.00000E+00
   -0.56575E-21        -0.12355E-20         0.00000E+00
   -0.69355E-21        -0.10911E-20         0.00000E+00
   -0.55299E-21        -0.79562E-21         0.00000E+00
   -0.43694E-21        -0.63734E-21         0.00000E+00
   -0.48861E-21        -0.64225E-21         0.00000E+00
   -0.44248E-21        -0.55962E-21         0.00000E+00
   -0.38574E-21        -0.44436E-21         0.00000E+00
   -0.45636E-21        -0.27161E-21         0.00000E+00
   -0.50724E-21        -0.12710E-21         0.00000E+00
   -0.51467E-21        -0.66362E-22         0.00000E+00
   -0.51644E-21        -0.31699E-22         0.00000E+00
    0.00000E+00        -0.20286E-20         0.00000E+00
   -0.29889E-21        -0.18871E-20         0.00000E+00
   -0.13986E-21        -0.16030E-20         0.00000E+00
   -0.17337E-22        -0.15142E-20         0.00000E+00
   -0.35869E-22        -0.16583E-20         0.00000E+00
   -0.77806E-22        -0.18884E-20         0.00000E+00
   -0.31687E-21        -0.19115E-20         0.00000E+00
   -0.30950E-21        -0.16757E-20         0.00000E+00
   -0.27871E-21        -0.16383E-20         0.00000E+00
   -0.22178E-21        -0.16041E-20         0.00000E+00
   -0.24675E-21        -0.12874E-20         0.00000E+00
   -0.34336E-21        -0.11173E-20         0.00000E+00
   -0.34964E-21        -0.11909E-20         0.00000E+00
   -0.42456E-21        -0.11459E-20         0.00000E+00
   -0.50203E-21        -0.10678E-20         0.00000E+00
   -0.60574E-21        -0.10804E-20         0.00000E+00
   -0.56871E-21        -0.95027E-21         0.00000E+00
   -0.42428E-21        -0.74728E-21         0.00000E+00
   -0.46401E-21        -0.65420E-21         0.00000E+00
   -0.46348E-21        -0.59788E-21         0.00000E+00
   -0.42843E-21        -0.42185E-21         0.00000E+00
   -0.49758E-21        -0.22290E-21         0.00000E+00
   -0.48020E-21        -0.14117E-21         0.00000E+00
   -0.46040E-21        -0.76433E-22         0.00000E+00
   -0.45846E-21        -0.37241E-22         0.00000E+00
    0.00000E+00        -0.16095E-20         0.00000E+00
   -0.27107E-21        -0.17394E-20         0.00000E+00
   -0.33008E-21        -0.18011E-20         0.00000E+00
   -0.58467E-22        -0.16940E-20         0.00000E+00
    0.50354E-23        -0.16978E-20         0.00000E+00
   -0.60968E-22        -0.17007E-20         0.00000E+00
   -0.23625E-21        -0.16769E-20         0.00000E+00
   -0.32794E-21        -0.16707E-20         0.00000E+00
   -0.28920E-21        -0.16839E-20         0.00000E+00
   -0.42516E-21        -0.15703E-20         0.00000E+00
   -0.47873E-21        -0.12690E-20         0.00000E+00
   -0.31162E-21        -0.11466E-20         0.00000E+00
   -0.25266E-21        -0.11849E-20         0.00000E+00
   -0.28753E-21        -0.11538E-20         0.00000E+00
   -0.25202E-21        -0.10543E-20         0.00000E+00
   -0.26968E-21        -0.10244E-20         0.00000E+00
   -0.35185E-21        -0.97709E-21         0.00000E+00
   -0.37102E-21        -0.74204E-21         0.00000E+00
   -0.41717E-21        -0.60305E-21         0.00000E+00
   -0.40317E-21        -0.59520E-21         0.00000E+00
   -0.45536E-21        -0.41026E-21         0.00000E+00
   -0.43410E-21        -0.21984E-21         0.00000E+00
   -0.40933E-21        -0.16427E-21         0.00000E+00
   -0.40200E-21        -0.88110E-22         0.00000E+00
   -0.40217E-21        -0.35597E-22         0.00000E+00
    0.00000E+00        -0.14864E-20         0.00000E+00
   -0.10041E-21        -0.15570E-20         0.00000E+00
   -0.16255E-21        -0.18156E-20         0.00000E+00
   -0.11508E-21        -0.18493E-20         0.00000E+00
   -0.76458E-22        -0.16558E-20         0.00000E+00
   -0.12953E-21        -0.16471E-20         0.00000E+00
   -0.11707E-21        -0.16445E-20         0.00000E+00
   -0.14040E-21        -0.16228E-20         0.00000E+00
   -0.25131E-21        -0.15410E-20         0.00000E+00
   -0.41173E-21        -0.14146E-20         0.00000E+00
   -0.41109E-21        -0.14009E-20         0.00000E+00
   -0.28027E-21        -0.13434E-20         0.00000E+00
   -0.17456E-21        -0.12150E-20         0.00000E+00
   -0.17082E-21        -0.11466E-20         0.00000E+00
   -0.19690E-21        -0.10857E-20         0.00000E+00
   -0.17181E-21        -0.98057E-21         0.00000E+00
   -0.28417E-21        -0.84893E-21         0.00000E+00
   -0.37612E-21        -0.68196E-21         0.00000E+00
   -0.33081E-21        -0.62205E-21         0.00000E+00
   -0.34518E-21        -0.55969E-21         0.00000E+00
   -0.42969E-21        -0.39093E-21         0.00000E+00
   -0.38030E-21        -0.26892E-21         0.00000E+00
   -0.34490E-21        -0.17327E-21         0.00000E+00
   -0.35405E-21        -0.83596E-22         0.00000E+00
   -0.34575E-21        -0.36895E-22         0.00000E+00
    0.00000E+00        -0.14086E-20         0.00000E+00
    0.31989E-22        -0.15768E-20         0.00000E+00
    0.42217E-22        -0.17865E-20         0.00000E+00
   -0.13251E-21        -0.17800E-20         0.00000E+00
   -0.14470E-21        -0.16833E-20         0.00000E+00
   -0.48395E-22        -0.16601E-20         0.00000E+00
   -0.11611E-21        -0.16660E-20         0.00000E+00
   -0.41744E-22        -0.15365E-20         0.00000E+00
   -0.14637E-21        -0.14126E-20         0.00000E+00
   -0.24681E-21        -0.14105E-20         0.00000E+00
   -0.25135E-21        -0.14005E-20         0.00000E+00
   -0.25015E-21        -0.13831E-20         0.00000E+00
   -0.16673E-21        -0.12944E-20         0.00000E+00
   -0.14741E-21        -0.11315E-20         0.00000E+00
   -0.20795E-21        -0.10533E-20         0.00000E+00
   -0.21599E-21        -0.93713E-21         0.00000E+00
   -0.23359E-21        -0.77278E-21         0.00000E+00
   -0.25585E-21        -0.69540E-21         0.00000E+00
   -0.22143E-21        -0.63399E-21         0.00000E+00
   -0.28266E-21        -0.49632E-21         0.00000E+00
   -0.29076E-21        -0.37514E-21         0.00000E+00
   -0.28391E-21        -0.30463E-21         0.00000E+00
   -0.28064E-21        -0.19053E-21         0.00000E+00
   -0.27525E-21        -0.87263E-22         0.00000E+00
   -0.26690E-21        -0.52192E-22         0.00000E+00
    0.00000E+00        -0.15504E-20         0.00000E+00
    0.16136E-21        -0.15992E-20         0.00000E+00
    0.51928E-22        -0.16511E-20         0.00000E+00
   -0.31972E-22        -0.16624E-20         0.00000E+00
   -0.10740E-21        -0.17399E-20         0.00000E+00
   -0.38598E-22        -0.16757E-20         0.00000E+00
   -0.32671E-22        -0.16512E-20         0.00000E+00
   -0.61473E-22        -0.15925E-20         0.00000E+00
   -0.47594E-22        -0.13360E-20         0.00000E+00
   -0.88583E-22        -0.13096E-20         0.00000E+00
   -0.90811E-22        -0.13976E-20         0.00000E+00
   -0.89765E-22        -0.14280E-20         0.00000E+00
   -0.16577E-21        -0.13177E-20         0.00000E+00
   -0.15915E-21        -0.11053E-20         0.00000E+00
   -0.17426E-21        -0.10171E-20         0.00000E+00
   -0.17652E-21        -0.95493E-21         0.00000E+00
   -0.14746E-21        -0.80908E-21         0.00000E+00
   -0.14523E-21        -0.69412E-21         0.00000E+00
   -0.14566E-21        -0.59524E-21         0.00000E+00
   -0.17075E-21        -0.49036E-21         0.00000E+00
   -0.15217E-21        -0.38967E-21         0.00000E+00
   -0.16656E-21        -0.27904E-21         0.00000E+00
   -0.17867E-21        -0.18193E-21         0.00000E+00
   -0.17276E-21        -0.97334E-22         0.00000E+00
   -0.17427E-21        -0.53602E-22         0.00000E+00
    0.00000E+00        -0.17314E-20         0.00000E+00
    0.16069E-21        -0.16287E-20         0.00000E+00
    0.11113E-21        -0.15931E-20         0.00000E+00
    0.62320E-22        -0.16207E-20         0.00000E+00
    0.12884E-22        -0.16767E-20         0.00000E+00
   -0.14531E-22        -0.17348E-20         0.00000E+00
    0.78649E-22        -0.16431E-20         0.00000E+00
   -0.55118E-22        -0.15216E-20         0.00000E+00
   -0.88037E-22        -0.13855E-20         0.00000E+00
    0.56268E-23        -0.13673E-20         0.00000E+00
    0.33433E-22        -0.13993E-20         0.00000E+00
    0.51349E-22        -0.13082E-20         0.00000E+00
   -0.99435E-22        -0.12250E-20         0.00000E+00
   -0.10729E-21        -0.11230E-20         0.00000E+00
   -0.86964E-22        -0.10359E-20         0.00000E+00
   -0.74055E-22        -0.96393E-21         0.00000E+00
   -0.10764E-21        -0.80407E-21         0.00000E+00
   -0.85280E-22        -0.69720E-21         0.00000E+00
   -0.65084E-22        -0.60846E-21         0.00000E+00
   -0.72623E-22        -0.48980E-21         0.00000E+00
   -0.80771E-22        -0.37934E-21         0.00000E+00
   -0.87600E-22        -0.27813E-21         0.00000E+00
   -0.79608E-22        -0.18432E-21         0.00000E+00
   -0.76415E-22        -0.91667E-22         0.00000E+00
   -0.84157E-22        -0.49176E-22         0.00000E+00
    0.00000E+00        -0.18718E-20         0.00000E+00
    0.14041E-21        -0.17103E-20         0.00000E+00
    0.16321E-21        -0.15528E-20         0.00000E+00
    0.59708E-22        -0.15641E-20         0.00000E+00
    0.49997E-22        -0.16630E-20         0.00000E+00
    0.32413E-22        -0.17414E-20         0.00000E+00
    0.63165E-22        -0.16106E-20         0.00000E+00
   -0.32706E-22        -0.14258E-20         0.00000E+00
   -0.12831E-21        -0.13967E-20         0.00000E+00
   -0.10194E-22        -0.14310E-20         0.00000E+00
   -0.83981E-24        -0.14433E-20         0.00000E+00
    0.77827E-22        -0.12952E-20         0.00000E+00
   -0.26821E-22        -0.11591E-20         0.00000E+00
   -0.53979E-22        -0.11178E-20         0.00000E+00
   -0.37169E-22        -0.10503E-20         0.00000E+00
   -0.25127E-22        -0.93426E-21         0.00000E+00
   -0.96518E-22        -0.79785E-21         0.00000E+00
   -0.37554E-22        -0.73667E-21         0.00000E+00
   -0.17574E-22        -0.60789E-21         0.00000E+00
   -0.38687E-22        -0.47468E-21         0.00000E+00
   -0.47832E-22        -0.37469E-21         0.00000E+00
   -0.47975E-22        -0.28020E-21         0.00000E+00
   -0.43681E-22        -0.19312E-21         0.00000E+00
   -0.30390E-22        -0.92785E-22         0.00000E+00
   -0.41447E-22        -0.38119E-22         0.00000E+00
CELL_DATA       1152
TENSORS stressef double 
   -0.69268E+05         0.61812E+03         0.00000E+00
    0.61812E+03        -0.99344E+05         0.00000E+00
    0.00000E+00         0.00000E+00        -0.50584E+05
 
   -0.36011E+05         0.35672E+04         0.00000E+00
    0.35672E+04        -0.95065E+05         0.00000E+00
    0.00000E+00         0.00000E+00        -0.39323E+05
 
   -0.16312E+05         0.53464E+04         0.00000E+00
    0.53464E+04        -0.85331E+05         0.00000E+00
    0.00000E+00         0.00000E+00        -0.30493E+05
 
   -0.65784E+04         0.51471E+04         0.00000E+00
    0.51471E+04        -0.74779E+05         0.00000E+00
    0.00000E+00         0.00000E+00        -0.24407E+05
 
   -0.17946E+04         0.43655E+04         0.00000E+00
    0.43655E+04        -0.65457E+05         0.00000E+00
    0.00000E+00         0.00000E+00        -0.20176E+05
 
    0.59132E+03         0.35678E+04         0.00000E+00
    0.35678E+04        -0.57722E+05         0.00000E+00
    0.00000E+00         0.00000E+00        -0.17139E+05
 
    0.17586E+04         0.28931E+04         0.00000E+00
    0.28931E+04        -0.51418E+05         0.00000E+00
    0.00000E+00         0.00000E+00        -0.14898E+05
 
    0.22749E+04         0.23539E+04         0.00000E+00
    0.23539E+04        -0.46287E+05         0.00000E+00
    0.00000E+00         0.00000E+00        -0.13204E+05
 
    0.24247E+04         0.19294E+04         0.00000E+00
    0.19294E+04        -0.42086E+05         0.00000E+00
    0.00000E+00         0.00000E+00        -0.11899E+05
 
    0.23569E+04         0.15951E+04         0.00000E+00
    0.15951E+04        -0.38622E+05         0.00000E+00
    0.00000E+00         0.00000E+00        -0.10879E+05
 
    0.21519E+04         0.13299E+04         0.00000E+00
    0.13299E+04        -0.35741E+05         0.00000E+00
    0.00000E+00         0.00000E+00        -0.10077E+05
 
    0.18536E+04         0.11176E+04         0.00000E+00
    0.11176E+04        -0.33326E+05         0.00000E+00
    0.00000E+00         0.00000E+00        -0.94416E+04
 
    0.14857E+04         0.94618E+03         0.00000E+00
    0.94618E+03        -0.31286E+05         0.00000E+00
    0.00000E+00         0.00000E+00        -0.89401E+04
 
    0.10595E+04         0.80664E+03         0.00000E+00
    0.80664E+03        -0.29552E+05         0.00000E+00
    0.00000E+00         0.00000E+00        -0.85476E+04
 
    0.57902E+03         0.69240E+03         0.00000E+00
    0.69240E+03        -0.28067E+05         0.00000E+00
    0.00000E+00         0.00000E+00        -0.82463E+04
 
    0.42690E+02         0.59865E+03         0.00000E+00
    0.59865E+03        -0.26787E+05         0.00000E+00
    0.00000E+00         0.00000E+00        -0.80232E+04
 
   -0.55501E+03         0.52194E+03         0.00000E+00
    0.52194E+03        -0.25675E+05         0.00000E+00
    0.00000E+00         0.00000E+00        -0.78690E+04
 
   -0.12232E+04         0.45980E+03         0.00000E+00
    0.45980E+03        -0.24700E+05         0.00000E+00
    0.00000E+00         0.00000E+00        -0.77770E+04
 
   -0.19745E+04         0.41065E+03         0.00000E+00
    0.41065E+03        -0.23836E+05         0.00000E+00
    0.00000E+00         0.00000E+00        -0.77430E+04
 
   -0.28255E+04         0.37360E+03         0.00000E+00
    0.37360E+03        -0.23056E+05         0.00000E+00
    0.00000E+00         0.00000E+00        -0.77645E+04
 
   -0.37968E+04         0.34843E+03         0.00000E+00
    0.34843E+03        -0.22338E+05         0.00000E+00
    0.00000E+00         0.00000E+00        -0.78406E+04
 
   -0.49148E+04         0.33562E+03         0.00000E+00
    0.33562E+03        -0.21658E+05         0.00000E+00
    0.00000E+00         0.00000E+00        -0.79719E+04
 
   -0.62125E+04         0.33637E+03         0.00000E+00
    0.33637E+03        -0.20990E+05         0.00000E+00
    0.00000E+00         0.00000E+00        -0.81608E+04
 
   -0.77313E+04         0.35280E+03         0.00000E+00
    0.35280E+03        -0.20305E+05         0.00000E+00
    0.00000E+00         0.00000E+00        -0.84109E+04
 
   -0.64581E+05         0.30733E+04         0.00000E+00
    0.30733E+04        -0.99316E+05         0.00000E+00
    0.00000E+00         0.00000E+00        -0.49169E+05
 
   -0.30576E+05         0.13481E+05         0.00000E+00
    0.13481E+05        -0.87764E+05         0.00000E+00
    0.00000E+00         0.00000E+00        -0.35502E+05
 
   -0.15864E+05         0.15997E+05         0.00000E+00
    0.15997E+05        -0.76817E+05         0.00000E+00
    0.00000E+00         0.00000E+00        -0.27804E+05
 
   -0.79189E+04         0.14598E+05         0.00000E+00
    0.14598E+05        -0.67775E+05         0.00000E+00
    0.00000E+00         0.00000E+00        -0.22708E+05
 
   -0.33863E+04         0.12296E+05         0.00000E+00
    0.12296E+05        -0.60185E+05         0.00000E+00
    0.00000E+00         0.00000E+00        -0.19071E+05
 
   -0.82163E+03         0.10092E+05         0.00000E+00
    0.10092E+05        -0.53839E+05         0.00000E+00
    0.00000E+00         0.00000E+00        -0.16398E+05
 
    0.60624E+03         0.82403E+04         0.00000E+00
    0.82403E+04        -0.48548E+05         0.00000E+00
    0.00000E+00         0.00000E+00        -0.14383E+05
 
    0.13593E+04         0.67507E+04         0.00000E+00
    0.67507E+04        -0.44137E+05         0.00000E+00
    0.00000E+00         0.00000E+00        -0.12833E+05
 
    0.17006E+04         0.55668E+04         0.00000E+00
    0.55668E+04        -0.40449E+05         0.00000E+00
    0.00000E+00         0.00000E+00        -0.11625E+05
 
    0.17820E+04         0.46256E+04         0.00000E+00
    0.46256E+04        -0.37352E+05         0.00000E+00
    0.00000E+00         0.00000E+00        -0.10671E+05
 
    0.16919E+04         0.38730E+04         0.00000E+00
    0.38730E+04        -0.34739E+05         0.00000E+00
    0.00000E+00         0.00000E+00        -0.99140E+04
 
    0.14824E+04         0.32663E+04         0.00000E+00
    0.32663E+04        -0.32521E+05         0.00000E+00
    0.00000E+00         0.00000E+00        -0.93115E+04
 
    0.11837E+04         0.27735E+04         0.00000E+00
    0.27735E+04        -0.30629E+05         0.00000E+00
    0.00000E+00         0.00000E+00        -0.88336E+04
 
    0.81227E+03         0.23704E+04         0.00000E+00
    0.23704E+04        -0.29007E+05         0.00000E+00
    0.00000E+00         0.00000E+00        -0.84583E+04
 
    0.37585E+03         0.20391E+04         0.00000E+00
    0.20391E+04        -0.27607E+05         0.00000E+00
    0.00000E+00         0.00000E+00        -0.81695E+04
 
   -0.12420E+03         0.17664E+04         0.00000E+00
    0.17664E+04        -0.26394E+05         0.00000E+00
    0.00000E+00         0.00000E+00        -0.79554E+04
 
   -0.69121E+03         0.15426E+04         0.00000E+00
    0.15426E+04        -0.25334E+05         0.00000E+00
    0.00000E+00         0.00000E+00        -0.78075E+04
 
   -0.13325E+04         0.13611E+04         0.00000E+00
    0.13611E+04        -0.24400E+05         0.00000E+00
    0.00000E+00         0.00000E+00        -0.77198E+04
 
   -0.20594E+04         0.12173E+04         0.00000E+00
    0.12173E+04        -0.23568E+05         0.00000E+00
    0.00000E+00         0.00000E+00        -0.76882E+04
 
   -0.28868E+04         0.11089E+04         0.00000E+00
    0.11089E+04        -0.22815E+05         0.00000E+00
    0.00000E+00         0.00000E+00        -0.77105E+04
 
   -0.38343E+04         0.10354E+04         0.00000E+00
    0.10354E+04        -0.22118E+05         0.00000E+00
    0.00000E+00         0.00000E+00        -0.77858E+04
 
   -0.49269E+04         0.99828E+03         0.00000E+00
    0.99828E+03        -0.21457E+05         0.00000E+00
    0.00000E+00         0.00000E+00        -0.79150E+04
 
   -0.61959E+04         0.10012E+04         0.00000E+00
    0.10012E+04        -0.20805E+05         0.00000E+00
    0.00000E+00         0.00000E+00        -0.81002E+04
 
   -0.76807E+04         0.10503E+04         0.00000E+00
    0.10503E+04        -0.20135E+05         0.00000E+00
    0.00000E+00         0.00000E+00        -0.83448E+04
 
   -0.48122E+05         0.17594E+05         0.00000E+00
    0.17594E+05        -0.74889E+05         0.00000E+00
    0.00000E+00         0.00000E+00        -0.36903E+05
 
   -0.26322E+05         0.25407E+05         0.00000E+00
    0.25407E+05        -0.65491E+05         0.00000E+00
    0.00000E+00         0.00000E+00        -0.27544E+05
 
   -0.17169E+05         0.24191E+05         0.00000E+00
    0.24191E+05        -0.59592E+05         0.00000E+00
    0.00000E+00         0.00000E+00        -0.23028E+05
 
   -0.10622E+05         0.21198E+05         0.00000E+00
    0.21198E+05        -0.54922E+05         0.00000E+00
    0.00000E+00         0.00000E+00        -0.19663E+05
 
   -0.61871E+04         0.17918E+05         0.00000E+00
    0.17918E+05        -0.50728E+05         0.00000E+00
    0.00000E+00         0.00000E+00        -0.17074E+05
 
   -0.32687E+04         0.14922E+05         0.00000E+00
    0.14922E+05        -0.46857E+05         0.00000E+00
    0.00000E+00         0.00000E+00        -0.15038E+05
 
   -0.14113E+04         0.12380E+05         0.00000E+00
    0.12380E+05        -0.43337E+05         0.00000E+00
    0.00000E+00         0.00000E+00        -0.13424E+05
 
   -0.26890E+03         0.10288E+05         0.00000E+00
    0.10288E+05        -0.40189E+05         0.00000E+00
    0.00000E+00         0.00000E+00        -0.12137E+05
 
    0.39331E+03         0.85882E+04         0.00000E+00
    0.85882E+04        -0.37409E+05         0.00000E+00
    0.00000E+00         0.00000E+00        -0.11105E+05
 
    0.72979E+03         0.72088E+04         0.00000E+00
    0.72088E+04        -0.34972E+05         0.00000E+00
    0.00000E+00         0.00000E+00        -0.10273E+05
 
    0.84026E+03         0.60866E+04         0.00000E+00
    0.60866E+04        -0.32844E+05         0.00000E+00
    0.00000E+00         0.00000E+00        -0.96011E+04
 
    0.78849E+03         0.51691E+04         0.00000E+00
    0.51691E+04        -0.30989E+05         0.00000E+00
    0.00000E+00         0.00000E+00        -0.90600E+04
 
    0.61470E+03         0.44149E+04         0.00000E+00
    0.44149E+04        -0.29370E+05         0.00000E+00
    0.00000E+00         0.00000E+00        -0.86267E+04
 
    0.34344E+03         0.37919E+04         0.00000E+00
    0.37919E+04        -0.27957E+05         0.00000E+00
    0.00000E+00         0.00000E+00        -0.82840E+04
 
   -0.11429E+02         0.32759E+04         0.00000E+00
    0.32759E+04        -0.26719E+05         0.00000E+00
    0.00000E+00         0.00000E+00        -0.80191E+04
 
   -0.44366E+03         0.28484E+04         0.00000E+00
    0.28484E+04        -0.25631E+05         0.00000E+00
    0.00000E+00         0.00000E+00        -0.78224E+04
 
   -0.95275E+03         0.24959E+04         0.00000E+00
    0.24959E+04        -0.24670E+05         0.00000E+00
    0.00000E+00         0.00000E+00        -0.76868E+04
 
   -0.15430E+04         0.22089E+04         0.00000E+00
    0.22089E+04        -0.23814E+05         0.00000E+00
    0.00000E+00         0.00000E+00        -0.76071E+04
 
   -0.22228E+04         0.19811E+04         0.00000E+00
    0.19811E+04        -0.23044E+05         0.00000E+00
    0.00000E+00         0.00000E+00        -0.75801E+04
 
   -0.30048E+04         0.18094E+04         0.00000E+00
    0.18094E+04        -0.22341E+05         0.00000E+00
    0.00000E+00         0.00000E+00        -0.76039E+04
 
   -0.39062E+04         0.16934E+04         0.00000E+00
    0.16934E+04        -0.21687E+05         0.00000E+00
    0.00000E+00         0.00000E+00        -0.76779E+04
 
   -0.49492E+04         0.16357E+04         0.00000E+00
    0.16357E+04        -0.21060E+05         0.00000E+00
    0.00000E+00         0.00000E+00        -0.78028E+04
 
   -0.61621E+04         0.16424E+04         0.00000E+00
    0.16424E+04        -0.20440E+05         0.00000E+00
    0.00000E+00         0.00000E+00        -0.79807E+04
 
   -0.75807E+04         0.17238E+04         0.00000E+00
    0.17238E+04        -0.19802E+05         0.00000E+00
    0.00000E+00         0.00000E+00        -0.82148E+04
 
   -0.22457E+05         0.17640E+05         0.00000E+00
    0.17640E+05        -0.25090E+05         0.00000E+00
    0.00000E+00         0.00000E+00        -0.14264E+05
 
   -0.25864E+05         0.25944E+05         0.00000E+00
    0.25944E+05        -0.33925E+05         0.00000E+00
    0.00000E+00         0.00000E+00        -0.17937E+05
 
   -0.19351E+05         0.25462E+05         0.00000E+00
    0.25462E+05        -0.37966E+05         0.00000E+00
    0.00000E+00         0.00000E+00        -0.17195E+05
 
   -0.13710E+05         0.23127E+05         0.00000E+00
    0.23127E+05        -0.39342E+05         0.00000E+00
    0.00000E+00         0.00000E+00        -0.15916E+05
 
   -0.92865E+04         0.20259E+05         0.00000E+00
    0.20259E+05        -0.39182E+05         0.00000E+00
    0.00000E+00         0.00000E+00        -0.14540E+05
 
   -0.60619E+04         0.17422E+05         0.00000E+00
    0.17422E+05        -0.38161E+05         0.00000E+00
    0.00000E+00         0.00000E+00        -0.13267E+05
 
   -0.38002E+04         0.14850E+05         0.00000E+00
    0.14850E+05        -0.36697E+05         0.00000E+00
    0.00000E+00         0.00000E+00        -0.12149E+05
 
   -0.22636E+04         0.12620E+05         0.00000E+00
    0.12620E+05        -0.35050E+05         0.00000E+00
    0.00000E+00         0.00000E+00        -0.11194E+05
 
   -0.12555E+04         0.10729E+05         0.00000E+00
    0.10729E+05        -0.33376E+05         0.00000E+00
    0.00000E+00         0.00000E+00        -0.10389E+05
 
   -0.62967E+03         0.91414E+04         0.00000E+00
    0.91414E+04        -0.31762E+05         0.00000E+00
    0.00000E+00         0.00000E+00        -0.97175E+04
 
   -0.28216E+03         0.78138E+04         0.00000E+00
    0.78138E+04        -0.30253E+05         0.00000E+00
    0.00000E+00         0.00000E+00        -0.91606E+04
 
   -0.14109E+03         0.67039E+04         0.00000E+00
    0.67039E+04        -0.28868E+05         0.00000E+00
    0.00000E+00         0.00000E+00        -0.87028E+04
 
   -0.15778E+03         0.57748E+04         0.00000E+00
    0.57748E+04        -0.27611E+05         0.00000E+00
    0.00000E+00         0.00000E+00        -0.83307E+04
 
   -0.30007E+03         0.49961E+04         0.00000E+00
    0.49961E+04        -0.26477E+05         0.00000E+00
    0.00000E+00         0.00000E+00        -0.80331E+04
 
   -0.54769E+03         0.43432E+04         0.00000E+00
    0.43432E+04        -0.25458E+05         0.00000E+00
    0.00000E+00         0.00000E+00        -0.78016E+04
 
   -0.88909E+03         0.37973E+04         0.00000E+00
    0.37973E+04        -0.24541E+05         0.00000E+00
    0.00000E+00         0.00000E+00        -0.76291E+04
 
   -0.13193E+04         0.33438E+04         0.00000E+00
    0.33438E+04        -0.23716E+05         0.00000E+00
    0.00000E+00         0.00000E+00        -0.75106E+04
 
   -0.18389E+04         0.29727E+04         0.00000E+00
    0.29727E+04        -0.22969E+05         0.00000E+00
    0.00000E+00         0.00000E+00        -0.74423E+04
 
   -0.24529E+04         0.26773E+04         0.00000E+00
    0.26773E+04        -0.22286E+05         0.00000E+00
    0.00000E+00         0.00000E+00        -0.74217E+04
 
   -0.31707E+04         0.24546E+04         0.00000E+00
    0.24546E+04        -0.21654E+05         0.00000E+00
    0.00000E+00         0.00000E+00        -0.74475E+04
 
   -0.40062E+04         0.23049E+04         0.00000E+00
    0.23049E+04        -0.21058E+05         0.00000E+00
    0.00000E+00         0.00000E+00        -0.75194E+04
 
   -0.49781E+04         0.22325E+04         0.00000E+00
    0.22325E+04        -0.20482E+05         0.00000E+00
    0.00000E+00         0.00000E+00        -0.76381E+04
 
   -0.61103E+04         0.22459E+04         0.00000E+00
    0.22459E+04        -0.19908E+05         0.00000E+00
    0.00000E+00         0.00000E+00        -0.78055E+04
 
   -0.74335E+04         0.23587E+04         0.00000E+00
    0.23587E+04        -0.19314E+05         0.00000E+00
    0.00000E+00         0.00000E+00        -0.80243E+04
 
   -0.54729E+04         0.32381E+04         0.00000E+00
    0.32381E+04        -0.64123E+03         0.00000E+00
    0.00000E+00         0.00000E+00        -0.18342E+04
 
   -0.20250E+05         0.15274E+05         0.00000E+00
    0.15274E+05        -0.11420E+05         0.00000E+00
    0.00000E+00         0.00000E+00        -0.95010E+04
 
   -0.19185E+05         0.20104E+05         0.00000E+00
    0.20104E+05        -0.19980E+05         0.00000E+00
    0.00000E+00         0.00000E+00        -0.11750E+05
 
   -0.15355E+05         0.20644E+05         0.00000E+00
    0.20644E+05        -0.25158E+05         0.00000E+00
    0.00000E+00         0.00000E+00        -0.12154E+05
 
   -0.11573E+05         0.19462E+05         0.00000E+00
    0.19462E+05        -0.27999E+05         0.00000E+00
    0.00000E+00         0.00000E+00        -0.11872E+05
 
   -0.84367E+04         0.17615E+05         0.00000E+00
    0.17615E+05        -0.29315E+05         0.00000E+00
    0.00000E+00         0.00000E+00        -0.11325E+05
 
   -0.60220E+04         0.15604E+05         0.00000E+00
    0.15604E+05        -0.29664E+05         0.00000E+00
    0.00000E+00         0.00000E+00        -0.10706E+05
 
   -0.42404E+04         0.13665E+05         0.00000E+00
    0.13665E+05        -0.29422E+05         0.00000E+00
    0.00000E+00         0.00000E+00        -0.10099E+05
 
   -0.29697E+04         0.11898E+05         0.00000E+00
    0.11898E+05        -0.28835E+05         0.00000E+00
    0.00000E+00         0.00000E+00        -0.95415E+04
 
   -0.20966E+04         0.10335E+05         0.00000E+00
    0.10335E+05        -0.28064E+05         0.00000E+00
    0.00000E+00         0.00000E+00        -0.90483E+04
 
   -0.15295E+04         0.89743E+04         0.00000E+00
    0.89743E+04        -0.27211E+05         0.00000E+00
    0.00000E+00         0.00000E+00        -0.86221E+04
 
   -0.11988E+04         0.78009E+04         0.00000E+00
    0.78009E+04        -0.26338E+05         0.00000E+00
    0.00000E+00         0.00000E+00        -0.82610E+04
 
   -0.10536E+04         0.67939E+04         0.00000E+00
    0.67939E+04        -0.25482E+05         0.00000E+00
    0.00000E+00         0.00000E+00        -0.79608E+04
 
   -0.10579E+04         0.59329E+04         0.00000E+00
    0.59329E+04        -0.24666E+05         0.00000E+00
    0.00000E+00         0.00000E+00        -0.77171E+04
 
   -0.11870E+04         0.51996E+04         0.00000E+00
    0.51996E+04        -0.23898E+05         0.00000E+00
    0.00000E+00         0.00000E+00        -0.75256E+04
 
   -0.14253E+04         0.45786E+04         0.00000E+00
    0.45786E+04        -0.23183E+05         0.00000E+00
    0.00000E+00         0.00000E+00        -0.73824E+04
 
   -0.17638E+04         0.40579E+04         0.00000E+00
    0.40579E+04        -0.22519E+05         0.00000E+00
    0.00000E+00         0.00000E+00        -0.72847E+04
 
   -0.21994E+04         0.36288E+04         0.00000E+00
    0.36288E+04        -0.21901E+05         0.00000E+00
    0.00000E+00         0.00000E+00        -0.72302E+04
 
   -0.27336E+04         0.32860E+04         0.00000E+00
    0.32860E+04        -0.21324E+05         0.00000E+00
    0.00000E+00         0.00000E+00        -0.72174E+04
 
   -0.33725E+04         0.30277E+04         0.00000E+00
    0.30277E+04        -0.20779E+05         0.00000E+00
    0.00000E+00         0.00000E+00        -0.72455E+04
 
   -0.41261E+04         0.28557E+04         0.00000E+00
    0.28557E+04        -0.20256E+05         0.00000E+00
    0.00000E+00         0.00000E+00        -0.73145E+04
 
   -0.50087E+04         0.27759E+04         0.00000E+00
    0.27759E+04        -0.19742E+05         0.00000E+00
    0.00000E+00         0.00000E+00        -0.74253E+04
 
   -0.60395E+04         0.27991E+04         0.00000E+00
    0.27991E+04        -0.19225E+05         0.00000E+00
    0.00000E+00         0.00000E+00        -0.75793E+04
 
   -0.72424E+04         0.29422E+04         0.00000E+00
    0.29422E+04        -0.18687E+05         0.00000E+00
    0.00000E+00         0.00000E+00        -0.77788E+04
 
    0.48349E+03         0.10065E+04         0.00000E+00
    0.10065E+04        -0.58769E+03         0.00000E+00
    0.00000E+00         0.00000E+00        -0.31258E+02
 
   -0.11757E+05         0.73085E+04         0.00000E+00
    0.73085E+04        -0.33812E+04         0.00000E+00
    0.00000E+00         0.00000E+00        -0.45414E+04
 
   -0.15764E+05         0.13257E+05         0.00000E+00
    0.13257E+05        -0.94797E+04         0.00000E+00
    0.00000E+00         0.00000E+00        -0.75730E+04
 
   -0.14785E+05         0.16060E+05         0.00000E+00
    0.16060E+05        -0.14942E+05         0.00000E+00
    0.00000E+00         0.00000E+00        -0.89181E+04
 
   -0.12401E+05         0.16680E+05         0.00000E+00
    0.16680E+05        -0.18915E+05         0.00000E+00
    0.00000E+00         0.00000E+00        -0.93948E+04
 
   -0.98842E+04         0.16111E+05         0.00000E+00
    0.16111E+05        -0.21533E+05         0.00000E+00
    0.00000E+00         0.00000E+00        -0.94250E+04
 
   -0.76752E+04         0.14962E+05         0.00000E+00
    0.14962E+05        -0.23107E+05         0.00000E+00
    0.00000E+00         0.00000E+00        -0.92346E+04
 
   -0.58872E+04         0.13584E+05         0.00000E+00
    0.13584E+05        -0.23933E+05         0.00000E+00
    0.00000E+00         0.00000E+00        -0.89461E+04
 
   -0.45086E+04         0.12167E+05         0.00000E+00
    0.12167E+05        -0.24245E+05         0.00000E+00
    0.00000E+00         0.00000E+00        -0.86261E+04
 
   -0.34866E+04         0.10813E+05         0.00000E+00
    0.10813E+05        -0.24215E+05         0.00000E+00
    0.00000E+00         0.00000E+00        -0.83105E+04
 
   -0.27606E+04         0.95666E+04         0.00000E+00
    0.95666E+04        -0.23966E+05         0.00000E+00
    0.00000E+00         0.00000E+00        -0.80180E+04
 
   -0.22764E+04         0.84456E+04         0.00000E+00
    0.84456E+04        -0.23584E+05         0.00000E+00
    0.00000E+00         0.00000E+00        -0.77581E+04
 
   -0.19894E+04         0.74521E+04         0.00000E+00
    0.74521E+04        -0.23126E+05         0.00000E+00
    0.00000E+00         0.00000E+00        -0.75347E+04
 
   -0.18654E+04         0.65809E+04         0.00000E+00
    0.65809E+04        -0.22632E+05         0.00000E+00
    0.00000E+00         0.00000E+00        -0.73492E+04
 
   -0.18791E+04         0.58239E+04         0.00000E+00
    0.58239E+04        -0.22126E+05         0.00000E+00
    0.00000E+00         0.00000E+00        -0.72014E+04
 
   -0.20128E+04         0.51728E+04         0.00000E+00
    0.51728E+04        -0.21623E+05         0.00000E+00
    0.00000E+00         0.00000E+00        -0.70906E+04
 
   -0.22551E+04         0.46204E+04         0.00000E+00
    0.46204E+04        -0.21131E+05         0.00000E+00
    0.00000E+00         0.00000E+00        -0.70160E+04
 
   -0.26002E+04         0.41615E+04         0.00000E+00
    0.41615E+04        -0.20656E+05         0.00000E+00
    0.00000E+00         0.00000E+00        -0.69767E+04
 
   -0.30464E+04         0.37935E+04         0.00000E+00
    0.37935E+04        -0.20195E+05         0.00000E+00
    0.00000E+00         0.00000E+00        -0.69724E+04
 
   -0.35962E+04         0.35166E+04         0.00000E+00
    0.35166E+04        -0.19746E+05         0.00000E+00
    0.00000E+00         0.00000E+00        -0.70028E+04
 
   -0.42560E+04         0.33346E+04         0.00000E+00
    0.33346E+04        -0.19305E+05         0.00000E+00
    0.00000E+00         0.00000E+00        -0.70683E+04
 
   -0.50356E+04         0.32555E+04         0.00000E+00
    0.32555E+04        -0.18863E+05         0.00000E+00
    0.00000E+00         0.00000E+00        -0.71695E+04
 
   -0.59484E+04         0.32921E+04         0.00000E+00
    0.32921E+04        -0.18411E+05         0.00000E+00
    0.00000E+00         0.00000E+00        -0.73079E+04
 
   -0.70118E+04         0.34638E+04         0.00000E+00
    0.34638E+04        -0.17938E+05         0.00000E+00
    0.00000E+00         0.00000E+00        -0.74850E+04
 
    0.32281E+04         0.38100E+03         0.00000E+00
    0.38100E+03        -0.78819E+02         0.00000E+00
    0.00000E+00         0.00000E+00         0.94478E+03
 
   -0.63738E+04         0.38495E+04         0.00000E+00
    0.38495E+04        -0.14772E+04         0.00000E+00
    0.00000E+00         0.00000E+00        -0.23553E+04
 
   -0.11415E+05         0.82619E+04         0.00000E+00
    0.82619E+04        -0.46528E+04         0.00000E+00
    0.00000E+00         0.00000E+00        -0.48203E+04
 
   -0.12696E+05         0.11567E+05         0.00000E+00
    0.11567E+05        -0.87216E+04         0.00000E+00
    0.00000E+00         0.00000E+00        -0.64252E+04
 
   -0.11889E+05         0.13263E+05         0.00000E+00
    0.13263E+05        -0.12441E+05         0.00000E+00
    0.00000E+00         0.00000E+00        -0.72991E+04
 
   -0.10311E+05         0.13734E+05         0.00000E+00
    0.13734E+05        -0.15390E+05         0.00000E+00
    0.00000E+00         0.00000E+00        -0.77103E+04
 
   -0.85983E+04         0.13429E+05         0.00000E+00
    0.13429E+05        -0.17543E+05         0.00000E+00
    0.00000E+00         0.00000E+00        -0.78425E+04
 
   -0.70324E+04         0.12684E+05         0.00000E+00
    0.12684E+05        -0.19016E+05         0.00000E+00
    0.00000E+00         0.00000E+00        -0.78145E+04
 
   -0.57149E+04         0.11723E+05         0.00000E+00
    0.11723E+05        -0.19953E+05         0.00000E+00
    0.00000E+00         0.00000E+00        -0.77004E+04
 
   -0.46640E+04         0.10685E+05         0.00000E+00
    0.10685E+05        -0.20490E+05         0.00000E+00
    0.00000E+00         0.00000E+00        -0.75462E+04
 
   -0.38626E+04         0.96526E+04         0.00000E+00
    0.96526E+04        -0.20736E+05         0.00000E+00
    0.00000E+00         0.00000E+00        -0.73796E+04
 
   -0.32815E+04         0.86711E+04         0.00000E+00
    0.86711E+04        -0.20777E+05         0.00000E+00
    0.00000E+00         0.00000E+00        -0.72177E+04
 
   -0.28904E+04         0.77649E+04         0.00000E+00
    0.77649E+04        -0.20677E+05         0.00000E+00
    0.00000E+00         0.00000E+00        -0.70703E+04
 
   -0.26624E+04         0.69449E+04         0.00000E+00
    0.69449E+04        -0.20482E+05         0.00000E+00
    0.00000E+00         0.00000E+00        -0.69433E+04
 
   -0.25754E+04         0.62150E+04         0.00000E+00
    0.62150E+04        -0.20225E+05         0.00000E+00
    0.00000E+00         0.00000E+00        -0.68402E+04
 
   -0.26126E+04         0.55754E+04         0.00000E+00
    0.55754E+04        -0.19930E+05         0.00000E+00
    0.00000E+00         0.00000E+00        -0.67627E+04
 
   -0.27622E+04         0.50252E+04         0.00000E+00
    0.50252E+04        -0.19611E+05         0.00000E+00
    0.00000E+00         0.00000E+00        -0.67120E+04
 
   -0.30164E+04         0.45640E+04         0.00000E+00
    0.45640E+04        -0.19279E+05         0.00000E+00
    0.00000E+00         0.00000E+00        -0.66885E+04
 
   -0.33715E+04         0.41926E+04         0.00000E+00
    0.41926E+04        -0.18938E+05         0.00000E+00
    0.00000E+00         0.00000E+00        -0.66928E+04
 
   -0.38270E+04         0.39142E+04         0.00000E+00
    0.39142E+04        -0.18590E+05         0.00000E+00
    0.00000E+00         0.00000E+00        -0.67252E+04
 
   -0.43857E+04         0.37347E+04         0.00000E+00
    0.37347E+04        -0.18236E+05         0.00000E+00
    0.00000E+00         0.00000E+00        -0.67864E+04
 
   -0.50528E+04         0.36643E+04         0.00000E+00
    0.36643E+04        -0.17870E+05         0.00000E+00
    0.00000E+00         0.00000E+00        -0.68770E+04
 
   -0.58363E+04         0.37176E+04         0.00000E+00
    0.37176E+04        -0.17490E+05         0.00000E+00
    0.00000E+00         0.00000E+00        -0.69979E+04
 
   -0.67464E+04         0.39159E+04         0.00000E+00
    0.39159E+04        -0.17088E+05         0.00000E+00
    0.00000E+00         0.00000E+00        -0.71503E+04
 
    0.45669E+04         0.14594E+03         0.00000E+00
    0.14594E+03        -0.52071E+02         0.00000E+00
    0.00000E+00         0.00000E+00         0.13545E+04
 
   -0.29309E+04         0.21453E+04         0.00000E+00
    0.21453E+04        -0.70813E+03         0.00000E+00
    0.00000E+00         0.00000E+00        -0.10917E+04
 
   -0.78677E+04         0.52211E+04         0.00000E+00
    0.52211E+04        -0.25444E+04         0.00000E+00
    0.00000E+00         0.00000E+00        -0.31236E+04
 
   -0.10168E+05         0.80895E+04         0.00000E+00
    0.80895E+04        -0.52415E+04         0.00000E+00
    0.00000E+00         0.00000E+00        -0.46230E+04
 
   -0.10582E+05         0.10099E+05         0.00000E+00
    0.10099E+05        -0.81899E+04         0.00000E+00
    0.00000E+00         0.00000E+00        -0.56315E+04
 
   -0.99391E+04         0.11170E+05         0.00000E+00
    0.11170E+05        -0.10892E+05         0.00000E+00
    0.00000E+00         0.00000E+00        -0.62492E+04
 
   -0.88464E+04         0.11495E+05         0.00000E+00
    0.11495E+05        -0.13134E+05         0.00000E+00
    0.00000E+00         0.00000E+00        -0.65941E+04
 
   -0.76499E+04         0.11305E+05         0.00000E+00
    0.11305E+05        -0.14878E+05         0.00000E+00
    0.00000E+00         0.00000E+00        -0.67584E+04
 
   -0.65270E+04         0.10795E+05         0.00000E+00
    0.10795E+05        -0.16168E+05         0.00000E+00
    0.00000E+00         0.00000E+00        -0.68086E+04
 
   -0.55561E+04         0.10106E+05         0.00000E+00
    0.10106E+05        -0.17078E+05         0.00000E+00
    0.00000E+00         0.00000E+00        -0.67902E+04
 
   -0.47634E+04         0.93341E+04         0.00000E+00
    0.93341E+04        -0.17684E+05         0.00000E+00
    0.00000E+00         0.00000E+00        -0.67342E+04
 
   -0.41482E+04         0.85438E+04         0.00000E+00
    0.85438E+04        -0.18055E+05         0.00000E+00
    0.00000E+00         0.00000E+00        -0.66611E+04
 
   -0.36987E+04         0.77747E+04         0.00000E+00
    0.77747E+04        -0.18249E+05         0.00000E+00
    0.00000E+00         0.00000E+00        -0.65844E+04
 
   -0.33992E+04         0.70514E+04         0.00000E+00
    0.70514E+04        -0.18311E+05         0.00000E+00
    0.00000E+00         0.00000E+00        -0.65131E+04
 
   -0.32341E+04         0.63885E+04         0.00000E+00
    0.63885E+04        -0.18276E+05         0.00000E+00
    0.00000E+00         0.00000E+00        -0.64530E+04
 
   -0.31899E+04         0.57950E+04         0.00000E+00
    0.57950E+04        -0.18170E+05         0.00000E+00
    0.00000E+00         0.00000E+00        -0.64080E+04
 
   -0.32561E+04         0.52763E+04         0.00000E+00
    0.52763E+04        -0.18013E+05         0.00000E+00
    0.00000E+00         0.00000E+00        -0.63806E+04
 
   -0.34246E+04         0.48372E+04         0.00000E+00
    0.48372E+04        -0.17817E+05         0.00000E+00
    0.00000E+00         0.00000E+00        -0.63726E+04
 
   -0.36904E+04         0.44824E+04         0.00000E+00
    0.44824E+04        -0.17593E+05         0.00000E+00
    0.00000E+00         0.00000E+00        -0.63850E+04
 
   -0.40507E+04         0.42181E+04         0.00000E+00
    0.42181E+04        -0.17346E+05         0.00000E+00
    0.00000E+00         0.00000E+00        -0.64190E+04
 
   -0.45051E+04         0.40527E+04         0.00000E+00
    0.40527E+04        -0.17079E+05         0.00000E+00
    0.00000E+00         0.00000E+00        -0.64751E+04
 
   -0.50549E+04         0.39983E+04         0.00000E+00
    0.39983E+04        -0.16792E+05         0.00000E+00
    0.00000E+00         0.00000E+00        -0.65541E+04
 
   -0.57026E+04         0.40712E+04         0.00000E+00
    0.40712E+04        -0.16486E+05         0.00000E+00
    0.00000E+00         0.00000E+00        -0.66565E+04
 
   -0.64517E+04         0.42934E+04         0.00000E+00
    0.42934E+04        -0.16158E+05         0.00000E+00
    0.00000E+00         0.00000E+00        -0.67828E+04
 
    0.52585E+04         0.27342E+02         0.00000E+00
    0.27342E+02        -0.24802E+02         0.00000E+00
    0.00000E+00         0.00000E+00         0.15701E+04
 
   -0.73847E+03         0.12238E+04         0.00000E+00
    0.12238E+04        -0.40043E+03         0.00000E+00
    0.00000E+00         0.00000E+00        -0.34167E+03
 
   -0.51908E+04         0.33417E+04         0.00000E+00
    0.33417E+04        -0.15001E+04         0.00000E+00
    0.00000E+00         0.00000E+00        -0.20073E+04
 
   -0.78533E+04         0.56212E+04         0.00000E+00
    0.56212E+04        -0.33012E+04         0.00000E+00
    0.00000E+00         0.00000E+00        -0.33463E+04
 
   -0.89950E+04         0.75193E+04         0.00000E+00
    0.75193E+04        -0.54927E+04         0.00000E+00
    0.00000E+00         0.00000E+00        -0.43463E+04
 
   -0.90935E+04         0.88149E+04         0.00000E+00
    0.88149E+04        -0.77363E+04         0.00000E+00
    0.00000E+00         0.00000E+00        -0.50489E+04
 
   -0.85924E+04         0.95157E+04         0.00000E+00
    0.95157E+04        -0.97929E+04         0.00000E+00
    0.00000E+00         0.00000E+00        -0.55156E+04
 
   -0.78144E+04         0.97335E+04         0.00000E+00
    0.97335E+04        -0.11548E+05         0.00000E+00
    0.00000E+00         0.00000E+00        -0.58086E+04
 
   -0.69613E+04         0.96006E+04         0.00000E+00
    0.96006E+04        -0.12971E+05         0.00000E+00
    0.00000E+00         0.00000E+00        -0.59796E+04
 
   -0.61478E+04         0.92343E+04         0.00000E+00
    0.92343E+04        -0.14079E+05         0.00000E+00
    0.00000E+00         0.00000E+00        -0.60681E+04
 
   -0.54322E+04         0.87268E+04         0.00000E+00
    0.87268E+04        -0.14912E+05         0.00000E+00
    0.00000E+00         0.00000E+00        -0.61034E+04
 
   -0.48398E+04         0.81458E+04         0.00000E+00
    0.81458E+04        -0.15515E+05         0.00000E+00
    0.00000E+00         0.00000E+00        -0.61064E+04
 
   -0.43769E+04         0.75393E+04         0.00000E+00
    0.75393E+04        -0.15930E+05         0.00000E+00
    0.00000E+00         0.00000E+00        -0.60921E+04
 
   -0.40404E+04         0.69405E+04         0.00000E+00
    0.69405E+04        -0.16196E+05         0.00000E+00
    0.00000E+00         0.00000E+00        -0.60709E+04
 
   -0.38232E+04         0.63723E+04         0.00000E+00
    0.63723E+04        -0.16345E+05         0.00000E+00
    0.00000E+00         0.00000E+00        -0.60503E+04
 
   -0.37166E+04         0.58502E+04         0.00000E+00
    0.58502E+04        -0.16401E+05         0.00000E+00
    0.00000E+00         0.00000E+00        -0.60354E+04
 
   -0.37127E+04         0.53860E+04         0.00000E+00
    0.53860E+04        -0.16386E+05         0.00000E+00
    0.00000E+00         0.00000E+00        -0.60297E+04
 
   -0.38045E+04         0.49888E+04         0.00000E+00
    0.49888E+04        -0.16315E+05         0.00000E+00
    0.00000E+00         0.00000E+00        -0.60360E+04
 
   -0.39865E+04         0.46672E+04         0.00000E+00
    0.46672E+04        -0.16199E+05         0.00000E+00
    0.00000E+00         0.00000E+00        -0.60558E+04
 
   -0.42546E+04         0.44303E+04         0.00000E+00
    0.44303E+04        -0.16047E+05         0.00000E+00
    0.00000E+00         0.00000E+00        -0.60905E+04
 
   -0.46056E+04         0.42890E+04         0.00000E+00
    0.42890E+04        -0.15865E+05         0.00000E+00
    0.00000E+00         0.00000E+00        -0.61410E+04
 
   -0.50373E+04         0.42568E+04         0.00000E+00
    0.42568E+04        -0.15655E+05         0.00000E+00
    0.00000E+00         0.00000E+00        -0.62078E+04
 
   -0.55475E+04         0.43511E+04         0.00000E+00
    0.43511E+04        -0.15423E+05         0.00000E+00
    0.00000E+00         0.00000E+00        -0.62911E+04
 
   -0.61335E+04         0.45944E+04         0.00000E+00
    0.45944E+04        -0.15170E+05         0.00000E+00
    0.00000E+00         0.00000E+00        -0.63910E+04
 
    0.55916E+04        -0.42965E+02         0.00000E+00
   -0.42965E+02        -0.16511E+02         0.00000E+00
    0.00000E+00         0.00000E+00         0.16725E+04
 
    0.68875E+03         0.67650E+03         0.00000E+00
    0.67650E+03        -0.24594E+03         0.00000E+00
    0.00000E+00         0.00000E+00         0.13285E+03
 
   -0.32320E+04         0.21408E+04         0.00000E+00
    0.21408E+04        -0.94805E+03         0.00000E+00
    0.00000E+00         0.00000E+00        -0.12540E+04
 
   -0.59202E+04         0.38902E+04         0.00000E+00
    0.38902E+04        -0.21706E+04         0.00000E+00
    0.00000E+00         0.00000E+00        -0.24272E+04
 
   -0.74420E+04         0.55283E+04         0.00000E+00
    0.55283E+04        -0.37781E+04         0.00000E+00
    0.00000E+00         0.00000E+00        -0.33660E+04
 
   -0.80466E+04         0.68213E+04         0.00000E+00
    0.68213E+04        -0.55591E+04         0.00000E+00
    0.00000E+00         0.00000E+00        -0.40817E+04
 
   -0.80288E+04         0.76921E+04         0.00000E+00
    0.76921E+04        -0.73233E+04         0.00000E+00
    0.00000E+00         0.00000E+00        -0.46056E+04
 
   -0.76441E+04         0.81648E+04         0.00000E+00
    0.81648E+04        -0.89417E+04         0.00000E+00
    0.00000E+00         0.00000E+00        -0.49758E+04
 
   -0.70811E+04         0.83104E+04         0.00000E+00
    0.83104E+04        -0.10348E+05         0.00000E+00
    0.00000E+00         0.00000E+00        -0.52288E+04
 
   -0.64649E+04         0.82105E+04         0.00000E+00
    0.82105E+04        -0.11522E+05         0.00000E+00
    0.00000E+00         0.00000E+00        -0.53960E+04
 
   -0.58720E+04         0.79400E+04         0.00000E+00
    0.79400E+04        -0.12470E+05         0.00000E+00
    0.00000E+00         0.00000E+00        -0.55025E+04
 
   -0.53456E+04         0.75610E+04         0.00000E+00
    0.75610E+04        -0.13212E+05         0.00000E+00
    0.00000E+00         0.00000E+00        -0.55674E+04
 
   -0.49072E+04         0.71220E+04         0.00000E+00
    0.71220E+04        -0.13778E+05         0.00000E+00
    0.00000E+00         0.00000E+00        -0.56054E+04
 
   -0.45655E+04         0.66594E+04         0.00000E+00
    0.66594E+04        -0.14193E+05         0.00000E+00
    0.00000E+00         0.00000E+00        -0.56274E+04
 
   -0.43215E+04         0.62007E+04         0.00000E+00
    0.62007E+04        -0.14483E+05         0.00000E+00
    0.00000E+00         0.00000E+00        -0.56413E+04
 
   -0.41724E+04         0.57663E+04         0.00000E+00
    0.57663E+04        -0.14671E+05         0.00000E+00
    0.00000E+00         0.00000E+00        -0.56530E+04
 
   -0.41137E+04         0.53722E+04         0.00000E+00
    0.53722E+04        -0.14775E+05         0.00000E+00
    0.00000E+00         0.00000E+00        -0.56667E+04
 
   -0.41402E+04         0.50313E+04         0.00000E+00
    0.50313E+04        -0.14811E+05         0.00000E+00
    0.00000E+00         0.00000E+00        -0.56855E+04
 
   -0.42467E+04         0.47556E+04         0.00000E+00
    0.47556E+04        -0.14792E+05         0.00000E+00
    0.00000E+00         0.00000E+00        -0.57115E+04
 
   -0.44282E+04         0.45566E+04         0.00000E+00
    0.45566E+04        -0.14726E+05         0.00000E+00
    0.00000E+00         0.00000E+00        -0.57462E+04
 
   -0.46799E+04         0.44470E+04         0.00000E+00
    0.44470E+04        -0.14622E+05         0.00000E+00
    0.00000E+00         0.00000E+00        -0.57905E+04
 
   -0.49964E+04         0.44416E+04         0.00000E+00
    0.44416E+04        -0.14487E+05         0.00000E+00
    0.00000E+00         0.00000E+00        -0.58449E+04
 
   -0.53716E+04         0.45583E+04         0.00000E+00
    0.45583E+04        -0.14326E+05         0.00000E+00
    0.00000E+00         0.00000E+00        -0.59091E+04
 
   -0.57975E+04         0.48192E+04         0.00000E+00
    0.48192E+04        -0.14145E+05         0.00000E+00
    0.00000E+00         0.00000E+00        -0.59828E+04
 
    0.57083E+04        -0.88766E+02         0.00000E+00
   -0.88766E+02        -0.11153E+02         0.00000E+00
    0.00000E+00         0.00000E+00         0.17091E+04
 
    0.16225E+04         0.32784E+03         0.00000E+00
    0.32784E+03        -0.16179E+03         0.00000E+00
    0.00000E+00         0.00000E+00         0.43821E+03
 
   -0.18083E+04         0.13418E+04         0.00000E+00
    0.13418E+04        -0.63066E+03         0.00000E+00
    0.00000E+00         0.00000E+00        -0.73169E+03
 
   -0.43736E+04         0.26656E+04         0.00000E+00
    0.26656E+04        -0.14827E+04         0.00000E+00
    0.00000E+00         0.00000E+00        -0.17569E+04
 
   -0.60552E+04         0.40190E+04         0.00000E+00
    0.40190E+04        -0.26645E+04         0.00000E+00
    0.00000E+00         0.00000E+00        -0.26159E+04
 
   -0.69736E+04         0.52009E+04         0.00000E+00
    0.52009E+04        -0.40536E+04         0.00000E+00
    0.00000E+00         0.00000E+00        -0.33082E+04
 
   -0.73123E+04         0.61069E+04         0.00000E+00
    0.61069E+04        -0.55142E+04         0.00000E+00
    0.00000E+00         0.00000E+00        -0.38480E+04
 
   -0.72576E+04         0.67121E+04         0.00000E+00
    0.67121E+04        -0.69341E+04         0.00000E+00
    0.00000E+00         0.00000E+00        -0.42575E+04
 
   -0.69661E+04         0.70409E+04         0.00000E+00
    0.70409E+04        -0.82383E+04         0.00000E+00
    0.00000E+00         0.00000E+00        -0.45613E+04
 
   -0.65555E+04         0.71407E+04         0.00000E+00
    0.71407E+04        -0.93861E+04         0.00000E+00
    0.00000E+00         0.00000E+00        -0.47825E+04
 
   -0.61074E+04         0.70652E+04         0.00000E+00
    0.70652E+04        -0.10363E+05         0.00000E+00
    0.00000E+00         0.00000E+00        -0.49412E+04
 
   -0.56743E+04         0.68649E+04         0.00000E+00
    0.68649E+04        -0.11172E+05         0.00000E+00
    0.00000E+00         0.00000E+00        -0.50539E+04
 
   -0.52882E+04         0.65830E+04         0.00000E+00
    0.65830E+04        -0.11824E+05         0.00000E+00
    0.00000E+00         0.00000E+00        -0.51338E+04
 
   -0.49667E+04         0.62554E+04         0.00000E+00
    0.62554E+04        -0.12337E+05         0.00000E+00
    0.00000E+00         0.00000E+00        -0.51912E+04
 
   -0.47182E+04         0.59105E+04         0.00000E+00
    0.59105E+04        -0.12728E+05         0.00000E+00
    0.00000E+00         0.00000E+00        -0.52340E+04
 
   -0.45453E+04         0.55712E+04         0.00000E+00
    0.55712E+04        -0.13015E+05         0.00000E+00
    0.00000E+00         0.00000E+00        -0.52682E+04
 
   -0.44471E+04         0.52560E+04         0.00000E+00
    0.52560E+04        -0.13214E+05         0.00000E+00
    0.00000E+00         0.00000E+00        -0.52983E+04
 
   -0.44204E+04         0.49806E+04         0.00000E+00
    0.49806E+04        -0.13338E+05         0.00000E+00
    0.00000E+00         0.00000E+00        -0.53276E+04
 
   -0.44612E+04         0.47591E+04         0.00000E+00
    0.47591E+04        -0.13400E+05         0.00000E+00
    0.00000E+00         0.00000E+00        -0.53583E+04
 
   -0.45640E+04         0.46050E+04         0.00000E+00
    0.46050E+04        -0.13410E+05         0.00000E+00
    0.00000E+00         0.00000E+00        -0.53921E+04
 
   -0.47228E+04         0.45324E+04         0.00000E+00
    0.45324E+04        -0.13377E+05         0.00000E+00
    0.00000E+00         0.00000E+00        -0.54299E+04
 
   -0.49301E+04         0.45567E+04         0.00000E+00
    0.45567E+04        -0.13309E+05         0.00000E+00
    0.00000E+00         0.00000E+00        -0.54718E+04
 
   -0.51764E+04         0.46958E+04         0.00000E+00
    0.46958E+04        -0.13215E+05         0.00000E+00
    0.00000E+00         0.00000E+00        -0.55175E+04
 
   -0.54495E+04         0.49708E+04         0.00000E+00
    0.49708E+04        -0.13104E+05         0.00000E+00
    0.00000E+00         0.00000E+00        -0.55662E+04
 
    0.56842E+04        -0.12027E+03         0.00000E+00
   -0.12027E+03        -0.79328E+01         0.00000E+00
    0.00000E+00         0.00000E+00         0.17029E+04
 
    0.22266E+04         0.93866E+02         0.00000E+00
    0.93866E+02        -0.11111E+03         0.00000E+00
    0.00000E+00         0.00000E+00         0.63463E+03
 
   -0.77774E+03         0.79121E+03         0.00000E+00
    0.79121E+03        -0.43617E+03         0.00000E+00
    0.00000E+00         0.00000E+00        -0.36417E+03
 
   -0.31607E+04         0.17849E+04         0.00000E+00
    0.17849E+04        -0.10442E+04         0.00000E+00
    0.00000E+00         0.00000E+00        -0.12615E+04
 
   -0.48738E+04         0.28777E+04         0.00000E+00
    0.28777E+04        -0.19213E+04         0.00000E+00
    0.00000E+00         0.00000E+00        -0.20385E+04
 
   -0.59673E+04         0.39084E+04         0.00000E+00
    0.39084E+04        -0.29991E+04         0.00000E+00
    0.00000E+00         0.00000E+00        -0.26899E+04
 
   -0.65502E+04         0.47736E+04         0.00000E+00
    0.47736E+04        -0.41865E+04         0.00000E+00
    0.00000E+00         0.00000E+00        -0.32210E+04
 
   -0.67513E+04         0.54259E+04         0.00000E+00
    0.54259E+04        -0.53958E+04         0.00000E+00
    0.00000E+00         0.00000E+00        -0.36441E+04
 
   -0.66923E+04         0.58603E+04         0.00000E+00
    0.58603E+04        -0.65578E+04         0.00000E+00
    0.00000E+00         0.00000E+00        -0.39750E+04
 
   -0.64741E+04         0.60976E+04         0.00000E+00
    0.60976E+04        -0.76260E+04         0.00000E+00
    0.00000E+00         0.00000E+00        -0.42300E+04
 
   -0.61739E+04         0.61714E+04         0.00000E+00
    0.61714E+04        -0.85745E+04         0.00000E+00
    0.00000E+00         0.00000E+00        -0.44245E+04
 
   -0.58468E+04         0.61186E+04         0.00000E+00
    0.61186E+04        -0.93931E+04         0.00000E+00
    0.00000E+00         0.00000E+00        -0.45720E+04
 
   -0.55299E+04         0.59749E+04         0.00000E+00
    0.59749E+04        -0.10082E+05         0.00000E+00
    0.00000E+00         0.00000E+00        -0.46836E+04
 
   -0.52468E+04         0.57719E+04         0.00000E+00
    0.57719E+04        -0.10649E+05         0.00000E+00
    0.00000E+00         0.00000E+00        -0.47687E+04
 
   -0.50112E+04         0.55370E+04         0.00000E+00
    0.55370E+04        -0.11104E+05         0.00000E+00
    0.00000E+00         0.00000E+00        -0.48346E+04
 
   -0.48303E+04         0.52930E+04         0.00000E+00
    0.52930E+04        -0.11460E+05         0.00000E+00
    0.00000E+00         0.00000E+00        -0.48870E+04
 
   -0.47064E+04         0.50596E+04         0.00000E+00
    0.50596E+04        -0.11728E+05         0.00000E+00
    0.00000E+00         0.00000E+00        -0.49303E+04
 
   -0.46387E+04         0.48537E+04         0.00000E+00
    0.48537E+04        -0.11921E+05         0.00000E+00
    0.00000E+00         0.00000E+00        -0.49678E+04
 
   -0.46239E+04         0.46908E+04         0.00000E+00
    0.46908E+04        -0.12049E+05         0.00000E+00
    0.00000E+00         0.00000E+00        -0.50019E+04
 
   -0.46571E+04         0.45855E+04         0.00000E+00
    0.45855E+04        -0.12123E+05         0.00000E+00
    0.00000E+00         0.00000E+00        -0.50339E+04
 
   -0.47313E+04         0.45526E+04         0.00000E+00
    0.45526E+04        -0.12151E+05         0.00000E+00
    0.00000E+00         0.00000E+00        -0.50648E+04
 
   -0.48375E+04         0.46078E+04         0.00000E+00
    0.46078E+04        -0.12144E+05         0.00000E+00
    0.00000E+00         0.00000E+00        -0.50946E+04
 
   -0.49639E+04         0.47682E+04         0.00000E+00
    0.47682E+04        -0.12112E+05         0.00000E+00
    0.00000E+00         0.00000E+00        -0.51227E+04
 
   -0.50950E+04         0.50535E+04         0.00000E+00
    0.50535E+04        -0.12065E+05         0.00000E+00
    0.00000E+00         0.00000E+00        -0.51479E+04
 
    0.55641E+04        -0.14254E+03         0.00000E+00
   -0.14254E+03        -0.56653E+01         0.00000E+00
    0.00000E+00         0.00000E+00         0.16675E+04
 
    0.26022E+04        -0.68971E+02         0.00000E+00
   -0.68971E+02        -0.78385E+02         0.00000E+00
    0.00000E+00         0.00000E+00         0.75714E+03
 
   -0.36790E+02         0.40077E+03         0.00000E+00
    0.40077E+03        -0.30986E+03         0.00000E+00
    0.00000E+00         0.00000E+00        -0.10399E+03
 
   -0.22207E+04         0.11409E+04         0.00000E+00
    0.11409E+04        -0.75255E+03         0.00000E+00
    0.00000E+00         0.00000E+00        -0.89198E+03
 
   -0.38936E+04         0.20109E+04         0.00000E+00
    0.20109E+04        -0.14104E+04         0.00000E+00
    0.00000E+00         0.00000E+00        -0.15912E+04
 
   -0.50685E+04         0.28855E+04         0.00000E+00
    0.28855E+04        -0.22472E+04         0.00000E+00
    0.00000E+00         0.00000E+00        -0.21947E+04
 
   -0.58070E+04         0.36727E+04         0.00000E+00
    0.36727E+04        -0.32037E+04         0.00000E+00
    0.00000E+00         0.00000E+00        -0.27032E+04
 
   -0.61949E+04         0.43186E+04         0.00000E+00
    0.43186E+04        -0.42154E+04         0.00000E+00
    0.00000E+00         0.00000E+00        -0.31231E+04
 
   -0.63224E+04         0.48018E+04         0.00000E+00
    0.48018E+04        -0.52243E+04         0.00000E+00
    0.00000E+00         0.00000E+00        -0.34640E+04
 
   -0.62714E+04         0.51251E+04         0.00000E+00
    0.51251E+04        -0.61861E+04         0.00000E+00
    0.00000E+00         0.00000E+00        -0.37373E+04
 
   -0.61096E+04         0.53057E+04         0.00000E+00
    0.53057E+04        -0.70706E+04         0.00000E+00
    0.00000E+00         0.00000E+00        -0.39541E+04
 
   -0.58895E+04         0.53682E+04         0.00000E+00
    0.53682E+04        -0.78605E+04         0.00000E+00
    0.00000E+00         0.00000E+00        -0.41250E+04
 
   -0.56493E+04         0.53395E+04         0.00000E+00
    0.53395E+04        -0.85485E+04         0.00000E+00
    0.00000E+00         0.00000E+00        -0.42593E+04
 
   -0.54154E+04         0.52459E+04         0.00000E+00
    0.52459E+04        -0.91343E+04         0.00000E+00
    0.00000E+00         0.00000E+00        -0.43649E+04
 
   -0.52050E+04         0.51114E+04         0.00000E+00
    0.51114E+04        -0.96224E+04         0.00000E+00
    0.00000E+00         0.00000E+00        -0.44482E+04
 
   -0.50283E+04         0.49578E+04         0.00000E+00
    0.49578E+04        -0.10020E+05         0.00000E+00
    0.00000E+00         0.00000E+00        -0.45145E+04
 
   -0.48905E+04         0.48042E+04         0.00000E+00
    0.48042E+04        -0.10336E+05         0.00000E+00
    0.00000E+00         0.00000E+00        -0.45678E+04
 
   -0.47926E+04         0.46677E+04         0.00000E+00
    0.46677E+04        -0.10578E+05         0.00000E+00
    0.00000E+00         0.00000E+00        -0.46113E+04
 
   -0.47324E+04         0.45643E+04         0.00000E+00
    0.45643E+04        -0.10758E+05         0.00000E+00
    0.00000E+00         0.00000E+00        -0.46471E+04
 
   -0.47055E+04         0.45089E+04         0.00000E+00
    0.45089E+04        -0.10883E+05         0.00000E+00
    0.00000E+00         0.00000E+00        -0.46766E+04
 
   -0.47044E+04         0.45162E+04         0.00000E+00
    0.45162E+04        -0.10964E+05         0.00000E+00
    0.00000E+00         0.00000E+00        -0.47005E+04
 
   -0.47193E+04         0.46017E+04         0.00000E+00
    0.46017E+04        -0.11010E+05         0.00000E+00
    0.00000E+00         0.00000E+00        -0.47188E+04
 
   -0.47367E+04         0.47816E+04         0.00000E+00
    0.47816E+04        -0.11032E+05         0.00000E+00
    0.00000E+00         0.00000E+00        -0.47306E+04
 
   -0.47391E+04         0.50735E+04         0.00000E+00
    0.50735E+04        -0.11042E+05         0.00000E+00
    0.00000E+00         0.00000E+00        -0.47344E+04
 
    0.53767E+04        -0.15836E+03         0.00000E+00
   -0.15836E+03        -0.39766E+01         0.00000E+00
    0.00000E+00         0.00000E+00         0.16118E+04
 
    0.28151E+04        -0.18495E+03         0.00000E+00
   -0.18495E+03        -0.55905E+02         0.00000E+00
    0.00000E+00         0.00000E+00         0.82777E+03
 
    0.48856E+03         0.11804E+03         0.00000E+00
    0.11804E+03        -0.22366E+03         0.00000E+00
    0.00000E+00         0.00000E+00         0.79470E+02
 
   -0.14991E+04         0.66310E+03         0.00000E+00
    0.66310E+03        -0.55078E+03         0.00000E+00
    0.00000E+00         0.00000E+00        -0.61496E+03
 
   -0.30935E+04         0.13485E+04         0.00000E+00
    0.13485E+04        -0.10488E+04         0.00000E+00
    0.00000E+00         0.00000E+00        -0.12427E+04
 
   -0.42888E+04         0.20777E+04         0.00000E+00
    0.20777E+04        -0.17001E+04         0.00000E+00
    0.00000E+00         0.00000E+00        -0.17967E+04
 
   -0.51172E+04         0.27732E+04         0.00000E+00
    0.27732E+04        -0.24673E+04         0.00000E+00
    0.00000E+00         0.00000E+00        -0.22754E+04
 
   -0.56339E+04         0.33820E+04         0.00000E+00
    0.33820E+04        -0.33043E+04         0.00000E+00
    0.00000E+00         0.00000E+00        -0.26814E+04
 
   -0.59035E+04         0.38758E+04         0.00000E+00
    0.38758E+04        -0.41654E+04         0.00000E+00
    0.00000E+00         0.00000E+00        -0.30207E+04
 
   -0.59900E+04         0.42459E+04         0.00000E+00
    0.42459E+04        -0.50117E+04         0.00000E+00
    0.00000E+00         0.00000E+00        -0.33005E+04
 
   -0.59498E+04         0.44978E+04         0.00000E+00
    0.44978E+04        -0.58135E+04         0.00000E+00
    0.00000E+00         0.00000E+00        -0.35290E+04
 
   -0.58298E+04         0.46457E+04         0.00000E+00
    0.46457E+04        -0.65506E+04         0.00000E+00
    0.00000E+00         0.00000E+00        -0.37141E+04
 
   -0.56663E+04         0.47085E+04         0.00000E+00
    0.47085E+04        -0.72112E+04         0.00000E+00
    0.00000E+00         0.00000E+00        -0.38632E+04
 
   -0.54862E+04         0.47065E+04         0.00000E+00
    0.47065E+04        -0.77899E+04         0.00000E+00
    0.00000E+00         0.00000E+00        -0.39828E+04
 
   -0.53082E+04         0.46600E+04         0.00000E+00
    0.46600E+04        -0.82864E+04         0.00000E+00
    0.00000E+00         0.00000E+00        -0.40784E+04
 
   -0.51446E+04         0.45883E+04         0.00000E+00
    0.45883E+04        -0.87038E+04         0.00000E+00
    0.00000E+00         0.00000E+00        -0.41545E+04
 
   -0.50020E+04         0.45090E+04         0.00000E+00
    0.45090E+04        -0.90474E+04         0.00000E+00
    0.00000E+00         0.00000E+00        -0.42148E+04
 
   -0.48832E+04         0.44387E+04         0.00000E+00
    0.44387E+04        -0.93238E+04         0.00000E+00
    0.00000E+00         0.00000E+00        -0.42621E+04
 
   -0.47870E+04         0.43927E+04         0.00000E+00
    0.43927E+04        -0.95406E+04         0.00000E+00
    0.00000E+00         0.00000E+00        -0.42983E+04
 
   -0.47093E+04         0.43856E+04         0.00000E+00
    0.43856E+04        -0.97061E+04         0.00000E+00
    0.00000E+00         0.00000E+00        -0.43246E+04
 
   -0.46428E+04         0.44320E+04         0.00000E+00
    0.44320E+04        -0.98293E+04         0.00000E+00
    0.00000E+00         0.00000E+00        -0.43416E+04
 
   -0.45770E+04         0.45461E+04         0.00000E+00
    0.45461E+04        -0.99199E+04         0.00000E+00
    0.00000E+00         0.00000E+00        -0.43491E+04
 
   -0.44978E+04         0.47427E+04         0.00000E+00
    0.47427E+04        -0.99891E+04         0.00000E+00
    0.00000E+00         0.00000E+00        -0.43460E+04
 
   -0.43864E+04         0.50375E+04         0.00000E+00
    0.50375E+04        -0.10050E+05         0.00000E+00
    0.00000E+00         0.00000E+00        -0.43309E+04
 
    0.51414E+04        -0.16939E+03         0.00000E+00
   -0.16939E+03        -0.26433E+01         0.00000E+00
    0.00000E+00         0.00000E+00         0.15416E+04
 
    0.29098E+04        -0.26846E+03         0.00000E+00
   -0.26846E+03        -0.39662E+02         0.00000E+00
    0.00000E+00         0.00000E+00         0.86105E+03
 
    0.85162E+03        -0.89490E+02         0.00000E+00
   -0.89490E+02        -0.16226E+03         0.00000E+00
    0.00000E+00         0.00000E+00         0.20681E+03
 
   -0.95074E+03         0.30481E+03         0.00000E+00
    0.30481E+03        -0.40624E+03         0.00000E+00
    0.00000E+00         0.00000E+00        -0.40709E+03
 
   -0.24480E+04         0.83950E+03         0.00000E+00
    0.83950E+03        -0.78576E+03         0.00000E+00
    0.00000E+00         0.00000E+00        -0.97012E+03
 
   -0.36252E+04         0.14401E+04         0.00000E+00
    0.14401E+04        -0.12939E+04         0.00000E+00
    0.00000E+00         0.00000E+00        -0.14757E+04
 
   -0.44964E+04         0.20427E+04         0.00000E+00
    0.20427E+04        -0.19078E+04         0.00000E+00
    0.00000E+00         0.00000E+00        -0.19212E+04
 
   -0.50958E+04         0.25993E+04         0.00000E+00
    0.25993E+04        -0.25951E+04         0.00000E+00
    0.00000E+00         0.00000E+00        -0.23073E+04
 
   -0.54686E+04         0.30794E+04         0.00000E+00
    0.30794E+04        -0.33212E+04         0.00000E+00
    0.00000E+00         0.00000E+00        -0.26369E+04
 
   -0.56629E+04         0.34682E+04         0.00000E+00
    0.34682E+04        -0.40537E+04         0.00000E+00
    0.00000E+00         0.00000E+00        -0.29150E+04
 
   -0.57243E+04         0.37633E+04         0.00000E+00
    0.37633E+04        -0.47657E+04         0.00000E+00
    0.00000E+00         0.00000E+00        -0.31470E+04
 
   -0.56928E+04         0.39711E+04         0.00000E+00
    0.39711E+04        -0.54368E+04         0.00000E+00
    0.00000E+00         0.00000E+00        -0.33389E+04
 
   -0.56010E+04         0.41036E+04         0.00000E+00
    0.41036E+04        -0.60532E+04         0.00000E+00
    0.00000E+00         0.00000E+00        -0.34963E+04
 
   -0.54746E+04         0.41757E+04         0.00000E+00
    0.41757E+04        -0.66065E+04         0.00000E+00
    0.00000E+00         0.00000E+00        -0.36243E+04
 
   -0.53323E+04         0.42034E+04         0.00000E+00
    0.42034E+04        -0.70932E+04         0.00000E+00
    0.00000E+00         0.00000E+00        -0.37276E+04
 
   -0.51869E+04         0.42031E+04         0.00000E+00
    0.42031E+04        -0.75131E+04         0.00000E+00
    0.00000E+00         0.00000E+00        -0.38100E+04
 
   -0.50465E+04         0.41905E+04         0.00000E+00
    0.41905E+04        -0.78688E+04         0.00000E+00
    0.00000E+00         0.00000E+00        -0.38746E+04
 
   -0.49143E+04         0.41807E+04         0.00000E+00
    0.41807E+04        -0.81647E+04         0.00000E+00
    0.00000E+00         0.00000E+00        -0.39237E+04
 
   -0.47903E+04         0.41880E+04         0.00000E+00
    0.41880E+04        -0.84066E+04         0.00000E+00
    0.00000E+00         0.00000E+00        -0.39591E+04
 
   -0.46707E+04         0.42261E+04         0.00000E+00
    0.42261E+04        -0.86017E+04         0.00000E+00
    0.00000E+00         0.00000E+00        -0.39817E+04
 
   -0.45486E+04         0.43085E+04         0.00000E+00
    0.43085E+04        -0.87581E+04         0.00000E+00
    0.00000E+00         0.00000E+00        -0.39920E+04
 
   -0.44132E+04         0.44484E+04         0.00000E+00
    0.44484E+04        -0.88852E+04         0.00000E+00
    0.00000E+00         0.00000E+00        -0.39895E+04
 
   -0.42503E+04         0.46588E+04         0.00000E+00
    0.46588E+04        -0.89942E+04         0.00000E+00
    0.00000E+00         0.00000E+00        -0.39734E+04
 
   -0.40408E+04         0.49529E+04         0.00000E+00
    0.49529E+04        -0.90981E+04         0.00000E+00
    0.00000E+00         0.00000E+00        -0.39417E+04
 
    0.48721E+04        -0.17668E+03         0.00000E+00
   -0.17668E+03        -0.15516E+01         0.00000E+00
    0.00000E+00         0.00000E+00         0.14612E+04
 
    0.29174E+04        -0.32847E+03         0.00000E+00
   -0.32847E+03        -0.27430E+02         0.00000E+00
    0.00000E+00         0.00000E+00         0.86698E+03
 
    0.10913E+04        -0.24271E+03         0.00000E+00
   -0.24271E+03        -0.11691E+03         0.00000E+00
    0.00000E+00         0.00000E+00         0.29232E+03
 
   -0.53974E+03         0.34477E+02         0.00000E+00
    0.34477E+02        -0.29946E+03         0.00000E+00
    0.00000E+00         0.00000E+00        -0.25176E+03
 
   -0.19323E+04         0.44692E+03         0.00000E+00
    0.44692E+03        -0.58957E+03         0.00000E+00
    0.00000E+00         0.00000E+00        -0.75657E+03
 
   -0.30676E+04         0.93684E+03         0.00000E+00
    0.93684E+03        -0.98645E+03         0.00000E+00
    0.00000E+00         0.00000E+00        -0.12162E+04
 
   -0.39488E+04         0.14520E+04         0.00000E+00
    0.14520E+04        -0.14765E+04         0.00000E+00
    0.00000E+00         0.00000E+00        -0.16276E+04
 
   -0.45958E+04         0.19506E+04         0.00000E+00
    0.19506E+04        -0.20378E+04         0.00000E+00
    0.00000E+00         0.00000E+00        -0.19901E+04
 
   -0.50392E+04         0.24029E+04         0.00000E+00
    0.24029E+04        -0.26445E+04         0.00000E+00
    0.00000E+00         0.00000E+00        -0.23051E+04
 
   -0.53145E+04         0.27914E+04         0.00000E+00
    0.27914E+04        -0.32706E+04         0.00000E+00
    0.00000E+00         0.00000E+00        -0.25755E+04
 
   -0.54572E+04         0.31087E+04         0.00000E+00
    0.31087E+04        -0.38930E+04         0.00000E+00
    0.00000E+00         0.00000E+00        -0.28051E+04
 
   -0.55004E+04         0.33558E+04         0.00000E+00
    0.33558E+04        -0.44927E+04         0.00000E+00
    0.00000E+00         0.00000E+00        -0.29979E+04
 
   -0.54723E+04         0.35391E+04         0.00000E+00
    0.35391E+04        -0.50555E+04         0.00000E+00
    0.00000E+00         0.00000E+00        -0.31583E+04
 
   -0.53961E+04         0.36688E+04         0.00000E+00
    0.36688E+04        -0.55717E+04         0.00000E+00
    0.00000E+00         0.00000E+00        -0.32903E+04
 
   -0.52894E+04         0.37571E+04         0.00000E+00
    0.37571E+04        -0.60357E+04         0.00000E+00
    0.00000E+00         0.00000E+00        -0.33975E+04
 
   -0.51650E+04         0.38171E+04         0.00000E+00
    0.38171E+04        -0.64452E+04         0.00000E+00
    0.00000E+00         0.00000E+00        -0.34831E+04
 
   -0.50310E+04         0.38623E+04         0.00000E+00
    0.38623E+04        -0.68006E+04         0.00000E+00
    0.00000E+00         0.00000E+00        -0.35495E+04
 
   -0.48915E+04         0.39060E+04         0.00000E+00
    0.39060E+04        -0.71044E+04         0.00000E+00
    0.00000E+00         0.00000E+00        -0.35988E+04
 
   -0.47468E+04         0.39609E+04         0.00000E+00
    0.39609E+04        -0.73610E+04         0.00000E+00
    0.00000E+00         0.00000E+00        -0.36323E+04
 
   -0.45935E+04         0.40397E+04         0.00000E+00
    0.40397E+04        -0.75763E+04         0.00000E+00
    0.00000E+00         0.00000E+00        -0.36510E+04
 
   -0.44251E+04         0.41542E+04         0.00000E+00
    0.41542E+04        -0.77576E+04         0.00000E+00
    0.00000E+00         0.00000E+00        -0.36548E+04
 
   -0.42312E+04         0.43163E+04         0.00000E+00
    0.43163E+04        -0.79137E+04         0.00000E+00
    0.00000E+00         0.00000E+00        -0.36435E+04
 
   -0.39976E+04         0.45371E+04         0.00000E+00
    0.45371E+04        -0.80552E+04         0.00000E+00
    0.00000E+00         0.00000E+00        -0.36159E+04
 
   -0.37057E+04         0.48274E+04         0.00000E+00
    0.48274E+04        -0.81949E+04         0.00000E+00
    0.00000E+00         0.00000E+00        -0.35702E+04
 
    0.45794E+04        -0.18096E+03         0.00000E+00
   -0.18096E+03        -0.63613E+00         0.00000E+00
    0.00000E+00         0.00000E+00         0.13736E+04
 
    0.28602E+04        -0.37088E+03         0.00000E+00
   -0.37088E+03        -0.17915E+02         0.00000E+00
    0.00000E+00         0.00000E+00         0.85270E+03
 
    0.12365E+04        -0.35554E+03         0.00000E+00
   -0.35554E+03        -0.82386E+02         0.00000E+00
    0.00000E+00         0.00000E+00         0.34625E+03
 
   -0.23766E+03        -0.16968E+03         0.00000E+00
   -0.16968E+03        -0.21847E+03         0.00000E+00
    0.00000E+00         0.00000E+00        -0.13684E+03
 
   -0.15245E+04         0.14390E+03         0.00000E+00
    0.14390E+03        -0.43999E+03         0.00000E+00
    0.00000E+00         0.00000E+00        -0.58934E+03
 
   -0.26038E+04         0.54001E+03         0.00000E+00
    0.54001E+03        -0.74952E+03         0.00000E+00
    0.00000E+00         0.00000E+00        -0.10060E+04
 
   -0.34725E+04         0.97622E+03         0.00000E+00
    0.97622E+03        -0.11397E+04         0.00000E+00
    0.00000E+00         0.00000E+00        -0.13837E+04
 
   -0.41408E+04         0.14166E+04         0.00000E+00
    0.14166E+04        -0.15957E+04         0.00000E+00
    0.00000E+00         0.00000E+00        -0.17210E+04
 
   -0.46288E+04         0.18339E+04         0.00000E+00
    0.18339E+04        -0.20987E+04         0.00000E+00
    0.00000E+00         0.00000E+00        -0.20183E+04
 
   -0.49617E+04         0.22098E+04         0.00000E+00
    0.22098E+04        -0.26285E+04         0.00000E+00
    0.00000E+00         0.00000E+00        -0.22771E+04
 
   -0.51669E+04         0.25343E+04         0.00000E+00
    0.25343E+04        -0.31658E+04         0.00000E+00
    0.00000E+00         0.00000E+00        -0.24998E+04
 
   -0.52706E+04         0.28046E+04         0.00000E+00
    0.28046E+04        -0.36938E+04         0.00000E+00
    0.00000E+00         0.00000E+00        -0.26893E+04
 
   -0.52966E+04         0.30230E+04         0.00000E+00
    0.30230E+04        -0.41990E+04         0.00000E+00
    0.00000E+00         0.00000E+00        -0.28487E+04
 
   -0.52650E+04         0.31958E+04         0.00000E+00
    0.31958E+04        -0.46715E+04         0.00000E+00
    0.00000E+00         0.00000E+00        -0.29809E+04
 
   -0.51918E+04         0.33318E+04         0.00000E+00
    0.33318E+04        -0.51045E+04         0.00000E+00
    0.00000E+00         0.00000E+00        -0.30889E+04
 
   -0.50888E+04         0.34411E+04         0.00000E+00
    0.34411E+04        -0.54945E+04         0.00000E+00
    0.00000E+00         0.00000E+00        -0.31750E+04
 
   -0.49640E+04         0.35349E+04         0.00000E+00
    0.35349E+04        -0.58402E+04         0.00000E+00
    0.00000E+00         0.00000E+00        -0.32413E+04
 
   -0.48215E+04         0.36243E+04         0.00000E+00
    0.36243E+04        -0.61430E+04         0.00000E+00
    0.00000E+00         0.00000E+00        -0.32893E+04
 
   -0.46618E+04         0.37205E+04         0.00000E+00
    0.37205E+04        -0.64058E+04         0.00000E+00
    0.00000E+00         0.00000E+00        -0.33203E+04
 
   -0.44822E+04         0.38345E+04         0.00000E+00
    0.38345E+04        -0.66334E+04         0.00000E+00
    0.00000E+00         0.00000E+00        -0.33347E+04
 
   -0.42763E+04         0.39766E+04         0.00000E+00
    0.39766E+04        -0.68322E+04         0.00000E+00
    0.00000E+00         0.00000E+00        -0.33326E+04
 
   -0.40344E+04         0.41569E+04         0.00000E+00
    0.41569E+04        -0.70103E+04         0.00000E+00
    0.00000E+00         0.00000E+00        -0.33134E+04
 
   -0.37428E+04         0.43847E+04         0.00000E+00
    0.43847E+04        -0.71775E+04         0.00000E+00
    0.00000E+00         0.00000E+00        -0.32761E+04
 
   -0.33839E+04         0.46684E+04         0.00000E+00
    0.46684E+04        -0.73459E+04         0.00000E+00
    0.00000E+00         0.00000E+00        -0.32189E+04
 
    0.42713E+04        -0.18275E+03         0.00000E+00
   -0.18275E+03         0.14148E+00         0.00000E+00
    0.00000E+00         0.00000E+00         0.12814E+04
 
    0.27552E+04        -0.39971E+03         0.00000E+00
   -0.39971E+03        -0.10335E+02         0.00000E+00
    0.00000E+00         0.00000E+00         0.82345E+03
 
    0.13092E+04        -0.43760E+03         0.00000E+00
   -0.43760E+03        -0.55472E+02         0.00000E+00
    0.00000E+00         0.00000E+00         0.37611E+03
 
   -0.22012E+02        -0.32311E+03         0.00000E+00
   -0.32311E+03        -0.15570E+03         0.00000E+00
    0.00000E+00         0.00000E+00        -0.53314E+02
 
   -0.12054E+04        -0.89323E+02         0.00000E+00
   -0.89323E+02        -0.32379E+03         0.00000E+00
    0.00000E+00         0.00000E+00        -0.45876E+03
 
   -0.22212E+04         0.22808E+03         0.00000E+00
    0.22808E+03        -0.56412E+03         0.00000E+00
    0.00000E+00         0.00000E+00        -0.83558E+03
 
   -0.30623E+04         0.59459E+03         0.00000E+00
    0.59459E+03        -0.87330E+03         0.00000E+00
    0.00000E+00         0.00000E+00        -0.11807E+04
 
   -0.37327E+04         0.97979E+03         0.00000E+00
    0.97979E+03        -0.12418E+04         0.00000E+00
    0.00000E+00         0.00000E+00        -0.14923E+04
 
   -0.42448E+04         0.13592E+04         0.00000E+00
    0.13592E+04        -0.16559E+04         0.00000E+00
    0.00000E+00         0.00000E+00        -0.17702E+04
 
   -0.46161E+04         0.17152E+04         0.00000E+00
    0.17152E+04        -0.21003E+04         0.00000E+00
    0.00000E+00         0.00000E+00        -0.20149E+04
 
   -0.48668E+04         0.20364E+04         0.00000E+00
    0.20364E+04        -0.25592E+04         0.00000E+00
    0.00000E+00         0.00000E+00        -0.22278E+04
 
   -0.50176E+04         0.23178E+04         0.00000E+00
    0.23178E+04        -0.30184E+04         0.00000E+00
    0.00000E+00         0.00000E+00        -0.24108E+04
 
   -0.50878E+04         0.25586E+04         0.00000E+00
    0.25586E+04        -0.34657E+04         0.00000E+00
    0.00000E+00         0.00000E+00        -0.25660E+04
 
   -0.50942E+04         0.27623E+04         0.00000E+00
    0.27623E+04        -0.38915E+04         0.00000E+00
    0.00000E+00         0.00000E+00        -0.26957E+04
 
   -0.50508E+04         0.29345E+04         0.00000E+00
    0.29345E+04        -0.42889E+04         0.00000E+00
    0.00000E+00         0.00000E+00        -0.28019E+04
 
   -0.49683E+04         0.30829E+04         0.00000E+00
    0.30829E+04        -0.46534E+04         0.00000E+00
    0.00000E+00         0.00000E+00        -0.28865E+04
 
   -0.48538E+04         0.32162E+04         0.00000E+00
    0.32162E+04        -0.49831E+04         0.00000E+00
    0.00000E+00         0.00000E+00        -0.29511E+04
 
   -0.47113E+04         0.33435E+04         0.00000E+00
    0.33435E+04        -0.52781E+04         0.00000E+00
    0.00000E+00         0.00000E+00        -0.29968E+04
 
   -0.45416E+04         0.34742E+04         0.00000E+00
    0.34742E+04        -0.55404E+04         0.00000E+00
    0.00000E+00         0.00000E+00        -0.30246E+04
 
   -0.43420E+04         0.36176E+04         0.00000E+00
    0.36176E+04        -0.57738E+04         0.00000E+00
    0.00000E+00         0.00000E+00        -0.30347E+04
 
   -0.41067E+04         0.37823E+04         0.00000E+00
    0.37823E+04        -0.59838E+04         0.00000E+00
    0.00000E+00         0.00000E+00        -0.30271E+04
 
   -0.38266E+04         0.39767E+04         0.00000E+00
    0.39767E+04        -0.61775E+04         0.00000E+00
    0.00000E+00         0.00000E+00        -0.30012E+04
 
   -0.34891E+04         0.42082E+04         0.00000E+00
    0.42082E+04        -0.63642E+04         0.00000E+00
    0.00000E+00         0.00000E+00        -0.29560E+04
 
   -0.30776E+04         0.44828E+04         0.00000E+00
    0.44828E+04        -0.65547E+04         0.00000E+00
    0.00000E+00         0.00000E+00        -0.28897E+04
 
    0.39544E+04        -0.18246E+03         0.00000E+00
   -0.18246E+03         0.80479E+00         0.00000E+00
    0.00000E+00         0.00000E+00         0.11866E+04
 
    0.26149E+04        -0.41783E+03         0.00000E+00
   -0.41783E+03        -0.41974E+01         0.00000E+00
    0.00000E+00         0.00000E+00         0.78322E+03
 
    0.13260E+04        -0.49573E+03         0.00000E+00
   -0.49573E+03        -0.34114E+02         0.00000E+00
    0.00000E+00         0.00000E+00         0.38757E+03
 
    0.12502E+03        -0.43697E+03         0.00000E+00
   -0.43697E+03        -0.10623E+03         0.00000E+00
    0.00000E+00         0.00000E+00         0.56367E+01
 
   -0.95923E+03        -0.26749E+03         0.00000E+00
   -0.26749E+03        -0.23215E+03         0.00000E+00
    0.00000E+00         0.00000E+00        -0.35742E+03
 
   -0.19078E+04        -0.15700E+02         0.00000E+00
   -0.15700E+02        -0.41717E+03         0.00000E+00
    0.00000E+00         0.00000E+00        -0.69749E+03
 
   -0.27116E+04         0.29026E+03         0.00000E+00
    0.29026E+03        -0.66047E+03         0.00000E+00
    0.00000E+00         0.00000E+00        -0.10116E+04
 
   -0.33703E+04         0.62478E+03         0.00000E+00
    0.62478E+03        -0.95616E+03         0.00000E+00
    0.00000E+00         0.00000E+00        -0.12979E+04
 
   -0.38908E+04         0.96633E+03         0.00000E+00
    0.96633E+03        -0.12947E+04         0.00000E+00
    0.00000E+00         0.00000E+00        -0.15556E+04
 
   -0.42847E+04         0.12984E+04         0.00000E+00
    0.12984E+04        -0.16643E+04         0.00000E+00
    0.00000E+00         0.00000E+00        -0.17847E+04
 
   -0.45667E+04         0.16095E+04         0.00000E+00
    0.16095E+04        -0.20527E+04         0.00000E+00
    0.00000E+00         0.00000E+00        -0.19858E+04
 
   -0.47524E+04         0.18930E+04         0.00000E+00
    0.18930E+04        -0.24479E+04         0.00000E+00
    0.00000E+00         0.00000E+00        -0.21601E+04
 
   -0.48571E+04         0.21465E+04         0.00000E+00
    0.21465E+04        -0.28393E+04         0.00000E+00
    0.00000E+00         0.00000E+00        -0.23089E+04
 
   -0.48947E+04         0.23707E+04         0.00000E+00
    0.23707E+04        -0.32182E+04         0.00000E+00
    0.00000E+00         0.00000E+00        -0.24339E+04
 
   -0.48768E+04         0.25693E+04         0.00000E+00
    0.25693E+04        -0.35779E+04         0.00000E+00
    0.00000E+00         0.00000E+00        -0.25364E+04
 
   -0.48127E+04         0.27475E+04         0.00000E+00
    0.27475E+04        -0.39137E+04         0.00000E+00
    0.00000E+00         0.00000E+00        -0.26179E+04
 
   -0.47087E+04         0.29117E+04         0.00000E+00
    0.29117E+04        -0.42231E+04         0.00000E+00
    0.00000E+00         0.00000E+00        -0.26795E+04
 
   -0.45684E+04         0.30694E+04         0.00000E+00
    0.30694E+04        -0.45055E+04         0.00000E+00
    0.00000E+00         0.00000E+00        -0.27222E+04
 
   -0.43924E+04         0.32279E+04         0.00000E+00
    0.32279E+04        -0.47622E+04         0.00000E+00
    0.00000E+00         0.00000E+00        -0.27464E+04
 
   -0.41782E+04         0.33948E+04         0.00000E+00
    0.33948E+04        -0.49961E+04         0.00000E+00
    0.00000E+00         0.00000E+00        -0.27523E+04
 
   -0.39208E+04         0.35772E+04         0.00000E+00
    0.35772E+04        -0.52119E+04         0.00000E+00
    0.00000E+00         0.00000E+00        -0.27398E+04
 
   -0.36116E+04         0.37817E+04         0.00000E+00
    0.37817E+04        -0.54160E+04         0.00000E+00
    0.00000E+00         0.00000E+00        -0.27083E+04
 
   -0.32390E+04         0.40136E+04         0.00000E+00
    0.40136E+04        -0.56164E+04         0.00000E+00
    0.00000E+00         0.00000E+00        -0.26566E+04
 
   -0.27882E+04         0.42772E+04         0.00000E+00
    0.42772E+04        -0.58231E+04         0.00000E+00
    0.00000E+00         0.00000E+00        -0.25834E+04
 
    0.36337E+04        -0.18041E+03         0.00000E+00
   -0.18041E+03         0.13691E+01         0.00000E+00
    0.00000E+00         0.00000E+00         0.10905E+04
 
    0.24494E+04        -0.42739E+03         0.00000E+00
   -0.42739E+03         0.81650E+00         0.00000E+00
    0.00000E+00         0.00000E+00         0.73506E+03
 
    0.13001E+04        -0.53497E+03         0.00000E+00
   -0.53497E+03        -0.16960E+02         0.00000E+00
    0.00000E+00         0.00000E+00         0.38495E+03
 
    0.21766E+03        -0.51957E+03         0.00000E+00
   -0.51957E+03        -0.66745E+02         0.00000E+00
    0.00000E+00         0.00000E+00         0.45275E+02
 
   -0.77268E+03        -0.40179E+03         0.00000E+00
   -0.40179E+03        -0.15905E+03         0.00000E+00
    0.00000E+00         0.00000E+00        -0.27952E+03
 
   -0.16531E+04        -0.20442E+03         0.00000E+00
   -0.20442E+03        -0.29952E+03         0.00000E+00
    0.00000E+00         0.00000E+00        -0.58579E+03
 
   -0.24135E+04         0.49506E+02         0.00000E+00
    0.49506E+02        -0.48902E+03         0.00000E+00
    0.00000E+00         0.00000E+00        -0.87076E+03
 
   -0.30508E+04         0.33846E+03         0.00000E+00
    0.33846E+03        -0.72424E+03         0.00000E+00
    0.00000E+00         0.00000E+00        -0.11325E+04
 
   -0.35679E+04         0.64372E+03         0.00000E+00
    0.64372E+03        -0.99862E+03         0.00000E+00
    0.00000E+00         0.00000E+00        -0.13699E+04
 
   -0.39719E+04         0.95022E+03         0.00000E+00
    0.95022E+03        -0.13035E+04         0.00000E+00
    0.00000E+00         0.00000E+00        -0.15826E+04
 
   -0.42732E+04         0.12468E+04         0.00000E+00
    0.12468E+04        -0.16293E+04         0.00000E+00
    0.00000E+00         0.00000E+00        -0.17707E+04
 
   -0.44832E+04         0.15262E+04         0.00000E+00
    0.15262E+04        -0.19662E+04         0.00000E+00
    0.00000E+00         0.00000E+00        -0.19348E+04
 
   -0.46136E+04         0.17847E+04         0.00000E+00
    0.17847E+04        -0.23054E+04         0.00000E+00
    0.00000E+00         0.00000E+00        -0.20757E+04
 
   -0.46756E+04         0.20213E+04         0.00000E+00
    0.20213E+04        -0.26390E+04         0.00000E+00
    0.00000E+00         0.00000E+00        -0.21944E+04
 
   -0.46787E+04         0.22379E+04         0.00000E+00
    0.22379E+04        -0.29608E+04         0.00000E+00
    0.00000E+00         0.00000E+00        -0.22919E+04
 
   -0.46305E+04         0.24376E+04         0.00000E+00
    0.24376E+04        -0.32664E+04         0.00000E+00
    0.00000E+00         0.00000E+00        -0.23691E+04
 
   -0.45365E+04         0.26252E+04         0.00000E+00
    0.26252E+04        -0.35531E+04         0.00000E+00
    0.00000E+00         0.00000E+00        -0.24269E+04
 
   -0.43996E+04         0.28061E+04         0.00000E+00
    0.28061E+04        -0.38198E+04         0.00000E+00
    0.00000E+00         0.00000E+00        -0.24658E+04
 
   -0.42202E+04         0.29861E+04         0.00000E+00
    0.29861E+04        -0.40672E+04         0.00000E+00
    0.00000E+00         0.00000E+00        -0.24862E+04
 
   -0.39963E+04         0.31710E+04         0.00000E+00
    0.31710E+04        -0.42975E+04         0.00000E+00
    0.00000E+00         0.00000E+00        -0.24882E+04
 
   -0.37230E+04         0.33663E+04         0.00000E+00
    0.33663E+04        -0.45149E+04         0.00000E+00
    0.00000E+00         0.00000E+00        -0.24714E+04
 
   -0.33927E+04         0.35769E+04         0.00000E+00
    0.35769E+04        -0.47246E+04         0.00000E+00
    0.00000E+00         0.00000E+00        -0.24352E+04
 
   -0.29951E+04         0.38065E+04         0.00000E+00
    0.38065E+04        -0.49338E+04         0.00000E+00
    0.00000E+00         0.00000E+00        -0.23787E+04
 
   -0.25169E+04         0.40576E+04         0.00000E+00
    0.40576E+04        -0.51514E+04         0.00000E+00
    0.00000E+00         0.00000E+00        -0.23005E+04
 
    0.33135E+04        -0.17690E+03         0.00000E+00
   -0.17690E+03         0.18453E+01         0.00000E+00
    0.00000E+00         0.00000E+00         0.99460E+03
 
    0.22663E+04        -0.43004E+03         0.00000E+00
   -0.43004E+03         0.49241E+01         0.00000E+00
    0.00000E+00         0.00000E+00         0.68137E+03
 
    0.12418E+04        -0.55911E+03         0.00000E+00
   -0.55911E+03        -0.30894E+01         0.00000E+00
    0.00000E+00         0.00000E+00         0.37162E+03
 
    0.26735E+03        -0.57722E+03         0.00000E+00
   -0.57722E+03        -0.34987E+02         0.00000E+00
    0.00000E+00         0.00000E+00         0.69708E+02
 
   -0.63472E+03        -0.50085E+03         0.00000E+00
   -0.50085E+03        -0.10027E+03         0.00000E+00
    0.00000E+00         0.00000E+00        -0.22049E+03
 
   -0.14478E+04        -0.34842E+03         0.00000E+00
   -0.34842E+03        -0.20465E+03         0.00000E+00
    0.00000E+00         0.00000E+00        -0.49574E+03
 
   -0.21614E+04        -0.13888E+03         0.00000E+00
   -0.13888E+03        -0.35008E+03         0.00000E+00
    0.00000E+00         0.00000E+00        -0.75344E+03
 
   -0.27706E+04         0.10970E+03         0.00000E+00
    0.10970E+03        -0.53505E+03         0.00000E+00
    0.00000E+00         0.00000E+00        -0.99169E+03
 
   -0.32755E+04         0.38113E+03         0.00000E+00
    0.38113E+03        -0.75526E+03         0.00000E+00
    0.00000E+00         0.00000E+00        -0.12092E+04
 
   -0.36800E+04         0.66190E+03         0.00000E+00
    0.66190E+03        -0.10045E+04         0.00000E+00
    0.00000E+00         0.00000E+00        -0.14053E+04
 
   -0.39907E+04         0.94147E+03         0.00000E+00
    0.94147E+03        -0.12753E+04         0.00000E+00
    0.00000E+00         0.00000E+00        -0.15798E+04
 
   -0.42160E+04         0.12124E+04         0.00000E+00
    0.12124E+04        -0.15600E+04         0.00000E+00
    0.00000E+00         0.00000E+00        -0.17328E+04
 
   -0.43644E+04         0.14702E+04         0.00000E+00
    0.14702E+04        -0.18512E+04         0.00000E+00
    0.00000E+00         0.00000E+00        -0.18647E+04
 
   -0.44447E+04         0.17127E+04         0.00000E+00
    0.17127E+04        -0.21422E+04         0.00000E+00
    0.00000E+00         0.00000E+00        -0.19761E+04
 
   -0.44642E+04         0.19403E+04         0.00000E+00
    0.19403E+04        -0.24275E+04         0.00000E+00
    0.00000E+00         0.00000E+00        -0.20675E+04
 
   -0.44293E+04         0.21546E+04         0.00000E+00
    0.21546E+04        -0.27029E+04         0.00000E+00
    0.00000E+00         0.00000E+00        -0.21396E+04
 
   -0.43441E+04         0.23587E+04         0.00000E+00
    0.23587E+04        -0.29657E+04         0.00000E+00
    0.00000E+00         0.00000E+00        -0.21930E+04
 
   -0.42113E+04         0.25564E+04         0.00000E+00
    0.25564E+04        -0.32148E+04         0.00000E+00
    0.00000E+00         0.00000E+00        -0.22278E+04
 
   -0.40310E+04         0.27520E+04         0.00000E+00
    0.27520E+04        -0.34504E+04         0.00000E+00
    0.00000E+00         0.00000E+00        -0.22444E+04
 
   -0.38011E+04         0.29497E+04         0.00000E+00
    0.29497E+04        -0.36742E+04         0.00000E+00
    0.00000E+00         0.00000E+00        -0.22426E+04
 
   -0.35175E+04         0.31535E+04         0.00000E+00
    0.31535E+04        -0.38895E+04         0.00000E+00
    0.00000E+00         0.00000E+00        -0.22221E+04
 
   -0.31733E+04         0.33667E+04         0.00000E+00
    0.33667E+04        -0.41011E+04         0.00000E+00
    0.00000E+00         0.00000E+00        -0.21823E+04
 
   -0.27594E+04         0.35916E+04         0.00000E+00
    0.35916E+04        -0.43150E+04         0.00000E+00
    0.00000E+00         0.00000E+00        -0.21223E+04
 
   -0.22642E+04         0.38289E+04         0.00000E+00
    0.38289E+04        -0.45388E+04         0.00000E+00
    0.00000E+00         0.00000E+00        -0.20409E+04
 
    0.29973E+04        -0.17217E+03         0.00000E+00
   -0.17217E+03         0.22415E+01         0.00000E+00
    0.00000E+00         0.00000E+00         0.89987E+03
 
    0.20719E+04        -0.42709E+03         0.00000E+00
   -0.42709E+03         0.82788E+01         0.00000E+00
    0.00000E+00         0.00000E+00         0.62406E+03
 
    0.11593E+04        -0.57112E+03         0.00000E+00
   -0.57112E+03         0.81422E+01         0.00000E+00
    0.00000E+00         0.00000E+00         0.35024E+03
 
    0.28331E+03        -0.61481E+03         0.00000E+00
   -0.61481E+03        -0.93509E+01         0.00000E+00
    0.00000E+00         0.00000E+00         0.82186E+02
 
   -0.53620E+03        -0.57142E+03         0.00000E+00
   -0.57142E+03        -0.52802E+02         0.00000E+00
    0.00000E+00         0.00000E+00        -0.17670E+03
 
   -0.12838E+04        -0.45597E+03         0.00000E+00
   -0.45597E+03        -0.12785E+03         0.00000E+00
    0.00000E+00         0.00000E+00        -0.42350E+03
 
   -0.19490E+04        -0.28405E+03         0.00000E+00
   -0.28405E+03        -0.23709E+03         0.00000E+00
    0.00000E+00         0.00000E+00        -0.65583E+03
 
   -0.25257E+04        -0.70892E+02         0.00000E+00
   -0.70892E+02        -0.38029E+03         0.00000E+00
    0.00000E+00         0.00000E+00        -0.87181E+03
 
   -0.30121E+04         0.16958E+03         0.00000E+00
    0.16958E+03        -0.55488E+03         0.00000E+00
    0.00000E+00         0.00000E+00        -0.10701E+04
 
   -0.34096E+04         0.42536E+03         0.00000E+00
    0.42536E+03        -0.75646E+03         0.00000E+00
    0.00000E+00         0.00000E+00        -0.12498E+04
 
   -0.37221E+04         0.68669E+03         0.00000E+00
    0.68669E+03        -0.97951E+03         0.00000E+00
    0.00000E+00         0.00000E+00        -0.14105E+04
 
   -0.39551E+04         0.94628E+03         0.00000E+00
    0.94628E+03        -0.12180E+04         0.00000E+00
    0.00000E+00         0.00000E+00        -0.15519E+04
 
   -0.41149E+04         0.11992E+04         0.00000E+00
    0.11992E+04        -0.14659E+04         0.00000E+00
    0.00000E+00         0.00000E+00        -0.16742E+04
 
   -0.42078E+04         0.14425E+04         0.00000E+00
    0.14425E+04        -0.17176E+04         0.00000E+00
    0.00000E+00         0.00000E+00        -0.17776E+04
 
   -0.42397E+04         0.16755E+04         0.00000E+00
    0.16755E+04        -0.19684E+04         0.00000E+00
    0.00000E+00         0.00000E+00        -0.18624E+04
 
   -0.42152E+04         0.18985E+04         0.00000E+00
    0.18985E+04        -0.22146E+04         0.00000E+00
    0.00000E+00         0.00000E+00        -0.19289E+04
 
   -0.41379E+04         0.21132E+04         0.00000E+00
    0.21132E+04        -0.24536E+04         0.00000E+00
    0.00000E+00         0.00000E+00        -0.19774E+04
 
   -0.40094E+04         0.23222E+04         0.00000E+00
    0.23222E+04        -0.26842E+04         0.00000E+00
    0.00000E+00         0.00000E+00        -0.20081E+04
 
   -0.38299E+04         0.25281E+04         0.00000E+00
    0.25281E+04        -0.29063E+04         0.00000E+00
    0.00000E+00         0.00000E+00        -0.20209E+04
 
   -0.35974E+04         0.27339E+04         0.00000E+00
    0.27339E+04        -0.31214E+04         0.00000E+00
    0.00000E+00         0.00000E+00        -0.20156E+04
 
   -0.33081E+04         0.29422E+04         0.00000E+00
    0.29422E+04        -0.33321E+04         0.00000E+00
    0.00000E+00         0.00000E+00        -0.19920E+04
 
   -0.29561E+04         0.31549E+04         0.00000E+00
    0.31549E+04        -0.35423E+04         0.00000E+00
    0.00000E+00         0.00000E+00        -0.19495E+04
 
   -0.25335E+04         0.33729E+04         0.00000E+00
    0.33729E+04        -0.37573E+04         0.00000E+00
    0.00000E+00         0.00000E+00        -0.18872E+04
 
   -0.20303E+04         0.35958E+04         0.00000E+00
    0.35958E+04        -0.39834E+04         0.00000E+00
    0.00000E+00         0.00000E+00        -0.18041E+04
 
    0.26880E+04        -0.16644E+03         0.00000E+00
   -0.16644E+03         0.25647E+01         0.00000E+00
    0.00000E+00         0.00000E+00         0.80716E+03
 
    0.18712E+04        -0.41960E+03         0.00000E+00
   -0.41960E+03         0.10994E+02         0.00000E+00
    0.00000E+00         0.00000E+00         0.56465E+03
 
    0.10592E+04        -0.57336E+03         0.00000E+00
   -0.57336E+03         0.17205E+02         0.00000E+00
    0.00000E+00         0.00000E+00         0.32293E+03
 
    0.27303E+03        -0.63621E+03         0.00000E+00
   -0.63621E+03         0.11327E+02         0.00000E+00
    0.00000E+00         0.00000E+00         0.85308E+02
 
   -0.46955E+03        -0.61891E+03         0.00000E+00
   -0.61891E+03        -0.14456E+02         0.00000E+00
    0.00000E+00         0.00000E+00        -0.14520E+03
 
   -0.11543E+04        -0.53371E+03         0.00000E+00
   -0.53371E+03        -0.65595E+02         0.00000E+00
    0.00000E+00         0.00000E+00        -0.36596E+03
 
   -0.17708E+04        -0.39355E+03         0.00000E+00
   -0.39355E+03        -0.14509E+03         0.00000E+00
    0.00000E+00         0.00000E+00        -0.57476E+03
 
   -0.23124E+04        -0.21123E+03         0.00000E+00
   -0.21123E+03        -0.25363E+03         0.00000E+00
    0.00000E+00         0.00000E+00        -0.76980E+03
 
   -0.27758E+04         0.12645E+01         0.00000E+00
    0.12645E+01        -0.38988E+03         0.00000E+00
    0.00000E+00         0.00000E+00        -0.94970E+03
 
   -0.31607E+04         0.23333E+03         0.00000E+00
    0.23333E+03        -0.55091E+03         0.00000E+00
    0.00000E+00         0.00000E+00        -0.11135E+04
 
   -0.34688E+04         0.47609E+03         0.00000E+00
    0.47609E+03        -0.73271E+03         0.00000E+00
    0.00000E+00         0.00000E+00        -0.12604E+04
 
   -0.37035E+04         0.72252E+03         0.00000E+00
    0.72252E+03        -0.93065E+03         0.00000E+00
    0.00000E+00         0.00000E+00        -0.13903E+04
 
   -0.38691E+04         0.96753E+03         0.00000E+00
    0.96753E+03        -0.11400E+04         0.00000E+00
    0.00000E+00         0.00000E+00        -0.15027E+04
 
   -0.39700E+04         0.12078E+04         0.00000E+00
    0.12078E+04        -0.13561E+04         0.00000E+00
    0.00000E+00         0.00000E+00        -0.15978E+04
 
   -0.40104E+04         0.14416E+04         0.00000E+00
    0.14416E+04        -0.15750E+04         0.00000E+00
    0.00000E+00         0.00000E+00        -0.16756E+04
 
   -0.39939E+04         0.16684E+04         0.00000E+00
    0.16684E+04        -0.17935E+04         0.00000E+00
    0.00000E+00         0.00000E+00        -0.17362E+04
 
   -0.39230E+04         0.18888E+04         0.00000E+00
    0.18888E+04        -0.20094E+04         0.00000E+00
    0.00000E+00         0.00000E+00        -0.17797E+04
 
   -0.37989E+04         0.21041E+04         0.00000E+00
    0.21041E+04        -0.22213E+04         0.00000E+00
    0.00000E+00         0.00000E+00        -0.18061E+04
 
   -0.36216E+04         0.23158E+04         0.00000E+00
    0.23158E+04        -0.24292E+04         0.00000E+00
    0.00000E+00         0.00000E+00        -0.18152E+04
 
   -0.33891E+04         0.25256E+04         0.00000E+00
    0.25256E+04        -0.26341E+04         0.00000E+00
    0.00000E+00         0.00000E+00        -0.18069E+04
 
   -0.30981E+04         0.27349E+04         0.00000E+00
    0.27349E+04        -0.28381E+04         0.00000E+00
    0.00000E+00         0.00000E+00        -0.17808E+04
 
   -0.27435E+04         0.29444E+04         0.00000E+00
    0.29444E+04        -0.30445E+04         0.00000E+00
    0.00000E+00         0.00000E+00        -0.17364E+04
 
   -0.23186E+04         0.31539E+04         0.00000E+00
    0.31539E+04        -0.32576E+04         0.00000E+00
    0.00000E+00         0.00000E+00        -0.16729E+04
 
   -0.18150E+04         0.33619E+04         0.00000E+00
    0.33619E+04        -0.34827E+04         0.00000E+00
    0.00000E+00         0.00000E+00        -0.15893E+04
 
    0.23877E+04        -0.15989E+03         0.00000E+00
   -0.15989E+03         0.28210E+01         0.00000E+00
    0.00000E+00         0.00000E+00         0.71716E+03
 
    0.16681E+04        -0.40846E+03         0.00000E+00
   -0.40846E+03         0.13158E+02         0.00000E+00
    0.00000E+00         0.00000E+00         0.50437E+03
 
    0.94685E+03        -0.56773E+03         0.00000E+00
   -0.56773E+03         0.24453E+02         0.00000E+00
    0.00000E+00         0.00000E+00         0.29139E+03
 
    0.24264E+03        -0.64455E+03         0.00000E+00
   -0.64455E+03         0.27920E+02         0.00000E+00
    0.00000E+00         0.00000E+00         0.81167E+02
 
   -0.42847E+03        -0.64765E+03         0.00000E+00
   -0.64765E+03         0.16430E+02         0.00000E+00
    0.00000E+00         0.00000E+00        -0.12361E+03
 
   -0.10533E+04        -0.58708E+03         0.00000E+00
   -0.58708E+03        -0.15238E+02         0.00000E+00
    0.00000E+00         0.00000E+00        -0.32056E+03
 
   -0.16218E+04        -0.47360E+03         0.00000E+00
   -0.47360E+03        -0.70316E+02         0.00000E+00
    0.00000E+00         0.00000E+00        -0.50763E+03
 
   -0.21268E+04        -0.31800E+03         0.00000E+00
   -0.31800E+03        -0.15012E+03         0.00000E+00
    0.00000E+00         0.00000E+00        -0.68309E+03
 
   -0.25643E+04        -0.13057E+03         0.00000E+00
   -0.13057E+03        -0.25424E+03         0.00000E+00
    0.00000E+00         0.00000E+00        -0.84558E+03
 
   -0.29325E+04         0.79361E+02         0.00000E+00
    0.79361E+02        -0.38092E+03         0.00000E+00
    0.00000E+00         0.00000E+00        -0.99403E+03
 
   -0.32316E+04         0.30376E+03         0.00000E+00
    0.30376E+03        -0.52732E+03         0.00000E+00
    0.00000E+00         0.00000E+00        -0.11277E+04
 
   -0.34632E+04         0.53602E+03         0.00000E+00
    0.53602E+03        -0.69001E+03         0.00000E+00
    0.00000E+00         0.00000E+00        -0.12460E+04
 
   -0.36300E+04         0.77108E+03         0.00000E+00
    0.77108E+03        -0.86529E+03         0.00000E+00
    0.00000E+00         0.00000E+00        -0.13486E+04
 
   -0.37348E+04         0.10053E+04         0.00000E+00
    0.10053E+04        -0.10495E+04         0.00000E+00
    0.00000E+00         0.00000E+00        -0.14353E+04
 
   -0.37806E+04         0.12364E+04         0.00000E+00
    0.12364E+04        -0.12394E+04         0.00000E+00
    0.00000E+00         0.00000E+00        -0.15060E+04
 
   -0.37698E+04         0.14630E+04         0.00000E+00
    0.14630E+04        -0.14323E+04         0.00000E+00
    0.00000E+00         0.00000E+00        -0.15606E+04
 
   -0.37041E+04         0.16850E+04         0.00000E+00
    0.16850E+04        -0.16261E+04         0.00000E+00
    0.00000E+00         0.00000E+00        -0.15991E+04
 
   -0.35844E+04         0.19025E+04         0.00000E+00
    0.19025E+04        -0.18198E+04         0.00000E+00
    0.00000E+00         0.00000E+00        -0.16212E+04
 
   -0.34101E+04         0.21161E+04         0.00000E+00
    0.21161E+04        -0.20131E+04         0.00000E+00
    0.00000E+00         0.00000E+00        -0.16270E+04
 
   -0.31798E+04         0.23264E+04         0.00000E+00
    0.23264E+04        -0.22069E+04         0.00000E+00
    0.00000E+00         0.00000E+00        -0.16160E+04
 
   -0.28904E+04         0.25337E+04         0.00000E+00
    0.25337E+04        -0.24027E+04         0.00000E+00
    0.00000E+00         0.00000E+00        -0.15879E+04
 
   -0.25376E+04         0.27378E+04         0.00000E+00
    0.27378E+04        -0.26033E+04         0.00000E+00
    0.00000E+00         0.00000E+00        -0.15423E+04
 
   -0.21157E+04         0.29375E+04         0.00000E+00
    0.29375E+04        -0.28123E+04         0.00000E+00
    0.00000E+00         0.00000E+00        -0.14784E+04
 
   -0.16180E+04         0.31304E+04         0.00000E+00
    0.31304E+04        -0.30338E+04         0.00000E+00
    0.00000E+00         0.00000E+00        -0.13955E+04
 
    0.20984E+04        -0.15272E+03         0.00000E+00
   -0.15272E+03         0.30163E+01         0.00000E+00
    0.00000E+00         0.00000E+00         0.63043E+03
 
    0.14658E+04        -0.39444E+03         0.00000E+00
   -0.39444E+03         0.14843E+02         0.00000E+00
    0.00000E+00         0.00000E+00         0.44419E+03
 
    0.82649E+03        -0.55582E+03         0.00000E+00
   -0.55582E+03         0.30164E+02         0.00000E+00
    0.00000E+00         0.00000E+00         0.25700E+03
 
    0.19711E+03        -0.64238E+03         0.00000E+00
   -0.64238E+03         0.41102E+02         0.00000E+00
    0.00000E+00         0.00000E+00         0.71464E+02
 
   -0.40776E+03        -0.66119E+03         0.00000E+00
   -0.66119E+03         0.41131E+02         0.00000E+00
    0.00000E+00         0.00000E+00        -0.10999E+03
 
   -0.97590E+03        -0.62055E+03         0.00000E+00
   -0.62055E+03         0.25281E+02         0.00000E+00
    0.00000E+00         0.00000E+00        -0.28518E+03
 
   -0.14976E+04        -0.52940E+03         0.00000E+00
   -0.52940E+03        -0.97911E+01         0.00000E+00
    0.00000E+00         0.00000E+00        -0.45222E+03
 
   -0.19658E+04        -0.39685E+03         0.00000E+00
   -0.39685E+03        -0.65834E+02         0.00000E+00
    0.00000E+00         0.00000E+00        -0.60948E+03
 
   -0.23755E+04        -0.23174E+03         0.00000E+00
   -0.23174E+03        -0.14315E+03         0.00000E+00
    0.00000E+00         0.00000E+00        -0.75560E+03
 
   -0.27241E+04        -0.42255E+02         0.00000E+00
   -0.42255E+02        -0.24084E+03         0.00000E+00
    0.00000E+00         0.00000E+00        -0.88949E+03
 
   -0.30107E+04         0.16437E+03         0.00000E+00
    0.16437E+03        -0.35704E+03         0.00000E+00
    0.00000E+00         0.00000E+00        -0.10103E+04
 
   -0.32355E+04         0.38201E+03         0.00000E+00
    0.38201E+03        -0.48931E+03         0.00000E+00
    0.00000E+00         0.00000E+00        -0.11174E+04
 
   -0.33998E+04         0.60572E+03         0.00000E+00
    0.60572E+03        -0.63484E+03         0.00000E+00
    0.00000E+00         0.00000E+00        -0.12104E+04
 
   -0.35052E+04         0.83172E+03         0.00000E+00
    0.83172E+03        -0.79080E+03         0.00000E+00
    0.00000E+00         0.00000E+00        -0.12888E+04
 
   -0.35536E+04         0.10573E+04         0.00000E+00
    0.10573E+04        -0.95458E+03         0.00000E+00
    0.00000E+00         0.00000E+00        -0.13525E+04
 
   -0.35465E+04         0.12807E+04         0.00000E+00
    0.12807E+04        -0.11239E+04         0.00000E+00
    0.00000E+00         0.00000E+00        -0.14011E+04
 
   -0.34850E+04         0.15008E+04         0.00000E+00
    0.15008E+04        -0.12972E+04         0.00000E+00
    0.00000E+00         0.00000E+00        -0.14347E+04
 
   -0.33693E+04         0.17171E+04         0.00000E+00
    0.17171E+04        -0.14734E+04         0.00000E+00
    0.00000E+00         0.00000E+00        -0.14528E+04
 
   -0.31990E+04         0.19293E+04         0.00000E+00
    0.19293E+04        -0.16523E+04         0.00000E+00
    0.00000E+00         0.00000E+00        -0.14554E+04
 
   -0.29726E+04         0.21371E+04         0.00000E+00
    0.21371E+04        -0.18345E+04         0.00000E+00
    0.00000E+00         0.00000E+00        -0.14421E+04
 
   -0.26874E+04         0.23400E+04         0.00000E+00
    0.23400E+04        -0.20212E+04         0.00000E+00
    0.00000E+00         0.00000E+00        -0.14126E+04
 
   -0.23399E+04         0.25368E+04         0.00000E+00
    0.25368E+04        -0.22146E+04         0.00000E+00
    0.00000E+00         0.00000E+00        -0.13663E+04
 
   -0.19254E+04         0.27258E+04         0.00000E+00
    0.27258E+04        -0.24174E+04         0.00000E+00
    0.00000E+00         0.00000E+00        -0.13029E+04
 
   -0.14386E+04         0.29037E+04         0.00000E+00
    0.29037E+04        -0.26332E+04         0.00000E+00
    0.00000E+00         0.00000E+00        -0.12216E+04
 
    0.18215E+04        -0.14507E+03         0.00000E+00
   -0.14507E+03         0.31565E+01         0.00000E+00
    0.00000E+00         0.00000E+00         0.54739E+03
 
    0.12669E+04        -0.37817E+03         0.00000E+00
   -0.37817E+03         0.16110E+02         0.00000E+00
    0.00000E+00         0.00000E+00         0.38491E+03
 
    0.70161E+03        -0.53895E+03         0.00000E+00
   -0.53895E+03         0.34563E+02         0.00000E+00
    0.00000E+00         0.00000E+00         0.22085E+03
 
    0.14053E+03        -0.63180E+03         0.00000E+00
   -0.63180E+03         0.51410E+02         0.00000E+00
    0.00000E+00         0.00000E+00         0.57582E+02
 
   -0.40307E+03        -0.66249E+03         0.00000E+00
   -0.66249E+03         0.60658E+02         0.00000E+00
    0.00000E+00         0.00000E+00        -0.10272E+03
 
   -0.91785E+03        -0.63783E+03         0.00000E+00
   -0.63783E+03         0.57592E+02         0.00000E+00
    0.00000E+00         0.00000E+00        -0.25808E+03
 
   -0.13946E+04        -0.56528E+03         0.00000E+00
   -0.56528E+03         0.38840E+02         0.00000E+00
    0.00000E+00         0.00000E+00        -0.40672E+03
 
   -0.18260E+04        -0.45255E+03         0.00000E+00
   -0.45255E+03         0.23566E+01         0.00000E+00
    0.00000E+00         0.00000E+00        -0.54710E+03
 
   -0.22071E+04        -0.30724E+03         0.00000E+00
   -0.30724E+03        -0.52678E+02         0.00000E+00
    0.00000E+00         0.00000E+00        -0.67793E+03
 
   -0.25343E+04        -0.13650E+03         0.00000E+00
   -0.13650E+03        -0.12603E+03         0.00000E+00
    0.00000E+00         0.00000E+00        -0.79811E+03
 
   -0.28059E+04         0.53171E+02         0.00000E+00
    0.53171E+02        -0.21663E+03         0.00000E+00
    0.00000E+00         0.00000E+00        -0.90675E+03
 
   -0.30210E+04         0.25612E+03         0.00000E+00
    0.25612E+03        -0.32280E+03         0.00000E+00
    0.00000E+00         0.00000E+00        -0.10032E+04
 
   -0.31800E+04         0.46762E+03         0.00000E+00
    0.46762E+03        -0.44252E+03         0.00000E+00
    0.00000E+00         0.00000E+00        -0.10868E+04
 
   -0.32834E+04         0.68385E+03         0.00000E+00
    0.68385E+03        -0.57366E+03         0.00000E+00
    0.00000E+00         0.00000E+00        -0.11571E+04
 
   -0.33322E+04         0.90185E+03         0.00000E+00
    0.90185E+03        -0.71417E+03         0.00000E+00
    0.00000E+00         0.00000E+00        -0.12139E+04
 
   -0.33271E+04         0.11194E+04         0.00000E+00
    0.11194E+04        -0.86227E+03         0.00000E+00
    0.00000E+00         0.00000E+00        -0.12568E+04
 
   -0.32687E+04         0.13350E+04         0.00000E+00
    0.13350E+04        -0.10166E+04         0.00000E+00
    0.00000E+00         0.00000E+00        -0.12856E+04
 
   -0.31569E+04         0.15473E+04         0.00000E+00
    0.15473E+04        -0.11763E+04         0.00000E+00
    0.00000E+00         0.00000E+00        -0.13000E+04
 
   -0.29910E+04         0.17554E+04         0.00000E+00
    0.17554E+04        -0.13412E+04         0.00000E+00
    0.00000E+00         0.00000E+00        -0.12997E+04
 
   -0.27698E+04         0.19583E+04         0.00000E+00
    0.19583E+04        -0.15116E+04         0.00000E+00
    0.00000E+00         0.00000E+00        -0.12844E+04
 
   -0.24910E+04         0.21548E+04         0.00000E+00
    0.21548E+04        -0.16885E+04         0.00000E+00
    0.00000E+00         0.00000E+00        -0.12538E+04
 
   -0.21516E+04         0.23430E+04         0.00000E+00
    0.23430E+04        -0.18737E+04         0.00000E+00
    0.00000E+00         0.00000E+00        -0.12076E+04
 
   -0.17480E+04         0.25206E+04         0.00000E+00
    0.25206E+04        -0.20691E+04         0.00000E+00
    0.00000E+00         0.00000E+00        -0.11451E+04
 
   -0.12760E+04         0.26839E+04         0.00000E+00
    0.26839E+04        -0.22775E+04         0.00000E+00
    0.00000E+00         0.00000E+00        -0.10661E+04
 
    0.15580E+04        -0.13709E+03         0.00000E+00
   -0.13709E+03         0.32472E+01         0.00000E+00
    0.00000E+00         0.00000E+00         0.46837E+03
 
    0.10735E+04        -0.36020E+03         0.00000E+00
   -0.36020E+03         0.17012E+02         0.00000E+00
    0.00000E+00         0.00000E+00         0.32714E+03
 
    0.57503E+03        -0.51821E+03         0.00000E+00
   -0.51821E+03         0.37838E+02         0.00000E+00
    0.00000E+00         0.00000E+00         0.18386E+03
 
    0.76234E+02        -0.61458E+03         0.00000E+00
   -0.61458E+03         0.59283E+02         0.00000E+00
    0.00000E+00         0.00000E+00         0.40655E+02
 
   -0.41082E+03        -0.65397E+03         0.00000E+00
   -0.65397E+03         0.75830E+02         0.00000E+00
    0.00000E+00         0.00000E+00        -0.10050E+03
 
   -0.87562E+03        -0.64200E+03         0.00000E+00
   -0.64200E+03         0.83016E+02         0.00000E+00
    0.00000E+00         0.00000E+00        -0.23778E+03
 
   -0.13093E+04        -0.58489E+03         0.00000E+00
   -0.58489E+03         0.77492E+02         0.00000E+00
    0.00000E+00         0.00000E+00        -0.36956E+03
 
   -0.17050E+04        -0.48916E+03         0.00000E+00
   -0.48916E+03         0.57024E+02         0.00000E+00
    0.00000E+00         0.00000E+00        -0.49438E+03
 
   -0.20571E+04        -0.36135E+03         0.00000E+00
   -0.36135E+03         0.20413E+02         0.00000E+00
    0.00000E+00         0.00000E+00        -0.61099E+03
 
   -0.23618E+04        -0.20772E+03         0.00000E+00
   -0.20772E+03        -0.32624E+02         0.00000E+00
    0.00000E+00         0.00000E+00        -0.71832E+03
 
   -0.26166E+04        -0.34073E+02         0.00000E+00
   -0.34073E+02        -0.10162E+03         0.00000E+00
    0.00000E+00         0.00000E+00        -0.81547E+03
 
   -0.28201E+04         0.15440E+03         0.00000E+00
    0.15440E+03        -0.18556E+03         0.00000E+00
    0.00000E+00         0.00000E+00        -0.90170E+03
 
   -0.29716E+04         0.35322E+03         0.00000E+00
    0.35322E+03        -0.28305E+03         0.00000E+00
    0.00000E+00         0.00000E+00        -0.97639E+03
 
   -0.30709E+04         0.55861E+03         0.00000E+00
    0.55861E+03        -0.39255E+03         0.00000E+00
    0.00000E+00         0.00000E+00        -0.10390E+04
 
   -0.31183E+04         0.76748E+03         0.00000E+00
    0.76748E+03        -0.51251E+03         0.00000E+00
    0.00000E+00         0.00000E+00        -0.10892E+04
 
   -0.31139E+04         0.97734E+03         0.00000E+00
    0.97734E+03        -0.64156E+03         0.00000E+00
    0.00000E+00         0.00000E+00        -0.11266E+04
 
   -0.30577E+04         0.11862E+04         0.00000E+00
    0.11862E+04        -0.77863E+03         0.00000E+00
    0.00000E+00         0.00000E+00        -0.11509E+04
 
   -0.29495E+04         0.13923E+04         0.00000E+00
    0.13923E+04        -0.92301E+03         0.00000E+00
    0.00000E+00         0.00000E+00        -0.11618E+04
 
   -0.27885E+04         0.15942E+04         0.00000E+00
    0.15942E+04        -0.10745E+04         0.00000E+00
    0.00000E+00         0.00000E+00        -0.11589E+04
 
   -0.25735E+04         0.17903E+04         0.00000E+00
    0.17903E+04        -0.12332E+04         0.00000E+00
    0.00000E+00         0.00000E+00        -0.11420E+04
 
   -0.23027E+04         0.19788E+04         0.00000E+00
    0.19788E+04        -0.14001E+04         0.00000E+00
    0.00000E+00         0.00000E+00        -0.11108E+04
 
   -0.19736E+04         0.21574E+04         0.00000E+00
    0.21574E+04        -0.15762E+04         0.00000E+00
    0.00000E+00         0.00000E+00        -0.10650E+04
 
   -0.15835E+04         0.23232E+04         0.00000E+00
    0.23232E+04        -0.17633E+04         0.00000E+00
    0.00000E+00         0.00000E+00        -0.10040E+04
 
   -0.11293E+04         0.24724E+04         0.00000E+00
    0.24724E+04        -0.19631E+04         0.00000E+00
    0.00000E+00         0.00000E+00        -0.92772E+03
 
    0.13087E+04        -0.12891E+03         0.00000E+00
   -0.12891E+03         0.32940E+01         0.00000E+00
    0.00000E+00         0.00000E+00         0.39360E+03
 
    0.88699E+03        -0.34102E+03         0.00000E+00
   -0.34102E+03         0.17598E+02         0.00000E+00
    0.00000E+00         0.00000E+00         0.27138E+03
 
    0.44898E+03        -0.49455E+03         0.00000E+00
   -0.49455E+03         0.40151E+02         0.00000E+00
    0.00000E+00         0.00000E+00         0.14674E+03
 
    0.69425E+01        -0.59219E+03         0.00000E+00
   -0.59219E+03         0.65091E+02         0.00000E+00
    0.00000E+00         0.00000E+00         0.21610E+02
 
   -0.42804E+03        -0.63769E+03         0.00000E+00
   -0.63769E+03         0.87326E+02         0.00000E+00
    0.00000E+00         0.00000E+00        -0.10221E+03
 
   -0.84618E+03        -0.63565E+03         0.00000E+00
   -0.63565E+03         0.10264E+03         0.00000E+00
    0.00000E+00         0.00000E+00        -0.22306E+03
 
   -0.12392E+04        -0.59129E+03         0.00000E+00
   -0.59129E+03         0.10775E+03         0.00000E+00
    0.00000E+00         0.00000E+00        -0.33942E+03
 
   -0.16001E+04        -0.51011E+03         0.00000E+00
   -0.51011E+03         0.10030E+03         0.00000E+00
    0.00000E+00         0.00000E+00        -0.44994E+03
 
   -0.19235E+04        -0.39775E+03         0.00000E+00
   -0.39775E+03         0.78821E+02         0.00000E+00
    0.00000E+00         0.00000E+00        -0.55341E+03
 
   -0.22053E+04        -0.25967E+03         0.00000E+00
   -0.25967E+03         0.42640E+02         0.00000E+00
    0.00000E+00         0.00000E+00        -0.64878E+03
 
   -0.24423E+04        -0.10107E+03         0.00000E+00
   -0.10107E+03        -0.82569E+01         0.00000E+00
    0.00000E+00         0.00000E+00        -0.73518E+03
 
   -0.26327E+04         0.73320E+02         0.00000E+00
    0.73320E+02        -0.73368E+02         0.00000E+00
    0.00000E+00         0.00000E+00        -0.81183E+03
 
   -0.27751E+04         0.25929E+03         0.00000E+00
    0.25929E+03        -0.15183E+03         0.00000E+00
    0.00000E+00         0.00000E+00        -0.87809E+03
 
   -0.28689E+04         0.45316E+03         0.00000E+00
    0.45316E+03        -0.24260E+03         0.00000E+00
    0.00000E+00         0.00000E+00        -0.93343E+03
 
   -0.29134E+04         0.65179E+03         0.00000E+00
    0.65179E+03        -0.34455E+03         0.00000E+00
    0.00000E+00         0.00000E+00        -0.97739E+03
 
   -0.29086E+04         0.85250E+03         0.00000E+00
    0.85250E+03        -0.45667E+03         0.00000E+00
    0.00000E+00         0.00000E+00        -0.10096E+04
 
   -0.28540E+04         0.10530E+04         0.00000E+00
    0.10530E+04        -0.57812E+03         0.00000E+00
    0.00000E+00         0.00000E+00        -0.10296E+04
 
   -0.27491E+04         0.12512E+04         0.00000E+00
    0.12512E+04        -0.70834E+03         0.00000E+00
    0.00000E+00         0.00000E+00        -0.10372E+04
 
   -0.25933E+04         0.14452E+04         0.00000E+00
    0.14452E+04        -0.84712E+03         0.00000E+00
    0.00000E+00         0.00000E+00        -0.10321E+04
 
   -0.23852E+04         0.16330E+04         0.00000E+00
    0.16330E+04        -0.99460E+03         0.00000E+00
    0.00000E+00         0.00000E+00        -0.10140E+04
 
   -0.21236E+04         0.18124E+04         0.00000E+00
    0.18124E+04        -0.11513E+04         0.00000E+00
    0.00000E+00         0.00000E+00        -0.98247E+03
 
   -0.18065E+04         0.19807E+04         0.00000E+00
    0.19807E+04        -0.13181E+04         0.00000E+00
    0.00000E+00         0.00000E+00        -0.93737E+03
 
   -0.14319E+04         0.21347E+04         0.00000E+00
    0.21347E+04        -0.14960E+04         0.00000E+00
    0.00000E+00         0.00000E+00        -0.87836E+03
 
   -0.99744E+03         0.22703E+04         0.00000E+00
    0.22703E+04        -0.16865E+04         0.00000E+00
    0.00000E+00         0.00000E+00        -0.80518E+03
 
    0.10741E+04        -0.12063E+03         0.00000E+00
   -0.12063E+03         0.33025E+01         0.00000E+00
    0.00000E+00         0.00000E+00         0.32322E+03
 
    0.70871E+03        -0.32103E+03         0.00000E+00
   -0.32103E+03         0.17911E+02         0.00000E+00
    0.00000E+00         0.00000E+00         0.21799E+03
 
    0.32525E+03        -0.46876E+03         0.00000E+00
   -0.46876E+03         0.41643E+02         0.00000E+00
    0.00000E+00         0.00000E+00         0.11007E+03
 
   -0.65136E+02        -0.56586E+03         0.00000E+00
   -0.56586E+03         0.69149E+02         0.00000E+00
    0.00000E+00         0.00000E+00         0.12039E+01
 
   -0.45226E+03        -0.61534E+03         0.00000E+00
   -0.61534E+03         0.95721E+02         0.00000E+00
    0.00000E+00         0.00000E+00        -0.10696E+03
 
   -0.82704E+03        -0.62096E+03         0.00000E+00
   -0.62096E+03         0.11738E+03         0.00000E+00
    0.00000E+00         0.00000E+00        -0.21290E+03
 
   -0.11816E+04        -0.58706E+03         0.00000E+00
   -0.58706E+03         0.13094E+03         0.00000E+00
    0.00000E+00         0.00000E+00        -0.31520E+03
 
   -0.15093E+04        -0.51832E+03         0.00000E+00
   -0.51832E+03         0.13397E+03         0.00000E+00
    0.00000E+00         0.00000E+00        -0.41261E+03
 
   -0.18047E+04        -0.41957E+03         0.00000E+00
   -0.41957E+03         0.12483E+03         0.00000E+00
    0.00000E+00         0.00000E+00        -0.50397E+03
 
   -0.20635E+04        -0.29562E+03         0.00000E+00
   -0.29562E+03         0.10253E+03         0.00000E+00
    0.00000E+00         0.00000E+00        -0.58828E+03
 
   -0.22823E+04        -0.15108E+03         0.00000E+00
   -0.15108E+03         0.66706E+02         0.00000E+00
    0.00000E+00         0.00000E+00        -0.66467E+03
 
   -0.24587E+04         0.97455E+01         0.00000E+00
    0.97455E+01         0.17433E+02         0.00000E+00
    0.00000E+00         0.00000E+00        -0.73238E+03
 
   -0.25910E+04         0.18291E+03         0.00000E+00
    0.18291E+03        -0.44852E+02         0.00000E+00
    0.00000E+00         0.00000E+00        -0.79076E+03
 
   -0.26780E+04         0.36488E+03         0.00000E+00
    0.36488E+03        -0.11950E+03         0.00000E+00
    0.00000E+00         0.00000E+00        -0.83924E+03
 
   -0.27187E+04         0.55253E+03         0.00000E+00
    0.55253E+03        -0.20577E+03         0.00000E+00
    0.00000E+00         0.00000E+00        -0.87734E+03
 
   -0.27126E+04         0.74307E+03         0.00000E+00
    0.74307E+03        -0.30293E+03         0.00000E+00
    0.00000E+00         0.00000E+00        -0.90466E+03
 
   -0.26590E+04         0.93401E+03         0.00000E+00
    0.93401E+03        -0.41037E+03         0.00000E+00
    0.00000E+00         0.00000E+00        -0.92081E+03
 
   -0.25573E+04         0.11230E+04         0.00000E+00
    0.11230E+04        -0.52765E+03         0.00000E+00
    0.00000E+00         0.00000E+00        -0.92549E+03
 
   -0.24067E+04         0.13079E+04         0.00000E+00
    0.13079E+04        -0.65458E+03         0.00000E+00
    0.00000E+00         0.00000E+00        -0.91838E+03
 
   -0.22062E+04         0.14863E+04         0.00000E+00
    0.14863E+04        -0.79121E+03         0.00000E+00
    0.00000E+00         0.00000E+00        -0.89921E+03
 
   -0.19546E+04         0.16557E+04         0.00000E+00
    0.16557E+04        -0.93785E+03         0.00000E+00
    0.00000E+00         0.00000E+00        -0.86772E+03
 
   -0.16506E+04         0.18132E+04         0.00000E+00
    0.18132E+04        -0.10951E+04         0.00000E+00
    0.00000E+00         0.00000E+00        -0.82368E+03
 
   -0.12927E+04         0.19555E+04         0.00000E+00
    0.19555E+04        -0.12635E+04         0.00000E+00
    0.00000E+00         0.00000E+00        -0.76687E+03
 
   -0.87951E+03         0.20783E+04         0.00000E+00
    0.20783E+04        -0.14441E+04         0.00000E+00
    0.00000E+00         0.00000E+00        -0.69708E+03
 
    0.85446E+03        -0.11235E+03         0.00000E+00
   -0.11235E+03         0.32781E+01         0.00000E+00
    0.00000E+00         0.00000E+00         0.25732E+03
 
    0.53950E+03        -0.30057E+03         0.00000E+00
   -0.30057E+03         0.17992E+02         0.00000E+00
    0.00000E+00         0.00000E+00         0.16725E+03
 
    0.20522E+03        -0.44150E+03         0.00000E+00
   -0.44150E+03         0.42441E+02         0.00000E+00
    0.00000E+00         0.00000E+00         0.74299E+02
 
   -0.13822E+03        -0.53665E+03         0.00000E+00
   -0.53665E+03         0.71731E+02         0.00000E+00
    0.00000E+00         0.00000E+00        -0.19945E+02
 
   -0.48146E+03        -0.58837E+03         0.00000E+00
   -0.58837E+03         0.10151E+03         0.00000E+00
    0.00000E+00         0.00000E+00        -0.11399E+03
 
   -0.81608E+03        -0.59975E+03         0.00000E+00
   -0.59975E+03         0.12802E+03         0.00000E+00
    0.00000E+00         0.00000E+00        -0.20642E+03
 
   -0.11347E+04        -0.57439E+03         0.00000E+00
   -0.57439E+03         0.14818E+03         0.00000E+00
    0.00000E+00         0.00000E+00        -0.29594E+03
 
   -0.14308E+04        -0.51626E+03         0.00000E+00
   -0.51626E+03         0.15956E+03         0.00000E+00
    0.00000E+00         0.00000E+00        -0.38137E+03
 
   -0.16991E+04        -0.42952E+03         0.00000E+00
   -0.42952E+03         0.16037E+03         0.00000E+00
    0.00000E+00         0.00000E+00        -0.46162E+03
 
   -0.19352E+04        -0.31837E+03         0.00000E+00
   -0.31837E+03         0.14943E+03         0.00000E+00
    0.00000E+00         0.00000E+00        -0.53575E+03
 
   -0.21357E+04        -0.18691E+03         0.00000E+00
   -0.18691E+03         0.12605E+03         0.00000E+00
    0.00000E+00         0.00000E+00        -0.60289E+03
 
   -0.22977E+04        -0.39070E+02         0.00000E+00
   -0.39070E+02         0.90017E+02         0.00000E+00
    0.00000E+00         0.00000E+00        -0.66230E+03
 
   -0.24192E+04         0.12150E+03         0.00000E+00
    0.12150E+03         0.41404E+02         0.00000E+00
    0.00000E+00         0.00000E+00        -0.71334E+03
 
   -0.24987E+04         0.29142E+03         0.00000E+00
    0.29142E+03        -0.19468E+02         0.00000E+00
    0.00000E+00         0.00000E+00        -0.75544E+03
 
   -0.25348E+04         0.46762E+03         0.00000E+00
    0.46762E+03        -0.92159E+02         0.00000E+00
    0.00000E+00         0.00000E+00        -0.78810E+03
 
   -0.25268E+04         0.64730E+03         0.00000E+00
    0.64730E+03        -0.17619E+03         0.00000E+00
    0.00000E+00         0.00000E+00        -0.81091E+03
 
   -0.24738E+04         0.82783E+03         0.00000E+00
    0.82783E+03        -0.27113E+03         0.00000E+00
    0.00000E+00         0.00000E+00        -0.82349E+03
 
   -0.23751E+04         0.10067E+04         0.00000E+00
    0.10067E+04        -0.37666E+03         0.00000E+00
    0.00000E+00         0.00000E+00        -0.82552E+03
 
   -0.22297E+04         0.11816E+04         0.00000E+00
    0.11816E+04        -0.49259E+03         0.00000E+00
    0.00000E+00         0.00000E+00        -0.81670E+03
 
   -0.20370E+04         0.13498E+04         0.00000E+00
    0.13498E+04        -0.61890E+03         0.00000E+00
    0.00000E+00         0.00000E+00        -0.79678E+03
 
   -0.17961E+04         0.15088E+04         0.00000E+00
    0.15088E+04        -0.75575E+03         0.00000E+00
    0.00000E+00         0.00000E+00        -0.76555E+03
 
   -0.15059E+04         0.16553E+04         0.00000E+00
    0.16553E+04        -0.90342E+03         0.00000E+00
    0.00000E+00         0.00000E+00        -0.72279E+03
 
   -0.11656E+04         0.17860E+04         0.00000E+00
    0.17860E+04        -0.10623E+04         0.00000E+00
    0.00000E+00         0.00000E+00        -0.66836E+03
 
   -0.77443E+03         0.18967E+04         0.00000E+00
    0.18967E+04        -0.12327E+04         0.00000E+00
    0.00000E+00         0.00000E+00        -0.60213E+03
 
    0.64986E+03        -0.10415E+03         0.00000E+00
   -0.10415E+03         0.32261E+01         0.00000E+00
    0.00000E+00         0.00000E+00         0.19593E+03
 
    0.37999E+03        -0.27993E+03         0.00000E+00
   -0.27993E+03         0.17878E+02         0.00000E+00
    0.00000E+00         0.00000E+00         0.11936E+03
 
    0.89992E+02        -0.41334E+03         0.00000E+00
   -0.41334E+03         0.42657E+02         0.00000E+00
    0.00000E+00         0.00000E+00         0.39795E+02
 
   -0.21087E+03        -0.50541E+03         0.00000E+00
   -0.50541E+03         0.73081E+02         0.00000E+00
    0.00000E+00         0.00000E+00        -0.41336E+02
 
   -0.51399E+03        -0.55798E+03         0.00000E+00
   -0.55798E+03         0.10511E+03         0.00000E+00
    0.00000E+00         0.00000E+00        -0.12266E+03
 
   -0.81154E+03        -0.57355E+03         0.00000E+00
   -0.57355E+03         0.13523E+03         0.00000E+00
    0.00000E+00         0.00000E+00        -0.20289E+03
 
   -0.10965E+04        -0.55511E+03         0.00000E+00
   -0.55511E+03         0.16046E+03         0.00000E+00
    0.00000E+00         0.00000E+00        -0.28082E+03
 
   -0.13629E+04        -0.50602E+03         0.00000E+00
   -0.50602E+03         0.17838E+03         0.00000E+00
    0.00000E+00         0.00000E+00        -0.35535E+03
 
   -0.16053E+04        -0.42986E+03         0.00000E+00
   -0.42986E+03         0.18713E+03         0.00000E+00
    0.00000E+00         0.00000E+00        -0.42546E+03
 
   -0.18195E+04        -0.33030E+03         0.00000E+00
   -0.33030E+03         0.18537E+03         0.00000E+00
    0.00000E+00         0.00000E+00        -0.49024E+03
 
   -0.20018E+04        -0.21101E+03         0.00000E+00
   -0.21101E+03         0.17221E+03         0.00000E+00
    0.00000E+00         0.00000E+00        -0.54887E+03
 
   -0.21493E+04        -0.75525E+02         0.00000E+00
   -0.75525E+02         0.14715E+03         0.00000E+00
    0.00000E+00         0.00000E+00        -0.60064E+03
 
   -0.22597E+04         0.72761E+02         0.00000E+00
    0.72761E+02         0.11002E+03         0.00000E+00
    0.00000E+00         0.00000E+00        -0.64490E+03
 
   -0.23312E+04         0.23066E+03         0.00000E+00
    0.23066E+03         0.60852E+02         0.00000E+00
    0.00000E+00         0.00000E+00        -0.68109E+03
 
   -0.23623E+04         0.39520E+03         0.00000E+00
    0.39520E+03        -0.14835E+00         0.00000E+00
    0.00000E+00         0.00000E+00        -0.70874E+03
 
   -0.23520E+04         0.56358E+03         0.00000E+00
    0.56358E+03        -0.72716E+02         0.00000E+00
    0.00000E+00         0.00000E+00        -0.72741E+03
 
   -0.22992E+04         0.73314E+03         0.00000E+00
    0.73314E+03        -0.15657E+03         0.00000E+00
    0.00000E+00         0.00000E+00        -0.73674E+03
 
   -0.22032E+04         0.90131E+03         0.00000E+00
    0.90131E+03        -0.25148E+03         0.00000E+00
    0.00000E+00         0.00000E+00        -0.73640E+03
 
   -0.20632E+04         0.10655E+04         0.00000E+00
    0.10655E+04        -0.35727E+03         0.00000E+00
    0.00000E+00         0.00000E+00        -0.72613E+03
 
   -0.18785E+04         0.12231E+04         0.00000E+00
    0.12231E+04        -0.47387E+03         0.00000E+00
    0.00000E+00         0.00000E+00        -0.70570E+03
 
   -0.16484E+04         0.13713E+04         0.00000E+00
    0.13713E+04        -0.60129E+03         0.00000E+00
    0.00000E+00         0.00000E+00        -0.67490E+03
 
   -0.13724E+04         0.15069E+04         0.00000E+00
    0.15069E+04        -0.73958E+03         0.00000E+00
    0.00000E+00         0.00000E+00        -0.63359E+03
 
   -0.10500E+04         0.16263E+04         0.00000E+00
    0.16263E+04        -0.88883E+03         0.00000E+00
    0.00000E+00         0.00000E+00        -0.58166E+03
 
   -0.68115E+03         0.17258E+04         0.00000E+00
    0.17258E+04        -0.10490E+04         0.00000E+00
    0.00000E+00         0.00000E+00        -0.51906E+03
 
    0.46021E+03        -0.96092E+02         0.00000E+00
   -0.96092E+02         0.31513E+01         0.00000E+00
    0.00000E+00         0.00000E+00         0.13901E+03
 
    0.23057E+03        -0.25937E+03         0.00000E+00
   -0.25937E+03         0.17604E+02         0.00000E+00
    0.00000E+00         0.00000E+00         0.74453E+02
 
   -0.19636E+02        -0.38474E+03         0.00000E+00
   -0.38474E+03         0.42394E+02         0.00000E+00
    0.00000E+00         0.00000E+00         0.68272E+01
 
   -0.28196E+03        -0.47287E+03         0.00000E+00
   -0.47287E+03         0.73412E+02         0.00000E+00
    0.00000E+00         0.00000E+00        -0.62563E+02
 
   -0.54848E+03        -0.52517E+03         0.00000E+00
   -0.52517E+03         0.10692E+03         0.00000E+00
    0.00000E+00         0.00000E+00        -0.13247E+03
 
   -0.81193E+03        -0.54364E+03         0.00000E+00
   -0.54364E+03         0.13960E+03         0.00000E+00
    0.00000E+00         0.00000E+00        -0.20170E+03
 
   -0.10658E+04        -0.53075E+03         0.00000E+00
   -0.53075E+03         0.16861E+03         0.00000E+00
    0.00000E+00         0.00000E+00        -0.26915E+03
 
   -0.13042E+04        -0.48935E+03         0.00000E+00
   -0.48935E+03         0.19156E+03         0.00000E+00
    0.00000E+00         0.00000E+00        -0.33378E+03
 
   -0.15221E+04        -0.42252E+03         0.00000E+00
   -0.42252E+03         0.20655E+03         0.00000E+00
    0.00000E+00         0.00000E+00        -0.39466E+03
 
   -0.17152E+04        -0.33348E+03         0.00000E+00
   -0.33348E+03         0.21214E+03         0.00000E+00
    0.00000E+00         0.00000E+00        -0.45091E+03
 
   -0.18798E+04        -0.22547E+03         0.00000E+00
   -0.22547E+03         0.20727E+03         0.00000E+00
    0.00000E+00         0.00000E+00        -0.50176E+03
 
   -0.20129E+04        -0.10170E+03         0.00000E+00
   -0.10170E+03         0.19125E+03         0.00000E+00
    0.00000E+00         0.00000E+00        -0.54651E+03
 
   -0.21122E+04         0.34700E+02         0.00000E+00
    0.34700E+02         0.16369E+03         0.00000E+00
    0.00000E+00         0.00000E+00        -0.58455E+03
 
   -0.21755E+04         0.18074E+03         0.00000E+00
    0.18074E+03         0.12442E+03         0.00000E+00
    0.00000E+00         0.00000E+00        -0.61533E+03
 
   -0.22013E+04         0.33357E+03         0.00000E+00
    0.33357E+03         0.73429E+02         0.00000E+00
    0.00000E+00         0.00000E+00        -0.63837E+03
 
   -0.21884E+04         0.49044E+03         0.00000E+00
    0.49044E+03         0.10827E+02         0.00000E+00
    0.00000E+00         0.00000E+00        -0.65327E+03
 
   -0.21356E+04         0.64870E+03         0.00000E+00
    0.64870E+03        -0.63238E+02         0.00000E+00
    0.00000E+00         0.00000E+00        -0.65966E+03
 
   -0.20422E+04         0.80577E+03         0.00000E+00
    0.80577E+03        -0.14860E+03         0.00000E+00
    0.00000E+00         0.00000E+00        -0.65724E+03
 
   -0.19074E+04         0.95900E+03         0.00000E+00
    0.95900E+03        -0.24510E+03         0.00000E+00
    0.00000E+00         0.00000E+00        -0.64575E+03
 
   -0.17307E+04         0.11057E+04         0.00000E+00
    0.11057E+04        -0.35262E+03         0.00000E+00
    0.00000E+00         0.00000E+00        -0.62498E+03
 
   -0.15116E+04         0.12430E+04         0.00000E+00
    0.12430E+04        -0.47105E+03         0.00000E+00
    0.00000E+00         0.00000E+00        -0.59478E+03
 
   -0.12498E+04         0.13677E+04         0.00000E+00
    0.13677E+04        -0.60026E+03         0.00000E+00
    0.00000E+00         0.00000E+00        -0.55502E+03
 
   -0.94543E+03         0.14765E+04         0.00000E+00
    0.14765E+04        -0.74009E+03         0.00000E+00
    0.00000E+00         0.00000E+00        -0.50566E+03
 
   -0.59869E+03         0.15654E+04         0.00000E+00
    0.15654E+04        -0.89023E+03         0.00000E+00
    0.00000E+00         0.00000E+00        -0.44667E+03
 
    0.28528E+03        -0.88238E+02         0.00000E+00
   -0.88238E+02         0.30586E+01         0.00000E+00
    0.00000E+00         0.00000E+00         0.86500E+02
 
    0.91464E+02        -0.23908E+03         0.00000E+00
   -0.23908E+03         0.17202E+02         0.00000E+00
    0.00000E+00         0.00000E+00         0.32600E+02
 
   -0.12307E+03        -0.35609E+03         0.00000E+00
   -0.35609E+03         0.41744E+02         0.00000E+00
    0.00000E+00         0.00000E+00        -0.24398E+02
 
   -0.35059E+03        -0.43964E+03         0.00000E+00
   -0.43964E+03         0.72916E+02         0.00000E+00
    0.00000E+00         0.00000E+00        -0.83304E+02
 
   -0.58383E+03        -0.49077E+03         0.00000E+00
   -0.49077E+03         0.10725E+03         0.00000E+00
    0.00000E+00         0.00000E+00        -0.14297E+03
 
   -0.81605E+03        -0.51108E+03         0.00000E+00
   -0.51108E+03         0.14164E+03         0.00000E+00
    0.00000E+00         0.00000E+00        -0.20232E+03
 
   -0.10411E+04        -0.50260E+03         0.00000E+00
   -0.50260E+03         0.17336E+03         0.00000E+00
    0.00000E+00         0.00000E+00        -0.26032E+03
 
   -0.12535E+04        -0.46774E+03         0.00000E+00
   -0.46774E+03         0.20008E+03         0.00000E+00
    0.00000E+00         0.00000E+00        -0.31601E+03
 
   -0.14483E+04        -0.40915E+03         0.00000E+00
   -0.40915E+03         0.21990E+03         0.00000E+00
    0.00000E+00         0.00000E+00        -0.36851E+03
 
   -0.16213E+04        -0.32964E+03         0.00000E+00
   -0.32964E+03         0.23128E+03         0.00000E+00
    0.00000E+00         0.00000E+00        -0.41701E+03
 
   -0.17690E+04        -0.23208E+03         0.00000E+00
   -0.23208E+03         0.23307E+03         0.00000E+00
    0.00000E+00         0.00000E+00        -0.46077E+03
 
   -0.18882E+04        -0.11939E+03         0.00000E+00
   -0.11939E+03         0.22443E+03         0.00000E+00
    0.00000E+00         0.00000E+00        -0.49912E+03
 
   -0.19764E+04         0.55698E+01         0.00000E+00
    0.55698E+01         0.20480E+03         0.00000E+00
    0.00000E+00         0.00000E+00        -0.53148E+03
 
   -0.20316E+04         0.14001E+03         0.00000E+00
    0.14001E+03         0.17383E+03         0.00000E+00
    0.00000E+00         0.00000E+00        -0.55732E+03
 
   -0.20520E+04         0.28122E+03         0.00000E+00
    0.28122E+03         0.13138E+03         0.00000E+00
    0.00000E+00         0.00000E+00        -0.57618E+03
 
   -0.20363E+04         0.42654E+03         0.00000E+00
    0.42654E+03         0.77399E+02         0.00000E+00
    0.00000E+00         0.00000E+00        -0.58766E+03
 
   -0.19833E+04         0.57339E+03         0.00000E+00
    0.57339E+03         0.11946E+02         0.00000E+00
    0.00000E+00         0.00000E+00        -0.59141E+03
 
   -0.18923E+04         0.71917E+03         0.00000E+00
    0.71917E+03        -0.64874E+02         0.00000E+00
    0.00000E+00         0.00000E+00        -0.58716E+03
 
   -0.17626E+04         0.86128E+03         0.00000E+00
    0.86128E+03        -0.15292E+03         0.00000E+00
    0.00000E+00         0.00000E+00        -0.57466E+03
 
   -0.15938E+04         0.99700E+03         0.00000E+00
    0.99700E+03        -0.25201E+03         0.00000E+00
    0.00000E+00         0.00000E+00        -0.55373E+03
 
   -0.13855E+04         0.11235E+04         0.00000E+00
    0.11235E+04        -0.36194E+03         0.00000E+00
    0.00000E+00         0.00000E+00        -0.52424E+03
 
   -0.11379E+04         0.12377E+04         0.00000E+00
    0.12377E+04        -0.48245E+03         0.00000E+00
    0.00000E+00         0.00000E+00        -0.48610E+03
 
   -0.85116E+03         0.13362E+04         0.00000E+00
    0.13362E+04        -0.61315E+03         0.00000E+00
    0.00000E+00         0.00000E+00        -0.43929E+03
 
   -0.52605E+03         0.14153E+04         0.00000E+00
    0.14153E+04        -0.75351E+03         0.00000E+00
    0.00000E+00         0.00000E+00        -0.38387E+03
 
    0.12473E+03        -0.80627E+02         0.00000E+00
   -0.80627E+02         0.29523E+01         0.00000E+00
    0.00000E+00         0.00000E+00         0.38305E+02
 
   -0.37270E+02        -0.21921E+03         0.00000E+00
   -0.21921E+03         0.16701E+02         0.00000E+00
    0.00000E+00         0.00000E+00        -0.61708E+01
 
   -0.21990E+03        -0.32768E+03         0.00000E+00
   -0.32768E+03         0.40791E+02         0.00000E+00
    0.00000E+00         0.00000E+00        -0.53733E+02
 
   -0.41610E+03        -0.40619E+03         0.00000E+00
   -0.40619E+03         0.71764E+02         0.00000E+00
    0.00000E+00         0.00000E+00        -0.10330E+03
 
   -0.61917E+03        -0.45546E+03         0.00000E+00
   -0.45546E+03         0.10641E+03         0.00000E+00
    0.00000E+00         0.00000E+00        -0.15383E+03
 
   -0.82287E+03        -0.47674E+03         0.00000E+00
   -0.47674E+03         0.14181E+03         0.00000E+00
    0.00000E+00         0.00000E+00        -0.20432E+03
 
   -0.10214E+04        -0.47172E+03         0.00000E+00
   -0.47172E+03         0.17536E+03         0.00000E+00
    0.00000E+00         0.00000E+00        -0.25383E+03
 
   -0.12097E+04        -0.44242E+03         0.00000E+00
   -0.44242E+03         0.20481E+03         0.00000E+00
    0.00000E+00         0.00000E+00        -0.30146E+03
 
   -0.13829E+04        -0.39111E+03         0.00000E+00
   -0.39111E+03         0.22826E+03         0.00000E+00
    0.00000E+00         0.00000E+00        -0.34640E+03
 
   -0.15371E+04        -0.32024E+03         0.00000E+00
   -0.32024E+03         0.24414E+03         0.00000E+00
    0.00000E+00         0.00000E+00        -0.38788E+03
 
   -0.16686E+04        -0.23238E+03         0.00000E+00
   -0.23238E+03         0.25122E+03         0.00000E+00
    0.00000E+00         0.00000E+00        -0.42521E+03
 
   -0.17744E+04        -0.13014E+03         0.00000E+00
   -0.13014E+03         0.24854E+03         0.00000E+00
    0.00000E+00         0.00000E+00        -0.45776E+03
 
   -0.18520E+04        -0.16136E+02         0.00000E+00
   -0.16136E+02         0.23542E+03         0.00000E+00
    0.00000E+00         0.00000E+00        -0.48496E+03
 
   -0.18991E+04         0.10704E+03         0.00000E+00
    0.10704E+03         0.21140E+03         0.00000E+00
    0.00000E+00         0.00000E+00        -0.50632E+03
 
   -0.19141E+04         0.23683E+03         0.00000E+00
    0.23683E+03         0.17618E+03         0.00000E+00
    0.00000E+00         0.00000E+00        -0.52139E+03
 
   -0.18956E+04         0.37070E+03         0.00000E+00
    0.37070E+03         0.12963E+03         0.00000E+00
    0.00000E+00         0.00000E+00        -0.52979E+03
 
   -0.18424E+04         0.50614E+03         0.00000E+00
    0.50614E+03         0.71720E+02         0.00000E+00
    0.00000E+00         0.00000E+00        -0.53120E+03
 
   -0.17537E+04         0.64064E+03         0.00000E+00
    0.64064E+03         0.25118E+01         0.00000E+00
    0.00000E+00         0.00000E+00        -0.52535E+03
 
   -0.16289E+04         0.77162E+03         0.00000E+00
    0.77162E+03        -0.77856E+02         0.00000E+00
    0.00000E+00         0.00000E+00        -0.51202E+03
 
   -0.14677E+04         0.89645E+03         0.00000E+00
    0.89645E+03        -0.16917E+03         0.00000E+00
    0.00000E+00         0.00000E+00        -0.49106E+03
 
   -0.12700E+04         0.10123E+04         0.00000E+00
    0.10123E+04        -0.27115E+03         0.00000E+00
    0.00000E+00         0.00000E+00        -0.46236E+03
 
   -0.10361E+04         0.11163E+04         0.00000E+00
    0.11163E+04        -0.38339E+03         0.00000E+00
    0.00000E+00         0.00000E+00        -0.42586E+03
 
   -0.76657E+03         0.12051E+04         0.00000E+00
    0.12051E+04        -0.50536E+03         0.00000E+00
    0.00000E+00         0.00000E+00        -0.38158E+03
 
   -0.46233E+03         0.12753E+04         0.00000E+00
    0.12753E+04        -0.63633E+03         0.00000E+00
    0.00000E+00         0.00000E+00        -0.32960E+03
 
   -0.21837E+02        -0.73289E+02         0.00000E+00
   -0.73289E+02         0.28366E+01         0.00000E+00
    0.00000E+00         0.00000E+00        -0.57002E+01
 
   -0.15568E+03        -0.19988E+03         0.00000E+00
   -0.19988E+03         0.16128E+02         0.00000E+00
    0.00000E+00         0.00000E+00        -0.41866E+02
 
   -0.30987E+03        -0.29978E+03         0.00000E+00
   -0.29978E+03         0.39609E+02         0.00000E+00
    0.00000E+00         0.00000E+00        -0.81079E+02
 
   -0.47796E+03        -0.37291E+03         0.00000E+00
   -0.37291E+03         0.70110E+02         0.00000E+00
    0.00000E+00         0.00000E+00        -0.12236E+03
 
   -0.65379E+03        -0.41977E+03         0.00000E+00
   -0.41977E+03         0.10465E+03         0.00000E+00
    0.00000E+00         0.00000E+00        -0.16474E+03
 
   -0.83158E+03        -0.44134E+03         0.00000E+00
   -0.44134E+03         0.14049E+03         0.00000E+00
    0.00000E+00         0.00000E+00        -0.20733E+03
 
   -0.10059E+04        -0.43898E+03         0.00000E+00
   -0.43898E+03         0.17517E+03         0.00000E+00
    0.00000E+00         0.00000E+00        -0.24923E+03
 
   -0.11719E+04        -0.41439E+03         0.00000E+00
   -0.41439E+03         0.20650E+03         0.00000E+00
    0.00000E+00         0.00000E+00        -0.28964E+03
 
   -0.13252E+04        -0.36952E+03         0.00000E+00
   -0.36952E+03         0.23260E+03         0.00000E+00
    0.00000E+00         0.00000E+00        -0.32778E+03
 
   -0.14617E+04        -0.30652E+03         0.00000E+00
   -0.30652E+03         0.25190E+03         0.00000E+00
    0.00000E+00         0.00000E+00        -0.36293E+03
 
   -0.15780E+04        -0.22765E+03         0.00000E+00
   -0.22765E+03         0.26311E+03         0.00000E+00
    0.00000E+00         0.00000E+00        -0.39446E+03
 
   -0.16711E+04        -0.13525E+03         0.00000E+00
   -0.13525E+03         0.26520E+03         0.00000E+00
    0.00000E+00         0.00000E+00        -0.42177E+03
 
   -0.17384E+04        -0.31714E+02         0.00000E+00
   -0.31714E+02         0.25740E+03         0.00000E+00
    0.00000E+00         0.00000E+00        -0.44431E+03
 
   -0.17779E+04         0.80576E+02         0.00000E+00
    0.80576E+02         0.23913E+03         0.00000E+00
    0.00000E+00         0.00000E+00        -0.46162E+03
 
   -0.17876E+04         0.19922E+03         0.00000E+00
    0.19922E+03         0.21002E+03         0.00000E+00
    0.00000E+00         0.00000E+00        -0.47328E+03
 
   -0.17663E+04         0.32183E+03         0.00000E+00
    0.32183E+03         0.16985E+03         0.00000E+00
    0.00000E+00         0.00000E+00        -0.47893E+03
 
   -0.17127E+04         0.44601E+03         0.00000E+00
    0.44601E+03         0.11852E+03         0.00000E+00
    0.00000E+00         0.00000E+00        -0.47827E+03
 
   -0.16262E+04         0.56934E+03         0.00000E+00
    0.56934E+03         0.56065E+02         0.00000E+00
    0.00000E+00         0.00000E+00        -0.47104E+03
 
   -0.15061E+04         0.68933E+03         0.00000E+00
    0.68933E+03        -0.17377E+02         0.00000E+00
    0.00000E+00         0.00000E+00        -0.45705E+03
 
   -0.13523E+04         0.80344E+03         0.00000E+00
    0.80344E+03        -0.10157E+03         0.00000E+00
    0.00000E+00         0.00000E+00        -0.43616E+03
 
   -0.11648E+04         0.90897E+03         0.00000E+00
    0.90897E+03        -0.19614E+03         0.00000E+00
    0.00000E+00         0.00000E+00        -0.40829E+03
 
   -0.94414E+03         0.10031E+04         0.00000E+00
    0.10031E+04        -0.30062E+03         0.00000E+00
    0.00000E+00         0.00000E+00        -0.37343E+03
 
   -0.69100E+03         0.10828E+04         0.00000E+00
    0.10828E+04        -0.41432E+03         0.00000E+00
    0.00000E+00         0.00000E+00        -0.33160E+03
 
   -0.40666E+03         0.11448E+04         0.00000E+00
    0.11448E+04        -0.53638E+03         0.00000E+00
    0.00000E+00         0.00000E+00        -0.28291E+03
 
   -0.15491E+03        -0.66247E+02         0.00000E+00
   -0.66247E+02         0.27151E+01         0.00000E+00
    0.00000E+00         0.00000E+00        -0.45659E+02
 
   -0.26391E+03        -0.18119E+03         0.00000E+00
   -0.18119E+03         0.15506E+02         0.00000E+00
    0.00000E+00         0.00000E+00        -0.74522E+02
 
   -0.39284E+03        -0.27254E+03         0.00000E+00
   -0.27254E+03         0.38268E+02         0.00000E+00
    0.00000E+00         0.00000E+00        -0.10637E+03
 
   -0.53580E+03        -0.34010E+03         0.00000E+00
   -0.34010E+03         0.68088E+02         0.00000E+00
    0.00000E+00         0.00000E+00        -0.14032E+03
 
   -0.68714E+03        -0.38415E+03         0.00000E+00
   -0.38415E+03         0.10220E+03         0.00000E+00
    0.00000E+00         0.00000E+00        -0.17548E+03
 
   -0.84147E+03        -0.40544E+03         0.00000E+00
   -0.40544E+03         0.13805E+03         0.00000E+00
    0.00000E+00         0.00000E+00        -0.21103E+03
 
   -0.99379E+03        -0.40508E+03         0.00000E+00
   -0.40508E+03         0.17328E+03         0.00000E+00
    0.00000E+00         0.00000E+00        -0.24615E+03
 
   -0.11395E+04        -0.38449E+03         0.00000E+00
   -0.38449E+03         0.20580E+03         0.00000E+00
    0.00000E+00         0.00000E+00        -0.28010E+03
 
   -0.12743E+04        -0.34535E+03         0.00000E+00
   -0.34535E+03         0.23376E+03         0.00000E+00
    0.00000E+00         0.00000E+00        -0.31215E+03
 
   -0.13944E+04        -0.28950E+03         0.00000E+00
   -0.28950E+03         0.25559E+03         0.00000E+00
    0.00000E+00         0.00000E+00        -0.34164E+03
 
   -0.14965E+04        -0.21897E+03         0.00000E+00
   -0.21897E+03         0.26998E+03         0.00000E+00
    0.00000E+00         0.00000E+00        -0.36796E+03
 
   -0.15777E+04        -0.13584E+03         0.00000E+00
   -0.13584E+03         0.27584E+03         0.00000E+00
    0.00000E+00         0.00000E+00        -0.39056E+03
 
   -0.16354E+04        -0.42269E+02         0.00000E+00
   -0.42269E+02         0.27233E+03         0.00000E+00
    0.00000E+00         0.00000E+00        -0.40892E+03
 
   -0.16675E+04         0.59541E+02         0.00000E+00
    0.59541E+02         0.25881E+03         0.00000E+00
    0.00000E+00         0.00000E+00        -0.42260E+03
 
   -0.16722E+04         0.16737E+03         0.00000E+00
    0.16737E+03         0.23482E+03         0.00000E+00
    0.00000E+00         0.00000E+00        -0.43121E+03
 
   -0.16481E+04         0.27899E+03         0.00000E+00
    0.27899E+03         0.20010E+03         0.00000E+00
    0.00000E+00         0.00000E+00        -0.43441E+03
 
   -0.15942E+04         0.39213E+03         0.00000E+00
    0.39213E+03         0.15449E+03         0.00000E+00
    0.00000E+00         0.00000E+00        -0.43192E+03
 
   -0.15097E+04         0.50449E+03         0.00000E+00
    0.50449E+03         0.98009E+02         0.00000E+00
    0.00000E+00         0.00000E+00        -0.42350E+03
 
   -0.13941E+04         0.61372E+03         0.00000E+00
    0.61372E+03         0.30787E+02         0.00000E+00
    0.00000E+00         0.00000E+00        -0.40899E+03
 
   -0.12473E+04         0.71737E+03         0.00000E+00
    0.71737E+03        -0.46906E+02         0.00000E+00
    0.00000E+00         0.00000E+00        -0.38826E+03
 
   -0.10695E+04         0.81291E+03         0.00000E+00
    0.81291E+03        -0.13466E+03         0.00000E+00
    0.00000E+00         0.00000E+00        -0.36126E+03
 
   -0.86138E+03         0.89766E+03         0.00000E+00
    0.89766E+03        -0.23189E+03         0.00000E+00
    0.00000E+00         0.00000E+00        -0.32798E+03
 
   -0.62380E+03         0.96880E+03         0.00000E+00
    0.96880E+03        -0.33785E+03         0.00000E+00
    0.00000E+00         0.00000E+00        -0.28849E+03
 
   -0.35822E+03         0.10233E+04         0.00000E+00
    0.10233E+04        -0.45154E+03         0.00000E+00
    0.00000E+00         0.00000E+00        -0.24293E+03
 
   -0.27501E+03        -0.59510E+02         0.00000E+00
   -0.59510E+02         0.25913E+01         0.00000E+00
    0.00000E+00         0.00000E+00        -0.81725E+02
 
   -0.36219E+03        -0.16319E+03         0.00000E+00
   -0.16319E+03         0.14859E+02         0.00000E+00
    0.00000E+00         0.00000E+00        -0.10420E+03
 
   -0.46877E+03        -0.24612E+03         0.00000E+00
   -0.24612E+03         0.36826E+02         0.00000E+00
    0.00000E+00         0.00000E+00        -0.12958E+03
 
   -0.58937E+03        -0.30798E+03         0.00000E+00
   -0.30798E+03         0.65819E+02         0.00000E+00
    0.00000E+00         0.00000E+00        -0.15706E+03
 
   -0.71877E+03        -0.34892E+03         0.00000E+00
   -0.34892E+03         0.99276E+02         0.00000E+00
    0.00000E+00         0.00000E+00        -0.18585E+03
 
   -0.85201E+03        -0.36949E+03         0.00000E+00
   -0.36949E+03         0.13479E+03         0.00000E+00
    0.00000E+00         0.00000E+00        -0.21517E+03
 
   -0.98439E+03        -0.37059E+03         0.00000E+00
   -0.37059E+03         0.17013E+03         0.00000E+00
    0.00000E+00         0.00000E+00        -0.24428E+03
 
   -0.11116E+04        -0.35339E+03         0.00000E+00
   -0.35339E+03         0.20329E+03         0.00000E+00
    0.00000E+00         0.00000E+00        -0.27248E+03
 
   -0.12295E+04        -0.31933E+03         0.00000E+00
   -0.31933E+03         0.23247E+03         0.00000E+00
    0.00000E+00         0.00000E+00        -0.29910E+03
 
   -0.13346E+04        -0.27002E+03         0.00000E+00
   -0.27002E+03         0.25612E+03         0.00000E+00
    0.00000E+00         0.00000E+00        -0.32354E+03
 
   -0.14236E+04        -0.20723E+03         0.00000E+00
   -0.20723E+03         0.27289E+03         0.00000E+00
    0.00000E+00         0.00000E+00        -0.34521E+03
 
   -0.14937E+04        -0.13282E+03         0.00000E+00
   -0.13282E+03         0.28168E+03         0.00000E+00
    0.00000E+00         0.00000E+00        -0.36360E+03
 
   -0.15424E+04        -0.48742E+02         0.00000E+00
   -0.48742E+02         0.28161E+03         0.00000E+00
    0.00000E+00         0.00000E+00        -0.37822E+03
 
   -0.15675E+04         0.43011E+02         0.00000E+00
    0.43011E+02         0.27197E+03         0.00000E+00
    0.00000E+00         0.00000E+00        -0.38867E+03
 
   -0.15675E+04         0.14039E+03         0.00000E+00
    0.14039E+03         0.25227E+03         0.00000E+00
    0.00000E+00         0.00000E+00        -0.39457E+03
 
   -0.15409E+04         0.24134E+03         0.00000E+00
    0.24134E+03         0.22218E+03         0.00000E+00
    0.00000E+00         0.00000E+00        -0.39561E+03
 
   -0.14866E+04         0.34372E+03         0.00000E+00
    0.34372E+03         0.18153E+03         0.00000E+00
    0.00000E+00         0.00000E+00        -0.39151E+03
 
   -0.14039E+04         0.44539E+03         0.00000E+00
    0.44539E+03         0.13030E+03         0.00000E+00
    0.00000E+00         0.00000E+00        -0.38209E+03
 
   -0.12925E+04         0.54414E+03         0.00000E+00
    0.54414E+03         0.68636E+02         0.00000E+00
    0.00000E+00         0.00000E+00        -0.36717E+03
 
   -0.11524E+04         0.63766E+03         0.00000E+00
    0.63766E+03        -0.31745E+01         0.00000E+00
    0.00000E+00         0.00000E+00        -0.34666E+03
 
   -0.98373E+03         0.72359E+03         0.00000E+00
    0.72359E+03        -0.84675E+02         0.00000E+00
    0.00000E+00         0.00000E+00        -0.32052E+03
 
   -0.78736E+03         0.79943E+03         0.00000E+00
    0.79943E+03        -0.17523E+03         0.00000E+00
    0.00000E+00         0.00000E+00        -0.28878E+03
 
   -0.56435E+03         0.86258E+03         0.00000E+00
    0.86258E+03        -0.27399E+03         0.00000E+00
    0.00000E+00         0.00000E+00        -0.25150E+03
 
   -0.31628E+03         0.91029E+03         0.00000E+00
    0.91029E+03        -0.37989E+03         0.00000E+00
    0.00000E+00         0.00000E+00        -0.20885E+03
 
   -0.38266E+03        -0.53082E+02         0.00000E+00
   -0.53082E+02         0.24682E+01         0.00000E+00
    0.00000E+00         0.00000E+00        -0.11406E+03
 
   -0.45077E+03        -0.14591E+03         0.00000E+00
   -0.14591E+03         0.14204E+02         0.00000E+00
    0.00000E+00         0.00000E+00        -0.13097E+03
 
   -0.53768E+03        -0.22058E+03         0.00000E+00
   -0.22058E+03         0.35338E+02         0.00000E+00
    0.00000E+00         0.00000E+00        -0.15070E+03
 
   -0.63848E+03        -0.27671E+03         0.00000E+00
   -0.27671E+03         0.63411E+02         0.00000E+00
    0.00000E+00         0.00000E+00        -0.17252E+03
 
   -0.74837E+03        -0.31433E+03         0.00000E+00
   -0.31433E+03         0.96044E+02         0.00000E+00
    0.00000E+00         0.00000E+00        -0.19570E+03
 
   -0.86273E+03        -0.33383E+03         0.00000E+00
   -0.33383E+03         0.13098E+03         0.00000E+00
    0.00000E+00         0.00000E+00        -0.21953E+03
 
   -0.97719E+03        -0.33593E+03         0.00000E+00
   -0.33593E+03         0.16610E+03         0.00000E+00
    0.00000E+00         0.00000E+00        -0.24333E+03
 
   -0.10876E+04        -0.32161E+03         0.00000E+00
   -0.32161E+03         0.19948E+03         0.00000E+00
    0.00000E+00         0.00000E+00        -0.26645E+03
 
   -0.11903E+04        -0.29209E+03         0.00000E+00
   -0.29209E+03         0.22938E+03         0.00000E+00
    0.00000E+00         0.00000E+00        -0.28827E+03
 
   -0.12817E+04        -0.24876E+03         0.00000E+00
   -0.24876E+03         0.25425E+03         0.00000E+00
    0.00000E+00         0.00000E+00        -0.30822E+03
 
   -0.13587E+04        -0.19317E+03         0.00000E+00
   -0.19317E+03         0.27277E+03         0.00000E+00
    0.00000E+00         0.00000E+00        -0.32577E+03
 
   -0.14185E+04        -0.12698E+03         0.00000E+00
   -0.12698E+03         0.28382E+03         0.00000E+00
    0.00000E+00         0.00000E+00        -0.34042E+03
 
   -0.14589E+04        -0.51922E+02         0.00000E+00
   -0.51922E+02         0.28646E+03         0.00000E+00
    0.00000E+00         0.00000E+00        -0.35173E+03
 
   -0.14777E+04         0.30194E+02         0.00000E+00
    0.30194E+02         0.27998E+03         0.00000E+00
    0.00000E+00         0.00000E+00        -0.35931E+03
 
   -0.14732E+04         0.11751E+03         0.00000E+00
    0.11751E+03         0.26384E+03         0.00000E+00
    0.00000E+00         0.00000E+00        -0.36282E+03
 
   -0.14442E+04         0.20812E+03         0.00000E+00
    0.20812E+03         0.23768E+03         0.00000E+00
    0.00000E+00         0.00000E+00        -0.36195E+03
 
   -0.13895E+04         0.30007E+03         0.00000E+00
    0.30007E+03         0.20129E+03         0.00000E+00
    0.00000E+00         0.00000E+00        -0.35647E+03
 
   -0.13086E+04         0.39137E+03         0.00000E+00
    0.39137E+03         0.15466E+03         0.00000E+00
    0.00000E+00         0.00000E+00        -0.34618E+03
 
   -0.12011E+04         0.47996E+03         0.00000E+00
    0.47996E+03         0.97935E+02         0.00000E+00
    0.00000E+00         0.00000E+00        -0.33096E+03
 
   -0.10671E+04         0.56371E+03         0.00000E+00
    0.56371E+03         0.31414E+02         0.00000E+00
    0.00000E+00         0.00000E+00        -0.31071E+03
 
   -0.90699E+03         0.64044E+03         0.00000E+00
    0.64044E+03        -0.44408E+02         0.00000E+00
    0.00000E+00         0.00000E+00        -0.28542E+03
 
   -0.72156E+03         0.70784E+03         0.00000E+00
    0.70784E+03        -0.12885E+03         0.00000E+00
    0.00000E+00         0.00000E+00        -0.25512E+03
 
   -0.51205E+03         0.76353E+03         0.00000E+00
    0.76353E+03        -0.22100E+03         0.00000E+00
    0.00000E+00         0.00000E+00        -0.21991E+03
 
   -0.28013E+03         0.80503E+03         0.00000E+00
    0.80503E+03        -0.31973E+03         0.00000E+00
    0.00000E+00         0.00000E+00        -0.17996E+03
 
   -0.47843E+03        -0.46960E+02         0.00000E+00
   -0.46960E+02         0.23485E+01         0.00000E+00
    0.00000E+00         0.00000E+00        -0.14282E+03
 
   -0.52995E+03        -0.12935E+03         0.00000E+00
   -0.12935E+03         0.13560E+02         0.00000E+00
    0.00000E+00         0.00000E+00        -0.15492E+03
 
   -0.59966E+03        -0.19597E+03         0.00000E+00
   -0.19597E+03         0.33850E+02         0.00000E+00
    0.00000E+00         0.00000E+00        -0.16974E+03
 
   -0.68304E+03        -0.24639E+03         0.00000E+00
   -0.24639E+03         0.60956E+02         0.00000E+00
    0.00000E+00         0.00000E+00        -0.18663E+03
 
   -0.77568E+03        -0.28054E+03         0.00000E+00
   -0.28054E+03         0.92665E+02         0.00000E+00
    0.00000E+00         0.00000E+00        -0.20490E+03
 
   -0.87328E+03        -0.29870E+03         0.00000E+00
   -0.29870E+03         0.12685E+03         0.00000E+00
    0.00000E+00         0.00000E+00        -0.22393E+03
 
   -0.97175E+03        -0.30143E+03         0.00000E+00
   -0.30143E+03         0.16152E+03         0.00000E+00
    0.00000E+00         0.00000E+00        -0.24307E+03
 
   -0.10672E+04        -0.28956E+03         0.00000E+00
   -0.28956E+03         0.19480E+03         0.00000E+00
    0.00000E+00         0.00000E+00        -0.26173E+03
 
   -0.11561E+04        -0.26410E+03         0.00000E+00
   -0.26410E+03         0.22503E+03         0.00000E+00
    0.00000E+00         0.00000E+00        -0.27932E+03
 
   -0.12351E+04        -0.22627E+03         0.00000E+00
   -0.22627E+03         0.25068E+03         0.00000E+00
    0.00000E+00         0.00000E+00        -0.29533E+03
 
   -0.13012E+04        -0.17740E+03         0.00000E+00
   -0.17740E+03         0.27043E+03         0.00000E+00
    0.00000E+00         0.00000E+00        -0.30924E+03
 
   -0.13518E+04        -0.11895E+03         0.00000E+00
   -0.11895E+03         0.28317E+03         0.00000E+00
    0.00000E+00         0.00000E+00        -0.32060E+03
 
   -0.13846E+04        -0.52472E+02         0.00000E+00
   -0.52472E+02         0.28795E+03         0.00000E+00
    0.00000E+00         0.00000E+00        -0.32899E+03
 
   -0.13975E+04         0.20420E+02         0.00000E+00
    0.20420E+02         0.28401E+03         0.00000E+00
    0.00000E+00         0.00000E+00        -0.33405E+03
 
   -0.13890E+04         0.98046E+02         0.00000E+00
    0.98046E+02         0.27081E+03         0.00000E+00
    0.00000E+00         0.00000E+00        -0.33545E+03
 
   -0.13577E+04         0.17868E+03         0.00000E+00
    0.17868E+03         0.24795E+03         0.00000E+00
    0.00000E+00         0.00000E+00        -0.33293E+03
 
   -0.13027E+04         0.26054E+03         0.00000E+00
    0.26054E+03         0.21522E+03         0.00000E+00
    0.00000E+00         0.00000E+00        -0.32625E+03
 
   -0.12234E+04         0.34181E+03         0.00000E+00
    0.34181E+03         0.17260E+03         0.00000E+00
    0.00000E+00         0.00000E+00        -0.31524E+03
 
   -0.11195E+04         0.42059E+03         0.00000E+00
    0.42059E+03         0.12023E+03         0.00000E+00
    0.00000E+00         0.00000E+00        -0.29979E+03
 
   -0.99119E+03         0.49496E+03         0.00000E+00
    0.49496E+03         0.58423E+02         0.00000E+00
    0.00000E+00         0.00000E+00        -0.27983E+03
 
   -0.83889E+03         0.56289E+03         0.00000E+00
    0.56289E+03        -0.12288E+02         0.00000E+00
    0.00000E+00         0.00000E+00        -0.25535E+03
 
   -0.66350E+03         0.62231E+03         0.00000E+00
    0.62231E+03        -0.91185E+02         0.00000E+00
    0.00000E+00         0.00000E+00        -0.22641E+03
 
   -0.46634E+03         0.67106E+03         0.00000E+00
    0.67106E+03        -0.17733E+03         0.00000E+00
    0.00000E+00         0.00000E+00        -0.19310E+03
 
   -0.24918E+03         0.70691E+03         0.00000E+00
    0.70691E+03        -0.26953E+03         0.00000E+00
    0.00000E+00         0.00000E+00        -0.15561E+03
 
   -0.56284E+03        -0.41131E+02         0.00000E+00
   -0.41131E+02         0.22345E+01         0.00000E+00
    0.00000E+00         0.00000E+00        -0.16818E+03
 
   -0.60005E+03        -0.11352E+03         0.00000E+00
   -0.11352E+03         0.12941E+02         0.00000E+00
    0.00000E+00         0.00000E+00        -0.17613E+03
 
   -0.65482E+03        -0.17231E+03         0.00000E+00
   -0.17231E+03         0.32405E+02         0.00000E+00
    0.00000E+00         0.00000E+00        -0.18673E+03
 
   -0.72301E+03        -0.21706E+03         0.00000E+00
   -0.21706E+03         0.58537E+02         0.00000E+00
    0.00000E+00         0.00000E+00        -0.19934E+03
 
   -0.80052E+03        -0.24765E+03         0.00000E+00
   -0.24765E+03         0.89275E+02         0.00000E+00
    0.00000E+00         0.00000E+00        -0.21337E+03
 
   -0.88336E+03        -0.26426E+03         0.00000E+00
   -0.26426E+03         0.12262E+03         0.00000E+00
    0.00000E+00         0.00000E+00        -0.22822E+03
 
   -0.96770E+03        -0.26733E+03         0.00000E+00
   -0.26733E+03         0.15666E+03         0.00000E+00
    0.00000E+00         0.00000E+00        -0.24331E+03
 
   -0.10499E+04        -0.25754E+03         0.00000E+00
   -0.25754E+03         0.18964E+03         0.00000E+00
    0.00000E+00         0.00000E+00        -0.25808E+03
 
   -0.11265E+04        -0.23574E+03         0.00000E+00
   -0.23574E+03         0.21990E+03         0.00000E+00
    0.00000E+00         0.00000E+00        -0.27199E+03
 
   -0.11944E+04        -0.20297E+03         0.00000E+00
   -0.20297E+03         0.24598E+03         0.00000E+00
    0.00000E+00         0.00000E+00        -0.28454E+03
 
   -0.12508E+04        -0.16038E+03         0.00000E+00
   -0.16038E+03         0.26657E+03         0.00000E+00
    0.00000E+00         0.00000E+00        -0.29527E+03
 
   -0.12931E+04        -0.10925E+03         0.00000E+00
   -0.10925E+03         0.28055E+03         0.00000E+00
    0.00000E+00         0.00000E+00        -0.30376E+03
 
   -0.13190E+04        -0.50941E+02         0.00000E+00
   -0.50941E+02         0.28697E+03         0.00000E+00
    0.00000E+00         0.00000E+00        -0.30960E+03
 
   -0.13266E+04         0.13119E+02         0.00000E+00
    0.13119E+02         0.28508E+03         0.00000E+00
    0.00000E+00         0.00000E+00        -0.31246E+03
 
   -0.13144E+04         0.81431E+02         0.00000E+00
    0.81431E+02         0.27428E+03         0.00000E+00
    0.00000E+00         0.00000E+00        -0.31204E+03
 
   -0.12811E+04         0.15245E+03         0.00000E+00
    0.15245E+03         0.25419E+03         0.00000E+00
    0.00000E+00         0.00000E+00        -0.30808E+03
 
   -0.12258E+04         0.22457E+03         0.00000E+00
    0.22457E+03         0.22458E+03         0.00000E+00
    0.00000E+00         0.00000E+00        -0.30037E+03
 
   -0.11480E+04         0.29615E+03         0.00000E+00
    0.29615E+03         0.18541E+03         0.00000E+00
    0.00000E+00         0.00000E+00        -0.28876E+03
 
   -0.10474E+04         0.36549E+03         0.00000E+00
    0.36549E+03         0.13685E+03         0.00000E+00
    0.00000E+00         0.00000E+00        -0.27315E+03
 
   -0.92418E+03         0.43083E+03         0.00000E+00
    0.43083E+03         0.79217E+02         0.00000E+00
    0.00000E+00         0.00000E+00        -0.25349E+03
 
   -0.77898E+03         0.49038E+03         0.00000E+00
    0.49038E+03         0.13061E+02         0.00000E+00
    0.00000E+00         0.00000E+00        -0.22978E+03
 
   -0.61270E+03         0.54225E+03         0.00000E+00
    0.54225E+03        -0.60873E+02         0.00000E+00
    0.00000E+00         0.00000E+00        -0.20207E+03
 
   -0.42672E+03         0.58453E+03         0.00000E+00
    0.58453E+03        -0.14161E+03         0.00000E+00
    0.00000E+00         0.00000E+00        -0.17050E+03
 
   -0.22286E+03         0.61525E+03         0.00000E+00
    0.61525E+03        -0.22793E+03         0.00000E+00
    0.00000E+00         0.00000E+00        -0.13524E+03
 
   -0.63641E+03        -0.35579E+02         0.00000E+00
   -0.35579E+02         0.21285E+01         0.00000E+00
    0.00000E+00         0.00000E+00        -0.19029E+03
 
   -0.66140E+03        -0.98363E+02         0.00000E+00
   -0.98363E+02         0.12360E+02         0.00000E+00
    0.00000E+00         0.00000E+00        -0.19471E+03
 
   -0.70332E+03        -0.14956E+03         0.00000E+00
   -0.14956E+03         0.31037E+02         0.00000E+00
    0.00000E+00         0.00000E+00        -0.20169E+03
 
   -0.75838E+03        -0.18872E+03         0.00000E+00
   -0.18872E+03         0.56225E+02         0.00000E+00
    0.00000E+00         0.00000E+00        -0.21065E+03
 
   -0.82277E+03        -0.21570E+03         0.00000E+00
   -0.21570E+03         0.85991E+02         0.00000E+00
    0.00000E+00         0.00000E+00        -0.22103E+03
 
   -0.89276E+03        -0.23061E+03         0.00000E+00
   -0.23061E+03         0.11845E+03         0.00000E+00
    0.00000E+00         0.00000E+00        -0.23229E+03
 
   -0.96474E+03        -0.23378E+03         0.00000E+00
   -0.23378E+03         0.15179E+03         0.00000E+00
    0.00000E+00         0.00000E+00        -0.24389E+03
 
   -0.10353E+04        -0.22576E+03         0.00000E+00
   -0.22576E+03         0.18430E+03         0.00000E+00
    0.00000E+00         0.00000E+00        -0.25529E+03
 
   -0.11011E+04        -0.20728E+03         0.00000E+00
   -0.20728E+03         0.21441E+03         0.00000E+00
    0.00000E+00         0.00000E+00        -0.26602E+03
 
   -0.11593E+04        -0.17919E+03         0.00000E+00
   -0.17919E+03         0.24066E+03         0.00000E+00
    0.00000E+00         0.00000E+00        -0.27559E+03
 
   -0.12070E+04        -0.14250E+03         0.00000E+00
   -0.14250E+03         0.26178E+03         0.00000E+00
    0.00000E+00         0.00000E+00        -0.28358E+03
 
   -0.12419E+04        -0.98306E+02         0.00000E+00
   -0.98306E+02         0.27665E+03         0.00000E+00
    0.00000E+00         0.00000E+00        -0.28957E+03
 
   -0.12617E+04        -0.47782E+02         0.00000E+00
   -0.47782E+02         0.28433E+03         0.00000E+00
    0.00000E+00         0.00000E+00        -0.29322E+03
 
   -0.12646E+04         0.78132E+01         0.00000E+00
    0.78132E+01         0.28404E+03         0.00000E+00
    0.00000E+00         0.00000E+00        -0.29418E+03
 
   -0.12491E+04         0.67167E+02         0.00000E+00
    0.67167E+02         0.27521E+03         0.00000E+00
    0.00000E+00         0.00000E+00        -0.29218E+03
 
   -0.12140E+04         0.12891E+03         0.00000E+00
    0.12891E+03         0.25741E+03         0.00000E+00
    0.00000E+00         0.00000E+00        -0.28699E+03
 
   -0.11585E+04         0.19163E+03         0.00000E+00
    0.19163E+03         0.23043E+03         0.00000E+00
    0.00000E+00         0.00000E+00        -0.27842E+03
 
   -0.10819E+04         0.25386E+03         0.00000E+00
    0.25386E+03         0.19423E+03         0.00000E+00
    0.00000E+00         0.00000E+00        -0.26631E+03
 
   -0.98428E+03         0.31410E+03         0.00000E+00
    0.31410E+03         0.14896E+03         0.00000E+00
    0.00000E+00         0.00000E+00        -0.25060E+03
 
   -0.86572E+03         0.37080E+03         0.00000E+00
    0.37080E+03         0.94975E+02         0.00000E+00
    0.00000E+00         0.00000E+00        -0.23122E+03
 
   -0.72686E+03         0.42233E+03         0.00000E+00
    0.42233E+03         0.32827E+02         0.00000E+00
    0.00000E+00         0.00000E+00        -0.20821E+03
 
   -0.56871E+03         0.46708E+03         0.00000E+00
    0.46708E+03        -0.36717E+02         0.00000E+00
    0.00000E+00         0.00000E+00        -0.18163E+03
 
   -0.39270E+03         0.50333E+03         0.00000E+00
    0.50333E+03        -0.11266E+03         0.00000E+00
    0.00000E+00         0.00000E+00        -0.15161E+03
 
   -0.20066E+03         0.52936E+03         0.00000E+00
    0.52936E+03        -0.19377E+03         0.00000E+00
    0.00000E+00         0.00000E+00        -0.11833E+03
 
   -0.69963E+03        -0.30283E+02         0.00000E+00
   -0.30283E+02         0.20321E+01         0.00000E+00
    0.00000E+00         0.00000E+00        -0.20928E+03
 
   -0.71429E+03        -0.83847E+02         0.00000E+00
   -0.83847E+02         0.11829E+02         0.00000E+00
    0.00000E+00         0.00000E+00        -0.21074E+03
 
   -0.74532E+03        -0.12768E+03         0.00000E+00
   -0.12768E+03         0.29779E+02         0.00000E+00
    0.00000E+00         0.00000E+00        -0.21466E+03
 
   -0.78917E+03        -0.16135E+03         0.00000E+00
   -0.16135E+03         0.54078E+02         0.00000E+00
    0.00000E+00         0.00000E+00        -0.22053E+03
 
   -0.84232E+03        -0.18470E+03         0.00000E+00
   -0.18470E+03         0.82915E+02         0.00000E+00
    0.00000E+00         0.00000E+00        -0.22782E+03
 
   -0.90127E+03        -0.19778E+03         0.00000E+00
   -0.19778E+03         0.11450E+03         0.00000E+00
    0.00000E+00         0.00000E+00        -0.23603E+03
 
   -0.96262E+03        -0.20085E+03         0.00000E+00
   -0.20085E+03         0.14710E+03         0.00000E+00
    0.00000E+00         0.00000E+00        -0.24465E+03
 
   -0.10231E+04        -0.19436E+03         0.00000E+00
   -0.19436E+03         0.17908E+03         0.00000E+00
    0.00000E+00         0.00000E+00        -0.25320E+03
 
   -0.10796E+04        -0.17889E+03         0.00000E+00
   -0.17889E+03         0.20890E+03         0.00000E+00
    0.00000E+00         0.00000E+00        -0.26121E+03
 
   -0.11293E+04        -0.15518E+03         0.00000E+00
   -0.15518E+03         0.23515E+03         0.00000E+00
    0.00000E+00         0.00000E+00        -0.26825E+03
 
   -0.11695E+04        -0.12405E+03         0.00000E+00
   -0.12405E+03         0.25657E+03         0.00000E+00
    0.00000E+00         0.00000E+00        -0.27389E+03
 
   -0.11979E+04        -0.86442E+02         0.00000E+00
   -0.86442E+02         0.27206E+03         0.00000E+00
    0.00000E+00         0.00000E+00        -0.27776E+03
 
   -0.12124E+04        -0.43366E+02         0.00000E+00
   -0.43366E+02         0.28068E+03         0.00000E+00
    0.00000E+00         0.00000E+00        -0.27952E+03
 
   -0.12112E+04         0.41009E+01         0.00000E+00
    0.41009E+01         0.28165E+03         0.00000E+00
    0.00000E+00         0.00000E+00        -0.27887E+03
 
   -0.11929E+04         0.54825E+02         0.00000E+00
    0.54825E+02         0.27439E+03         0.00000E+00
    0.00000E+00         0.00000E+00        -0.27554E+03
 
   -0.11562E+04         0.10762E+03         0.00000E+00
    0.10762E+03         0.25848E+03         0.00000E+00
    0.00000E+00         0.00000E+00        -0.26931E+03
 
   -0.11004E+04         0.16126E+03         0.00000E+00
    0.16126E+03         0.23370E+03         0.00000E+00
    0.00000E+00         0.00000E+00        -0.26001E+03
 
   -0.10250E+04         0.21447E+03         0.00000E+00
    0.21447E+03         0.20000E+03         0.00000E+00
    0.00000E+00         0.00000E+00        -0.24750E+03
 
   -0.92993E+03         0.26594E+03         0.00000E+00
    0.26594E+03         0.15755E+03         0.00000E+00
    0.00000E+00         0.00000E+00        -0.23171E+03
 
   -0.81543E+03         0.31432E+03         0.00000E+00
    0.31432E+03         0.10671E+03         0.00000E+00
    0.00000E+00         0.00000E+00        -0.21262E+03
 
   -0.68216E+03         0.35821E+03         0.00000E+00
    0.35821E+03         0.48033E+02         0.00000E+00
    0.00000E+00         0.00000E+00        -0.19024E+03
 
   -0.53115E+03         0.39619E+03         0.00000E+00
    0.39619E+03        -0.17690E+02         0.00000E+00
    0.00000E+00         0.00000E+00        -0.16465E+03
 
   -0.36386E+03         0.42680E+03         0.00000E+00
    0.42680E+03        -0.89452E+02         0.00000E+00
    0.00000E+00         0.00000E+00        -0.13599E+03
 
   -0.18217E+03         0.44856E+03         0.00000E+00
    0.44856E+03        -0.16601E+03         0.00000E+00
    0.00000E+00         0.00000E+00        -0.10446E+03
 
   -0.75294E+03        -0.25216E+02         0.00000E+00
   -0.25216E+02         0.19468E+01         0.00000E+00
    0.00000E+00         0.00000E+00        -0.22530E+03
 
   -0.75903E+03        -0.69909E+02         0.00000E+00
   -0.69909E+02         0.11358E+02         0.00000E+00
    0.00000E+00         0.00000E+00        -0.22430E+03
 
   -0.78096E+03        -0.10659E+03         0.00000E+00
   -0.10659E+03         0.28654E+02         0.00000E+00
    0.00000E+00         0.00000E+00        -0.22569E+03
 
   -0.81543E+03        -0.13487E+03         0.00000E+00
   -0.13487E+03         0.52150E+02         0.00000E+00
    0.00000E+00         0.00000E+00        -0.22898E+03
 
   -0.85914E+03        -0.15458E+03         0.00000E+00
   -0.15458E+03         0.80130E+02         0.00000E+00
    0.00000E+00         0.00000E+00        -0.23370E+03
 
   -0.90878E+03        -0.16576E+03         0.00000E+00
   -0.16576E+03         0.11089E+03         0.00000E+00
    0.00000E+00         0.00000E+00        -0.23937E+03
 
   -0.96113E+03        -0.16858E+03         0.00000E+00
   -0.16858E+03         0.14278E+03         0.00000E+00
    0.00000E+00         0.00000E+00        -0.24551E+03
 
   -0.10131E+04        -0.16341E+03         0.00000E+00
   -0.16341E+03         0.17420E+03         0.00000E+00
    0.00000E+00         0.00000E+00        -0.25166E+03
 
   -0.10617E+04        -0.15071E+03         0.00000E+00
   -0.15071E+03         0.20366E+03         0.00000E+00
    0.00000E+00         0.00000E+00        -0.25740E+03
 
   -0.11041E+04        -0.13109E+03         0.00000E+00
   -0.13109E+03         0.22980E+03         0.00000E+00
    0.00000E+00         0.00000E+00        -0.26230E+03
 
   -0.11380E+04        -0.10524E+03         0.00000E+00
   -0.10524E+03         0.25137E+03         0.00000E+00
    0.00000E+00         0.00000E+00        -0.26598E+03
 
   -0.11609E+04        -0.73921E+02         0.00000E+00
   -0.73921E+02         0.26727E+03         0.00000E+00
    0.00000E+00         0.00000E+00        -0.26807E+03
 
   -0.11708E+04        -0.37992E+02         0.00000E+00
   -0.37992E+02         0.27658E+03         0.00000E+00
    0.00000E+00         0.00000E+00        -0.26826E+03
 
   -0.11661E+04         0.16461E+01         0.00000E+00
    0.16461E+01         0.27852E+03         0.00000E+00
    0.00000E+00         0.00000E+00        -0.26626E+03
 
   -0.11452E+04         0.44037E+02         0.00000E+00
    0.44037E+02         0.27251E+03         0.00000E+00
    0.00000E+00         0.00000E+00        -0.26181E+03
 
   -0.11072E+04         0.88180E+02         0.00000E+00
    0.88180E+02         0.25813E+03         0.00000E+00
    0.00000E+00         0.00000E+00        -0.25472E+03
 
   -0.10512E+04         0.13303E+03         0.00000E+00
    0.13303E+03         0.23515E+03         0.00000E+00
    0.00000E+00         0.00000E+00        -0.24482E+03
 
   -0.97683E+03         0.17752E+03         0.00000E+00
    0.17752E+03         0.20354E+03         0.00000E+00
    0.00000E+00         0.00000E+00        -0.23199E+03
 
   -0.88399E+03         0.22052E+03         0.00000E+00
    0.22052E+03         0.16346E+03         0.00000E+00
    0.00000E+00         0.00000E+00        -0.21616E+03
 
   -0.77299E+03         0.26090E+03         0.00000E+00
    0.26090E+03         0.11527E+03         0.00000E+00
    0.00000E+00         0.00000E+00        -0.19732E+03
 
   -0.64452E+03         0.29746E+03         0.00000E+00
    0.29746E+03         0.59543E+02         0.00000E+00
    0.00000E+00         0.00000E+00        -0.17549E+03
 
   -0.49964E+03         0.32902E+03         0.00000E+00
    0.32902E+03        -0.29216E+01         0.00000E+00
    0.00000E+00         0.00000E+00        -0.15077E+03
 
   -0.33984E+03         0.35433E+03         0.00000E+00
    0.35433E+03        -0.71111E+02         0.00000E+00
    0.00000E+00         0.00000E+00        -0.12329E+03
 
   -0.16701E+03         0.37215E+03         0.00000E+00
    0.37215E+03        -0.14378E+03         0.00000E+00
    0.00000E+00         0.00000E+00        -0.93235E+02
 
   -0.79674E+03        -0.20349E+02         0.00000E+00
   -0.20349E+02         0.18739E+01         0.00000E+00
    0.00000E+00         0.00000E+00        -0.23846E+03
 
   -0.79588E+03        -0.56477E+02         0.00000E+00
   -0.56477E+02         0.10953E+02         0.00000E+00
    0.00000E+00         0.00000E+00        -0.23548E+03
 
   -0.81040E+03        -0.86198E+02         0.00000E+00
   -0.86198E+02         0.27686E+02         0.00000E+00
    0.00000E+00         0.00000E+00        -0.23481E+03
 
   -0.83721E+03        -0.10918E+03         0.00000E+00
   -0.10918E+03         0.50481E+02         0.00000E+00
    0.00000E+00         0.00000E+00        -0.23602E+03
 
   -0.87318E+03        -0.12528E+03         0.00000E+00
   -0.12528E+03         0.77707E+02         0.00000E+00
    0.00000E+00         0.00000E+00        -0.23864E+03
 
   -0.91517E+03        -0.13448E+03         0.00000E+00
   -0.13448E+03         0.10773E+03         0.00000E+00
    0.00000E+00         0.00000E+00        -0.24223E+03
 
   -0.96011E+03        -0.13694E+03         0.00000E+00
   -0.13694E+03         0.13896E+03         0.00000E+00
    0.00000E+00         0.00000E+00        -0.24635E+03
 
   -0.10050E+04        -0.13292E+03         0.00000E+00
   -0.13292E+03         0.16985E+03         0.00000E+00
    0.00000E+00         0.00000E+00        -0.25055E+03
 
   -0.10471E+04        -0.12279E+03         0.00000E+00
   -0.12279E+03         0.19895E+03         0.00000E+00
    0.00000E+00         0.00000E+00        -0.25443E+03
 
   -0.10836E+04        -0.10704E+03         0.00000E+00
   -0.10704E+03         0.22491E+03         0.00000E+00
    0.00000E+00         0.00000E+00        -0.25759E+03
 
   -0.11121E+04        -0.86215E+02         0.00000E+00
   -0.86215E+02         0.24652E+03         0.00000E+00
    0.00000E+00         0.00000E+00        -0.25966E+03
 
   -0.11304E+04        -0.60940E+02         0.00000E+00
   -0.60940E+02         0.26269E+03         0.00000E+00
    0.00000E+00         0.00000E+00        -0.26031E+03
 
   -0.11365E+04        -0.31900E+02         0.00000E+00
   -0.31900E+02         0.27250E+03         0.00000E+00
    0.00000E+00         0.00000E+00        -0.25921E+03
 
   -0.11289E+04         0.16742E+00         0.00000E+00
    0.16742E+00         0.27517E+03         0.00000E+00
    0.00000E+00         0.00000E+00        -0.25611E+03
 
   -0.11060E+04         0.34484E+02         0.00000E+00
    0.34484E+02         0.27013E+03         0.00000E+00
    0.00000E+00         0.00000E+00        -0.25075E+03
 
   -0.10668E+04         0.70232E+02         0.00000E+00
    0.70232E+02         0.25696E+03         0.00000E+00
    0.00000E+00         0.00000E+00        -0.24296E+03
 
   -0.10107E+04         0.10656E+03         0.00000E+00
    0.10656E+03         0.23544E+03         0.00000E+00
    0.00000E+00         0.00000E+00        -0.23257E+03
 
   -0.93714E+03         0.14258E+03         0.00000E+00
    0.14258E+03         0.20552E+03         0.00000E+00
    0.00000E+00         0.00000E+00        -0.21949E+03
 
   -0.84617E+03         0.17738E+03         0.00000E+00
    0.17738E+03         0.16737E+03         0.00000E+00
    0.00000E+00         0.00000E+00        -0.20364E+03
 
   -0.73810E+03         0.21003E+03         0.00000E+00
    0.21003E+03         0.12136E+03         0.00000E+00
    0.00000E+00         0.00000E+00        -0.18502E+03
 
   -0.61364E+03         0.23955E+03         0.00000E+00
    0.23955E+03         0.68080E+02         0.00000E+00
    0.00000E+00         0.00000E+00        -0.16367E+03
 
   -0.47388E+03         0.26496E+03         0.00000E+00
    0.26496E+03         0.83165E+01         0.00000E+00
    0.00000E+00         0.00000E+00        -0.13967E+03
 
   -0.32031E+03         0.28527E+03         0.00000E+00
    0.28527E+03        -0.56906E+02         0.00000E+00
    0.00000E+00         0.00000E+00        -0.11317E+03
 
   -0.15485E+03         0.29946E+03         0.00000E+00
    0.29946E+03        -0.12634E+03         0.00000E+00
    0.00000E+00         0.00000E+00        -0.84355E+02
 
   -0.83135E+03        -0.15649E+02         0.00000E+00
   -0.15649E+02         0.18144E+01         0.00000E+00
    0.00000E+00         0.00000E+00        -0.24886E+03
 
   -0.82507E+03        -0.43471E+02         0.00000E+00
   -0.43471E+02         0.10622E+02         0.00000E+00
    0.00000E+00         0.00000E+00        -0.24433E+03
 
   -0.83377E+03        -0.66404E+02         0.00000E+00
   -0.66404E+02         0.26891E+02         0.00000E+00
    0.00000E+00         0.00000E+00        -0.24206E+03
 
   -0.85455E+03        -0.84182E+02         0.00000E+00
   -0.84182E+02         0.49106E+02         0.00000E+00
    0.00000E+00         0.00000E+00        -0.24163E+03
 
   -0.88442E+03        -0.96672E+02         0.00000E+00
   -0.96672E+02         0.75704E+02         0.00000E+00
    0.00000E+00         0.00000E+00        -0.24261E+03
 
   -0.92037E+03        -0.10387E+03         0.00000E+00
   -0.10387E+03         0.10511E+03         0.00000E+00
    0.00000E+00         0.00000E+00        -0.24458E+03
 
   -0.95944E+03        -0.10586E+03         0.00000E+00
   -0.10586E+03         0.13577E+03         0.00000E+00
    0.00000E+00         0.00000E+00        -0.24710E+03
 
   -0.99877E+03        -0.10286E+03         0.00000E+00
   -0.10286E+03         0.16620E+03         0.00000E+00
    0.00000E+00         0.00000E+00        -0.24977E+03
 
   -0.10356E+04        -0.95151E+02         0.00000E+00
   -0.95151E+02         0.19496E+03         0.00000E+00
    0.00000E+00         0.00000E+00        -0.25219E+03
 
   -0.10673E+04        -0.83085E+02         0.00000E+00
   -0.83085E+02         0.22073E+03         0.00000E+00
    0.00000E+00         0.00000E+00        -0.25398E+03
 
   -0.10916E+04        -0.67090E+02         0.00000E+00
   -0.67090E+02         0.24231E+03         0.00000E+00
    0.00000E+00         0.00000E+00        -0.25479E+03
 
   -0.11063E+04        -0.47647E+02         0.00000E+00
   -0.47647E+02         0.25864E+03         0.00000E+00
    0.00000E+00         0.00000E+00        -0.25429E+03
 
   -0.11094E+04        -0.25285E+02         0.00000E+00
   -0.25285E+02         0.26880E+03         0.00000E+00
    0.00000E+00         0.00000E+00        -0.25219E+03
 
   -0.10994E+04        -0.57127E+00         0.00000E+00
   -0.57127E+00         0.27201E+03         0.00000E+00
    0.00000E+00         0.00000E+00        -0.24822E+03
 
   -0.10749E+04         0.25889E+02         0.00000E+00
    0.25889E+02         0.26771E+03         0.00000E+00
    0.00000E+00         0.00000E+00        -0.24215E+03
 
   -0.10348E+04         0.53459E+02         0.00000E+00
    0.53459E+02         0.25547E+03         0.00000E+00
    0.00000E+00         0.00000E+00        -0.23381E+03
 
   -0.97856E+03         0.81478E+02         0.00000E+00
    0.81478E+02         0.23506E+03         0.00000E+00
    0.00000E+00         0.00000E+00        -0.22305E+03
 
   -0.90570E+03         0.10926E+03         0.00000E+00
    0.10926E+03         0.20647E+03         0.00000E+00
    0.00000E+00         0.00000E+00        -0.20977E+03
 
   -0.81623E+03         0.13608E+03         0.00000E+00
    0.13608E+03         0.16985E+03         0.00000E+00
    0.00000E+00         0.00000E+00        -0.19391E+03
 
   -0.71050E+03         0.16123E+03         0.00000E+00
    0.16123E+03         0.12557E+03         0.00000E+00
    0.00000E+00         0.00000E+00        -0.17548E+03
 
   -0.58925E+03         0.18394E+03         0.00000E+00
    0.18394E+03         0.74228E+02         0.00000E+00
    0.00000E+00         0.00000E+00        -0.15451E+03
 
   -0.45359E+03         0.20345E+03         0.00000E+00
    0.20345E+03         0.16616E+02         0.00000E+00
    0.00000E+00         0.00000E+00        -0.13109E+03
 
   -0.30501E+03         0.21900E+03         0.00000E+00
    0.21900E+03        -0.46240E+02         0.00000E+00
    0.00000E+00         0.00000E+00        -0.10538E+03
 
   -0.14543E+03         0.22978E+03         0.00000E+00
    0.22978E+03        -0.11309E+03         0.00000E+00
    0.00000E+00         0.00000E+00        -0.77556E+02
 
   -0.85707E+03        -0.11082E+02         0.00000E+00
   -0.11082E+02         0.17691E+01         0.00000E+00
    0.00000E+00         0.00000E+00        -0.25659E+03
 
   -0.84678E+03        -0.30804E+02         0.00000E+00
   -0.30804E+02         0.10370E+02         0.00000E+00
    0.00000E+00         0.00000E+00        -0.25092E+03
 
   -0.85119E+03        -0.47085E+02         0.00000E+00
   -0.47085E+02         0.26284E+02         0.00000E+00
    0.00000E+00         0.00000E+00        -0.24747E+03
 
   -0.86751E+03        -0.59727E+02         0.00000E+00
   -0.59727E+02         0.48052E+02         0.00000E+00
    0.00000E+00         0.00000E+00        -0.24584E+03
 
   -0.89285E+03        -0.68633E+02         0.00000E+00
   -0.68633E+02         0.74163E+02         0.00000E+00
    0.00000E+00         0.00000E+00        -0.24561E+03
 
   -0.92431E+03        -0.73788E+02         0.00000E+00
   -0.73788E+02         0.10309E+03         0.00000E+00
    0.00000E+00         0.00000E+00        -0.24637E+03
 
   -0.95902E+03        -0.75260E+02         0.00000E+00
   -0.75260E+02         0.13330E+03         0.00000E+00
    0.00000E+00         0.00000E+00        -0.24772E+03
 
   -0.99419E+03        -0.73184E+02         0.00000E+00
   -0.73184E+02         0.16335E+03         0.00000E+00
    0.00000E+00         0.00000E+00        -0.24925E+03
 
   -0.10271E+04        -0.67761E+02         0.00000E+00
   -0.67761E+02         0.19183E+03         0.00000E+00
    0.00000E+00         0.00000E+00        -0.25059E+03
 
   -0.10553E+04        -0.59241E+02         0.00000E+00
   -0.59241E+02         0.21743E+03         0.00000E+00
    0.00000E+00         0.00000E+00        -0.25137E+03
 
   -0.10765E+04        -0.47925E+02         0.00000E+00
   -0.47925E+02         0.23897E+03         0.00000E+00
    0.00000E+00         0.00000E+00        -0.25124E+03
 
   -0.10884E+04        -0.34153E+02         0.00000E+00
   -0.34153E+02         0.25539E+03         0.00000E+00
    0.00000E+00         0.00000E+00        -0.24990E+03
 
   -0.10893E+04        -0.18300E+02         0.00000E+00
   -0.18300E+02         0.26578E+03         0.00000E+00
    0.00000E+00         0.00000E+00        -0.24704E+03
 
   -0.10775E+04        -0.77051E+00         0.00000E+00
   -0.77051E+00         0.26937E+03         0.00000E+00
    0.00000E+00         0.00000E+00        -0.24243E+03
 
   -0.10517E+04         0.18005E+02         0.00000E+00
    0.18005E+02         0.26559E+03         0.00000E+00
    0.00000E+00         0.00000E+00        -0.23584E+03
 
   -0.10110E+04         0.37572E+02         0.00000E+00
    0.37572E+02         0.25402E+03         0.00000E+00
    0.00000E+00         0.00000E+00        -0.22710E+03
 
   -0.95465E+03         0.57457E+02         0.00000E+00
    0.57457E+02         0.23444E+03         0.00000E+00
    0.00000E+00         0.00000E+00        -0.21606E+03
 
   -0.88230E+03         0.77170E+02         0.00000E+00
    0.77170E+02         0.20682E+03         0.00000E+00
    0.00000E+00         0.00000E+00        -0.20264E+03
 
   -0.79395E+03         0.96201E+02         0.00000E+00
    0.96201E+02         0.17133E+03         0.00000E+00
    0.00000E+00         0.00000E+00        -0.18679E+03
 
   -0.68999E+03         0.11403E+03         0.00000E+00
    0.11403E+03         0.12834E+03         0.00000E+00
    0.00000E+00         0.00000E+00        -0.16849E+03
 
   -0.57116E+03         0.13012E+03         0.00000E+00
    0.13012E+03         0.78446E+02         0.00000E+00
    0.00000E+00         0.00000E+00        -0.14781E+03
 
   -0.43856E+03         0.14392E+03         0.00000E+00
    0.14392E+03         0.22443E+02         0.00000E+00
    0.00000E+00         0.00000E+00        -0.12484E+03
 
   -0.29373E+03         0.15488E+03         0.00000E+00
    0.15488E+03        -0.38643E+02         0.00000E+00
    0.00000E+00         0.00000E+00        -0.99711E+02
 
   -0.13855E+03         0.16246E+03         0.00000E+00
    0.16246E+03        -0.10356E+03         0.00000E+00
    0.00000E+00         0.00000E+00        -0.72633E+02
 
   -0.87409E+03        -0.66105E+01         0.00000E+00
   -0.66105E+01         0.17386E+01         0.00000E+00
    0.00000E+00         0.00000E+00        -0.26171E+03
 
   -0.86117E+03        -0.18383E+02         0.00000E+00
   -0.18383E+02         0.10199E+02         0.00000E+00
    0.00000E+00         0.00000E+00        -0.25529E+03
 
   -0.86276E+03        -0.28111E+02         0.00000E+00
   -0.28111E+02         0.25873E+02         0.00000E+00
    0.00000E+00         0.00000E+00        -0.25107E+03
 
   -0.87612E+03        -0.35674E+02         0.00000E+00
   -0.35674E+02         0.47339E+02         0.00000E+00
    0.00000E+00         0.00000E+00        -0.24864E+03
 
   -0.89847E+03        -0.41010E+02         0.00000E+00
   -0.41010E+02         0.73118E+02         0.00000E+00
    0.00000E+00         0.00000E+00        -0.24761E+03
 
   -0.92696E+03        -0.44109E+02         0.00000E+00
   -0.44109E+02         0.10171E+03         0.00000E+00
    0.00000E+00         0.00000E+00        -0.24757E+03
 
   -0.95878E+03        -0.45010E+02         0.00000E+00
   -0.45010E+02         0.13162E+03         0.00000E+00
    0.00000E+00         0.00000E+00        -0.24815E+03
 
   -0.99119E+03        -0.43791E+02         0.00000E+00
   -0.43791E+02         0.16141E+03         0.00000E+00
    0.00000E+00         0.00000E+00        -0.24893E+03
 
   -0.10216E+04        -0.40571E+02         0.00000E+00
   -0.40571E+02         0.18968E+03         0.00000E+00
    0.00000E+00         0.00000E+00        -0.24956E+03
 
   -0.10474E+04        -0.35498E+02         0.00000E+00
   -0.35498E+02         0.21516E+03         0.00000E+00
    0.00000E+00         0.00000E+00        -0.24967E+03
 
   -0.10664E+04        -0.28752E+02         0.00000E+00
   -0.28752E+02         0.23665E+03         0.00000E+00
    0.00000E+00         0.00000E+00        -0.24893E+03
 
   -0.10765E+04        -0.20535E+02         0.00000E+00
   -0.20535E+02         0.25312E+03         0.00000E+00
    0.00000E+00         0.00000E+00        -0.24702E+03
 
   -0.10759E+04        -0.11072E+02         0.00000E+00
   -0.11072E+02         0.26365E+03         0.00000E+00
    0.00000E+00         0.00000E+00        -0.24367E+03
 
   -0.10629E+04        -0.60350E+00         0.00000E+00
   -0.60350E+00         0.26748E+03         0.00000E+00
    0.00000E+00         0.00000E+00        -0.23864E+03
 
   -0.10364E+04         0.10611E+02         0.00000E+00
    0.10611E+02         0.26403E+03         0.00000E+00
    0.00000E+00         0.00000E+00        -0.23170E+03
 
   -0.99522E+03         0.22301E+02         0.00000E+00
    0.22301E+02         0.25290E+03         0.00000E+00
    0.00000E+00         0.00000E+00        -0.22269E+03
 
   -0.93880E+03         0.34181E+02         0.00000E+00
    0.34181E+02         0.23386E+03         0.00000E+00
    0.00000E+00         0.00000E+00        -0.21148E+03
 
   -0.86678E+03         0.45956E+02         0.00000E+00
    0.45956E+02         0.20689E+03         0.00000E+00
    0.00000E+00         0.00000E+00        -0.19797E+03
 
   -0.77919E+03         0.57322E+02         0.00000E+00
    0.57322E+02         0.17214E+03         0.00000E+00
    0.00000E+00         0.00000E+00        -0.18211E+03
 
   -0.67641E+03         0.67964E+02         0.00000E+00
    0.67964E+02         0.13001E+03         0.00000E+00
    0.00000E+00         0.00000E+00        -0.16392E+03
 
   -0.55918E+03         0.77563E+02         0.00000E+00
    0.77563E+02         0.81073E+02         0.00000E+00
    0.00000E+00         0.00000E+00        -0.14343E+03
 
   -0.42864E+03         0.85790E+02         0.00000E+00
    0.85790E+02         0.26139E+02         0.00000E+00
    0.00000E+00         0.00000E+00        -0.12075E+03
 
   -0.28629E+03         0.92315E+02         0.00000E+00
    0.92315E+02        -0.33769E+02         0.00000E+00
    0.00000E+00         0.00000E+00        -0.96018E+02
 
   -0.13404E+03         0.96807E+02         0.00000E+00
    0.96807E+02        -0.97405E+02         0.00000E+00
    0.00000E+00         0.00000E+00        -0.69435E+02
 
   -0.88257E+03        -0.21970E+01         0.00000E+00
   -0.21970E+01         0.17233E+01         0.00000E+00
    0.00000E+00         0.00000E+00        -0.26425E+03
 
   -0.86835E+03        -0.61111E+01         0.00000E+00
   -0.61111E+01         0.10114E+02         0.00000E+00
    0.00000E+00         0.00000E+00        -0.25747E+03
 
   -0.86852E+03        -0.93468E+01         0.00000E+00
   -0.93468E+01         0.25666E+02         0.00000E+00
    0.00000E+00         0.00000E+00        -0.25286E+03
 
   -0.88042E+03        -0.11864E+02         0.00000E+00
   -0.11864E+02         0.46979E+02         0.00000E+00
    0.00000E+00         0.00000E+00        -0.25003E+03
 
   -0.90128E+03        -0.13641E+02         0.00000E+00
   -0.13641E+02         0.72590E+02         0.00000E+00
    0.00000E+00         0.00000E+00        -0.24861E+03
 
   -0.92829E+03        -0.14675E+02         0.00000E+00
   -0.14675E+02         0.10101E+03         0.00000E+00
    0.00000E+00         0.00000E+00        -0.24818E+03
 
   -0.95867E+03        -0.14979E+02         0.00000E+00
   -0.14979E+02         0.13077E+03         0.00000E+00
    0.00000E+00         0.00000E+00        -0.24837E+03
 
   -0.98970E+03        -0.14577E+02         0.00000E+00
   -0.14577E+02         0.16042E+03         0.00000E+00
    0.00000E+00         0.00000E+00        -0.24878E+03
 
   -0.10188E+04        -0.13509E+02         0.00000E+00
   -0.13509E+02         0.18859E+03         0.00000E+00
    0.00000E+00         0.00000E+00        -0.24906E+03
 
   -0.10434E+04        -0.11825E+02         0.00000E+00
   -0.11825E+02         0.21400E+03         0.00000E+00
    0.00000E+00         0.00000E+00        -0.24883E+03
 
   -0.10614E+04        -0.95832E+01         0.00000E+00
   -0.95832E+01         0.23547E+03         0.00000E+00
    0.00000E+00         0.00000E+00        -0.24778E+03
 
   -0.10706E+04        -0.68520E+01         0.00000E+00
   -0.68520E+01         0.25195E+03         0.00000E+00
    0.00000E+00         0.00000E+00        -0.24560E+03
 
   -0.10692E+04        -0.37055E+01         0.00000E+00
   -0.37055E+01         0.26255E+03         0.00000E+00
    0.00000E+00         0.00000E+00        -0.24201E+03
 
   -0.10557E+04        -0.22432E+00         0.00000E+00
   -0.22432E+00         0.26649E+03         0.00000E+00
    0.00000E+00         0.00000E+00        -0.23676E+03
 
   -0.10287E+04         0.35055E+01         0.00000E+00
    0.35055E+01         0.26321E+03         0.00000E+00
    0.00000E+00         0.00000E+00        -0.22965E+03
 
   -0.98735E+03         0.73935E+01         0.00000E+00
    0.73935E+01         0.25230E+03         0.00000E+00
    0.00000E+00         0.00000E+00        -0.22051E+03
 
   -0.93089E+03         0.11345E+02         0.00000E+00
    0.11345E+02         0.23353E+03         0.00000E+00
    0.00000E+00         0.00000E+00        -0.20921E+03
 
   -0.85905E+03         0.15261E+02         0.00000E+00
    0.15261E+02         0.20687E+03         0.00000E+00
    0.00000E+00         0.00000E+00        -0.19565E+03
 
   -0.77184E+03         0.19041E+02         0.00000E+00
    0.19041E+02         0.17250E+03         0.00000E+00
    0.00000E+00         0.00000E+00        -0.17980E+03
 
   -0.66964E+03         0.22580E+02         0.00000E+00
    0.22580E+02         0.13079E+03         0.00000E+00
    0.00000E+00         0.00000E+00        -0.16166E+03
 
   -0.55322E+03         0.25770E+02         0.00000E+00
    0.25770E+02         0.82331E+02         0.00000E+00
    0.00000E+00         0.00000E+00        -0.14127E+03
 
   -0.42370E+03         0.28503E+02         0.00000E+00
    0.28503E+02         0.27931E+02         0.00000E+00
    0.00000E+00         0.00000E+00        -0.11873E+03
 
   -0.28260E+03         0.30669E+02         0.00000E+00
    0.30669E+02        -0.31389E+02         0.00000E+00
    0.00000E+00         0.00000E+00        -0.94196E+02
 
   -0.13182E+03         0.32158E+02         0.00000E+00
    0.32158E+02        -0.94383E+02         0.00000E+00
    0.00000E+00         0.00000E+00        -0.67860E+02
 
TENSORS stresstot double 
   -0.69268E+05         0.61812E+03         0.00000E+00
    0.61812E+03        -0.99344E+05         0.00000E+00
    0.00000E+00         0.00000E+00        -0.50584E+05
 
   -0.36011E+05         0.35672E+04         0.00000E+00
    0.35672E+04        -0.95065E+05         0.00000E+00
    0.00000E+00         0.00000E+00        -0.39323E+05
 
   -0.16312E+05         0.53464E+04         0.00000E+00
    0.53464E+04        -0.85331E+05         0.00000E+00
    0.00000E+00         0.00000E+00        -0.30493E+05
 
   -0.65784E+04         0.51471E+04         0.00000E+00
    0.51471E+04        -0.74779E+05         0.00000E+00
    0.00000E+00         0.00000E+00        -0.24407E+05
 
   -0.17946E+04         0.43655E+04         0.00000E+00
    0.43655E+04        -0.65457E+05         0.00000E+00
    0.00000E+00         0.00000E+00        -0.20176E+05
 
    0.59132E+03         0.35678E+04         0.00000E+00
    0.35678E+04        -0.57722E+05         0.00000E+00
    0.00000E+00         0.00000E+00        -0.17139E+05
 
    0.17586E+04         0.28931E+04         0.00000E+00
    0.28931E+04        -0.51418E+05         0.00000E+00
    0.00000E+00         0.00000E+00        -0.14898E+05
 
    0.22749E+04         0.23539E+04         0.00000E+00
    0.23539E+04        -0.46287E+05         0.00000E+00
    0.00000E+00         0.00000E+00        -0.13204E+05
 
    0.24247E+04         0.19294E+04         0.00000E+00
    0.19294E+04        -0.42086E+05         0.00000E+00
    0.00000E+00         0.00000E+00        -0.11899E+05
 
    0.23569E+04         0.15951E+04         0.00000E+00
    0.15951E+04        -0.38622E+05         0.00000E+00
    0.00000E+00         0.00000E+00        -0.10879E+05
 
    0.21519E+04         0.13299E+04         0.00000E+00
    0.13299E+04        -0.35741E+05         0.00000E+00
    0.00000E+00         0.00000E+00        -0.10077E+05
 
    0.18536E+04         0.11176E+04         0.00000E+00
    0.11176E+04        -0.33326E+05         0.00000E+00
    0.00000E+00         0.00000E+00        -0.94416E+04
 
    0.14857E+04         0.94618E+03         0.00000E+00
    0.94618E+03        -0.31286E+05         0.00000E+00
    0.00000E+00         0.00000E+00        -0.89401E+04
 
    0.10595E+04         0.80664E+03         0.00000E+00
    0.80664E+03        -0.29552E+05         0.00000E+00
    0.00000E+00         0.00000E+00        -0.85476E+04
 
    0.57902E+03         0.69240E+03         0.00000E+00
    0.69240E+03        -0.28067E+05         0.00000E+00
    0.00000E+00         0.00000E+00        -0.82463E+04
 
    0.42690E+02         0.59865E+03         0.00000E+00
    0.59865E+03        -0.26787E+05         0.00000E+00
    0.00000E+00         0.00000E+00        -0.80232E+04
 
   -0.55501E+03         0.52194E+03         0.00000E+00
    0.52194E+03        -0.25675E+05         0.00000E+00
    0.00000E+00         0.00000E+00        -0.78690E+04
 
   -0.12232E+04         0.45980E+03         0.00000E+00
    0.45980E+03        -0.24700E+05         0.00000E+00
    0.00000E+00         0.00000E+00        -0.77770E+04
 
   -0.19745E+04         0.41065E+03         0.00000E+00
    0.41065E+03        -0.23836E+05         0.00000E+00
    0.00000E+00         0.00000E+00        -0.77430E+04
 
   -0.28255E+04         0.37360E+03         0.00000E+00
    0.37360E+03        -0.23056E+05         0.00000E+00
    0.00000E+00         0.00000E+00        -0.77645E+04
 
   -0.37968E+04         0.34843E+03         0.00000E+00
    0.34843E+03        -0.22338E+05         0.00000E+00
    0.00000E+00         0.00000E+00        -0.78406E+04
 
   -0.49148E+04         0.33562E+03         0.00000E+00
    0.33562E+03        -0.21658E+05         0.00000E+00
    0.00000E+00         0.00000E+00        -0.79719E+04
 
   -0.62125E+04         0.33637E+03         0.00000E+00
    0.33637E+03        -0.20990E+05         0.00000E+00
    0.00000E+00         0.00000E+00        -0.81608E+04
 
   -0.77313E+04         0.35280E+03         0.00000E+00
    0.35280E+03        -0.20305E+05         0.00000E+00
    0.00000E+00         0.00000E+00        -0.84109E+04
 
   -0.64581E+05         0.30733E+04         0.00000E+00
    0.30733E+04        -0.99316E+05         0.00000E+00
    0.00000E+00         0.00000E+00        -0.49169E+05
 
   -0.30576E+05         0.13481E+05         0.00000E+00
    0.13481E+05        -0.87764E+05         0.00000E+00
    0.00000E+00         0.00000E+00        -0.35502E+05
 
   -0.15864E+05         0.15997E+05         0.00000E+00
    0.15997E+05        -0.76817E+05         0.00000E+00
    0.00000E+00         0.00000E+00        -0.27804E+05
 
   -0.79189E+04         0.14598E+05         0.00000E+00
    0.14598E+05        -0.67775E+05         0.00000E+00
    0.00000E+00         0.00000E+00        -0.22708E+05
 
   -0.33863E+04         0.12296E+05         0.00000E+00
    0.12296E+05        -0.60185E+05         0.00000E+00
    0.00000E+00         0.00000E+00        -0.19071E+05
 
   -0.82163E+03         0.10092E+05         0.00000E+00
    0.10092E+05        -0.53839E+05         0.00000E+00
    0.00000E+00         0.00000E+00        -0.16398E+05
 
    0.60624E+03         0.82403E+04         0.00000E+00
    0.82403E+04        -0.48548E+05         0.00000E+00
    0.00000E+00         0.00000E+00        -0.14383E+05
 
    0.13593E+04         0.67507E+04         0.00000E+00
    0.67507E+04        -0.44137E+05         0.00000E+00
    0.00000E+00         0.00000E+00        -0.12833E+05
 
    0.17006E+04         0.55668E+04         0.00000E+00
    0.55668E+04        -0.40449E+05         0.00000E+00
    0.00000E+00         0.00000E+00        -0.11625E+05
 
    0.17820E+04         0.46256E+04         0.00000E+00
    0.46256E+04        -0.37352E+05         0.00000E+00
    0.00000E+00         0.00000E+00        -0.10671E+05
 
    0.16919E+04         0.38730E+04         0.00000E+00
    0.38730E+04        -0.34739E+05         0.00000E+00
    0.00000E+00         0.00000E+00        -0.99140E+04
 
    0.14824E+04         0.32663E+04         0.00000E+00
    0.32663E+04        -0.32521E+05         0.00000E+00
    0.00000E+00         0.00000E+00        -0.93115E+04
 
    0.11837E+04         0.27735E+04         0.00000E+00
    0.27735E+04        -0.30629E+05         0.00000E+00
    0.00000E+00         0.00000E+00        -0.88336E+04
 
    0.81227E+03         0.23704E+04         0.00000E+00
    0.23704E+04        -0.29007E+05         0.00000E+00
    0.00000E+00         0.00000E+00        -0.84583E+04
 
    0.37585E+03         0.20391E+04         0.00000E+00
    0.20391E+04        -0.27607E+05         0.00000E+00
    0.00000E+00         0.00000E+00        -0.81695E+04
 
   -0.12420E+03         0.17664E+04         0.00000E+00
    0.17664E+04        -0.26394E+05         0.00000E+00
    0.00000E+00         0.00000E+00        -0.79554E+04
 
   -0.69121E+03         0.15426E+04         0.00000E+00
    0.15426E+04        -0.25334E+05         0.00000E+00
    0.00000E+00         0.00000E+00        -0.78075E+04
 
   -0.13325E+04         0.13611E+04         0.00000E+00
    0.13611E+04        -0.24400E+05         0.00000E+00
    0.00000E+00         0.00000E+00        -0.77198E+04
 
   -0.20594E+04         0.12173E+04         0.00000E+00
    0.12173E+04        -0.23568E+05         0.00000E+00
    0.00000E+00         0.00000E+00        -0.76882E+04
 
   -0.28868E+04         0.11089E+04         0.00000E+00
    0.11089E+04        -0.22815E+05         0.00000E+00
    0.00000E+00         0.00000E+00        -0.77105E+04
 
   -0.38343E+04         0.10354E+04         0.00000E+00
    0.10354E+04        -0.22118E+05         0.00000E+00
    0.00000E+00         0.00000E+00        -0.77858E+04
 
   -0.49269E+04         0.99828E+03         0.00000E+00
    0.99828E+03        -0.21457E+05         0.00000E+00
    0.00000E+00         0.00000E+00        -0.79150E+04
 
   -0.61959E+04         0.10012E+04         0.00000E+00
    0.10012E+04        -0.20805E+05         0.00000E+00
    0.00000E+00         0.00000E+00        -0.81002E+04
 
   -0.76807E+04         0.10503E+04         0.00000E+00
    0.10503E+04        -0.20135E+05         0.00000E+00
    0.00000E+00         0.00000E+00        -0.83448E+04
 
   -0.48122E+05         0.17594E+05         0.00000E+00
    0.17594E+05        -0.74889E+05         0.00000E+00
    0.00000E+00         0.00000E+00        -0.36903E+05
 
   -0.26322E+05         0.25407E+05         0.00000E+00
    0.25407E+05        -0.65491E+05         0.00000E+00
    0.00000E+00         0.00000E+00        -0.27544E+05
 
   -0.17169E+05         0.24191E+05         0.00000E+00
    0.24191E+05        -0.59592E+05         0.00000E+00
    0.00000E+00         0.00000E+00        -0.23028E+05
 
   -0.10622E+05         0.21198E+05         0.00000E+00
    0.21198E+05        -0.54922E+05         0.00000E+00
    0.00000E+00         0.00000E+00        -0.19663E+05
 
   -0.61871E+04         0.17918E+05         0.00000E+00
    0.17918E+05        -0.50728E+05         0.00000E+00
    0.00000E+00         0.00000E+00        -0.17074E+05
 
   -0.32687E+04         0.14922E+05         0.00000E+00
    0.14922E+05        -0.46857E+05         0.00000E+00
    0.00000E+00         0.00000E+00        -0.15038E+05
 
   -0.14113E+04         0.12380E+05         0.00000E+00
    0.12380E+05        -0.43337E+05         0.00000E+00
    0.00000E+00         0.00000E+00        -0.13424E+05
 
   -0.26890E+03         0.10288E+05         0.00000E+00
    0.10288E+05        -0.40189E+05         0.00000E+00
    0.00000E+00         0.00000E+00        -0.12137E+05
 
    0.39331E+03         0.85882E+04         0.00000E+00
    0.85882E+04        -0.37409E+05         0.00000E+00
    0.00000E+00         0.00000E+00        -0.11105E+05
 
    0.72979E+03         0.72088E+04         0.00000E+00
    0.72088E+04        -0.34972E+05         0.00000E+00
    0.00000E+00         0.00000E+00        -0.10273E+05
 
    0.84026E+03         0.60866E+04         0.00000E+00
    0.60866E+04        -0.32844E+05         0.00000E+00
    0.00000E+00         0.00000E+00        -0.96011E+04
 
    0.78849E+03         0.51691E+04         0.00000E+00
    0.51691E+04        -0.30989E+05         0.00000E+00
    0.00000E+00         0.00000E+00        -0.90600E+04
 
    0.61470E+03         0.44149E+04         0.00000E+00
    0.44149E+04        -0.29370E+05         0.00000E+00
    0.00000E+00         0.00000E+00        -0.86267E+04
 
    0.34344E+03         0.37919E+04         0.00000E+00
    0.37919E+04        -0.27957E+05         0.00000E+00
    0.00000E+00         0.00000E+00        -0.82840E+04
 
   -0.11429E+02         0.32759E+04         0.00000E+00
    0.32759E+04        -0.26719E+05         0.00000E+00
    0.00000E+00         0.00000E+00        -0.80191E+04
 
   -0.44366E+03         0.28484E+04         0.00000E+00
    0.28484E+04        -0.25631E+05         0.00000E+00
    0.00000E+00         0.00000E+00        -0.78224E+04
 
   -0.95275E+03         0.24959E+04         0.00000E+00
    0.24959E+04        -0.24670E+05         0.00000E+00
    0.00000E+00         0.00000E+00        -0.76868E+04
 
   -0.15430E+04         0.22089E+04         0.00000E+00
    0.22089E+04        -0.23814E+05         0.00000E+00
    0.00000E+00         0.00000E+00        -0.76071E+04
 
   -0.22228E+04         0.19811E+04         0.00000E+00
    0.19811E+04        -0.23044E+05         0.00000E+00
    0.00000E+00         0.00000E+00        -0.75801E+04
 
   -0.30048E+04         0.18094E+04         0.00000E+00
    0.18094E+04        -0.22341E+05         0.00000E+00
    0.00000E+00         0.00000E+00        -0.76039E+04
 
   -0.39062E+04         0.16934E+04         0.00000E+00
    0.16934E+04        -0.21687E+05         0.00000E+00
    0.00000E+00         0.00000E+00        -0.76779E+04
 
   -0.49492E+04         0.16357E+04         0.00000E+00
    0.16357E+04        -0.21060E+05         0.00000E+00
    0.00000E+00         0.00000E+00        -0.78028E+04
 
   -0.61621E+04         0.16424E+04         0.00000E+00
    0.16424E+04        -0.20440E+05         0.00000E+00
    0.00000E+00         0.00000E+00        -0.79807E+04
 
   -0.75807E+04         0.17238E+04         0.00000E+00
    0.17238E+04        -0.19802E+05         0.00000E+00
    0.00000E+00         0.00000E+00        -0.82148E+04
 
   -0.22457E+05         0.17640E+05         0.00000E+00
    0.17640E+05        -0.25090E+05         0.00000E+00
    0.00000E+00         0.00000E+00        -0.14264E+05
 
   -0.25864E+05         0.25944E+05         0.00000E+00
    0.25944E+05        -0.33925E+05         0.00000E+00
    0.00000E+00         0.00000E+00        -0.17937E+05
 
   -0.19351E+05         0.25462E+05         0.00000E+00
    0.25462E+05        -0.37966E+05         0.00000E+00
    0.00000E+00         0.00000E+00        -0.17195E+05
 
   -0.13710E+05         0.23127E+05         0.00000E+00
    0.23127E+05        -0.39342E+05         0.00000E+00
    0.00000E+00         0.00000E+00        -0.15916E+05
 
   -0.92865E+04         0.20259E+05         0.00000E+00
    0.20259E+05        -0.39182E+05         0.00000E+00
    0.00000E+00         0.00000E+00        -0.14540E+05
 
   -0.60619E+04         0.17422E+05         0.00000E+00
    0.17422E+05        -0.38161E+05         0.00000E+00
    0.00000E+00         0.00000E+00        -0.13267E+05
 
   -0.38002E+04         0.14850E+05         0.00000E+00
    0.14850E+05        -0.36697E+05         0.00000E+00
    0.00000E+00         0.00000E+00        -0.12149E+05
 
   -0.22636E+04         0.12620E+05         0.00000E+00
    0.12620E+05        -0.35050E+05         0.00000E+00
    0.00000E+00         0.00000E+00        -0.11194E+05
 
   -0.12555E+04         0.10729E+05         0.00000E+00
    0.10729E+05        -0.33376E+05         0.00000E+00
    0.00000E+00         0.00000E+00        -0.10389E+05
 
   -0.62967E+03         0.91414E+04         0.00000E+00
    0.91414E+04        -0.31762E+05         0.00000E+00
    0.00000E+00         0.00000E+00        -0.97175E+04
 
   -0.28216E+03         0.78138E+04         0.00000E+00
    0.78138E+04        -0.30253E+05         0.00000E+00
    0.00000E+00         0.00000E+00        -0.91606E+04
 
   -0.14109E+03         0.67039E+04         0.00000E+00
    0.67039E+04        -0.28868E+05         0.00000E+00
    0.00000E+00         0.00000E+00        -0.87028E+04
 
   -0.15778E+03         0.57748E+04         0.00000E+00
    0.57748E+04        -0.27611E+05         0.00000E+00
    0.00000E+00         0.00000E+00        -0.83307E+04
 
   -0.30007E+03         0.49961E+04         0.00000E+00
    0.49961E+04        -0.26477E+05         0.00000E+00
    0.00000E+00         0.00000E+00        -0.80331E+04
 
   -0.54769E+03         0.43432E+04         0.00000E+00
    0.43432E+04        -0.25458E+05         0.00000E+00
    0.00000E+00         0.00000E+00        -0.78016E+04
 
   -0.88909E+03         0.37973E+04         0.00000E+00
    0.37973E+04        -0.24541E+05         0.00000E+00
    0.00000E+00         0.00000E+00        -0.76291E+04
 
   -0.13193E+04         0.33438E+04         0.00000E+00
    0.33438E+04        -0.23716E+05         0.00000E+00
    0.00000E+00         0.00000E+00        -0.75106E+04
 
   -0.18389E+04         0.29727E+04         0.00000E+00
    0.29727E+04        -0.22969E+05         0.00000E+00
    0.00000E+00         0.00000E+00        -0.74423E+04
 
   -0.24529E+04         0.26773E+04         0.00000E+00
    0.26773E+04        -0.22286E+05         0.00000E+00
    0.00000E+00         0.00000E+00        -0.74217E+04
 
   -0.31707E+04         0.24546E+04         0.00000E+00
    0.24546E+04        -0.21654E+05         0.00000E+00
    0.00000E+00         0.00000E+00        -0.74475E+04
 
   -0.40062E+04         0.23049E+04         0.00000E+00
    0.23049E+04        -0.21058E+05         0.00000E+00
    0.00000E+00         0.00000E+00        -0.75194E+04
 
   -0.49781E+04         0.22325E+04         0.00000E+00
    0.22325E+04        -0.20482E+05         0.00000E+00
    0.00000E+00         0.00000E+00        -0.76381E+04
 
   -0.61103E+04         0.22459E+04         0.00000E+00
    0.22459E+04        -0.19908E+05         0.00000E+00
    0.00000E+00         0.00000E+00        -0.78055E+04
 
   -0.74335E+04         0.23587E+04         0.00000E+00
    0.23587E+04        -0.19314E+05         0.00000E+00
    0.00000E+00         0.00000E+00        -0.80243E+04
 
   -0.54729E+04         0.32381E+04         0.00000E+00
    0.32381E+04        -0.64123E+03         0.00000E+00
    0.00000E+00         0.00000E+00        -0.18342E+04
 
   -0.20250E+05         0.15274E+05         0.00000E+00
    0.15274E+05        -0.11420E+05         0.00000E+00
    0.00000E+00         0.00000E+00        -0.95010E+04
 
   -0.19185E+05         0.20104E+05         0.00000E+00
    0.20104E+05        -0.19980E+05         0.00000E+00
    0.00000E+00         0.00000E+00        -0.11750E+05
 
   -0.15355E+05         0.20644E+05         0.00000E+00
    0.20644E+05        -0.25158E+05         0.00000E+00
    0.00000E+00         0.00000E+00        -0.12154E+05
 
   -0.11573E+05         0.19462E+05         0.00000E+00
    0.19462E+05        -0.27999E+05         0.00000E+00
    0.00000E+00         0.00000E+00        -0.11872E+05
 
   -0.84367E+04         0.17615E+05         0.00000E+00
    0.17615E+05        -0.29315E+05         0.00000E+00
    0.00000E+00         0.00000E+00        -0.11325E+05
 
   -0.60220E+04         0.15604E+05         0.00000E+00
    0.15604E+05        -0.29664E+05         0.00000E+00
    0.00000E+00         0.00000E+00        -0.10706E+05
 
   -0.42404E+04         0.13665E+05         0.00000E+00
    0.13665E+05        -0.29422E+05         0.00000E+00
    0.00000E+00         0.00000E+00        -0.10099E+05
 
   -0.29697E+04         0.11898E+05         0.00000E+00
    0.11898E+05        -0.28835E+05         0.00000E+00
    0.00000E+00         0.00000E+00        -0.95415E+04
 
   -0.20966E+04         0.10335E+05         0.00000E+00
    0.10335E+05        -0.28064E+05         0.00000E+00
    0.00000E+00         0.00000E+00        -0.90483E+04
 
   -0.15295E+04         0.89743E+04         0.00000E+00
    0.89743E+04        -0.27211E+05         0.00000E+00
    0.00000E+00         0.00000E+00        -0.86221E+04
 
   -0.11988E+04         0.78009E+04         0.00000E+00
    0.78009E+04        -0.26338E+05         0.00000E+00
    0.00000E+00         0.00000E+00        -0.82610E+04
 
   -0.10536E+04         0.67939E+04         0.00000E+00
    0.67939E+04        -0.25482E+05         0.00000E+00
    0.00000E+00         0.00000E+00        -0.79608E+04
 
   -0.10579E+04         0.59329E+04         0.00000E+00
    0.59329E+04        -0.24666E+05         0.00000E+00
    0.00000E+00         0.00000E+00        -0.77171E+04
 
   -0.11870E+04         0.51996E+04         0.00000E+00
    0.51996E+04        -0.23898E+05         0.00000E+00
    0.00000E+00         0.00000E+00        -0.75256E+04
 
   -0.14253E+04         0.45786E+04         0.00000E+00
    0.45786E+04        -0.23183E+05         0.00000E+00
    0.00000E+00         0.00000E+00        -0.73824E+04
 
   -0.17638E+04         0.40579E+04         0.00000E+00
    0.40579E+04        -0.22519E+05         0.00000E+00
    0.00000E+00         0.00000E+00        -0.72847E+04
 
   -0.21994E+04         0.36288E+04         0.00000E+00
    0.36288E+04        -0.21901E+05         0.00000E+00
    0.00000E+00         0.00000E+00        -0.72302E+04
 
   -0.27336E+04         0.32860E+04         0.00000E+00
    0.32860E+04        -0.21324E+05         0.00000E+00
    0.00000E+00         0.00000E+00        -0.72174E+04
 
   -0.33725E+04         0.30277E+04         0.00000E+00
    0.30277E+04        -0.20779E+05         0.00000E+00
    0.00000E+00         0.00000E+00        -0.72455E+04
 
   -0.41261E+04         0.28557E+04         0.00000E+00
    0.28557E+04        -0.20256E+05         0.00000E+00
    0.00000E+00         0.00000E+00        -0.73145E+04
 
   -0.50087E+04         0.27759E+04         0.00000E+00
    0.27759E+04        -0.19742E+05         0.00000E+00
    0.00000E+00         0.00000E+00        -0.74253E+04
 
   -0.60395E+04         0.27991E+04         0.00000E+00
    0.27991E+04        -0.19225E+05         0.00000E+00
    0.00000E+00         0.00000E+00        -0.75793E+04
 
   -0.72424E+04         0.29422E+04         0.00000E+00
    0.29422E+04        -0.18687E+05         0.00000E+00
    0.00000E+00         0.00000E+00        -0.77788E+04
 
    0.48349E+03         0.10065E+04         0.00000E+00
    0.10065E+04        -0.58769E+03         0.00000E+00
    0.00000E+00         0.00000E+00        -0.31258E+02
 
   -0.11757E+05         0.73085E+04         0.00000E+00
    0.73085E+04        -0.33812E+04         0.00000E+00
    0.00000E+00         0.00000E+00        -0.45414E+04
 
   -0.15764E+05         0.13257E+05         0.00000E+00
    0.13257E+05        -0.94797E+04         0.00000E+00
    0.00000E+00         0.00000E+00        -0.75730E+04
 
   -0.14785E+05         0.16060E+05         0.00000E+00
    0.16060E+05        -0.14942E+05         0.00000E+00
    0.00000E+00         0.00000E+00        -0.89181E+04
 
   -0.12401E+05         0.16680E+05         0.00000E+00
    0.16680E+05        -0.18915E+05         0.00000E+00
    0.00000E+00         0.00000E+00        -0.93948E+04
 
   -0.98842E+04         0.16111E+05         0.00000E+00
    0.16111E+05        -0.21533E+05         0.00000E+00
    0.00000E+00         0.00000E+00        -0.94250E+04
 
   -0.76752E+04         0.14962E+05         0.00000E+00
    0.14962E+05        -0.23107E+05         0.00000E+00
    0.00000E+00         0.00000E+00        -0.92346E+04
 
   -0.58872E+04         0.13584E+05         0.00000E+00
    0.13584E+05        -0.23933E+05         0.00000E+00
    0.00000E+00         0.00000E+00        -0.89461E+04
 
   -0.45086E+04         0.12167E+05         0.00000E+00
    0.12167E+05        -0.24245E+05         0.00000E+00
    0.00000E+00         0.00000E+00        -0.86261E+04
 
   -0.34866E+04         0.10813E+05         0.00000E+00
    0.10813E+05        -0.24215E+05         0.00000E+00
    0.00000E+00         0.00000E+00        -0.83105E+04
 
   -0.27606E+04         0.95666E+04         0.00000E+00
    0.95666E+04        -0.23966E+05         0.00000E+00
    0.00000E+00         0.00000E+00        -0.80180E+04
 
   -0.22764E+04         0.84456E+04         0.00000E+00
    0.84456E+04        -0.23584E+05         0.00000E+00
    0.00000E+00         0.00000E+00        -0.77581E+04
 
   -0.19894E+04         0.74521E+04         0.00000E+00
    0.74521E+04        -0.23126E+05         0.00000E+00
    0.00000E+00         0.00000E+00        -0.75347E+04
 
   -0.18654E+04         0.65809E+04         0.00000E+00
    0.65809E+04        -0.22632E+05         0.00000E+00
    0.00000E+00         0.00000E+00        -0.73492E+04
 
   -0.18791E+04         0.58239E+04         0.00000E+00
    0.58239E+04        -0.22126E+05         0.00000E+00
    0.00000E+00         0.00000E+00        -0.72014E+04
 
   -0.20128E+04         0.51728E+04         0.00000E+00
    0.51728E+04        -0.21623E+05         0.00000E+00
    0.00000E+00         0.00000E+00        -0.70906E+04
 
   -0.22551E+04         0.46204E+04         0.00000E+00
    0.46204E+04        -0.21131E+05         0.00000E+00
    0.00000E+00         0.00000E+00        -0.70160E+04
 
   -0.26002E+04         0.41615E+04         0.00000E+00
    0.41615E+04        -0.20656E+05         0.00000E+00
    0.00000E+00         0.00000E+00        -0.69767E+04
 
   -0.30464E+04         0.37935E+04         0.00000E+00
    0.37935E+04        -0.20195E+05         0.00000E+00
    0.00000E+00         0.00000E+00        -0.69724E+04
 
   -0.35962E+04         0.35166E+04         0.00000E+00
    0.35166E+04        -0.19746E+05         0.00000E+00
    0.00000E+00         0.00000E+00        -0.70028E+04
 
   -0.42560E+04         0.33346E+04         0.00000E+00
    0.33346E+04        -0.19305E+05         0.00000E+00
    0.00000E+00         0.00000E+00        -0.70683E+04
 
   -0.50356E+04         0.32555E+04         0.00000E+00
    0.32555E+04        -0.18863E+05         0.00000E+00
    0.00000E+00         0.00000E+00        -0.71695E+04
 
   -0.59484E+04         0.32921E+04         0.00000E+00
    0.32921E+04        -0.18411E+05         0.00000E+00
    0.00000E+00         0.00000E+00        -0.73079E+04
 
   -0.70118E+04         0.34638E+04         0.00000E+00
    0.34638E+04        -0.17938E+05         0.00000E+00
    0.00000E+00         0.00000E+00        -0.74850E+04
 
    0.32281E+04         0.38100E+03         0.00000E+00
    0.38100E+03        -0.78819E+02         0.00000E+00
    0.00000E+00         0.00000E+00         0.94478E+03
 
   -0.63738E+04         0.38495E+04         0.00000E+00
    0.38495E+04        -0.14772E+04         0.00000E+00
    0.00000E+00         0.00000E+00        -0.23553E+04
 
   -0.11415E+05         0.82619E+04         0.00000E+00
    0.82619E+04        -0.46528E+04         0.00000E+00
    0.00000E+00         0.00000E+00        -0.48203E+04
 
   -0.12696E+05         0.11567E+05         0.00000E+00
    0.11567E+05        -0.87216E+04         0.00000E+00
    0.00000E+00         0.00000E+00        -0.64252E+04
 
   -0.11889E+05         0.13263E+05         0.00000E+00
    0.13263E+05        -0.12441E+05         0.00000E+00
    0.00000E+00         0.00000E+00        -0.72991E+04
 
   -0.10311E+05         0.13734E+05         0.00000E+00
    0.13734E+05        -0.15390E+05         0.00000E+00
    0.00000E+00         0.00000E+00        -0.77103E+04
 
   -0.85983E+04         0.13429E+05         0.00000E+00
    0.13429E+05        -0.17543E+05         0.00000E+00
    0.00000E+00         0.00000E+00        -0.78425E+04
 
   -0.70324E+04         0.12684E+05         0.00000E+00
    0.12684E+05        -0.19016E+05         0.00000E+00
    0.00000E+00         0.00000E+00        -0.78145E+04
 
   -0.57149E+04         0.11723E+05         0.00000E+00
    0.11723E+05        -0.19953E+05         0.00000E+00
    0.00000E+00         0.00000E+00        -0.77004E+04
 
   -0.46640E+04         0.10685E+05         0.00000E+00
    0.10685E+05        -0.20490E+05         0.00000E+00
    0.00000E+00         0.00000E+00        -0.75462E+04
 
   -0.38626E+04         0.96526E+04         0.00000E+00
    0.96526E+04        -0.20736E+05         0.00000E+00
    0.00000E+00         0.00000E+00        -0.73796E+04
 
   -0.32815E+04         0.86711E+04         0.00000E+00
    0.86711E+04        -0.20777E+05         0.00000E+00
    0.00000E+00         0.00000E+00        -0.72177E+04
 
   -0.28904E+04         0.77649E+04         0.00000E+00
    0.77649E+04        -0.20677E+05         0.00000E+00
    0.00000E+00         0.00000E+00        -0.70703E+04
 
   -0.26624E+04         0.69449E+04         0.00000E+00
    0.69449E+04        -0.20482E+05         0.00000E+00
    0.00000E+00         0.00000E+00        -0.69433E+04
 
   -0.25754E+04         0.62150E+04         0.00000E+00
    0.62150E+04        -0.20225E+05         0.00000E+00
    0.00000E+00         0.00000E+00        -0.68402E+04
 
   -0.26126E+04         0.55754E+04         0.00000E+00
    0.55754E+04        -0.19930E+05         0.00000E+00
    0.00000E+00         0.00000E+00        -0.67627E+04
 
   -0.27622E+04         0.50252E+04         0.00000E+00
    0.50252E+04        -0.19611E+05         0.00000E+00
    0.00000E+00         0.00000E+00        -0.67120E+04
 
   -0.30164E+04         0.45640E+04         0.00000E+00
    0.45640E+04        -0.19279E+05         0.00000E+00
    0.00000E+00         0.00000E+00        -0.66885E+04
 
   -0.33715E+04         0.41926E+04         0.00000E+00
    0.41926E+04        -0.18938E+05         0.00000E+00
    0.00000E+00         0.00000E+00        -0.66928E+04
 
   -0.38270E+04         0.39142E+04         0.00000E+00
    0.39142E+04        -0.18590E+05         0.00000E+00
    0.00000E+00         0.00000E+00        -0.67252E+04
 
   -0.43857E+04         0.37347E+04         0.00000E+00
    0.37347E+04        -0.18236E+05         0.00000E+00
    0.00000E+00         0.00000E+00        -0.67864E+04
 
   -0.50528E+04         0.36643E+04         0.00000E+00
    0.36643E+04        -0.17870E+05         0.00000E+00
    0.00000E+00         0.00000E+00        -0.68770E+04
 
   -0.58363E+04         0.37176E+04         0.00000E+00
    0.37176E+04        -0.17490E+05         0.00000E+00
    0.00000E+00         0.00000E+00        -0.69979E+04
 
   -0.67464E+04         0.39159E+04         0.00000E+00
    0.39159E+04        -0.17088E+05         0.00000E+00
    0.00000E+00         0.00000E+00        -0.71503E+04
 
    0.45669E+04         0.14594E+03         0.00000E+00
    0.14594E+03        -0.52071E+02         0.00000E+00
    0.00000E+00         0.00000E+00         0.13545E+04
 
   -0.29309E+04         0.21453E+04         0.00000E+00
    0.21453E+04        -0.70813E+03         0.00000E+00
    0.00000E+00         0.00000E+00        -0.10917E+04
 
   -0.78677E+04         0.52211E+04         0.00000E+00
    0.52211E+04        -0.25444E+04         0.00000E+00
    0.00000E+00         0.00000E+00        -0.31236E+04
 
   -0.10168E+05         0.80895E+04         0.00000E+00
    0.80895E+04        -0.52415E+04         0.00000E+00
    0.00000E+00         0.00000E+00        -0.46230E+04
 
   -0.10582E+05         0.10099E+05         0.00000E+00
    0.10099E+05        -0.81899E+04         0.00000E+00
    0.00000E+00         0.00000E+00        -0.56315E+04
 
   -0.99391E+04         0.11170E+05         0.00000E+00
    0.11170E+05        -0.10892E+05         0.00000E+00
    0.00000E+00         0.00000E+00        -0.62492E+04
 
   -0.88464E+04         0.11495E+05         0.00000E+00
    0.11495E+05        -0.13134E+05         0.00000E+00
    0.00000E+00         0.00000E+00        -0.65941E+04
 
   -0.76499E+04         0.11305E+05         0.00000E+00
    0.11305E+05        -0.14878E+05         0.00000E+00
    0.00000E+00         0.00000E+00        -0.67584E+04
 
   -0.65270E+04         0.10795E+05         0.00000E+00
    0.10795E+05        -0.16168E+05         0.00000E+00
    0.00000E+00         0.00000E+00        -0.68086E+04
 
   -0.55561E+04         0.10106E+05         0.00000E+00
    0.10106E+05        -0.17078E+05         0.00000E+00
    0.00000E+00         0.00000E+00        -0.67902E+04
 
   -0.47634E+04         0.93341E+04         0.00000E+00
    0.93341E+04        -0.17684E+05         0.00000E+00
    0.00000E+00         0.00000E+00        -0.67342E+04
 
   -0.41482E+04         0.85438E+04         0.00000E+00
    0.85438E+04        -0.18055E+05         0.00000E+00
    0.00000E+00         0.00000E+00        -0.66611E+04
 
   -0.36987E+04         0.77747E+04         0.00000E+00
    0.77747E+04        -0.18249E+05         0.00000E+00
    0.00000E+00         0.00000E+00        -0.65844E+04
 
   -0.33992E+04         0.70514E+04         0.00000E+00
    0.70514E+04        -0.18311E+05         0.00000E+00
    0.00000E+00         0.00000E+00        -0.65131E+04
 
   -0.32341E+04         0.63885E+04         0.00000E+00
    0.63885E+04        -0.18276E+05         0.00000E+00
    0.00000E+00         0.00000E+00        -0.64530E+04
 
   -0.31899E+04         0.57950E+04         0.00000E+00
    0.57950E+04        -0.18170E+05         0.00000E+00
    0.00000E+00         0.00000E+00        -0.64080E+04
 
   -0.32561E+04         0.52763E+04         0.00000E+00
    0.52763E+04        -0.18013E+05         0.00000E+00
    0.00000E+00         0.00000E+00        -0.63806E+04
 
   -0.34246E+04         0.48372E+04         0.00000E+00
    0.48372E+04        -0.17817E+05         0.00000E+00
    0.00000E+00         0.00000E+00        -0.63726E+04
 
   -0.36904E+04         0.44824E+04         0.00000E+00
    0.44824E+04        -0.17593E+05         0.00000E+00
    0.00000E+00         0.00000E+00        -0.63850E+04
 
   -0.40507E+04         0.42181E+04         0.00000E+00
    0.42181E+04        -0.17346E+05         0.00000E+00
    0.00000E+00         0.00000E+00        -0.64190E+04
 
   -0.45051E+04         0.40527E+04         0.00000E+00
    0.40527E+04        -0.17079E+05         0.00000E+00
    0.00000E+00         0.00000E+00        -0.64751E+04
 
   -0.50549E+04         0.39983E+04         0.00000E+00
    0.39983E+04        -0.16792E+05         0.00000E+00
    0.00000E+00         0.00000E+00        -0.65541E+04
 
   -0.57026E+04         0.40712E+04         0.00000E+00
    0.40712E+04        -0.16486E+05         0.00000E+00
    0.00000E+00         0.00000E+00        -0.66565E+04
 
   -0.64517E+04         0.42934E+04         0.00000E+00
    0.42934E+04        -0.16158E+05         0.00000E+00
    0.00000E+00         0.00000E+00        -0.67828E+04
 
    0.52585E+04         0.27342E+02         0.00000E+00
    0.27342E+02        -0.24802E+02         0.00000E+00
    0.00000E+00         0.00000E+00         0.15701E+04
 
   -0.73847E+03         0.12238E+04         0.00000E+00
    0.12238E+04        -0.40043E+03         0.00000E+00
    0.00000E+00         0.00000E+00        -0.34167E+03
 
   -0.51908E+04         0.33417E+04         0.00000E+00
    0.33417E+04        -0.15001E+04         0.00000E+00
    0.00000E+00         0.00000E+00        -0.20073E+04
 
   -0.78533E+04         0.56212E+04         0.00000E+00
    0.56212E+04        -0.33012E+04         0.00000E+00
    0.00000E+00         0.00000E+00        -0.33463E+04
 
   -0.89950E+04         0.75193E+04         0.00000E+00
    0.75193E+04        -0.54927E+04         0.00000E+00
    0.00000E+00         0.00000E+00        -0.43463E+04
 
   -0.90935E+04         0.88149E+04         0.00000E+00
    0.88149E+04        -0.77363E+04         0.00000E+00
    0.00000E+00         0.00000E+00        -0.50489E+04
 
   -0.85924E+04         0.95157E+04         0.00000E+00
    0.95157E+04        -0.97929E+04         0.00000E+00
    0.00000E+00         0.00000E+00        -0.55156E+04
 
   -0.78144E+04         0.97335E+04         0.00000E+00
    0.97335E+04        -0.11548E+05         0.00000E+00
    0.00000E+00         0.00000E+00        -0.58086E+04
 
   -0.69613E+04         0.96006E+04         0.00000E+00
    0.96006E+04        -0.12971E+05         0.00000E+00
    0.00000E+00         0.00000E+00        -0.59796E+04
 
   -0.61478E+04         0.92343E+04         0.00000E+00
    0.92343E+04        -0.14079E+05         0.00000E+00
    0.00000E+00         0.00000E+00        -0.60681E+04
 
   -0.54322E+04         0.87268E+04         0.00000E+00
    0.87268E+04        -0.14912E+05         0.00000E+00
    0.00000E+00         0.00000E+00        -0.61034E+04
 
   -0.48398E+04         0.81458E+04         0.00000E+00
    0.81458E+04        -0.15515E+05         0.00000E+00
    0.00000E+00         0.00000E+00        -0.61064E+04
 
   -0.43769E+04         0.75393E+04         0.00000E+00
    0.75393E+04        -0.15930E+05         0.00000E+00
    0.00000E+00         0.00000E+00        -0.60921E+04
 
   -0.40404E+04         0.69405E+04         0.00000E+00
    0.69405E+04        -0.16196E+05         0.00000E+00
    0.00000E+00         0.00000E+00        -0.60709E+04
 
   -0.38232E+04         0.63723E+04         0.00000E+00
    0.63723E+04        -0.16345E+05         0.00000E+00
    0.00000E+00         0.00000E+00        -0.60503E+04
 
   -0.37166E+04         0.58502E+04         0.00000E+00
    0.58502E+04        -0.16401E+05         0.00000E+00
    0.00000E+00         0.00000E+00        -0.60354E+04
 
   -0.37127E+04         0.53860E+04         0.00000E+00
    0.53860E+04        -0.16386E+05         0.00000E+00
    0.00000E+00         0.00000E+00        -0.60297E+04
 
   -0.38045E+04         0.49888E+04         0.00000E+00
    0.49888E+04        -0.16315E+05         0.00000E+00
    0.00000E+00         0.00000E+00        -0.60360E+04
 
   -0.39865E+04         0.46672E+04         0.00000E+00
    0.46672E+04        -0.16199E+05         0.00000E+00
    0.00000E+00         0.00000E+00        -0.60558E+04
 
   -0.42546E+04         0.44303E+04         0.00000E+00
    0.44303E+04        -0.16047E+05         0.00000E+00
    0.00000E+00         0.00000E+00        -0.60905E+04
 
   -0.46056E+04         0.42890E+04         0.00000E+00
    0.42890E+04        -0.15865E+05         0.00000E+00
    0.00000E+00         0.00000E+00        -0.61410E+04
 
   -0.50373E+04         0.42568E+04         0.00000E+00
    0.42568E+04        -0.15655E+05         0.00000E+00
    0.00000E+00         0.00000E+00        -0.62078E+04
 
   -0.55475E+04         0.43511E+04         0.00000E+00
    0.43511E+04        -0.15423E+05         0.00000E+00
    0.00000E+00         0.00000E+00        -0.62911E+04
 
   -0.61335E+04         0.45944E+04         0.00000E+00
    0.45944E+04        -0.15170E+05         0.00000E+00
    0.00000E+00         0.00000E+00        -0.63910E+04
 
    0.55916E+04        -0.42965E+02         0.00000E+00
   -0.42965E+02        -0.16511E+02         0.00000E+00
    0.00000E+00         0.00000E+00         0.16725E+04
 
    0.68875E+03         0.67650E+03         0.00000E+00
    0.67650E+03        -0.24594E+03         0.00000E+00
    0.00000E+00         0.00000E+00         0.13285E+03
 
   -0.32320E+04         0.21408E+04         0.00000E+00
    0.21408E+04        -0.94805E+03         0.00000E+00
    0.00000E+00         0.00000E+00        -0.12540E+04
 
   -0.59202E+04         0.38902E+04         0.00000E+00
    0.38902E+04        -0.21706E+04         0.00000E+00
    0.00000E+00         0.00000E+00        -0.24272E+04
 
   -0.74420E+04         0.55283E+04         0.00000E+00
    0.55283E+04        -0.37781E+04         0.00000E+00
    0.00000E+00         0.00000E+00        -0.33660E+04
 
   -0.80466E+04         0.68213E+04         0.00000E+00
    0.68213E+04        -0.55591E+04         0.00000E+00
    0.00000E+00         0.00000E+00        -0.40817E+04
 
   -0.80288E+04         0.76921E+04         0.00000E+00
    0.76921E+04        -0.73233E+04         0.00000E+00
    0.00000E+00         0.00000E+00        -0.46056E+04
 
   -0.76441E+04         0.81648E+04         0.00000E+00
    0.81648E+04        -0.89417E+04         0.00000E+00
    0.00000E+00         0.00000E+00        -0.49758E+04
 
   -0.70811E+04         0.83104E+04         0.00000E+00
    0.83104E+04        -0.10348E+05         0.00000E+00
    0.00000E+00         0.00000E+00        -0.52288E+04
 
   -0.64649E+04         0.82105E+04         0.00000E+00
    0.82105E+04        -0.11522E+05         0.00000E+00
    0.00000E+00         0.00000E+00        -0.53960E+04
 
   -0.58720E+04         0.79400E+04         0.00000E+00
    0.79400E+04        -0.12470E+05         0.00000E+00
    0.00000E+00         0.00000E+00        -0.55025E+04
 
   -0.53456E+04         0.75610E+04         0.00000E+00
    0.75610E+04        -0.13212E+05         0.00000E+00
    0.00000E+00         0.00000E+00        -0.55674E+04
 
   -0.49072E+04         0.71220E+04         0.00000E+00
    0.71220E+04        -0.13778E+05         0.00000E+00
    0.00000E+00         0.00000E+00        -0.56054E+04
 
   -0.45655E+04         0.66594E+04         0.00000E+00
    0.66594E+04        -0.14193E+05         0.00000E+00
    0.00000E+00         0.00000E+00        -0.56274E+04
 
   -0.43215E+04         0.62007E+04         0.00000E+00
    0.62007E+04        -0.14483E+05         0.00000E+00
    0.00000E+00         0.00000E+00        -0.56413E+04
 
   -0.41724E+04         0.57663E+04         0.00000E+00
    0.57663E+04        -0.14671E+05         0.00000E+00
    0.00000E+00         0.00000E+00        -0.56530E+04
 
   -0.41137E+04         0.53722E+04         0.00000E+00
    0.53722E+04        -0.14775E+05         0.00000E+00
    0.00000E+00         0.00000E+00        -0.56667E+04
 
   -0.41402E+04         0.50313E+04         0.00000E+00
    0.50313E+04        -0.14811E+05         0.00000E+00
    0.00000E+00         0.00000E+00        -0.56855E+04
 
   -0.42467E+04         0.47556E+04         0.00000E+00
    0.47556E+04        -0.14792E+05         0.00000E+00
    0.00000E+00         0.00000E+00        -0.57115E+04
 
   -0.44282E+04         0.45566E+04         0.00000E+00
    0.45566E+04        -0.14726E+05         0.00000E+00
    0.00000E+00         0.00000E+00        -0.57462E+04
 
   -0.46799E+04         0.44470E+04         0.00000E+00
    0.44470E+04        -0.14622E+05         0.00000E+00
    0.00000E+00         0.00000E+00        -0.57905E+04
 
   -0.49964E+04         0.44416E+04         0.00000E+00
    0.44416E+04        -0.14487E+05         0.00000E+00
    0.00000E+00         0.00000E+00        -0.58449E+04
 
   -0.53716E+04         0.45583E+04         0.00000E+00
    0.45583E+04        -0.14326E+05         0.00000E+00
    0.00000E+00         0.00000E+00        -0.59091E+04
 
   -0.57975E+04         0.48192E+04         0.00000E+00
    0.48192E+04        -0.14145E+05         0.00000E+00
    0.00000E+00         0.00000E+00        -0.59828E+04
 
    0.57083E+04        -0.88766E+02         0.00000E+00
   -0.88766E+02        -0.11153E+02         0.00000E+00
    0.00000E+00         0.00000E+00         0.17091E+04
 
    0.16225E+04         0.32784E+03         0.00000E+00
    0.32784E+03        -0.16179E+03         0.00000E+00
    0.00000E+00         0.00000E+00         0.43821E+03
 
   -0.18083E+04         0.13418E+04         0.00000E+00
    0.13418E+04        -0.63066E+03         0.00000E+00
    0.00000E+00         0.00000E+00        -0.73169E+03
 
   -0.43736E+04         0.26656E+04         0.00000E+00
    0.26656E+04        -0.14827E+04         0.00000E+00
    0.00000E+00         0.00000E+00        -0.17569E+04
 
   -0.60552E+04         0.40190E+04         0.00000E+00
    0.40190E+04        -0.26645E+04         0.00000E+00
    0.00000E+00         0.00000E+00        -0.26159E+04
 
   -0.69736E+04         0.52009E+04         0.00000E+00
    0.52009E+04        -0.40536E+04         0.00000E+00
    0.00000E+00         0.00000E+00        -0.33082E+04
 
   -0.73123E+04         0.61069E+04         0.00000E+00
    0.61069E+04        -0.55142E+04         0.00000E+00
    0.00000E+00         0.00000E+00        -0.38480E+04
 
   -0.72576E+04         0.67121E+04         0.00000E+00
    0.67121E+04        -0.69341E+04         0.00000E+00
    0.00000E+00         0.00000E+00        -0.42575E+04
 
   -0.69661E+04         0.70409E+04         0.00000E+00
    0.70409E+04        -0.82383E+04         0.00000E+00
    0.00000E+00         0.00000E+00        -0.45613E+04
 
   -0.65555E+04         0.71407E+04         0.00000E+00
    0.71407E+04        -0.93861E+04         0.00000E+00
    0.00000E+00         0.00000E+00        -0.47825E+04
 
   -0.61074E+04         0.70652E+04         0.00000E+00
    0.70652E+04        -0.10363E+05         0.00000E+00
    0.00000E+00         0.00000E+00        -0.49412E+04
 
   -0.56743E+04         0.68649E+04         0.00000E+00
    0.68649E+04        -0.11172E+05         0.00000E+00
    0.00000E+00         0.00000E+00        -0.50539E+04
 
   -0.52882E+04         0.65830E+04         0.00000E+00
    0.65830E+04        -0.11824E+05         0.00000E+00
    0.00000E+00         0.00000E+00        -0.51338E+04
 
   -0.49667E+04         0.62554E+04         0.00000E+00
    0.62554E+04        -0.12337E+05         0.00000E+00
    0.00000E+00         0.00000E+00        -0.51912E+04
 
   -0.47182E+04         0.59105E+04         0.00000E+00
    0.59105E+04        -0.12728E+05         0.00000E+00
    0.00000E+00         0.00000E+00        -0.52340E+04
 
   -0.45453E+04         0.55712E+04         0.00000E+00
    0.55712E+04        -0.13015E+05         0.00000E+00
    0.00000E+00         0.00000E+00        -0.52682E+04
 
   -0.44471E+04         0.52560E+04         0.00000E+00
    0.52560E+04        -0.13214E+05         0.00000E+00
    0.00000E+00         0.00000E+00        -0.52983E+04
 
   -0.44204E+04         0.49806E+04         0.00000E+00
    0.49806E+04        -0.13338E+05         0.00000E+00
    0.00000E+00         0.00000E+00        -0.53276E+04
 
   -0.44612E+04         0.47591E+04         0.00000E+00
    0.47591E+04        -0.13400E+05         0.00000E+00
    0.00000E+00         0.00000E+00        -0.53583E+04
 
   -0.45640E+04         0.46050E+04         0.00000E+00
    0.46050E+04        -0.13410E+05         0.00000E+00
    0.00000E+00         0.00000E+00        -0.53921E+04
 
   -0.47228E+04         0.45324E+04         0.00000E+00
    0.45324E+04        -0.13377E+05         0.00000E+00
    0.00000E+00         0.00000E+00        -0.54299E+04
 
   -0.49301E+04         0.45567E+04         0.00000E+00
    0.45567E+04        -0.13309E+05         0.00000E+00
    0.00000E+00         0.00000E+00        -0.54718E+04
 
   -0.51764E+04         0.46958E+04         0.00000E+00
    0.46958E+04        -0.13215E+05         0.00000E+00
    0.00000E+00         0.00000E+00        -0.55175E+04
 
   -0.54495E+04         0.49708E+04         0.00000E+00
    0.49708E+04        -0.13104E+05         0.00000E+00
    0.00000E+00         0.00000E+00        -0.55662E+04
 
    0.56842E+04        -0.12027E+03         0.00000E+00
   -0.12027E+03        -0.79328E+01         0.00000E+00
    0.00000E+00         0.00000E+00         0.17029E+04
 
    0.22266E+04         0.93866E+02         0.00000E+00
    0.93866E+02        -0.11111E+03         0.00000E+00
    0.00000E+00         0.00000E+00         0.63463E+03
 
   -0.77774E+03         0.79121E+03         0.00000E+00
    0.79121E+03        -0.43617E+03         0.00000E+00
    0.00000E+00         0.00000E+00        -0.36417E+03
 
   -0.31607E+04         0.17849E+04         0.00000E+00
    0.17849E+04        -0.10442E+04         0.00000E+00
    0.00000E+00         0.00000E+00        -0.12615E+04
 
   -0.48738E+04         0.28777E+04         0.00000E+00
    0.28777E+04        -0.19213E+04         0.00000E+00
    0.00000E+00         0.00000E+00        -0.20385E+04
 
   -0.59673E+04         0.39084E+04         0.00000E+00
    0.39084E+04        -0.29991E+04         0.00000E+00
    0.00000E+00         0.00000E+00        -0.26899E+04
 
   -0.65502E+04         0.47736E+04         0.00000E+00
    0.47736E+04        -0.41865E+04         0.00000E+00
    0.00000E+00         0.00000E+00        -0.32210E+04
 
   -0.67513E+04         0.54259E+04         0.00000E+00
    0.54259E+04        -0.53958E+04         0.00000E+00
    0.00000E+00         0.00000E+00        -0.36441E+04
 
   -0.66923E+04         0.58603E+04         0.00000E+00
    0.58603E+04        -0.65578E+04         0.00000E+00
    0.00000E+00         0.00000E+00        -0.39750E+04
 
   -0.64741E+04         0.60976E+04         0.00000E+00
    0.60976E+04        -0.76260E+04         0.00000E+00
    0.00000E+00         0.00000E+00        -0.42300E+04
 
   -0.61739E+04         0.61714E+04         0.00000E+00
    0.61714E+04        -0.85745E+04         0.00000E+00
    0.00000E+00         0.00000E+00        -0.44245E+04
 
   -0.58468E+04         0.61186E+04         0.00000E+00
    0.61186E+04        -0.93931E+04         0.00000E+00
    0.00000E+00         0.00000E+00        -0.45720E+04
 
   -0.55299E+04         0.59749E+04         0.00000E+00
    0.59749E+04        -0.10082E+05         0.00000E+00
    0.00000E+00         0.00000E+00        -0.46836E+04
 
   -0.52468E+04         0.57719E+04         0.00000E+00
    0.57719E+04        -0.10649E+05         0.00000E+00
    0.00000E+00         0.00000E+00        -0.47687E+04
 
   -0.50112E+04         0.55370E+04         0.00000E+00
    0.55370E+04        -0.11104E+05         0.00000E+00
    0.00000E+00         0.00000E+00        -0.48346E+04
 
   -0.48303E+04         0.52930E+04         0.00000E+00
    0.52930E+04        -0.11460E+05         0.00000E+00
    0.00000E+00         0.00000E+00        -0.48870E+04
 
   -0.47064E+04         0.50596E+04         0.00000E+00
    0.50596E+04        -0.11728E+05         0.00000E+00
    0.00000E+00         0.00000E+00        -0.49303E+04
 
   -0.46387E+04         0.48537E+04         0.00000E+00
    0.48537E+04        -0.11921E+05         0.00000E+00
    0.00000E+00         0.00000E+00        -0.49678E+04
 
   -0.46239E+04         0.46908E+04         0.00000E+00
    0.46908E+04        -0.12049E+05         0.00000E+00
    0.00000E+00         0.00000E+00        -0.50019E+04
 
   -0.46571E+04         0.45855E+04         0.00000E+00
    0.45855E+04        -0.12123E+05         0.00000E+00
    0.00000E+00         0.00000E+00        -0.50339E+04
 
   -0.47313E+04         0.45526E+04         0.00000E+00
    0.45526E+04        -0.12151E+05         0.00000E+00
    0.00000E+00         0.00000E+00        -0.50648E+04
 
   -0.48375E+04         0.46078E+04         0.00000E+00
    0.46078E+04        -0.12144E+05         0.00000E+00
    0.00000E+00         0.00000E+00        -0.50946E+04
 
   -0.49639E+04         0.47682E+04         0.00000E+00
    0.47682E+04        -0.12112E+05         0.00000E+00
    0.00000E+00         0.00000E+00        -0.51227E+04
 
   -0.50950E+04         0.50535E+04         0.00000E+00
    0.50535E+04        -0.12065E+05         0.00000E+00
    0.00000E+00         0.00000E+00        -0.51479E+04
 
    0.55641E+04        -0.14254E+03         0.00000E+00
   -0.14254E+03        -0.56653E+01         0.00000E+00
    0.00000E+00         0.00000E+00         0.16675E+04
 
    0.26022E+04        -0.68971E+02         0.00000E+00
   -0.68971E+02        -0.78385E+02         0.00000E+00
    0.00000E+00         0.00000E+00         0.75714E+03
 
   -0.36790E+02         0.40077E+03         0.00000E+00
    0.40077E+03        -0.30986E+03         0.00000E+00
    0.00000E+00         0.00000E+00        -0.10399E+03
 
   -0.22207E+04         0.11409E+04         0.00000E+00
    0.11409E+04        -0.75255E+03         0.00000E+00
    0.00000E+00         0.00000E+00        -0.89198E+03
 
   -0.38936E+04         0.20109E+04         0.00000E+00
    0.20109E+04        -0.14104E+04         0.00000E+00
    0.00000E+00         0.00000E+00        -0.15912E+04
 
   -0.50685E+04         0.28855E+04         0.00000E+00
    0.28855E+04        -0.22472E+04         0.00000E+00
    0.00000E+00         0.00000E+00        -0.21947E+04
 
   -0.58070E+04         0.36727E+04         0.00000E+00
    0.36727E+04        -0.32037E+04         0.00000E+00
    0.00000E+00         0.00000E+00        -0.27032E+04
 
   -0.61949E+04         0.43186E+04         0.00000E+00
    0.43186E+04        -0.42154E+04         0.00000E+00
    0.00000E+00         0.00000E+00        -0.31231E+04
 
   -0.63224E+04         0.48018E+04         0.00000E+00
    0.48018E+04        -0.52243E+04         0.00000E+00
    0.00000E+00         0.00000E+00        -0.34640E+04
 
   -0.62714E+04         0.51251E+04         0.00000E+00
    0.51251E+04        -0.61861E+04         0.00000E+00
    0.00000E+00         0.00000E+00        -0.37373E+04
 
   -0.61096E+04         0.53057E+04         0.00000E+00
    0.53057E+04        -0.70706E+04         0.00000E+00
    0.00000E+00         0.00000E+00        -0.39541E+04
 
   -0.58895E+04         0.53682E+04         0.00000E+00
    0.53682E+04        -0.78605E+04         0.00000E+00
    0.00000E+00         0.00000E+00        -0.41250E+04
 
   -0.56493E+04         0.53395E+04         0.00000E+00
    0.53395E+04        -0.85485E+04         0.00000E+00
    0.00000E+00         0.00000E+00        -0.42593E+04
 
   -0.54154E+04         0.52459E+04         0.00000E+00
    0.52459E+04        -0.91343E+04         0.00000E+00
    0.00000E+00         0.00000E+00        -0.43649E+04
 
   -0.52050E+04         0.51114E+04         0.00000E+00
    0.51114E+04        -0.96224E+04         0.00000E+00
    0.00000E+00         0.00000E+00        -0.44482E+04
 
   -0.50283E+04         0.49578E+04         0.00000E+00
    0.49578E+04        -0.10020E+05         0.00000E+00
    0.00000E+00         0.00000E+00        -0.45145E+04
 
   -0.48905E+04         0.48042E+04         0.00000E+00
    0.48042E+04        -0.10336E+05         0.00000E+00
    0.00000E+00         0.00000E+00        -0.45678E+04
 
   -0.47926E+04         0.46677E+04         0.00000E+00
    0.46677E+04        -0.10578E+05         0.00000E+00
    0.00000E+00         0.00000E+00        -0.46113E+04
 
   -0.47324E+04         0.45643E+04         0.00000E+00
    0.45643E+04        -0.10758E+05         0.00000E+00
    0.00000E+00         0.00000E+00        -0.46471E+04
 
   -0.47055E+04         0.45089E+04         0.00000E+00
    0.45089E+04        -0.10883E+05         0.00000E+00
    0.00000E+00         0.00000E+00        -0.46766E+04
 
   -0.47044E+04         0.45162E+04         0.00000E+00
    0.45162E+04        -0.10964E+05         0.00000E+00
    0.00000E+00         0.00000E+00        -0.47005E+04
 
   -0.47193E+04         0.46017E+04         0.00000E+00
    0.46017E+04        -0.11010E+05         0.00000E+00
    0.00000E+00         0.00000E+00        -0.47188E+04
 
   -0.47367E+04         0.47816E+04         0.00000E+00
    0.47816E+04        -0.11032E+05         0.00000E+00
    0.00000E+00         0.00000E+00        -0.47306E+04
 
   -0.47391E+04         0.50735E+04         0.00000E+00
    0.50735E+04        -0.11042E+05         0.00000E+00
    0.00000E+00         0.00000E+00        -0.47344E+04
 
    0.53767E+04        -0.15836E+03         0.00000E+00
   -0.15836E+03        -0.39766E+01         0.00000E+00
    0.00000E+00         0.00000E+00         0.16118E+04
 
    0.28151E+04        -0.18495E+03         0.00000E+00
   -0.18495E+03        -0.55905E+02         0.00000E+00
    0.00000E+00         0.00000E+00         0.82777E+03
 
    0.48856E+03         0.11804E+03         0.00000E+00
    0.11804E+03        -0.22366E+03         0.00000E+00
    0.00000E+00         0.00000E+00         0.79470E+02
 
   -0.14991E+04         0.66310E+03         0.00000E+00
    0.66310E+03        -0.55078E+03         0.00000E+00
    0.00000E+00         0.00000E+00        -0.61496E+03
 
   -0.30935E+04         0.13485E+04         0.00000E+00
    0.13485E+04        -0.10488E+04         0.00000E+00
    0.00000E+00         0.00000E+00        -0.12427E+04
 
   -0.42888E+04         0.20777E+04         0.00000E+00
    0.20777E+04        -0.17001E+04         0.00000E+00
    0.00000E+00         0.00000E+00        -0.17967E+04
 
   -0.51172E+04         0.27732E+04         0.00000E+00
    0.27732E+04        -0.24673E+04         0.00000E+00
    0.00000E+00         0.00000E+00        -0.22754E+04
 
   -0.56339E+04         0.33820E+04         0.00000E+00
    0.33820E+04        -0.33043E+04         0.00000E+00
    0.00000E+00         0.00000E+00        -0.26814E+04
 
   -0.59035E+04         0.38758E+04         0.00000E+00
    0.38758E+04        -0.41654E+04         0.00000E+00
    0.00000E+00         0.00000E+00        -0.30207E+04
 
   -0.59900E+04         0.42459E+04         0.00000E+00
    0.42459E+04        -0.50117E+04         0.00000E+00
    0.00000E+00         0.00000E+00        -0.33005E+04
 
   -0.59498E+04         0.44978E+04         0.00000E+00
    0.44978E+04        -0.58135E+04         0.00000E+00
    0.00000E+00         0.00000E+00        -0.35290E+04
 
   -0.58298E+04         0.46457E+04         0.00000E+00
    0.46457E+04        -0.65506E+04         0.00000E+00
    0.00000E+00         0.00000E+00        -0.37141E+04
 
   -0.56663E+04         0.47085E+04         0.00000E+00
    0.47085E+04        -0.72112E+04         0.00000E+00
    0.00000E+00         0.00000E+00        -0.38632E+04
 
   -0.54862E+04         0.47065E+04         0.00000E+00
    0.47065E+04        -0.77899E+04         0.00000E+00
    0.00000E+00         0.00000E+00        -0.39828E+04
 
   -0.53082E+04         0.46600E+04         0.00000E+00
    0.46600E+04        -0.82864E+04         0.00000E+00
    0.00000E+00         0.00000E+00        -0.40784E+04
 
   -0.51446E+04         0.45883E+04         0.00000E+00
    0.45883E+04        -0.87038E+04         0.00000E+00
    0.00000E+00         0.00000E+00        -0.41545E+04
 
   -0.50020E+04         0.45090E+04         0.00000E+00
    0.45090E+04        -0.90474E+04         0.00000E+00
    0.00000E+00         0.00000E+00        -0.42148E+04
 
   -0.48832E+04         0.44387E+04         0.00000E+00
    0.44387E+04        -0.93238E+04         0.00000E+00
    0.00000E+00         0.00000E+00        -0.42621E+04
 
   -0.47870E+04         0.43927E+04         0.00000E+00
    0.43927E+04        -0.95406E+04         0.00000E+00
    0.00000E+00         0.00000E+00        -0.42983E+04
 
   -0.47093E+04         0.43856E+04         0.00000E+00
    0.43856E+04        -0.97061E+04         0.00000E+00
    0.00000E+00         0.00000E+00        -0.43246E+04
 
   -0.46428E+04         0.44320E+04         0.00000E+00
    0.44320E+04        -0.98293E+04         0.00000E+00
    0.00000E+00         0.00000E+00        -0.43416E+04
 
   -0.45770E+04         0.45461E+04         0.00000E+00
    0.45461E+04        -0.99199E+04         0.00000E+00
    0.00000E+00         0.00000E+00        -0.43491E+04
 
   -0.44978E+04         0.47427E+04         0.00000E+00
    0.47427E+04        -0.99891E+04         0.00000E+00
    0.00000E+00         0.00000E+00        -0.43460E+04
 
   -0.43864E+04         0.50375E+04         0.00000E+00
    0.50375E+04        -0.10050E+05         0.00000E+00
    0.00000E+00         0.00000E+00        -0.43309E+04
 
    0.51414E+04        -0.16939E+03         0.00000E+00
   -0.16939E+03        -0.26433E+01         0.00000E+00
    0.00000E+00         0.00000E+00         0.15416E+04
 
    0.29098E+04        -0.26846E+03         0.00000E+00
   -0.26846E+03        -0.39662E+02         0.00000E+00
    0.00000E+00         0.00000E+00         0.86105E+03
 
    0.85162E+03        -0.89490E+02         0.00000E+00
   -0.89490E+02        -0.16226E+03         0.00000E+00
    0.00000E+00         0.00000E+00         0.20681E+03
 
   -0.95074E+03         0.30481E+03         0.00000E+00
    0.30481E+03        -0.40624E+03         0.00000E+00
    0.00000E+00         0.00000E+00        -0.40709E+03
 
   -0.24480E+04         0.83950E+03         0.00000E+00
    0.83950E+03        -0.78576E+03         0.00000E+00
    0.00000E+00         0.00000E+00        -0.97012E+03
 
   -0.36252E+04         0.14401E+04         0.00000E+00
    0.14401E+04        -0.12939E+04         0.00000E+00
    0.00000E+00         0.00000E+00        -0.14757E+04
 
   -0.44964E+04         0.20427E+04         0.00000E+00
    0.20427E+04        -0.19078E+04         0.00000E+00
    0.00000E+00         0.00000E+00        -0.19212E+04
 
   -0.50958E+04         0.25993E+04         0.00000E+00
    0.25993E+04        -0.25951E+04         0.00000E+00
    0.00000E+00         0.00000E+00        -0.23073E+04
 
   -0.54686E+04         0.30794E+04         0.00000E+00
    0.30794E+04        -0.33212E+04         0.00000E+00
    0.00000E+00         0.00000E+00        -0.26369E+04
 
   -0.56629E+04         0.34682E+04         0.00000E+00
    0.34682E+04        -0.40537E+04         0.00000E+00
    0.00000E+00         0.00000E+00        -0.29150E+04
 
   -0.57243E+04         0.37633E+04         0.00000E+00
    0.37633E+04        -0.47657E+04         0.00000E+00
    0.00000E+00         0.00000E+00        -0.31470E+04
 
   -0.56928E+04         0.39711E+04         0.00000E+00
    0.39711E+04        -0.54368E+04         0.00000E+00
    0.00000E+00         0.00000E+00        -0.33389E+04
 
   -0.56010E+04         0.41036E+04         0.00000E+00
    0.41036E+04        -0.60532E+04         0.00000E+00
    0.00000E+00         0.00000E+00        -0.34963E+04
 
   -0.54746E+04         0.41757E+04         0.00000E+00
    0.41757E+04        -0.66065E+04         0.00000E+00
    0.00000E+00         0.00000E+00        -0.36243E+04
 
   -0.53323E+04         0.42034E+04         0.00000E+00
    0.42034E+04        -0.70932E+04         0.00000E+00
    0.00000E+00         0.00000E+00        -0.37276E+04
 
   -0.51869E+04         0.42031E+04         0.00000E+00
    0.42031E+04        -0.75131E+04         0.00000E+00
    0.00000E+00         0.00000E+00        -0.38100E+04
 
   -0.50465E+04         0.41905E+04         0.00000E+00
    0.41905E+04        -0.78688E+04         0.00000E+00
    0.00000E+00         0.00000E+00        -0.38746E+04
 
   -0.49143E+04         0.41807E+04         0.00000E+00
    0.41807E+04        -0.81647E+04         0.00000E+00
    0.00000E+00         0.00000E+00        -0.39237E+04
 
   -0.47903E+04         0.41880E+04         0.00000E+00
    0.41880E+04        -0.84066E+04         0.00000E+00
    0.00000E+00         0.00000E+00        -0.39591E+04
 
   -0.46707E+04         0.42261E+04         0.00000E+00
    0.42261E+04        -0.86017E+04         0.00000E+00
    0.00000E+00         0.00000E+00        -0.39817E+04
 
   -0.45486E+04         0.43085E+04         0.00000E+00
    0.43085E+04        -0.87581E+04         0.00000E+00
    0.00000E+00         0.00000E+00        -0.39920E+04
 
   -0.44132E+04         0.44484E+04         0.00000E+00
    0.44484E+04        -0.88852E+04         0.00000E+00
    0.00000E+00         0.00000E+00        -0.39895E+04
 
   -0.42503E+04         0.46588E+04         0.00000E+00
    0.46588E+04        -0.89942E+04         0.00000E+00
    0.00000E+00         0.00000E+00        -0.39734E+04
 
   -0.40408E+04         0.49529E+04         0.00000E+00
    0.49529E+04        -0.90981E+04         0.00000E+00
    0.00000E+00         0.00000E+00        -0.39417E+04
 
    0.48721E+04        -0.17668E+03         0.00000E+00
   -0.17668E+03        -0.15516E+01         0.00000E+00
    0.00000E+00         0.00000E+00         0.14612E+04
 
    0.29174E+04        -0.32847E+03         0.00000E+00
   -0.32847E+03        -0.27430E+02         0.00000E+00
    0.00000E+00         0.00000E+00         0.86698E+03
 
    0.10913E+04        -0.24271E+03         0.00000E+00
   -0.24271E+03        -0.11691E+03         0.00000E+00
    0.00000E+00         0.00000E+00         0.29232E+03
 
   -0.53974E+03         0.34477E+02         0.00000E+00
    0.34477E+02        -0.29946E+03         0.00000E+00
    0.00000E+00         0.00000E+00        -0.25176E+03
 
   -0.19323E+04         0.44692E+03         0.00000E+00
    0.44692E+03        -0.58957E+03         0.00000E+00
    0.00000E+00         0.00000E+00        -0.75657E+03
 
   -0.30676E+04         0.93684E+03         0.00000E+00
    0.93684E+03        -0.98645E+03         0.00000E+00
    0.00000E+00         0.00000E+00        -0.12162E+04
 
   -0.39488E+04         0.14520E+04         0.00000E+00
    0.14520E+04        -0.14765E+04         0.00000E+00
    0.00000E+00         0.00000E+00        -0.16276E+04
 
   -0.45958E+04         0.19506E+04         0.00000E+00
    0.19506E+04        -0.20378E+04         0.00000E+00
    0.00000E+00         0.00000E+00        -0.19901E+04
 
   -0.50392E+04         0.24029E+04         0.00000E+00
    0.24029E+04        -0.26445E+04         0.00000E+00
    0.00000E+00         0.00000E+00        -0.23051E+04
 
   -0.53145E+04         0.27914E+04         0.00000E+00
    0.27914E+04        -0.32706E+04         0.00000E+00
    0.00000E+00         0.00000E+00        -0.25755E+04
 
   -0.54572E+04         0.31087E+04         0.00000E+00
    0.31087E+04        -0.38930E+04         0.00000E+00
    0.00000E+00         0.00000E+00        -0.28051E+04
 
   -0.55004E+04         0.33558E+04         0.00000E+00
    0.33558E+04        -0.44927E+04         0.00000E+00
    0.00000E+00         0.00000E+00        -0.29979E+04
 
   -0.54723E+04         0.35391E+04         0.00000E+00
    0.35391E+04        -0.50555E+04         0.00000E+00
    0.00000E+00         0.00000E+00        -0.31583E+04
 
   -0.53961E+04         0.36688E+04         0.00000E+00
    0.36688E+04        -0.55717E+04         0.00000E+00
    0.00000E+00         0.00000E+00        -0.32903E+04
 
   -0.52894E+04         0.37571E+04         0.00000E+00
    0.37571E+04        -0.60357E+04         0.00000E+00
    0.00000E+00         0.00000E+00        -0.33975E+04
 
   -0.51650E+04         0.38171E+04         0.00000E+00
    0.38171E+04        -0.64452E+04         0.00000E+00
    0.00000E+00         0.00000E+00        -0.34831E+04
 
   -0.50310E+04         0.38623E+04         0.00000E+00
    0.38623E+04        -0.68006E+04         0.00000E+00
    0.00000E+00         0.00000E+00        -0.35495E+04
 
   -0.48915E+04         0.39060E+04         0.00000E+00
    0.39060E+04        -0.71044E+04         0.00000E+00
    0.00000E+00         0.00000E+00        -0.35988E+04
 
   -0.47468E+04         0.39609E+04         0.00000E+00
    0.39609E+04        -0.73610E+04         0.00000E+00
    0.00000E+00         0.00000E+00        -0.36323E+04
 
   -0.45935E+04         0.40397E+04         0.00000E+00
    0.40397E+04        -0.75763E+04         0.00000E+00
    0.00000E+00         0.00000E+00        -0.36510E+04
 
   -0.44251E+04         0.41542E+04         0.00000E+00
    0.41542E+04        -0.77576E+04         0.00000E+00
    0.00000E+00         0.00000E+00        -0.36548E+04
 
   -0.42312E+04         0.43163E+04         0.00000E+00
    0.43163E+04        -0.79137E+04         0.00000E+00
    0.00000E+00         0.00000E+00        -0.36435E+04
 
   -0.39976E+04         0.45371E+04         0.00000E+00
    0.45371E+04        -0.80552E+04         0.00000E+00
    0.00000E+00         0.00000E+00        -0.36159E+04
 
   -0.37057E+04         0.48274E+04         0.00000E+00
    0.48274E+04        -0.81949E+04         0.00000E+00
    0.00000E+00         0.00000E+00        -0.35702E+04
 
    0.45794E+04        -0.18096E+03         0.00000E+00
   -0.18096E+03        -0.63613E+00         0.00000E+00
    0.00000E+00         0.00000E+00         0.13736E+04
 
    0.28602E+04        -0.37088E+03         0.00000E+00
   -0.37088E+03        -0.17915E+02         0.00000E+00
    0.00000E+00         0.00000E+00         0.85270E+03
 
    0.12365E+04        -0.35554E+03         0.00000E+00
   -0.35554E+03        -0.82386E+02         0.00000E+00
    0.00000E+00         0.00000E+00         0.34625E+03
 
   -0.23766E+03        -0.16968E+03         0.00000E+00
   -0.16968E+03        -0.21847E+03         0.00000E+00
    0.00000E+00         0.00000E+00        -0.13684E+03
 
   -0.15245E+04         0.14390E+03         0.00000E+00
    0.14390E+03        -0.43999E+03         0.00000E+00
    0.00000E+00         0.00000E+00        -0.58934E+03
 
   -0.26038E+04         0.54001E+03         0.00000E+00
    0.54001E+03        -0.74952E+03         0.00000E+00
    0.00000E+00         0.00000E+00        -0.10060E+04
 
   -0.34725E+04         0.97622E+03         0.00000E+00
    0.97622E+03        -0.11397E+04         0.00000E+00
    0.00000E+00         0.00000E+00        -0.13837E+04
 
   -0.41408E+04         0.14166E+04         0.00000E+00
    0.14166E+04        -0.15957E+04         0.00000E+00
    0.00000E+00         0.00000E+00        -0.17210E+04
 
   -0.46288E+04         0.18339E+04         0.00000E+00
    0.18339E+04        -0.20987E+04         0.00000E+00
    0.00000E+00         0.00000E+00        -0.20183E+04
 
   -0.49617E+04         0.22098E+04         0.00000E+00
    0.22098E+04        -0.26285E+04         0.00000E+00
    0.00000E+00         0.00000E+00        -0.22771E+04
 
   -0.51669E+04         0.25343E+04         0.00000E+00
    0.25343E+04        -0.31658E+04         0.00000E+00
    0.00000E+00         0.00000E+00        -0.24998E+04
 
   -0.52706E+04         0.28046E+04         0.00000E+00
    0.28046E+04        -0.36938E+04         0.00000E+00
    0.00000E+00         0.00000E+00        -0.26893E+04
 
   -0.52966E+04         0.30230E+04         0.00000E+00
    0.30230E+04        -0.41990E+04         0.00000E+00
    0.00000E+00         0.00000E+00        -0.28487E+04
 
   -0.52650E+04         0.31958E+04         0.00000E+00
    0.31958E+04        -0.46715E+04         0.00000E+00
    0.00000E+00         0.00000E+00        -0.29809E+04
 
   -0.51918E+04         0.33318E+04         0.00000E+00
    0.33318E+04        -0.51045E+04         0.00000E+00
    0.00000E+00         0.00000E+00        -0.30889E+04
 
   -0.50888E+04         0.34411E+04         0.00000E+00
    0.34411E+04        -0.54945E+04         0.00000E+00
    0.00000E+00         0.00000E+00        -0.31750E+04
 
   -0.49640E+04         0.35349E+04         0.00000E+00
    0.35349E+04        -0.58402E+04         0.00000E+00
    0.00000E+00         0.00000E+00        -0.32413E+04
 
   -0.48215E+04         0.36243E+04         0.00000E+00
    0.36243E+04        -0.61430E+04         0.00000E+00
    0.00000E+00         0.00000E+00        -0.32893E+04
 
   -0.46618E+04         0.37205E+04         0.00000E+00
    0.37205E+04        -0.64058E+04         0.00000E+00
    0.00000E+00         0.00000E+00        -0.33203E+04
 
   -0.44822E+04         0.38345E+04         0.00000E+00
    0.38345E+04        -0.66334E+04         0.00000E+00
    0.00000E+00         0.00000E+00        -0.33347E+04
 
   -0.42763E+04         0.39766E+04         0.00000E+00
    0.39766E+04        -0.68322E+04         0.00000E+00
    0.00000E+00         0.00000E+00        -0.33326E+04
 
   -0.40344E+04         0.41569E+04         0.00000E+00
    0.41569E+04        -0.70103E+04         0.00000E+00
    0.00000E+00         0.00000E+00        -0.33134E+04
 
   -0.37428E+04         0.43847E+04         0.00000E+00
    0.43847E+04        -0.71775E+04         0.00000E+00
    0.00000E+00         0.00000E+00        -0.32761E+04
 
   -0.33839E+04         0.46684E+04         0.00000E+00
    0.46684E+04        -0.73459E+04         0.00000E+00
    0.00000E+00         0.00000E+00        -0.32189E+04
 
    0.42713E+04        -0.18275E+03         0.00000E+00
   -0.18275E+03         0.14148E+00         0.00000E+00
    0.00000E+00         0.00000E+00         0.12814E+04
 
    0.27552E+04        -0.39971E+03         0.00000E+00
   -0.39971E+03        -0.10335E+02         0.00000E+00
    0.00000E+00         0.00000E+00         0.82345E+03
 
    0.13092E+04        -0.43760E+03         0.00000E+00
   -0.43760E+03        -0.55472E+02         0.00000E+00
    0.00000E+00         0.00000E+00         0.37611E+03
 
   -0.22012E+02        -0.32311E+03         0.00000E+00
   -0.32311E+03        -0.15570E+03         0.00000E+00
    0.00000E+00         0.00000E+00        -0.53314E+02
 
   -0.12054E+04        -0.89323E+02         0.00000E+00
   -0.89323E+02        -0.32379E+03         0.00000E+00
    0.00000E+00         0.00000E+00        -0.45876E+03
 
   -0.22212E+04         0.22808E+03         0.00000E+00
    0.22808E+03        -0.56412E+03         0.00000E+00
    0.00000E+00         0.00000E+00        -0.83558E+03
 
   -0.30623E+04         0.59459E+03         0.00000E+00
    0.59459E+03        -0.87330E+03         0.00000E+00
    0.00000E+00         0.00000E+00        -0.11807E+04
 
   -0.37327E+04         0.97979E+03         0.00000E+00
    0.97979E+03        -0.12418E+04         0.00000E+00
    0.00000E+00         0.00000E+00        -0.14923E+04
 
   -0.42448E+04         0.13592E+04         0.00000E+00
    0.13592E+04        -0.16559E+04         0.00000E+00
    0.00000E+00         0.00000E+00        -0.17702E+04
 
   -0.46161E+04         0.17152E+04         0.00000E+00
    0.17152E+04        -0.21003E+04         0.00000E+00
    0.00000E+00         0.00000E+00        -0.20149E+04
 
   -0.48668E+04         0.20364E+04         0.00000E+00
    0.20364E+04        -0.25592E+04         0.00000E+00
    0.00000E+00         0.00000E+00        -0.22278E+04
 
   -0.50176E+04         0.23178E+04         0.00000E+00
    0.23178E+04        -0.30184E+04         0.00000E+00
    0.00000E+00         0.00000E+00        -0.24108E+04
 
   -0.50878E+04         0.25586E+04         0.00000E+00
    0.25586E+04        -0.34657E+04         0.00000E+00
    0.00000E+00         0.00000E+00        -0.25660E+04
 
   -0.50942E+04         0.27623E+04         0.00000E+00
    0.27623E+04        -0.38915E+04         0.00000E+00
    0.00000E+00         0.00000E+00        -0.26957E+04
 
   -0.50508E+04         0.29345E+04         0.00000E+00
    0.29345E+04        -0.42889E+04         0.00000E+00
    0.00000E+00         0.00000E+00        -0.28019E+04
 
   -0.49683E+04         0.30829E+04         0.00000E+00
    0.30829E+04        -0.46534E+04         0.00000E+00
    0.00000E+00         0.00000E+00        -0.28865E+04
 
   -0.48538E+04         0.32162E+04         0.00000E+00
    0.32162E+04        -0.49831E+04         0.00000E+00
    0.00000E+00         0.00000E+00        -0.29511E+04
 
   -0.47113E+04         0.33435E+04         0.00000E+00
    0.33435E+04        -0.52781E+04         0.00000E+00
    0.00000E+00         0.00000E+00        -0.29968E+04
 
   -0.45416E+04         0.34742E+04         0.00000E+00
    0.34742E+04        -0.55404E+04         0.00000E+00
    0.00000E+00         0.00000E+00        -0.30246E+04
 
   -0.43420E+04         0.36176E+04         0.00000E+00
    0.36176E+04        -0.57738E+04         0.00000E+00
    0.00000E+00         0.00000E+00        -0.30347E+04
 
   -0.41067E+04         0.37823E+04         0.00000E+00
    0.37823E+04        -0.59838E+04         0.00000E+00
    0.00000E+00         0.00000E+00        -0.30271E+04
 
   -0.38266E+04         0.39767E+04         0.00000E+00
    0.39767E+04        -0.61775E+04         0.00000E+00
    0.00000E+00         0.00000E+00        -0.30012E+04
 
   -0.34891E+04         0.42082E+04         0.00000E+00
    0.42082E+04        -0.63642E+04         0.00000E+00
    0.00000E+00         0.00000E+00        -0.29560E+04
 
   -0.30776E+04         0.44828E+04         0.00000E+00
    0.44828E+04        -0.65547E+04         0.00000E+00
    0.00000E+00         0.00000E+00        -0.28897E+04
 
    0.39544E+04        -0.18246E+03         0.00000E+00
   -0.18246E+03         0.80479E+00         0.00000E+00
    0.00000E+00         0.00000E+00         0.11866E+04
 
    0.26149E+04        -0.41783E+03         0.00000E+00
   -0.41783E+03        -0.41974E+01         0.00000E+00
    0.00000E+00         0.00000E+00         0.78322E+03
 
    0.13260E+04        -0.49573E+03         0.00000E+00
   -0.49573E+03        -0.34114E+02         0.00000E+00
    0.00000E+00         0.00000E+00         0.38757E+03
 
    0.12502E+03        -0.43697E+03         0.00000E+00
   -0.43697E+03        -0.10623E+03         0.00000E+00
    0.00000E+00         0.00000E+00         0.56367E+01
 
   -0.95923E+03        -0.26749E+03         0.00000E+00
   -0.26749E+03        -0.23215E+03         0.00000E+00
    0.00000E+00         0.00000E+00        -0.35742E+03
 
   -0.19078E+04        -0.15700E+02         0.00000E+00
   -0.15700E+02        -0.41717E+03         0.00000E+00
    0.00000E+00         0.00000E+00        -0.69749E+03
 
   -0.27116E+04         0.29026E+03         0.00000E+00
    0.29026E+03        -0.66047E+03         0.00000E+00
    0.00000E+00         0.00000E+00        -0.10116E+04
 
   -0.33703E+04         0.62478E+03         0.00000E+00
    0.62478E+03        -0.95616E+03         0.00000E+00
    0.00000E+00         0.00000E+00        -0.12979E+04
 
   -0.38908E+04         0.96633E+03         0.00000E+00
    0.96633E+03        -0.12947E+04         0.00000E+00
    0.00000E+00         0.00000E+00        -0.15556E+04
 
   -0.42847E+04         0.12984E+04         0.00000E+00
    0.12984E+04        -0.16643E+04         0.00000E+00
    0.00000E+00         0.00000E+00        -0.17847E+04
 
   -0.45667E+04         0.16095E+04         0.00000E+00
    0.16095E+04        -0.20527E+04         0.00000E+00
    0.00000E+00         0.00000E+00        -0.19858E+04
 
   -0.47524E+04         0.18930E+04         0.00000E+00
    0.18930E+04        -0.24479E+04         0.00000E+00
    0.00000E+00         0.00000E+00        -0.21601E+04
 
   -0.48571E+04         0.21465E+04         0.00000E+00
    0.21465E+04        -0.28393E+04         0.00000E+00
    0.00000E+00         0.00000E+00        -0.23089E+04
 
   -0.48947E+04         0.23707E+04         0.00000E+00
    0.23707E+04        -0.32182E+04         0.00000E+00
    0.00000E+00         0.00000E+00        -0.24339E+04
 
   -0.48768E+04         0.25693E+04         0.00000E+00
    0.25693E+04        -0.35779E+04         0.00000E+00
    0.00000E+00         0.00000E+00        -0.25364E+04
 
   -0.48127E+04         0.27475E+04         0.00000E+00
    0.27475E+04        -0.39137E+04         0.00000E+00
    0.00000E+00         0.00000E+00        -0.26179E+04
 
   -0.47087E+04         0.29117E+04         0.00000E+00
    0.29117E+04        -0.42231E+04         0.00000E+00
    0.00000E+00         0.00000E+00        -0.26795E+04
 
   -0.45684E+04         0.30694E+04         0.00000E+00
    0.30694E+04        -0.45055E+04         0.00000E+00
    0.00000E+00         0.00000E+00        -0.27222E+04
 
   -0.43924E+04         0.32279E+04         0.00000E+00
    0.32279E+04        -0.47622E+04         0.00000E+00
    0.00000E+00         0.00000E+00        -0.27464E+04
 
   -0.41782E+04         0.33948E+04         0.00000E+00
    0.33948E+04        -0.49961E+04         0.00000E+00
    0.00000E+00         0.00000E+00        -0.27523E+04
 
   -0.39208E+04         0.35772E+04         0.00000E+00
    0.35772E+04        -0.52119E+04         0.00000E+00
    0.00000E+00         0.00000E+00        -0.27398E+04
 
   -0.36116E+04         0.37817E+04         0.00000E+00
    0.37817E+04        -0.54160E+04         0.00000E+00
    0.00000E+00         0.00000E+00        -0.27083E+04
 
   -0.32390E+04         0.40136E+04         0.00000E+00
    0.40136E+04        -0.56164E+04         0.00000E+00
    0.00000E+00         0.00000E+00        -0.26566E+04
 
   -0.27882E+04         0.42772E+04         0.00000E+00
    0.42772E+04        -0.58231E+04         0.00000E+00
    0.00000E+00         0.00000E+00        -0.25834E+04
 
    0.36337E+04        -0.18041E+03         0.00000E+00
   -0.18041E+03         0.13691E+01         0.00000E+00
    0.00000E+00         0.00000E+00         0.10905E+04
 
    0.24494E+04        -0.42739E+03         0.00000E+00
   -0.42739E+03         0.81650E+00         0.00000E+00
    0.00000E+00         0.00000E+00         0.73506E+03
 
    0.13001E+04        -0.53497E+03         0.00000E+00
   -0.53497E+03        -0.16960E+02         0.00000E+00
    0.00000E+00         0.00000E+00         0.38495E+03
 
    0.21766E+03        -0.51957E+03         0.00000E+00
   -0.51957E+03        -0.66745E+02         0.00000E+00
    0.00000E+00         0.00000E+00         0.45275E+02
 
   -0.77268E+03        -0.40179E+03         0.00000E+00
   -0.40179E+03        -0.15905E+03         0.00000E+00
    0.00000E+00         0.00000E+00        -0.27952E+03
 
   -0.16531E+04        -0.20442E+03         0.00000E+00
   -0.20442E+03        -0.29952E+03         0.00000E+00
    0.00000E+00         0.00000E+00        -0.58579E+03
 
   -0.24135E+04         0.49506E+02         0.00000E+00
    0.49506E+02        -0.48902E+03         0.00000E+00
    0.00000E+00         0.00000E+00        -0.87076E+03
 
   -0.30508E+04         0.33846E+03         0.00000E+00
    0.33846E+03        -0.72424E+03         0.00000E+00
    0.00000E+00         0.00000E+00        -0.11325E+04
 
   -0.35679E+04         0.64372E+03         0.00000E+00
    0.64372E+03        -0.99862E+03         0.00000E+00
    0.00000E+00         0.00000E+00        -0.13699E+04
 
   -0.39719E+04         0.95022E+03         0.00000E+00
    0.95022E+03        -0.13035E+04         0.00000E+00
    0.00000E+00         0.00000E+00        -0.15826E+04
 
   -0.42732E+04         0.12468E+04         0.00000E+00
    0.12468E+04        -0.16293E+04         0.00000E+00
    0.00000E+00         0.00000E+00        -0.17707E+04
 
   -0.44832E+04         0.15262E+04         0.00000E+00
    0.15262E+04        -0.19662E+04         0.00000E+00
    0.00000E+00         0.00000E+00        -0.19348E+04
 
   -0.46136E+04         0.17847E+04         0.00000E+00
    0.17847E+04        -0.23054E+04         0.00000E+00
    0.00000E+00         0.00000E+00        -0.20757E+04
 
   -0.46756E+04         0.20213E+04         0.00000E+00
    0.20213E+04        -0.26390E+04         0.00000E+00
    0.00000E+00         0.00000E+00        -0.21944E+04
 
   -0.46787E+04         0.22379E+04         0.00000E+00
    0.22379E+04        -0.29608E+04         0.00000E+00
    0.00000E+00         0.00000E+00        -0.22919E+04
 
   -0.46305E+04         0.24376E+04         0.00000E+00
    0.24376E+04        -0.32664E+04         0.00000E+00
    0.00000E+00         0.00000E+00        -0.23691E+04
 
   -0.45365E+04         0.26252E+04         0.00000E+00
    0.26252E+04        -0.35531E+04         0.00000E+00
    0.00000E+00         0.00000E+00        -0.24269E+04
 
   -0.43996E+04         0.28061E+04         0.00000E+00
    0.28061E+04        -0.38198E+04         0.00000E+00
    0.00000E+00         0.00000E+00        -0.24658E+04
 
   -0.42202E+04         0.29861E+04         0.00000E+00
    0.29861E+04        -0.40672E+04         0.00000E+00
    0.00000E+00         0.00000E+00        -0.24862E+04
 
   -0.39963E+04         0.31710E+04         0.00000E+00
    0.31710E+04        -0.42975E+04         0.00000E+00
    0.00000E+00         0.00000E+00        -0.24882E+04
 
   -0.37230E+04         0.33663E+04         0.00000E+00
    0.33663E+04        -0.45149E+04         0.00000E+00
    0.00000E+00         0.00000E+00        -0.24714E+04
 
   -0.33927E+04         0.35769E+04         0.00000E+00
    0.35769E+04        -0.47246E+04         0.00000E+00
    0.00000E+00         0.00000E+00        -0.24352E+04
 
   -0.29951E+04         0.38065E+04         0.00000E+00
    0.38065E+04        -0.49338E+04         0.00000E+00
    0.00000E+00         0.00000E+00        -0.23787E+04
 
   -0.25169E+04         0.40576E+04         0.00000E+00
    0.40576E+04        -0.51514E+04         0.00000E+00
    0.00000E+00         0.00000E+00        -0.23005E+04
 
    0.33135E+04        -0.17690E+03         0.00000E+00
   -0.17690E+03         0.18453E+01         0.00000E+00
    0.00000E+00         0.00000E+00         0.99460E+03
 
    0.22663E+04        -0.43004E+03         0.00000E+00
   -0.43004E+03         0.49241E+01         0.00000E+00
    0.00000E+00         0.00000E+00         0.68137E+03
 
    0.12418E+04        -0.55911E+03         0.00000E+00
   -0.55911E+03        -0.30894E+01         0.00000E+00
    0.00000E+00         0.00000E+00         0.37162E+03
 
    0.26735E+03        -0.57722E+03         0.00000E+00
   -0.57722E+03        -0.34987E+02         0.00000E+00
    0.00000E+00         0.00000E+00         0.69708E+02
 
   -0.63472E+03        -0.50085E+03         0.00000E+00
   -0.50085E+03        -0.10027E+03         0.00000E+00
    0.00000E+00         0.00000E+00        -0.22049E+03
 
   -0.14478E+04        -0.34842E+03         0.00000E+00
   -0.34842E+03        -0.20465E+03         0.00000E+00
    0.00000E+00         0.00000E+00        -0.49574E+03
 
   -0.21614E+04        -0.13888E+03         0.00000E+00
   -0.13888E+03        -0.35008E+03         0.00000E+00
    0.00000E+00         0.00000E+00        -0.75344E+03
 
   -0.27706E+04         0.10970E+03         0.00000E+00
    0.10970E+03        -0.53505E+03         0.00000E+00
    0.00000E+00         0.00000E+00        -0.99169E+03
 
   -0.32755E+04         0.38113E+03         0.00000E+00
    0.38113E+03        -0.75526E+03         0.00000E+00
    0.00000E+00         0.00000E+00        -0.12092E+04
 
   -0.36800E+04         0.66190E+03         0.00000E+00
    0.66190E+03        -0.10045E+04         0.00000E+00
    0.00000E+00         0.00000E+00        -0.14053E+04
 
   -0.39907E+04         0.94147E+03         0.00000E+00
    0.94147E+03        -0.12753E+04         0.00000E+00
    0.00000E+00         0.00000E+00        -0.15798E+04
 
   -0.42160E+04         0.12124E+04         0.00000E+00
    0.12124E+04        -0.15600E+04         0.00000E+00
    0.00000E+00         0.00000E+00        -0.17328E+04
 
   -0.43644E+04         0.14702E+04         0.00000E+00
    0.14702E+04        -0.18512E+04         0.00000E+00
    0.00000E+00         0.00000E+00        -0.18647E+04
 
   -0.44447E+04         0.17127E+04         0.00000E+00
    0.17127E+04        -0.21422E+04         0.00000E+00
    0.00000E+00         0.00000E+00        -0.19761E+04
 
   -0.44642E+04         0.19403E+04         0.00000E+00
    0.19403E+04        -0.24275E+04         0.00000E+00
    0.00000E+00         0.00000E+00        -0.20675E+04
 
   -0.44293E+04         0.21546E+04         0.00000E+00
    0.21546E+04        -0.27029E+04         0.00000E+00
    0.00000E+00         0.00000E+00        -0.21396E+04
 
   -0.43441E+04         0.23587E+04         0.00000E+00
    0.23587E+04        -0.29657E+04         0.00000E+00
    0.00000E+00         0.00000E+00        -0.21930E+04
 
   -0.42113E+04         0.25564E+04         0.00000E+00
    0.25564E+04        -0.32148E+04         0.00000E+00
    0.00000E+00         0.00000E+00        -0.22278E+04
 
   -0.40310E+04         0.27520E+04         0.00000E+00
    0.27520E+04        -0.34504E+04         0.00000E+00
    0.00000E+00         0.00000E+00        -0.22444E+04
 
   -0.38011E+04         0.29497E+04         0.00000E+00
    0.29497E+04        -0.36742E+04         0.00000E+00
    0.00000E+00         0.00000E+00        -0.22426E+04
 
   -0.35175E+04         0.31535E+04         0.00000E+00
    0.31535E+04        -0.38895E+04         0.00000E+00
    0.00000E+00         0.00000E+00        -0.22221E+04
 
   -0.31733E+04         0.33667E+04         0.00000E+00
    0.33667E+04        -0.41011E+04         0.00000E+00
    0.00000E+00         0.00000E+00        -0.21823E+04
 
   -0.27594E+04         0.35916E+04         0.00000E+00
    0.35916E+04        -0.43150E+04         0.00000E+00
    0.00000E+00         0.00000E+00        -0.21223E+04
 
   -0.22642E+04         0.38289E+04         0.00000E+00
    0.38289E+04        -0.45388E+04         0.00000E+00
    0.00000E+00         0.00000E+00        -0.20409E+04
 
    0.29973E+04        -0.17217E+03         0.00000E+00
   -0.17217E+03         0.22415E+01         0.00000E+00
    0.00000E+00         0.00000E+00         0.89987E+03
 
    0.20719E+04        -0.42709E+03         0.00000E+00
   -0.42709E+03         0.82788E+01         0.00000E+00
    0.00000E+00         0.00000E+00         0.62406E+03
 
    0.11593E+04        -0.57112E+03         0.00000E+00
   -0.57112E+03         0.81422E+01         0.00000E+00
    0.00000E+00         0.00000E+00         0.35024E+03
 
    0.28331E+03        -0.61481E+03         0.00000E+00
   -0.61481E+03        -0.93509E+01         0.00000E+00
    0.00000E+00         0.00000E+00         0.82186E+02
 
   -0.53620E+03        -0.57142E+03         0.00000E+00
   -0.57142E+03        -0.52802E+02         0.00000E+00
    0.00000E+00         0.00000E+00        -0.17670E+03
 
   -0.12838E+04        -0.45597E+03         0.00000E+00
   -0.45597E+03        -0.12785E+03         0.00000E+00
    0.00000E+00         0.00000E+00        -0.42350E+03
 
   -0.19490E+04        -0.28405E+03         0.00000E+00
   -0.28405E+03        -0.23709E+03         0.00000E+00
    0.00000E+00         0.00000E+00        -0.65583E+03
 
   -0.25257E+04        -0.70892E+02         0.00000E+00
   -0.70892E+02        -0.38029E+03         0.00000E+00
    0.00000E+00         0.00000E+00        -0.87181E+03
 
   -0.30121E+04         0.16958E+03         0.00000E+00
    0.16958E+03        -0.55488E+03         0.00000E+00
    0.00000E+00         0.00000E+00        -0.10701E+04
 
   -0.34096E+04         0.42536E+03         0.00000E+00
    0.42536E+03        -0.75646E+03         0.00000E+00
    0.00000E+00         0.00000E+00        -0.12498E+04
 
   -0.37221E+04         0.68669E+03         0.00000E+00
    0.68669E+03        -0.97951E+03         0.00000E+00
    0.00000E+00         0.00000E+00        -0.14105E+04
 
   -0.39551E+04         0.94628E+03         0.00000E+00
    0.94628E+03        -0.12180E+04         0.00000E+00
    0.00000E+00         0.00000E+00        -0.15519E+04
 
   -0.41149E+04         0.11992E+04         0.00000E+00
    0.11992E+04        -0.14659E+04         0.00000E+00
    0.00000E+00         0.00000E+00        -0.16742E+04
 
   -0.42078E+04         0.14425E+04         0.00000E+00
    0.14425E+04        -0.17176E+04         0.00000E+00
    0.00000E+00         0.00000E+00        -0.17776E+04
 
   -0.42397E+04         0.16755E+04         0.00000E+00
    0.16755E+04        -0.19684E+04         0.00000E+00
    0.00000E+00         0.00000E+00        -0.18624E+04
 
   -0.42152E+04         0.18985E+04         0.00000E+00
    0.18985E+04        -0.22146E+04         0.00000E+00
    0.00000E+00         0.00000E+00        -0.19289E+04
 
   -0.41379E+04         0.21132E+04         0.00000E+00
    0.21132E+04        -0.24536E+04         0.00000E+00
    0.00000E+00         0.00000E+00        -0.19774E+04
 
   -0.40094E+04         0.23222E+04         0.00000E+00
    0.23222E+04        -0.26842E+04         0.00000E+00
    0.00000E+00         0.00000E+00        -0.20081E+04
 
   -0.38299E+04         0.25281E+04         0.00000E+00
    0.25281E+04        -0.29063E+04         0.00000E+00
    0.00000E+00         0.00000E+00        -0.20209E+04
 
   -0.35974E+04         0.27339E+04         0.00000E+00
    0.27339E+04        -0.31214E+04         0.00000E+00
    0.00000E+00         0.00000E+00        -0.20156E+04
 
   -0.33081E+04         0.29422E+04         0.00000E+00
    0.29422E+04        -0.33321E+04         0.00000E+00
    0.00000E+00         0.00000E+00        -0.19920E+04
 
   -0.29561E+04         0.31549E+04         0.00000E+00
    0.31549E+04        -0.35423E+04         0.00000E+00
    0.00000E+00         0.00000E+00        -0.19495E+04
 
   -0.25335E+04         0.33729E+04         0.00000E+00
    0.33729E+04        -0.37573E+04         0.00000E+00
    0.00000E+00         0.00000E+00        -0.18872E+04
 
   -0.20303E+04         0.35958E+04         0.00000E+00
    0.35958E+04        -0.39834E+04         0.00000E+00
    0.00000E+00         0.00000E+00        -0.18041E+04
 
    0.26880E+04        -0.16644E+03         0.00000E+00
   -0.16644E+03         0.25647E+01         0.00000E+00
    0.00000E+00         0.00000E+00         0.80716E+03
 
    0.18712E+04        -0.41960E+03         0.00000E+00
   -0.41960E+03         0.10994E+02         0.00000E+00
    0.00000E+00         0.00000E+00         0.56465E+03
 
    0.10592E+04        -0.57336E+03         0.00000E+00
   -0.57336E+03         0.17205E+02         0.00000E+00
    0.00000E+00         0.00000E+00         0.32293E+03
 
    0.27303E+03        -0.63621E+03         0.00000E+00
   -0.63621E+03         0.11327E+02         0.00000E+00
    0.00000E+00         0.00000E+00         0.85308E+02
 
   -0.46955E+03        -0.61891E+03         0.00000E+00
   -0.61891E+03        -0.14456E+02         0.00000E+00
    0.00000E+00         0.00000E+00        -0.14520E+03
 
   -0.11543E+04        -0.53371E+03         0.00000E+00
   -0.53371E+03        -0.65595E+02         0.00000E+00
    0.00000E+00         0.00000E+00        -0.36596E+03
 
   -0.17708E+04        -0.39355E+03         0.00000E+00
   -0.39355E+03        -0.14509E+03         0.00000E+00
    0.00000E+00         0.00000E+00        -0.57476E+03
 
   -0.23124E+04        -0.21123E+03         0.00000E+00
   -0.21123E+03        -0.25363E+03         0.00000E+00
    0.00000E+00         0.00000E+00        -0.76980E+03
 
   -0.27758E+04         0.12645E+01         0.00000E+00
    0.12645E+01        -0.38988E+03         0.00000E+00
    0.00000E+00         0.00000E+00        -0.94970E+03
 
   -0.31607E+04         0.23333E+03         0.00000E+00
    0.23333E+03        -0.55091E+03         0.00000E+00
    0.00000E+00         0.00000E+00        -0.11135E+04
 
   -0.34688E+04         0.47609E+03         0.00000E+00
    0.47609E+03        -0.73271E+03         0.00000E+00
    0.00000E+00         0.00000E+00        -0.12604E+04
 
   -0.37035E+04         0.72252E+03         0.00000E+00
    0.72252E+03        -0.93065E+03         0.00000E+00
    0.00000E+00         0.00000E+00        -0.13903E+04
 
   -0.38691E+04         0.96753E+03         0.00000E+00
    0.96753E+03        -0.11400E+04         0.00000E+00
    0.00000E+00         0.00000E+00        -0.15027E+04
 
   -0.39700E+04         0.12078E+04         0.00000E+00
    0.12078E+04        -0.13561E+04         0.00000E+00
    0.00000E+00         0.00000E+00        -0.15978E+04
 
   -0.40104E+04         0.14416E+04         0.00000E+00
    0.14416E+04        -0.15750E+04         0.00000E+00
    0.00000E+00         0.00000E+00        -0.16756E+04
 
   -0.39939E+04         0.16684E+04         0.00000E+00
    0.16684E+04        -0.17935E+04         0.00000E+00
    0.00000E+00         0.00000E+00        -0.17362E+04
 
   -0.39230E+04         0.18888E+04         0.00000E+00
    0.18888E+04        -0.20094E+04         0.00000E+00
    0.00000E+00         0.00000E+00        -0.17797E+04
 
   -0.37989E+04         0.21041E+04         0.00000E+00
    0.21041E+04        -0.22213E+04         0.00000E+00
    0.00000E+00         0.00000E+00        -0.18061E+04
 
   -0.36216E+04         0.23158E+04         0.00000E+00
    0.23158E+04        -0.24292E+04         0.00000E+00
    0.00000E+00         0.00000E+00        -0.18152E+04
 
   -0.33891E+04         0.25256E+04         0.00000E+00
    0.25256E+04        -0.26341E+04         0.00000E+00
    0.00000E+00         0.00000E+00        -0.18069E+04
 
   -0.30981E+04         0.27349E+04         0.00000E+00
    0.27349E+04        -0.28381E+04         0.00000E+00
    0.00000E+00         0.00000E+00        -0.17808E+04
 
   -0.27435E+04         0.29444E+04         0.00000E+00
    0.29444E+04        -0.30445E+04         0.00000E+00
    0.00000E+00         0.00000E+00        -0.17364E+04
 
   -0.23186E+04         0.31539E+04         0.00000E+00
    0.31539E+04        -0.32576E+04         0.00000E+00
    0.00000E+00         0.00000E+00        -0.16729E+04
 
   -0.18150E+04         0.33619E+04         0.00000E+00
    0.33619E+04        -0.34827E+04         0.00000E+00
    0.00000E+00         0.00000E+00        -0.15893E+04
 
    0.23877E+04        -0.15989E+03         0.00000E+00
   -0.15989E+03         0.28210E+01         0.00000E+00
    0.00000E+00         0.00000E+00         0.71716E+03
 
    0.16681E+04        -0.40846E+03         0.00000E+00
   -0.40846E+03         0.13158E+02         0.00000E+00
    0.00000E+00         0.00000E+00         0.50437E+03
 
    0.94685E+03        -0.56773E+03         0.00000E+00
   -0.56773E+03         0.24453E+02         0.00000E+00
    0.00000E+00         0.00000E+00         0.29139E+03
 
    0.24264E+03        -0.64455E+03         0.00000E+00
   -0.64455E+03         0.27920E+02         0.00000E+00
    0.00000E+00         0.00000E+00         0.81167E+02
 
   -0.42847E+03        -0.64765E+03         0.00000E+00
   -0.64765E+03         0.16430E+02         0.00000E+00
    0.00000E+00         0.00000E+00        -0.12361E+03
 
   -0.10533E+04        -0.58708E+03         0.00000E+00
   -0.58708E+03        -0.15238E+02         0.00000E+00
    0.00000E+00         0.00000E+00        -0.32056E+03
 
   -0.16218E+04        -0.47360E+03         0.00000E+00
   -0.47360E+03        -0.70316E+02         0.00000E+00
    0.00000E+00         0.00000E+00        -0.50763E+03
 
   -0.21268E+04        -0.31800E+03         0.00000E+00
   -0.31800E+03        -0.15012E+03         0.00000E+00
    0.00000E+00         0.00000E+00        -0.68309E+03
 
   -0.25643E+04        -0.13057E+03         0.00000E+00
   -0.13057E+03        -0.25424E+03         0.00000E+00
    0.00000E+00         0.00000E+00        -0.84558E+03
 
   -0.29325E+04         0.79361E+02         0.00000E+00
    0.79361E+02        -0.38092E+03         0.00000E+00
    0.00000E+00         0.00000E+00        -0.99403E+03
 
   -0.32316E+04         0.30376E+03         0.00000E+00
    0.30376E+03        -0.52732E+03         0.00000E+00
    0.00000E+00         0.00000E+00        -0.11277E+04
 
   -0.34632E+04         0.53602E+03         0.00000E+00
    0.53602E+03        -0.69001E+03         0.00000E+00
    0.00000E+00         0.00000E+00        -0.12460E+04
 
   -0.36300E+04         0.77108E+03         0.00000E+00
    0.77108E+03        -0.86529E+03         0.00000E+00
    0.00000E+00         0.00000E+00        -0.13486E+04
 
   -0.37348E+04         0.10053E+04         0.00000E+00
    0.10053E+04        -0.10495E+04         0.00000E+00
    0.00000E+00         0.00000E+00        -0.14353E+04
 
   -0.37806E+04         0.12364E+04         0.00000E+00
    0.12364E+04        -0.12394E+04         0.00000E+00
    0.00000E+00         0.00000E+00        -0.15060E+04
 
   -0.37698E+04         0.14630E+04         0.00000E+00
    0.14630E+04        -0.14323E+04         0.00000E+00
    0.00000E+00         0.00000E+00        -0.15606E+04
 
   -0.37041E+04         0.16850E+04         0.00000E+00
    0.16850E+04        -0.16261E+04         0.00000E+00
    0.00000E+00         0.00000E+00        -0.15991E+04
 
   -0.35844E+04         0.19025E+04         0.00000E+00
    0.19025E+04        -0.18198E+04         0.00000E+00
    0.00000E+00         0.00000E+00        -0.16212E+04
 
   -0.34101E+04         0.21161E+04         0.00000E+00
    0.21161E+04        -0.20131E+04         0.00000E+00
    0.00000E+00         0.00000E+00        -0.16270E+04
 
   -0.31798E+04         0.23264E+04         0.00000E+00
    0.23264E+04        -0.22069E+04         0.00000E+00
    0.00000E+00         0.00000E+00        -0.16160E+04
 
   -0.28904E+04         0.25337E+04         0.00000E+00
    0.25337E+04        -0.24027E+04         0.00000E+00
    0.00000E+00         0.00000E+00        -0.15879E+04
 
   -0.25376E+04         0.27378E+04         0.00000E+00
    0.27378E+04        -0.26033E+04         0.00000E+00
    0.00000E+00         0.00000E+00        -0.15423E+04
 
   -0.21157E+04         0.29375E+04         0.00000E+00
    0.29375E+04        -0.28123E+04         0.00000E+00
    0.00000E+00         0.00000E+00        -0.14784E+04
 
   -0.16180E+04         0.31304E+04         0.00000E+00
    0.31304E+04        -0.30338E+04         0.00000E+00
    0.00000E+00         0.00000E+00        -0.13955E+04
 
    0.20984E+04        -0.15272E+03         0.00000E+00
   -0.15272E+03         0.30163E+01         0.00000E+00
    0.00000E+00         0.00000E+00         0.63043E+03
 
    0.14658E+04        -0.39444E+03         0.00000E+00
   -0.39444E+03         0.14843E+02         0.00000E+00
    0.00000E+00         0.00000E+00         0.44419E+03
 
    0.82649E+03        -0.55582E+03         0.00000E+00
   -0.55582E+03         0.30164E+02         0.00000E+00
    0.00000E+00         0.00000E+00         0.25700E+03
 
    0.19711E+03        -0.64238E+03         0.00000E+00
   -0.64238E+03         0.41102E+02         0.00000E+00
    0.00000E+00         0.00000E+00         0.71464E+02
 
   -0.40776E+03        -0.66119E+03         0.00000E+00
   -0.66119E+03         0.41131E+02         0.00000E+00
    0.00000E+00         0.00000E+00        -0.10999E+03
 
   -0.97590E+03        -0.62055E+03         0.00000E+00
   -0.62055E+03         0.25281E+02         0.00000E+00
    0.00000E+00         0.00000E+00        -0.28518E+03
 
   -0.14976E+04        -0.52940E+03         0.00000E+00
   -0.52940E+03        -0.97911E+01         0.00000E+00
    0.00000E+00         0.00000E+00        -0.45222E+03
 
   -0.19658E+04        -0.39685E+03         0.00000E+00
   -0.39685E+03        -0.65834E+02         0.00000E+00
    0.00000E+00         0.00000E+00        -0.60948E+03
 
   -0.23755E+04        -0.23174E+03         0.00000E+00
   -0.23174E+03        -0.14315E+03         0.00000E+00
    0.00000E+00         0.00000E+00        -0.75560E+03
 
   -0.27241E+04        -0.42255E+02         0.00000E+00
   -0.42255E+02        -0.24084E+03         0.00000E+00
    0.00000E+00         0.00000E+00        -0.88949E+03
 
   -0.30107E+04         0.16437E+03         0.00000E+00
    0.16437E+03        -0.35704E+03         0.00000E+00
    0.00000E+00         0.00000E+00        -0.10103E+04
 
   -0.32355E+04         0.38201E+03         0.00000E+00
    0.38201E+03        -0.48931E+03         0.00000E+00
    0.00000E+00         0.00000E+00        -0.11174E+04
 
   -0.33998E+04         0.60572E+03         0.00000E+00
    0.60572E+03        -0.63484E+03         0.00000E+00
    0.00000E+00         0.00000E+00        -0.12104E+04
 
   -0.35052E+04         0.83172E+03         0.00000E+00
    0.83172E+03        -0.79080E+03         0.00000E+00
    0.00000E+00         0.00000E+00        -0.12888E+04
 
   -0.35536E+04         0.10573E+04         0.00000E+00
    0.10573E+04        -0.95458E+03         0.00000E+00
    0.00000E+00         0.00000E+00        -0.13525E+04
 
   -0.35465E+04         0.12807E+04         0.00000E+00
    0.12807E+04        -0.11239E+04         0.00000E+00
    0.00000E+00         0.00000E+00        -0.14011E+04
 
   -0.34850E+04         0.15008E+04         0.00000E+00
    0.15008E+04        -0.12972E+04         0.00000E+00
    0.00000E+00         0.00000E+00        -0.14347E+04
 
   -0.33693E+04         0.17171E+04         0.00000E+00
    0.17171E+04        -0.14734E+04         0.00000E+00
    0.00000E+00         0.00000E+00        -0.14528E+04
 
   -0.31990E+04         0.19293E+04         0.00000E+00
    0.19293E+04        -0.16523E+04         0.00000E+00
    0.00000E+00         0.00000E+00        -0.14554E+04
 
   -0.29726E+04         0.21371E+04         0.00000E+00
    0.21371E+04        -0.18345E+04         0.00000E+00
    0.00000E+00         0.00000E+00        -0.14421E+04
 
   -0.26874E+04         0.23400E+04         0.00000E+00
    0.23400E+04        -0.20212E+04         0.00000E+00
    0.00000E+00         0.00000E+00        -0.14126E+04
 
   -0.23399E+04         0.25368E+04         0.00000E+00
    0.25368E+04        -0.22146E+04         0.00000E+00
    0.00000E+00         0.00000E+00        -0.13663E+04
 
   -0.19254E+04         0.27258E+04         0.00000E+00
    0.27258E+04        -0.24174E+04         0.00000E+00
    0.00000E+00         0.00000E+00        -0.13029E+04
 
   -0.14386E+04         0.29037E+04         0.00000E+00
    0.29037E+04        -0.26332E+04         0.00000E+00
    0.00000E+00         0.00000E+00        -0.12216E+04
 
    0.18215E+04        -0.14507E+03         0.00000E+00
   -0.14507E+03         0.31565E+01         0.00000E+00
    0.00000E+00         0.00000E+00         0.54739E+03
 
    0.12669E+04        -0.37817E+03         0.00000E+00
   -0.37817E+03         0.16110E+02         0.00000E+00
    0.00000E+00         0.00000E+00         0.38491E+03
 
    0.70161E+03        -0.53895E+03         0.00000E+00
   -0.53895E+03         0.34563E+02         0.00000E+00
    0.00000E+00         0.00000E+00         0.22085E+03
 
    0.14053E+03        -0.63180E+03         0.00000E+00
   -0.63180E+03         0.51410E+02         0.00000E+00
    0.00000E+00         0.00000E+00         0.57582E+02
 
   -0.40307E+03        -0.66249E+03         0.00000E+00
   -0.66249E+03         0.60658E+02         0.00000E+00
    0.00000E+00         0.00000E+00        -0.10272E+03
 
   -0.91785E+03        -0.63783E+03         0.00000E+00
   -0.63783E+03         0.57592E+02         0.00000E+00
    0.00000E+00         0.00000E+00        -0.25808E+03
 
   -0.13946E+04        -0.56528E+03         0.00000E+00
   -0.56528E+03         0.38840E+02         0.00000E+00
    0.00000E+00         0.00000E+00        -0.40672E+03
 
   -0.18260E+04        -0.45255E+03         0.00000E+00
   -0.45255E+03         0.23566E+01         0.00000E+00
    0.00000E+00         0.00000E+00        -0.54710E+03
 
   -0.22071E+04        -0.30724E+03         0.00000E+00
   -0.30724E+03        -0.52678E+02         0.00000E+00
    0.00000E+00         0.00000E+00        -0.67793E+03
 
   -0.25343E+04        -0.13650E+03         0.00000E+00
   -0.13650E+03        -0.12603E+03         0.00000E+00
    0.00000E+00         0.00000E+00        -0.79811E+03
 
   -0.28059E+04         0.53171E+02         0.00000E+00
    0.53171E+02        -0.21663E+03         0.00000E+00
    0.00000E+00         0.00000E+00        -0.90675E+03
 
   -0.30210E+04         0.25612E+03         0.00000E+00
    0.25612E+03        -0.32280E+03         0.00000E+00
    0.00000E+00         0.00000E+00        -0.10032E+04
 
   -0.31800E+04         0.46762E+03         0.00000E+00
    0.46762E+03        -0.44252E+03         0.00000E+00
    0.00000E+00         0.00000E+00        -0.10868E+04
 
   -0.32834E+04         0.68385E+03         0.00000E+00
    0.68385E+03        -0.57366E+03         0.00000E+00
    0.00000E+00         0.00000E+00        -0.11571E+04
 
   -0.33322E+04         0.90185E+03         0.00000E+00
    0.90185E+03        -0.71417E+03         0.00000E+00
    0.00000E+00         0.00000E+00        -0.12139E+04
 
   -0.33271E+04         0.11194E+04         0.00000E+00
    0.11194E+04        -0.86227E+03         0.00000E+00
    0.00000E+00         0.00000E+00        -0.12568E+04
 
   -0.32687E+04         0.13350E+04         0.00000E+00
    0.13350E+04        -0.10166E+04         0.00000E+00
    0.00000E+00         0.00000E+00        -0.12856E+04
 
   -0.31569E+04         0.15473E+04         0.00000E+00
    0.15473E+04        -0.11763E+04         0.00000E+00
    0.00000E+00         0.00000E+00        -0.13000E+04
 
   -0.29910E+04         0.17554E+04         0.00000E+00
    0.17554E+04        -0.13412E+04         0.00000E+00
    0.00000E+00         0.00000E+00        -0.12997E+04
 
   -0.27698E+04         0.19583E+04         0.00000E+00
    0.19583E+04        -0.15116E+04         0.00000E+00
    0.00000E+00         0.00000E+00        -0.12844E+04
 
   -0.24910E+04         0.21548E+04         0.00000E+00
    0.21548E+04        -0.16885E+04         0.00000E+00
    0.00000E+00         0.00000E+00        -0.12538E+04
 
   -0.21516E+04         0.23430E+04         0.00000E+00
    0.23430E+04        -0.18737E+04         0.00000E+00
    0.00000E+00         0.00000E+00        -0.12076E+04
 
   -0.17480E+04         0.25206E+04         0.00000E+00
    0.25206E+04        -0.20691E+04         0.00000E+00
    0.00000E+00         0.00000E+00        -0.11451E+04
 
   -0.12760E+04         0.26839E+04         0.00000E+00
    0.26839E+04        -0.22775E+04         0.00000E+00
    0.00000E+00         0.00000E+00        -0.10661E+04
 
    0.15580E+04        -0.13709E+03         0.00000E+00
   -0.13709E+03         0.32472E+01         0.00000E+00
    0.00000E+00         0.00000E+00         0.46837E+03
 
    0.10735E+04        -0.36020E+03         0.00000E+00
   -0.36020E+03         0.17012E+02         0.00000E+00
    0.00000E+00         0.00000E+00         0.32714E+03
 
    0.57503E+03        -0.51821E+03         0.00000E+00
   -0.51821E+03         0.37838E+02         0.00000E+00
    0.00000E+00         0.00000E+00         0.18386E+03
 
    0.76234E+02        -0.61458E+03         0.00000E+00
   -0.61458E+03         0.59283E+02         0.00000E+00
    0.00000E+00         0.00000E+00         0.40655E+02
 
   -0.41082E+03        -0.65397E+03         0.00000E+00
   -0.65397E+03         0.75830E+02         0.00000E+00
    0.00000E+00         0.00000E+00        -0.10050E+03
 
   -0.87562E+03        -0.64200E+03         0.00000E+00
   -0.64200E+03         0.83016E+02         0.00000E+00
    0.00000E+00         0.00000E+00        -0.23778E+03
 
   -0.13093E+04        -0.58489E+03         0.00000E+00
   -0.58489E+03         0.77492E+02         0.00000E+00
    0.00000E+00         0.00000E+00        -0.36956E+03
 
   -0.17050E+04        -0.48916E+03         0.00000E+00
   -0.48916E+03         0.57024E+02         0.00000E+00
    0.00000E+00         0.00000E+00        -0.49438E+03
 
   -0.20571E+04        -0.36135E+03         0.00000E+00
   -0.36135E+03         0.20413E+02         0.00000E+00
    0.00000E+00         0.00000E+00        -0.61099E+03
 
   -0.23618E+04        -0.20772E+03         0.00000E+00
   -0.20772E+03        -0.32624E+02         0.00000E+00
    0.00000E+00         0.00000E+00        -0.71832E+03
 
   -0.26166E+04        -0.34073E+02         0.00000E+00
   -0.34073E+02        -0.10162E+03         0.00000E+00
    0.00000E+00         0.00000E+00        -0.81547E+03
 
   -0.28201E+04         0.15440E+03         0.00000E+00
    0.15440E+03        -0.18556E+03         0.00000E+00
    0.00000E+00         0.00000E+00        -0.90170E+03
 
   -0.29716E+04         0.35322E+03         0.00000E+00
    0.35322E+03        -0.28305E+03         0.00000E+00
    0.00000E+00         0.00000E+00        -0.97639E+03
 
   -0.30709E+04         0.55861E+03         0.00000E+00
    0.55861E+03        -0.39255E+03         0.00000E+00
    0.00000E+00         0.00000E+00        -0.10390E+04
 
   -0.31183E+04         0.76748E+03         0.00000E+00
    0.76748E+03        -0.51251E+03         0.00000E+00
    0.00000E+00         0.00000E+00        -0.10892E+04
 
   -0.31139E+04         0.97734E+03         0.00000E+00
    0.97734E+03        -0.64156E+03         0.00000E+00
    0.00000E+00         0.00000E+00        -0.11266E+04
 
   -0.30577E+04         0.11862E+04         0.00000E+00
    0.11862E+04        -0.77863E+03         0.00000E+00
    0.00000E+00         0.00000E+00        -0.11509E+04
 
   -0.29495E+04         0.13923E+04         0.00000E+00
    0.13923E+04        -0.92301E+03         0.00000E+00
    0.00000E+00         0.00000E+00        -0.11618E+04
 
   -0.27885E+04         0.15942E+04         0.00000E+00
    0.15942E+04        -0.10745E+04         0.00000E+00
    0.00000E+00         0.00000E+00        -0.11589E+04
 
   -0.25735E+04         0.17903E+04         0.00000E+00
    0.17903E+04        -0.12332E+04         0.00000E+00
    0.00000E+00         0.00000E+00        -0.11420E+04
 
   -0.23027E+04         0.19788E+04         0.00000E+00
    0.19788E+04        -0.14001E+04         0.00000E+00
    0.00000E+00         0.00000E+00        -0.11108E+04
 
   -0.19736E+04         0.21574E+04         0.00000E+00
    0.21574E+04        -0.15762E+04         0.00000E+00
    0.00000E+00         0.00000E+00        -0.10650E+04
 
   -0.15835E+04         0.23232E+04         0.00000E+00
    0.23232E+04        -0.17633E+04         0.00000E+00
    0.00000E+00         0.00000E+00        -0.10040E+04
 
   -0.11293E+04         0.24724E+04         0.00000E+00
    0.24724E+04        -0.19631E+04         0.00000E+00
    0.00000E+00         0.00000E+00        -0.92772E+03
 
    0.13087E+04        -0.12891E+03         0.00000E+00
   -0.12891E+03         0.32940E+01         0.00000E+00
    0.00000E+00         0.00000E+00         0.39360E+03
 
    0.88699E+03        -0.34102E+03         0.00000E+00
   -0.34102E+03         0.17598E+02         0.00000E+00
    0.00000E+00         0.00000E+00         0.27138E+03
 
    0.44898E+03        -0.49455E+03         0.00000E+00
   -0.49455E+03         0.40151E+02         0.00000E+00
    0.00000E+00         0.00000E+00         0.14674E+03
 
    0.69425E+01        -0.59219E+03         0.00000E+00
   -0.59219E+03         0.65091E+02         0.00000E+00
    0.00000E+00         0.00000E+00         0.21610E+02
 
   -0.42804E+03        -0.63769E+03         0.00000E+00
   -0.63769E+03         0.87326E+02         0.00000E+00
    0.00000E+00         0.00000E+00        -0.10221E+03
 
   -0.84618E+03        -0.63565E+03         0.00000E+00
   -0.63565E+03         0.10264E+03         0.00000E+00
    0.00000E+00         0.00000E+00        -0.22306E+03
 
   -0.12392E+04        -0.59129E+03         0.00000E+00
   -0.59129E+03         0.10775E+03         0.00000E+00
    0.00000E+00         0.00000E+00        -0.33942E+03
 
   -0.16001E+04        -0.51011E+03         0.00000E+00
   -0.51011E+03         0.10030E+03         0.00000E+00
    0.00000E+00         0.00000E+00        -0.44994E+03
 
   -0.19235E+04        -0.39775E+03         0.00000E+00
   -0.39775E+03         0.78821E+02         0.00000E+00
    0.00000E+00         0.00000E+00        -0.55341E+03
 
   -0.22053E+04        -0.25967E+03         0.00000E+00
   -0.25967E+03         0.42640E+02         0.00000E+00
    0.00000E+00         0.00000E+00        -0.64878E+03
 
   -0.24423E+04        -0.10107E+03         0.00000E+00
   -0.10107E+03        -0.82569E+01         0.00000E+00
    0.00000E+00         0.00000E+00        -0.73518E+03
 
   -0.26327E+04         0.73320E+02         0.00000E+00
    0.73320E+02        -0.73368E+02         0.00000E+00
    0.00000E+00         0.00000E+00        -0.81183E+03
 
   -0.27751E+04         0.25929E+03         0.00000E+00
    0.25929E+03        -0.15183E+03         0.00000E+00
    0.00000E+00         0.00000E+00        -0.87809E+03
 
   -0.28689E+04         0.45316E+03         0.00000E+00
    0.45316E+03        -0.24260E+03         0.00000E+00
    0.00000E+00         0.00000E+00        -0.93343E+03
 
   -0.29134E+04         0.65179E+03         0.00000E+00
    0.65179E+03        -0.34455E+03         0.00000E+00
    0.00000E+00         0.00000E+00        -0.97739E+03
 
   -0.29086E+04         0.85250E+03         0.00000E+00
    0.85250E+03        -0.45667E+03         0.00000E+00
    0.00000E+00         0.00000E+00        -0.10096E+04
 
   -0.28540E+04         0.10530E+04         0.00000E+00
    0.10530E+04        -0.57812E+03         0.00000E+00
    0.00000E+00         0.00000E+00        -0.10296E+04
 
   -0.27491E+04         0.12512E+04         0.00000E+00
    0.12512E+04        -0.70834E+03         0.00000E+00
    0.00000E+00         0.00000E+00        -0.10372E+04
 
   -0.25933E+04         0.14452E+04         0.00000E+00
    0.14452E+04        -0.84712E+03         0.00000E+00
    0.00000E+00         0.00000E+00        -0.10321E+04
 
   -0.23852E+04         0.16330E+04         0.00000E+00
    0.16330E+04        -0.99460E+03         0.00000E+00
    0.00000E+00         0.00000E+00        -0.10140E+04
 
   -0.21236E+04         0.18124E+04         0.00000E+00
    0.18124E+04        -0.11513E+04         0.00000E+00
    0.00000E+00         0.00000E+00        -0.98247E+03
 
   -0.18065E+04         0.19807E+04         0.00000E+00
    0.19807E+04        -0.13181E+04         0.00000E+00
    0.00000E+00         0.00000E+00        -0.93737E+03
 
   -0.14319E+04         0.21347E+04         0.00000E+00
    0.21347E+04        -0.14960E+04         0.00000E+00
    0.00000E+00         0.00000E+00        -0.87836E+03
 
   -0.99744E+03         0.22703E+04         0.00000E+00
    0.22703E+04        -0.16865E+04         0.00000E+00
    0.00000E+00         0.00000E+00        -0.80518E+03
 
    0.10741E+04        -0.12063E+03         0.00000E+00
   -0.12063E+03         0.33025E+01         0.00000E+00
    0.00000E+00         0.00000E+00         0.32322E+03
 
    0.70871E+03        -0.32103E+03         0.00000E+00
   -0.32103E+03         0.17911E+02         0.00000E+00
    0.00000E+00         0.00000E+00         0.21799E+03
 
    0.32525E+03        -0.46876E+03         0.00000E+00
   -0.46876E+03         0.41643E+02         0.00000E+00
    0.00000E+00         0.00000E+00         0.11007E+03
 
   -0.65136E+02        -0.56586E+03         0.00000E+00
   -0.56586E+03         0.69149E+02         0.00000E+00
    0.00000E+00         0.00000E+00         0.12039E+01
 
   -0.45226E+03        -0.61534E+03         0.00000E+00
   -0.61534E+03         0.95721E+02         0.00000E+00
    0.00000E+00         0.00000E+00        -0.10696E+03
 
   -0.82704E+03        -0.62096E+03         0.00000E+00
   -0.62096E+03         0.11738E+03         0.00000E+00
    0.00000E+00         0.00000E+00        -0.21290E+03
 
   -0.11816E+04        -0.58706E+03         0.00000E+00
   -0.58706E+03         0.13094E+03         0.00000E+00
    0.00000E+00         0.00000E+00        -0.31520E+03
 
   -0.15093E+04        -0.51832E+03         0.00000E+00
   -0.51832E+03         0.13397E+03         0.00000E+00
    0.00000E+00         0.00000E+00        -0.41261E+03
 
   -0.18047E+04        -0.41957E+03         0.00000E+00
   -0.41957E+03         0.12483E+03         0.00000E+00
    0.00000E+00         0.00000E+00        -0.50397E+03
 
   -0.20635E+04        -0.29562E+03         0.00000E+00
   -0.29562E+03         0.10253E+03         0.00000E+00
    0.00000E+00         0.00000E+00        -0.58828E+03
 
   -0.22823E+04        -0.15108E+03         0.00000E+00
   -0.15108E+03         0.66706E+02         0.00000E+00
    0.00000E+00         0.00000E+00        -0.66467E+03
 
   -0.24587E+04         0.97455E+01         0.00000E+00
    0.97455E+01         0.17433E+02         0.00000E+00
    0.00000E+00         0.00000E+00        -0.73238E+03
 
   -0.25910E+04         0.18291E+03         0.00000E+00
    0.18291E+03        -0.44852E+02         0.00000E+00
    0.00000E+00         0.00000E+00        -0.79076E+03
 
   -0.26780E+04         0.36488E+03         0.00000E+00
    0.36488E+03        -0.11950E+03         0.00000E+00
    0.00000E+00         0.00000E+00        -0.83924E+03
 
   -0.27187E+04         0.55253E+03         0.00000E+00
    0.55253E+03        -0.20577E+03         0.00000E+00
    0.00000E+00         0.00000E+00        -0.87734E+03
 
   -0.27126E+04         0.74307E+03         0.00000E+00
    0.74307E+03        -0.30293E+03         0.00000E+00
    0.00000E+00         0.00000E+00        -0.90466E+03
 
   -0.26590E+04         0.93401E+03         0.00000E+00
    0.93401E+03        -0.41037E+03         0.00000E+00
    0.00000E+00         0.00000E+00        -0.92081E+03
 
   -0.25573E+04         0.11230E+04         0.00000E+00
    0.11230E+04        -0.52765E+03         0.00000E+00
    0.00000E+00         0.00000E+00        -0.92549E+03
 
   -0.24067E+04         0.13079E+04         0.00000E+00
    0.13079E+04        -0.65458E+03         0.00000E+00
    0.00000E+00         0.00000E+00        -0.91838E+03
 
   -0.22062E+04         0.14863E+04         0.00000E+00
    0.14863E+04        -0.79121E+03         0.00000E+00
    0.00000E+00         0.00000E+00        -0.89921E+03
 
   -0.19546E+04         0.16557E+04         0.00000E+00
    0.16557E+04        -0.93785E+03         0.00000E+00
    0.00000E+00         0.00000E+00        -0.86772E+03
 
   -0.16506E+04         0.18132E+04         0.00000E+00
    0.18132E+04        -0.10951E+04         0.00000E+00
    0.00000E+00         0.00000E+00        -0.82368E+03
 
   -0.12927E+04         0.19555E+04         0.00000E+00
    0.19555E+04        -0.12635E+04         0.00000E+00
    0.00000E+00         0.00000E+00        -0.76687E+03
 
   -0.87951E+03         0.20783E+04         0.00000E+00
    0.20783E+04        -0.14441E+04         0.00000E+00
    0.00000E+00         0.00000E+00        -0.69708E+03
 
    0.85446E+03        -0.11235E+03         0.00000E+00
   -0.11235E+03         0.32781E+01         0.00000E+00
    0.00000E+00         0.00000E+00         0.25732E+03
 
    0.53950E+03        -0.30057E+03         0.00000E+00
   -0.30057E+03         0.17992E+02         0.00000E+00
    0.00000E+00         0.00000E+00         0.16725E+03
 
    0.20522E+03        -0.44150E+03         0.00000E+00
   -0.44150E+03         0.42441E+02         0.00000E+00
    0.00000E+00         0.00000E+00         0.74299E+02
 
   -0.13822E+03        -0.53665E+03         0.00000E+00
   -0.53665E+03         0.71731E+02         0.00000E+00
    0.00000E+00         0.00000E+00        -0.19945E+02
 
   -0.48146E+03        -0.58837E+03         0.00000E+00
   -0.58837E+03         0.10151E+03         0.00000E+00
    0.00000E+00         0.00000E+00        -0.11399E+03
 
   -0.81608E+03        -0.59975E+03         0.00000E+00
   -0.59975E+03         0.12802E+03         0.00000E+00
    0.00000E+00         0.00000E+00        -0.20642E+03
 
   -0.11347E+04        -0.57439E+03         0.00000E+00
   -0.57439E+03         0.14818E+03         0.00000E+00
    0.00000E+00         0.00000E+00        -0.29594E+03
 
   -0.14308E+04        -0.51626E+03         0.00000E+00
   -0.51626E+03         0.15956E+03         0.00000E+00
    0.00000E+00         0.00000E+00        -0.38137E+03
 
   -0.16991E+04        -0.42952E+03         0.00000E+00
   -0.42952E+03         0.16037E+03         0.00000E+00
    0.00000E+00         0.00000E+00        -0.46162E+03
 
   -0.19352E+04        -0.31837E+03         0.00000E+00
   -0.31837E+03         0.14943E+03         0.00000E+00
    0.00000E+00         0.00000E+00        -0.53575E+03
 
   -0.21357E+04        -0.18691E+03         0.00000E+00
   -0.18691E+03         0.12605E+03         0.00000E+00
    0.00000E+00         0.00000E+00        -0.60289E+03
 
   -0.22977E+04        -0.39070E+02         0.00000E+00
   -0.39070E+02         0.90017E+02         0.00000E+00
    0.00000E+00         0.00000E+00        -0.66230E+03
 
   -0.24192E+04         0.12150E+03         0.00000E+00
    0.12150E+03         0.41404E+02         0.00000E+00
    0.00000E+00         0.00000E+00        -0.71334E+03
 
   -0.24987E+04         0.29142E+03         0.00000E+00
    0.29142E+03        -0.19468E+02         0.00000E+00
    0.00000E+00         0.00000E+00        -0.75544E+03
 
   -0.25348E+04         0.46762E+03         0.00000E+00
    0.46762E+03        -0.92159E+02         0.00000E+00
    0.00000E+00         0.00000E+00        -0.78810E+03
 
   -0.25268E+04         0.64730E+03         0.00000E+00
    0.64730E+03        -0.17619E+03         0.00000E+00
    0.00000E+00         0.00000E+00        -0.81091E+03
 
   -0.24738E+04         0.82783E+03         0.00000E+00
    0.82783E+03        -0.27113E+03         0.00000E+00
    0.00000E+00         0.00000E+00        -0.82349E+03
 
   -0.23751E+04         0.10067E+04         0.00000E+00
    0.10067E+04        -0.37666E+03         0.00000E+00
    0.00000E+00         0.00000E+00        -0.82552E+03
 
   -0.22297E+04         0.11816E+04         0.00000E+00
    0.11816E+04        -0.49259E+03         0.00000E+00
    0.00000E+00         0.00000E+00        -0.81670E+03
 
   -0.20370E+04         0.13498E+04         0.00000E+00
    0.13498E+04        -0.61890E+03         0.00000E+00
    0.00000E+00         0.00000E+00        -0.79678E+03
 
   -0.17961E+04         0.15088E+04         0.00000E+00
    0.15088E+04        -0.75575E+03         0.00000E+00
    0.00000E+00         0.00000E+00        -0.76555E+03
 
   -0.15059E+04         0.16553E+04         0.00000E+00
    0.16553E+04        -0.90342E+03         0.00000E+00
    0.00000E+00         0.00000E+00        -0.72279E+03
 
   -0.11656E+04         0.17860E+04         0.00000E+00
    0.17860E+04        -0.10623E+04         0.00000E+00
    0.00000E+00         0.00000E+00        -0.66836E+03
 
   -0.77443E+03         0.18967E+04         0.00000E+00
    0.18967E+04        -0.12327E+04         0.00000E+00
    0.00000E+00         0.00000E+00        -0.60213E+03
 
    0.64986E+03        -0.10415E+03         0.00000E+00
   -0.10415E+03         0.32261E+01         0.00000E+00
    0.00000E+00         0.00000E+00         0.19593E+03
 
    0.37999E+03        -0.27993E+03         0.00000E+00
   -0.27993E+03         0.17878E+02         0.00000E+00
    0.00000E+00         0.00000E+00         0.11936E+03
 
    0.89992E+02        -0.41334E+03         0.00000E+00
   -0.41334E+03         0.42657E+02         0.00000E+00
    0.00000E+00         0.00000E+00         0.39795E+02
 
   -0.21087E+03        -0.50541E+03         0.00000E+00
   -0.50541E+03         0.73081E+02         0.00000E+00
    0.00000E+00         0.00000E+00        -0.41336E+02
 
   -0.51399E+03        -0.55798E+03         0.00000E+00
   -0.55798E+03         0.10511E+03         0.00000E+00
    0.00000E+00         0.00000E+00        -0.12266E+03
 
   -0.81154E+03        -0.57355E+03         0.00000E+00
   -0.57355E+03         0.13523E+03         0.00000E+00
    0.00000E+00         0.00000E+00        -0.20289E+03
 
   -0.10965E+04        -0.55511E+03         0.00000E+00
   -0.55511E+03         0.16046E+03         0.00000E+00
    0.00000E+00         0.00000E+00        -0.28082E+03
 
   -0.13629E+04        -0.50602E+03         0.00000E+00
   -0.50602E+03         0.17838E+03         0.00000E+00
    0.00000E+00         0.00000E+00        -0.35535E+03
 
   -0.16053E+04        -0.42986E+03         0.00000E+00
   -0.42986E+03         0.18713E+03         0.00000E+00
    0.00000E+00         0.00000E+00        -0.42546E+03
 
   -0.18195E+04        -0.33030E+03         0.00000E+00
   -0.33030E+03         0.18537E+03         0.00000E+00
    0.00000E+00         0.00000E+00        -0.49024E+03
 
   -0.20018E+04        -0.21101E+03         0.00000E+00
   -0.21101E+03         0.17221E+03         0.00000E+00
    0.00000E+00         0.00000E+00        -0.54887E+03
 
   -0.21493E+04        -0.75525E+02         0.00000E+00
   -0.75525E+02         0.14715E+03         0.00000E+00
    0.00000E+00         0.00000E+00        -0.60064E+03
 
   -0.22597E+04         0.72761E+02         0.00000E+00
    0.72761E+02         0.11002E+03         0.00000E+00
    0.00000E+00         0.00000E+00        -0.64490E+03
 
   -0.23312E+04         0.23066E+03         0.00000E+00
    0.23066E+03         0.60852E+02         0.00000E+00
    0.00000E+00         0.00000E+00        -0.68109E+03
 
   -0.23623E+04         0.39520E+03         0.00000E+00
    0.39520E+03        -0.14835E+00         0.00000E+00
    0.00000E+00         0.00000E+00        -0.70874E+03
 
   -0.23520E+04         0.56358E+03         0.00000E+00
    0.56358E+03        -0.72716E+02         0.00000E+00
    0.00000E+00         0.00000E+00        -0.72741E+03
 
   -0.22992E+04         0.73314E+03         0.00000E+00
    0.73314E+03        -0.15657E+03         0.00000E+00
    0.00000E+00         0.00000E+00        -0.73674E+03
 
   -0.22032E+04         0.90131E+03         0.00000E+00
    0.90131E+03        -0.25148E+03         0.00000E+00
    0.00000E+00         0.00000E+00        -0.73640E+03
 
   -0.20632E+04         0.10655E+04         0.00000E+00
    0.10655E+04        -0.35727E+03         0.00000E+00
    0.00000E+00         0.00000E+00        -0.72613E+03
 
   -0.18785E+04         0.12231E+04         0.00000E+00
    0.12231E+04        -0.47387E+03         0.00000E+00
    0.00000E+00         0.00000E+00        -0.70570E+03
 
   -0.16484E+04         0.13713E+04         0.00000E+00
    0.13713E+04        -0.60129E+03         0.00000E+00
    0.00000E+00         0.00000E+00        -0.67490E+03
 
   -0.13724E+04         0.15069E+04         0.00000E+00
    0.15069E+04        -0.73958E+03         0.00000E+00
    0.00000E+00         0.00000E+00        -0.63359E+03
 
   -0.10500E+04         0.16263E+04         0.00000E+00
    0.16263E+04        -0.88883E+03         0.00000E+00
    0.00000E+00         0.00000E+00        -0.58166E+03
 
   -0.68115E+03         0.17258E+04         0.00000E+00
    0.17258E+04        -0.10490E+04         0.00000E+00
    0.00000E+00         0.00000E+00        -0.51906E+03
 
    0.46021E+03        -0.96092E+02         0.00000E+00
   -0.96092E+02         0.31513E+01         0.00000E+00
    0.00000E+00         0.00000E+00         0.13901E+03
 
    0.23057E+03        -0.25937E+03         0.00000E+00
   -0.25937E+03         0.17604E+02         0.00000E+00
    0.00000E+00         0.00000E+00         0.74453E+02
 
   -0.19636E+02        -0.38474E+03         0.00000E+00
   -0.38474E+03         0.42394E+02         0.00000E+00
    0.00000E+00         0.00000E+00         0.68272E+01
 
   -0.28196E+03        -0.47287E+03         0.00000E+00
   -0.47287E+03         0.73412E+02         0.00000E+00
    0.00000E+00         0.00000E+00        -0.62563E+02
 
   -0.54848E+03        -0.52517E+03         0.00000E+00
   -0.52517E+03         0.10692E+03         0.00000E+00
    0.00000E+00         0.00000E+00        -0.13247E+03
 
   -0.81193E+03        -0.54364E+03         0.00000E+00
   -0.54364E+03         0.13960E+03         0.00000E+00
    0.00000E+00         0.00000E+00        -0.20170E+03
 
   -0.10658E+04        -0.53075E+03         0.00000E+00
   -0.53075E+03         0.16861E+03         0.00000E+00
    0.00000E+00         0.00000E+00        -0.26915E+03
 
   -0.13042E+04        -0.48935E+03         0.00000E+00
   -0.48935E+03         0.19156E+03         0.00000E+00
    0.00000E+00         0.00000E+00        -0.33378E+03
 
   -0.15221E+04        -0.42252E+03         0.00000E+00
   -0.42252E+03         0.20655E+03         0.00000E+00
    0.00000E+00         0.00000E+00        -0.39466E+03
 
   -0.17152E+04        -0.33348E+03         0.00000E+00
   -0.33348E+03         0.21214E+03         0.00000E+00
    0.00000E+00         0.00000E+00        -0.45091E+03
 
   -0.18798E+04        -0.22547E+03         0.00000E+00
   -0.22547E+03         0.20727E+03         0.00000E+00
    0.00000E+00         0.00000E+00        -0.50176E+03
 
   -0.20129E+04        -0.10170E+03         0.00000E+00
   -0.10170E+03         0.19125E+03         0.00000E+00
    0.00000E+00         0.00000E+00        -0.54651E+03
 
   -0.21122E+04         0.34700E+02         0.00000E+00
    0.34700E+02         0.16369E+03         0.00000E+00
    0.00000E+00         0.00000E+00        -0.58455E+03
 
   -0.21755E+04         0.18074E+03         0.00000E+00
    0.18074E+03         0.12442E+03         0.00000E+00
    0.00000E+00         0.00000E+00        -0.61533E+03
 
   -0.22013E+04         0.33357E+03         0.00000E+00
    0.33357E+03         0.73429E+02         0.00000E+00
    0.00000E+00         0.00000E+00        -0.63837E+03
 
   -0.21884E+04         0.49044E+03         0.00000E+00
    0.49044E+03         0.10827E+02         0.00000E+00
    0.00000E+00         0.00000E+00        -0.65327E+03
 
   -0.21356E+04         0.64870E+03         0.00000E+00
    0.64870E+03        -0.63238E+02         0.00000E+00
    0.00000E+00         0.00000E+00        -0.65966E+03
 
   -0.20422E+04         0.80577E+03         0.00000E+00
    0.80577E+03        -0.14860E+03         0.00000E+00
    0.00000E+00         0.00000E+00        -0.65724E+03
 
   -0.19074E+04         0.95900E+03         0.00000E+00
    0.95900E+03        -0.24510E+03         0.00000E+00
    0.00000E+00         0.00000E+00        -0.64575E+03
 
   -0.17307E+04         0.11057E+04         0.00000E+00
    0.11057E+04        -0.35262E+03         0.00000E+00
    0.00000E+00         0.00000E+00        -0.62498E+03
 
   -0.15116E+04         0.12430E+04         0.00000E+00
    0.12430E+04        -0.47105E+03         0.00000E+00
    0.00000E+00         0.00000E+00        -0.59478E+03
 
   -0.12498E+04         0.13677E+04         0.00000E+00
    0.13677E+04        -0.60026E+03         0.00000E+00
    0.00000E+00         0.00000E+00        -0.55502E+03
 
   -0.94543E+03         0.14765E+04         0.00000E+00
    0.14765E+04        -0.74009E+03         0.00000E+00
    0.00000E+00         0.00000E+00        -0.50566E+03
 
   -0.59869E+03         0.15654E+04         0.00000E+00
    0.15654E+04        -0.89023E+03         0.00000E+00
    0.00000E+00         0.00000E+00        -0.44667E+03
 
    0.28528E+03        -0.88238E+02         0.00000E+00
   -0.88238E+02         0.30586E+01         0.00000E+00
    0.00000E+00         0.00000E+00         0.86500E+02
 
    0.91464E+02        -0.23908E+03         0.00000E+00
   -0.23908E+03         0.17202E+02         0.00000E+00
    0.00000E+00         0.00000E+00         0.32600E+02
 
   -0.12307E+03        -0.35609E+03         0.00000E+00
   -0.35609E+03         0.41744E+02         0.00000E+00
    0.00000E+00         0.00000E+00        -0.24398E+02
 
   -0.35059E+03        -0.43964E+03         0.00000E+00
   -0.43964E+03         0.72916E+02         0.00000E+00
    0.00000E+00         0.00000E+00        -0.83304E+02
 
   -0.58383E+03        -0.49077E+03         0.00000E+00
   -0.49077E+03         0.10725E+03         0.00000E+00
    0.00000E+00         0.00000E+00        -0.14297E+03
 
   -0.81605E+03        -0.51108E+03         0.00000E+00
   -0.51108E+03         0.14164E+03         0.00000E+00
    0.00000E+00         0.00000E+00        -0.20232E+03
 
   -0.10411E+04        -0.50260E+03         0.00000E+00
   -0.50260E+03         0.17336E+03         0.00000E+00
    0.00000E+00         0.00000E+00        -0.26032E+03
 
   -0.12535E+04        -0.46774E+03         0.00000E+00
   -0.46774E+03         0.20008E+03         0.00000E+00
    0.00000E+00         0.00000E+00        -0.31601E+03
 
   -0.14483E+04        -0.40915E+03         0.00000E+00
   -0.40915E+03         0.21990E+03         0.00000E+00
    0.00000E+00         0.00000E+00        -0.36851E+03
 
   -0.16213E+04        -0.32964E+03         0.00000E+00
   -0.32964E+03         0.23128E+03         0.00000E+00
    0.00000E+00         0.00000E+00        -0.41701E+03
 
   -0.17690E+04        -0.23208E+03         0.00000E+00
   -0.23208E+03         0.23307E+03         0.00000E+00
    0.00000E+00         0.00000E+00        -0.46077E+03
 
   -0.18882E+04        -0.11939E+03         0.00000E+00
   -0.11939E+03         0.22443E+03         0.00000E+00
    0.00000E+00         0.00000E+00        -0.49912E+03
 
   -0.19764E+04         0.55698E+01         0.00000E+00
    0.55698E+01         0.20480E+03         0.00000E+00
    0.00000E+00         0.00000E+00        -0.53148E+03
 
   -0.20316E+04         0.14001E+03         0.00000E+00
    0.14001E+03         0.17383E+03         0.00000E+00
    0.00000E+00         0.00000E+00        -0.55732E+03
 
   -0.20520E+04         0.28122E+03         0.00000E+00
    0.28122E+03         0.13138E+03         0.00000E+00
    0.00000E+00         0.00000E+00        -0.57618E+03
 
   -0.20363E+04         0.42654E+03         0.00000E+00
    0.42654E+03         0.77399E+02         0.00000E+00
    0.00000E+00         0.00000E+00        -0.58766E+03
 
   -0.19833E+04         0.57339E+03         0.00000E+00
    0.57339E+03         0.11946E+02         0.00000E+00
    0.00000E+00         0.00000E+00        -0.59141E+03
 
   -0.18923E+04         0.71917E+03         0.00000E+00
    0.71917E+03        -0.64874E+02         0.00000E+00
    0.00000E+00         0.00000E+00        -0.58716E+03
 
   -0.17626E+04         0.86128E+03         0.00000E+00
    0.86128E+03        -0.15292E+03         0.00000E+00
    0.00000E+00         0.00000E+00        -0.57466E+03
 
   -0.15938E+04         0.99700E+03         0.00000E+00
    0.99700E+03        -0.25201E+03         0.00000E+00
    0.00000E+00         0.00000E+00        -0.55373E+03
 
   -0.13855E+04         0.11235E+04         0.00000E+00
    0.11235E+04        -0.36194E+03         0.00000E+00
    0.00000E+00         0.00000E+00        -0.52424E+03
 
   -0.11379E+04         0.12377E+04         0.00000E+00
    0.12377E+04        -0.48245E+03         0.00000E+00
    0.00000E+00         0.00000E+00        -0.48610E+03
 
   -0.85116E+03         0.13362E+04         0.00000E+00
    0.13362E+04        -0.61315E+03         0.00000E+00
    0.00000E+00         0.00000E+00        -0.43929E+03
 
   -0.52605E+03         0.14153E+04         0.00000E+00
    0.14153E+04        -0.75351E+03         0.00000E+00
    0.00000E+00         0.00000E+00        -0.38387E+03
 
    0.12473E+03        -0.80627E+02         0.00000E+00
   -0.80627E+02         0.29523E+01         0.00000E+00
    0.00000E+00         0.00000E+00         0.38305E+02
 
   -0.37270E+02        -0.21921E+03         0.00000E+00
   -0.21921E+03         0.16701E+02         0.00000E+00
    0.00000E+00         0.00000E+00        -0.61708E+01
 
   -0.21990E+03        -0.32768E+03         0.00000E+00
   -0.32768E+03         0.40791E+02         0.00000E+00
    0.00000E+00         0.00000E+00        -0.53733E+02
 
   -0.41610E+03        -0.40619E+03         0.00000E+00
   -0.40619E+03         0.71764E+02         0.00000E+00
    0.00000E+00         0.00000E+00        -0.10330E+03
 
   -0.61917E+03        -0.45546E+03         0.00000E+00
   -0.45546E+03         0.10641E+03         0.00000E+00
    0.00000E+00         0.00000E+00        -0.15383E+03
 
   -0.82287E+03        -0.47674E+03         0.00000E+00
   -0.47674E+03         0.14181E+03         0.00000E+00
    0.00000E+00         0.00000E+00        -0.20432E+03
 
   -0.10214E+04        -0.47172E+03         0.00000E+00
   -0.47172E+03         0.17536E+03         0.00000E+00
    0.00000E+00         0.00000E+00        -0.25383E+03
 
   -0.12097E+04        -0.44242E+03         0.00000E+00
   -0.44242E+03         0.20481E+03         0.00000E+00
    0.00000E+00         0.00000E+00        -0.30146E+03
 
   -0.13829E+04        -0.39111E+03         0.00000E+00
   -0.39111E+03         0.22826E+03         0.00000E+00
    0.00000E+00         0.00000E+00        -0.34640E+03
 
   -0.15371E+04        -0.32024E+03         0.00000E+00
   -0.32024E+03         0.24414E+03         0.00000E+00
    0.00000E+00         0.00000E+00        -0.38788E+03
 
   -0.16686E+04        -0.23238E+03         0.00000E+00
   -0.23238E+03         0.25122E+03         0.00000E+00
    0.00000E+00         0.00000E+00        -0.42521E+03
 
   -0.17744E+04        -0.13014E+03         0.00000E+00
   -0.13014E+03         0.24854E+03         0.00000E+00
    0.00000E+00         0.00000E+00        -0.45776E+03
 
   -0.18520E+04        -0.16136E+02         0.00000E+00
   -0.16136E+02         0.23542E+03         0.00000E+00
    0.00000E+00         0.00000E+00        -0.48496E+03
 
   -0.18991E+04         0.10704E+03         0.00000E+00
    0.10704E+03         0.21140E+03         0.00000E+00
    0.00000E+00         0.00000E+00        -0.50632E+03
 
   -0.19141E+04         0.23683E+03         0.00000E+00
    0.23683E+03         0.17618E+03         0.00000E+00
    0.00000E+00         0.00000E+00        -0.52139E+03
 
   -0.18956E+04         0.37070E+03         0.00000E+00
    0.37070E+03         0.12963E+03         0.00000E+00
    0.00000E+00         0.00000E+00        -0.52979E+03
 
   -0.18424E+04         0.50614E+03         0.00000E+00
    0.50614E+03         0.71720E+02         0.00000E+00
    0.00000E+00         0.00000E+00        -0.53120E+03
 
   -0.17537E+04         0.64064E+03         0.00000E+00
    0.64064E+03         0.25118E+01         0.00000E+00
    0.00000E+00         0.00000E+00        -0.52535E+03
 
   -0.16289E+04         0.77162E+03         0.00000E+00
    0.77162E+03        -0.77856E+02         0.00000E+00
    0.00000E+00         0.00000E+00        -0.51202E+03
 
   -0.14677E+04         0.89645E+03         0.00000E+00
    0.89645E+03        -0.16917E+03         0.00000E+00
    0.00000E+00         0.00000E+00        -0.49106E+03
 
   -0.12700E+04         0.10123E+04         0.00000E+00
    0.10123E+04        -0.27115E+03         0.00000E+00
    0.00000E+00         0.00000E+00        -0.46236E+03
 
   -0.10361E+04         0.11163E+04         0.00000E+00
    0.11163E+04        -0.38339E+03         0.00000E+00
    0.00000E+00         0.00000E+00        -0.42586E+03
 
   -0.76657E+03         0.12051E+04         0.00000E+00
    0.12051E+04        -0.50536E+03         0.00000E+00
    0.00000E+00         0.00000E+00        -0.38158E+03
 
   -0.46233E+03         0.12753E+04         0.00000E+00
    0.12753E+04        -0.63633E+03         0.00000E+00
    0.00000E+00         0.00000E+00        -0.32960E+03
 
   -0.21837E+02        -0.73289E+02         0.00000E+00
   -0.73289E+02         0.28366E+01         0.00000E+00
    0.00000E+00         0.00000E+00        -0.57002E+01
 
   -0.15568E+03        -0.19988E+03         0.00000E+00
   -0.19988E+03         0.16128E+02         0.00000E+00
    0.00000E+00         0.00000E+00        -0.41866E+02
 
   -0.30987E+03        -0.29978E+03         0.00000E+00
   -0.29978E+03         0.39609E+02         0.00000E+00
    0.00000E+00         0.00000E+00        -0.81079E+02
 
   -0.47796E+03        -0.37291E+03         0.00000E+00
   -0.37291E+03         0.70110E+02         0.00000E+00
    0.00000E+00         0.00000E+00        -0.12236E+03
 
   -0.65379E+03        -0.41977E+03         0.00000E+00
   -0.41977E+03         0.10465E+03         0.00000E+00
    0.00000E+00         0.00000E+00        -0.16474E+03
 
   -0.83158E+03        -0.44134E+03         0.00000E+00
   -0.44134E+03         0.14049E+03         0.00000E+00
    0.00000E+00         0.00000E+00        -0.20733E+03
 
   -0.10059E+04        -0.43898E+03         0.00000E+00
   -0.43898E+03         0.17517E+03         0.00000E+00
    0.00000E+00         0.00000E+00        -0.24923E+03
 
   -0.11719E+04        -0.41439E+03         0.00000E+00
   -0.41439E+03         0.20650E+03         0.00000E+00
    0.00000E+00         0.00000E+00        -0.28964E+03
 
   -0.13252E+04        -0.36952E+03         0.00000E+00
   -0.36952E+03         0.23260E+03         0.00000E+00
    0.00000E+00         0.00000E+00        -0.32778E+03
 
   -0.14617E+04        -0.30652E+03         0.00000E+00
   -0.30652E+03         0.25190E+03         0.00000E+00
    0.00000E+00         0.00000E+00        -0.36293E+03
 
   -0.15780E+04        -0.22765E+03         0.00000E+00
   -0.22765E+03         0.26311E+03         0.00000E+00
    0.00000E+00         0.00000E+00        -0.39446E+03
 
   -0.16711E+04        -0.13525E+03         0.00000E+00
   -0.13525E+03         0.26520E+03         0.00000E+00
    0.00000E+00         0.00000E+00        -0.42177E+03
 
   -0.17384E+04        -0.31714E+02         0.00000E+00
   -0.31714E+02         0.25740E+03         0.00000E+00
    0.00000E+00         0.00000E+00        -0.44431E+03
 
   -0.17779E+04         0.80576E+02         0.00000E+00
    0.80576E+02         0.23913E+03         0.00000E+00
    0.00000E+00         0.00000E+00        -0.46162E+03
 
   -0.17876E+04         0.19922E+03         0.00000E+00
    0.19922E+03         0.21002E+03         0.00000E+00
    0.00000E+00         0.00000E+00        -0.47328E+03
 
   -0.17663E+04         0.32183E+03         0.00000E+00
    0.32183E+03         0.16985E+03         0.00000E+00
    0.00000E+00         0.00000E+00        -0.47893E+03
 
   -0.17127E+04         0.44601E+03         0.00000E+00
    0.44601E+03         0.11852E+03         0.00000E+00
    0.00000E+00         0.00000E+00        -0.47827E+03
 
   -0.16262E+04         0.56934E+03         0.00000E+00
    0.56934E+03         0.56065E+02         0.00000E+00
    0.00000E+00         0.00000E+00        -0.47104E+03
 
   -0.15061E+04         0.68933E+03         0.00000E+00
    0.68933E+03        -0.17377E+02         0.00000E+00
    0.00000E+00         0.00000E+00        -0.45705E+03
 
   -0.13523E+04         0.80344E+03         0.00000E+00
    0.80344E+03        -0.10157E+03         0.00000E+00
    0.00000E+00         0.00000E+00        -0.43616E+03
 
   -0.11648E+04         0.90897E+03         0.00000E+00
    0.90897E+03        -0.19614E+03         0.00000E+00
    0.00000E+00         0.00000E+00        -0.40829E+03
 
   -0.94414E+03         0.10031E+04         0.00000E+00
    0.10031E+04        -0.30062E+03         0.00000E+00
    0.00000E+00         0.00000E+00        -0.37343E+03
 
   -0.69100E+03         0.10828E+04         0.00000E+00
    0.10828E+04        -0.41432E+03         0.00000E+00
    0.00000E+00         0.00000E+00        -0.33160E+03
 
   -0.40666E+03         0.11448E+04         0.00000E+00
    0.11448E+04        -0.53638E+03         0.00000E+00
    0.00000E+00         0.00000E+00        -0.28291E+03
 
   -0.15491E+03        -0.66247E+02         0.00000E+00
   -0.66247E+02         0.27151E+01         0.00000E+00
    0.00000E+00         0.00000E+00        -0.45659E+02
 
   -0.26391E+03        -0.18119E+03         0.00000E+00
   -0.18119E+03         0.15506E+02         0.00000E+00
    0.00000E+00         0.00000E+00        -0.74522E+02
 
   -0.39284E+03        -0.27254E+03         0.00000E+00
   -0.27254E+03         0.38268E+02         0.00000E+00
    0.00000E+00         0.00000E+00        -0.10637E+03
 
   -0.53580E+03        -0.34010E+03         0.00000E+00
   -0.34010E+03         0.68088E+02         0.00000E+00
    0.00000E+00         0.00000E+00        -0.14032E+03
 
   -0.68714E+03        -0.38415E+03         0.00000E+00
   -0.38415E+03         0.10220E+03         0.00000E+00
    0.00000E+00         0.00000E+00        -0.17548E+03
 
   -0.84147E+03        -0.40544E+03         0.00000E+00
   -0.40544E+03         0.13805E+03         0.00000E+00
    0.00000E+00         0.00000E+00        -0.21103E+03
 
   -0.99379E+03        -0.40508E+03         0.00000E+00
   -0.40508E+03         0.17328E+03         0.00000E+00
    0.00000E+00         0.00000E+00        -0.24615E+03
 
   -0.11395E+04        -0.38449E+03         0.00000E+00
   -0.38449E+03         0.20580E+03         0.00000E+00
    0.00000E+00         0.00000E+00        -0.28010E+03
 
   -0.12743E+04        -0.34535E+03         0.00000E+00
   -0.34535E+03         0.23376E+03         0.00000E+00
    0.00000E+00         0.00000E+00        -0.31215E+03
 
   -0.13944E+04        -0.28950E+03         0.00000E+00
   -0.28950E+03         0.25559E+03         0.00000E+00
    0.00000E+00         0.00000E+00        -0.34164E+03
 
   -0.14965E+04        -0.21897E+03         0.00000E+00
   -0.21897E+03         0.26998E+03         0.00000E+00
    0.00000E+00         0.00000E+00        -0.36796E+03
 
   -0.15777E+04        -0.13584E+03         0.00000E+00
   -0.13584E+03         0.27584E+03         0.00000E+00
    0.00000E+00         0.00000E+00        -0.39056E+03
 
   -0.16354E+04        -0.42269E+02         0.00000E+00
   -0.42269E+02         0.27233E+03         0.00000E+00
    0.00000E+00         0.00000E+00        -0.40892E+03
 
   -0.16675E+04         0.59541E+02         0.00000E+00
    0.59541E+02         0.25881E+03         0.00000E+00
    0.00000E+00         0.00000E+00        -0.42260E+03
 
   -0.16722E+04         0.16737E+03         0.00000E+00
    0.16737E+03         0.23482E+03         0.00000E+00
    0.00000E+00         0.00000E+00        -0.43121E+03
 
   -0.16481E+04         0.27899E+03         0.00000E+00
    0.27899E+03         0.20010E+03         0.00000E+00
    0.00000E+00         0.00000E+00        -0.43441E+03
 
   -0.15942E+04         0.39213E+03         0.00000E+00
    0.39213E+03         0.15449E+03         0.00000E+00
    0.00000E+00         0.00000E+00        -0.43192E+03
 
   -0.15097E+04         0.50449E+03         0.00000E+00
    0.50449E+03         0.98009E+02         0.00000E+00
    0.00000E+00         0.00000E+00        -0.42350E+03
 
   -0.13941E+04         0.61372E+03         0.00000E+00
    0.61372E+03         0.30787E+02         0.00000E+00
    0.00000E+00         0.00000E+00        -0.40899E+03
 
   -0.12473E+04         0.71737E+03         0.00000E+00
    0.71737E+03        -0.46906E+02         0.00000E+00
    0.00000E+00         0.00000E+00        -0.38826E+03
 
   -0.10695E+04         0.81291E+03         0.00000E+00
    0.81291E+03        -0.13466E+03         0.00000E+00
    0.00000E+00         0.00000E+00        -0.36126E+03
 
   -0.86138E+03         0.89766E+03         0.00000E+00
    0.89766E+03        -0.23189E+03         0.00000E+00
    0.00000E+00         0.00000E+00        -0.32798E+03
 
   -0.62380E+03         0.96880E+03         0.00000E+00
    0.96880E+03        -0.33785E+03         0.00000E+00
    0.00000E+00         0.00000E+00        -0.28849E+03
 
   -0.35822E+03         0.10233E+04         0.00000E+00
    0.10233E+04        -0.45154E+03         0.00000E+00
    0.00000E+00         0.00000E+00        -0.24293E+03
 
   -0.27501E+03        -0.59510E+02         0.00000E+00
   -0.59510E+02         0.25913E+01         0.00000E+00
    0.00000E+00         0.00000E+00        -0.81725E+02
 
   -0.36219E+03        -0.16319E+03         0.00000E+00
   -0.16319E+03         0.14859E+02         0.00000E+00
    0.00000E+00         0.00000E+00        -0.10420E+03
 
   -0.46877E+03        -0.24612E+03         0.00000E+00
   -0.24612E+03         0.36826E+02         0.00000E+00
    0.00000E+00         0.00000E+00        -0.12958E+03
 
   -0.58937E+03        -0.30798E+03         0.00000E+00
   -0.30798E+03         0.65819E+02         0.00000E+00
    0.00000E+00         0.00000E+00        -0.15706E+03
 
   -0.71877E+03        -0.34892E+03         0.00000E+00
   -0.34892E+03         0.99276E+02         0.00000E+00
    0.00000E+00         0.00000E+00        -0.18585E+03
 
   -0.85201E+03        -0.36949E+03         0.00000E+00
   -0.36949E+03         0.13479E+03         0.00000E+00
    0.00000E+00         0.00000E+00        -0.21517E+03
 
   -0.98439E+03        -0.37059E+03         0.00000E+00
   -0.37059E+03         0.17013E+03         0.00000E+00
    0.00000E+00         0.00000E+00        -0.24428E+03
 
   -0.11116E+04        -0.35339E+03         0.00000E+00
   -0.35339E+03         0.20329E+03         0.00000E+00
    0.00000E+00         0.00000E+00        -0.27248E+03
 
   -0.12295E+04        -0.31933E+03         0.00000E+00
   -0.31933E+03         0.23247E+03         0.00000E+00
    0.00000E+00         0.00000E+00        -0.29910E+03
 
   -0.13346E+04        -0.27002E+03         0.00000E+00
   -0.27002E+03         0.25612E+03         0.00000E+00
    0.00000E+00         0.00000E+00        -0.32354E+03
 
   -0.14236E+04        -0.20723E+03         0.00000E+00
   -0.20723E+03         0.27289E+03         0.00000E+00
    0.00000E+00         0.00000E+00        -0.34521E+03
 
   -0.14937E+04        -0.13282E+03         0.00000E+00
   -0.13282E+03         0.28168E+03         0.00000E+00
    0.00000E+00         0.00000E+00        -0.36360E+03
 
   -0.15424E+04        -0.48742E+02         0.00000E+00
   -0.48742E+02         0.28161E+03         0.00000E+00
    0.00000E+00         0.00000E+00        -0.37822E+03
 
   -0.15675E+04         0.43011E+02         0.00000E+00
    0.43011E+02         0.27197E+03         0.00000E+00
    0.00000E+00         0.00000E+00        -0.38867E+03
 
   -0.15675E+04         0.14039E+03         0.00000E+00
    0.14039E+03         0.25227E+03         0.00000E+00
    0.00000E+00         0.00000E+00        -0.39457E+03
 
   -0.15409E+04         0.24134E+03         0.00000E+00
    0.24134E+03         0.22218E+03         0.00000E+00
    0.00000E+00         0.00000E+00        -0.39561E+03
 
   -0.14866E+04         0.34372E+03         0.00000E+00
    0.34372E+03         0.18153E+03         0.00000E+00
    0.00000E+00         0.00000E+00        -0.39151E+03
 
   -0.14039E+04         0.44539E+03         0.00000E+00
    0.44539E+03         0.13030E+03         0.00000E+00
    0.00000E+00         0.00000E+00        -0.38209E+03
 
   -0.12925E+04         0.54414E+03         0.00000E+00
    0.54414E+03         0.68636E+02         0.00000E+00
    0.00000E+00         0.00000E+00        -0.36717E+03
 
   -0.11524E+04         0.63766E+03         0.00000E+00
    0.63766E+03        -0.31745E+01         0.00000E+00
    0.00000E+00         0.00000E+00        -0.34666E+03
 
   -0.98373E+03         0.72359E+03         0.00000E+00
    0.72359E+03        -0.84675E+02         0.00000E+00
    0.00000E+00         0.00000E+00        -0.32052E+03
 
   -0.78736E+03         0.79943E+03         0.00000E+00
    0.79943E+03        -0.17523E+03         0.00000E+00
    0.00000E+00         0.00000E+00        -0.28878E+03
 
   -0.56435E+03         0.86258E+03         0.00000E+00
    0.86258E+03        -0.27399E+03         0.00000E+00
    0.00000E+00         0.00000E+00        -0.25150E+03
 
   -0.31628E+03         0.91029E+03         0.00000E+00
    0.91029E+03        -0.37989E+03         0.00000E+00
    0.00000E+00         0.00000E+00        -0.20885E+03
 
   -0.38266E+03        -0.53082E+02         0.00000E+00
   -0.53082E+02         0.24682E+01         0.00000E+00
    0.00000E+00         0.00000E+00        -0.11406E+03
 
   -0.45077E+03        -0.14591E+03         0.00000E+00
   -0.14591E+03         0.14204E+02         0.00000E+00
    0.00000E+00         0.00000E+00        -0.13097E+03
 
   -0.53768E+03        -0.22058E+03         0.00000E+00
   -0.22058E+03         0.35338E+02         0.00000E+00
    0.00000E+00         0.00000E+00        -0.15070E+03
 
   -0.63848E+03        -0.27671E+03         0.00000E+00
   -0.27671E+03         0.63411E+02         0.00000E+00
    0.00000E+00         0.00000E+00        -0.17252E+03
 
   -0.74837E+03        -0.31433E+03         0.00000E+00
   -0.31433E+03         0.96044E+02         0.00000E+00
    0.00000E+00         0.00000E+00        -0.19570E+03
 
   -0.86273E+03        -0.33383E+03         0.00000E+00
   -0.33383E+03         0.13098E+03         0.00000E+00
    0.00000E+00         0.00000E+00        -0.21953E+03
 
   -0.97719E+03        -0.33593E+03         0.00000E+00
   -0.33593E+03         0.16610E+03         0.00000E+00
    0.00000E+00         0.00000E+00        -0.24333E+03
 
   -0.10876E+04        -0.32161E+03         0.00000E+00
   -0.32161E+03         0.19948E+03         0.00000E+00
    0.00000E+00         0.00000E+00        -0.26645E+03
 
   -0.11903E+04        -0.29209E+03         0.00000E+00
   -0.29209E+03         0.22938E+03         0.00000E+00
    0.00000E+00         0.00000E+00        -0.28827E+03
 
   -0.12817E+04        -0.24876E+03         0.00000E+00
   -0.24876E+03         0.25425E+03         0.00000E+00
    0.00000E+00         0.00000E+00        -0.30822E+03
 
   -0.13587E+04        -0.19317E+03         0.00000E+00
   -0.19317E+03         0.27277E+03         0.00000E+00
    0.00000E+00         0.00000E+00        -0.32577E+03
 
   -0.14185E+04        -0.12698E+03         0.00000E+00
   -0.12698E+03         0.28382E+03         0.00000E+00
    0.00000E+00         0.00000E+00        -0.34042E+03
 
   -0.14589E+04        -0.51922E+02         0.00000E+00
   -0.51922E+02         0.28646E+03         0.00000E+00
    0.00000E+00         0.00000E+00        -0.35173E+03
 
   -0.14777E+04         0.30194E+02         0.00000E+00
    0.30194E+02         0.27998E+03         0.00000E+00
    0.00000E+00         0.00000E+00        -0.35931E+03
 
   -0.14732E+04         0.11751E+03         0.00000E+00
    0.11751E+03         0.26384E+03         0.00000E+00
    0.00000E+00         0.00000E+00        -0.36282E+03
 
   -0.14442E+04         0.20812E+03         0.00000E+00
    0.20812E+03         0.23768E+03         0.00000E+00
    0.00000E+00         0.00000E+00        -0.36195E+03
 
   -0.13895E+04         0.30007E+03         0.00000E+00
    0.30007E+03         0.20129E+03         0.00000E+00
    0.00000E+00         0.00000E+00        -0.35647E+03
 
   -0.13086E+04         0.39137E+03         0.00000E+00
    0.39137E+03         0.15466E+03         0.00000E+00
    0.00000E+00         0.00000E+00        -0.34618E+03
 
   -0.12011E+04         0.47996E+03         0.00000E+00
    0.47996E+03         0.97935E+02         0.00000E+00
    0.00000E+00         0.00000E+00        -0.33096E+03
 
   -0.10671E+04         0.56371E+03         0.00000E+00
    0.56371E+03         0.31414E+02         0.00000E+00
    0.00000E+00         0.00000E+00        -0.31071E+03
 
   -0.90699E+03         0.64044E+03         0.00000E+00
    0.64044E+03        -0.44408E+02         0.00000E+00
    0.00000E+00         0.00000E+00        -0.28542E+03
 
   -0.72156E+03         0.70784E+03         0.00000E+00
    0.70784E+03        -0.12885E+03         0.00000E+00
    0.00000E+00         0.00000E+00        -0.25512E+03
 
   -0.51205E+03         0.76353E+03         0.00000E+00
    0.76353E+03        -0.22100E+03         0.00000E+00
    0.00000E+00         0.00000E+00        -0.21991E+03
 
   -0.28013E+03         0.80503E+03         0.00000E+00
    0.80503E+03        -0.31973E+03         0.00000E+00
    0.00000E+00         0.00000E+00        -0.17996E+03
 
   -0.47843E+03        -0.46960E+02         0.00000E+00
   -0.46960E+02         0.23485E+01         0.00000E+00
    0.00000E+00         0.00000E+00        -0.14282E+03
 
   -0.52995E+03        -0.12935E+03         0.00000E+00
   -0.12935E+03         0.13560E+02         0.00000E+00
    0.00000E+00         0.00000E+00        -0.15492E+03
 
   -0.59966E+03        -0.19597E+03         0.00000E+00
   -0.19597E+03         0.33850E+02         0.00000E+00
    0.00000E+00         0.00000E+00        -0.16974E+03
 
   -0.68304E+03        -0.24639E+03         0.00000E+00
   -0.24639E+03         0.60956E+02         0.00000E+00
    0.00000E+00         0.00000E+00        -0.18663E+03
 
   -0.77568E+03        -0.28054E+03         0.00000E+00
   -0.28054E+03         0.92665E+02         0.00000E+00
    0.00000E+00         0.00000E+00        -0.20490E+03
 
   -0.87328E+03        -0.29870E+03         0.00000E+00
   -0.29870E+03         0.12685E+03         0.00000E+00
    0.00000E+00         0.00000E+00        -0.22393E+03
 
   -0.97175E+03        -0.30143E+03         0.00000E+00
   -0.30143E+03         0.16152E+03         0.00000E+00
    0.00000E+00         0.00000E+00        -0.24307E+03
 
   -0.10672E+04        -0.28956E+03         0.00000E+00
   -0.28956E+03         0.19480E+03         0.00000E+00
    0.00000E+00         0.00000E+00        -0.26173E+03
 
   -0.11561E+04        -0.26410E+03         0.00000E+00
   -0.26410E+03         0.22503E+03         0.00000E+00
    0.00000E+00         0.00000E+00        -0.27932E+03
 
   -0.12351E+04        -0.22627E+03         0.00000E+00
   -0.22627E+03         0.25068E+03         0.00000E+00
    0.00000E+00         0.00000E+00        -0.29533E+03
 
   -0.13012E+04        -0.17740E+03         0.00000E+00
   -0.17740E+03         0.27043E+03         0.00000E+00
    0.00000E+00         0.00000E+00        -0.30924E+03
 
   -0.13518E+04        -0.11895E+03         0.00000E+00
   -0.11895E+03         0.28317E+03         0.00000E+00
    0.00000E+00         0.00000E+00        -0.32060E+03
 
   -0.13846E+04        -0.52472E+02         0.00000E+00
   -0.52472E+02         0.28795E+03         0.00000E+00
    0.00000E+00         0.00000E+00        -0.32899E+03
 
   -0.13975E+04         0.20420E+02         0.00000E+00
    0.20420E+02         0.28401E+03         0.00000E+00
    0.00000E+00         0.00000E+00        -0.33405E+03
 
   -0.13890E+04         0.98046E+02         0.00000E+00
    0.98046E+02         0.27081E+03         0.00000E+00
    0.00000E+00         0.00000E+00        -0.33545E+03
 
   -0.13577E+04         0.17868E+03         0.00000E+00
    0.17868E+03         0.24795E+03         0.00000E+00
    0.00000E+00         0.00000E+00        -0.33293E+03
 
   -0.13027E+04         0.26054E+03         0.00000E+00
    0.26054E+03         0.21522E+03         0.00000E+00
    0.00000E+00         0.00000E+00        -0.32625E+03
 
   -0.12234E+04         0.34181E+03         0.00000E+00
    0.34181E+03         0.17260E+03         0.00000E+00
    0.00000E+00         0.00000E+00        -0.31524E+03
 
   -0.11195E+04         0.42059E+03         0.00000E+00
    0.42059E+03         0.12023E+03         0.00000E+00
    0.00000E+00         0.00000E+00        -0.29979E+03
 
   -0.99119E+03         0.49496E+03         0.00000E+00
    0.49496E+03         0.58423E+02         0.00000E+00
    0.00000E+00         0.00000E+00        -0.27983E+03
 
   -0.83889E+03         0.56289E+03         0.00000E+00
    0.56289E+03        -0.12288E+02         0.00000E+00
    0.00000E+00         0.00000E+00        -0.25535E+03
 
   -0.66350E+03         0.62231E+03         0.00000E+00
    0.62231E+03        -0.91185E+02         0.00000E+00
    0.00000E+00         0.00000E+00        -0.22641E+03
 
   -0.46634E+03         0.67106E+03         0.00000E+00
    0.67106E+03        -0.17733E+03         0.00000E+00
    0.00000E+00         0.00000E+00        -0.19310E+03
 
   -0.24918E+03         0.70691E+03         0.00000E+00
    0.70691E+03        -0.26953E+03         0.00000E+00
    0.00000E+00         0.00000E+00        -0.15561E+03
 
   -0.56284E+03        -0.41131E+02         0.00000E+00
   -0.41131E+02         0.22345E+01         0.00000E+00
    0.00000E+00         0.00000E+00        -0.16818E+03
 
   -0.60005E+03        -0.11352E+03         0.00000E+00
   -0.11352E+03         0.12941E+02         0.00000E+00
    0.00000E+00         0.00000E+00        -0.17613E+03
 
   -0.65482E+03        -0.17231E+03         0.00000E+00
   -0.17231E+03         0.32405E+02         0.00000E+00
    0.00000E+00         0.00000E+00        -0.18673E+03
 
   -0.72301E+03        -0.21706E+03         0.00000E+00
   -0.21706E+03         0.58537E+02         0.00000E+00
    0.00000E+00         0.00000E+00        -0.19934E+03
 
   -0.80052E+03        -0.24765E+03         0.00000E+00
   -0.24765E+03         0.89275E+02         0.00000E+00
    0.00000E+00         0.00000E+00        -0.21337E+03
 
   -0.88336E+03        -0.26426E+03         0.00000E+00
   -0.26426E+03         0.12262E+03         0.00000E+00
    0.00000E+00         0.00000E+00        -0.22822E+03
 
   -0.96770E+03        -0.26733E+03         0.00000E+00
   -0.26733E+03         0.15666E+03         0.00000E+00
    0.00000E+00         0.00000E+00        -0.24331E+03
 
   -0.10499E+04        -0.25754E+03         0.00000E+00
   -0.25754E+03         0.18964E+03         0.00000E+00
    0.00000E+00         0.00000E+00        -0.25808E+03
 
   -0.11265E+04        -0.23574E+03         0.00000E+00
   -0.23574E+03         0.21990E+03         0.00000E+00
    0.00000E+00         0.00000E+00        -0.27199E+03
 
   -0.11944E+04        -0.20297E+03         0.00000E+00
   -0.20297E+03         0.24598E+03         0.00000E+00
    0.00000E+00         0.00000E+00        -0.28454E+03
 
   -0.12508E+04        -0.16038E+03         0.00000E+00
   -0.16038E+03         0.26657E+03         0.00000E+00
    0.00000E+00         0.00000E+00        -0.29527E+03
 
   -0.12931E+04        -0.10925E+03         0.00000E+00
   -0.10925E+03         0.28055E+03         0.00000E+00
    0.00000E+00         0.00000E+00        -0.30376E+03
 
   -0.13190E+04        -0.50941E+02         0.00000E+00
   -0.50941E+02         0.28697E+03         0.00000E+00
    0.00000E+00         0.00000E+00        -0.30960E+03
 
   -0.13266E+04         0.13119E+02         0.00000E+00
    0.13119E+02         0.28508E+03         0.00000E+00
    0.00000E+00         0.00000E+00        -0.31246E+03
 
   -0.13144E+04         0.81431E+02         0.00000E+00
    0.81431E+02         0.27428E+03         0.00000E+00
    0.00000E+00         0.00000E+00        -0.31204E+03
 
   -0.12811E+04         0.15245E+03         0.00000E+00
    0.15245E+03         0.25419E+03         0.00000E+00
    0.00000E+00         0.00000E+00        -0.30808E+03
 
   -0.12258E+04         0.22457E+03         0.00000E+00
    0.22457E+03         0.22458E+03         0.00000E+00
    0.00000E+00         0.00000E+00        -0.30037E+03
 
   -0.11480E+04         0.29615E+03         0.00000E+00
    0.29615E+03         0.18541E+03         0.00000E+00
    0.00000E+00         0.00000E+00        -0.28876E+03
 
   -0.10474E+04         0.36549E+03         0.00000E+00
    0.36549E+03         0.13685E+03         0.00000E+00
    0.00000E+00         0.00000E+00        -0.27315E+03
 
   -0.92418E+03         0.43083E+03         0.00000E+00
    0.43083E+03         0.79217E+02         0.00000E+00
    0.00000E+00         0.00000E+00        -0.25349E+03
 
   -0.77898E+03         0.49038E+03         0.00000E+00
    0.49038E+03         0.13061E+02         0.00000E+00
    0.00000E+00         0.00000E+00        -0.22978E+03
 
   -0.61270E+03         0.54225E+03         0.00000E+00
    0.54225E+03        -0.60873E+02         0.00000E+00
    0.00000E+00         0.00000E+00        -0.20207E+03
 
   -0.42672E+03         0.58453E+03         0.00000E+00
    0.58453E+03        -0.14161E+03         0.00000E+00
    0.00000E+00         0.00000E+00        -0.17050E+03
 
   -0.22286E+03         0.61525E+03         0.00000E+00
    0.61525E+03        -0.22793E+03         0.00000E+00
    0.00000E+00         0.00000E+00        -0.13524E+03
 
   -0.63641E+03        -0.35579E+02         0.00000E+00
   -0.35579E+02         0.21285E+01         0.00000E+00
    0.00000E+00         0.00000E+00        -0.19029E+03
 
   -0.66140E+03        -0.98363E+02         0.00000E+00
   -0.98363E+02         0.12360E+02         0.00000E+00
    0.00000E+00         0.00000E+00        -0.19471E+03
 
   -0.70332E+03        -0.14956E+03         0.00000E+00
   -0.14956E+03         0.31037E+02         0.00000E+00
    0.00000E+00         0.00000E+00        -0.20169E+03
 
   -0.75838E+03        -0.18872E+03         0.00000E+00
   -0.18872E+03         0.56225E+02         0.00000E+00
    0.00000E+00         0.00000E+00        -0.21065E+03
 
   -0.82277E+03        -0.21570E+03         0.00000E+00
   -0.21570E+03         0.85991E+02         0.00000E+00
    0.00000E+00         0.00000E+00        -0.22103E+03
 
   -0.89276E+03        -0.23061E+03         0.00000E+00
   -0.23061E+03         0.11845E+03         0.00000E+00
    0.00000E+00         0.00000E+00        -0.23229E+03
 
   -0.96474E+03        -0.23378E+03         0.00000E+00
   -0.23378E+03         0.15179E+03         0.00000E+00
    0.00000E+00         0.00000E+00        -0.24389E+03
 
   -0.10353E+04        -0.22576E+03         0.00000E+00
   -0.22576E+03         0.18430E+03         0.00000E+00
    0.00000E+00         0.00000E+00        -0.25529E+03
 
   -0.11011E+04        -0.20728E+03         0.00000E+00
   -0.20728E+03         0.21441E+03         0.00000E+00
    0.00000E+00         0.00000E+00        -0.26602E+03
 
   -0.11593E+04        -0.17919E+03         0.00000E+00
   -0.17919E+03         0.24066E+03         0.00000E+00
    0.00000E+00         0.00000E+00        -0.27559E+03
 
   -0.12070E+04        -0.14250E+03         0.00000E+00
   -0.14250E+03         0.26178E+03         0.00000E+00
    0.00000E+00         0.00000E+00        -0.28358E+03
 
   -0.12419E+04        -0.98306E+02         0.00000E+00
   -0.98306E+02         0.27665E+03         0.00000E+00
    0.00000E+00         0.00000E+00        -0.28957E+03
 
   -0.12617E+04        -0.47782E+02         0.00000E+00
   -0.47782E+02         0.28433E+03         0.00000E+00
    0.00000E+00         0.00000E+00        -0.29322E+03
 
   -0.12646E+04         0.78132E+01         0.00000E+00
    0.78132E+01         0.28404E+03         0.00000E+00
    0.00000E+00         0.00000E+00        -0.29418E+03
 
   -0.12491E+04         0.67167E+02         0.00000E+00
    0.67167E+02         0.27521E+03         0.00000E+00
    0.00000E+00         0.00000E+00        -0.29218E+03
 
   -0.12140E+04         0.12891E+03         0.00000E+00
    0.12891E+03         0.25741E+03         0.00000E+00
    0.00000E+00         0.00000E+00        -0.28699E+03
 
   -0.11585E+04         0.19163E+03         0.00000E+00
    0.19163E+03         0.23043E+03         0.00000E+00
    0.00000E+00         0.00000E+00        -0.27842E+03
 
   -0.10819E+04         0.25386E+03         0.00000E+00
    0.25386E+03         0.19423E+03         0.00000E+00
    0.00000E+00         0.00000E+00        -0.26631E+03
 
   -0.98428E+03         0.31410E+03         0.00000E+00
    0.31410E+03         0.14896E+03         0.00000E+00
    0.00000E+00         0.00000E+00        -0.25060E+03
 
   -0.86572E+03         0.37080E+03         0.00000E+00
    0.37080E+03         0.94975E+02         0.00000E+00
    0.00000E+00         0.00000E+00        -0.23122E+03
 
   -0.72686E+03         0.42233E+03         0.00000E+00
    0.42233E+03         0.32827E+02         0.00000E+00
    0.00000E+00         0.00000E+00        -0.20821E+03
 
   -0.56871E+03         0.46708E+03         0.00000E+00
    0.46708E+03        -0.36717E+02         0.00000E+00
    0.00000E+00         0.00000E+00        -0.18163E+03
 
   -0.39270E+03         0.50333E+03         0.00000E+00
    0.50333E+03        -0.11266E+03         0.00000E+00
    0.00000E+00         0.00000E+00        -0.15161E+03
 
   -0.20066E+03         0.52936E+03         0.00000E+00
    0.52936E+03        -0.19377E+03         0.00000E+00
    0.00000E+00         0.00000E+00        -0.11833E+03
 
   -0.69963E+03        -0.30283E+02         0.00000E+00
   -0.30283E+02         0.20321E+01         0.00000E+00
    0.00000E+00         0.00000E+00        -0.20928E+03
 
   -0.71429E+03        -0.83847E+02         0.00000E+00
   -0.83847E+02         0.11829E+02         0.00000E+00
    0.00000E+00         0.00000E+00        -0.21074E+03
 
   -0.74532E+03        -0.12768E+03         0.00000E+00
   -0.12768E+03         0.29779E+02         0.00000E+00
    0.00000E+00         0.00000E+00        -0.21466E+03
 
   -0.78917E+03        -0.16135E+03         0.00000E+00
   -0.16135E+03         0.54078E+02         0.00000E+00
    0.00000E+00         0.00000E+00        -0.22053E+03
 
   -0.84232E+03        -0.18470E+03         0.00000E+00
   -0.18470E+03         0.82915E+02         0.00000E+00
    0.00000E+00         0.00000E+00        -0.22782E+03
 
   -0.90127E+03        -0.19778E+03         0.00000E+00
   -0.19778E+03         0.11450E+03         0.00000E+00
    0.00000E+00         0.00000E+00        -0.23603E+03
 
   -0.96262E+03        -0.20085E+03         0.00000E+00
   -0.20085E+03         0.14710E+03         0.00000E+00
    0.00000E+00         0.00000E+00        -0.24465E+03
 
   -0.10231E+04        -0.19436E+03         0.00000E+00
   -0.19436E+03         0.17908E+03         0.00000E+00
    0.00000E+00         0.00000E+00        -0.25320E+03
 
   -0.10796E+04        -0.17889E+03         0.00000E+00
   -0.17889E+03         0.20890E+03         0.00000E+00
    0.00000E+00         0.00000E+00        -0.26121E+03
 
   -0.11293E+04        -0.15518E+03         0.00000E+00
   -0.15518E+03         0.23515E+03         0.00000E+00
    0.00000E+00         0.00000E+00        -0.26825E+03
 
   -0.11695E+04        -0.12405E+03         0.00000E+00
   -0.12405E+03         0.25657E+03         0.00000E+00
    0.00000E+00         0.00000E+00        -0.27389E+03
 
   -0.11979E+04        -0.86442E+02         0.00000E+00
   -0.86442E+02         0.27206E+03         0.00000E+00
    0.00000E+00         0.00000E+00        -0.27776E+03
 
   -0.12124E+04        -0.43366E+02         0.00000E+00
   -0.43366E+02         0.28068E+03         0.00000E+00
    0.00000E+00         0.00000E+00        -0.27952E+03
 
   -0.12112E+04         0.41009E+01         0.00000E+00
    0.41009E+01         0.28165E+03         0.00000E+00
    0.00000E+00         0.00000E+00        -0.27887E+03
 
   -0.11929E+04         0.54825E+02         0.00000E+00
    0.54825E+02         0.27439E+03         0.00000E+00
    0.00000E+00         0.00000E+00        -0.27554E+03
 
   -0.11562E+04         0.10762E+03         0.00000E+00
    0.10762E+03         0.25848E+03         0.00000E+00
    0.00000E+00         0.00000E+00        -0.26931E+03
 
   -0.11004E+04         0.16126E+03         0.00000E+00
    0.16126E+03         0.23370E+03         0.00000E+00
    0.00000E+00         0.00000E+00        -0.26001E+03
 
   -0.10250E+04         0.21447E+03         0.00000E+00
    0.21447E+03         0.20000E+03         0.00000E+00
    0.00000E+00         0.00000E+00        -0.24750E+03
 
   -0.92993E+03         0.26594E+03         0.00000E+00
    0.26594E+03         0.15755E+03         0.00000E+00
    0.00000E+00         0.00000E+00        -0.23171E+03
 
   -0.81543E+03         0.31432E+03         0.00000E+00
    0.31432E+03         0.10671E+03         0.00000E+00
    0.00000E+00         0.00000E+00        -0.21262E+03
 
   -0.68216E+03         0.35821E+03         0.00000E+00
    0.35821E+03         0.48033E+02         0.00000E+00
    0.00000E+00         0.00000E+00        -0.19024E+03
 
   -0.53115E+03         0.39619E+03         0.00000E+00
    0.39619E+03        -0.17690E+02         0.00000E+00
    0.00000E+00         0.00000E+00        -0.16465E+03
 
   -0.36386E+03         0.42680E+03         0.00000E+00
    0.42680E+03        -0.89452E+02         0.00000E+00
    0.00000E+00         0.00000E+00        -0.13599E+03
 
   -0.18217E+03         0.44856E+03         0.00000E+00
    0.44856E+03        -0.16601E+03         0.00000E+00
    0.00000E+00         0.00000E+00        -0.10446E+03
 
   -0.75294E+03        -0.25216E+02         0.00000E+00
   -0.25216E+02         0.19468E+01         0.00000E+00
    0.00000E+00         0.00000E+00        -0.22530E+03
 
   -0.75903E+03        -0.69909E+02         0.00000E+00
   -0.69909E+02         0.11358E+02         0.00000E+00
    0.00000E+00         0.00000E+00        -0.22430E+03
 
   -0.78096E+03        -0.10659E+03         0.00000E+00
   -0.10659E+03         0.28654E+02         0.00000E+00
    0.00000E+00         0.00000E+00        -0.22569E+03
 
   -0.81543E+03        -0.13487E+03         0.00000E+00
   -0.13487E+03         0.52150E+02         0.00000E+00
    0.00000E+00         0.00000E+00        -0.22898E+03
 
   -0.85914E+03        -0.15458E+03         0.00000E+00
   -0.15458E+03         0.80130E+02         0.00000E+00
    0.00000E+00         0.00000E+00        -0.23370E+03
 
   -0.90878E+03        -0.16576E+03         0.00000E+00
   -0.16576E+03         0.11089E+03         0.00000E+00
    0.00000E+00         0.00000E+00        -0.23937E+03
 
   -0.96113E+03        -0.16858E+03         0.00000E+00
   -0.16858E+03         0.14278E+03         0.00000E+00
    0.00000E+00         0.00000E+00        -0.24551E+03
 
   -0.10131E+04        -0.16341E+03         0.00000E+00
   -0.16341E+03         0.17420E+03         0.00000E+00
    0.00000E+00         0.00000E+00        -0.25166E+03
 
   -0.10617E+04        -0.15071E+03         0.00000E+00
   -0.15071E+03         0.20366E+03         0.00000E+00
    0.00000E+00         0.00000E+00        -0.25740E+03
 
   -0.11041E+04        -0.13109E+03         0.00000E+00
   -0.13109E+03         0.22980E+03         0.00000E+00
    0.00000E+00         0.00000E+00        -0.26230E+03
 
   -0.11380E+04        -0.10524E+03         0.00000E+00
   -0.10524E+03         0.25137E+03         0.00000E+00
    0.00000E+00         0.00000E+00        -0.26598E+03
 
   -0.11609E+04        -0.73921E+02         0.00000E+00
   -0.73921E+02         0.26727E+03         0.00000E+00
    0.00000E+00         0.00000E+00        -0.26807E+03
 
   -0.11708E+04        -0.37992E+02         0.00000E+00
   -0.37992E+02         0.27658E+03         0.00000E+00
    0.00000E+00         0.00000E+00        -0.26826E+03
 
   -0.11661E+04         0.16461E+01         0.00000E+00
    0.16461E+01         0.27852E+03         0.00000E+00
    0.00000E+00         0.00000E+00        -0.26626E+03
 
   -0.11452E+04         0.44037E+02         0.00000E+00
    0.44037E+02         0.27251E+03         0.00000E+00
    0.00000E+00         0.00000E+00        -0.26181E+03
 
   -0.11072E+04         0.88180E+02         0.00000E+00
    0.88180E+02         0.25813E+03         0.00000E+00
    0.00000E+00         0.00000E+00        -0.25472E+03
 
   -0.10512E+04         0.13303E+03         0.00000E+00
    0.13303E+03         0.23515E+03         0.00000E+00
    0.00000E+00         0.00000E+00        -0.24482E+03
 
   -0.97683E+03         0.17752E+03         0.00000E+00
    0.17752E+03         0.20354E+03         0.00000E+00
    0.00000E+00         0.00000E+00        -0.23199E+03
 
   -0.88399E+03         0.22052E+03         0.00000E+00
    0.22052E+03         0.16346E+03         0.00000E+00
    0.00000E+00         0.00000E+00        -0.21616E+03
 
   -0.77299E+03         0.26090E+03         0.00000E+00
    0.26090E+03         0.11527E+03         0.00000E+00
    0.00000E+00         0.00000E+00        -0.19732E+03
 
   -0.64452E+03         0.29746E+03         0.00000E+00
    0.29746E+03         0.59543E+02         0.00000E+00
    0.00000E+00         0.00000E+00        -0.17549E+03
 
   -0.49964E+03         0.32902E+03         0.00000E+00
    0.32902E+03        -0.29216E+01         0.00000E+00
    0.00000E+00         0.00000E+00        -0.15077E+03
 
   -0.33984E+03         0.35433E+03         0.00000E+00
    0.35433E+03        -0.71111E+02         0.00000E+00
    0.00000E+00         0.00000E+00        -0.12329E+03
 
   -0.16701E+03         0.37215E+03         0.00000E+00
    0.37215E+03        -0.14378E+03         0.00000E+00
    0.00000E+00         0.00000E+00        -0.93235E+02
 
   -0.79674E+03        -0.20349E+02         0.00000E+00
   -0.20349E+02         0.18739E+01         0.00000E+00
    0.00000E+00         0.00000E+00        -0.23846E+03
 
   -0.79588E+03        -0.56477E+02         0.00000E+00
   -0.56477E+02         0.10953E+02         0.00000E+00
    0.00000E+00         0.00000E+00        -0.23548E+03
 
   -0.81040E+03        -0.86198E+02         0.00000E+00
   -0.86198E+02         0.27686E+02         0.00000E+00
    0.00000E+00         0.00000E+00        -0.23481E+03
 
   -0.83721E+03        -0.10918E+03         0.00000E+00
   -0.10918E+03         0.50481E+02         0.00000E+00
    0.00000E+00         0.00000E+00        -0.23602E+03
 
   -0.87318E+03        -0.12528E+03         0.00000E+00
   -0.12528E+03         0.77707E+02         0.00000E+00
    0.00000E+00         0.00000E+00        -0.23864E+03
 
   -0.91517E+03        -0.13448E+03         0.00000E+00
   -0.13448E+03         0.10773E+03         0.00000E+00
    0.00000E+00         0.00000E+00        -0.24223E+03
 
   -0.96011E+03        -0.13694E+03         0.00000E+00
   -0.13694E+03         0.13896E+03         0.00000E+00
    0.00000E+00         0.00000E+00        -0.24635E+03
 
   -0.10050E+04        -0.13292E+03         0.00000E+00
   -0.13292E+03         0.16985E+03         0.00000E+00
    0.00000E+00         0.00000E+00        -0.25055E+03
 
   -0.10471E+04        -0.12279E+03         0.00000E+00
   -0.12279E+03         0.19895E+03         0.00000E+00
    0.00000E+00         0.00000E+00        -0.25443E+03
 
   -0.10836E+04        -0.10704E+03         0.00000E+00
   -0.10704E+03         0.22491E+03         0.00000E+00
    0.00000E+00         0.00000E+00        -0.25759E+03
 
   -0.11121E+04        -0.86215E+02         0.00000E+00
   -0.86215E+02         0.24652E+03         0.00000E+00
    0.00000E+00         0.00000E+00        -0.25966E+03
 
   -0.11304E+04        -0.60940E+02         0.00000E+00
   -0.60940E+02         0.26269E+03         0.00000E+00
    0.00000E+00         0.00000E+00        -0.26031E+03
 
   -0.11365E+04        -0.31900E+02         0.00000E+00
   -0.31900E+02         0.27250E+03         0.00000E+00
    0.00000E+00         0.00000E+00        -0.25921E+03
 
   -0.11289E+04         0.16742E+00         0.00000E+00
    0.16742E+00         0.27517E+03         0.00000E+00
    0.00000E+00         0.00000E+00        -0.25611E+03
 
   -0.11060E+04         0.34484E+02         0.00000E+00
    0.34484E+02         0.27013E+03         0.00000E+00
    0.00000E+00         0.00000E+00        -0.25075E+03
 
   -0.10668E+04         0.70232E+02         0.00000E+00
    0.70232E+02         0.25696E+03         0.00000E+00
    0.00000E+00         0.00000E+00        -0.24296E+03
 
   -0.10107E+04         0.10656E+03         0.00000E+00
    0.10656E+03         0.23544E+03         0.00000E+00
    0.00000E+00         0.00000E+00        -0.23257E+03
 
   -0.93714E+03         0.14258E+03         0.00000E+00
    0.14258E+03         0.20552E+03         0.00000E+00
    0.00000E+00         0.00000E+00        -0.21949E+03
 
   -0.84617E+03         0.17738E+03         0.00000E+00
    0.17738E+03         0.16737E+03         0.00000E+00
    0.00000E+00         0.00000E+00        -0.20364E+03
 
   -0.73810E+03         0.21003E+03         0.00000E+00
    0.21003E+03         0.12136E+03         0.00000E+00
    0.00000E+00         0.00000E+00        -0.18502E+03
 
   -0.61364E+03         0.23955E+03         0.00000E+00
    0.23955E+03         0.68080E+02         0.00000E+00
    0.00000E+00         0.00000E+00        -0.16367E+03
 
   -0.47388E+03         0.26496E+03         0.00000E+00
    0.26496E+03         0.83165E+01         0.00000E+00
    0.00000E+00         0.00000E+00        -0.13967E+03
 
   -0.32031E+03         0.28527E+03         0.00000E+00
    0.28527E+03        -0.56906E+02         0.00000E+00
    0.00000E+00         0.00000E+00        -0.11317E+03
 
   -0.15485E+03         0.29946E+03         0.00000E+00
    0.29946E+03        -0.12634E+03         0.00000E+00
    0.00000E+00         0.00000E+00        -0.84355E+02
 
   -0.83135E+03        -0.15649E+02         0.00000E+00
   -0.15649E+02         0.18144E+01         0.00000E+00
    0.00000E+00         0.00000E+00        -0.24886E+03
 
   -0.82507E+03        -0.43471E+02         0.00000E+00
   -0.43471E+02         0.10622E+02         0.00000E+00
    0.00000E+00         0.00000E+00        -0.24433E+03
 
   -0.83377E+03        -0.66404E+02         0.00000E+00
   -0.66404E+02         0.26891E+02         0.00000E+00
    0.00000E+00         0.00000E+00        -0.24206E+03
 
   -0.85455E+03        -0.84182E+02         0.00000E+00
   -0.84182E+02         0.49106E+02         0.00000E+00
    0.00000E+00         0.00000E+00        -0.24163E+03
 
   -0.88442E+03        -0.96672E+02         0.00000E+00
   -0.96672E+02         0.75704E+02         0.00000E+00
    0.00000E+00         0.00000E+00        -0.24261E+03
 
   -0.92037E+03        -0.10387E+03         0.00000E+00
   -0.10387E+03         0.10511E+03         0.00000E+00
    0.00000E+00         0.00000E+00        -0.24458E+03
 
   -0.95944E+03        -0.10586E+03         0.00000E+00
   -0.10586E+03         0.13577E+03         0.00000E+00
    0.00000E+00         0.00000E+00        -0.24710E+03
 
   -0.99877E+03        -0.10286E+03         0.00000E+00
   -0.10286E+03         0.16620E+03         0.00000E+00
    0.00000E+00         0.00000E+00        -0.24977E+03
 
   -0.10356E+04        -0.95151E+02         0.00000E+00
   -0.95151E+02         0.19496E+03         0.00000E+00
    0.00000E+00         0.00000E+00        -0.25219E+03
 
   -0.10673E+04        -0.83085E+02         0.00000E+00
   -0.83085E+02         0.22073E+03         0.00000E+00
    0.00000E+00         0.00000E+00        -0.25398E+03
 
   -0.10916E+04        -0.67090E+02         0.00000E+00
   -0.67090E+02         0.24231E+03         0.00000E+00
    0.00000E+00         0.00000E+00        -0.25479E+03
 
   -0.11063E+04        -0.47647E+02         0.00000E+00
   -0.47647E+02         0.25864E+03         0.00000E+00
    0.00000E+00         0.00000E+00        -0.25429E+03
 
   -0.11094E+04        -0.25285E+02         0.00000E+00
   -0.25285E+02         0.26880E+03         0.00000E+00
    0.00000E+00         0.00000E+00        -0.25219E+03
 
   -0.10994E+04        -0.57127E+00         0.00000E+00
   -0.57127E+00         0.27201E+03         0.00000E+00
    0.00000E+00         0.00000E+00        -0.24822E+03
 
   -0.10749E+04         0.25889E+02         0.00000E+00
    0.25889E+02         0.26771E+03         0.00000E+00
    0.00000E+00         0.00000E+00        -0.24215E+03
 
   -0.10348E+04         0.53459E+02         0.00000E+00
    0.53459E+02         0.25547E+03         0.00000E+00
    0.00000E+00         0.00000E+00        -0.23381E+03
 
   -0.97856E+03         0.81478E+02         0.00000E+00
    0.81478E+02         0.23506E+03         0.00000E+00
    0.00000E+00         0.00000E+00        -0.22305E+03
 
   -0.90570E+03         0.10926E+03         0.00000E+00
    0.10926E+03         0.20647E+03         0.00000E+00
    0.00000E+00         0.00000E+00        -0.20977E+03
 
   -0.81623E+03         0.13608E+03         0.00000E+00
    0.13608E+03         0.16985E+03         0.00000E+00
    0.00000E+00         0.00000E+00        -0.19391E+03
 
   -0.71050E+03         0.16123E+03         0.00000E+00
    0.16123E+03         0.12557E+03         0.00000E+00
    0.00000E+00         0.00000E+00        -0.17548E+03
 
   -0.58925E+03         0.18394E+03         0.00000E+00
    0.18394E+03         0.74228E+02         0.00000E+00
    0.00000E+00         0.00000E+00        -0.15451E+03
 
   -0.45359E+03         0.20345E+03         0.00000E+00
    0.20345E+03         0.16616E+02         0.00000E+00
    0.00000E+00         0.00000E+00        -0.13109E+03
 
   -0.30501E+03         0.21900E+03         0.00000E+00
    0.21900E+03        -0.46240E+02         0.00000E+00
    0.00000E+00         0.00000E+00        -0.10538E+03
 
   -0.14543E+03         0.22978E+03         0.00000E+00
    0.22978E+03        -0.11309E+03         0.00000E+00
    0.00000E+00         0.00000E+00        -0.77556E+02
 
   -0.85707E+03        -0.11082E+02         0.00000E+00
   -0.11082E+02         0.17691E+01         0.00000E+00
    0.00000E+00         0.00000E+00        -0.25659E+03
 
   -0.84678E+03        -0.30804E+02         0.00000E+00
   -0.30804E+02         0.10370E+02         0.00000E+00
    0.00000E+00         0.00000E+00        -0.25092E+03
 
   -0.85119E+03        -0.47085E+02         0.00000E+00
   -0.47085E+02         0.26284E+02         0.00000E+00
    0.00000E+00         0.00000E+00        -0.24747E+03
 
   -0.86751E+03        -0.59727E+02         0.00000E+00
   -0.59727E+02         0.48052E+02         0.00000E+00
    0.00000E+00         0.00000E+00        -0.24584E+03
 
   -0.89285E+03        -0.68633E+02         0.00000E+00
   -0.68633E+02         0.74163E+02         0.00000E+00
    0.00000E+00         0.00000E+00        -0.24561E+03
 
   -0.92431E+03        -0.73788E+02         0.00000E+00
   -0.73788E+02         0.10309E+03         0.00000E+00
    0.00000E+00         0.00000E+00        -0.24637E+03
 
   -0.95902E+03        -0.75260E+02         0.00000E+00
   -0.75260E+02         0.13330E+03         0.00000E+00
    0.00000E+00         0.00000E+00        -0.24772E+03
 
   -0.99419E+03        -0.73184E+02         0.00000E+00
   -0.73184E+02         0.16335E+03         0.00000E+00
    0.00000E+00         0.00000E+00        -0.24925E+03
 
   -0.10271E+04        -0.67761E+02         0.00000E+00
   -0.67761E+02         0.19183E+03         0.00000E+00
    0.00000E+00         0.00000E+00        -0.25059E+03
 
   -0.10553E+04        -0.59241E+02         0.00000E+00
   -0.59241E+02         0.21743E+03         0.00000E+00
    0.00000E+00         0.00000E+00        -0.25137E+03
 
   -0.10765E+04        -0.47925E+02         0.00000E+00
   -0.47925E+02         0.23897E+03         0.00000E+00
    0.00000E+00         0.00000E+00        -0.25124E+03
 
   -0.10884E+04        -0.34153E+02         0.00000E+00
   -0.34153E+02         0.25539E+03         0.00000E+00
    0.00000E+00         0.00000E+00        -0.24990E+03
 
   -0.10893E+04        -0.18300E+02         0.00000E+00
   -0.18300E+02         0.26578E+03         0.00000E+00
    0.00000E+00         0.00000E+00        -0.24704E+03
 
   -0.10775E+04        -0.77051E+00         0.00000E+00
   -0.77051E+00         0.26937E+03         0.00000E+00
    0.00000E+00         0.00000E+00        -0.24243E+03
 
   -0.10517E+04         0.18005E+02         0.00000E+00
    0.18005E+02         0.26559E+03         0.00000E+00
    0.00000E+00         0.00000E+00        -0.23584E+03
 
   -0.10110E+04         0.37572E+02         0.00000E+00
    0.37572E+02         0.25402E+03         0.00000E+00
    0.00000E+00         0.00000E+00        -0.22710E+03
 
   -0.95465E+03         0.57457E+02         0.00000E+00
    0.57457E+02         0.23444E+03         0.00000E+00
    0.00000E+00         0.00000E+00        -0.21606E+03
 
   -0.88230E+03         0.77170E+02         0.00000E+00
    0.77170E+02         0.20682E+03         0.00000E+00
    0.00000E+00         0.00000E+00        -0.20264E+03
 
   -0.79395E+03         0.96201E+02         0.00000E+00
    0.96201E+02         0.17133E+03         0.00000E+00
    0.00000E+00         0.00000E+00        -0.18679E+03
 
   -0.68999E+03         0.11403E+03         0.00000E+00
    0.11403E+03         0.12834E+03         0.00000E+00
    0.00000E+00         0.00000E+00        -0.16849E+03
 
   -0.57116E+03         0.13012E+03         0.00000E+00
    0.13012E+03         0.78446E+02         0.00000E+00
    0.00000E+00         0.00000E+00        -0.14781E+03
 
   -0.43856E+03         0.14392E+03         0.00000E+00
    0.14392E+03         0.22443E+02         0.00000E+00
    0.00000E+00         0.00000E+00        -0.12484E+03
 
   -0.29373E+03         0.15488E+03         0.00000E+00
    0.15488E+03        -0.38643E+02         0.00000E+00
    0.00000E+00         0.00000E+00        -0.99711E+02
 
   -0.13855E+03         0.16246E+03         0.00000E+00
    0.16246E+03        -0.10356E+03         0.00000E+00
    0.00000E+00         0.00000E+00        -0.72633E+02
 
   -0.87409E+03        -0.66105E+01         0.00000E+00
   -0.66105E+01         0.17386E+01         0.00000E+00
    0.00000E+00         0.00000E+00        -0.26171E+03
 
   -0.86117E+03        -0.18383E+02         0.00000E+00
   -0.18383E+02         0.10199E+02         0.00000E+00
    0.00000E+00         0.00000E+00        -0.25529E+03
 
   -0.86276E+03        -0.28111E+02         0.00000E+00
   -0.28111E+02         0.25873E+02         0.00000E+00
    0.00000E+00         0.00000E+00        -0.25107E+03
 
   -0.87612E+03        -0.35674E+02         0.00000E+00
   -0.35674E+02         0.47339E+02         0.00000E+00
    0.00000E+00         0.00000E+00        -0.24864E+03
 
   -0.89847E+03        -0.41010E+02         0.00000E+00
   -0.41010E+02         0.73118E+02         0.00000E+00
    0.00000E+00         0.00000E+00        -0.24761E+03
 
   -0.92696E+03        -0.44109E+02         0.00000E+00
   -0.44109E+02         0.10171E+03         0.00000E+00
    0.00000E+00         0.00000E+00        -0.24757E+03
 
   -0.95878E+03        -0.45010E+02         0.00000E+00
   -0.45010E+02         0.13162E+03         0.00000E+00
    0.00000E+00         0.00000E+00        -0.24815E+03
 
   -0.99119E+03        -0.43791E+02         0.00000E+00
   -0.43791E+02         0.16141E+03         0.00000E+00
    0.00000E+00         0.00000E+00        -0.24893E+03
 
   -0.10216E+04        -0.40571E+02         0.00000E+00
   -0.40571E+02         0.18968E+03         0.00000E+00
    0.00000E+00         0.00000E+00        -0.24956E+03
 
   -0.10474E+04        -0.35498E+02         0.00000E+00
   -0.35498E+02         0.21516E+03         0.00000E+00
    0.00000E+00         0.00000E+00        -0.24967E+03
 
   -0.10664E+04        -0.28752E+02         0.00000E+00
   -0.28752E+02         0.23665E+03         0.00000E+00
    0.00000E+00         0.00000E+00        -0.24893E+03
 
   -0.10765E+04        -0.20535E+02         0.00000E+00
   -0.20535E+02         0.25312E+03         0.00000E+00
    0.00000E+00         0.00000E+00        -0.24702E+03
 
   -0.10759E+04        -0.11072E+02         0.00000E+00
   -0.11072E+02         0.26365E+03         0.00000E+00
    0.00000E+00         0.00000E+00        -0.24367E+03
 
   -0.10629E+04        -0.60350E+00         0.00000E+00
   -0.60350E+00         0.26748E+03         0.00000E+00
    0.00000E+00         0.00000E+00        -0.23864E+03
 
   -0.10364E+04         0.10611E+02         0.00000E+00
    0.10611E+02         0.26403E+03         0.00000E+00
    0.00000E+00         0.00000E+00        -0.23170E+03
 
   -0.99522E+03         0.22301E+02         0.00000E+00
    0.22301E+02         0.25290E+03         0.00000E+00
    0.00000E+00         0.00000E+00        -0.22269E+03
 
   -0.93880E+03         0.34181E+02         0.00000E+00
    0.34181E+02         0.23386E+03         0.00000E+00
    0.00000E+00         0.00000E+00        -0.21148E+03
 
   -0.86678E+03         0.45956E+02         0.00000E+00
    0.45956E+02         0.20689E+03         0.00000E+00
    0.00000E+00         0.00000E+00        -0.19797E+03
 
   -0.77919E+03         0.57322E+02         0.00000E+00
    0.57322E+02         0.17214E+03         0.00000E+00
    0.00000E+00         0.00000E+00        -0.18211E+03
 
   -0.67641E+03         0.67964E+02         0.00000E+00
    0.67964E+02         0.13001E+03         0.00000E+00
    0.00000E+00         0.00000E+00        -0.16392E+03
 
   -0.55918E+03         0.77563E+02         0.00000E+00
    0.77563E+02         0.81073E+02         0.00000E+00
    0.00000E+00         0.00000E+00        -0.14343E+03
 
   -0.42864E+03         0.85790E+02         0.00000E+00
    0.85790E+02         0.26139E+02         0.00000E+00
    0.00000E+00         0.00000E+00        -0.12075E+03
 
   -0.28629E+03         0.92315E+02         0.00000E+00
    0.92315E+02        -0.33769E+02         0.00000E+00
    0.00000E+00         0.00000E+00        -0.96018E+02
 
   -0.13404E+03         0.96807E+02         0.00000E+00
    0.96807E+02        -0.97405E+02         0.00000E+00
    0.00000E+00         0.00000E+00        -0.69435E+02
 
   -0.88257E+03        -0.21970E+01         0.00000E+00
   -0.21970E+01         0.17233E+01         0.00000E+00
    0.00000E+00         0.00000E+00        -0.26425E+03
 
   -0.86835E+03        -0.61111E+01         0.00000E+00
   -0.61111E+01         0.10114E+02         0.00000E+00
    0.00000E+00         0.00000E+00        -0.25747E+03
 
   -0.86852E+03        -0.93468E+01         0.00000E+00
   -0.93468E+01         0.25666E+02         0.00000E+00
    0.00000E+00         0.00000E+00        -0.25286E+03
 
   -0.88042E+03        -0.11864E+02         0.00000E+00
   -0.11864E+02         0.46979E+02         0.00000E+00
    0.00000E+00         0.00000E+00        -0.25003E+03
 
   -0.90128E+03        -0.13641E+02         0.00000E+00
   -0.13641E+02         0.72590E+02         0.00000E+00
    0.00000E+00         0.00000E+00        -0.24861E+03
 
   -0.92829E+03        -0.14675E+02         0.00000E+00
   -0.14675E+02         0.10101E+03         0.00000E+00
    0.00000E+00         0.00000E+00        -0.24818E+03
 
   -0.95867E+03        -0.14979E+02         0.00000E+00
   -0.14979E+02         0.13077E+03         0.00000E+00
    0.00000E+00         0.00000E+00        -0.24837E+03
 
   -0.98970E+03        -0.14577E+02         0.00000E+00
   -0.14577E+02         0.16042E+03         0.00000E+00
    0.00000E+00         0.00000E+00        -0.24878E+03
 
   -0.10188E+04        -0.13509E+02         0.00000E+00
   -0.13509E+02         0.18859E+03         0.00000E+00
    0.00000E+00         0.00000E+00        -0.24906E+03
 
   -0.10434E+04        -0.11825E+02         0.00000E+00
   -0.11825E+02         0.21400E+03         0.00000E+00
    0.00000E+00         0.00000E+00        -0.24883E+03
 
   -0.10614E+04        -0.95832E+01         0.00000E+00
   -0.95832E+01         0.23547E+03         0.00000E+00
    0.00000E+00         0.00000E+00        -0.24778E+03
 
   -0.10706E+04        -0.68520E+01         0.00000E+00
   -0.68520E+01         0.25195E+03         0.00000E+00
    0.00000E+00         0.00000E+00        -0.24560E+03
 
   -0.10692E+04        -0.37055E+01         0.00000E+00
   -0.37055E+01         0.26255E+03         0.00000E+00
    0.00000E+00         0.00000E+00        -0.24201E+03
 
   -0.10557E+04        -0.22432E+00         0.00000E+00
   -0.22432E+00         0.26649E+03         0.00000E+00
    0.00000E+00         0.00000E+00        -0.23676E+03
 
   -0.10287E+04         0.35055E+01         0.00000E+00
    0.35055E+01         0.26321E+03         0.00000E+00
    0.00000E+00         0.00000E+00        -0.22965E+03
 
   -0.98735E+03         0.73935E+01         0.00000E+00
    0.73935E+01         0.25230E+03         0.00000E+00
    0.00000E+00         0.00000E+00        -0.22051E+03
 
   -0.93089E+03         0.11345E+02         0.00000E+00
    0.11345E+02         0.23353E+03         0.00000E+00
    0.00000E+00         0.00000E+00        -0.20921E+03
 
   -0.85905E+03         0.15261E+02         0.00000E+00
    0.15261E+02         0.20687E+03         0.00000E+00
    0.00000E+00         0.00000E+00        -0.19565E+03
 
   -0.77184E+03         0.19041E+02         0.00000E+00
    0.19041E+02         0.17250E+03         0.00000E+00
    0.00000E+00         0.00000E+00        -0.17980E+03
 
   -0.66964E+03         0.22580E+02         0.00000E+00
    0.22580E+02         0.13079E+03         0.00000E+00
    0.00000E+00         0.00000E+00        -0.16166E+03
 
   -0.55322E+03         0.25770E+02         0.00000E+00
    0.25770E+02         0.82331E+02         0.00000E+00
    0.00000E+00         0.00000E+00        -0.14127E+03
 
   -0.42370E+03         0.28503E+02         0.00000E+00
    0.28503E+02         0.27931E+02         0.00000E+00
    0.00000E+00         0.00000E+00        -0.11873E+03
 
   -0.28260E+03         0.30669E+02         0.00000E+00
    0.30669E+02        -0.31389E+02         0.00000E+00
    0.00000E+00         0.00000E+00        -0.94196E+02
 
   -0.13182E+03         0.32158E+02         0.00000E+00
    0.32158E+02        -0.94383E+02         0.00000E+00
    0.00000E+00         0.00000E+00        -0.67860E+02
 
SCALARS stresss double 
LOOKUP_TABLE default
  -73065.3235689566     
  -56799.6379260709     
  -44044.9589065963     
  -35254.7482806801     
  -29142.5553799973     
  -24756.7235034935     
  -21519.2330533643     
  -19071.7729868367     
  -17186.7471157128     
  -15714.8227268799     
  -14555.1396015016     
  -13637.8276080293     
  -12913.4708648559     
  -12346.5666673646     
  -11911.3567745178     
  -11589.1101419283     
  -11366.3210746727     
  -11233.5027364797     
  -11184.3809430419     
  -11215.3677606787     
  -11325.2405538408     
  -11514.9819494372     
  -11787.7567445692     
  -12149.0173716040     
  -71021.9224136750     
  -51280.4629758975     
  -40161.7113569262     
  -32800.6841652527     
  -27547.6109647606     
  -23686.3837838671     
  -20774.9482303526     
  -18537.0998153021     
  -16791.0211712613     
  -15413.8153677381     
  -14320.2554348733     
  -13450.0089041164     
  -12759.6427783126     
  -12217.5033022009     
  -11800.3611938734     
  -11491.1737067888     
  -11277.5718172706     
  -11150.8314562247     
  -11105.1778757518     
  -11137.3278858109     
  -11246.2101606310     
  -11432.8274144050     
  -11700.2409580697     
  -12053.6711271561     
  -53304.7350831746     
  -39785.4484420192     
  -33263.0880348073     
  -28402.0933308350     
  -24662.9921911420     
  -21721.1487470070     
  -19390.8110690674     
  -17531.7468839692     
  -16040.1043805852     
  -14838.2791813813     
  -13868.2974403656     
  -13086.6888190783     
  -12460.7391512909     
  -11965.7692319342     
  -11583.1773294040     
  -11299.0352774929     
  -11103.0849557915     
  -10988.0260635114     
  -10949.0192142390     
  -10983.3523988958     
  -11090.2362942780     
  -11270.7068030702     
  -11527.6232211562     
  -11865.7587945271     
  -20603.6618314951     
  -25908.4896556784     
  -24837.2352669914     
  -22989.5501110135     
  -21002.9387280024     
  -19163.4472465962     
  -17548.7119907424     
  -16169.0525709760     
  -15006.8077980363     
  -14036.3929434295     
  -13232.0359177578     
  -12570.7527689267     
  -12033.1613335226     
  -11603.4340530010     
  -11268.9423993953     
  -11019.8352819457     
  -10848.6492463640     
  -10749.9852428580     
  -10720.2598882585     
  -10757.5289796289     
  -10861.3783372834     
  -11032.8777030301     
  -11274.5955268844     
  -11590.6752593467     
  -2649.44264166310     
  -13723.6674001356     
  -16971.5723260165     
  -17555.6814988578     
  -17147.9578662887     
  -16358.9081518383     
  -15464.0722428659     
  -14587.1159074991     
  -13782.2195206529     
  -13069.7956428420     
  -12454.2158323148     
  -11932.5534928177     
  -11498.9794767519     
  -11146.9464543253     
  -10870.2494142807     
  -10663.5132805290     
  -10522.3935686709     
  -10443.6394200266     
  -10425.0976072423     
  -10465.6990391819     
  -10565.4498508814     
  -10725.4390287033     
  -10947.8693273572     
  -11236.1156248628     
  -45.1510962030567     
  -6559.80676966547     
  -10938.8167917723     
  -12881.6545929680     
  -13570.2758081985     
  -13613.9216663537     
  -13338.9243996365     
  -12922.2103175818     
  -12459.9697931738     
  -12004.0525821117     
  -11581.6245312323     
  -11206.1307136694     
  -10883.4659230898     
  -10615.4862095479     
  -10402.0179778679     
  -10242.0116826310     
  -10134.2052300821     
  -10077.5059387115     
  -10071.2116731963     
  -10115.1413995737     
  -10209.7162503903     
  -10356.0150020018     
  -10555.8173992783     
  -10811.6419248865     
   1364.68215098989     
  -3402.08628739389     
  -6962.62453642138     
  -9280.89140362085     
  -10543.1652082851     
  -11137.1152142401     
  -11328.0166706123     
  -11287.5456164954     
  -11122.8704108446     
  -10900.0727375885     
  -10659.4941775128     
  -10425.4970622195     
  -10212.5871019081     
  -10029.2376959870     
  -9880.27981993584     
  -9768.39890885362     
  -9695.07556392285     
  -9661.17885622419     
  -9667.34169245550     
  -9714.19849815373     
  -9802.53470446453     
  -9933.37791441670     
  -10108.0476245142     
  -10328.1710573232     
   1956.43672721973     
  -1576.90611534890     
  -4511.91755925418     
  -6677.65036060002     
  -8134.44868228128     
  -9026.66860856378     
  -9524.82398674134     
  -9762.17016195141     
  -9834.59968915232     
  -9808.11793098902     
  -9727.23649073859     
  -9621.60960415687     
  -9510.84311379785     
  -9407.83348709692     
  -9321.04058671531     
  -9256.01923336916     
  -9216.44602377947     
  -9204.80534829900     
  -9222.84534229772     
  -9271.87721048331     
  -9352.96562798759     
  -9467.04003865920     
  -9614.94380984359     
  -9797.42825097925     
   2267.95468545486     
  -493.523878467993     
  -2899.38228696418     
  -4833.59063354250     
  -6278.02204547542     
  -7292.90029928609     
  -7966.95391990381     
  -8390.18204563531     
  -8637.12836087090     
  -8765.02302522835     
  -8816.00047359056     
  -8820.38428884794     
  -8799.70800599258     
  -8769.14482052088     
  -8739.34141947839     
  -8717.75640530767     
  -8709.61740767803     
  -8718.59531119544     
  -8747.27174352095     
  -8797.45527148957     
  -8870.38475713114     
  -8966.84490127879     
  -9087.20828731430     
  -9231.40920521426     
   2415.85239347901     
   191.887612520580     
  -1811.36675324445     
  -3506.02227898161     
  -4862.05802783465     
  -5895.79631864207     
  -6652.53975731952     
  -7187.20036716691     
  -7552.73313440891     
  -7794.28437377201     
  -7948.01058389938     
  -8041.81589761594     
  -8096.75778915736     
  -8128.50140508957     
  -8148.58959119076     
  -8165.46661100101     
  -8185.26630120183     
  -8212.39966853084     
  -8249.98016482253     
  -8300.11977455892     
  -8364.12136917627     
  -8442.58483678257     
  -8535.43699005023     
  -8641.88815531093     
   2468.74266581996     
   632.975181144938     
  -1056.88451940779     
  -2537.72706764583     
  -3778.53479152930     
  -4778.48138906992     
  -5558.15040914586     
  -6149.71784860653     
  -6588.54806021833     
  -6908.06673213325     
  -7137.26279281812     
  -7300.02945182490     
  -7415.42766900844     
  -7498.33342030272     
  -7560.17216179883     
  -7609.60195539271     
  -7653.09119554579     
  -7695.37898130334     
  -7739.82446316056     
  -7788.65746413020     
  -7843.14258639600     
  -7903.66612444459     
  -7969.75096838726     
  -8039.99993603010     
   2459.69726151020     
   916.691598457232     
  -526.029431425247     
  -1822.12592224216     
  -2944.54901721831     
  -3885.46209953258     
  -4652.58708341436     
  -5263.74770115442     
  -5741.67952295987     
  -6110.04798210627     
  -6391.00207978381     
  -6603.96236703160     
  -6765.24685309114     
  -6888.16363992803     
  -6983.32243252766     
  -7059.01585360299     
  -7121.59058735359     
  -7175.77008010195     
  -7224.91369976679     
  -7271.20880724296     
  -7315.79692738920     
  -7358.83608724157     
  -7399.50013060142     
  -7435.91335371727     
   2408.65654808274     
   1093.64347827035     
  -150.213807395738     
  -1288.41935844107     
  -2298.38628749292     
  -3170.12478175807     
  -3904.65297905481     
  -4511.11621137008     
  -5003.57943161696     
  -5398.25089068073     
  -5711.45220897206     
  -5958.36104533668     
  -6152.36681810408     
  -6304.84545033241     
  -6425.18231268707     
  -6520.92113795211     
  -6597.95990866348     
  -6660.74680831172     
  -6712.45034049562     
  -6755.09033153971     
  -6789.62336954475     
  -6815.97934896861     
  -6833.04659785416     
  -6838.60248489259     
   2328.17254572470     
   1195.66841324128     
   114.790534014952     
  -888.275020131297     
  -1794.98573540946     
  -2595.20915741736     
  -3286.62562019086     
  -3873.18835056166     
  -4363.18882787483     
  -4767.37856914490     
  -5097.43060713130     
  -5364.83676103589     
  -5580.21520108763     
  -5752.94017127638     
  -5890.99487426007     
  -6000.96159812778     
  -6088.08477333648     
  -6156.36282702121     
  -6208.64039658893     
  -6246.68335258468     
  -6271.22600584528     
  -6281.98388443860     
  -6277.62749029053     
  -6255.71321329023     
   2226.77884964559     
   1243.74141928741     
   298.720612996659     
  -588.024164502940     
  -1401.29042928045     
  -2131.61939001716     
  -2775.13298963790     
  -3332.72519075912     
  -3808.89575760150     
  -4210.50658372995     
  -4545.66180593242     
  -4822.81831792688     
  -5050.15086895011     
  -5235.14481892763     
  -5384.36632563569     
  -5503.35668399905     
  -5596.60453077762     
  -5667.56004240441     
  -5718.66523038991     
  -5751.38249638952     
  -5766.20947716770     
  -5762.67217719891     
  -5739.29091979745     
  -5693.51522961931     
   2110.57854834578     
   1252.30623081270     
   422.237632947888     
  -363.651519078221     
  -1092.83016366600     
  -1756.77270969113     
  -2350.98455391606     
  -2874.58567015505     
  -3329.60975837136     
  -3720.18644218292     
  -4051.74464702851     
  -4330.32567022771     
  -4562.04545222083     
  -4752.70797451734     
  -4907.54953104978     
  -5031.08431915196     
  -5127.02117315162     
  -5198.22507892897     
  -5246.70246426784     
  -5273.59449315692     
  -5279.16699099728     
  -5262.78903571233     
  -5222.89479894233     
  -5156.92517291522     
   1984.13490636866     
   1231.67306948907     
   500.132874156560     
  -197.653065443540     
  -851.261669993749     
  -1453.12094012976     
  -1998.60709041725     
  -2485.83983426521     
  -2915.26139385910     
  -3289.10002637851     
  -3610.80940400592     
  -3884.55107776872     
  -4114.75870345833     
  -4305.79773520364     
  -4461.71656038934     
  -4586.07503761679     
  -4681.83250569097     
  -4751.27743298090     
  -4795.98306862709     
  -4816.77642309747     
  -4813.71088619327     
  -4786.03545189898     
  -4732.15579995191     
  -4649.58448290252     
   1850.97751256486     
   1189.43241117242     
   543.272687068207     
  -77.0095321544744     
  -662.650098872028     
  -1206.95423461327     
  -1705.41242904865     
  -2155.60880410554     
  -2556.96880219239     
  -2910.40674311775     
  -3217.93296465724     
  -3482.26906969026     
  -3706.50386372785     
  -3893.80665480464     
  -4047.20175616790     
  -4169.39939209394     
  -4262.67352999292     
  -4328.77551387356     
  -4368.87269076743     
  -4383.50260494603     
  -4372.53516788452     
  -4335.13714417315     
  -4269.73518153465     
  -4173.97545675009     
   1713.90649349873     
   1131.31778523586     
   559.821874483011     
   8.14193387250316     
  -516.267344669015     
  -1007.48156781872     
  -1461.21823478251     
  -1874.80447522239     
  -2247.02650228707     
  -2577.89729039439     
  -2868.38124805443     
  -3120.11004250220     
  -3335.11510329971     
  -3515.59255779610     
  -3663.70754642922     
  -3781.43816912114     
  -3870.45499703552     
  -3932.02986822251     
  -3966.96704788457     
  -3975.55023571714     
  -3957.49990925239     
  -3911.93681190081     
  -3837.34887046245     
  -3731.56040932775     
   1575.18184687523     
   1061.75171551882     
   556.034719673578     
   65.3967427126764     
  -403.748120497297     
  -846.137732090335     
  -1257.76038201314     
  -1635.85257833571     
  -1978.80998656924     
  -2286.03358619102     
  -2557.73618011906     
  -2794.73296478860     
  -2998.23540741871     
  -3169.66183759934     
  -3310.47234335251     
  -3422.03067900760     
  -3505.49235347209     
  -3561.71589443971     
  -3591.19327301581     
  -3593.99533672375     
  -3569.72856250720     
  -3517.50029243934     
  -3435.89071637286     
  -3322.93114996744     
   1436.64597783003     
   984.201833769910     
   536.780158002045     
   100.689173803912     
  -318.491754784588     
  -716.065145387648     
  -1088.29852829492     
  -1432.43640574149     
  -1746.64835550376     
  -2029.92664253291     
  -2281.94964536344     
  -2502.92744108963     
  -2693.44374681402     
  -2854.30503038138     
  -2986.40386919006     
  -3090.60022039348     
  -3167.62155593448     
  -3217.98094931725     
  -3241.91114075762     
  -3239.31222367413     
  -3209.71073189898     
  -3152.22842221724     
  -3065.55983455768     
  -2947.95870462630     
   1299.80616122958     
   901.419974682710     
   505.898884962716     
   118.713664438380     
  -255.233579006726     
  -611.726611317603     
  -947.303566431464     
  -1259.27461703932     
  -1545.69253002055     
  -1805.28419889493     
  -2037.35375570195     
  -2241.66850176658     
  -2418.33800600570     
  -2567.69482984374     
  -2690.18300370043     
  -2786.25806427271     
  -2856.30047914114     
  -2900.54279769824     
  -2919.00991442484     
  -2911.47137194977     
  -2877.40458840308     
  -2815.96817964357     
  -2725.98508540182     
  -2605.93593960536     
   1165.89246608331     
   815.607191741834     
   466.451747920972     
   123.222792247990     
  -209.734192069090     
  -528.615003396982     
  -830.212416147752     
  -1111.93521643227     
  -1371.79230431894     
  -1608.34675228025     
  -1820.64673496309     
  -2008.14106426122     
  -2170.58682902092     
  -2307.95564278743     
  -2420.34358516813     
  -2507.88839378148     
  -2570.69606138415     
  -2608.77786431325     
  -2621.99806013297     
  -2610.03204975519     
  -2572.33467039599     
  -2508.11842145160     
  -2416.34177323099     
  -2295.70821944110     
   1035.90037356404     
   728.530802473706     
   420.896315832792     
   117.241717488324     
  -178.551417589524     
  -463.034390084294     
  -733.236398179745     
  -986.682853504647     
  -1221.38764821643     
  -1435.82231346934     
  -1628.86659744098     
  -1799.74580035862     
  -1947.96029295202     
  -2073.21217142965     
  -2175.33317159376     
  -2254.21698174974     
  -2309.75812935482     
  -2341.79879033185     
  -2350.08425126261     
  -2334.22736824800     
  -2293.68220581784     
  -2227.72707964603     
  -2135.45743321449     
  -2015.78931225534     
   910.623686363307     
   641.609723692184     
   371.215094107583     
   103.225138198553     
  -158.870848407900     
  -411.933846835906     
  -653.211500622438     
  -880.354852795572     
  -1091.41553750830     
  -1284.82518084735     
  -1459.35999077378     
  -1614.09423793824     
  -1748.34656059049     
  -1861.62285068033     
  -1953.55901695995     
  -2023.86630698084     
  -2072.28122273479     
  -2098.52147664484     
  -2102.24896603109     
  -2083.04042541348     
  -2040.36625320078     
  -1973.57799125867     
  -1881.90504003355     
  -1764.46138853859     
   790.681164190513     
   555.978438817660     
   319.010608275826     
   83.1741033402685     
  -148.378324852550     
  -372.780247586180     
  -587.481101617909     
  -790.261131165903     
  -979.231565921482     
  -1152.82107130368     
  -1309.75044472014     
  -1448.99814277172     
  -1569.75950241709     
  -1671.40250509702     
  -1753.42269865530     
  -1815.39952225230     
  -1856.95585607939     
  -1877.72220853942     
  -1877.30660748741     
  -1855.27100790473     
  -1811.11487686929     
  -1744.26656433737     
  -1654.08310066961     
  -1539.85915650608     
   676.539005062075     
   472.536291133717     
   265.577406816789     
   58.7244019084951     
  -145.162735611357     
  -343.460031487718     
  -533.803734185158     
  -714.103562395321     
  -882.544720674992     
  -1037.57928748389     
  -1177.90829420778     
  -1302.45631615122     
  -1410.34067271131     
  -1500.83740226106     
  -1573.34607905779     
  -1627.35532811032     
  -1662.41062435668     
  -1678.08568336395     
  -1673.95849953443     
  -1649.59288885830     
  -1604.52625812012     
  -1538.26425135440     
  -1450.28290810278     
  -1340.03898990788     
   568.530478639911     
   391.986499962585     
   211.957720997210     
   31.2145514840479     
  -147.640970456915     
  -322.202631987236     
  -490.280152613120     
  -649.910974343073     
  -799.363441726304     
  -937.131719618022     
  -1061.92333982096     
  -1172.64067331312     
  -1268.35787670171     
  -1348.29496601653     
  -1411.79065099460     
  -1458.27545170702     
  -1487.24645311242     
  -1498.24486588830     
  -1490.83738139675     
  -1464.60215418600     
  -1419.12012732772     
  -1353.97233590914     
  -1268.74377634092     
  -1163.03440155213     
   466.873509848440     
   314.867824189764     
   158.985360790159     
   1.73894763064282     
  -154.499222864796     
  -307.520205069075     
  -455.295290736065     
  -595.986618337227     
  -727.951127576261     
  -849.738057612163     
  -960.080600646912     
  -1057.88264612639     
  -1142.20176993311     
  -1212.22973763152     
  -1267.27181316973     
  -1306.72611453588     
  -1330.06415937565     
  -1336.81361977882     
  -1326.54417623259     
  -1298.85724071991     
  -1253.38021655211     
  -1189.76587994746     
  -1107.69740195213     
  -1006.89947025257     
   371.686692895794     
   241.580839342733     
   107.320997034400     
  -28.8099276422121     
  -164.646486821917     
  -298.159706991207     
  -427.471738219085     
  -550.865548916784     
  -666.789430850435     
  -773.856428397476     
  -870.839120347304     
  -956.660438721301     
  -1030.38139412168     
  -1091.18668812756     
  -1138.36923595126     
  -1171.31460877267     
  -1189.48634996803     
  -1192.41303846592     
  -1179.67787963056     
  -1150.91151006524     
  -1105.78861407574     
  -1044.02886830497     
  -965.402654993525     
  -869.741907282680     
   283.004017946879     
   172.410163461590     
   57.4810213978506     
  -59.7074775539907     
  -177.177246723689     
  -293.064399422033     
  -405.632157694458     
  -513.279865614108     
  -614.547915649244     
  -708.118656126572     
  -792.813587164828     
  -867.587354137928     
  -931.519200859559     
  -983.802645233725     
  -1023.73419013261     
  -1050.70188836891     
  -1064.17455219450     
  -1063.69234504124     
  -1048.85942575824     
  -1019.33924098240     
  -974.852984364769     
  -915.181663934540     
  -840.172139588284     
  -749.747407391925     
   200.788471816217     
   107.543547819300     
   9.86152519427306     
  -90.3691680437901     
  -191.341176097693     
  -291.342609853440     
  -388.768674599631     
  -482.130193883470     
  -570.058880412254     
  -651.309398450305     
  -724.758444629640     
  -789.401232227248     
  -844.345888859700     
  -888.806364954058     
  -922.094500290128     
  -943.611911777845     
  -952.842353046943     
  -949.345161954029     
  -932.750362133397     
  -902.755924499777     
  -859.127627676218     
  -801.701884111010     
  -730.391820466748     
  -645.196814054329     
   124.944602728341     
   47.0884683623898     
  -35.2415076453000     
  -120.327485902521     
  -206.518243466872     
  -292.242124950210     
  -376.017735716488     
  -456.462127276173     
  -532.296363363728     
  -602.348500069769     
  -665.554152657760     
  -720.954945285238     
  -767.695240588546     
  -805.017619950665     
  -832.257631225701     
  -848.838340191001     
  -854.265218220965     
  -848.121875699600     
  -830.067112676015     
  -799.833708798797     
  -757.229316150059     
  -702.139752396001     
  -634.534917415768     
  -554.477472706845     
   55.3300996614252     
  -8.91333421956229     
  -77.6150060768364     
  -149.212639132698     
  -222.198042259682     
  -295.128999377968     
  -366.639285781685     
  -435.446628982854     
  -500.358534033745     
  -560.276002136263     
  -614.195277751270     
  -661.207855760017     
  -700.499060758928     
  -731.345571685411     
  -753.112305175149     
  -765.249090646874     
  -767.287570738673     
  -758.838744800189     
  -739.591543323320     
  -709.312779858598     
  -667.848775886302     
  -615.128894226998     
  -551.171147925734     
  -476.089973362228     
  -8.23358264719836     
  -60.4730441877569     
  -117.114042752717     
  -176.736235610591     
  -237.962464491985     
  -299.469862158601     
  -359.999380579259     
  -418.363609725489     
  -473.452832152486     
  -524.239340608812     
  -569.780127324594     
  -609.218128564781     
  -641.782271930888     
  -666.786623637313     
  -683.628966934479     
  -691.789160671495     
  -690.827629376094     
  -680.384324525647     
  -660.178472516854     
  -630.009389782840     
  -589.758600805903     
  -539.393441205914     
  -478.972265896642     
  -408.651311285798     
  -65.9515290703690     
  -107.643453507513     
  -153.649066878355     
  -202.677372291460     
  -253.471058376677     
  -304.817025108937     
  -355.555559894325     
  -404.588071441971     
  -450.883345962407     
  -493.482352383137     
  -531.501685654423     
  -564.135795411199     
  -590.658197639466     
  -610.421906934038     
  -622.859354829034     
  -627.482074885181     
  -623.880437857664     
  -611.723711014431     
  -590.760695489304     
  -560.821165455828     
  -521.818293792894     
  -473.752201439826     
  -416.714712193798     
  -350.895331453152     
  -118.046575855714     
  -150.508958065873     
  -187.174821407723     
  -226.870708315023     
  -268.448571414423     
  -310.795863895168     
  -352.844460010617     
  -393.578341490696     
  -432.040028677311     
  -467.335782494469     
  -498.639651275850     
  -525.196481616675     
  -546.324051933163     
  -561.414519111038     
  -569.935391039075     
  -571.430250181760     
  -565.519455464234     
  -551.901041883057     
  -530.352019956206     
  -500.730251045986     
  -462.977040387407     
  -417.120547909169     
  -363.280068118909     
  -301.671174847035     
  -164.751401108946     
  -189.176726281997     
  -217.680701684302     
  -249.196197561190     
  -282.674299367279     
  -317.094066534399     
  -351.471264767274     
  -384.866027863538     
  -416.389437867516     
  -445.209048599235     
  -470.553414516632     
  -491.715721885031     
  -508.056650089709     
  -519.006615834620     
  -524.067570633169     
  -522.814531630440     
  -514.897027066149     
  -500.040630618688     
  -478.048743743836     
  -448.804762370042     
  -412.274734438530     
  -368.510578300139     
  -317.653889424395     
  -259.940314792280     
  -206.301461206095     
  -223.768925253606     
  -245.182366121333     
  -269.570230756316     
  -295.972949549565     
  -323.452437635084     
  -351.100685420864     
  -378.047408360696     
  -403.466751327885     
  -426.583070943524     
  -446.675847793048     
  -463.083807655506     
  -475.208354898939     
  -482.516440597653     
  -484.543001598346     
  -480.893113967784     
  -471.244004605318     
  -455.347058202485     
  -433.029943310392     
  -404.198961327464     
  -368.841696148540     
  -327.030010497679     
  -278.923398144311     
  -224.772659902940     
  -242.928735260965     
  -254.415907772698     
  -269.714448214192     
  -287.937992093218     
  -308.206792504930     
  -329.657017246535     
  -351.449229422117     
  -372.776030856233     
  -392.868867553657     
  -411.004018312257     
  -426.507809877206     
  -438.761123200750     
  -447.203274053526     
  -451.335366238650     
  -450.723226061512     
  -445.000031853276     
  -433.868751846913     
  -417.104497412283     
  -394.556886623916     
  -366.152495573575     
  -331.897452089371     
  -291.880199027377     
  -246.274422604069     
  -195.342105992812     
  -274.856235598045     
  -281.250276630390     
  -291.324247655306     
  -304.266876151471     
  -319.268925453561     
  -335.532326755125     
  -352.278571836090     
  -368.756351662338     
  -384.248441981613     
  -398.077854377140     
  -409.613288781485     
  -418.273940035178     
  -423.533725610387     
  -424.925013161431     
  -422.041934345377     
  -414.543374815747     
  -402.155729075604     
  -384.675502824093     
  -361.971834558761     
  -333.988992672877     
  -300.748884411522     
  -262.353589239356     
  -218.987901957328     
  -170.921840936909     
  -302.293239399878     
  -304.401752591678     
  -310.066299775895     
  -318.540841717769     
  -329.077508303254     
  -340.935595174599     
  -353.389884413685     
  -365.738277753045     
  -377.308743926642     
  -387.465595772197     
  -395.615126693424     
  -401.210649191458     
  -403.756989529261     
  -402.814501444595     
  -398.002667550546     
  -389.003359186225     
  -375.563823696288     
  -357.499462279383     
  -334.696451658539     
  -307.114249036505     
  -274.788002380304     
  -237.830867425455     
  -196.436209412270     
  -150.879642094603     
  -325.431195531528     
  -323.992780580251     
  -325.997739207457     
  -330.755602794942     
  -337.570861743218     
  -345.751850669945     
  -354.619009241746     
  -363.512508739649     
  -371.799245554468     
  -378.879214370307     
  -384.191285164640     
  -387.218418644114     
  -387.492363680522     
  -384.597887107274     
  -378.176590376563     
  -367.930368671958     
  -353.624565862099     
  -335.090873045265     
  -312.230009381075     
  -285.014211571063     
  -253.489542992796     
  -217.778015486066     
  -178.079496622263     
  -134.673353559164     
  -344.440261034203     
  -340.134815839153     
  -339.174387102588     
  -340.914575722762     
  -344.703339337251     
  -349.889786649092     
  -355.832388737123     
  -361.906597975655     
  -367.511874844974     
  -372.078132718591     
  -375.071620164198     
  -376.000268859861     
  -374.418542378642     
  -369.931826351341     
  -362.200403466689     
  -350.943057093068     
  -335.940344794253     
  -317.037577566422     
  -294.147532264024     
  -267.252913543121     
  -236.408567979988     
  -201.743437177240     
  -163.462219113433     
  -121.846688292547     
  -359.466423850700     
  -352.925238677055     
  -349.647502564659     
  -349.025516399736     
  -350.441903333829     
  -353.278331066254     
  -356.923683251636     
  -360.781670561930     
  -364.277880592376     
  -366.866274365546     
  -368.035145269784     
  -367.312563446237     
  -364.271334491551     
  -358.533505479461     
  -349.774453387612     
  -337.726590785251     
  -322.182720920969     
  -302.999069075148     
  -280.098009239913     
  -253.470494996746     
  -223.178191119062     
  -189.355288277564     
  -152.209967712247     
  -112.025466394267     
  -370.629171851151     
  -362.444853205501     
  -357.461148855660     
  -355.097794158634     
  -354.763348386569     
  -355.863863066011     
  -357.811023057416     
  -360.029750543320     
  -361.965270090790     
  -363.089640680807     
  -362.907767744383     
  -360.962914470122     
  -356.841736603336     
  -350.178868316810     
  -340.661088216741     
  -328.031093935941     
  -312.090910919724     
  -292.704955875450     
  -269.802767975956     
  -243.381411418900     
  -213.507541584824     
  -180.319114139056     
  -144.026702411637     
  -104.914373777645     
  -378.019672982338     
  -368.755932403274     
  -362.650133988783     
  -359.140259672609     
  -357.652129467249     
  -357.608033782521     
  -358.434854013848     
  -359.571661194335     
  -360.476790098406     
  -360.634393394937     
  -359.560487014069     
  -356.808503521400     
  -351.974374686063     
  -344.701167301954     
  -334.683297428785     
  -321.670347371837     
  -305.470506797424     
  -285.953654346175     
  -263.054089007925     
  -236.772911501196     
  -207.180045190639     
  -174.415874002863     
  -138.692461777551     
  -100.294304011880     
  -381.699437161319     
  -371.900778992495     
  -365.238493805310     
  -361.159673899383     
  -359.098760648197     
  -358.486158769930     
  -358.756346572298     
  -359.355471739129     
  -359.748429629178     
  -359.425428021849     
  -357.908048532464     
  -354.754820263367     
  -349.566325379229     
  -341.989858933037     
  -331.723666195669     
  -318.520779781500     
  -302.192475906317     
  -282.611364130791     
  -259.714117986217     
  -233.503845091377     
  -204.052084982842     
  -171.500411217312     
  -136.061601770457     
  -98.0203288380302     
SCALARS 2waySource double 
LOOKUP_TABLE default
 -5.092295492137633E-018
 -2.321601590813679E-018
 -2.706504369525435E-018
  4.547473508864640E-020
  1.465306552942618E-018
 -3.942601770667253E-019
 -2.882982681583393E-020
  1.807999535649181E-018
 -1.319962368217091E-018
 -2.338086392658677E-018
  1.387358236079203E-018
 -1.049941477873284E-018
  1.282591377817167E-018
 -9.600698523025724E-020
  0.000000000000000E+000
 -1.417004297665897E-019
 -8.327414355558659E-019
  1.438327905116186E-018
 -4.106863758918521E-019
 -3.818565490760184E-019
 -7.816702631109650E-020
 -3.410605131648479E-020
 -3.105982168072930E-020
 -8.485701090578180E-020
 -8.607550276008362E-019
  2.093353077579690E-018
  1.253702947981449E-018
  2.683767001981122E-018
 -2.463680836455739E-018
  5.765965363166827E-020
 -5.156719436015737E-020
  4.429998512388139E-019
 -9.280064916669948E-020
 -6.596023682330600E-019
  1.170376903209470E-018
 -3.459579217900102E-019
  1.134040857028090E-018
  1.727602514473192E-019
 -7.972216241453450E-019
  8.244189814194605E-019
 -4.200437742468048E-019
  4.713922591592756E-019
  3.000457678059919E-019
 -6.957197049667528E-019
  2.728484105318783E-019
 -1.705302565824240E-019
  1.128706029507556E-019
 -1.136868377216159E-020
  6.366462912410516E-019
  1.574533400934439E-018
  1.193418780977543E-019
  2.692686981440703E-018
 -3.281905855195770E-018
 -1.242392867229171E-019
 -1.303317459944281E-018
 -5.298095445419184E-020
  1.664666636340871E-018
 -1.982989781961403E-018
  2.273736754432314E-020
  2.273736754432311E-020
 -6.827185516528690E-019
  3.938227581713542E-020
 -1.031503993630948E-018
  1.249738980166915E-018
 -7.994516190102421E-019
  4.583911058453932E-019
  1.000881590845594E-019
 -1.547015830804722E-019
  4.629096985950680E-020
 -1.425166645374502E-019
 -9.622569467794342E-020
 -4.242850545289090E-020
 -1.923318842912525E-018
  6.269686800304907E-019
  1.725970044931467E-018
  1.377622021848767E-018
 -1.445865529745435E-019
 -1.669942860841516E-018
 -1.403609753242894E-020
 -1.476893946162460E-018
  2.618659732003783E-018
 -1.528461140522623E-018
 -3.477504977595325E-019
  1.076162493948737E-018
 -1.677027363943541E-019
  5.765965363166848E-020
  4.287450442586982E-019
 -3.084111223304318E-020
 -7.336882206898537E-019
  2.253623900260228E-019
 -5.684341886080801E-020
 -4.242850545289092E-020
 -1.023181539494544E-019
  2.801359204497381E-020
 -4.547473508864636E-020
 -2.273736754432319E-020
 -2.815527158824547E-018
  8.181078127002626E-020
 -8.485701090578173E-020
  4.915208159632178E-019
  3.745690391581587E-019
 -1.592431962873482E-018
  1.576165870476155E-018
 -1.538197354753059E-018
  8.553186966723863E-019
  7.862317562486758E-019
 -3.615678858442753E-019
 -6.419225157417007E-019
  3.053219923066416E-019
 -3.713041000747168E-019
 -2.779059255848428E-019
  6.494287351072454E-019
 -2.168212264419309E-019
  8.181078127002608E-020
 -3.993176921196905E-019
  1.530691135387515E-019
  1.727602514473191E-019
 -1.894051597201313E-019
  1.386542001308343E-019
 -3.410605131648477E-020
  3.880036857094516E-019
  8.069578383757877E-020
  2.326498999438827E-019
  1.455628941732060E-019
  7.560467723586887E-019
 -1.623710494001899E-018
  2.106252727485650E-018
 -1.270465062294027E-018
 -8.859410994577412E-019
  5.727340719100709E-019
  1.279763857629098E-018
 -6.260938422397487E-019
 -1.724243359598644E-020
  5.901366119338581E-019
 -9.685681154986295E-019
  3.934439422958665E-019
  1.877726901784103E-019
  2.362936549028123E-019
 -1.297342206712539E-019
  1.949000936684682E-019
  2.478810481226602E-019
 -1.735764862181796E-019
  1.197792969931271E-019
  4.242850545289090E-020
  1.796658190557975E-018
 -1.447247884575771E-018
  2.608235984166571E-020
 -4.888534022029477E-019
  1.876051531854357E-018
 -1.300111123880722E-018
  6.293587813231902E-019
 -8.181078127002635E-020
 -1.834220551724625E-018
  5.734917036610466E-019
 -4.206412995699794E-019
  9.988117024084993E-019
 -5.390068364690702E-019
  1.555178178513330E-019
 -2.328686093915685E-019
 -3.410605131648477E-020
  2.440185837160437E-019
 -2.052338332220830E-019
  4.079603591116994E-020
 -1.341942104010442E-019
  1.735764862181796E-019
  5.521094931908718E-020
  2.882982681583421E-020
 -1.136868377216159E-020
  5.122439538468572E-019
 -9.008402930382240E-019
 -7.027084522230259E-019
  9.206446760973996E-019
  8.588530969074784E-019
 -6.405087556476652E-019
 -8.648948044750226E-020
  5.714804182438354E-019
 -3.926277075250033E-019
  5.213269839777130E-019
 -1.990984735625386E-020
  1.025368633971405E-019
 -3.820752585237033E-019
  3.652116408032053E-019
 -3.288755946218256E-019
 -8.039702117599150E-020
 -1.090081385441395E-019
 -8.648948044750272E-020
  2.304199050789872E-019
  1.037319140434891E-019
  3.938227581713533E-020
 -1.333779756301837E-019
 -9.927192431369891E-020
 -1.281017511295331E-019
  3.677140410632201E-019
  4.705540482559602E-019
 -1.656221228602537E-019
 -7.158990134746553E-019
  1.188537074984241E-019
  5.174721092736088E-022
  3.592285362555379E-019
  3.572973040522300E-019
 -6.827185516528699E-019
  6.963172302899279E-019
 -9.981848755753849E-019
  8.156884098976246E-019
 -3.633604618137984E-020
  3.796851572310075E-020
  5.554330352941977E-019
  3.394280436231278E-019
  4.062263861620625E-019
 -1.932676241267473E-019
 -3.715228095224034E-020
 -1.136868377216165E-020
  2.675721860312276E-019
 -6.092459271511025E-021
  3.410605131648478E-020
 -4.547473508864637E-020
  7.047016871657395E-019
  5.781537892545721E-020
 -1.955122697466116E-019
 -5.792453736640175E-019
 -7.474763072646559E-019
  3.275711892516338E-019
 -6.378706433973381E-019
 -4.196356568613751E-019
  5.548062084610803E-019
 -8.057334862194972E-019
  6.424106863410305E-019
 -3.410312116549051E-019
 -4.272726811447771E-020
  8.301833765194407E-019
 -5.812166324742745E-019
 -4.858071725671927E-019
  2.735552905788957E-019
  5.339200199061629E-019
 -4.276300468262510E-019
  1.483904143612749E-019
 -3.823740211852917E-019
 -1.425166645374503E-019
 -1.136868377216161E-019
 -4.547473508864636E-020
 -1.230369106990829E-019
 -6.305767719008912E-019
  8.263475323485172E-019
 -7.969628880907085E-019
 -1.548109378043159E-019
 -8.374201347333430E-020
  3.141619185523220E-019
  8.069578383757838E-020
 -1.963939069764033E-019
 -9.176570494815333E-020
 -3.214494284701810E-019
  3.900696484885809E-019
  1.039506234911751E-019
  1.304411007182712E-019
  1.363148505420959E-019
  2.568010275822409E-019
 -7.517468890567008E-019
  3.948577023899005E-019
 -2.459498159193523E-019
  4.120415329660025E-020
 -8.221889865545647E-020
  3.303987094397037E-019
  3.562916613436257E-020
 -1.758064810830744E-019
 -1.828098790943178E-019
 -3.706881474388167E-019
  6.721610686564976E-019
 -3.976051693640697E-019
 -8.552386434584860E-020
 -2.842170943040368E-021
  4.038870365733234E-019
 -2.365123643504989E-019
  3.410605131648467E-020
 -1.762145984685054E-019
 -6.654761180568843E-019
 -1.323430314116379E-019
  3.060288723536583E-019
 -1.943025683452944E-019
 -5.662842469570849E-019
  1.158978917927369E-018
 -6.560386664880303E-019
  2.436104663306141E-019
  1.401773149487119E-019
  3.410605131648494E-020
 -3.292837120072568E-019
 -2.348798948087783E-019
  2.689859461252618E-020
 -3.979039320256560E-020
  8.717229193650558E-019
 -1.756629530080314E-019
  1.855076720324337E-019
  1.749912277267052E-019
  4.495726297937357E-020
  2.502604243183481E-019
  3.806468476747001E-019
  1.795595907658468E-019
 -4.437867844997327E-019
  0.000000000000000E+000
  5.507543361167235E-019
  8.850076586471165E-020
 -2.481798107842469E-019
  1.997682007836888E-019
  3.800346715965532E-019
 -1.769214785155221E-019
 -1.183655368990925E-019
  2.953670686285156E-020
 -1.827737781453320E-020
 -1.867670474698070E-019
  2.732565279173093E-019
  7.460332456606795E-020
 -3.046229635755520E-021
  4.090539063501324E-020
  6.809786902162886E-019
 -2.692109995359441E-019
  2.625323622301220E-019
  8.616874165345842E-020
 -4.276373722037386E-019
  1.634614561122498E-020
  2.528077582577657E-020
 -3.055807283612781E-019
  1.136868377216163E-019
  4.947271520267766E-019
 -3.774980627541445E-020
 -8.621216797993211E-021
  3.243062501681918E-019
  3.033907601033340E-019
 -1.480916516996880E-019
  1.469766542672407E-019
  1.709383739678546E-019
  1.425166645374499E-019
 -2.537547979464846E-020
  8.292577870247384E-020
 -1.458616568347924E-019
 -1.758064810830741E-019
 -1.049562661997796E-019
 -6.668898781509179E-020
 -1.206555716744135E-019
  1.975545565335248E-019
  2.554256118509927E-020
 -1.436211646109149E-019
 -1.470098814351453E-020
  3.502665673600241E-019
 -2.788861924414679E-019
 -5.933214978033950E-020
  4.552941245056777E-020
 -4.672163813361014E-019
  8.556389095279919E-020
 -3.131562758437175E-019
 -3.074719339576356E-019
 -2.981145356026839E-019
  1.537759935857688E-019
 -7.168246029693538E-019
 -4.145488402984673E-019
 -5.268219179260502E-020
 -4.974531688069258E-020
 -3.796851572310080E-020
 -2.795383951265637E-019
  8.638012572365961E-020
 -6.092459271511031E-021
 -5.684341886080802E-021
 -3.572699653712700E-019
  2.708598196923972E-019
 -1.021516574758073E-019
 -4.051300285248127E-020
  1.652330373638087E-019
  6.779326015052958E-021
 -5.765965363166865E-020
  4.215904430124559E-021
  9.176570494815313E-020
 -3.451416870191512E-020
  3.979039320256572E-020
  0.000000000000000E+000
  2.732565279173083E-019
  3.166906760788046E-019
  8.251766131704388E-020
 -4.178938325958114E-019
  9.886380692826903E-020
  6.211964336145888E-020
 -1.114997432447592E-021
  9.247258499517090E-020
 -9.247258499517067E-020
  7.653455676937590E-020
  5.268219179260521E-020
 -3.410605131648488E-020
  1.984144806000804E-019
 -2.578860050594750E-019
 -3.909760746096908E-020
  3.874251024696037E-019
  7.211119392701474E-021
  1.960351044043904E-019
  1.390149655318286E-019
  7.615574089388341E-022
 -1.105859307239391E-019
  5.765965363166865E-020
 -5.933214978033983E-020
  4.485601876460829E-019
  1.703662244966594E-019
 -8.030953739691745E-019
  1.292167485619808E-019
  1.886982796731150E-019
 -7.196521231574246E-020
  1.428154271990373E-019
  0.000000000000000E+000
  8.678824310908986E-020
 -5.765965363166862E-020
 -2.730671199795649E-020
 -1.174399474043891E-019
 -1.289179859003939E-020
 -1.801864175989651E-020
 -1.412686363889420E-019
  4.510079105441715E-020
 -3.897574442245373E-020
 -9.903418297702860E-021
  9.105149952365005E-020
  1.929615360876746E-019
  3.811789705389433E-020
 -2.151301538803256E-020
  1.503763239265046E-019
 -1.377832879980522E-019
 -6.172617673099953E-020
  4.385105599990814E-019
  3.880036857094509E-019
  1.243486414467603E-019
  2.468060772971631E-019
 -2.129587620353150E-019
  1.622078024460180E-019
  2.387423592153937E-019
  1.799677081512777E-019
 -4.892908210983218E-020
 -1.484997690851182E-019
  3.522104874893234E-020
 -1.049562661997794E-019
 -7.285613775199969E-020
  7.139110001556577E-021
  8.446122222370576E-020
 -1.297123102811026E-019
  3.630236353742440E-020
  5.097869427422978E-020
  8.904557665494579E-020
 -1.369817039821629E-019
 -2.442773197706800E-019
 -8.790324054153719E-020
 -3.451416870191505E-020
 -3.095378967367680E-019
  2.174734291270269E-019
 -4.942243306724724E-019
  3.564410426744190E-019
  3.676056677538645E-019
  4.165200991087253E-019
  1.777777398933326E-019
 -8.080513856142193E-020
 -2.782740163633233E-019
  4.110944932772820E-020
 -4.359818024726017E-020
  8.526512829121241E-021
  4.527067639593149E-020
 -1.817969110082282E-019
 -8.102554786886958E-020
 -6.439064624779520E-021
 -1.541604349789805E-020
 -1.186706435236744E-019
  4.216342543525929E-020
 -1.157274246487682E-020
  2.131628207280305E-020
  1.836734658496152E-019
 -1.528650548460371E-019
  8.470762957498830E-020
  3.044764560258389E-020
 -1.585493967321168E-019
 -1.762692758304265E-019
 -8.004358115248333E-020
 -2.770496642070335E-019
  1.824017617088890E-019
 -1.307398633798587E-019
 -9.490663855278076E-020
 -6.349337684854290E-020
 -4.867034605519549E-020
  1.055137649160039E-019
  4.034789191878947E-020
 -2.045269531750663E-020
  4.717456991827838E-020
  1.842309645658389E-020
  8.742043249071008E-020
 -3.358498226077373E-020
 -2.905756150076712E-020
 -2.116690074200938E-020
  9.775247218456387E-020
 -6.706976651956141E-020
  1.063026610059031E-019
  3.654010487409495E-020
  3.501699005621725E-020
  1.121637229037382E-019
  9.332884637298140E-020
 -1.702715205277873E-019
 -3.319511257675234E-020
  1.123677815964533E-019
 -2.449295224557755E-019
 -7.914336750975907E-021
 -8.977979538292375E-020
  2.550338274646973E-019
 -8.769918184882223E-020
 -1.663143521522993E-019
 -2.953670686285145E-020
  2.481798107842470E-020
 -2.443720237395535E-020
  1.714138566411951E-020
  2.475061579051303E-021
  1.815822892142250E-020
  4.668263801674725E-020
 -1.225531212337655E-019
  2.918326683934292E-020
 -1.304884527027069E-019
 -1.390349788353038E-019
  8.887278230115635E-021
 -2.545017046004531E-020
  2.088522123290329E-019
 -7.252271103196613E-020
  1.807292655602166E-019
  1.081118505593780E-020
  1.591068954483403E-019
 -3.453711215638450E-019
 -6.241840602304438E-021
 -2.684831247709604E-019
  1.664490827281222E-020
 -7.805767158725351E-020
  3.999445189528067E-020
  3.958633450985052E-020
 -7.003398011243455E-021
 -4.188467607714742E-020
 -1.240899053921233E-020
 -2.079612868927759E-020
 -5.258238588440704E-021
  6.075851239860445E-020
  1.697650364847415E-020
 -5.684341886080747E-021
  1.155260472303037E-019
  1.222607025351731E-019
 -7.207456703958490E-021
 -1.431962059035065E-019
  4.183019499812418E-019
 -2.550885048266174E-019
 -4.529108226520271E-019
  1.025622392491187E-019
 -1.179974461206127E-019
  1.174946247663101E-019
  4.603223380486988E-020
  1.461203928894292E-019
 -2.313308438187202E-019
 -8.561856831472042E-020
 -4.852096472440187E-020
 -1.172212379567031E-020
  2.897920814662768E-020
  7.105427357601094E-022
  1.179681446106744E-021
  1.357683398921006E-020
  2.089502273917907E-020
  1.856144922221909E-020
 -2.577090925408921E-021
 -8.810729923425306E-020
  1.525116148225276E-020
  2.930697084757094E-019
  4.086536402806291E-021
 -4.869768473615616E-020
 -1.830139377870331E-019
  1.548983163957025E-019
 -4.664048422505160E-021
  1.458216302278435E-019
  1.363695279040183E-019
  1.939237524698087E-020
 -2.009925529399805E-020
  6.595280625813289E-021
 -1.032290926891870E-019
 -5.283157312339825E-020
  8.846073925776147E-020
 -5.024813823499480E-021
 -5.684341886080822E-021
  4.402631093616527E-021
  4.681380451728460E-021
 -2.649822756952182E-020
  2.431360220062702E-020
 -1.643863817361471E-020
  7.302651380075907E-021
  1.088797519313118E-019
  5.115907697472721E-020
 -3.827374678605378E-019
  2.248302671617793E-019
 -9.039197146106897E-020
  1.664163814986575E-019
  1.653760747316054E-019
 -2.717880904613524E-019
 -3.926203821475181E-019
 -1.250555214937773E-019
  1.659755628837620E-020
 -2.294069369928973E-019
 -3.502939060409869E-019
 -6.475775561178397E-020
 -1.727173510592845E-021
 -6.638289977601923E-020
  5.285891180435948E-020
 -5.582312539723251E-021
 -1.311953327497242E-020
 -2.289675552685415E-021
  3.559340679241298E-020
  8.736887017578023E-021
 -1.838904578219426E-020
 -1.110860708039881E-020
  3.425543264727854E-020
 -8.333389608790432E-020
 -2.913225216616414E-020
 -4.831690603168708E-020
  1.777850652708192E-019
 -1.281710792464265E-020
 -4.320099833421402E-019
  1.363495146005431E-019
  1.515186600399134E-019
 -1.602492315617498E-019
  1.444205580597979E-019
  1.376685707257055E-019
 -3.399669659264171E-021
 -4.324474022375153E-020
 -1.836461271686544E-019
  2.263533819796569E-020
  1.043040635146842E-020
 -1.989519660128283E-020
  9.173470357844905E-020
 -1.112727974674811E-020
 -4.950159080366216E-020
  4.178935872421869E-020
  3.483361498554057E-021
 -1.066406003445597E-020
  5.073997152306843E-021
 -1.265376282902138E-019
  3.229051780001464E-020
  1.711770967190150E-020
  1.142336113408290E-021
  5.908073910318848E-020
  2.260546193180683E-019
  1.984418192810402E-019
  2.659670551704669E-019
  1.255109908636434E-019
  1.909829518999301E-019
 -2.689859461252615E-020
  2.915592815838205E-020
 -4.113678800868890E-020
 -9.216649695609732E-020
 -1.961644724317083E-020
 -3.798852902657586E-020
 -1.743380436271173E-020
  2.890451748123111E-020
 -2.954537287746326E-020
 -7.158150698339866E-021
 -7.935463771094735E-020
 -3.818648470602006E-020
 -5.203083903738972E-020
 -9.649760936581512E-020
 -5.755762428531119E-020
 -1.224684239166311E-019
 -1.756160917308408E-019
 -1.751215771685145E-020
 -1.624592131231705E-019
 -8.091056762730249E-021
  1.002228896603813E-020
  9.561351859979851E-020
 -3.338257177799291E-019
 -1.254836521826835E-019
 -1.047795461880260E-019
 -9.171102758623232E-020
  8.980713406388525E-020
  8.980713406388506E-020
 -1.459163341967152E-020
 -8.349792817366919E-021
 -2.306713157561403E-020
  8.221206398521631E-020
 -3.922355815316722E-020
 -2.844398785098975E-021
 -3.652497221967735E-020
  1.435193806181800E-020
  1.421085471520194E-021
 -7.878688698936274E-020
  1.370070798341408E-020
 -8.806995390155448E-020
  1.276426190709242E-019
 -7.054412684422230E-020
 -7.559627934868267E-020
 -1.450254087604567E-019
  5.099504488896322E-021
  1.865083114151694E-020
 -1.664163814986576E-019
  2.872779746947675E-020
  8.790324054153731E-020
  1.003122310807494E-019
  2.065675401022169E-020
 -2.778952004878346E-020
 -3.646541420869826E-020
  2.831968008404647E-020
 -8.006359445595815E-021
  8.232092800181404E-020
  5.884067571490108E-021
  1.263019001111809E-019
 -4.615333231526385E-020
  1.420560362937514E-019
  1.253219421485356E-020
 -2.244678019010225E-020
  5.204817106661303E-020
 -3.726797963907819E-020
 -1.512809187032422E-019
 -2.455517051856588E-019
 -3.199273655291846E-021
  1.412039523752816E-019
  9.457321183274654E-020
 -2.017667982749070E-019
  8.153203191191452E-020
 -2.000669634452743E-019
 -1.669958563473370E-020
  4.644035119030033E-021
  1.705302565824237E-020
 -1.070915570958023E-020
  3.807787044694325E-022
 -5.138681165966034E-020
 -9.046666212646560E-021
  1.074176584383512E-019
 -4.140363834846589E-022
 -5.565427685466138E-020
  3.191269859457272E-020
  7.534395299934594E-020
  4.431189496451783E-020
 -7.404765719421510E-020
 -3.196075376872411E-020
  2.173440610997090E-020
  2.667085992759321E-020
  8.568325232837989E-020
  2.050370999068539E-019
 -3.814157304611234E-020
 -5.282156647166107E-020
 -1.519014015733634E-020
  3.261027517956786E-020
  1.780638146289312E-019
 -1.131766909898286E-020
  1.903893522347200E-022
  3.413338999744571E-021
  8.856276860411899E-021
  8.145734124651752E-021
  1.992253528224368E-021
  8.995651539467843E-021
  1.459346476404275E-021
  5.644726214829816E-020
  4.409526661872443E-020
 -1.527889225700146E-021
 -3.356972692954479E-020
 -5.046720690531600E-020
 -7.751384221150975E-020
 -2.682707592862677E-020
  7.038107617294806E-020
  4.715089392606053E-020
  6.700508250590170E-020
 -3.457519002683149E-019
 -1.674566882657080E-019
  5.925745911494288E-021
  2.410743834266471E-020
  1.295648260369853E-020
  3.297738454355691E-020
 -1.686263630600762E-020
  3.362324326565772E-021
  9.757208948406692E-021
 -5.201533835253843E-022
  1.350031197944196E-020
 -3.320511922849008E-020
 -1.653287227471699E-020
 -1.024443171241227E-019
  1.734143227518382E-020
  5.184457020999076E-020
  5.806932413669505E-020
 -3.235703315804490E-021
 -1.496557745390041E-020
 -4.598023771720106E-021
  6.032778583720491E-021
 -1.615104383434930E-019
  1.579035380100156E-019
  7.242434437435079E-020
 -1.045618181548296E-019
  5.636989901644957E-021
  1.451411074472951E-019
  2.081753522372272E-019
 -5.308664648929203E-020
 -3.423175665506044E-020
 -2.512406911749717E-021
  4.314271087739356E-021
  1.369070133167663E-020
  6.724648653131565E-021
  9.009320879948130E-021
  6.343869948662085E-021
 -1.082302305204676E-020
  5.070787817278646E-020
 -6.152724785485347E-020
  7.141822519212821E-020
 -1.181439008235317E-019
  8.142591491187380E-020
  1.483303744508489E-020
 -6.217248937900874E-020
  5.966753932934884E-022
  9.794554281104989E-021
  1.218425784980059E-019
 -9.138126355494167E-020
  1.918465386552279E-020
  1.030250339964719E-019
 -4.122514801456637E-020
 -1.005673044466434E-019
 -8.022664512723245E-020
  2.117690739374711E-020
 -1.098790506769224E-020
  0.000000000000000E+000
  3.413338999744557E-021
  3.743103031035216E-021
 -8.020028786076241E-021
 -3.623084485352519E-020
  1.161008779757517E-021
  7.294815193382434E-021
 -1.655945083145648E-021
  7.441318056745540E-020
 -2.893002481782062E-020
  6.329456683531979E-020
  6.161315931841399E-020
  1.122930909310567E-020
  9.779482084313088E-020
 -1.154190145580783E-019
 -8.308748873662266E-020
 -2.232925015889299E-020
  1.321099341782002E-019
  1.045754874953101E-019
  8.214420799005997E-020
  1.254363001982480E-019
  8.525145895073221E-020
  1.782825240766168E-020
  2.074511401609885E-020
 -1.611474823754927E-021
 -7.105427357601021E-022
  7.105427357601015E-021
  3.647908354917882E-021
 -1.004962764699896E-020
 -1.027736233193207E-020
  7.698104902870251E-021
  3.576945648560407E-020
 -5.279776780263153E-020
  9.269348500986322E-020
 -4.941664813290510E-020
  2.300611025069741E-020
 -1.538370149106848E-020
  6.964502610059808E-020
 -3.209329377753972E-020
  2.408193100607492E-020
 -2.203866280467195E-020
 -1.088287372581330E-019
  2.390704233869210E-020
 -1.757317904176770E-020
 -1.422305898018518E-019
 -4.646402718251801E-020
  3.740369162939119E-020
 -3.992976788162128E-020
  8.145734124651719E-021
 -3.362324326565752E-021
  1.143837111168950E-020
  0.000000000000000E+000
 -4.739229795147371E-021
 -9.281235567819825E-021
  4.935629712655204E-020
 -1.299620692251991E-020
 -5.667945251734856E-020
 -7.676821045236335E-020
  3.942645582007415E-020
  4.041941060268867E-020
 -2.694460595983626E-020
 -5.010510086719668E-020
 -1.804231775211438E-020
  6.183589067747835E-020
 -2.682390394712942E-020
 -2.231741216278403E-020
 -5.679240418762921E-020
 -1.287712858438530E-019
  3.641439953551976E-020
 -5.899872306030646E-020
 -1.370070798341433E-021
  5.925745911494342E-021
  5.056240158143399E-020
 -2.746976266923046E-021
 -1.395578134930813E-021
 -9.519467611735958E-023
  4.946460469360019E-022
  5.896821239784858E-021
 -3.277241017865600E-020
  4.254579013047800E-020
  1.138673424665482E-022
  1.425070171083499E-020
 -1.417350938250376E-020
  1.590568621896522E-020
  1.353265398627151E-020
 -4.721374659534845E-020
 -8.046304582677783E-020
  3.120920301152320E-021
 -3.756674230066563E-020
  1.170541653740517E-019
  3.046229635755519E-021
 -4.330393020429665E-020
 -7.229497634703304E-020
 -5.296777582095744E-020
 -6.599028307544125E-020
  1.801864175989637E-021
  1.879704049081308E-020
 -4.237749077971221E-021
 -1.144520578192990E-020
 -1.506760680025842E-020
 -1.494007011731141E-020
  1.325890795402851E-021
  3.325088522217722E-020
 -7.218635768405754E-020
  6.315190630575116E-022
  1.318293534757149E-019
 -3.226000713755639E-020
  4.444626631770435E-020
 -7.345098180092208E-020
  1.744014832570670E-021
  4.499192703781906E-020
 -1.325400088157316E-022
  7.102193156918037E-020
  5.847356635091192E-020
  2.370798697184597E-020
  3.755673564892754E-020
 -7.175114697128923E-021
  1.147754778875931E-020
  4.521465839688374E-020
  5.085835148415982E-021
 -4.618527782440623E-020
  1.585967487165520E-021
  7.173774060002484E-022
  2.432333503148844E-020
 -3.175352309451153E-021
 -6.902284337071521E-021
  2.076525880418360E-021
  8.137983782225829E-021
  8.781488053566052E-020
  4.528934906228052E-020
  3.501699005621768E-021
 -2.828050340697669E-020
 -7.880238767421401E-020
 -4.623629249758485E-020
  4.182182340785957E-020
  4.055695393737336E-020
  4.347564689018154E-020
  1.577631819164695E-020
 -2.542649446782723E-020
  4.171796271713057E-020
 -7.549058731358200E-021
 -7.754935619983731E-020
  1.657705227765555E-020
  2.753945000875812E-020
  3.746837564305064E-020
  1.967929991245871E-020
 -1.135501443168118E-021
  1.279910557685641E-020
 -2.163054541924201E-021
 -6.629453977014185E-022
 -5.119141898155693E-020
 -9.969004835086735E-020
  4.265123681195497E-020
 -6.297822679088710E-020
  2.795940539029774E-020
 -1.955359457388315E-020
  5.329070518200743E-021
  2.330170093078719E-020
 -1.180731182004999E-020
 -4.850046071368150E-020
 -2.794573604981717E-020
 -4.009965322313570E-020
  5.614971744702564E-020
 -3.221582713461806E-020
 -5.016295021061495E-020
 -7.085704955353507E-020
 -2.647363590511808E-020
 -2.423497502561155E-020
 -9.339084911238891E-021
 -2.365013762842721E-020
 -1.298015859591653E-020
 -2.176333078168034E-020
 -1.462305975431543E-020
 -1.219651118550833E-021
 -4.202905408207214E-020
 -5.555487339810319E-020
 -2.088448869515519E-020
  2.317416424784016E-020
  4.815885868628178E-020
  3.482159737811360E-020
 -5.287758447070893E-020
 -1.856247113563971E-020
  5.215203175734195E-021
 -1.592802157405747E-021
 -1.948073525285803E-021
  1.589018553411351E-020
 -1.942605789093619E-020
 -1.794028840575705E-020
  1.716689300070896E-020
  1.760368970422595E-020
 -1.614525890000754E-020
  5.874731238315514E-021
  1.161008779757513E-021
 -2.607601587867103E-021
 -2.705755763011708E-020
 -1.180297881274422E-020
 -8.881784197001367E-022
 -2.728303600573861E-022
  6.634555444332101E-020
 -3.864805708915712E-020
 -5.405592527968936E-021
 -2.131628207280322E-020
 -1.031470766463048E-020
 -2.980361822485462E-020
 -2.658616261045866E-021
  2.356177762254999E-020
 -1.145204045217000E-020
 -7.986637043348382E-020
 -4.824038402191843E-020
  2.285806955703009E-020
 -4.275094410669706E-021
  1.808698846229842E-021
  2.496419042772098E-020
  3.197442310920467E-020
 -2.721468930333686E-021
 -2.911858282568400E-021
  3.076740298213745E-021
 -1.050943002417096E-020
  5.329070518200730E-022
  1.255178255338841E-020
  3.327480656801817E-021
 -2.077654035074275E-021
  4.225911081862258E-021
  5.597983210551100E-020
 -5.898407230533528E-022
  5.442937860667324E-021
  2.363146496207784E-020
 -6.768828656070118E-021
  4.754167928226769E-020
 -1.766153904764476E-020
 -1.644951559470869E-020
  4.406548761323490E-020
  7.657922747955955E-021
  3.483026339272498E-021
 -1.421085471520200E-021
 -7.244802036656956E-021
 -1.141286377510018E-020
 -3.153262307981868E-021
 -3.185372109649778E-020
 -1.458479874943124E-020
  2.893185616219180E-021
  4.087877039932258E-022
 -2.384736165090195E-020
 -1.138735643851072E-020
 -5.099169329614693E-021
 -3.901608212533205E-021
  2.619988987287518E-020
  1.709220233531228E-020
  8.310616140297146E-021
 -3.614931951788799E-020
  7.664757418196110E-021
 -1.074149771640977E-020
 -4.820755130784341E-021
 -1.669091962012227E-020
  4.602539913463003E-020
 -3.312176254848183E-020
  5.366415850899125E-021
  5.036651819608525E-021
 -2.937365619157754E-021
  6.724648653131566E-021
 -1.383691068097280E-020
 -1.870184581469585E-020
  7.929837435827658E-021
  1.047458635440698E-020
  2.384870228802796E-021
 -8.415147149589059E-021
  1.378247867267389E-020
 -4.133218068679254E-021
  7.453864055240870E-022
  1.300383458813431E-022
  1.457296075332211E-020
  4.508712171393665E-020
 -4.011332256361607E-020
  5.451456663105278E-020
 -4.064031061738165E-020
  3.513952341329517E-020
 -8.567520850562355E-022
 -2.546567114489704E-020
  1.914047386258408E-020
  2.781819936687037E-020
  4.274643148807257E-020
 -1.217442118403908E-020
 -1.837891645364521E-020
 -1.034704967146004E-020
  1.266906723097506E-020
 -9.961267641121808E-022
 -6.534259300896847E-021
  7.600073404536989E-021
 -1.399495802637790E-020
  3.007052958685737E-021
  9.136857562895142E-022
  1.648820156453325E-022
  6.553389803338938E-021
  8.167824126121205E-022
 -8.204217864370195E-020
  9.266797767327402E-020
 -3.112450569438823E-020
  3.184188310038857E-020
 -1.079483444120543E-021
  1.107126174770052E-020
 -6.915038005366260E-021
 -1.665357428742365E-020
 -1.650053026788734E-020
  2.114456538691738E-020
 -1.941238855045569E-020
  1.707169832459149E-020
 -1.224410852356693E-020
 -5.043486489848636E-021
  1.484487544119385E-020
 -2.207100481150156E-020
  1.274876122224053E-021
  0.000000000000000E+000
 -2.829417274745709E-021
  4.249587074080364E-022
 -4.653371452204608E-021
 -3.375077994860494E-021
 -1.148255111462810E-021
  1.177576280859469E-021
 -2.126026407375528E-020
 -7.079920021011542E-021
 -2.557953848736345E-020
  5.976760584673032E-021
  2.345693551732995E-022
 -1.079751571545736E-020
 -2.600449719477146E-020
  2.268635287114432E-020
 -1.210473384451108E-020
  4.028503924950197E-020
 -4.666125120499334E-020
  2.650597791194757E-020
 -2.924611950863029E-020
  2.230557416667504E-020
 -9.420610246875877E-021
 -1.207922650792181E-020
  1.298015859591645E-020
 -1.311953327497236E-020
 -4.759733805867949E-023
 -2.972209288921727E-021
  5.805043898787519E-022
 -4.759733805867983E-023
 -1.291047125638847E-021
 -1.563023151916216E-021
SCALARS elementIsPlast double 
LOOKUP_TABLE default
  0.000000000000000E+000
  0.000000000000000E+000
  0.000000000000000E+000
  0.000000000000000E+000
  0.000000000000000E+000
  0.000000000000000E+000
  0.000000000000000E+000
  0.000000000000000E+000
  0.000000000000000E+000
  0.000000000000000E+000
  0.000000000000000E+000
  0.000000000000000E+000
  0.000000000000000E+000
  0.000000000000000E+000
  0.000000000000000E+000
  0.000000000000000E+000
  0.000000000000000E+000
  0.000000000000000E+000
  0.000000000000000E+000
  0.000000000000000E+000
  0.000000000000000E+000
  0.000000000000000E+000
  0.000000000000000E+000
  0.000000000000000E+000
  0.000000000000000E+000
  0.000000000000000E+000
  0.000000000000000E+000
  0.000000000000000E+000
  0.000000000000000E+000
  0.000000000000000E+000
  0.000000000000000E+000
  0.000000000000000E+000
  0.000000000000000E+000
  0.000000000000000E+000
  0.000000000000000E+000
  0.000000000000000E+000
  0.000000000000000E+000
  0.000000000000000E+000
  0.000000000000000E+000
  0.000000000000000E+000
  0.000000000000000E+000
  0.000000000000000E+000
  0.000000000000000E+000
  0.000000000000000E+000
  0.000000000000000E+000
  0.000000000000000E+000
  0.000000000000000E+000
  0.000000000000000E+000
  0.000000000000000E+000
  0.000000000000000E+000
  0.000000000000000E+000
  0.000000000000000E+000
  0.000000000000000E+000
  0.000000000000000E+000
  0.000000000000000E+000
  0.000000000000000E+000
  0.000000000000000E+000
  0.000000000000000E+000
  0.000000000000000E+000
  0.000000000000000E+000
  0.000000000000000E+000
  0.000000000000000E+000
  0.000000000000000E+000
  0.000000000000000E+000
  0.000000000000000E+000
  0.000000000000000E+000
  0.000000000000000E+000
  0.000000000000000E+000
  0.000000000000000E+000
  0.000000000000000E+000
  0.000000000000000E+000
  0.000000000000000E+000
  0.000000000000000E+000
  0.000000000000000E+000
  0.000000000000000E+000
  0.000000000000000E+000
  0.000000000000000E+000
  0.000000000000000E+000
  0.000000000000000E+000
  0.000000000000000E+000
  0.000000000000000E+000
  0.000000000000000E+000
  0.000000000000000E+000
  0.000000000000000E+000
  0.000000000000000E+000
  0.000000000000000E+000
  0.000000000000000E+000
  0.000000000000000E+000
  0.000000000000000E+000
  0.000000000000000E+000
  0.000000000000000E+000
  0.000000000000000E+000
  0.000000000000000E+000
  0.000000000000000E+000
  0.000000000000000E+000
  0.000000000000000E+000
  0.000000000000000E+000
  0.000000000000000E+000
  0.000000000000000E+000
  0.000000000000000E+000
  0.000000000000000E+000
  0.000000000000000E+000
  0.000000000000000E+000
  0.000000000000000E+000
  0.000000000000000E+000
  0.000000000000000E+000
  0.000000000000000E+000
  0.000000000000000E+000
  0.000000000000000E+000
  0.000000000000000E+000
  0.000000000000000E+000
  0.000000000000000E+000
  0.000000000000000E+000
  0.000000000000000E+000
  0.000000000000000E+000
  0.000000000000000E+000
  0.000000000000000E+000
  0.000000000000000E+000
  0.000000000000000E+000
  0.000000000000000E+000
  0.000000000000000E+000
  0.000000000000000E+000
  0.000000000000000E+000
  0.000000000000000E+000
  0.000000000000000E+000
  0.000000000000000E+000
  0.000000000000000E+000
  0.000000000000000E+000
  0.000000000000000E+000
  0.000000000000000E+000
  0.000000000000000E+000
  0.000000000000000E+000
  0.000000000000000E+000
  0.000000000000000E+000
  0.000000000000000E+000
  0.000000000000000E+000
  0.000000000000000E+000
  0.000000000000000E+000
  0.000000000000000E+000
  0.000000000000000E+000
  0.000000000000000E+000
  0.000000000000000E+000
  0.000000000000000E+000
  0.000000000000000E+000
  0.000000000000000E+000
  0.000000000000000E+000
  0.000000000000000E+000
  0.000000000000000E+000
  0.000000000000000E+000
  0.000000000000000E+000
  0.000000000000000E+000
  0.000000000000000E+000
  0.000000000000000E+000
  0.000000000000000E+000
  0.000000000000000E+000
  0.000000000000000E+000
  0.000000000000000E+000
  0.000000000000000E+000
  0.000000000000000E+000
  0.000000000000000E+000
  0.000000000000000E+000
  0.000000000000000E+000
  0.000000000000000E+000
  0.000000000000000E+000
  0.000000000000000E+000
  0.000000000000000E+000
  0.000000000000000E+000
  0.000000000000000E+000
  0.000000000000000E+000
  0.000000000000000E+000
  0.000000000000000E+000
  0.000000000000000E+000
  0.000000000000000E+000
  0.000000000000000E+000
  0.000000000000000E+000
  0.000000000000000E+000
  0.000000000000000E+000
  0.000000000000000E+000
  0.000000000000000E+000
  0.000000000000000E+000
  0.000000000000000E+000
  0.000000000000000E+000
  0.000000000000000E+000
  0.000000000000000E+000
  0.000000000000000E+000
  0.000000000000000E+000
  0.000000000000000E+000
  0.000000000000000E+000
  0.000000000000000E+000
  0.000000000000000E+000
  0.000000000000000E+000
  0.000000000000000E+000
  0.000000000000000E+000
  0.000000000000000E+000
  0.000000000000000E+000
  0.000000000000000E+000
  0.000000000000000E+000
  0.000000000000000E+000
  0.000000000000000E+000
  0.000000000000000E+000
  0.000000000000000E+000
  0.000000000000000E+000
  0.000000000000000E+000
  0.000000000000000E+000
  0.000000000000000E+000
  0.000000000000000E+000
  0.000000000000000E+000
  0.000000000000000E+000
  0.000000000000000E+000
  0.000000000000000E+000
  0.000000000000000E+000
  0.000000000000000E+000
  0.000000000000000E+000
  0.000000000000000E+000
  0.000000000000000E+000
  0.000000000000000E+000
  0.000000000000000E+000
  0.000000000000000E+000
  0.000000000000000E+000
  0.000000000000000E+000
  0.000000000000000E+000
  0.000000000000000E+000
  0.000000000000000E+000
  0.000000000000000E+000
  0.000000000000000E+000
  0.000000000000000E+000
  0.000000000000000E+000
  0.000000000000000E+000
  0.000000000000000E+000
  0.000000000000000E+000
  0.000000000000000E+000
  0.000000000000000E+000
  0.000000000000000E+000
  0.000000000000000E+000
  0.000000000000000E+000
  0.000000000000000E+000
  0.000000000000000E+000
  0.000000000000000E+000
  0.000000000000000E+000
  0.000000000000000E+000
  0.000000000000000E+000
  0.000000000000000E+000
  0.000000000000000E+000
  0.000000000000000E+000
  0.000000000000000E+000
  0.000000000000000E+000
  0.000000000000000E+000
  0.000000000000000E+000
  0.000000000000000E+000
  0.000000000000000E+000
  0.000000000000000E+000
  0.000000000000000E+000
  0.000000000000000E+000
  0.000000000000000E+000
  0.000000000000000E+000
  0.000000000000000E+000
  0.000000000000000E+000
  0.000000000000000E+000
  0.000000000000000E+000
  0.000000000000000E+000
  0.000000000000000E+000
  0.000000000000000E+000
  0.000000000000000E+000
  0.000000000000000E+000
  0.000000000000000E+000
  0.000000000000000E+000
  0.000000000000000E+000
  0.000000000000000E+000
  0.000000000000000E+000
  0.000000000000000E+000
  0.000000000000000E+000
  0.000000000000000E+000
  0.000000000000000E+000
  0.000000000000000E+000
  0.000000000000000E+000
  0.000000000000000E+000
  0.000000000000000E+000
  0.000000000000000E+000
  0.000000000000000E+000
  0.000000000000000E+000
  0.000000000000000E+000
  0.000000000000000E+000
  0.000000000000000E+000
  0.000000000000000E+000
  0.000000000000000E+000
  0.000000000000000E+000
  0.000000000000000E+000
  0.000000000000000E+000
  0.000000000000000E+000
  0.000000000000000E+000
  0.000000000000000E+000
  0.000000000000000E+000
  0.000000000000000E+000
  0.000000000000000E+000
  0.000000000000000E+000
  0.000000000000000E+000
  0.000000000000000E+000
  0.000000000000000E+000
  0.000000000000000E+000
  0.000000000000000E+000
  0.000000000000000E+000
  0.000000000000000E+000
  0.000000000000000E+000
  0.000000000000000E+000
  0.000000000000000E+000
  0.000000000000000E+000
  0.000000000000000E+000
  0.000000000000000E+000
  0.000000000000000E+000
  0.000000000000000E+000
  0.000000000000000E+000
  0.000000000000000E+000
  0.000000000000000E+000
  0.000000000000000E+000
  0.000000000000000E+000
  0.000000000000000E+000
  0.000000000000000E+000
  0.000000000000000E+000
  0.000000000000000E+000
  0.000000000000000E+000
  0.000000000000000E+000
  0.000000000000000E+000
  0.000000000000000E+000
  0.000000000000000E+000
  0.000000000000000E+000
  0.000000000000000E+000
  0.000000000000000E+000
  0.000000000000000E+000
  0.000000000000000E+000
  0.000000000000000E+000
  0.000000000000000E+000
  0.000000000000000E+000
  0.000000000000000E+000
  0.000000000000000E+000
  0.000000000000000E+000
  0.000000000000000E+000
  0.000000000000000E+000
  0.000000000000000E+000
  0.000000000000000E+000
  0.000000000000000E+000
  0.000000000000000E+000
  0.000000000000000E+000
  0.000000000000000E+000
  0.000000000000000E+000
  0.000000000000000E+000
  0.000000000000000E+000
  0.000000000000000E+000
  0.000000000000000E+000
  0.000000000000000E+000
  0.000000000000000E+000
  0.000000000000000E+000
  0.000000000000000E+000
  0.000000000000000E+000
  0.000000000000000E+000
  0.000000000000000E+000
  0.000000000000000E+000
  0.000000000000000E+000
  0.000000000000000E+000
  0.000000000000000E+000
  0.000000000000000E+000
  0.000000000000000E+000
  0.000000000000000E+000
  0.000000000000000E+000
  0.000000000000000E+000
  0.000000000000000E+000
  0.000000000000000E+000
  0.000000000000000E+000
  0.000000000000000E+000
  0.000000000000000E+000
  0.000000000000000E+000
  0.000000000000000E+000
  0.000000000000000E+000
  0.000000000000000E+000
  0.000000000000000E+000
  0.000000000000000E+000
  0.000000000000000E+000
  0.000000000000000E+000
  0.000000000000000E+000
  0.000000000000000E+000
  0.000000000000000E+000
  0.000000000000000E+000
  0.000000000000000E+000
  0.000000000000000E+000
  0.000000000000000E+000
  0.000000000000000E+000
  0.000000000000000E+000
  0.000000000000000E+000
  0.000000000000000E+000
  0.000000000000000E+000
  0.000000000000000E+000
  0.000000000000000E+000
  0.000000000000000E+000
  0.000000000000000E+000
  0.000000000000000E+000
  0.000000000000000E+000
  0.000000000000000E+000
  0.000000000000000E+000
  0.000000000000000E+000
  0.000000000000000E+000
  0.000000000000000E+000
  0.000000000000000E+000
  0.000000000000000E+000
  0.000000000000000E+000
  0.000000000000000E+000
  0.000000000000000E+000
  0.000000000000000E+000
  0.000000000000000E+000
  0.000000000000000E+000
  0.000000000000000E+000
  0.000000000000000E+000
  0.000000000000000E+000
  0.000000000000000E+000
  0.000000000000000E+000
  0.000000000000000E+000
  0.000000000000000E+000
  0.000000000000000E+000
  0.000000000000000E+000
  0.000000000000000E+000
  0.000000000000000E+000
  0.000000000000000E+000
  0.000000000000000E+000
  0.000000000000000E+000
  0.000000000000000E+000
  0.000000000000000E+000
  0.000000000000000E+000
  0.000000000000000E+000
  0.000000000000000E+000
  0.000000000000000E+000
  0.000000000000000E+000
  0.000000000000000E+000
  0.000000000000000E+000
  0.000000000000000E+000
  0.000000000000000E+000
  0.000000000000000E+000
  0.000000000000000E+000
  0.000000000000000E+000
  0.000000000000000E+000
  0.000000000000000E+000
  0.000000000000000E+000
  0.000000000000000E+000
  0.000000000000000E+000
  0.000000000000000E+000
  0.000000000000000E+000
  0.000000000000000E+000
  0.000000000000000E+000
  0.000000000000000E+000
  0.000000000000000E+000
  0.000000000000000E+000
  0.000000000000000E+000
  0.000000000000000E+000
  0.000000000000000E+000
  0.000000000000000E+000
  0.000000000000000E+000
  0.000000000000000E+000
  0.000000000000000E+000
  0.000000000000000E+000
  0.000000000000000E+000
  0.000000000000000E+000
  0.000000000000000E+000
  0.000000000000000E+000
  0.000000000000000E+000
  0.000000000000000E+000
  0.000000000000000E+000
  0.000000000000000E+000
  0.000000000000000E+000
  0.000000000000000E+000
  0.000000000000000E+000
  0.000000000000000E+000
  0.000000000000000E+000
  0.000000000000000E+000
  0.000000000000000E+000
  0.000000000000000E+000
  0.000000000000000E+000
  0.000000000000000E+000
  0.000000000000000E+000
  0.000000000000000E+000
  0.000000000000000E+000
  0.000000000000000E+000
  0.000000000000000E+000
  0.000000000000000E+000
  0.000000000000000E+000
  0.000000000000000E+000
  0.000000000000000E+000
  0.000000000000000E+000
  0.000000000000000E+000
  0.000000000000000E+000
  0.000000000000000E+000
  0.000000000000000E+000
  0.000000000000000E+000
  0.000000000000000E+000
  0.000000000000000E+000
  0.000000000000000E+000
  0.000000000000000E+000
  0.000000000000000E+000
  0.000000000000000E+000
  0.000000000000000E+000
  0.000000000000000E+000
  0.000000000000000E+000
  0.000000000000000E+000
  0.000000000000000E+000
  0.000000000000000E+000
  0.000000000000000E+000
  0.000000000000000E+000
  0.000000000000000E+000
  0.000000000000000E+000
  0.000000000000000E+000
  0.000000000000000E+000
  0.000000000000000E+000
  0.000000000000000E+000
  0.000000000000000E+000
  0.000000000000000E+000
  0.000000000000000E+000
  0.000000000000000E+000
  0.000000000000000E+000
  0.000000000000000E+000
  0.000000000000000E+000
  0.000000000000000E+000
  0.000000000000000E+000
  0.000000000000000E+000
  0.000000000000000E+000
  0.000000000000000E+000
  0.000000000000000E+000
  0.000000000000000E+000
  0.000000000000000E+000
  0.000000000000000E+000
  0.000000000000000E+000
  0.000000000000000E+000
  0.000000000000000E+000
  0.000000000000000E+000
  0.000000000000000E+000
  0.000000000000000E+000
  0.000000000000000E+000
  0.000000000000000E+000
  0.000000000000000E+000
  0.000000000000000E+000
  0.000000000000000E+000
  0.000000000000000E+000
  0.000000000000000E+000
  0.000000000000000E+000
  0.000000000000000E+000
  0.000000000000000E+000
  0.000000000000000E+000
  0.000000000000000E+000
  0.000000000000000E+000
  0.000000000000000E+000
  0.000000000000000E+000
  0.000000000000000E+000
  0.000000000000000E+000
  0.000000000000000E+000
  0.000000000000000E+000
  0.000000000000000E+000
  0.000000000000000E+000
  0.000000000000000E+000
  0.000000000000000E+000
  0.000000000000000E+000
  0.000000000000000E+000
  0.000000000000000E+000
  0.000000000000000E+000
  0.000000000000000E+000
  0.000000000000000E+000
  0.000000000000000E+000
  0.000000000000000E+000
  0.000000000000000E+000
  0.000000000000000E+000
  0.000000000000000E+000
  0.000000000000000E+000
  0.000000000000000E+000
  0.000000000000000E+000
  0.000000000000000E+000
  0.000000000000000E+000
  0.000000000000000E+000
  0.000000000000000E+000
  0.000000000000000E+000
  0.000000000000000E+000
  0.000000000000000E+000
  0.000000000000000E+000
  0.000000000000000E+000
  0.000000000000000E+000
  0.000000000000000E+000
  0.000000000000000E+000
  0.000000000000000E+000
  0.000000000000000E+000
  0.000000000000000E+000
  0.000000000000000E+000
  0.000000000000000E+000
  0.000000000000000E+000
  0.000000000000000E+000
  0.000000000000000E+000
  0.000000000000000E+000
  0.000000000000000E+000
  0.000000000000000E+000
  0.000000000000000E+000
  0.000000000000000E+000
  0.000000000000000E+000
  0.000000000000000E+000
  0.000000000000000E+000
  0.000000000000000E+000
  0.000000000000000E+000
  0.000000000000000E+000
  0.000000000000000E+000
  0.000000000000000E+000
  0.000000000000000E+000
  0.000000000000000E+000
  0.000000000000000E+000
  0.000000000000000E+000
  0.000000000000000E+000
  0.000000000000000E+000
  0.000000000000000E+000
  0.000000000000000E+000
  0.000000000000000E+000
  0.000000000000000E+000
  0.000000000000000E+000
  0.000000000000000E+000
  0.000000000000000E+000
  0.000000000000000E+000
  0.000000000000000E+000
  0.000000000000000E+000
  0.000000000000000E+000
  0.000000000000000E+000
  0.000000000000000E+000
  0.000000000000000E+000
  0.000000000000000E+000
  0.000000000000000E+000
  0.000000000000000E+000
  0.000000000000000E+000
  0.000000000000000E+000
  0.000000000000000E+000
  0.000000000000000E+000
  0.000000000000000E+000
  0.000000000000000E+000
  0.000000000000000E+000
  0.000000000000000E+000
  0.000000000000000E+000
  0.000000000000000E+000
  0.000000000000000E+000
  0.000000000000000E+000
  0.000000000000000E+000
  0.000000000000000E+000
  0.000000000000000E+000
  0.000000000000000E+000
  0.000000000000000E+000
  0.000000000000000E+000
  0.000000000000000E+000
  0.000000000000000E+000
  0.000000000000000E+000
  0.000000000000000E+000
  0.000000000000000E+000
  0.000000000000000E+000
  0.000000000000000E+000
  0.000000000000000E+000
  0.000000000000000E+000
  0.000000000000000E+000
  0.000000000000000E+000
  0.000000000000000E+000
  0.000000000000000E+000
  0.000000000000000E+000
  0.000000000000000E+000
  0.000000000000000E+000
  0.000000000000000E+000
  0.000000000000000E+000
  0.000000000000000E+000
  0.000000000000000E+000
  0.000000000000000E+000
  0.000000000000000E+000
  0.000000000000000E+000
  0.000000000000000E+000
  0.000000000000000E+000
  0.000000000000000E+000
  0.000000000000000E+000
  0.000000000000000E+000
  0.000000000000000E+000
  0.000000000000000E+000
  0.000000000000000E+000
  0.000000000000000E+000
  0.000000000000000E+000
  0.000000000000000E+000
  0.000000000000000E+000
  0.000000000000000E+000
  0.000000000000000E+000
  0.000000000000000E+000
  0.000000000000000E+000
  0.000000000000000E+000
  0.000000000000000E+000
  0.000000000000000E+000
  0.000000000000000E+000
  0.000000000000000E+000
  0.000000000000000E+000
  0.000000000000000E+000
  0.000000000000000E+000
  0.000000000000000E+000
  0.000000000000000E+000
  0.000000000000000E+000
  0.000000000000000E+000
  0.000000000000000E+000
  0.000000000000000E+000
  0.000000000000000E+000
  0.000000000000000E+000
  0.000000000000000E+000
  0.000000000000000E+000
  0.000000000000000E+000
  0.000000000000000E+000
  0.000000000000000E+000
  0.000000000000000E+000
  0.000000000000000E+000
  0.000000000000000E+000
  0.000000000000000E+000
  0.000000000000000E+000
  0.000000000000000E+000
  0.000000000000000E+000
  0.000000000000000E+000
  0.000000000000000E+000
  0.000000000000000E+000
  0.000000000000000E+000
  0.000000000000000E+000
  0.000000000000000E+000
  0.000000000000000E+000
  0.000000000000000E+000
  0.000000000000000E+000
  0.000000000000000E+000
  0.000000000000000E+000
  0.000000000000000E+000
  0.000000000000000E+000
  0.000000000000000E+000
  0.000000000000000E+000
  0.000000000000000E+000
  0.000000000000000E+000
  0.000000000000000E+000
  0.000000000000000E+000
  0.000000000000000E+000
  0.000000000000000E+000
  0.000000000000000E+000
  0.000000000000000E+000
  0.000000000000000E+000
  0.000000000000000E+000
  0.000000000000000E+000
  0.000000000000000E+000
  0.000000000000000E+000
  0.000000000000000E+000
  0.000000000000000E+000
  0.000000000000000E+000
  0.000000000000000E+000
  0.000000000000000E+000
  0.000000000000000E+000
  0.000000000000000E+000
  0.000000000000000E+000
  0.000000000000000E+000
  0.000000000000000E+000
  0.000000000000000E+000
  0.000000000000000E+000
  0.000000000000000E+000
  0.000000000000000E+000
  0.000000000000000E+000
  0.000000000000000E+000
  0.000000000000000E+000
  0.000000000000000E+000
  0.000000000000000E+000
  0.000000000000000E+000
  0.000000000000000E+000
  0.000000000000000E+000
  0.000000000000000E+000
  0.000000000000000E+000
  0.000000000000000E+000
  0.000000000000000E+000
  0.000000000000000E+000
  0.000000000000000E+000
  0.000000000000000E+000
  0.000000000000000E+000
  0.000000000000000E+000
  0.000000000000000E+000
  0.000000000000000E+000
  0.000000000000000E+000
  0.000000000000000E+000
  0.000000000000000E+000
  0.000000000000000E+000
  0.000000000000000E+000
  0.000000000000000E+000
  0.000000000000000E+000
  0.000000000000000E+000
  0.000000000000000E+000
  0.000000000000000E+000
  0.000000000000000E+000
  0.000000000000000E+000
  0.000000000000000E+000
  0.000000000000000E+000
  0.000000000000000E+000
  0.000000000000000E+000
  0.000000000000000E+000
  0.000000000000000E+000
  0.000000000000000E+000
  0.000000000000000E+000
  0.000000000000000E+000
  0.000000000000000E+000
  0.000000000000000E+000
  0.000000000000000E+000
  0.000000000000000E+000
  0.000000000000000E+000
  0.000000000000000E+000
  0.000000000000000E+000
  0.000000000000000E+000
  0.000000000000000E+000
  0.000000000000000E+000
  0.000000000000000E+000
  0.000000000000000E+000
  0.000000000000000E+000
  0.000000000000000E+000
  0.000000000000000E+000
  0.000000000000000E+000
  0.000000000000000E+000
  0.000000000000000E+000
  0.000000000000000E+000
  0.000000000000000E+000
  0.000000000000000E+000
  0.000000000000000E+000
  0.000000000000000E+000
  0.000000000000000E+000
  0.000000000000000E+000
  0.000000000000000E+000
  0.000000000000000E+000
  0.000000000000000E+000
  0.000000000000000E+000
  0.000000000000000E+000
  0.000000000000000E+000
  0.000000000000000E+000
  0.000000000000000E+000
  0.000000000000000E+000
  0.000000000000000E+000
  0.000000000000000E+000
  0.000000000000000E+000
  0.000000000000000E+000
  0.000000000000000E+000
  0.000000000000000E+000
  0.000000000000000E+000
  0.000000000000000E+000
  0.000000000000000E+000
  0.000000000000000E+000
  0.000000000000000E+000
  0.000000000000000E+000
  0.000000000000000E+000
  0.000000000000000E+000
  0.000000000000000E+000
  0.000000000000000E+000
  0.000000000000000E+000
  0.000000000000000E+000
  0.000000000000000E+000
  0.000000000000000E+000
  0.000000000000000E+000
  0.000000000000000E+000
  0.000000000000000E+000
  0.000000000000000E+000
  0.000000000000000E+000
  0.000000000000000E+000
  0.000000000000000E+000
  0.000000000000000E+000
  0.000000000000000E+000
  0.000000000000000E+000
  0.000000000000000E+000
  0.000000000000000E+000
  0.000000000000000E+000
  0.000000000000000E+000
  0.000000000000000E+000
  0.000000000000000E+000
  0.000000000000000E+000
  0.000000000000000E+000
  0.000000000000000E+000
  0.000000000000000E+000
  0.000000000000000E+000
  0.000000000000000E+000
  0.000000000000000E+000
  0.000000000000000E+000
  0.000000000000000E+000
  0.000000000000000E+000
  0.000000000000000E+000
  0.000000000000000E+000
  0.000000000000000E+000
  0.000000000000000E+000
  0.000000000000000E+000
  0.000000000000000E+000
  0.000000000000000E+000
  0.000000000000000E+000
  0.000000000000000E+000
  0.000000000000000E+000
  0.000000000000000E+000
  0.000000000000000E+000
  0.000000000000000E+000
  0.000000000000000E+000
  0.000000000000000E+000
  0.000000000000000E+000
  0.000000000000000E+000
  0.000000000000000E+000
  0.000000000000000E+000
  0.000000000000000E+000
  0.000000000000000E+000
  0.000000000000000E+000
  0.000000000000000E+000
  0.000000000000000E+000
  0.000000000000000E+000
  0.000000000000000E+000
  0.000000000000000E+000
  0.000000000000000E+000
  0.000000000000000E+000
  0.000000000000000E+000
  0.000000000000000E+000
  0.000000000000000E+000
  0.000000000000000E+000
  0.000000000000000E+000
  0.000000000000000E+000
  0.000000000000000E+000
  0.000000000000000E+000
  0.000000000000000E+000
  0.000000000000000E+000
  0.000000000000000E+000
  0.000000000000000E+000
  0.000000000000000E+000
  0.000000000000000E+000
  0.000000000000000E+000
  0.000000000000000E+000
  0.000000000000000E+000
  0.000000000000000E+000
  0.000000000000000E+000
  0.000000000000000E+000
  0.000000000000000E+000
  0.000000000000000E+000
  0.000000000000000E+000
  0.000000000000000E+000
  0.000000000000000E+000
  0.000000000000000E+000
  0.000000000000000E+000
  0.000000000000000E+000
  0.000000000000000E+000
  0.000000000000000E+000
  0.000000000000000E+000
  0.000000000000000E+000
  0.000000000000000E+000
  0.000000000000000E+000
  0.000000000000000E+000
  0.000000000000000E+000
  0.000000000000000E+000
  0.000000000000000E+000
  0.000000000000000E+000
  0.000000000000000E+000
  0.000000000000000E+000
  0.000000000000000E+000
  0.000000000000000E+000
  0.000000000000000E+000
  0.000000000000000E+000
  0.000000000000000E+000
  0.000000000000000E+000
  0.000000000000000E+000
  0.000000000000000E+000
  0.000000000000000E+000
  0.000000000000000E+000
  0.000000000000000E+000
  0.000000000000000E+000
  0.000000000000000E+000
  0.000000000000000E+000
  0.000000000000000E+000
  0.000000000000000E+000
  0.000000000000000E+000
  0.000000000000000E+000
  0.000000000000000E+000
  0.000000000000000E+000
  0.000000000000000E+000
  0.000000000000000E+000
  0.000000000000000E+000
  0.000000000000000E+000
  0.000000000000000E+000
  0.000000000000000E+000
  0.000000000000000E+000
  0.000000000000000E+000
  0.000000000000000E+000
  0.000000000000000E+000
  0.000000000000000E+000
  0.000000000000000E+000
  0.000000000000000E+000
  0.000000000000000E+000
  0.000000000000000E+000
  0.000000000000000E+000
  0.000000000000000E+000
  0.000000000000000E+000
  0.000000000000000E+000
  0.000000000000000E+000
  0.000000000000000E+000
  0.000000000000000E+000
  0.000000000000000E+000
  0.000000000000000E+000
  0.000000000000000E+000
  0.000000000000000E+000
  0.000000000000000E+000
  0.000000000000000E+000
  0.000000000000000E+000
  0.000000000000000E+000
  0.000000000000000E+000
  0.000000000000000E+000
  0.000000000000000E+000
  0.000000000000000E+000
  0.000000000000000E+000
  0.000000000000000E+000
  0.000000000000000E+000
  0.000000000000000E+000
  0.000000000000000E+000
  0.000000000000000E+000
  0.000000000000000E+000
  0.000000000000000E+000
  0.000000000000000E+000
  0.000000000000000E+000
  0.000000000000000E+000
  0.000000000000000E+000
  0.000000000000000E+000
  0.000000000000000E+000
  0.000000000000000E+000
  0.000000000000000E+000
  0.000000000000000E+000
  0.000000000000000E+000
  0.000000000000000E+000
  0.000000000000000E+000
  0.000000000000000E+000
  0.000000000000000E+000
  0.000000000000000E+000
  0.000000000000000E+000
  0.000000000000000E+000
  0.000000000000000E+000
  0.000000000000000E+000
  0.000000000000000E+000
  0.000000000000000E+000
  0.000000000000000E+000
  0.000000000000000E+000
  0.000000000000000E+000
  0.000000000000000E+000
  0.000000000000000E+000
  0.000000000000000E+000
  0.000000000000000E+000
  0.000000000000000E+000
  0.000000000000000E+000
  0.000000000000000E+000
  0.000000000000000E+000
  0.000000000000000E+000
  0.000000000000000E+000
  0.000000000000000E+000
  0.000000000000000E+000
  0.000000000000000E+000
  0.000000000000000E+000
  0.000000000000000E+000
  0.000000000000000E+000
  0.000000000000000E+000
  0.000000000000000E+000
  0.000000000000000E+000
  0.000000000000000E+000
  0.000000000000000E+000
  0.000000000000000E+000
  0.000000000000000E+000
  0.000000000000000E+000
  0.000000000000000E+000
  0.000000000000000E+000
  0.000000000000000E+000
  0.000000000000000E+000
  0.000000000000000E+000
  0.000000000000000E+000
  0.000000000000000E+000
  0.000000000000000E+000
  0.000000000000000E+000
  0.000000000000000E+000
  0.000000000000000E+000
  0.000000000000000E+000
  0.000000000000000E+000
  0.000000000000000E+000
  0.000000000000000E+000
  0.000000000000000E+000
  0.000000000000000E+000
  0.000000000000000E+000
  0.000000000000000E+000
  0.000000000000000E+000
  0.000000000000000E+000
  0.000000000000000E+000
  0.000000000000000E+000
  0.000000000000000E+000
  0.000000000000000E+000
  0.000000000000000E+000
  0.000000000000000E+000
  0.000000000000000E+000
  0.000000000000000E+000
  0.000000000000000E+000
  0.000000000000000E+000
  0.000000000000000E+000
  0.000000000000000E+000
  0.000000000000000E+000
  0.000000000000000E+000
  0.000000000000000E+000
  0.000000000000000E+000
  0.000000000000000E+000
  0.000000000000000E+000
  0.000000000000000E+000
  0.000000000000000E+000
  0.000000000000000E+000
  0.000000000000000E+000
  0.000000000000000E+000
  0.000000000000000E+000
  0.000000000000000E+000
  0.000000000000000E+000
  0.000000000000000E+000
  0.000000000000000E+000
  0.000000000000000E+000
  0.000000000000000E+000
  0.000000000000000E+000
  0.000000000000000E+000
  0.000000000000000E+000
  0.000000000000000E+000
  0.000000000000000E+000
  0.000000000000000E+000
  0.000000000000000E+000
  0.000000000000000E+000
  0.000000000000000E+000
  0.000000000000000E+000
  0.000000000000000E+000
  0.000000000000000E+000
  0.000000000000000E+000
  0.000000000000000E+000
  0.000000000000000E+000
  0.000000000000000E+000
  0.000000000000000E+000
  0.000000000000000E+000
  0.000000000000000E+000
  0.000000000000000E+000
  0.000000000000000E+000
  0.000000000000000E+000
  0.000000000000000E+000
  0.000000000000000E+000
  0.000000000000000E+000
  0.000000000000000E+000
  0.000000000000000E+000
  0.000000000000000E+000
  0.000000000000000E+000
  0.000000000000000E+000
  0.000000000000000E+000
  0.000000000000000E+000
  0.000000000000000E+000
  0.000000000000000E+000
  0.000000000000000E+000
  0.000000000000000E+000
  0.000000000000000E+000
  0.000000000000000E+000
  0.000000000000000E+000
  0.000000000000000E+000
  0.000000000000000E+000
  0.000000000000000E+000
  0.000000000000000E+000
  0.000000000000000E+000
  0.000000000000000E+000
  0.000000000000000E+000
  0.000000000000000E+000
  0.000000000000000E+000
  0.000000000000000E+000
  0.000000000000000E+000
