# vtk DataFile Version 3.0
vtk output
ASCII
DATASET UNSTRUCTURED_GRID
POINTS      1225 double 
  0.00000000E+00  2.40000000E+01  0.00000000E+00
  0.00000000E+00  2.30000000E+01  0.00000000E+00
  0.00000000E+00  2.20000000E+01  0.00000000E+00
  0.00000000E+00  2.10000000E+01  0.00000000E+00
  0.00000000E+00  2.00000000E+01  0.00000000E+00
  0.00000000E+00  1.90000000E+01  0.00000000E+00
  0.00000000E+00  1.80000000E+01  0.00000000E+00
  0.00000000E+00  1.70000000E+01  0.00000000E+00
  0.00000000E+00  1.60000000E+01  0.00000000E+00
  0.00000000E+00  1.50000000E+01  0.00000000E+00
  0.00000000E+00  1.40000000E+01  0.00000000E+00
  0.00000000E+00  1.30000000E+01  0.00000000E+00
  0.00000000E+00  1.20000000E+01  0.00000000E+00
  0.00000000E+00  1.10000000E+01  0.00000000E+00
  0.00000000E+00  1.00000000E+01  0.00000000E+00
  0.00000000E+00  9.00000000E+00  0.00000000E+00
  0.00000000E+00  8.00000000E+00  0.00000000E+00
  0.00000000E+00  7.00000000E+00  0.00000000E+00
  0.00000000E+00  6.00000000E+00  0.00000000E+00
  0.00000000E+00  5.00000000E+00  0.00000000E+00
  0.00000000E+00  4.00000000E+00  0.00000000E+00
  0.00000000E+00  3.00000000E+00  0.00000000E+00
  0.00000000E+00  2.00000000E+00  0.00000000E+00
  0.00000000E+00  1.00000000E+00  0.00000000E+00
  0.00000000E+00 -2.66453526E-15  0.00000000E+00
  1.00000000E+00  2.40000000E+01  0.00000000E+00
  1.00000000E+00  2.30000000E+01  0.00000000E+00
  1.00000000E+00  2.20000000E+01  0.00000000E+00
  1.00000000E+00  2.10000000E+01  0.00000000E+00
  1.00000000E+00  2.00000000E+01  0.00000000E+00
  1.00000000E+00  1.90000000E+01  0.00000000E+00
  1.00000000E+00  1.80000000E+01  0.00000000E+00
  1.00000000E+00  1.70000000E+01  0.00000000E+00
  1.00000000E+00  1.60000000E+01  0.00000000E+00
  1.00000000E+00  1.50000000E+01  0.00000000E+00
  1.00000000E+00  1.40000000E+01  0.00000000E+00
  1.00000000E+00  1.30000000E+01  0.00000000E+00
  1.00000000E+00  1.20000000E+01  0.00000000E+00
  1.00000000E+00  1.10000000E+01  0.00000000E+00
  1.00000000E+00  1.00000000E+01  0.00000000E+00
  1.00000000E+00  9.00000000E+00  0.00000000E+00
  1.00000000E+00  8.00000000E+00  0.00000000E+00
  1.00000000E+00  7.00000000E+00  0.00000000E+00
  1.00000000E+00  6.00000000E+00  0.00000000E+00
  1.00000000E+00  5.00000000E+00  0.00000000E+00
  1.00000000E+00  4.00000000E+00  0.00000000E+00
  1.00000000E+00  3.00000000E+00  0.00000000E+00
  1.00000000E+00  2.00000000E+00  0.00000000E+00
  1.00000000E+00  1.00000000E+00  0.00000000E+00
  1.00000000E+00 -2.66453526E-15  0.00000000E+00
  2.00000000E+00  2.40000000E+01  0.00000000E+00
  2.00000000E+00  2.30000000E+01  0.00000000E+00
  2.00000000E+00  2.20000000E+01  0.00000000E+00
  2.00000000E+00  2.10000000E+01  0.00000000E+00
  2.00000000E+00  2.00000000E+01  0.00000000E+00
  2.00000000E+00  1.90000000E+01  0.00000000E+00
  2.00000000E+00  1.80000000E+01  0.00000000E+00
  2.00000000E+00  1.70000000E+01  0.00000000E+00
  2.00000000E+00  1.60000000E+01  0.00000000E+00
  2.00000000E+00  1.50000000E+01  0.00000000E+00
  2.00000000E+00  1.40000000E+01  0.00000000E+00
  2.00000000E+00  1.30000000E+01  0.00000000E+00
  2.00000000E+00  1.20000000E+01  0.00000000E+00
  2.00000000E+00  1.10000000E+01  0.00000000E+00
  2.00000000E+00  1.00000000E+01  0.00000000E+00
  2.00000000E+00  9.00000000E+00  0.00000000E+00
  2.00000000E+00  8.00000000E+00  0.00000000E+00
  2.00000000E+00  7.00000000E+00  0.00000000E+00
  2.00000000E+00  6.00000000E+00  0.00000000E+00
  2.00000000E+00  5.00000000E+00  0.00000000E+00
  2.00000000E+00  4.00000000E+00  0.00000000E+00
  2.00000000E+00  3.00000000E+00  0.00000000E+00
  2.00000000E+00  2.00000000E+00  0.00000000E+00
  2.00000000E+00  1.00000000E+00  0.00000000E+00
  2.00000000E+00 -2.66453526E-15  0.00000000E+00
  3.00000000E+00  2.40000000E+01  0.00000000E+00
  3.00000000E+00  2.30000000E+01  0.00000000E+00
  3.00000000E+00  2.20000000E+01  0.00000000E+00
  3.00000000E+00  2.10000000E+01  0.00000000E+00
  3.00000000E+00  2.00000000E+01  0.00000000E+00
  3.00000000E+00  1.90000000E+01  0.00000000E+00
  3.00000000E+00  1.80000000E+01  0.00000000E+00
  3.00000000E+00  1.70000000E+01  0.00000000E+00
  3.00000000E+00  1.60000000E+01  0.00000000E+00
  3.00000000E+00  1.50000000E+01  0.00000000E+00
  3.00000000E+00  1.40000000E+01  0.00000000E+00
  3.00000000E+00  1.30000000E+01  0.00000000E+00
  3.00000000E+00  1.20000000E+01  0.00000000E+00
  3.00000000E+00  1.10000000E+01  0.00000000E+00
  3.00000000E+00  1.00000000E+01  0.00000000E+00
  3.00000000E+00  9.00000000E+00  0.00000000E+00
  3.00000000E+00  8.00000000E+00  0.00000000E+00
  3.00000000E+00  7.00000000E+00  0.00000000E+00
  3.00000000E+00  6.00000000E+00  0.00000000E+00
  3.00000000E+00  5.00000000E+00  0.00000000E+00
  3.00000000E+00  4.00000000E+00  0.00000000E+00
  3.00000000E+00  3.00000000E+00  0.00000000E+00
  3.00000000E+00  2.00000000E+00  0.00000000E+00
  3.00000000E+00  1.00000000E+00  0.00000000E+00
  3.00000000E+00 -2.66453526E-15  0.00000000E+00
  4.00000000E+00  2.40000000E+01  0.00000000E+00
  4.00000000E+00  2.30000000E+01  0.00000000E+00
  4.00000000E+00  2.20000000E+01  0.00000000E+00
  4.00000000E+00  2.10000000E+01  0.00000000E+00
  4.00000000E+00  2.00000000E+01  0.00000000E+00
  4.00000000E+00  1.90000000E+01  0.00000000E+00
  4.00000000E+00  1.80000000E+01  0.00000000E+00
  4.00000000E+00  1.70000000E+01  0.00000000E+00
  4.00000000E+00  1.60000000E+01  0.00000000E+00
  4.00000000E+00  1.50000000E+01  0.00000000E+00
  4.00000000E+00  1.40000000E+01  0.00000000E+00
  4.00000000E+00  1.30000000E+01  0.00000000E+00
  4.00000000E+00  1.20000000E+01  0.00000000E+00
  4.00000000E+00  1.10000000E+01  0.00000000E+00
  4.00000000E+00  1.00000000E+01  0.00000000E+00
  4.00000000E+00  9.00000000E+00  0.00000000E+00
  4.00000000E+00  8.00000000E+00  0.00000000E+00
  4.00000000E+00  7.00000000E+00  0.00000000E+00
  4.00000000E+00  6.00000000E+00  0.00000000E+00
  4.00000000E+00  5.00000000E+00  0.00000000E+00
  4.00000000E+00  4.00000000E+00  0.00000000E+00
  4.00000000E+00  3.00000000E+00  0.00000000E+00
  4.00000000E+00  2.00000000E+00  0.00000000E+00
  4.00000000E+00  1.00000000E+00  0.00000000E+00
  4.00000000E+00 -2.66453526E-15  0.00000000E+00
  5.00000000E+00  2.40000000E+01  0.00000000E+00
  5.00000000E+00  2.30000000E+01  0.00000000E+00
  5.00000000E+00  2.20000000E+01  0.00000000E+00
  5.00000000E+00  2.10000000E+01  0.00000000E+00
  5.00000000E+00  2.00000000E+01  0.00000000E+00
  5.00000000E+00  1.90000000E+01  0.00000000E+00
  5.00000000E+00  1.80000000E+01  0.00000000E+00
  5.00000000E+00  1.70000000E+01  0.00000000E+00
  5.00000000E+00  1.60000000E+01  0.00000000E+00
  5.00000000E+00  1.50000000E+01  0.00000000E+00
  5.00000000E+00  1.40000000E+01  0.00000000E+00
  5.00000000E+00  1.30000000E+01  0.00000000E+00
  5.00000000E+00  1.20000000E+01  0.00000000E+00
  5.00000000E+00  1.10000000E+01  0.00000000E+00
  5.00000000E+00  1.00000000E+01  0.00000000E+00
  5.00000000E+00  9.00000000E+00  0.00000000E+00
  5.00000000E+00  8.00000000E+00  0.00000000E+00
  5.00000000E+00  7.00000000E+00  0.00000000E+00
  5.00000000E+00  6.00000000E+00  0.00000000E+00
  5.00000000E+00  5.00000000E+00  0.00000000E+00
  5.00000000E+00  4.00000000E+00  0.00000000E+00
  5.00000000E+00  3.00000000E+00  0.00000000E+00
  5.00000000E+00  2.00000000E+00  0.00000000E+00
  5.00000000E+00  1.00000000E+00  0.00000000E+00
  5.00000000E+00 -2.66453526E-15  0.00000000E+00
  6.00000000E+00  2.40000000E+01  0.00000000E+00
  6.00000000E+00  2.30000000E+01  0.00000000E+00
  6.00000000E+00  2.20000000E+01  0.00000000E+00
  6.00000000E+00  2.10000000E+01  0.00000000E+00
  6.00000000E+00  2.00000000E+01  0.00000000E+00
  6.00000000E+00  1.90000000E+01  0.00000000E+00
  6.00000000E+00  1.80000000E+01  0.00000000E+00
  6.00000000E+00  1.70000000E+01  0.00000000E+00
  6.00000000E+00  1.60000000E+01  0.00000000E+00
  6.00000000E+00  1.50000000E+01  0.00000000E+00
  6.00000000E+00  1.40000000E+01  0.00000000E+00
  6.00000000E+00  1.30000000E+01  0.00000000E+00
  6.00000000E+00  1.20000000E+01  0.00000000E+00
  6.00000000E+00  1.10000000E+01  0.00000000E+00
  6.00000000E+00  1.00000000E+01  0.00000000E+00
  6.00000000E+00  9.00000000E+00  0.00000000E+00
  6.00000000E+00  8.00000000E+00  0.00000000E+00
  6.00000000E+00  7.00000000E+00  0.00000000E+00
  6.00000000E+00  6.00000000E+00  0.00000000E+00
  6.00000000E+00  5.00000000E+00  0.00000000E+00
  6.00000000E+00  4.00000000E+00  0.00000000E+00
  6.00000000E+00  3.00000000E+00  0.00000000E+00
  6.00000000E+00  2.00000000E+00  0.00000000E+00
  6.00000000E+00  1.00000000E+00  0.00000000E+00
  6.00000000E+00 -2.66453526E-15  0.00000000E+00
  7.00000000E+00  2.40000000E+01  0.00000000E+00
  7.00000000E+00  2.30000000E+01  0.00000000E+00
  7.00000000E+00  2.20000000E+01  0.00000000E+00
  7.00000000E+00  2.10000000E+01  0.00000000E+00
  7.00000000E+00  2.00000000E+01  0.00000000E+00
  7.00000000E+00  1.90000000E+01  0.00000000E+00
  7.00000000E+00  1.80000000E+01  0.00000000E+00
  7.00000000E+00  1.70000000E+01  0.00000000E+00
  7.00000000E+00  1.60000000E+01  0.00000000E+00
  7.00000000E+00  1.50000000E+01  0.00000000E+00
  7.00000000E+00  1.40000000E+01  0.00000000E+00
  7.00000000E+00  1.30000000E+01  0.00000000E+00
  7.00000000E+00  1.20000000E+01  0.00000000E+00
  7.00000000E+00  1.10000000E+01  0.00000000E+00
  7.00000000E+00  1.00000000E+01  0.00000000E+00
  7.00000000E+00  9.00000000E+00  0.00000000E+00
  7.00000000E+00  8.00000000E+00  0.00000000E+00
  7.00000000E+00  7.00000000E+00  0.00000000E+00
  7.00000000E+00  6.00000000E+00  0.00000000E+00
  7.00000000E+00  5.00000000E+00  0.00000000E+00
  7.00000000E+00  4.00000000E+00  0.00000000E+00
  7.00000000E+00  3.00000000E+00  0.00000000E+00
  7.00000000E+00  2.00000000E+00  0.00000000E+00
  7.00000000E+00  1.00000000E+00  0.00000000E+00
  7.00000000E+00 -2.66453526E-15  0.00000000E+00
  8.00000000E+00  2.40000000E+01  0.00000000E+00
  8.00000000E+00  2.30000000E+01  0.00000000E+00
  8.00000000E+00  2.20000000E+01  0.00000000E+00
  8.00000000E+00  2.10000000E+01  0.00000000E+00
  8.00000000E+00  2.00000000E+01  0.00000000E+00
  8.00000000E+00  1.90000000E+01  0.00000000E+00
  8.00000000E+00  1.80000000E+01  0.00000000E+00
  8.00000000E+00  1.70000000E+01  0.00000000E+00
  8.00000000E+00  1.60000000E+01  0.00000000E+00
  8.00000000E+00  1.50000000E+01  0.00000000E+00
  8.00000000E+00  1.40000000E+01  0.00000000E+00
  8.00000000E+00  1.30000000E+01  0.00000000E+00
  8.00000000E+00  1.20000000E+01  0.00000000E+00
  8.00000000E+00  1.10000000E+01  0.00000000E+00
  8.00000000E+00  1.00000000E+01  0.00000000E+00
  8.00000000E+00  9.00000000E+00  0.00000000E+00
  8.00000000E+00  8.00000000E+00  0.00000000E+00
  8.00000000E+00  7.00000000E+00  0.00000000E+00
  8.00000000E+00  6.00000000E+00  0.00000000E+00
  8.00000000E+00  5.00000000E+00  0.00000000E+00
  8.00000000E+00  4.00000000E+00  0.00000000E+00
  8.00000000E+00  3.00000000E+00  0.00000000E+00
  8.00000000E+00  2.00000000E+00  0.00000000E+00
  8.00000000E+00  1.00000000E+00  0.00000000E+00
  8.00000000E+00 -2.66453526E-15  0.00000000E+00
  9.00000000E+00  2.40000000E+01  0.00000000E+00
  9.00000000E+00  2.30000000E+01  0.00000000E+00
  9.00000000E+00  2.20000000E+01  0.00000000E+00
  9.00000000E+00  2.10000000E+01  0.00000000E+00
  9.00000000E+00  2.00000000E+01  0.00000000E+00
  9.00000000E+00  1.90000000E+01  0.00000000E+00
  9.00000000E+00  1.80000000E+01  0.00000000E+00
  9.00000000E+00  1.70000000E+01  0.00000000E+00
  9.00000000E+00  1.60000000E+01  0.00000000E+00
  9.00000000E+00  1.50000000E+01  0.00000000E+00
  9.00000000E+00  1.40000000E+01  0.00000000E+00
  9.00000000E+00  1.30000000E+01  0.00000000E+00
  9.00000000E+00  1.20000000E+01  0.00000000E+00
  9.00000000E+00  1.10000000E+01  0.00000000E+00
  9.00000000E+00  1.00000000E+01  0.00000000E+00
  9.00000000E+00  9.00000000E+00  0.00000000E+00
  9.00000000E+00  8.00000000E+00  0.00000000E+00
  9.00000000E+00  7.00000000E+00  0.00000000E+00
  9.00000000E+00  6.00000000E+00  0.00000000E+00
  9.00000000E+00  5.00000000E+00  0.00000000E+00
  9.00000000E+00  4.00000000E+00  0.00000000E+00
  9.00000000E+00  3.00000000E+00  0.00000000E+00
  9.00000000E+00  2.00000000E+00  0.00000000E+00
  9.00000000E+00  1.00000000E+00  0.00000000E+00
  9.00000000E+00 -2.66453526E-15  0.00000000E+00
  1.00000000E+01  2.40000000E+01  0.00000000E+00
  1.00000000E+01  2.30000000E+01  0.00000000E+00
  1.00000000E+01  2.20000000E+01  0.00000000E+00
  1.00000000E+01  2.10000000E+01  0.00000000E+00
  1.00000000E+01  2.00000000E+01  0.00000000E+00
  1.00000000E+01  1.90000000E+01  0.00000000E+00
  1.00000000E+01  1.80000000E+01  0.00000000E+00
  1.00000000E+01  1.70000000E+01  0.00000000E+00
  1.00000000E+01  1.60000000E+01  0.00000000E+00
  1.00000000E+01  1.50000000E+01  0.00000000E+00
  1.00000000E+01  1.40000000E+01  0.00000000E+00
  1.00000000E+01  1.30000000E+01  0.00000000E+00
  1.00000000E+01  1.20000000E+01  0.00000000E+00
  1.00000000E+01  1.10000000E+01  0.00000000E+00
  1.00000000E+01  1.00000000E+01  0.00000000E+00
  1.00000000E+01  9.00000000E+00  0.00000000E+00
  1.00000000E+01  8.00000000E+00  0.00000000E+00
  1.00000000E+01  7.00000000E+00  0.00000000E+00
  1.00000000E+01  6.00000000E+00  0.00000000E+00
  1.00000000E+01  5.00000000E+00  0.00000000E+00
  1.00000000E+01  4.00000000E+00  0.00000000E+00
  1.00000000E+01  3.00000000E+00  0.00000000E+00
  1.00000000E+01  2.00000000E+00  0.00000000E+00
  1.00000000E+01  1.00000000E+00  0.00000000E+00
  1.00000000E+01 -2.66453526E-15  0.00000000E+00
  1.10000000E+01  2.40000000E+01  0.00000000E+00
  1.10000000E+01  2.30000000E+01  0.00000000E+00
  1.10000000E+01  2.20000000E+01  0.00000000E+00
  1.10000000E+01  2.10000000E+01  0.00000000E+00
  1.10000000E+01  2.00000000E+01  0.00000000E+00
  1.10000000E+01  1.90000000E+01  0.00000000E+00
  1.10000000E+01  1.80000000E+01  0.00000000E+00
  1.10000000E+01  1.70000000E+01  0.00000000E+00
  1.10000000E+01  1.60000000E+01  0.00000000E+00
  1.10000000E+01  1.50000000E+01  0.00000000E+00
  1.10000000E+01  1.40000000E+01  0.00000000E+00
  1.10000000E+01  1.30000000E+01  0.00000000E+00
  1.10000000E+01  1.20000000E+01  0.00000000E+00
  1.10000000E+01  1.10000000E+01  0.00000000E+00
  1.10000000E+01  1.00000000E+01  0.00000000E+00
  1.10000000E+01  9.00000000E+00  0.00000000E+00
  1.10000000E+01  8.00000000E+00  0.00000000E+00
  1.10000000E+01  7.00000000E+00  0.00000000E+00
  1.10000000E+01  6.00000000E+00  0.00000000E+00
  1.10000000E+01  5.00000000E+00  0.00000000E+00
  1.10000000E+01  4.00000000E+00  0.00000000E+00
  1.10000000E+01  3.00000000E+00  0.00000000E+00
  1.10000000E+01  2.00000000E+00  0.00000000E+00
  1.10000000E+01  1.00000000E+00  0.00000000E+00
  1.10000000E+01 -2.66453526E-15  0.00000000E+00
  1.20000000E+01  2.40000000E+01  0.00000000E+00
  1.20000000E+01  2.30000000E+01  0.00000000E+00
  1.20000000E+01  2.20000000E+01  0.00000000E+00
  1.20000000E+01  2.10000000E+01  0.00000000E+00
  1.20000000E+01  2.00000000E+01  0.00000000E+00
  1.20000000E+01  1.90000000E+01  0.00000000E+00
  1.20000000E+01  1.80000000E+01  0.00000000E+00
  1.20000000E+01  1.70000000E+01  0.00000000E+00
  1.20000000E+01  1.60000000E+01  0.00000000E+00
  1.20000000E+01  1.50000000E+01  0.00000000E+00
  1.20000000E+01  1.40000000E+01  0.00000000E+00
  1.20000000E+01  1.30000000E+01  0.00000000E+00
  1.20000000E+01  1.20000000E+01  0.00000000E+00
  1.20000000E+01  1.10000000E+01  0.00000000E+00
  1.20000000E+01  1.00000000E+01  0.00000000E+00
  1.20000000E+01  9.00000000E+00  0.00000000E+00
  1.20000000E+01  8.00000000E+00  0.00000000E+00
  1.20000000E+01  7.00000000E+00  0.00000000E+00
  1.20000000E+01  6.00000000E+00  0.00000000E+00
  1.20000000E+01  5.00000000E+00  0.00000000E+00
  1.20000000E+01  4.00000000E+00  0.00000000E+00
  1.20000000E+01  3.00000000E+00  0.00000000E+00
  1.20000000E+01  2.00000000E+00  0.00000000E+00
  1.20000000E+01  1.00000000E+00  0.00000000E+00
  1.20000000E+01 -2.66453526E-15  0.00000000E+00
  1.30000000E+01  2.40000000E+01  0.00000000E+00
  1.30000000E+01  2.30000000E+01  0.00000000E+00
  1.30000000E+01  2.20000000E+01  0.00000000E+00
  1.30000000E+01  2.10000000E+01  0.00000000E+00
  1.30000000E+01  2.00000000E+01  0.00000000E+00
  1.30000000E+01  1.90000000E+01  0.00000000E+00
  1.30000000E+01  1.80000000E+01  0.00000000E+00
  1.30000000E+01  1.70000000E+01  0.00000000E+00
  1.30000000E+01  1.60000000E+01  0.00000000E+00
  1.30000000E+01  1.50000000E+01  0.00000000E+00
  1.30000000E+01  1.40000000E+01  0.00000000E+00
  1.30000000E+01  1.30000000E+01  0.00000000E+00
  1.30000000E+01  1.20000000E+01  0.00000000E+00
  1.30000000E+01  1.10000000E+01  0.00000000E+00
  1.30000000E+01  1.00000000E+01  0.00000000E+00
  1.30000000E+01  9.00000000E+00  0.00000000E+00
  1.30000000E+01  8.00000000E+00  0.00000000E+00
  1.30000000E+01  7.00000000E+00  0.00000000E+00
  1.30000000E+01  6.00000000E+00  0.00000000E+00
  1.30000000E+01  5.00000000E+00  0.00000000E+00
  1.30000000E+01  4.00000000E+00  0.00000000E+00
  1.30000000E+01  3.00000000E+00  0.00000000E+00
  1.30000000E+01  2.00000000E+00  0.00000000E+00
  1.30000000E+01  1.00000000E+00  0.00000000E+00
  1.30000000E+01 -2.66453526E-15  0.00000000E+00
  1.40000000E+01  2.40000000E+01  0.00000000E+00
  1.40000000E+01  2.30000000E+01  0.00000000E+00
  1.40000000E+01  2.20000000E+01  0.00000000E+00
  1.40000000E+01  2.10000000E+01  0.00000000E+00
  1.40000000E+01  2.00000000E+01  0.00000000E+00
  1.40000000E+01  1.90000000E+01  0.00000000E+00
  1.40000000E+01  1.80000000E+01  0.00000000E+00
  1.40000000E+01  1.70000000E+01  0.00000000E+00
  1.40000000E+01  1.60000000E+01  0.00000000E+00
  1.40000000E+01  1.50000000E+01  0.00000000E+00
  1.40000000E+01  1.40000000E+01  0.00000000E+00
  1.40000000E+01  1.30000000E+01  0.00000000E+00
  1.40000000E+01  1.20000000E+01  0.00000000E+00
  1.40000000E+01  1.10000000E+01  0.00000000E+00
  1.40000000E+01  1.00000000E+01  0.00000000E+00
  1.40000000E+01  9.00000000E+00  0.00000000E+00
  1.40000000E+01  8.00000000E+00  0.00000000E+00
  1.40000000E+01  7.00000000E+00  0.00000000E+00
  1.40000000E+01  6.00000000E+00  0.00000000E+00
  1.40000000E+01  5.00000000E+00  0.00000000E+00
  1.40000000E+01  4.00000000E+00  0.00000000E+00
  1.40000000E+01  3.00000000E+00  0.00000000E+00
  1.40000000E+01  2.00000000E+00  0.00000000E+00
  1.40000000E+01  1.00000000E+00  0.00000000E+00
  1.40000000E+01 -2.66453526E-15  0.00000000E+00
  1.50000000E+01  2.40000000E+01  0.00000000E+00
  1.50000000E+01  2.30000000E+01  0.00000000E+00
  1.50000000E+01  2.20000000E+01  0.00000000E+00
  1.50000000E+01  2.10000000E+01  0.00000000E+00
  1.50000000E+01  2.00000000E+01  0.00000000E+00
  1.50000000E+01  1.90000000E+01  0.00000000E+00
  1.50000000E+01  1.80000000E+01  0.00000000E+00
  1.50000000E+01  1.70000000E+01  0.00000000E+00
  1.50000000E+01  1.60000000E+01  0.00000000E+00
  1.50000000E+01  1.50000000E+01  0.00000000E+00
  1.50000000E+01  1.40000000E+01  0.00000000E+00
  1.50000000E+01  1.30000000E+01  0.00000000E+00
  1.50000000E+01  1.20000000E+01  0.00000000E+00
  1.50000000E+01  1.10000000E+01  0.00000000E+00
  1.50000000E+01  1.00000000E+01  0.00000000E+00
  1.50000000E+01  9.00000000E+00  0.00000000E+00
  1.50000000E+01  8.00000000E+00  0.00000000E+00
  1.50000000E+01  7.00000000E+00  0.00000000E+00
  1.50000000E+01  6.00000000E+00  0.00000000E+00
  1.50000000E+01  5.00000000E+00  0.00000000E+00
  1.50000000E+01  4.00000000E+00  0.00000000E+00
  1.50000000E+01  3.00000000E+00  0.00000000E+00
  1.50000000E+01  2.00000000E+00  0.00000000E+00
  1.50000000E+01  1.00000000E+00  0.00000000E+00
  1.50000000E+01 -2.66453526E-15  0.00000000E+00
  1.60000000E+01  2.40000000E+01  0.00000000E+00
  1.60000000E+01  2.30000000E+01  0.00000000E+00
  1.60000000E+01  2.20000000E+01  0.00000000E+00
  1.60000000E+01  2.10000000E+01  0.00000000E+00
  1.60000000E+01  2.00000000E+01  0.00000000E+00
  1.60000000E+01  1.90000000E+01  0.00000000E+00
  1.60000000E+01  1.80000000E+01  0.00000000E+00
  1.60000000E+01  1.70000000E+01  0.00000000E+00
  1.60000000E+01  1.60000000E+01  0.00000000E+00
  1.60000000E+01  1.50000000E+01  0.00000000E+00
  1.60000000E+01  1.40000000E+01  0.00000000E+00
  1.60000000E+01  1.30000000E+01  0.00000000E+00
  1.60000000E+01  1.20000000E+01  0.00000000E+00
  1.60000000E+01  1.10000000E+01  0.00000000E+00
  1.60000000E+01  1.00000000E+01  0.00000000E+00
  1.60000000E+01  9.00000000E+00  0.00000000E+00
  1.60000000E+01  8.00000000E+00  0.00000000E+00
  1.60000000E+01  7.00000000E+00  0.00000000E+00
  1.60000000E+01  6.00000000E+00  0.00000000E+00
  1.60000000E+01  5.00000000E+00  0.00000000E+00
  1.60000000E+01  4.00000000E+00  0.00000000E+00
  1.60000000E+01  3.00000000E+00  0.00000000E+00
  1.60000000E+01  2.00000000E+00  0.00000000E+00
  1.60000000E+01  1.00000000E+00  0.00000000E+00
  1.60000000E+01 -2.66453526E-15  0.00000000E+00
  1.70000000E+01  2.40000000E+01  0.00000000E+00
  1.70000000E+01  2.30000000E+01  0.00000000E+00
  1.70000000E+01  2.20000000E+01  0.00000000E+00
  1.70000000E+01  2.10000000E+01  0.00000000E+00
  1.70000000E+01  2.00000000E+01  0.00000000E+00
  1.70000000E+01  1.90000000E+01  0.00000000E+00
  1.70000000E+01  1.80000000E+01  0.00000000E+00
  1.70000000E+01  1.70000000E+01  0.00000000E+00
  1.70000000E+01  1.60000000E+01  0.00000000E+00
  1.70000000E+01  1.50000000E+01  0.00000000E+00
  1.70000000E+01  1.40000000E+01  0.00000000E+00
  1.70000000E+01  1.30000000E+01  0.00000000E+00
  1.70000000E+01  1.20000000E+01  0.00000000E+00
  1.70000000E+01  1.10000000E+01  0.00000000E+00
  1.70000000E+01  1.00000000E+01  0.00000000E+00
  1.70000000E+01  9.00000000E+00  0.00000000E+00
  1.70000000E+01  8.00000000E+00  0.00000000E+00
  1.70000000E+01  7.00000000E+00  0.00000000E+00
  1.70000000E+01  6.00000000E+00  0.00000000E+00
  1.70000000E+01  5.00000000E+00  0.00000000E+00
  1.70000000E+01  4.00000000E+00  0.00000000E+00
  1.70000000E+01  3.00000000E+00  0.00000000E+00
  1.70000000E+01  2.00000000E+00  0.00000000E+00
  1.70000000E+01  1.00000000E+00  0.00000000E+00
  1.70000000E+01 -2.66453526E-15  0.00000000E+00
  1.80000000E+01  2.40000000E+01  0.00000000E+00
  1.80000000E+01  2.30000000E+01  0.00000000E+00
  1.80000000E+01  2.20000000E+01  0.00000000E+00
  1.80000000E+01  2.10000000E+01  0.00000000E+00
  1.80000000E+01  2.00000000E+01  0.00000000E+00
  1.80000000E+01  1.90000000E+01  0.00000000E+00
  1.80000000E+01  1.80000000E+01  0.00000000E+00
  1.80000000E+01  1.70000000E+01  0.00000000E+00
  1.80000000E+01  1.60000000E+01  0.00000000E+00
  1.80000000E+01  1.50000000E+01  0.00000000E+00
  1.80000000E+01  1.40000000E+01  0.00000000E+00
  1.80000000E+01  1.30000000E+01  0.00000000E+00
  1.80000000E+01  1.20000000E+01  0.00000000E+00
  1.80000000E+01  1.10000000E+01  0.00000000E+00
  1.80000000E+01  1.00000000E+01  0.00000000E+00
  1.80000000E+01  9.00000000E+00  0.00000000E+00
  1.80000000E+01  8.00000000E+00  0.00000000E+00
  1.80000000E+01  7.00000000E+00  0.00000000E+00
  1.80000000E+01  6.00000000E+00  0.00000000E+00
  1.80000000E+01  5.00000000E+00  0.00000000E+00
  1.80000000E+01  4.00000000E+00  0.00000000E+00
  1.80000000E+01  3.00000000E+00  0.00000000E+00
  1.80000000E+01  2.00000000E+00  0.00000000E+00
  1.80000000E+01  1.00000000E+00  0.00000000E+00
  1.80000000E+01 -2.66453526E-15  0.00000000E+00
  1.90000000E+01  2.40000000E+01  0.00000000E+00
  1.90000000E+01  2.30000000E+01  0.00000000E+00
  1.90000000E+01  2.20000000E+01  0.00000000E+00
  1.90000000E+01  2.10000000E+01  0.00000000E+00
  1.90000000E+01  2.00000000E+01  0.00000000E+00
  1.90000000E+01  1.90000000E+01  0.00000000E+00
  1.90000000E+01  1.80000000E+01  0.00000000E+00
  1.90000000E+01  1.70000000E+01  0.00000000E+00
  1.90000000E+01  1.60000000E+01  0.00000000E+00
  1.90000000E+01  1.50000000E+01  0.00000000E+00
  1.90000000E+01  1.40000000E+01  0.00000000E+00
  1.90000000E+01  1.30000000E+01  0.00000000E+00
  1.90000000E+01  1.20000000E+01  0.00000000E+00
  1.90000000E+01  1.10000000E+01  0.00000000E+00
  1.90000000E+01  1.00000000E+01  0.00000000E+00
  1.90000000E+01  9.00000000E+00  0.00000000E+00
  1.90000000E+01  8.00000000E+00  0.00000000E+00
  1.90000000E+01  7.00000000E+00  0.00000000E+00
  1.90000000E+01  6.00000000E+00  0.00000000E+00
  1.90000000E+01  5.00000000E+00  0.00000000E+00
  1.90000000E+01  4.00000000E+00  0.00000000E+00
  1.90000000E+01  3.00000000E+00  0.00000000E+00
  1.90000000E+01  2.00000000E+00  0.00000000E+00
  1.90000000E+01  1.00000000E+00  0.00000000E+00
  1.90000000E+01 -2.66453526E-15  0.00000000E+00
  2.00000000E+01  2.40000000E+01  0.00000000E+00
  2.00000000E+01  2.30000000E+01  0.00000000E+00
  2.00000000E+01  2.20000000E+01  0.00000000E+00
  2.00000000E+01  2.10000000E+01  0.00000000E+00
  2.00000000E+01  2.00000000E+01  0.00000000E+00
  2.00000000E+01  1.90000000E+01  0.00000000E+00
  2.00000000E+01  1.80000000E+01  0.00000000E+00
  2.00000000E+01  1.70000000E+01  0.00000000E+00
  2.00000000E+01  1.60000000E+01  0.00000000E+00
  2.00000000E+01  1.50000000E+01  0.00000000E+00
  2.00000000E+01  1.40000000E+01  0.00000000E+00
  2.00000000E+01  1.30000000E+01  0.00000000E+00
  2.00000000E+01  1.20000000E+01  0.00000000E+00
  2.00000000E+01  1.10000000E+01  0.00000000E+00
  2.00000000E+01  1.00000000E+01  0.00000000E+00
  2.00000000E+01  9.00000000E+00  0.00000000E+00
  2.00000000E+01  8.00000000E+00  0.00000000E+00
  2.00000000E+01  7.00000000E+00  0.00000000E+00
  2.00000000E+01  6.00000000E+00  0.00000000E+00
  2.00000000E+01  5.00000000E+00  0.00000000E+00
  2.00000000E+01  4.00000000E+00  0.00000000E+00
  2.00000000E+01  3.00000000E+00  0.00000000E+00
  2.00000000E+01  2.00000000E+00  0.00000000E+00
  2.00000000E+01  1.00000000E+00  0.00000000E+00
  2.00000000E+01 -2.66453526E-15  0.00000000E+00
  2.10000000E+01  2.40000000E+01  0.00000000E+00
  2.10000000E+01  2.30000000E+01  0.00000000E+00
  2.10000000E+01  2.20000000E+01  0.00000000E+00
  2.10000000E+01  2.10000000E+01  0.00000000E+00
  2.10000000E+01  2.00000000E+01  0.00000000E+00
  2.10000000E+01  1.90000000E+01  0.00000000E+00
  2.10000000E+01  1.80000000E+01  0.00000000E+00
  2.10000000E+01  1.70000000E+01  0.00000000E+00
  2.10000000E+01  1.60000000E+01  0.00000000E+00
  2.10000000E+01  1.50000000E+01  0.00000000E+00
  2.10000000E+01  1.40000000E+01  0.00000000E+00
  2.10000000E+01  1.30000000E+01  0.00000000E+00
  2.10000000E+01  1.20000000E+01  0.00000000E+00
  2.10000000E+01  1.10000000E+01  0.00000000E+00
  2.10000000E+01  1.00000000E+01  0.00000000E+00
  2.10000000E+01  9.00000000E+00  0.00000000E+00
  2.10000000E+01  8.00000000E+00  0.00000000E+00
  2.10000000E+01  7.00000000E+00  0.00000000E+00
  2.10000000E+01  6.00000000E+00  0.00000000E+00
  2.10000000E+01  5.00000000E+00  0.00000000E+00
  2.10000000E+01  4.00000000E+00  0.00000000E+00
  2.10000000E+01  3.00000000E+00  0.00000000E+00
  2.10000000E+01  2.00000000E+00  0.00000000E+00
  2.10000000E+01  1.00000000E+00  0.00000000E+00
  2.10000000E+01 -2.66453526E-15  0.00000000E+00
  2.20000000E+01  2.40000000E+01  0.00000000E+00
  2.20000000E+01  2.30000000E+01  0.00000000E+00
  2.20000000E+01  2.20000000E+01  0.00000000E+00
  2.20000000E+01  2.10000000E+01  0.00000000E+00
  2.20000000E+01  2.00000000E+01  0.00000000E+00
  2.20000000E+01  1.90000000E+01  0.00000000E+00
  2.20000000E+01  1.80000000E+01  0.00000000E+00
  2.20000000E+01  1.70000000E+01  0.00000000E+00
  2.20000000E+01  1.60000000E+01  0.00000000E+00
  2.20000000E+01  1.50000000E+01  0.00000000E+00
  2.20000000E+01  1.40000000E+01  0.00000000E+00
  2.20000000E+01  1.30000000E+01  0.00000000E+00
  2.20000000E+01  1.20000000E+01  0.00000000E+00
  2.20000000E+01  1.10000000E+01  0.00000000E+00
  2.20000000E+01  1.00000000E+01  0.00000000E+00
  2.20000000E+01  9.00000000E+00  0.00000000E+00
  2.20000000E+01  8.00000000E+00  0.00000000E+00
  2.20000000E+01  7.00000000E+00  0.00000000E+00
  2.20000000E+01  6.00000000E+00  0.00000000E+00
  2.20000000E+01  5.00000000E+00  0.00000000E+00
  2.20000000E+01  4.00000000E+00  0.00000000E+00
  2.20000000E+01  3.00000000E+00  0.00000000E+00
  2.20000000E+01  2.00000000E+00  0.00000000E+00
  2.20000000E+01  1.00000000E+00  0.00000000E+00
  2.20000000E+01 -2.66453526E-15  0.00000000E+00
  2.30000000E+01  2.40000000E+01  0.00000000E+00
  2.30000000E+01  2.30000000E+01  0.00000000E+00
  2.30000000E+01  2.20000000E+01  0.00000000E+00
  2.30000000E+01  2.10000000E+01  0.00000000E+00
  2.30000000E+01  2.00000000E+01  0.00000000E+00
  2.30000000E+01  1.90000000E+01  0.00000000E+00
  2.30000000E+01  1.80000000E+01  0.00000000E+00
  2.30000000E+01  1.70000000E+01  0.00000000E+00
  2.30000000E+01  1.60000000E+01  0.00000000E+00
  2.30000000E+01  1.50000000E+01  0.00000000E+00
  2.30000000E+01  1.40000000E+01  0.00000000E+00
  2.30000000E+01  1.30000000E+01  0.00000000E+00
  2.30000000E+01  1.20000000E+01  0.00000000E+00
  2.30000000E+01  1.10000000E+01  0.00000000E+00
  2.30000000E+01  1.00000000E+01  0.00000000E+00
  2.30000000E+01  9.00000000E+00  0.00000000E+00
  2.30000000E+01  8.00000000E+00  0.00000000E+00
  2.30000000E+01  7.00000000E+00  0.00000000E+00
  2.30000000E+01  6.00000000E+00  0.00000000E+00
  2.30000000E+01  5.00000000E+00  0.00000000E+00
  2.30000000E+01  4.00000000E+00  0.00000000E+00
  2.30000000E+01  3.00000000E+00  0.00000000E+00
  2.30000000E+01  2.00000000E+00  0.00000000E+00
  2.30000000E+01  1.00000000E+00  0.00000000E+00
  2.30000000E+01 -2.66453526E-15  0.00000000E+00
  2.40000000E+01  2.40000000E+01  0.00000000E+00
  2.40000000E+01  2.30000000E+01  0.00000000E+00
  2.40000000E+01  2.20000000E+01  0.00000000E+00
  2.40000000E+01  2.10000000E+01  0.00000000E+00
  2.40000000E+01  2.00000000E+01  0.00000000E+00
  2.40000000E+01  1.90000000E+01  0.00000000E+00
  2.40000000E+01  1.80000000E+01  0.00000000E+00
  2.40000000E+01  1.70000000E+01  0.00000000E+00
  2.40000000E+01  1.60000000E+01  0.00000000E+00
  2.40000000E+01  1.50000000E+01  0.00000000E+00
  2.40000000E+01  1.40000000E+01  0.00000000E+00
  2.40000000E+01  1.30000000E+01  0.00000000E+00
  2.40000000E+01  1.20000000E+01  0.00000000E+00
  2.40000000E+01  1.10000000E+01  0.00000000E+00
  2.40000000E+01  1.00000000E+01  0.00000000E+00
  2.40000000E+01  9.00000000E+00  0.00000000E+00
  2.40000000E+01  8.00000000E+00  0.00000000E+00
  2.40000000E+01  7.00000000E+00  0.00000000E+00
  2.40000000E+01  6.00000000E+00  0.00000000E+00
  2.40000000E+01  5.00000000E+00  0.00000000E+00
  2.40000000E+01  4.00000000E+00  0.00000000E+00
  2.40000000E+01  3.00000000E+00  0.00000000E+00
  2.40000000E+01  2.00000000E+00  0.00000000E+00
  2.40000000E+01  1.00000000E+00  0.00000000E+00
  2.40000000E+01 -2.66453526E-15  0.00000000E+00
  2.50000000E+01  2.40000000E+01  0.00000000E+00
  2.50000000E+01  2.30000000E+01  0.00000000E+00
  2.50000000E+01  2.20000000E+01  0.00000000E+00
  2.50000000E+01  2.10000000E+01  0.00000000E+00
  2.50000000E+01  2.00000000E+01  0.00000000E+00
  2.50000000E+01  1.90000000E+01  0.00000000E+00
  2.50000000E+01  1.80000000E+01  0.00000000E+00
  2.50000000E+01  1.70000000E+01  0.00000000E+00
  2.50000000E+01  1.60000000E+01  0.00000000E+00
  2.50000000E+01  1.50000000E+01  0.00000000E+00
  2.50000000E+01  1.40000000E+01  0.00000000E+00
  2.50000000E+01  1.30000000E+01  0.00000000E+00
  2.50000000E+01  1.20000000E+01  0.00000000E+00
  2.50000000E+01  1.10000000E+01  0.00000000E+00
  2.50000000E+01  1.00000000E+01  0.00000000E+00
  2.50000000E+01  9.00000000E+00  0.00000000E+00
  2.50000000E+01  8.00000000E+00  0.00000000E+00
  2.50000000E+01  7.00000000E+00  0.00000000E+00
  2.50000000E+01  6.00000000E+00  0.00000000E+00
  2.50000000E+01  5.00000000E+00  0.00000000E+00
  2.50000000E+01  4.00000000E+00  0.00000000E+00
  2.50000000E+01  3.00000000E+00  0.00000000E+00
  2.50000000E+01  2.00000000E+00  0.00000000E+00
  2.50000000E+01  1.00000000E+00  0.00000000E+00
  2.50000000E+01 -2.66453526E-15  0.00000000E+00
  2.60000000E+01  2.40000000E+01  0.00000000E+00
  2.60000000E+01  2.30000000E+01  0.00000000E+00
  2.60000000E+01  2.20000000E+01  0.00000000E+00
  2.60000000E+01  2.10000000E+01  0.00000000E+00
  2.60000000E+01  2.00000000E+01  0.00000000E+00
  2.60000000E+01  1.90000000E+01  0.00000000E+00
  2.60000000E+01  1.80000000E+01  0.00000000E+00
  2.60000000E+01  1.70000000E+01  0.00000000E+00
  2.60000000E+01  1.60000000E+01  0.00000000E+00
  2.60000000E+01  1.50000000E+01  0.00000000E+00
  2.60000000E+01  1.40000000E+01  0.00000000E+00
  2.60000000E+01  1.30000000E+01  0.00000000E+00
  2.60000000E+01  1.20000000E+01  0.00000000E+00
  2.60000000E+01  1.10000000E+01  0.00000000E+00
  2.60000000E+01  1.00000000E+01  0.00000000E+00
  2.60000000E+01  9.00000000E+00  0.00000000E+00
  2.60000000E+01  8.00000000E+00  0.00000000E+00
  2.60000000E+01  7.00000000E+00  0.00000000E+00
  2.60000000E+01  6.00000000E+00  0.00000000E+00
  2.60000000E+01  5.00000000E+00  0.00000000E+00
  2.60000000E+01  4.00000000E+00  0.00000000E+00
  2.60000000E+01  3.00000000E+00  0.00000000E+00
  2.60000000E+01  2.00000000E+00  0.00000000E+00
  2.60000000E+01  1.00000000E+00  0.00000000E+00
  2.60000000E+01 -2.66453526E-15  0.00000000E+00
  2.70000000E+01  2.40000000E+01  0.00000000E+00
  2.70000000E+01  2.30000000E+01  0.00000000E+00
  2.70000000E+01  2.20000000E+01  0.00000000E+00
  2.70000000E+01  2.10000000E+01  0.00000000E+00
  2.70000000E+01  2.00000000E+01  0.00000000E+00
  2.70000000E+01  1.90000000E+01  0.00000000E+00
  2.70000000E+01  1.80000000E+01  0.00000000E+00
  2.70000000E+01  1.70000000E+01  0.00000000E+00
  2.70000000E+01  1.60000000E+01  0.00000000E+00
  2.70000000E+01  1.50000000E+01  0.00000000E+00
  2.70000000E+01  1.40000000E+01  0.00000000E+00
  2.70000000E+01  1.30000000E+01  0.00000000E+00
  2.70000000E+01  1.20000000E+01  0.00000000E+00
  2.70000000E+01  1.10000000E+01  0.00000000E+00
  2.70000000E+01  1.00000000E+01  0.00000000E+00
  2.70000000E+01  9.00000000E+00  0.00000000E+00
  2.70000000E+01  8.00000000E+00  0.00000000E+00
  2.70000000E+01  7.00000000E+00  0.00000000E+00
  2.70000000E+01  6.00000000E+00  0.00000000E+00
  2.70000000E+01  5.00000000E+00  0.00000000E+00
  2.70000000E+01  4.00000000E+00  0.00000000E+00
  2.70000000E+01  3.00000000E+00  0.00000000E+00
  2.70000000E+01  2.00000000E+00  0.00000000E+00
  2.70000000E+01  1.00000000E+00  0.00000000E+00
  2.70000000E+01 -2.66453526E-15  0.00000000E+00
  2.80000000E+01  2.40000000E+01  0.00000000E+00
  2.80000000E+01  2.30000000E+01  0.00000000E+00
  2.80000000E+01  2.20000000E+01  0.00000000E+00
  2.80000000E+01  2.10000000E+01  0.00000000E+00
  2.80000000E+01  2.00000000E+01  0.00000000E+00
  2.80000000E+01  1.90000000E+01  0.00000000E+00
  2.80000000E+01  1.80000000E+01  0.00000000E+00
  2.80000000E+01  1.70000000E+01  0.00000000E+00
  2.80000000E+01  1.60000000E+01  0.00000000E+00
  2.80000000E+01  1.50000000E+01  0.00000000E+00
  2.80000000E+01  1.40000000E+01  0.00000000E+00
  2.80000000E+01  1.30000000E+01  0.00000000E+00
  2.80000000E+01  1.20000000E+01  0.00000000E+00
  2.80000000E+01  1.10000000E+01  0.00000000E+00
  2.80000000E+01  1.00000000E+01  0.00000000E+00
  2.80000000E+01  9.00000000E+00  0.00000000E+00
  2.80000000E+01  8.00000000E+00  0.00000000E+00
  2.80000000E+01  7.00000000E+00  0.00000000E+00
  2.80000000E+01  6.00000000E+00  0.00000000E+00
  2.80000000E+01  5.00000000E+00  0.00000000E+00
  2.80000000E+01  4.00000000E+00  0.00000000E+00
  2.80000000E+01  3.00000000E+00  0.00000000E+00
  2.80000000E+01  2.00000000E+00  0.00000000E+00
  2.80000000E+01  1.00000000E+00  0.00000000E+00
  2.80000000E+01 -2.66453526E-15  0.00000000E+00
  2.90000000E+01  2.40000000E+01  0.00000000E+00
  2.90000000E+01  2.30000000E+01  0.00000000E+00
  2.90000000E+01  2.20000000E+01  0.00000000E+00
  2.90000000E+01  2.10000000E+01  0.00000000E+00
  2.90000000E+01  2.00000000E+01  0.00000000E+00
  2.90000000E+01  1.90000000E+01  0.00000000E+00
  2.90000000E+01  1.80000000E+01  0.00000000E+00
  2.90000000E+01  1.70000000E+01  0.00000000E+00
  2.90000000E+01  1.60000000E+01  0.00000000E+00
  2.90000000E+01  1.50000000E+01  0.00000000E+00
  2.90000000E+01  1.40000000E+01  0.00000000E+00
  2.90000000E+01  1.30000000E+01  0.00000000E+00
  2.90000000E+01  1.20000000E+01  0.00000000E+00
  2.90000000E+01  1.10000000E+01  0.00000000E+00
  2.90000000E+01  1.00000000E+01  0.00000000E+00
  2.90000000E+01  9.00000000E+00  0.00000000E+00
  2.90000000E+01  8.00000000E+00  0.00000000E+00
  2.90000000E+01  7.00000000E+00  0.00000000E+00
  2.90000000E+01  6.00000000E+00  0.00000000E+00
  2.90000000E+01  5.00000000E+00  0.00000000E+00
  2.90000000E+01  4.00000000E+00  0.00000000E+00
  2.90000000E+01  3.00000000E+00  0.00000000E+00
  2.90000000E+01  2.00000000E+00  0.00000000E+00
  2.90000000E+01  1.00000000E+00  0.00000000E+00
  2.90000000E+01 -2.66453526E-15  0.00000000E+00
  3.00000000E+01  2.40000000E+01  0.00000000E+00
  3.00000000E+01  2.30000000E+01  0.00000000E+00
  3.00000000E+01  2.20000000E+01  0.00000000E+00
  3.00000000E+01  2.10000000E+01  0.00000000E+00
  3.00000000E+01  2.00000000E+01  0.00000000E+00
  3.00000000E+01  1.90000000E+01  0.00000000E+00
  3.00000000E+01  1.80000000E+01  0.00000000E+00
  3.00000000E+01  1.70000000E+01  0.00000000E+00
  3.00000000E+01  1.60000000E+01  0.00000000E+00
  3.00000000E+01  1.50000000E+01  0.00000000E+00
  3.00000000E+01  1.40000000E+01  0.00000000E+00
  3.00000000E+01  1.30000000E+01  0.00000000E+00
  3.00000000E+01  1.20000000E+01  0.00000000E+00
  3.00000000E+01  1.10000000E+01  0.00000000E+00
  3.00000000E+01  1.00000000E+01  0.00000000E+00
  3.00000000E+01  9.00000000E+00  0.00000000E+00
  3.00000000E+01  8.00000000E+00  0.00000000E+00
  3.00000000E+01  7.00000000E+00  0.00000000E+00
  3.00000000E+01  6.00000000E+00  0.00000000E+00
  3.00000000E+01  5.00000000E+00  0.00000000E+00
  3.00000000E+01  4.00000000E+00  0.00000000E+00
  3.00000000E+01  3.00000000E+00  0.00000000E+00
  3.00000000E+01  2.00000000E+00  0.00000000E+00
  3.00000000E+01  1.00000000E+00  0.00000000E+00
  3.00000000E+01 -2.66453526E-15  0.00000000E+00
  3.10000000E+01  2.40000000E+01  0.00000000E+00
  3.10000000E+01  2.30000000E+01  0.00000000E+00
  3.10000000E+01  2.20000000E+01  0.00000000E+00
  3.10000000E+01  2.10000000E+01  0.00000000E+00
  3.10000000E+01  2.00000000E+01  0.00000000E+00
  3.10000000E+01  1.90000000E+01  0.00000000E+00
  3.10000000E+01  1.80000000E+01  0.00000000E+00
  3.10000000E+01  1.70000000E+01  0.00000000E+00
  3.10000000E+01  1.60000000E+01  0.00000000E+00
  3.10000000E+01  1.50000000E+01  0.00000000E+00
  3.10000000E+01  1.40000000E+01  0.00000000E+00
  3.10000000E+01  1.30000000E+01  0.00000000E+00
  3.10000000E+01  1.20000000E+01  0.00000000E+00
  3.10000000E+01  1.10000000E+01  0.00000000E+00
  3.10000000E+01  1.00000000E+01  0.00000000E+00
  3.10000000E+01  9.00000000E+00  0.00000000E+00
  3.10000000E+01  8.00000000E+00  0.00000000E+00
  3.10000000E+01  7.00000000E+00  0.00000000E+00
  3.10000000E+01  6.00000000E+00  0.00000000E+00
  3.10000000E+01  5.00000000E+00  0.00000000E+00
  3.10000000E+01  4.00000000E+00  0.00000000E+00
  3.10000000E+01  3.00000000E+00  0.00000000E+00
  3.10000000E+01  2.00000000E+00  0.00000000E+00
  3.10000000E+01  1.00000000E+00  0.00000000E+00
  3.10000000E+01 -2.66453526E-15  0.00000000E+00
  3.20000000E+01  2.40000000E+01  0.00000000E+00
  3.20000000E+01  2.30000000E+01  0.00000000E+00
  3.20000000E+01  2.20000000E+01  0.00000000E+00
  3.20000000E+01  2.10000000E+01  0.00000000E+00
  3.20000000E+01  2.00000000E+01  0.00000000E+00
  3.20000000E+01  1.90000000E+01  0.00000000E+00
  3.20000000E+01  1.80000000E+01  0.00000000E+00
  3.20000000E+01  1.70000000E+01  0.00000000E+00
  3.20000000E+01  1.60000000E+01  0.00000000E+00
  3.20000000E+01  1.50000000E+01  0.00000000E+00
  3.20000000E+01  1.40000000E+01  0.00000000E+00
  3.20000000E+01  1.30000000E+01  0.00000000E+00
  3.20000000E+01  1.20000000E+01  0.00000000E+00
  3.20000000E+01  1.10000000E+01  0.00000000E+00
  3.20000000E+01  1.00000000E+01  0.00000000E+00
  3.20000000E+01  9.00000000E+00  0.00000000E+00
  3.20000000E+01  8.00000000E+00  0.00000000E+00
  3.20000000E+01  7.00000000E+00  0.00000000E+00
  3.20000000E+01  6.00000000E+00  0.00000000E+00
  3.20000000E+01  5.00000000E+00  0.00000000E+00
  3.20000000E+01  4.00000000E+00  0.00000000E+00
  3.20000000E+01  3.00000000E+00  0.00000000E+00
  3.20000000E+01  2.00000000E+00  0.00000000E+00
  3.20000000E+01  1.00000000E+00  0.00000000E+00
  3.20000000E+01 -2.66453526E-15  0.00000000E+00
  3.30000000E+01  2.40000000E+01  0.00000000E+00
  3.30000000E+01  2.30000000E+01  0.00000000E+00
  3.30000000E+01  2.20000000E+01  0.00000000E+00
  3.30000000E+01  2.10000000E+01  0.00000000E+00
  3.30000000E+01  2.00000000E+01  0.00000000E+00
  3.30000000E+01  1.90000000E+01  0.00000000E+00
  3.30000000E+01  1.80000000E+01  0.00000000E+00
  3.30000000E+01  1.70000000E+01  0.00000000E+00
  3.30000000E+01  1.60000000E+01  0.00000000E+00
  3.30000000E+01  1.50000000E+01  0.00000000E+00
  3.30000000E+01  1.40000000E+01  0.00000000E+00
  3.30000000E+01  1.30000000E+01  0.00000000E+00
  3.30000000E+01  1.20000000E+01  0.00000000E+00
  3.30000000E+01  1.10000000E+01  0.00000000E+00
  3.30000000E+01  1.00000000E+01  0.00000000E+00
  3.30000000E+01  9.00000000E+00  0.00000000E+00
  3.30000000E+01  8.00000000E+00  0.00000000E+00
  3.30000000E+01  7.00000000E+00  0.00000000E+00
  3.30000000E+01  6.00000000E+00  0.00000000E+00
  3.30000000E+01  5.00000000E+00  0.00000000E+00
  3.30000000E+01  4.00000000E+00  0.00000000E+00
  3.30000000E+01  3.00000000E+00  0.00000000E+00
  3.30000000E+01  2.00000000E+00  0.00000000E+00
  3.30000000E+01  1.00000000E+00  0.00000000E+00
  3.30000000E+01 -2.66453526E-15  0.00000000E+00
  3.40000000E+01  2.40000000E+01  0.00000000E+00
  3.40000000E+01  2.30000000E+01  0.00000000E+00
  3.40000000E+01  2.20000000E+01  0.00000000E+00
  3.40000000E+01  2.10000000E+01  0.00000000E+00
  3.40000000E+01  2.00000000E+01  0.00000000E+00
  3.40000000E+01  1.90000000E+01  0.00000000E+00
  3.40000000E+01  1.80000000E+01  0.00000000E+00
  3.40000000E+01  1.70000000E+01  0.00000000E+00
  3.40000000E+01  1.60000000E+01  0.00000000E+00
  3.40000000E+01  1.50000000E+01  0.00000000E+00
  3.40000000E+01  1.40000000E+01  0.00000000E+00
  3.40000000E+01  1.30000000E+01  0.00000000E+00
  3.40000000E+01  1.20000000E+01  0.00000000E+00
  3.40000000E+01  1.10000000E+01  0.00000000E+00
  3.40000000E+01  1.00000000E+01  0.00000000E+00
  3.40000000E+01  9.00000000E+00  0.00000000E+00
  3.40000000E+01  8.00000000E+00  0.00000000E+00
  3.40000000E+01  7.00000000E+00  0.00000000E+00
  3.40000000E+01  6.00000000E+00  0.00000000E+00
  3.40000000E+01  5.00000000E+00  0.00000000E+00
  3.40000000E+01  4.00000000E+00  0.00000000E+00
  3.40000000E+01  3.00000000E+00  0.00000000E+00
  3.40000000E+01  2.00000000E+00  0.00000000E+00
  3.40000000E+01  1.00000000E+00  0.00000000E+00
  3.40000000E+01 -2.66453526E-15  0.00000000E+00
  3.50000000E+01  2.40000000E+01  0.00000000E+00
  3.50000000E+01  2.30000000E+01  0.00000000E+00
  3.50000000E+01  2.20000000E+01  0.00000000E+00
  3.50000000E+01  2.10000000E+01  0.00000000E+00
  3.50000000E+01  2.00000000E+01  0.00000000E+00
  3.50000000E+01  1.90000000E+01  0.00000000E+00
  3.50000000E+01  1.80000000E+01  0.00000000E+00
  3.50000000E+01  1.70000000E+01  0.00000000E+00
  3.50000000E+01  1.60000000E+01  0.00000000E+00
  3.50000000E+01  1.50000000E+01  0.00000000E+00
  3.50000000E+01  1.40000000E+01  0.00000000E+00
  3.50000000E+01  1.30000000E+01  0.00000000E+00
  3.50000000E+01  1.20000000E+01  0.00000000E+00
  3.50000000E+01  1.10000000E+01  0.00000000E+00
  3.50000000E+01  1.00000000E+01  0.00000000E+00
  3.50000000E+01  9.00000000E+00  0.00000000E+00
  3.50000000E+01  8.00000000E+00  0.00000000E+00
  3.50000000E+01  7.00000000E+00  0.00000000E+00
  3.50000000E+01  6.00000000E+00  0.00000000E+00
  3.50000000E+01  5.00000000E+00  0.00000000E+00
  3.50000000E+01  4.00000000E+00  0.00000000E+00
  3.50000000E+01  3.00000000E+00  0.00000000E+00
  3.50000000E+01  2.00000000E+00  0.00000000E+00
  3.50000000E+01  1.00000000E+00  0.00000000E+00
  3.50000000E+01 -2.66453526E-15  0.00000000E+00
  3.60000000E+01  2.40000000E+01  0.00000000E+00
  3.60000000E+01  2.30000000E+01  0.00000000E+00
  3.60000000E+01  2.20000000E+01  0.00000000E+00
  3.60000000E+01  2.10000000E+01  0.00000000E+00
  3.60000000E+01  2.00000000E+01  0.00000000E+00
  3.60000000E+01  1.90000000E+01  0.00000000E+00
  3.60000000E+01  1.80000000E+01  0.00000000E+00
  3.60000000E+01  1.70000000E+01  0.00000000E+00
  3.60000000E+01  1.60000000E+01  0.00000000E+00
  3.60000000E+01  1.50000000E+01  0.00000000E+00
  3.60000000E+01  1.40000000E+01  0.00000000E+00
  3.60000000E+01  1.30000000E+01  0.00000000E+00
  3.60000000E+01  1.20000000E+01  0.00000000E+00
  3.60000000E+01  1.10000000E+01  0.00000000E+00
  3.60000000E+01  1.00000000E+01  0.00000000E+00
  3.60000000E+01  9.00000000E+00  0.00000000E+00
  3.60000000E+01  8.00000000E+00  0.00000000E+00
  3.60000000E+01  7.00000000E+00  0.00000000E+00
  3.60000000E+01  6.00000000E+00  0.00000000E+00
  3.60000000E+01  5.00000000E+00  0.00000000E+00
  3.60000000E+01  4.00000000E+00  0.00000000E+00
  3.60000000E+01  3.00000000E+00  0.00000000E+00
  3.60000000E+01  2.00000000E+00  0.00000000E+00
  3.60000000E+01  1.00000000E+00  0.00000000E+00
  3.60000000E+01 -2.66453526E-15  0.00000000E+00
  3.70000000E+01  2.40000000E+01  0.00000000E+00
  3.70000000E+01  2.30000000E+01  0.00000000E+00
  3.70000000E+01  2.20000000E+01  0.00000000E+00
  3.70000000E+01  2.10000000E+01  0.00000000E+00
  3.70000000E+01  2.00000000E+01  0.00000000E+00
  3.70000000E+01  1.90000000E+01  0.00000000E+00
  3.70000000E+01  1.80000000E+01  0.00000000E+00
  3.70000000E+01  1.70000000E+01  0.00000000E+00
  3.70000000E+01  1.60000000E+01  0.00000000E+00
  3.70000000E+01  1.50000000E+01  0.00000000E+00
  3.70000000E+01  1.40000000E+01  0.00000000E+00
  3.70000000E+01  1.30000000E+01  0.00000000E+00
  3.70000000E+01  1.20000000E+01  0.00000000E+00
  3.70000000E+01  1.10000000E+01  0.00000000E+00
  3.70000000E+01  1.00000000E+01  0.00000000E+00
  3.70000000E+01  9.00000000E+00  0.00000000E+00
  3.70000000E+01  8.00000000E+00  0.00000000E+00
  3.70000000E+01  7.00000000E+00  0.00000000E+00
  3.70000000E+01  6.00000000E+00  0.00000000E+00
  3.70000000E+01  5.00000000E+00  0.00000000E+00
  3.70000000E+01  4.00000000E+00  0.00000000E+00
  3.70000000E+01  3.00000000E+00  0.00000000E+00
  3.70000000E+01  2.00000000E+00  0.00000000E+00
  3.70000000E+01  1.00000000E+00  0.00000000E+00
  3.70000000E+01 -2.66453526E-15  0.00000000E+00
  3.80000000E+01  2.40000000E+01  0.00000000E+00
  3.80000000E+01  2.30000000E+01  0.00000000E+00
  3.80000000E+01  2.20000000E+01  0.00000000E+00
  3.80000000E+01  2.10000000E+01  0.00000000E+00
  3.80000000E+01  2.00000000E+01  0.00000000E+00
  3.80000000E+01  1.90000000E+01  0.00000000E+00
  3.80000000E+01  1.80000000E+01  0.00000000E+00
  3.80000000E+01  1.70000000E+01  0.00000000E+00
  3.80000000E+01  1.60000000E+01  0.00000000E+00
  3.80000000E+01  1.50000000E+01  0.00000000E+00
  3.80000000E+01  1.40000000E+01  0.00000000E+00
  3.80000000E+01  1.30000000E+01  0.00000000E+00
  3.80000000E+01  1.20000000E+01  0.00000000E+00
  3.80000000E+01  1.10000000E+01  0.00000000E+00
  3.80000000E+01  1.00000000E+01  0.00000000E+00
  3.80000000E+01  9.00000000E+00  0.00000000E+00
  3.80000000E+01  8.00000000E+00  0.00000000E+00
  3.80000000E+01  7.00000000E+00  0.00000000E+00
  3.80000000E+01  6.00000000E+00  0.00000000E+00
  3.80000000E+01  5.00000000E+00  0.00000000E+00
  3.80000000E+01  4.00000000E+00  0.00000000E+00
  3.80000000E+01  3.00000000E+00  0.00000000E+00
  3.80000000E+01  2.00000000E+00  0.00000000E+00
  3.80000000E+01  1.00000000E+00  0.00000000E+00
  3.80000000E+01 -2.66453526E-15  0.00000000E+00
  3.90000000E+01  2.40000000E+01  0.00000000E+00
  3.90000000E+01  2.30000000E+01  0.00000000E+00
  3.90000000E+01  2.20000000E+01  0.00000000E+00
  3.90000000E+01  2.10000000E+01  0.00000000E+00
  3.90000000E+01  2.00000000E+01  0.00000000E+00
  3.90000000E+01  1.90000000E+01  0.00000000E+00
  3.90000000E+01  1.80000000E+01  0.00000000E+00
  3.90000000E+01  1.70000000E+01  0.00000000E+00
  3.90000000E+01  1.60000000E+01  0.00000000E+00
  3.90000000E+01  1.50000000E+01  0.00000000E+00
  3.90000000E+01  1.40000000E+01  0.00000000E+00
  3.90000000E+01  1.30000000E+01  0.00000000E+00
  3.90000000E+01  1.20000000E+01  0.00000000E+00
  3.90000000E+01  1.10000000E+01  0.00000000E+00
  3.90000000E+01  1.00000000E+01  0.00000000E+00
  3.90000000E+01  9.00000000E+00  0.00000000E+00
  3.90000000E+01  8.00000000E+00  0.00000000E+00
  3.90000000E+01  7.00000000E+00  0.00000000E+00
  3.90000000E+01  6.00000000E+00  0.00000000E+00
  3.90000000E+01  5.00000000E+00  0.00000000E+00
  3.90000000E+01  4.00000000E+00  0.00000000E+00
  3.90000000E+01  3.00000000E+00  0.00000000E+00
  3.90000000E+01  2.00000000E+00  0.00000000E+00
  3.90000000E+01  1.00000000E+00  0.00000000E+00
  3.90000000E+01 -2.66453526E-15  0.00000000E+00
  4.00000000E+01  2.40000000E+01  0.00000000E+00
  4.00000000E+01  2.30000000E+01  0.00000000E+00
  4.00000000E+01  2.20000000E+01  0.00000000E+00
  4.00000000E+01  2.10000000E+01  0.00000000E+00
  4.00000000E+01  2.00000000E+01  0.00000000E+00
  4.00000000E+01  1.90000000E+01  0.00000000E+00
  4.00000000E+01  1.80000000E+01  0.00000000E+00
  4.00000000E+01  1.70000000E+01  0.00000000E+00
  4.00000000E+01  1.60000000E+01  0.00000000E+00
  4.00000000E+01  1.50000000E+01  0.00000000E+00
  4.00000000E+01  1.40000000E+01  0.00000000E+00
  4.00000000E+01  1.30000000E+01  0.00000000E+00
  4.00000000E+01  1.20000000E+01  0.00000000E+00
  4.00000000E+01  1.10000000E+01  0.00000000E+00
  4.00000000E+01  1.00000000E+01  0.00000000E+00
  4.00000000E+01  9.00000000E+00  0.00000000E+00
  4.00000000E+01  8.00000000E+00  0.00000000E+00
  4.00000000E+01  7.00000000E+00  0.00000000E+00
  4.00000000E+01  6.00000000E+00  0.00000000E+00
  4.00000000E+01  5.00000000E+00  0.00000000E+00
  4.00000000E+01  4.00000000E+00  0.00000000E+00
  4.00000000E+01  3.00000000E+00  0.00000000E+00
  4.00000000E+01  2.00000000E+00  0.00000000E+00
  4.00000000E+01  1.00000000E+00  0.00000000E+00
  4.00000000E+01 -2.66453526E-15  0.00000000E+00
  4.10000000E+01  2.40000000E+01  0.00000000E+00
  4.10000000E+01  2.30000000E+01  0.00000000E+00
  4.10000000E+01  2.20000000E+01  0.00000000E+00
  4.10000000E+01  2.10000000E+01  0.00000000E+00
  4.10000000E+01  2.00000000E+01  0.00000000E+00
  4.10000000E+01  1.90000000E+01  0.00000000E+00
  4.10000000E+01  1.80000000E+01  0.00000000E+00
  4.10000000E+01  1.70000000E+01  0.00000000E+00
  4.10000000E+01  1.60000000E+01  0.00000000E+00
  4.10000000E+01  1.50000000E+01  0.00000000E+00
  4.10000000E+01  1.40000000E+01  0.00000000E+00
  4.10000000E+01  1.30000000E+01  0.00000000E+00
  4.10000000E+01  1.20000000E+01  0.00000000E+00
  4.10000000E+01  1.10000000E+01  0.00000000E+00
  4.10000000E+01  1.00000000E+01  0.00000000E+00
  4.10000000E+01  9.00000000E+00  0.00000000E+00
  4.10000000E+01  8.00000000E+00  0.00000000E+00
  4.10000000E+01  7.00000000E+00  0.00000000E+00
  4.10000000E+01  6.00000000E+00  0.00000000E+00
  4.10000000E+01  5.00000000E+00  0.00000000E+00
  4.10000000E+01  4.00000000E+00  0.00000000E+00
  4.10000000E+01  3.00000000E+00  0.00000000E+00
  4.10000000E+01  2.00000000E+00  0.00000000E+00
  4.10000000E+01  1.00000000E+00  0.00000000E+00
  4.10000000E+01 -2.66453526E-15  0.00000000E+00
  4.20000000E+01  2.40000000E+01  0.00000000E+00
  4.20000000E+01  2.30000000E+01  0.00000000E+00
  4.20000000E+01  2.20000000E+01  0.00000000E+00
  4.20000000E+01  2.10000000E+01  0.00000000E+00
  4.20000000E+01  2.00000000E+01  0.00000000E+00
  4.20000000E+01  1.90000000E+01  0.00000000E+00
  4.20000000E+01  1.80000000E+01  0.00000000E+00
  4.20000000E+01  1.70000000E+01  0.00000000E+00
  4.20000000E+01  1.60000000E+01  0.00000000E+00
  4.20000000E+01  1.50000000E+01  0.00000000E+00
  4.20000000E+01  1.40000000E+01  0.00000000E+00
  4.20000000E+01  1.30000000E+01  0.00000000E+00
  4.20000000E+01  1.20000000E+01  0.00000000E+00
  4.20000000E+01  1.10000000E+01  0.00000000E+00
  4.20000000E+01  1.00000000E+01  0.00000000E+00
  4.20000000E+01  9.00000000E+00  0.00000000E+00
  4.20000000E+01  8.00000000E+00  0.00000000E+00
  4.20000000E+01  7.00000000E+00  0.00000000E+00
  4.20000000E+01  6.00000000E+00  0.00000000E+00
  4.20000000E+01  5.00000000E+00  0.00000000E+00
  4.20000000E+01  4.00000000E+00  0.00000000E+00
  4.20000000E+01  3.00000000E+00  0.00000000E+00
  4.20000000E+01  2.00000000E+00  0.00000000E+00
  4.20000000E+01  1.00000000E+00  0.00000000E+00
  4.20000000E+01 -2.66453526E-15  0.00000000E+00
  4.30000000E+01  2.40000000E+01  0.00000000E+00
  4.30000000E+01  2.30000000E+01  0.00000000E+00
  4.30000000E+01  2.20000000E+01  0.00000000E+00
  4.30000000E+01  2.10000000E+01  0.00000000E+00
  4.30000000E+01  2.00000000E+01  0.00000000E+00
  4.30000000E+01  1.90000000E+01  0.00000000E+00
  4.30000000E+01  1.80000000E+01  0.00000000E+00
  4.30000000E+01  1.70000000E+01  0.00000000E+00
  4.30000000E+01  1.60000000E+01  0.00000000E+00
  4.30000000E+01  1.50000000E+01  0.00000000E+00
  4.30000000E+01  1.40000000E+01  0.00000000E+00
  4.30000000E+01  1.30000000E+01  0.00000000E+00
  4.30000000E+01  1.20000000E+01  0.00000000E+00
  4.30000000E+01  1.10000000E+01  0.00000000E+00
  4.30000000E+01  1.00000000E+01  0.00000000E+00
  4.30000000E+01  9.00000000E+00  0.00000000E+00
  4.30000000E+01  8.00000000E+00  0.00000000E+00
  4.30000000E+01  7.00000000E+00  0.00000000E+00
  4.30000000E+01  6.00000000E+00  0.00000000E+00
  4.30000000E+01  5.00000000E+00  0.00000000E+00
  4.30000000E+01  4.00000000E+00  0.00000000E+00
  4.30000000E+01  3.00000000E+00  0.00000000E+00
  4.30000000E+01  2.00000000E+00  0.00000000E+00
  4.30000000E+01  1.00000000E+00  0.00000000E+00
  4.30000000E+01 -2.66453526E-15  0.00000000E+00
  4.40000000E+01  2.40000000E+01  0.00000000E+00
  4.40000000E+01  2.30000000E+01  0.00000000E+00
  4.40000000E+01  2.20000000E+01  0.00000000E+00
  4.40000000E+01  2.10000000E+01  0.00000000E+00
  4.40000000E+01  2.00000000E+01  0.00000000E+00
  4.40000000E+01  1.90000000E+01  0.00000000E+00
  4.40000000E+01  1.80000000E+01  0.00000000E+00
  4.40000000E+01  1.70000000E+01  0.00000000E+00
  4.40000000E+01  1.60000000E+01  0.00000000E+00
  4.40000000E+01  1.50000000E+01  0.00000000E+00
  4.40000000E+01  1.40000000E+01  0.00000000E+00
  4.40000000E+01  1.30000000E+01  0.00000000E+00
  4.40000000E+01  1.20000000E+01  0.00000000E+00
  4.40000000E+01  1.10000000E+01  0.00000000E+00
  4.40000000E+01  1.00000000E+01  0.00000000E+00
  4.40000000E+01  9.00000000E+00  0.00000000E+00
  4.40000000E+01  8.00000000E+00  0.00000000E+00
  4.40000000E+01  7.00000000E+00  0.00000000E+00
  4.40000000E+01  6.00000000E+00  0.00000000E+00
  4.40000000E+01  5.00000000E+00  0.00000000E+00
  4.40000000E+01  4.00000000E+00  0.00000000E+00
  4.40000000E+01  3.00000000E+00  0.00000000E+00
  4.40000000E+01  2.00000000E+00  0.00000000E+00
  4.40000000E+01  1.00000000E+00  0.00000000E+00
  4.40000000E+01 -2.66453526E-15  0.00000000E+00
  4.50000000E+01  2.40000000E+01  0.00000000E+00
  4.50000000E+01  2.30000000E+01  0.00000000E+00
  4.50000000E+01  2.20000000E+01  0.00000000E+00
  4.50000000E+01  2.10000000E+01  0.00000000E+00
  4.50000000E+01  2.00000000E+01  0.00000000E+00
  4.50000000E+01  1.90000000E+01  0.00000000E+00
  4.50000000E+01  1.80000000E+01  0.00000000E+00
  4.50000000E+01  1.70000000E+01  0.00000000E+00
  4.50000000E+01  1.60000000E+01  0.00000000E+00
  4.50000000E+01  1.50000000E+01  0.00000000E+00
  4.50000000E+01  1.40000000E+01  0.00000000E+00
  4.50000000E+01  1.30000000E+01  0.00000000E+00
  4.50000000E+01  1.20000000E+01  0.00000000E+00
  4.50000000E+01  1.10000000E+01  0.00000000E+00
  4.50000000E+01  1.00000000E+01  0.00000000E+00
  4.50000000E+01  9.00000000E+00  0.00000000E+00
  4.50000000E+01  8.00000000E+00  0.00000000E+00
  4.50000000E+01  7.00000000E+00  0.00000000E+00
  4.50000000E+01  6.00000000E+00  0.00000000E+00
  4.50000000E+01  5.00000000E+00  0.00000000E+00
  4.50000000E+01  4.00000000E+00  0.00000000E+00
  4.50000000E+01  3.00000000E+00  0.00000000E+00
  4.50000000E+01  2.00000000E+00  0.00000000E+00
  4.50000000E+01  1.00000000E+00  0.00000000E+00
  4.50000000E+01 -2.66453526E-15  0.00000000E+00
  4.60000000E+01  2.40000000E+01  0.00000000E+00
  4.60000000E+01  2.30000000E+01  0.00000000E+00
  4.60000000E+01  2.20000000E+01  0.00000000E+00
  4.60000000E+01  2.10000000E+01  0.00000000E+00
  4.60000000E+01  2.00000000E+01  0.00000000E+00
  4.60000000E+01  1.90000000E+01  0.00000000E+00
  4.60000000E+01  1.80000000E+01  0.00000000E+00
  4.60000000E+01  1.70000000E+01  0.00000000E+00
  4.60000000E+01  1.60000000E+01  0.00000000E+00
  4.60000000E+01  1.50000000E+01  0.00000000E+00
  4.60000000E+01  1.40000000E+01  0.00000000E+00
  4.60000000E+01  1.30000000E+01  0.00000000E+00
  4.60000000E+01  1.20000000E+01  0.00000000E+00
  4.60000000E+01  1.10000000E+01  0.00000000E+00
  4.60000000E+01  1.00000000E+01  0.00000000E+00
  4.60000000E+01  9.00000000E+00  0.00000000E+00
  4.60000000E+01  8.00000000E+00  0.00000000E+00
  4.60000000E+01  7.00000000E+00  0.00000000E+00
  4.60000000E+01  6.00000000E+00  0.00000000E+00
  4.60000000E+01  5.00000000E+00  0.00000000E+00
  4.60000000E+01  4.00000000E+00  0.00000000E+00
  4.60000000E+01  3.00000000E+00  0.00000000E+00
  4.60000000E+01  2.00000000E+00  0.00000000E+00
  4.60000000E+01  1.00000000E+00  0.00000000E+00
  4.60000000E+01 -2.66453526E-15  0.00000000E+00
  4.70000000E+01  2.40000000E+01  0.00000000E+00
  4.70000000E+01  2.30000000E+01  0.00000000E+00
  4.70000000E+01  2.20000000E+01  0.00000000E+00
  4.70000000E+01  2.10000000E+01  0.00000000E+00
  4.70000000E+01  2.00000000E+01  0.00000000E+00
  4.70000000E+01  1.90000000E+01  0.00000000E+00
  4.70000000E+01  1.80000000E+01  0.00000000E+00
  4.70000000E+01  1.70000000E+01  0.00000000E+00
  4.70000000E+01  1.60000000E+01  0.00000000E+00
  4.70000000E+01  1.50000000E+01  0.00000000E+00
  4.70000000E+01  1.40000000E+01  0.00000000E+00
  4.70000000E+01  1.30000000E+01  0.00000000E+00
  4.70000000E+01  1.20000000E+01  0.00000000E+00
  4.70000000E+01  1.10000000E+01  0.00000000E+00
  4.70000000E+01  1.00000000E+01  0.00000000E+00
  4.70000000E+01  9.00000000E+00  0.00000000E+00
  4.70000000E+01  8.00000000E+00  0.00000000E+00
  4.70000000E+01  7.00000000E+00  0.00000000E+00
  4.70000000E+01  6.00000000E+00  0.00000000E+00
  4.70000000E+01  5.00000000E+00  0.00000000E+00
  4.70000000E+01  4.00000000E+00  0.00000000E+00
  4.70000000E+01  3.00000000E+00  0.00000000E+00
  4.70000000E+01  2.00000000E+00  0.00000000E+00
  4.70000000E+01  1.00000000E+00  0.00000000E+00
  4.70000000E+01 -2.66453526E-15  0.00000000E+00
  4.80000000E+01  2.40000000E+01  0.00000000E+00
  4.80000000E+01  2.30000000E+01  0.00000000E+00
  4.80000000E+01  2.20000000E+01  0.00000000E+00
  4.80000000E+01  2.10000000E+01  0.00000000E+00
  4.80000000E+01  2.00000000E+01  0.00000000E+00
  4.80000000E+01  1.90000000E+01  0.00000000E+00
  4.80000000E+01  1.80000000E+01  0.00000000E+00
  4.80000000E+01  1.70000000E+01  0.00000000E+00
  4.80000000E+01  1.60000000E+01  0.00000000E+00
  4.80000000E+01  1.50000000E+01  0.00000000E+00
  4.80000000E+01  1.40000000E+01  0.00000000E+00
  4.80000000E+01  1.30000000E+01  0.00000000E+00
  4.80000000E+01  1.20000000E+01  0.00000000E+00
  4.80000000E+01  1.10000000E+01  0.00000000E+00
  4.80000000E+01  1.00000000E+01  0.00000000E+00
  4.80000000E+01  9.00000000E+00  0.00000000E+00
  4.80000000E+01  8.00000000E+00  0.00000000E+00
  4.80000000E+01  7.00000000E+00  0.00000000E+00
  4.80000000E+01  6.00000000E+00  0.00000000E+00
  4.80000000E+01  5.00000000E+00  0.00000000E+00
  4.80000000E+01  4.00000000E+00  0.00000000E+00
  4.80000000E+01  3.00000000E+00  0.00000000E+00
  4.80000000E+01  2.00000000E+00  0.00000000E+00
  4.80000000E+01  1.00000000E+00  0.00000000E+00
  4.80000000E+01 -2.66453526E-15  0.00000000E+00
CELLS      1152      5760
         4           0           1          26          25
         4           1           2          27          26
         4           2           3          28          27
         4           3           4          29          28
         4           4           5          30          29
         4           5           6          31          30
         4           6           7          32          31
         4           7           8          33          32
         4           8           9          34          33
         4           9          10          35          34
         4          10          11          36          35
         4          11          12          37          36
         4          12          13          38          37
         4          13          14          39          38
         4          14          15          40          39
         4          15          16          41          40
         4          16          17          42          41
         4          17          18          43          42
         4          18          19          44          43
         4          19          20          45          44
         4          20          21          46          45
         4          21          22          47          46
         4          22          23          48          47
         4          23          24          49          48
         4          25          26          51          50
         4          26          27          52          51
         4          27          28          53          52
         4          28          29          54          53
         4          29          30          55          54
         4          30          31          56          55
         4          31          32          57          56
         4          32          33          58          57
         4          33          34          59          58
         4          34          35          60          59
         4          35          36          61          60
         4          36          37          62          61
         4          37          38          63          62
         4          38          39          64          63
         4          39          40          65          64
         4          40          41          66          65
         4          41          42          67          66
         4          42          43          68          67
         4          43          44          69          68
         4          44          45          70          69
         4          45          46          71          70
         4          46          47          72          71
         4          47          48          73          72
         4          48          49          74          73
         4          50          51          76          75
         4          51          52          77          76
         4          52          53          78          77
         4          53          54          79          78
         4          54          55          80          79
         4          55          56          81          80
         4          56          57          82          81
         4          57          58          83          82
         4          58          59          84          83
         4          59          60          85          84
         4          60          61          86          85
         4          61          62          87          86
         4          62          63          88          87
         4          63          64          89          88
         4          64          65          90          89
         4          65          66          91          90
         4          66          67          92          91
         4          67          68          93          92
         4          68          69          94          93
         4          69          70          95          94
         4          70          71          96          95
         4          71          72          97          96
         4          72          73          98          97
         4          73          74          99          98
         4          75          76         101         100
         4          76          77         102         101
         4          77          78         103         102
         4          78          79         104         103
         4          79          80         105         104
         4          80          81         106         105
         4          81          82         107         106
         4          82          83         108         107
         4          83          84         109         108
         4          84          85         110         109
         4          85          86         111         110
         4          86          87         112         111
         4          87          88         113         112
         4          88          89         114         113
         4          89          90         115         114
         4          90          91         116         115
         4          91          92         117         116
         4          92          93         118         117
         4          93          94         119         118
         4          94          95         120         119
         4          95          96         121         120
         4          96          97         122         121
         4          97          98         123         122
         4          98          99         124         123
         4         100         101         126         125
         4         101         102         127         126
         4         102         103         128         127
         4         103         104         129         128
         4         104         105         130         129
         4         105         106         131         130
         4         106         107         132         131
         4         107         108         133         132
         4         108         109         134         133
         4         109         110         135         134
         4         110         111         136         135
         4         111         112         137         136
         4         112         113         138         137
         4         113         114         139         138
         4         114         115         140         139
         4         115         116         141         140
         4         116         117         142         141
         4         117         118         143         142
         4         118         119         144         143
         4         119         120         145         144
         4         120         121         146         145
         4         121         122         147         146
         4         122         123         148         147
         4         123         124         149         148
         4         125         126         151         150
         4         126         127         152         151
         4         127         128         153         152
         4         128         129         154         153
         4         129         130         155         154
         4         130         131         156         155
         4         131         132         157         156
         4         132         133         158         157
         4         133         134         159         158
         4         134         135         160         159
         4         135         136         161         160
         4         136         137         162         161
         4         137         138         163         162
         4         138         139         164         163
         4         139         140         165         164
         4         140         141         166         165
         4         141         142         167         166
         4         142         143         168         167
         4         143         144         169         168
         4         144         145         170         169
         4         145         146         171         170
         4         146         147         172         171
         4         147         148         173         172
         4         148         149         174         173
         4         150         151         176         175
         4         151         152         177         176
         4         152         153         178         177
         4         153         154         179         178
         4         154         155         180         179
         4         155         156         181         180
         4         156         157         182         181
         4         157         158         183         182
         4         158         159         184         183
         4         159         160         185         184
         4         160         161         186         185
         4         161         162         187         186
         4         162         163         188         187
         4         163         164         189         188
         4         164         165         190         189
         4         165         166         191         190
         4         166         167         192         191
         4         167         168         193         192
         4         168         169         194         193
         4         169         170         195         194
         4         170         171         196         195
         4         171         172         197         196
         4         172         173         198         197
         4         173         174         199         198
         4         175         176         201         200
         4         176         177         202         201
         4         177         178         203         202
         4         178         179         204         203
         4         179         180         205         204
         4         180         181         206         205
         4         181         182         207         206
         4         182         183         208         207
         4         183         184         209         208
         4         184         185         210         209
         4         185         186         211         210
         4         186         187         212         211
         4         187         188         213         212
         4         188         189         214         213
         4         189         190         215         214
         4         190         191         216         215
         4         191         192         217         216
         4         192         193         218         217
         4         193         194         219         218
         4         194         195         220         219
         4         195         196         221         220
         4         196         197         222         221
         4         197         198         223         222
         4         198         199         224         223
         4         200         201         226         225
         4         201         202         227         226
         4         202         203         228         227
         4         203         204         229         228
         4         204         205         230         229
         4         205         206         231         230
         4         206         207         232         231
         4         207         208         233         232
         4         208         209         234         233
         4         209         210         235         234
         4         210         211         236         235
         4         211         212         237         236
         4         212         213         238         237
         4         213         214         239         238
         4         214         215         240         239
         4         215         216         241         240
         4         216         217         242         241
         4         217         218         243         242
         4         218         219         244         243
         4         219         220         245         244
         4         220         221         246         245
         4         221         222         247         246
         4         222         223         248         247
         4         223         224         249         248
         4         225         226         251         250
         4         226         227         252         251
         4         227         228         253         252
         4         228         229         254         253
         4         229         230         255         254
         4         230         231         256         255
         4         231         232         257         256
         4         232         233         258         257
         4         233         234         259         258
         4         234         235         260         259
         4         235         236         261         260
         4         236         237         262         261
         4         237         238         263         262
         4         238         239         264         263
         4         239         240         265         264
         4         240         241         266         265
         4         241         242         267         266
         4         242         243         268         267
         4         243         244         269         268
         4         244         245         270         269
         4         245         246         271         270
         4         246         247         272         271
         4         247         248         273         272
         4         248         249         274         273
         4         250         251         276         275
         4         251         252         277         276
         4         252         253         278         277
         4         253         254         279         278
         4         254         255         280         279
         4         255         256         281         280
         4         256         257         282         281
         4         257         258         283         282
         4         258         259         284         283
         4         259         260         285         284
         4         260         261         286         285
         4         261         262         287         286
         4         262         263         288         287
         4         263         264         289         288
         4         264         265         290         289
         4         265         266         291         290
         4         266         267         292         291
         4         267         268         293         292
         4         268         269         294         293
         4         269         270         295         294
         4         270         271         296         295
         4         271         272         297         296
         4         272         273         298         297
         4         273         274         299         298
         4         275         276         301         300
         4         276         277         302         301
         4         277         278         303         302
         4         278         279         304         303
         4         279         280         305         304
         4         280         281         306         305
         4         281         282         307         306
         4         282         283         308         307
         4         283         284         309         308
         4         284         285         310         309
         4         285         286         311         310
         4         286         287         312         311
         4         287         288         313         312
         4         288         289         314         313
         4         289         290         315         314
         4         290         291         316         315
         4         291         292         317         316
         4         292         293         318         317
         4         293         294         319         318
         4         294         295         320         319
         4         295         296         321         320
         4         296         297         322         321
         4         297         298         323         322
         4         298         299         324         323
         4         300         301         326         325
         4         301         302         327         326
         4         302         303         328         327
         4         303         304         329         328
         4         304         305         330         329
         4         305         306         331         330
         4         306         307         332         331
         4         307         308         333         332
         4         308         309         334         333
         4         309         310         335         334
         4         310         311         336         335
         4         311         312         337         336
         4         312         313         338         337
         4         313         314         339         338
         4         314         315         340         339
         4         315         316         341         340
         4         316         317         342         341
         4         317         318         343         342
         4         318         319         344         343
         4         319         320         345         344
         4         320         321         346         345
         4         321         322         347         346
         4         322         323         348         347
         4         323         324         349         348
         4         325         326         351         350
         4         326         327         352         351
         4         327         328         353         352
         4         328         329         354         353
         4         329         330         355         354
         4         330         331         356         355
         4         331         332         357         356
         4         332         333         358         357
         4         333         334         359         358
         4         334         335         360         359
         4         335         336         361         360
         4         336         337         362         361
         4         337         338         363         362
         4         338         339         364         363
         4         339         340         365         364
         4         340         341         366         365
         4         341         342         367         366
         4         342         343         368         367
         4         343         344         369         368
         4         344         345         370         369
         4         345         346         371         370
         4         346         347         372         371
         4         347         348         373         372
         4         348         349         374         373
         4         350         351         376         375
         4         351         352         377         376
         4         352         353         378         377
         4         353         354         379         378
         4         354         355         380         379
         4         355         356         381         380
         4         356         357         382         381
         4         357         358         383         382
         4         358         359         384         383
         4         359         360         385         384
         4         360         361         386         385
         4         361         362         387         386
         4         362         363         388         387
         4         363         364         389         388
         4         364         365         390         389
         4         365         366         391         390
         4         366         367         392         391
         4         367         368         393         392
         4         368         369         394         393
         4         369         370         395         394
         4         370         371         396         395
         4         371         372         397         396
         4         372         373         398         397
         4         373         374         399         398
         4         375         376         401         400
         4         376         377         402         401
         4         377         378         403         402
         4         378         379         404         403
         4         379         380         405         404
         4         380         381         406         405
         4         381         382         407         406
         4         382         383         408         407
         4         383         384         409         408
         4         384         385         410         409
         4         385         386         411         410
         4         386         387         412         411
         4         387         388         413         412
         4         388         389         414         413
         4         389         390         415         414
         4         390         391         416         415
         4         391         392         417         416
         4         392         393         418         417
         4         393         394         419         418
         4         394         395         420         419
         4         395         396         421         420
         4         396         397         422         421
         4         397         398         423         422
         4         398         399         424         423
         4         400         401         426         425
         4         401         402         427         426
         4         402         403         428         427
         4         403         404         429         428
         4         404         405         430         429
         4         405         406         431         430
         4         406         407         432         431
         4         407         408         433         432
         4         408         409         434         433
         4         409         410         435         434
         4         410         411         436         435
         4         411         412         437         436
         4         412         413         438         437
         4         413         414         439         438
         4         414         415         440         439
         4         415         416         441         440
         4         416         417         442         441
         4         417         418         443         442
         4         418         419         444         443
         4         419         420         445         444
         4         420         421         446         445
         4         421         422         447         446
         4         422         423         448         447
         4         423         424         449         448
         4         425         426         451         450
         4         426         427         452         451
         4         427         428         453         452
         4         428         429         454         453
         4         429         430         455         454
         4         430         431         456         455
         4         431         432         457         456
         4         432         433         458         457
         4         433         434         459         458
         4         434         435         460         459
         4         435         436         461         460
         4         436         437         462         461
         4         437         438         463         462
         4         438         439         464         463
         4         439         440         465         464
         4         440         441         466         465
         4         441         442         467         466
         4         442         443         468         467
         4         443         444         469         468
         4         444         445         470         469
         4         445         446         471         470
         4         446         447         472         471
         4         447         448         473         472
         4         448         449         474         473
         4         450         451         476         475
         4         451         452         477         476
         4         452         453         478         477
         4         453         454         479         478
         4         454         455         480         479
         4         455         456         481         480
         4         456         457         482         481
         4         457         458         483         482
         4         458         459         484         483
         4         459         460         485         484
         4         460         461         486         485
         4         461         462         487         486
         4         462         463         488         487
         4         463         464         489         488
         4         464         465         490         489
         4         465         466         491         490
         4         466         467         492         491
         4         467         468         493         492
         4         468         469         494         493
         4         469         470         495         494
         4         470         471         496         495
         4         471         472         497         496
         4         472         473         498         497
         4         473         474         499         498
         4         475         476         501         500
         4         476         477         502         501
         4         477         478         503         502
         4         478         479         504         503
         4         479         480         505         504
         4         480         481         506         505
         4         481         482         507         506
         4         482         483         508         507
         4         483         484         509         508
         4         484         485         510         509
         4         485         486         511         510
         4         486         487         512         511
         4         487         488         513         512
         4         488         489         514         513
         4         489         490         515         514
         4         490         491         516         515
         4         491         492         517         516
         4         492         493         518         517
         4         493         494         519         518
         4         494         495         520         519
         4         495         496         521         520
         4         496         497         522         521
         4         497         498         523         522
         4         498         499         524         523
         4         500         501         526         525
         4         501         502         527         526
         4         502         503         528         527
         4         503         504         529         528
         4         504         505         530         529
         4         505         506         531         530
         4         506         507         532         531
         4         507         508         533         532
         4         508         509         534         533
         4         509         510         535         534
         4         510         511         536         535
         4         511         512         537         536
         4         512         513         538         537
         4         513         514         539         538
         4         514         515         540         539
         4         515         516         541         540
         4         516         517         542         541
         4         517         518         543         542
         4         518         519         544         543
         4         519         520         545         544
         4         520         521         546         545
         4         521         522         547         546
         4         522         523         548         547
         4         523         524         549         548
         4         525         526         551         550
         4         526         527         552         551
         4         527         528         553         552
         4         528         529         554         553
         4         529         530         555         554
         4         530         531         556         555
         4         531         532         557         556
         4         532         533         558         557
         4         533         534         559         558
         4         534         535         560         559
         4         535         536         561         560
         4         536         537         562         561
         4         537         538         563         562
         4         538         539         564         563
         4         539         540         565         564
         4         540         541         566         565
         4         541         542         567         566
         4         542         543         568         567
         4         543         544         569         568
         4         544         545         570         569
         4         545         546         571         570
         4         546         547         572         571
         4         547         548         573         572
         4         548         549         574         573
         4         550         551         576         575
         4         551         552         577         576
         4         552         553         578         577
         4         553         554         579         578
         4         554         555         580         579
         4         555         556         581         580
         4         556         557         582         581
         4         557         558         583         582
         4         558         559         584         583
         4         559         560         585         584
         4         560         561         586         585
         4         561         562         587         586
         4         562         563         588         587
         4         563         564         589         588
         4         564         565         590         589
         4         565         566         591         590
         4         566         567         592         591
         4         567         568         593         592
         4         568         569         594         593
         4         569         570         595         594
         4         570         571         596         595
         4         571         572         597         596
         4         572         573         598         597
         4         573         574         599         598
         4         575         576         601         600
         4         576         577         602         601
         4         577         578         603         602
         4         578         579         604         603
         4         579         580         605         604
         4         580         581         606         605
         4         581         582         607         606
         4         582         583         608         607
         4         583         584         609         608
         4         584         585         610         609
         4         585         586         611         610
         4         586         587         612         611
         4         587         588         613         612
         4         588         589         614         613
         4         589         590         615         614
         4         590         591         616         615
         4         591         592         617         616
         4         592         593         618         617
         4         593         594         619         618
         4         594         595         620         619
         4         595         596         621         620
         4         596         597         622         621
         4         597         598         623         622
         4         598         599         624         623
         4         600         601         626         625
         4         601         602         627         626
         4         602         603         628         627
         4         603         604         629         628
         4         604         605         630         629
         4         605         606         631         630
         4         606         607         632         631
         4         607         608         633         632
         4         608         609         634         633
         4         609         610         635         634
         4         610         611         636         635
         4         611         612         637         636
         4         612         613         638         637
         4         613         614         639         638
         4         614         615         640         639
         4         615         616         641         640
         4         616         617         642         641
         4         617         618         643         642
         4         618         619         644         643
         4         619         620         645         644
         4         620         621         646         645
         4         621         622         647         646
         4         622         623         648         647
         4         623         624         649         648
         4         625         626         651         650
         4         626         627         652         651
         4         627         628         653         652
         4         628         629         654         653
         4         629         630         655         654
         4         630         631         656         655
         4         631         632         657         656
         4         632         633         658         657
         4         633         634         659         658
         4         634         635         660         659
         4         635         636         661         660
         4         636         637         662         661
         4         637         638         663         662
         4         638         639         664         663
         4         639         640         665         664
         4         640         641         666         665
         4         641         642         667         666
         4         642         643         668         667
         4         643         644         669         668
         4         644         645         670         669
         4         645         646         671         670
         4         646         647         672         671
         4         647         648         673         672
         4         648         649         674         673
         4         650         651         676         675
         4         651         652         677         676
         4         652         653         678         677
         4         653         654         679         678
         4         654         655         680         679
         4         655         656         681         680
         4         656         657         682         681
         4         657         658         683         682
         4         658         659         684         683
         4         659         660         685         684
         4         660         661         686         685
         4         661         662         687         686
         4         662         663         688         687
         4         663         664         689         688
         4         664         665         690         689
         4         665         666         691         690
         4         666         667         692         691
         4         667         668         693         692
         4         668         669         694         693
         4         669         670         695         694
         4         670         671         696         695
         4         671         672         697         696
         4         672         673         698         697
         4         673         674         699         698
         4         675         676         701         700
         4         676         677         702         701
         4         677         678         703         702
         4         678         679         704         703
         4         679         680         705         704
         4         680         681         706         705
         4         681         682         707         706
         4         682         683         708         707
         4         683         684         709         708
         4         684         685         710         709
         4         685         686         711         710
         4         686         687         712         711
         4         687         688         713         712
         4         688         689         714         713
         4         689         690         715         714
         4         690         691         716         715
         4         691         692         717         716
         4         692         693         718         717
         4         693         694         719         718
         4         694         695         720         719
         4         695         696         721         720
         4         696         697         722         721
         4         697         698         723         722
         4         698         699         724         723
         4         700         701         726         725
         4         701         702         727         726
         4         702         703         728         727
         4         703         704         729         728
         4         704         705         730         729
         4         705         706         731         730
         4         706         707         732         731
         4         707         708         733         732
         4         708         709         734         733
         4         709         710         735         734
         4         710         711         736         735
         4         711         712         737         736
         4         712         713         738         737
         4         713         714         739         738
         4         714         715         740         739
         4         715         716         741         740
         4         716         717         742         741
         4         717         718         743         742
         4         718         719         744         743
         4         719         720         745         744
         4         720         721         746         745
         4         721         722         747         746
         4         722         723         748         747
         4         723         724         749         748
         4         725         726         751         750
         4         726         727         752         751
         4         727         728         753         752
         4         728         729         754         753
         4         729         730         755         754
         4         730         731         756         755
         4         731         732         757         756
         4         732         733         758         757
         4         733         734         759         758
         4         734         735         760         759
         4         735         736         761         760
         4         736         737         762         761
         4         737         738         763         762
         4         738         739         764         763
         4         739         740         765         764
         4         740         741         766         765
         4         741         742         767         766
         4         742         743         768         767
         4         743         744         769         768
         4         744         745         770         769
         4         745         746         771         770
         4         746         747         772         771
         4         747         748         773         772
         4         748         749         774         773
         4         750         751         776         775
         4         751         752         777         776
         4         752         753         778         777
         4         753         754         779         778
         4         754         755         780         779
         4         755         756         781         780
         4         756         757         782         781
         4         757         758         783         782
         4         758         759         784         783
         4         759         760         785         784
         4         760         761         786         785
         4         761         762         787         786
         4         762         763         788         787
         4         763         764         789         788
         4         764         765         790         789
         4         765         766         791         790
         4         766         767         792         791
         4         767         768         793         792
         4         768         769         794         793
         4         769         770         795         794
         4         770         771         796         795
         4         771         772         797         796
         4         772         773         798         797
         4         773         774         799         798
         4         775         776         801         800
         4         776         777         802         801
         4         777         778         803         802
         4         778         779         804         803
         4         779         780         805         804
         4         780         781         806         805
         4         781         782         807         806
         4         782         783         808         807
         4         783         784         809         808
         4         784         785         810         809
         4         785         786         811         810
         4         786         787         812         811
         4         787         788         813         812
         4         788         789         814         813
         4         789         790         815         814
         4         790         791         816         815
         4         791         792         817         816
         4         792         793         818         817
         4         793         794         819         818
         4         794         795         820         819
         4         795         796         821         820
         4         796         797         822         821
         4         797         798         823         822
         4         798         799         824         823
         4         800         801         826         825
         4         801         802         827         826
         4         802         803         828         827
         4         803         804         829         828
         4         804         805         830         829
         4         805         806         831         830
         4         806         807         832         831
         4         807         808         833         832
         4         808         809         834         833
         4         809         810         835         834
         4         810         811         836         835
         4         811         812         837         836
         4         812         813         838         837
         4         813         814         839         838
         4         814         815         840         839
         4         815         816         841         840
         4         816         817         842         841
         4         817         818         843         842
         4         818         819         844         843
         4         819         820         845         844
         4         820         821         846         845
         4         821         822         847         846
         4         822         823         848         847
         4         823         824         849         848
         4         825         826         851         850
         4         826         827         852         851
         4         827         828         853         852
         4         828         829         854         853
         4         829         830         855         854
         4         830         831         856         855
         4         831         832         857         856
         4         832         833         858         857
         4         833         834         859         858
         4         834         835         860         859
         4         835         836         861         860
         4         836         837         862         861
         4         837         838         863         862
         4         838         839         864         863
         4         839         840         865         864
         4         840         841         866         865
         4         841         842         867         866
         4         842         843         868         867
         4         843         844         869         868
         4         844         845         870         869
         4         845         846         871         870
         4         846         847         872         871
         4         847         848         873         872
         4         848         849         874         873
         4         850         851         876         875
         4         851         852         877         876
         4         852         853         878         877
         4         853         854         879         878
         4         854         855         880         879
         4         855         856         881         880
         4         856         857         882         881
         4         857         858         883         882
         4         858         859         884         883
         4         859         860         885         884
         4         860         861         886         885
         4         861         862         887         886
         4         862         863         888         887
         4         863         864         889         888
         4         864         865         890         889
         4         865         866         891         890
         4         866         867         892         891
         4         867         868         893         892
         4         868         869         894         893
         4         869         870         895         894
         4         870         871         896         895
         4         871         872         897         896
         4         872         873         898         897
         4         873         874         899         898
         4         875         876         901         900
         4         876         877         902         901
         4         877         878         903         902
         4         878         879         904         903
         4         879         880         905         904
         4         880         881         906         905
         4         881         882         907         906
         4         882         883         908         907
         4         883         884         909         908
         4         884         885         910         909
         4         885         886         911         910
         4         886         887         912         911
         4         887         888         913         912
         4         888         889         914         913
         4         889         890         915         914
         4         890         891         916         915
         4         891         892         917         916
         4         892         893         918         917
         4         893         894         919         918
         4         894         895         920         919
         4         895         896         921         920
         4         896         897         922         921
         4         897         898         923         922
         4         898         899         924         923
         4         900         901         926         925
         4         901         902         927         926
         4         902         903         928         927
         4         903         904         929         928
         4         904         905         930         929
         4         905         906         931         930
         4         906         907         932         931
         4         907         908         933         932
         4         908         909         934         933
         4         909         910         935         934
         4         910         911         936         935
         4         911         912         937         936
         4         912         913         938         937
         4         913         914         939         938
         4         914         915         940         939
         4         915         916         941         940
         4         916         917         942         941
         4         917         918         943         942
         4         918         919         944         943
         4         919         920         945         944
         4         920         921         946         945
         4         921         922         947         946
         4         922         923         948         947
         4         923         924         949         948
         4         925         926         951         950
         4         926         927         952         951
         4         927         928         953         952
         4         928         929         954         953
         4         929         930         955         954
         4         930         931         956         955
         4         931         932         957         956
         4         932         933         958         957
         4         933         934         959         958
         4         934         935         960         959
         4         935         936         961         960
         4         936         937         962         961
         4         937         938         963         962
         4         938         939         964         963
         4         939         940         965         964
         4         940         941         966         965
         4         941         942         967         966
         4         942         943         968         967
         4         943         944         969         968
         4         944         945         970         969
         4         945         946         971         970
         4         946         947         972         971
         4         947         948         973         972
         4         948         949         974         973
         4         950         951         976         975
         4         951         952         977         976
         4         952         953         978         977
         4         953         954         979         978
         4         954         955         980         979
         4         955         956         981         980
         4         956         957         982         981
         4         957         958         983         982
         4         958         959         984         983
         4         959         960         985         984
         4         960         961         986         985
         4         961         962         987         986
         4         962         963         988         987
         4         963         964         989         988
         4         964         965         990         989
         4         965         966         991         990
         4         966         967         992         991
         4         967         968         993         992
         4         968         969         994         993
         4         969         970         995         994
         4         970         971         996         995
         4         971         972         997         996
         4         972         973         998         997
         4         973         974         999         998
         4         975         976        1001        1000
         4         976         977        1002        1001
         4         977         978        1003        1002
         4         978         979        1004        1003
         4         979         980        1005        1004
         4         980         981        1006        1005
         4         981         982        1007        1006
         4         982         983        1008        1007
         4         983         984        1009        1008
         4         984         985        1010        1009
         4         985         986        1011        1010
         4         986         987        1012        1011
         4         987         988        1013        1012
         4         988         989        1014        1013
         4         989         990        1015        1014
         4         990         991        1016        1015
         4         991         992        1017        1016
         4         992         993        1018        1017
         4         993         994        1019        1018
         4         994         995        1020        1019
         4         995         996        1021        1020
         4         996         997        1022        1021
         4         997         998        1023        1022
         4         998         999        1024        1023
         4        1000        1001        1026        1025
         4        1001        1002        1027        1026
         4        1002        1003        1028        1027
         4        1003        1004        1029        1028
         4        1004        1005        1030        1029
         4        1005        1006        1031        1030
         4        1006        1007        1032        1031
         4        1007        1008        1033        1032
         4        1008        1009        1034        1033
         4        1009        1010        1035        1034
         4        1010        1011        1036        1035
         4        1011        1012        1037        1036
         4        1012        1013        1038        1037
         4        1013        1014        1039        1038
         4        1014        1015        1040        1039
         4        1015        1016        1041        1040
         4        1016        1017        1042        1041
         4        1017        1018        1043        1042
         4        1018        1019        1044        1043
         4        1019        1020        1045        1044
         4        1020        1021        1046        1045
         4        1021        1022        1047        1046
         4        1022        1023        1048        1047
         4        1023        1024        1049        1048
         4        1025        1026        1051        1050
         4        1026        1027        1052        1051
         4        1027        1028        1053        1052
         4        1028        1029        1054        1053
         4        1029        1030        1055        1054
         4        1030        1031        1056        1055
         4        1031        1032        1057        1056
         4        1032        1033        1058        1057
         4        1033        1034        1059        1058
         4        1034        1035        1060        1059
         4        1035        1036        1061        1060
         4        1036        1037        1062        1061
         4        1037        1038        1063        1062
         4        1038        1039        1064        1063
         4        1039        1040        1065        1064
         4        1040        1041        1066        1065
         4        1041        1042        1067        1066
         4        1042        1043        1068        1067
         4        1043        1044        1069        1068
         4        1044        1045        1070        1069
         4        1045        1046        1071        1070
         4        1046        1047        1072        1071
         4        1047        1048        1073        1072
         4        1048        1049        1074        1073
         4        1050        1051        1076        1075
         4        1051        1052        1077        1076
         4        1052        1053        1078        1077
         4        1053        1054        1079        1078
         4        1054        1055        1080        1079
         4        1055        1056        1081        1080
         4        1056        1057        1082        1081
         4        1057        1058        1083        1082
         4        1058        1059        1084        1083
         4        1059        1060        1085        1084
         4        1060        1061        1086        1085
         4        1061        1062        1087        1086
         4        1062        1063        1088        1087
         4        1063        1064        1089        1088
         4        1064        1065        1090        1089
         4        1065        1066        1091        1090
         4        1066        1067        1092        1091
         4        1067        1068        1093        1092
         4        1068        1069        1094        1093
         4        1069        1070        1095        1094
         4        1070        1071        1096        1095
         4        1071        1072        1097        1096
         4        1072        1073        1098        1097
         4        1073        1074        1099        1098
         4        1075        1076        1101        1100
         4        1076        1077        1102        1101
         4        1077        1078        1103        1102
         4        1078        1079        1104        1103
         4        1079        1080        1105        1104
         4        1080        1081        1106        1105
         4        1081        1082        1107        1106
         4        1082        1083        1108        1107
         4        1083        1084        1109        1108
         4        1084        1085        1110        1109
         4        1085        1086        1111        1110
         4        1086        1087        1112        1111
         4        1087        1088        1113        1112
         4        1088        1089        1114        1113
         4        1089        1090        1115        1114
         4        1090        1091        1116        1115
         4        1091        1092        1117        1116
         4        1092        1093        1118        1117
         4        1093        1094        1119        1118
         4        1094        1095        1120        1119
         4        1095        1096        1121        1120
         4        1096        1097        1122        1121
         4        1097        1098        1123        1122
         4        1098        1099        1124        1123
         4        1100        1101        1126        1125
         4        1101        1102        1127        1126
         4        1102        1103        1128        1127
         4        1103        1104        1129        1128
         4        1104        1105        1130        1129
         4        1105        1106        1131        1130
         4        1106        1107        1132        1131
         4        1107        1108        1133        1132
         4        1108        1109        1134        1133
         4        1109        1110        1135        1134
         4        1110        1111        1136        1135
         4        1111        1112        1137        1136
         4        1112        1113        1138        1137
         4        1113        1114        1139        1138
         4        1114        1115        1140        1139
         4        1115        1116        1141        1140
         4        1116        1117        1142        1141
         4        1117        1118        1143        1142
         4        1118        1119        1144        1143
         4        1119        1120        1145        1144
         4        1120        1121        1146        1145
         4        1121        1122        1147        1146
         4        1122        1123        1148        1147
         4        1123        1124        1149        1148
         4        1125        1126        1151        1150
         4        1126        1127        1152        1151
         4        1127        1128        1153        1152
         4        1128        1129        1154        1153
         4        1129        1130        1155        1154
         4        1130        1131        1156        1155
         4        1131        1132        1157        1156
         4        1132        1133        1158        1157
         4        1133        1134        1159        1158
         4        1134        1135        1160        1159
         4        1135        1136        1161        1160
         4        1136        1137        1162        1161
         4        1137        1138        1163        1162
         4        1138        1139        1164        1163
         4        1139        1140        1165        1164
         4        1140        1141        1166        1165
         4        1141        1142        1167        1166
         4        1142        1143        1168        1167
         4        1143        1144        1169        1168
         4        1144        1145        1170        1169
         4        1145        1146        1171        1170
         4        1146        1147        1172        1171
         4        1147        1148        1173        1172
         4        1148        1149        1174        1173
         4        1150        1151        1176        1175
         4        1151        1152        1177        1176
         4        1152        1153        1178        1177
         4        1153        1154        1179        1178
         4        1154        1155        1180        1179
         4        1155        1156        1181        1180
         4        1156        1157        1182        1181
         4        1157        1158        1183        1182
         4        1158        1159        1184        1183
         4        1159        1160        1185        1184
         4        1160        1161        1186        1185
         4        1161        1162        1187        1186
         4        1162        1163        1188        1187
         4        1163        1164        1189        1188
         4        1164        1165        1190        1189
         4        1165        1166        1191        1190
         4        1166        1167        1192        1191
         4        1167        1168        1193        1192
         4        1168        1169        1194        1193
         4        1169        1170        1195        1194
         4        1170        1171        1196        1195
         4        1171        1172        1197        1196
         4        1172        1173        1198        1197
         4        1173        1174        1199        1198
         4        1175        1176        1201        1200
         4        1176        1177        1202        1201
         4        1177        1178        1203        1202
         4        1178        1179        1204        1203
         4        1179        1180        1205        1204
         4        1180        1181        1206        1205
         4        1181        1182        1207        1206
         4        1182        1183        1208        1207
         4        1183        1184        1209        1208
         4        1184        1185        1210        1209
         4        1185        1186        1211        1210
         4        1186        1187        1212        1211
         4        1187        1188        1213        1212
         4        1188        1189        1214        1213
         4        1189        1190        1215        1214
         4        1190        1191        1216        1215
         4        1191        1192        1217        1216
         4        1192        1193        1218        1217
         4        1193        1194        1219        1218
         4        1194        1195        1220        1219
         4        1195        1196        1221        1220
         4        1196        1197        1222        1221
         4        1197        1198        1223        1222
         4        1198        1199        1224        1223
CELL_TYPES       1152
9
9
9
9
9
9
9
9
9
9
9
9
9
9
9
9
9
9
9
9
9
9
9
9
9
9
9
9
9
9
9
9
9
9
9
9
9
9
9
9
9
9
9
9
9
9
9
9
9
9
9
9
9
9
9
9
9
9
9
9
9
9
9
9
9
9
9
9
9
9
9
9
9
9
9
9
9
9
9
9
9
9
9
9
9
9
9
9
9
9
9
9
9
9
9
9
9
9
9
9
9
9
9
9
9
9
9
9
9
9
9
9
9
9
9
9
9
9
9
9
9
9
9
9
9
9
9
9
9
9
9
9
9
9
9
9
9
9
9
9
9
9
9
9
9
9
9
9
9
9
9
9
9
9
9
9
9
9
9
9
9
9
9
9
9
9
9
9
9
9
9
9
9
9
9
9
9
9
9
9
9
9
9
9
9
9
9
9
9
9
9
9
9
9
9
9
9
9
9
9
9
9
9
9
9
9
9
9
9
9
9
9
9
9
9
9
9
9
9
9
9
9
9
9
9
9
9
9
9
9
9
9
9
9
9
9
9
9
9
9
9
9
9
9
9
9
9
9
9
9
9
9
9
9
9
9
9
9
9
9
9
9
9
9
9
9
9
9
9
9
9
9
9
9
9
9
9
9
9
9
9
9
9
9
9
9
9
9
9
9
9
9
9
9
9
9
9
9
9
9
9
9
9
9
9
9
9
9
9
9
9
9
9
9
9
9
9
9
9
9
9
9
9
9
9
9
9
9
9
9
9
9
9
9
9
9
9
9
9
9
9
9
9
9
9
9
9
9
9
9
9
9
9
9
9
9
9
9
9
9
9
9
9
9
9
9
9
9
9
9
9
9
9
9
9
9
9
9
9
9
9
9
9
9
9
9
9
9
9
9
9
9
9
9
9
9
9
9
9
9
9
9
9
9
9
9
9
9
9
9
9
9
9
9
9
9
9
9
9
9
9
9
9
9
9
9
9
9
9
9
9
9
9
9
9
9
9
9
9
9
9
9
9
9
9
9
9
9
9
9
9
9
9
9
9
9
9
9
9
9
9
9
9
9
9
9
9
9
9
9
9
9
9
9
9
9
9
9
9
9
9
9
9
9
9
9
9
9
9
9
9
9
9
9
9
9
9
9
9
9
9
9
9
9
9
9
9
9
9
9
9
9
9
9
9
9
9
9
9
9
9
9
9
9
9
9
9
9
9
9
9
9
9
9
9
9
9
9
9
9
9
9
9
9
9
9
9
9
9
9
9
9
9
9
9
9
9
9
9
9
9
9
9
9
9
9
9
9
9
9
9
9
9
9
9
9
9
9
9
9
9
9
9
9
9
9
9
9
9
9
9
9
9
9
9
9
9
9
9
9
9
9
9
9
9
9
9
9
9
9
9
9
9
9
9
9
9
9
9
9
9
9
9
9
9
9
9
9
9
9
9
9
9
9
9
9
9
9
9
9
9
9
9
9
9
9
9
9
9
9
9
9
9
9
9
9
9
9
9
9
9
9
9
9
9
9
9
9
9
9
9
9
9
9
9
9
9
9
9
9
9
9
9
9
9
9
9
9
9
9
9
9
9
9
9
9
9
9
9
9
9
9
9
9
9
9
9
9
9
9
9
9
9
9
9
9
9
9
9
9
9
9
9
9
9
9
9
9
9
9
9
9
9
9
9
9
9
9
9
9
9
9
9
9
9
9
9
9
9
9
9
9
9
9
9
9
9
9
9
9
9
9
9
9
9
9
9
9
9
9
9
9
9
9
9
9
9
9
9
9
9
9
9
9
9
9
9
9
9
9
9
9
9
9
9
9
9
9
9
9
9
9
9
9
9
9
9
9
9
9
9
9
9
9
9
9
9
9
9
9
9
9
9
9
9
9
9
9
9
9
9
9
9
9
9
9
9
9
9
9
9
9
9
9
9
9
9
9
9
9
9
9
9
9
9
9
9
9
9
9
9
9
9
9
9
9
9
9
9
9
9
9
9
9
9
9
9
9
9
9
9
9
9
9
9
9
9
9
9
9
9
9
9
9
9
9
9
9
9
9
9
9
9
9
9
9
9
9
9
9
9
9
9
9
9
9
9
9
9
9
9
9
9
9
9
9
9
9
9
9
9
9
9
9
9
9
9
9
9
9
9
9
9
9
9
9
9
9
9
9
9
9
9
9
9
9
9
9
9
9
9
9
9
9
9
9
9
9
9
9
9
9
9
9
9
9
9
9
9
9
9
9
9
9
9
9
9
9
9
9
9
9
9
9
9
9
9
9
9
9
9
9
9
9
9
9
9
9
9
9
9
9
9
9
9
9
9
9
9
9
9
9
9
9
9
9
9
9
9
9
9
9
9
9
9
9
9
9
9
9
9
9
9
9
9
9
9
9
9
9
9
9
9
9
9
9
9
9
9
9
9
9
9
9
9
9
9
9
9
9
9
9
9
9
9
9
9
9
9
9
9
9
9
9
9
9
9
9
9
9
9
9
9
9
9
9
9
9
9
9
9
9
9
9
9
9
9
9
9
9
9
9
9
9
9
9
9
9
9
9
9
9
9
9
9
9
9
9
9
9
9
9
9
9
9
9
9
9
9
9
9
9
9
9
9
9
9
9
9
9
9
9
POINT_DATA      1225
SCALARS p double 
LOOKUP_TABLE default
  5.652771248890524E-014
  5.285000335175624E-014
  4.763172248234874E-014
  5.020334352584720E-014
  5.619183991863012E-014
  5.995106104699236E-014
  6.109366076036535E-014
  6.259804513932973E-014
  6.162049550748274E-014
  6.107623443067541E-014
  6.849111858308579E-014
  7.761285236889490E-014
  8.063489954534713E-014
  8.670376082923716E-014
  9.556189534327139E-014
  1.055594053519323E-013
  1.106622002014490E-013
  1.139454638617219E-013
  1.178905139642151E-013
  1.174946536601473E-013
  1.176251535743751E-013
  1.181206638990130E-013
  1.190380371272893E-013
  1.198709896302780E-013
  1.200278884337281E-013
  5.013091933763112E-014
  4.716705817603523E-014
  4.583201752604815E-014
  5.160052572486378E-014
  5.764086905549830E-014
  6.308206095881800E-014
  6.138170377511689E-014
  6.118553435319730E-014
  6.342416667973061E-014
  6.540325343418099E-014
  7.063256036001716E-014
  7.703372029122080E-014
  8.181271374536995E-014
  8.587330518371235E-014
  9.484201529062163E-014
  1.052456229014635E-013
  1.102413593437991E-013
  1.134011997439107E-013
  1.168328336344014E-013
  1.167768511065426E-013
  1.169904341520138E-013
  1.183663976611731E-013
  1.186695827181188E-013
  1.194642097748473E-013
  1.199413489643710E-013
  4.006724069401377E-014
  3.593010170460884E-014
  3.758409650993057E-014
  4.575903514235172E-014
  5.307334151627652E-014
  5.779185149918598E-014
  5.772498422525568E-014
  5.699511215670375E-014
  6.400737430722656E-014
  6.632025987543766E-014
  6.816474360522051E-014
  7.675711684998639E-014
  8.247881814985243E-014
  8.777818867286291E-014
  9.499485479168366E-014
  1.021474607559286E-013
  1.083186224705899E-013
  1.134046372239468E-013
  1.164818514454093E-013
  1.163995182354283E-013
  1.166027437382369E-013
  1.175357219917501E-013
  1.178798423163952E-013
  1.186115628266559E-013
  1.190104353032239E-013
  0.000000000000000E+000
  2.533043641313935E-014
  3.251771752272335E-014
  3.999623522063231E-014
  4.893734198606201E-014
  5.429671435215265E-014
  5.601873332901919E-014
  5.505320875746252E-014
  5.948015366267921E-014
  6.112476402223015E-014
  6.675857466152610E-014
  7.432039577027652E-014
  7.880825594561977E-014
  8.601227127155266E-014
  9.395801123032653E-014
  1.011547943037969E-013
  1.080241495672424E-013
  1.120421267841850E-013
  1.143606619106548E-013
  1.152250670296222E-013
  1.147983252277302E-013
  1.154417340046062E-013
  1.167054937941100E-013
  1.172963065682786E-013
  1.174356957071391E-013
  0.000000000000000E+000
  1.632321349981004E-014
  2.674290725277157E-014
  3.608753796011690E-014
  4.418808818101202E-014
  4.846691386564184E-014
  5.100563191988450E-014
  5.254305427081513E-014
  5.562016983462349E-014
  5.868658957154970E-014
  6.618682329879104E-014
  7.432648542412870E-014
  7.823911557609918E-014
  8.419179348790454E-014
  8.926155827430096E-014
  9.714011318741357E-014
  1.053285110128079E-013
  1.097850056595915E-013
  1.115331311920676E-013
  1.126203290845296E-013
  1.122715926013884E-013
  1.134250264312411E-013
  1.150698090840006E-013
  1.155851399708009E-013
  1.157099527388902E-013
  0.000000000000000E+000
  1.058756281148638E-014
  2.418769858873943E-014
  2.975286442244470E-014
  3.679677916506890E-014
  4.371593095900821E-014
  4.885077556706797E-014
  5.213219568108085E-014
  5.449624931121734E-014
  5.991328782196008E-014
  6.689713954956058E-014
  7.338101194732659E-014
  7.939512049383507E-014
  8.262523281693322E-014
  8.844759342621160E-014
  9.494205224951657E-014
  1.003908858198752E-013
  1.053004029252875E-013
  1.080199926179257E-013
  1.096506132028110E-013
  1.101790819600155E-013
  1.110747326054304E-013
  1.124503060213256E-013
  1.130862503852179E-013
  1.130829602535576E-013
  0.000000000000000E+000
  8.555965382049436E-015
  2.191425398787042E-014
  2.706763449111775E-014
  3.373990683484204E-014
  4.221515906290010E-014
  4.729498222454799E-014
  5.219801260691275E-014
  5.526134579748668E-014
  6.000162152856734E-014
  6.614941889185450E-014
  7.223925605161216E-014
  7.880102967892453E-014
  8.275678412389923E-014
  8.773382442878254E-014
  9.332176160282931E-014
  9.709490655669263E-014
  1.009551100999970E-013
  1.051478981940791E-013
  1.066815385541427E-013
  1.072088896609095E-013
  1.084858619448695E-013
  1.094126738968991E-013
  1.100268790396603E-013
  1.104658179480084E-013
  0.000000000000000E+000
  1.133128528467973E-014
  2.036368836428557E-014
  2.363968576691283E-014
  3.116821345240357E-014
  4.093035585661075E-014
  4.614680812727900E-014
  5.136975631537019E-014
  5.469969697790822E-014
  5.777694952557139E-014
  6.432801444451316E-014
  7.083032499700687E-014
  7.739360781299308E-014
  8.309118039824996E-014
  8.651721675312991E-014
  9.126240307935216E-014
  9.433210035804813E-014
  9.761267480857035E-014
  1.013666939863212E-013
  1.035302819461183E-013
  1.042612724825862E-013
  1.051941561780509E-013
  1.062801022182442E-013
  1.068589487685061E-013
  1.072050816816481E-013
  0.000000000000000E+000
  1.187553285348718E-014
  1.798241548704748E-014
  2.198163731950110E-014
  3.075798586477721E-014
  3.906453859898225E-014
  4.331652500974282E-014
  4.720896169601817E-014
  5.318636548015052E-014
  5.587929462249548E-014
  6.159216806145824E-014
  6.992054238345790E-014
  7.493645320708998E-014
  7.919233423894913E-014
  8.451971678102839E-014
  8.929624015385487E-014
  9.180640110428287E-014
  9.365271949449240E-014
  9.709739469674000E-014
  1.001146702703329E-013
  1.005748674029312E-013
  1.014998193996057E-013
  1.027128161705787E-013
  1.036440694322829E-013
  1.038299325390087E-013
  0.000000000000000E+000
  9.824370853007220E-015
  1.460595631376569E-014
  2.120335890324213E-014
  2.889574804052070E-014
  3.666849748369777E-014
  4.059940963942773E-014
  4.538130194969536E-014
  5.179448581438650E-014
  5.544882746026176E-014
  5.942455605534696E-014
  6.678780800086719E-014
  7.324926523173635E-014
  7.869465230669309E-014
  8.248546873011767E-014
  8.577674240999452E-014
  8.897272752888575E-014
  9.103994478245406E-014
  9.311180482837057E-014
  9.547356908541953E-014
  9.651267384857199E-014
  9.777993192316226E-014
  9.920656923412648E-014
  1.000108156315768E-013
  1.001271624856825E-013
  0.000000000000000E+000
  8.267334483779604E-015
  1.317452309861677E-014
  1.947913750127387E-014
  2.532816469828550E-014
  3.115264323616620E-014
  3.793852199010721E-014
  4.388604393446295E-014
  4.924979506462890E-014
  5.402809961772579E-014
  5.904745199139613E-014
  6.506705029120997E-014
  7.136527328044201E-014
  7.702366919810569E-014
  7.924799317440544E-014
  8.134732259823121E-014
  8.522693633921447E-014
  8.781330163614118E-014
  8.949064901974382E-014
  9.122087234786150E-014
  9.245842249932672E-014
  9.389480086251929E-014
  9.501391070814906E-014
  9.581767163593623E-014
  9.630089731972375E-014
  0.000000000000000E+000
  5.629031993110128E-015
  1.219251357735965E-014
  1.838605063627306E-014
  2.388340614426909E-014
  2.993581660520790E-014
  3.590458901882884E-014
  4.150028364132627E-014
  4.631673797992755E-014
  5.149667960924277E-014
  5.707899314869534E-014
  6.236219228028115E-014
  6.867713640041833E-014
  7.359538643810685E-014
  7.629875307467459E-014
  7.882359554967268E-014
  8.124090821547783E-014
  8.377508879871255E-014
  8.561488779897333E-014
  8.749402642736646E-014
  8.876888498510777E-014
  9.051354685217298E-014
  9.109855858279475E-014
  9.167975376687188E-014
  9.210271570334301E-014
  0.000000000000000E+000
  5.412952030520708E-015
  1.127821930791494E-014
  1.742621905181495E-014
  2.348609538447618E-014
  2.990776994743639E-014
  3.501475319172479E-014
  3.838996452064244E-014
  4.318468721148128E-014
  4.910951190999094E-014
  5.379378077046960E-014
  5.858953436400434E-014
  6.451703660063876E-014
  6.935657923062451E-014
  7.259285392450586E-014
  7.585346709433993E-014
  7.715986305172665E-014
  7.887420615884610E-014
  8.169118486007626E-014
  8.354401529840269E-014
  8.483763860594103E-014
  8.641491862902984E-014
  8.720593586448934E-014
  8.763579621255229E-014
  8.792913371992078E-014
  0.000000000000000E+000
  5.126025656304131E-015
  1.036744042686497E-014
  1.623285104843388E-014
  2.251778649393049E-014
  2.864897578279145E-014
  3.376503115337484E-014
  3.756975720137831E-014
  4.173605225373434E-014
  4.619652403810486E-014
  5.058820752806873E-014
  5.466092377263858E-014
  5.990305682936772E-014
  6.444112116818192E-014
  6.772055540494784E-014
  7.032663659948275E-014
  7.311086288862438E-014
  7.499748990376336E-014
  7.752705585682934E-014
  7.966817645852234E-014
  8.112467826637253E-014
  8.203056836939298E-014
  8.287120211567535E-014
  8.347445052207580E-014
  8.374444372166560E-014
  0.000000000000000E+000
  3.506870535080026E-015
  9.625362094209566E-015
  1.553910215505902E-014
  2.111147342661950E-014
  2.658735397717377E-014
  3.147185908879585E-014
  3.579042705271093E-014
  4.005471771696054E-014
  4.359194581112859E-014
  4.766420545593502E-014
  5.129278905164654E-014
  5.524262790214740E-014
  5.968686204241711E-014
  6.292890679718855E-014
  6.566218029834343E-014
  6.872259438649065E-014
  7.167423286740686E-014
  7.406851482246028E-014
  7.584461100717845E-014
  7.704548929660415E-014
  7.802424103422390E-014
  7.872130242657305E-014
  7.959787374417988E-014
  7.980956729219068E-014
  0.000000000000000E+000
  3.228509945495006E-015
  8.786726610196750E-015
  1.419321829964727E-014
  1.902586800543529E-014
  2.386964904535634E-014
  2.840585784466961E-014
  3.244378168121739E-014
  3.653935745379712E-014
  4.068077796004845E-014
  4.414157403794166E-014
  4.849393965189303E-014
  5.205181265392645E-014
  5.599503138913518E-014
  5.878192919196304E-014
  6.159185666653333E-014
  6.479755696771420E-014
  6.814289455674347E-014
  7.032576260469524E-014
  7.183973636937572E-014
  7.288527895483225E-014
  7.416886628977918E-014
  7.494191626674684E-014
  7.557164015146653E-014
  7.575433413939188E-014
  0.000000000000000E+000
  3.807627142028820E-015
  8.162068593216405E-015
  1.288170107416125E-014
  1.744866290824605E-014
  2.200249634934876E-014
  2.545255153414776E-014
  2.900930447633871E-014
  3.296753987168715E-014
  3.718036002371337E-014
  4.053736035405641E-014
  4.481904402139150E-014
  4.917833823016038E-014
  5.236597212200199E-014
  5.553454853112662E-014
  5.795292283234148E-014
  6.119050767938287E-014
  6.440500559813568E-014
  6.650904230246325E-014
  6.818736825244905E-014
  6.884758508730479E-014
  6.973077321433015E-014
  7.058494822472077E-014
  7.143774055690557E-014
  7.171724296038330E-014
  0.000000000000000E+000
  3.672839290638080E-015
  7.410257810909013E-015
  1.182201054647945E-014
  1.603654370881606E-014
  1.995454027467915E-014
  2.340337087788431E-014
  2.652157252225741E-014
  3.111284154029325E-014
  3.494035572211820E-014
  3.875170640565476E-014
  4.268804185131896E-014
  4.602343025742407E-014
  4.842090418736100E-014
  5.208417804015105E-014
  5.450678157405855E-014
  5.726886859875638E-014
  6.072368489712835E-014
  6.281142257333085E-014
  6.418420046982107E-014
  6.494661846454237E-014
  6.570592663750440E-014
  6.658060333940298E-014
  6.751071196659606E-014
  6.781444173247871E-014
  0.000000000000000E+000
  3.194374207792173E-015
  7.020593129871533E-015
  1.109862744064986E-014
  1.476671358531530E-014
  1.823224930506374E-014
  2.139398503212381E-014
  2.502075713038642E-014
  2.915619509813775E-014
  3.276226408352194E-014
  3.698652728495384E-014
  4.099979245510569E-014
  4.348917046768651E-014
  4.575641288986103E-014
  4.824498946814797E-014
  5.148560217229555E-014
  5.447954863318375E-014
  5.728862439957200E-014
  5.951846451889850E-014
  6.080696476228137E-014
  6.179037697036680E-014
  6.237107394111017E-014
  6.331347558786720E-014
  6.392130358049266E-014
  6.411288391336452E-014
  0.000000000000000E+000
  3.236260912917490E-015
  6.556129755325424E-015
  1.003174781031207E-014
  1.366788756106042E-014
  1.671765120761318E-014
  1.974566910140231E-014
  2.337252737581049E-014
  2.740437611640195E-014
  3.102833510921586E-014
  3.439774052775435E-014
  3.798792837343800E-014
  4.108879400829135E-014
  4.352717423656091E-014
  4.589636612943725E-014
  4.876777980974930E-014
  5.160006189540005E-014
  5.462053022183106E-014
  5.624099285513476E-014
  5.824682742826610E-014
  5.927000916722343E-014
  5.997088474804781E-014
  6.027823784803003E-014
  6.066557420143800E-014
  6.078977483295245E-014
  0.000000000000000E+000
  3.220510068320626E-015
  6.058314681357583E-015
  9.157027007834895E-015
  1.244669072783326E-014
  1.556453991614157E-014
  1.877862741657539E-014
  2.208549475100586E-014
  2.555036442304828E-014
  2.893485232268962E-014
  3.206192096852906E-014
  3.499543721628165E-014
  3.851769116817983E-014
  4.118468995538410E-014
  4.351597817270635E-014
  4.615193719082267E-014
  4.905138609585625E-014
  5.122163319614237E-014
  5.296945195544436E-014
  5.457022496264159E-014
  5.624861609812671E-014
  5.689140884529058E-014
  5.731129831758297E-014
  5.760319384493916E-014
  5.764667264103866E-014
  0.000000000000000E+000
  3.011706435235885E-015
  5.705888015002963E-015
  8.456143766683463E-015
  1.137776589194083E-014
  1.445440983795921E-014
  1.756339185524261E-014
  2.067411722502220E-014
  2.360587295799046E-014
  2.650219556458527E-014
  2.938706967563097E-014
  3.298457103257968E-014
  3.555219898726961E-014
  3.853473429393635E-014
  4.115290838313828E-014
  4.382565094638258E-014
  4.649807064050287E-014
  4.799617152534044E-014
  4.991706612341489E-014
  5.150118853145231E-014
  5.278290702063378E-014
  5.370778996576258E-014
  5.420760587987837E-014
  5.437262047752433E-014
  5.436759859347803E-014
  0.000000000000000E+000
  2.584209760299293E-015
  5.195578115558115E-015
  7.848583453475029E-015
  1.059572850721195E-014
  1.351460022862750E-014
  1.646652621494670E-014
  1.946059981295699E-014
  2.220378829861785E-014
  2.480175559935509E-014
  2.747722530029167E-014
  3.044535958324111E-014
  3.328242225041566E-014
  3.582011315947831E-014
  3.878530946036545E-014
  4.112024930667347E-014
  4.313157315262338E-014
  4.514686503431568E-014
  4.707785608938142E-014
  4.875372350536691E-014
  4.968331290513499E-014
  5.044820030276932E-014
  5.090119608472176E-014
  5.108885911146950E-014
  5.113948907944291E-014
  0.000000000000000E+000
  2.378677716280468E-015
  4.855031805799884E-015
  7.432865338697735E-015
  1.004770764295481E-014
  1.270927837220903E-014
  1.551277612103534E-014
  1.870240438136938E-014
  2.109761494855913E-014
  2.382332251696460E-014
  2.622719969360190E-014
  2.840153296802346E-014
  3.103764889494684E-014
  3.370924807386204E-014
  3.668918675398022E-014
  3.898165900967128E-014
  4.063294748292095E-014
  4.231950384130469E-014
  4.395834227393288E-014
  4.518218434735348E-014
  4.633855200753418E-014
  4.711380558155769E-014
  4.746986408661933E-014
  4.789255113019312E-014
  4.802745228280962E-014
  0.000000000000000E+000
  2.254554309198664E-015
  4.592978068752645E-015
  7.029765667011875E-015
  9.537785831385824E-015
  1.219523862007554E-014
  1.525014143937275E-014
  1.779634205546559E-014
  2.002159076207841E-014
  2.209570271816664E-014
  2.459855796597213E-014
  2.720367915029235E-014
  2.941360464430696E-014
  3.180818755993824E-014
  3.436125481826380E-014
  3.688057104395139E-014
  3.847093714591899E-014
  3.972878543576988E-014
  4.088689687461113E-014
  4.236111953758012E-014
  4.327443882026030E-014
  4.401292541498928E-014
  4.449902101271386E-014
  4.487507392977222E-014
  4.501418597824940E-014
  0.000000000000000E+000
  2.138993672697986E-015
  4.329406649436160E-015
  6.599693304850433E-015
  9.011278255761302E-015
  1.161725928577635E-014
  1.426766764112806E-014
  1.672140271617302E-014
  1.897291363256529E-014
  2.072608497313441E-014
  2.311080415824554E-014
  2.589840158407530E-014
  2.796322746695411E-014
  2.994740244100806E-014
  3.213570287125132E-014
  3.434909327051583E-014
  3.584516202716631E-014
  3.711171611903524E-014
  3.873319300670368E-014
  3.990063785116335E-014
  4.087974929563780E-014
  4.144908462933054E-014
  4.182713477057454E-014
  4.217088769776294E-014
  4.228919770080791E-014
  0.000000000000000E+000
  2.015772201970184E-015
  4.064428150416055E-015
  6.214770300867741E-015
  8.380571524631552E-015
  1.066979523788470E-014
  1.297630632491852E-014
  1.528158263916854E-014
  1.765812691806571E-014
  1.994135605518175E-014
  2.210526430698750E-014
  2.414129387249823E-014
  2.604447608705661E-014
  2.801270948924676E-014
  2.990436537441032E-014
  3.168324327104071E-014
  3.326619100268852E-014
  3.470589232579806E-014
  3.626537124428614E-014
  3.723528469598660E-014
  3.817178199109997E-014
  3.883828680906961E-014
  3.933280405268689E-014
  3.967843930539940E-014
  3.980078422504323E-014
  0.000000000000000E+000
  1.870518961835097E-015
  3.732309255388050E-015
  5.707808361726837E-015
  7.791062473705351E-015
  9.741096348765847E-015
  1.176229039833585E-014
  1.378983162354137E-014
  1.639029373468456E-014
  1.861731151402024E-014
  2.067653348446536E-014
  2.242274756876383E-014
  2.443033177519806E-014
  2.614555022963607E-014
  2.774603527611357E-014
  2.909480191840151E-014
  3.081630513589341E-014
  3.217593951303469E-014
  3.346583056587893E-014
  3.480976766674262E-014
  3.580085287134563E-014
  3.643942345425932E-014
  3.696884711502489E-014
  3.729995760034679E-014
  3.731337706005440E-014
  0.000000000000000E+000
  1.653843441933865E-015
  3.449539596809798E-015
  5.332546769798728E-015
  7.236835780959895E-015
  9.038533573269343E-015
  1.087395038547581E-014
  1.292548740205970E-014
  1.518133757414233E-014
  1.731199052785299E-014
  1.911265783040483E-014
  2.097279744219732E-014
  2.270305957885678E-014
  2.439551658008269E-014
  2.589226035531483E-014
  2.736695057945571E-014
  2.869817092759042E-014
  2.992715737213635E-014
  3.130408446601762E-014
  3.285699459715139E-014
  3.376267936450074E-014
  3.419207606571481E-014
  3.467315635770453E-014
  3.484577780661658E-014
  3.488407128675901E-014
  0.000000000000000E+000
  1.443345102341694E-015
  3.126238199432704E-015
  4.880437636300694E-015
  6.675506941193978E-015
  8.390530223607078E-015
  1.021257039942102E-014
  1.214605118081472E-014
  1.388074417975021E-014
  1.589362218590148E-014
  1.761073868494557E-014
  1.927877999754610E-014
  2.097779133507813E-014
  2.259385729535480E-014
  2.411288234824363E-014
  2.569655363883696E-014
  2.670380301134057E-014
  2.793686570696992E-014
  2.922878925496240E-014
  3.050712121484778E-014
  3.139407399844999E-014
  3.187407802322969E-014
  3.232079877521461E-014
  3.254005204707517E-014
  3.263487642340857E-014
  0.000000000000000E+000
  1.358090518989852E-015
  2.860830774219143E-015
  4.413786266554267E-015
  6.049247294242996E-015
  7.705878268012899E-015
  9.391057048265818E-015
  1.112549844523540E-014
  1.274773274126225E-014
  1.424288557678965E-014
  1.591926472173701E-014
  1.772452080610487E-014
  1.944697423770840E-014
  2.081952294625208E-014
  2.237056382893170E-014
  2.382908448325095E-014
  2.510460248656051E-014
  2.627915468786364E-014
  2.739201543535121E-014
  2.850528865181176E-014
  2.934085933587018E-014
  2.984190275894444E-014
  3.018263718781109E-014
  3.046414836229112E-014
  3.053518436379049E-014
  0.000000000000000E+000
  1.236052401160575E-015
  2.738636610205528E-015
  4.052192961153273E-015
  5.394828507097083E-015
  6.959761565623216E-015
  8.405884247850930E-015
  9.930254023224431E-015
  1.140656657175023E-014
  1.295212868853968E-014
  1.487547984252180E-014
  1.665131403075918E-014
  1.799080292411727E-014
  1.948317621898471E-014
  2.088893398687324E-014
  2.233107106059791E-014
  2.398428097754028E-014
  2.495870762731169E-014
  2.593378506064863E-014
  2.690579904711931E-014
  2.751223668056566E-014
  2.796608138659689E-014
  2.829916000375230E-014
  2.851227940063377E-014
  2.857021315642571E-014
  0.000000000000000E+000
  1.199301730482321E-015
  2.501758513590193E-015
  3.566462605756778E-015
  4.718331301229385E-015
  6.098220461695808E-015
  7.491601800907629E-015
  8.911458308265032E-015
  1.045935310737960E-014
  1.225404699961686E-014
  1.398488098465952E-014
  1.570524734337812E-014
  1.707234665708046E-014
  1.834011449890443E-014
  1.975894388931280E-014
  2.107454831996891E-014
  2.245522033506934E-014
  2.367660853330051E-014
  2.446221973731411E-014
  2.533530048516744E-014
  2.579723590483030E-014
  2.624306936893510E-014
  2.656546078975154E-014
  2.668407781770847E-014
  2.670987106712728E-014
  0.000000000000000E+000
  1.123766139543046E-015
  2.231538916644766E-015
  3.276275269764503E-015
  4.303398547755527E-015
  5.469439477730316E-015
  6.869262265474365E-015
  8.253330041668402E-015
  9.825021879421889E-015
  1.134869173271168E-014
  1.277280631795312E-014
  1.435644843815929E-014
  1.579116914632145E-014
  1.717209661532213E-014
  1.855186200062056E-014
  1.969781108621236E-014
  2.088588401901736E-014
  2.202107817873995E-014
  2.291724698034639E-014
  2.366796731926006E-014
  2.426285884645939E-014
  2.458406981664074E-014
  2.475648508878328E-014
  2.488860516978932E-014
  2.494339491808214E-014
  0.000000000000000E+000
  9.454485061675010E-016
  1.988022619060454E-015
  3.026391561061635E-015
  3.999180117607676E-015
  4.990997374424840E-015
  6.127226439850683E-015
  7.521613728932908E-015
  8.857385947676395E-015
  1.026064883021460E-014
  1.173566043095827E-014
  1.319070099955053E-014
  1.449839728939114E-014
  1.585701001091446E-014
  1.715340702813611E-014
  1.834231372288191E-014
  1.938153057638898E-014
  2.042641906252759E-014
  2.135328662154224E-014
  2.207611486683392E-014
  2.269186892641116E-014
  2.297714597792463E-014
  2.309766431798933E-014
  2.320729176613331E-014
  2.327486151680994E-014
  0.000000000000000E+000
  8.091561641363531E-016
  1.623142455764248E-015
  2.410063941458606E-015
  3.356019889979505E-015
  4.429206533952722E-015
  5.503100395030851E-015
  6.783006549772040E-015
  8.110440639639062E-015
  9.288042627381668E-015
  1.068438231944016E-014
  1.219666155635228E-014
  1.347712730666489E-014
  1.478755989114386E-014
  1.598537628867976E-014
  1.708150180102002E-014
  1.815611080920059E-014
  1.914712649761616E-014
  1.989157279116784E-014
  2.065823572963024E-014
  2.115312957793260E-014
  2.143029157673770E-014
  2.157221800245893E-014
  2.167624438963104E-014
  2.172896516403818E-014
  0.000000000000000E+000
  6.733513451974068E-016
  1.396815541300007E-015
  2.160358222558757E-015
  2.834539968857233E-015
  3.696135114780833E-015
  4.905513479822851E-015
  6.070319407623150E-015
  7.270678600917295E-015
  8.620240813916172E-015
  9.762517249475271E-015
  1.112417623266528E-014
  1.255014917082668E-014
  1.376357164479390E-014
  1.490757588673114E-014
  1.596769851184575E-014
  1.700740332710757E-014
  1.788235227867655E-014
  1.860494890154141E-014
  1.921733463395310E-014
  1.973350822201711E-014
  2.004276794759773E-014
  2.019852589596537E-014
  2.027895750549771E-014
  2.030911830290227E-014
  0.000000000000000E+000
  6.096839595494536E-016
  1.272107292549619E-015
  1.917252297060547E-015
  2.642825451137048E-015
  3.470700108333948E-015
  4.514099678472853E-015
  5.603754956689793E-015
  6.718267020665660E-015
  7.959998792508472E-015
  9.052151174365213E-015
  1.030339542684458E-014
  1.159131589795634E-014
  1.277841765862141E-014
  1.391670443941956E-014
  1.503555387733849E-014
  1.596725879298484E-014
  1.678741327884532E-014
  1.743237007647038E-014
  1.799252773954451E-014
  1.842460921838008E-014
  1.871425168278183E-014
  1.886609154627308E-014
  1.897991649150417E-014
  1.901359124989199E-014
  0.000000000000000E+000
  5.338737626508919E-016
  1.163614331066856E-015
  1.791849223279822E-015
  2.421823494140102E-015
  3.244863698750494E-015
  4.101572269966094E-015
  5.283547357693484E-015
  6.493639925116278E-015
  7.431743733438991E-015
  8.360058719297364E-015
  9.469981540511071E-015
  1.067342123737169E-014
  1.175829088656858E-014
  1.284643473400049E-014
  1.400885276878529E-014
  1.491876005489389E-014
  1.570060809223645E-014
  1.629751620540924E-014
  1.679260151544370E-014
  1.716122631809970E-014
  1.746075886248559E-014
  1.763209289058845E-014
  1.776528040701209E-014
  1.781717945412598E-014
  0.000000000000000E+000
  5.033975830589974E-016
  1.070147538079695E-015
  1.684844865059801E-015
  2.219073839278946E-015
  2.923604821955898E-015
  3.712481678337210E-015
  4.690072849886577E-015
  5.925842421047545E-015
  6.847977708445834E-015
  7.704339837028389E-015
  8.802182215138444E-015
  9.860729544791645E-015
  1.087451558211048E-014
  1.183941844189222E-014
  1.284702380100226E-014
  1.369864487542665E-014
  1.446645203369553E-014
  1.520401869860507E-014
  1.564416095609225E-014
  1.601725950546022E-014
  1.635458618160688E-014
  1.654939679235480E-014
  1.668540402070747E-014
  1.674160769461929E-014
  0.000000000000000E+000
  4.552562891913252E-016
  1.063721930583381E-015
  1.634022768866400E-015
  2.184453376295389E-015
  2.751709545175822E-015
  3.475410352395663E-015
  4.400790477544200E-015
  5.293370477790503E-015
  6.224802803082117E-015
  7.167463093360399E-015
  8.187121995465549E-015
  9.156044973331485E-015
  1.013651756473083E-014
  1.102024611728174E-014
  1.185194821754209E-014
  1.274291564502574E-014
  1.350381430505127E-014
  1.412146782758005E-014
  1.462551602371452E-014
  1.502092327139389E-014
  1.535554599925861E-014
  1.557216443146161E-014
  1.572598655736954E-014
  1.577806284054673E-014
  0.000000000000000E+000
  5.535314362475342E-016
  1.087937196128256E-015
  1.539762954077078E-015
  2.054974980266477E-015
  2.654891356569125E-015
  3.335810266712156E-015
  4.113458872237993E-015
  5.027620033469531E-015
  5.860987484868463E-015
  6.677606410187784E-015
  7.553784745923595E-015
  8.535424197444767E-015
  9.514557848687102E-015
  1.033836962997977E-014
  1.111355500158105E-014
  1.195782051301878E-014
  1.268042881169097E-014
  1.323194536876896E-014
  1.374186224565895E-014
  1.417412593061876E-014
  1.449368086371178E-014
  1.473333314499344E-014
  1.487182690780757E-014
  1.491498462227424E-014
  0.000000000000000E+000
  4.724363157686018E-016
  9.917928448702471E-016
  1.493505503531624E-015
  1.891223055344934E-015
  2.449924021305731E-015
  3.117786287628773E-015
  3.872802243144931E-015
  4.817495437910348E-015
  5.631456393154686E-015
  6.409512578250836E-015
  7.173227600535429E-015
  8.114611049432712E-015
  9.058541177753615E-015
  9.819128311456850E-015
  1.055307968047762E-014
  1.130391897063974E-014
  1.196747980764061E-014
  1.251466078373782E-014
  1.300170115911293E-014
  1.341922554032836E-014
  1.376774162869264E-014
  1.399151466075782E-014
  1.411976535953902E-014
  1.416632723824808E-014
  0.000000000000000E+000
  4.576992406504372E-016
  8.690477862519738E-016
  1.336933104508653E-015
  1.744520079345721E-015
  2.319001773449520E-015
  3.041201048686589E-015
  3.763651913629577E-015
  4.560952805048063E-015
  5.377944076839060E-015
  6.142937453714160E-015
  6.967418449400234E-015
  7.864548546795932E-015
  8.728830447769949E-015
  9.477520695922819E-015
  1.005866739696458E-014
  1.076990623813478E-014
  1.143158316675621E-014
  1.196969194217931E-014
  1.243892874568978E-014
  1.281997294914559E-014
  1.316004948223973E-014
  1.336458723225475E-014
  1.349076630928341E-014
  1.353367953810746E-014
  0.000000000000000E+000
  3.335637067545419E-016
  7.829304127265215E-016
  1.262074648704654E-015
  1.562536516434498E-015
  2.106640849911337E-015
  2.935173567253769E-015
  3.690736055883559E-015
  4.401609072914957E-015
  5.140535904575130E-015
  5.918770816408208E-015
  6.728025480304400E-015
  7.658253155312255E-015
  8.489502255491404E-015
  9.197093313399854E-015
  9.822233142920290E-015
  1.039214545234149E-014
  1.104322146798444E-014
  1.157328574779309E-014
  1.200113064669678E-014
  1.236679150488493E-014
  1.264917647762800E-014
  1.286386325257086E-014
  1.298214048713318E-014
  1.302041076480917E-014
  0.000000000000000E+000
  1.590897838627398E-016
  5.655058536287544E-016
  1.155082895867383E-015
  1.533789433284093E-015
  2.042132059531807E-015
  2.767693011629256E-015
  3.541534502277195E-015
  4.329440728714586E-015
  5.078140476215027E-015
  5.810131025657144E-015
  6.638190284073496E-015
  7.494978583985585E-015
  8.246618664784264E-015
  8.984310792668694E-015
  9.642909421075196E-015
  1.020401284890267E-014
  1.077463556623846E-014
  1.125156553910896E-014
  1.166772954872759E-014
  1.200710414491944E-014
  1.228817132627760E-014
  1.247600282523147E-014
  1.259434652913621E-014
  1.262933977347383E-014
  0.000000000000000E+000
  6.701565657051175E-017
  4.143147536822787E-016
  1.029456413309752E-015
  1.665637962240239E-015
  2.163436589370462E-015
  2.681995415400634E-015
  3.424655043078846E-015
  4.263892998276768E-015
  4.991000958347167E-015
  5.715722497322932E-015
  6.497052297083950E-015
  7.326979668807181E-015
  8.106346863592937E-015
  8.843158941379752E-015
  9.491340867007225E-015
  1.006081803059874E-014
  1.055279277496669E-014
  1.101841400771172E-014
  1.142068909268293E-014
  1.175263281979497E-014
  1.201965627100734E-014
  1.220543791227685E-014
  1.231690708218148E-014
  1.235240532947537E-014
  0.000000000000000E+000
  1.377601275356188E-016
  4.933746239624458E-016
  1.048937366318175E-015
  1.663948741132751E-015
  2.221667900682275E-015
  2.736140682257233E-015
  3.387281202065612E-015
  4.203614456431643E-015
  4.942220636600260E-015
  5.739531309952941E-015
  6.498010926660673E-015
  7.216012635328396E-015
  7.980865124420754E-015
  8.781722357062799E-015
  9.431824948418978E-015
  9.955269149103394E-015
  1.042070005145586E-014
  1.087444189696823E-014
  1.128056585376200E-014
  1.160641451627905E-014
  1.185690212806713E-014
  1.203650405736541E-014
  1.214814265271981E-014
  1.218547522779417E-014
  0.000000000000000E+000
  1.065486742648864E-016
  5.559255332272334E-016
  1.103292392755842E-015
  1.653106941161598E-015
  2.201449619653636E-015
  2.717820090248205E-015
  3.372081548027447E-015
  4.192842340758119E-015
  5.013399831432772E-015
  5.766971668732217E-015
  6.450083192751627E-015
  7.169136627514066E-015
  7.944881117028120E-015
  8.735701023248154E-015
  9.401562056902114E-015
  9.936806356591146E-015
  1.038578284217782E-014
  1.083910605531037E-014
  1.123239190166079E-014
  1.155174591722567E-014
  1.181099780212931E-014
  1.198422366617782E-014
  1.209501921972807E-014
  1.213083847794207E-014
VECTORS u double 
    0.00000E+00        -0.44284E+00         0.00000E+00
    0.00000E+00        -0.41111E+00         0.00000E+00
    0.00000E+00        -0.37476E+00         0.00000E+00
    0.00000E+00        -0.33829E+00         0.00000E+00
    0.00000E+00        -0.30468E+00         0.00000E+00
    0.00000E+00        -0.27453E+00         0.00000E+00
    0.00000E+00        -0.24761E+00         0.00000E+00
    0.00000E+00        -0.22347E+00         0.00000E+00
    0.00000E+00        -0.20167E+00         0.00000E+00
    0.00000E+00        -0.18182E+00         0.00000E+00
    0.00000E+00        -0.16360E+00         0.00000E+00
    0.00000E+00        -0.14678E+00         0.00000E+00
    0.00000E+00        -0.13114E+00         0.00000E+00
    0.00000E+00        -0.11653E+00         0.00000E+00
    0.00000E+00        -0.10280E+00         0.00000E+00
    0.00000E+00        -0.89854E-01         0.00000E+00
    0.00000E+00        -0.77604E-01         0.00000E+00
    0.00000E+00        -0.65984E-01         0.00000E+00
    0.00000E+00        -0.54944E-01         0.00000E+00
    0.00000E+00        -0.44448E-01         0.00000E+00
    0.00000E+00        -0.34478E-01         0.00000E+00
    0.00000E+00        -0.25027E-01         0.00000E+00
    0.00000E+00        -0.16108E-01         0.00000E+00
    0.00000E+00        -0.77481E-02         0.00000E+00
    0.00000E+00         0.00000E+00         0.00000E+00
   -0.21284E-01        -0.43286E+00         0.00000E+00
   -0.30059E-02        -0.40120E+00         0.00000E+00
    0.73113E-02        -0.36508E+00         0.00000E+00
    0.11124E-01        -0.33026E+00         0.00000E+00
    0.12053E-01        -0.29840E+00         0.00000E+00
    0.11842E-01        -0.26967E+00         0.00000E+00
    0.11208E-01        -0.24383E+00         0.00000E+00
    0.10446E-01        -0.22050E+00         0.00000E+00
    0.96761E-02        -0.19930E+00         0.00000E+00
    0.89440E-02        -0.17990E+00         0.00000E+00
    0.82633E-02        -0.16205E+00         0.00000E+00
    0.76338E-02        -0.14551E+00         0.00000E+00
    0.70499E-02        -0.13010E+00         0.00000E+00
    0.65036E-02        -0.11566E+00         0.00000E+00
    0.59857E-02        -0.10209E+00         0.00000E+00
    0.54872E-02        -0.89266E-01         0.00000E+00
    0.49985E-02        -0.77123E-01         0.00000E+00
    0.45097E-02        -0.65596E-01         0.00000E+00
    0.40103E-02        -0.54636E-01         0.00000E+00
    0.34887E-02        -0.44210E-01         0.00000E+00
    0.29320E-02        -0.34302E-01         0.00000E+00
    0.23249E-02        -0.24905E-01         0.00000E+00
    0.16493E-02        -0.16033E-01         0.00000E+00
    0.88341E-03        -0.77142E-02         0.00000E+00
    0.00000E+00         0.00000E+00         0.00000E+00
   -0.41304E-01        -0.40152E+00         0.00000E+00
   -0.30221E-02        -0.36799E+00         0.00000E+00
    0.13731E-01        -0.33617E+00         0.00000E+00
    0.20227E-01        -0.30727E+00         0.00000E+00
    0.22177E-01        -0.28055E+00         0.00000E+00
    0.22109E-01        -0.25583E+00         0.00000E+00
    0.21190E-01        -0.23299E+00         0.00000E+00
    0.19949E-01        -0.21191E+00         0.00000E+00
    0.18624E-01        -0.19242E+00         0.00000E+00
    0.17319E-01        -0.17434E+00         0.00000E+00
    0.16077E-01        -0.15751E+00         0.00000E+00
    0.14908E-01        -0.14178E+00         0.00000E+00
    0.13808E-01        -0.12702E+00         0.00000E+00
    0.12768E-01        -0.11312E+00         0.00000E+00
    0.11773E-01        -0.99981E-01         0.00000E+00
    0.10809E-01        -0.87532E-01         0.00000E+00
    0.98576E-02        -0.75705E-01         0.00000E+00
    0.89018E-02        -0.64448E-01         0.00000E+00
    0.79216E-02        -0.53724E-01         0.00000E+00
    0.68949E-02        -0.43505E-01         0.00000E+00
    0.57966E-02        -0.33778E-01         0.00000E+00
    0.45972E-02        -0.24543E-01         0.00000E+00
    0.32615E-02        -0.15811E-01         0.00000E+00
    0.17468E-02        -0.76136E-02         0.00000E+00
    0.00000E+00         0.00000E+00         0.00000E+00
   -0.54951E-01        -0.32517E+00         0.00000E+00
   -0.39592E-02        -0.30932E+00         0.00000E+00
    0.16257E-01        -0.29181E+00         0.00000E+00
    0.25318E-01        -0.27318E+00         0.00000E+00
    0.28839E-01        -0.25406E+00         0.00000E+00
    0.29600E-01        -0.23504E+00         0.00000E+00
    0.28999E-01        -0.21650E+00         0.00000E+00
    0.27757E-01        -0.19870E+00         0.00000E+00
    0.26244E-01        -0.18172E+00         0.00000E+00
    0.24646E-01        -0.16561E+00         0.00000E+00
    0.23053E-01        -0.15033E+00         0.00000E+00
    0.21505E-01        -0.13585E+00         0.00000E+00
    0.20014E-01        -0.12210E+00         0.00000E+00
    0.18576E-01        -0.10903E+00         0.00000E+00
    0.17181E-01        -0.96595E-01         0.00000E+00
    0.15811E-01        -0.84735E-01         0.00000E+00
    0.14447E-01        -0.73411E-01         0.00000E+00
    0.13066E-01        -0.62590E-01         0.00000E+00
    0.11641E-01        -0.52245E-01         0.00000E+00
    0.10140E-01        -0.42360E-01         0.00000E+00
    0.85299E-02        -0.32928E-01         0.00000E+00
    0.67671E-02        -0.23953E-01         0.00000E+00
    0.48014E-02        -0.15450E-01         0.00000E+00
    0.25711E-02        -0.74496E-02         0.00000E+00
    0.00000E+00         0.00000E+00         0.00000E+00
   -0.58338E-01        -0.24437E+00         0.00000E+00
   -0.11222E-01        -0.24615E+00         0.00000E+00
    0.13215E-01        -0.24287E+00         0.00000E+00
    0.25557E-01        -0.23451E+00         0.00000E+00
    0.31467E-01        -0.22317E+00         0.00000E+00
    0.33803E-01        -0.21016E+00         0.00000E+00
    0.34163E-01        -0.19633E+00         0.00000E+00
    0.33447E-01        -0.18222E+00         0.00000E+00
    0.32164E-01        -0.16818E+00         0.00000E+00
    0.30600E-01        -0.15442E+00         0.00000E+00
    0.28913E-01        -0.14104E+00         0.00000E+00
    0.27187E-01        -0.12810E+00         0.00000E+00
    0.25462E-01        -0.11563E+00         0.00000E+00
    0.23752E-01        -0.10363E+00         0.00000E+00
    0.22057E-01        -0.92096E-01         0.00000E+00
    0.20365E-01        -0.81004E-01         0.00000E+00
    0.18656E-01        -0.70342E-01         0.00000E+00
    0.16906E-01        -0.60096E-01         0.00000E+00
    0.15085E-01        -0.50256E-01         0.00000E+00
    0.13156E-01        -0.40817E-01         0.00000E+00
    0.11075E-01        -0.31780E-01         0.00000E+00
    0.87895E-02        -0.23155E-01         0.00000E+00
    0.62370E-02        -0.14961E-01         0.00000E+00
    0.33392E-02        -0.72273E-02         0.00000E+00
    0.00000E+00         0.00000E+00         0.00000E+00
   -0.55389E-01        -0.19936E+00         0.00000E+00
   -0.18901E-01        -0.19914E+00         0.00000E+00
    0.69198E-02        -0.19992E+00         0.00000E+00
    0.22187E-01        -0.19758E+00         0.00000E+00
    0.30676E-01        -0.19202E+00         0.00000E+00
    0.34982E-01        -0.18406E+00         0.00000E+00
    0.36739E-01        -0.17451E+00         0.00000E+00
    0.36960E-01        -0.16397E+00         0.00000E+00
    0.36267E-01        -0.15289E+00         0.00000E+00
    0.35041E-01        -0.14157E+00         0.00000E+00
    0.33510E-01        -0.13023E+00         0.00000E+00
    0.31811E-01        -0.11900E+00         0.00000E+00
    0.30019E-01        -0.10797E+00         0.00000E+00
    0.28175E-01        -0.97189E-01         0.00000E+00
    0.26292E-01        -0.86694E-01         0.00000E+00
    0.24370E-01        -0.76502E-01         0.00000E+00
    0.22395E-01        -0.66623E-01         0.00000E+00
    0.20344E-01        -0.57065E-01         0.00000E+00
    0.18187E-01        -0.47832E-01         0.00000E+00
    0.15883E-01        -0.38932E-01         0.00000E+00
    0.13382E-01        -0.30375E-01         0.00000E+00
    0.10627E-01        -0.22177E-01         0.00000E+00
    0.75414E-02        -0.14359E-01         0.00000E+00
    0.40366E-02        -0.69534E-02         0.00000E+00
    0.00000E+00         0.00000E+00         0.00000E+00
   -0.51224E-01        -0.16553E+00         0.00000E+00
   -0.22397E-01        -0.16504E+00         0.00000E+00
    0.10354E-02        -0.16576E+00         0.00000E+00
    0.17423E-01        -0.16562E+00         0.00000E+00
    0.27812E-01        -0.16335E+00         0.00000E+00
    0.33938E-01        -0.15893E+00         0.00000E+00
    0.37186E-01        -0.15275E+00         0.00000E+00
    0.38540E-01        -0.14525E+00         0.00000E+00
    0.38664E-01        -0.13685E+00         0.00000E+00
    0.37997E-01        -0.12786E+00         0.00000E+00
    0.36825E-01        -0.11853E+00         0.00000E+00
    0.35331E-01        -0.10902E+00         0.00000E+00
    0.33626E-01        -0.99482E-01         0.00000E+00
    0.31777E-01        -0.89993E-01         0.00000E+00
    0.29819E-01        -0.80620E-01         0.00000E+00
    0.27762E-01        -0.71411E-01         0.00000E+00
    0.25604E-01        -0.62398E-01         0.00000E+00
    0.23325E-01        -0.53606E-01         0.00000E+00
    0.20896E-01        -0.45056E-01         0.00000E+00
    0.18277E-01        -0.36767E-01         0.00000E+00
    0.15416E-01        -0.28757E-01         0.00000E+00
    0.12249E-01        -0.21048E-01         0.00000E+00
    0.86936E-02        -0.13664E-01         0.00000E+00
    0.46518E-02        -0.66358E-02         0.00000E+00
    0.00000E+00         0.00000E+00         0.00000E+00
   -0.47086E-01        -0.13903E+00         0.00000E+00
   -0.23567E-01        -0.13820E+00         0.00000E+00
   -0.30188E-02        -0.13861E+00         0.00000E+00
    0.12905E-01        -0.13898E+00         0.00000E+00
    0.24179E-01        -0.13826E+00         0.00000E+00
    0.31604E-01        -0.13599E+00         0.00000E+00
    0.36140E-01        -0.13219E+00         0.00000E+00
    0.38604E-01        -0.12708E+00         0.00000E+00
    0.39616E-01        -0.12092E+00         0.00000E+00
    0.39625E-01        -0.11398E+00         0.00000E+00
    0.38944E-01        -0.10648E+00         0.00000E+00
    0.37784E-01        -0.98624E-01         0.00000E+00
    0.36289E-01        -0.90538E-01         0.00000E+00
    0.34548E-01        -0.82338E-01         0.00000E+00
    0.32613E-01        -0.74111E-01         0.00000E+00
    0.30512E-01        -0.65919E-01         0.00000E+00
    0.28249E-01        -0.57815E-01         0.00000E+00
    0.25814E-01        -0.49838E-01         0.00000E+00
    0.23181E-01        -0.42021E-01         0.00000E+00
    0.20310E-01        -0.34391E-01         0.00000E+00
    0.17151E-01        -0.26977E-01         0.00000E+00
    0.13635E-01        -0.19802E-01         0.00000E+00
    0.96786E-02        -0.12894E-01         0.00000E+00
    0.51768E-02        -0.62831E-02         0.00000E+00
    0.00000E+00         0.00000E+00         0.00000E+00
   -0.43048E-01        -0.11735E+00         0.00000E+00
   -0.23429E-01        -0.11636E+00         0.00000E+00
   -0.55475E-02        -0.11644E+00         0.00000E+00
    0.92659E-02        -0.11683E+00         0.00000E+00
    0.20608E-01        -0.11675E+00         0.00000E+00
    0.28739E-01        -0.11569E+00         0.00000E+00
    0.34208E-01        -0.11345E+00         0.00000E+00
    0.37608E-01        -0.11007E+00         0.00000E+00
    0.39453E-01        -0.10567E+00         0.00000E+00
    0.40154E-01        -0.10044E+00         0.00000E+00
    0.40019E-01        -0.94560E-01         0.00000E+00
    0.39271E-01        -0.88186E-01         0.00000E+00
    0.38069E-01        -0.81459E-01         0.00000E+00
    0.36519E-01        -0.74494E-01         0.00000E+00
    0.34690E-01        -0.67385E-01         0.00000E+00
    0.32620E-01        -0.60206E-01         0.00000E+00
    0.30325E-01        -0.53019E-01         0.00000E+00
    0.27800E-01        -0.45875E-01         0.00000E+00
    0.25027E-01        -0.38814E-01         0.00000E+00
    0.21967E-01        -0.31873E-01         0.00000E+00
    0.18572E-01        -0.25083E-01         0.00000E+00
    0.14774E-01        -0.18473E-01         0.00000E+00
    0.10488E-01        -0.12071E-01         0.00000E+00
    0.56072E-02        -0.59043E-02         0.00000E+00
    0.00000E+00         0.00000E+00         0.00000E+00
   -0.39149E-01        -0.99243E-01         0.00000E+00
   -0.22533E-01        -0.98163E-01         0.00000E+00
   -0.69596E-02        -0.98003E-01         0.00000E+00
    0.65394E-02        -0.98273E-01         0.00000E+00
    0.17476E-01        -0.98416E-01         0.00000E+00
    0.25828E-01        -0.97987E-01         0.00000E+00
    0.31861E-01        -0.96730E-01         0.00000E+00
    0.35955E-01        -0.94553E-01         0.00000E+00
    0.38498E-01        -0.91488E-01         0.00000E+00
    0.39833E-01        -0.87629E-01         0.00000E+00
    0.40237E-01        -0.83097E-01         0.00000E+00
    0.39926E-01        -0.78019E-01         0.00000E+00
    0.39061E-01        -0.72515E-01         0.00000E+00
    0.37757E-01        -0.66690E-01         0.00000E+00
    0.36092E-01        -0.60637E-01         0.00000E+00
    0.34114E-01        -0.54433E-01         0.00000E+00
    0.31846E-01        -0.48144E-01         0.00000E+00
    0.29292E-01        -0.41825E-01         0.00000E+00
    0.26436E-01        -0.35523E-01         0.00000E+00
    0.23248E-01        -0.29277E-01         0.00000E+00
    0.19679E-01        -0.23124E-01         0.00000E+00
    0.15664E-01        -0.17093E-01         0.00000E+00
    0.11120E-01        -0.11213E-01         0.00000E+00
    0.59420E-02        -0.55082E-02         0.00000E+00
    0.00000E+00         0.00000E+00         0.00000E+00
   -0.35403E-01        -0.83900E-01         0.00000E+00
   -0.21184E-01        -0.82784E-01         0.00000E+00
   -0.75853E-02        -0.82452E-01         0.00000E+00
    0.45937E-02        -0.82580E-01         0.00000E+00
    0.14881E-01        -0.82771E-01         0.00000E+00
    0.23124E-01        -0.82663E-01         0.00000E+00
    0.29410E-01        -0.82000E-01         0.00000E+00
    0.33956E-01        -0.80643E-01         0.00000E+00
    0.37029E-01        -0.78553E-01         0.00000E+00
    0.38894E-01        -0.75757E-01         0.00000E+00
    0.39786E-01        -0.72326E-01         0.00000E+00
    0.39896E-01        -0.68346E-01         0.00000E+00
    0.39379E-01        -0.63912E-01         0.00000E+00
    0.38347E-01        -0.59112E-01         0.00000E+00
    0.36882E-01        -0.54031E-01         0.00000E+00
    0.35039E-01        -0.48740E-01         0.00000E+00
    0.32845E-01        -0.43306E-01         0.00000E+00
    0.30311E-01        -0.37784E-01         0.00000E+00
    0.27426E-01        -0.32223E-01         0.00000E+00
    0.24163E-01        -0.26664E-01         0.00000E+00
    0.20478E-01        -0.21144E-01         0.00000E+00
    0.16309E-01        -0.15694E-01         0.00000E+00
    0.11578E-01        -0.10340E-01         0.00000E+00
    0.61829E-02        -0.51031E-02         0.00000E+00
    0.00000E+00         0.00000E+00         0.00000E+00
   -0.31820E-01        -0.70783E-01         0.00000E+00
   -0.19569E-01        -0.69662E-01         0.00000E+00
   -0.76614E-02        -0.69215E-01         0.00000E+00
    0.32703E-02        -0.69218E-01         0.00000E+00
    0.12802E-01        -0.69383E-01         0.00000E+00
    0.20732E-01        -0.69428E-01         0.00000E+00
    0.27038E-01        -0.69121E-01         0.00000E+00
    0.31824E-01        -0.68312E-01         0.00000E+00
    0.35260E-01        -0.66923E-01         0.00000E+00
    0.37537E-01        -0.64939E-01         0.00000E+00
    0.38838E-01        -0.62386E-01         0.00000E+00
    0.39328E-01        -0.59316E-01         0.00000E+00
    0.39141E-01        -0.55797E-01         0.00000E+00
    0.38384E-01        -0.51899E-01         0.00000E+00
    0.37137E-01        -0.47691E-01         0.00000E+00
    0.35455E-01        -0.43239E-01         0.00000E+00
    0.33369E-01        -0.38601E-01         0.00000E+00
    0.30894E-01        -0.33833E-01         0.00000E+00
    0.28022E-01        -0.28981E-01         0.00000E+00
    0.24732E-01        -0.24085E-01         0.00000E+00
    0.20984E-01        -0.19183E-01         0.00000E+00
    0.16722E-01        -0.14302E-01         0.00000E+00
    0.11870E-01        -0.94673E-02         0.00000E+00
    0.63346E-02        -0.46966E-02         0.00000E+00
    0.00000E+00         0.00000E+00         0.00000E+00
   -0.28408E-01        -0.59503E-01         0.00000E+00
   -0.17804E-01        -0.58400E-01         0.00000E+00
   -0.73563E-02        -0.57878E-01         0.00000E+00
    0.24275E-02        -0.57781E-01         0.00000E+00
    0.11176E-01        -0.57898E-01         0.00000E+00
    0.18672E-01        -0.58006E-01         0.00000E+00
    0.24837E-01        -0.57910E-01         0.00000E+00
    0.29697E-01        -0.57465E-01         0.00000E+00
    0.33348E-01        -0.56576E-01         0.00000E+00
    0.35917E-01        -0.55203E-01         0.00000E+00
    0.37541E-01        -0.53342E-01         0.00000E+00
    0.38351E-01        -0.51016E-01         0.00000E+00
    0.38460E-01        -0.48267E-01         0.00000E+00
    0.37964E-01        -0.45147E-01         0.00000E+00
    0.36935E-01        -0.41711E-01         0.00000E+00
    0.35427E-01        -0.38013E-01         0.00000E+00
    0.33471E-01        -0.34106E-01         0.00000E+00
    0.31083E-01        -0.30037E-01         0.00000E+00
    0.28261E-01        -0.25851E-01         0.00000E+00
    0.24985E-01        -0.21585E-01         0.00000E+00
    0.21221E-01        -0.17272E-01         0.00000E+00
    0.16918E-01        -0.12941E-01         0.00000E+00
    0.12008E-01        -0.86105E-02         0.00000E+00
    0.64034E-02        -0.42953E-02         0.00000E+00
    0.00000E+00         0.00000E+00         0.00000E+00
   -0.25176E-01        -0.49768E-01         0.00000E+00
   -0.15971E-01        -0.48697E-01         0.00000E+00
   -0.67908E-02        -0.48132E-01         0.00000E+00
    0.19494E-02        -0.47961E-01         0.00000E+00
    0.99269E-02        -0.48026E-01         0.00000E+00
    0.16928E-01        -0.48153E-01         0.00000E+00
    0.22845E-01        -0.48180E-01         0.00000E+00
    0.27654E-01        -0.47975E-01         0.00000E+00
    0.31397E-01        -0.47444E-01         0.00000E+00
    0.34151E-01        -0.46528E-01         0.00000E+00
    0.36012E-01        -0.45206E-01         0.00000E+00
    0.37078E-01        -0.43481E-01         0.00000E+00
    0.37440E-01        -0.41373E-01         0.00000E+00
    0.37178E-01        -0.38917E-01         0.00000E+00
    0.36356E-01        -0.36153E-01         0.00000E+00
    0.35022E-01        -0.33124E-01         0.00000E+00
    0.33207E-01        -0.29875E-01         0.00000E+00
    0.30927E-01        -0.26445E-01         0.00000E+00
    0.28181E-01        -0.22875E-01         0.00000E+00
    0.24954E-01        -0.19197E-01         0.00000E+00
    0.21215E-01        -0.15440E-01         0.00000E+00
    0.16919E-01        -0.11630E-01         0.00000E+00
    0.12006E-01        -0.77814E-02         0.00000E+00
    0.63972E-02        -0.39049E-02         0.00000E+00
    0.00000E+00         0.00000E+00         0.00000E+00
   -0.22127E-01        -0.41350E-01         0.00000E+00
   -0.14125E-01        -0.40321E-01         0.00000E+00
   -0.60531E-02        -0.39736E-01         0.00000E+00
    0.17434E-02        -0.39513E-01         0.00000E+00
    0.89835E-02        -0.39532E-01         0.00000E+00
    0.15465E-01        -0.39657E-01         0.00000E+00
    0.21067E-01        -0.39755E-01         0.00000E+00
    0.25737E-01        -0.39711E-01         0.00000E+00
    0.29477E-01        -0.39433E-01         0.00000E+00
    0.32325E-01        -0.38860E-01         0.00000E+00
    0.34343E-01        -0.37957E-01         0.00000E+00
    0.35600E-01        -0.36713E-01         0.00000E+00
    0.36167E-01        -0.35133E-01         0.00000E+00
    0.36107E-01        -0.33237E-01         0.00000E+00
    0.35473E-01        -0.31052E-01         0.00000E+00
    0.34307E-01        -0.28610E-01         0.00000E+00
    0.32636E-01        -0.25945E-01         0.00000E+00
    0.30475E-01        -0.23092E-01         0.00000E+00
    0.27826E-01        -0.20083E-01         0.00000E+00
    0.24674E-01        -0.16946E-01         0.00000E+00
    0.20995E-01        -0.13706E-01         0.00000E+00
    0.16748E-01        -0.10383E-01         0.00000E+00
    0.11881E-01        -0.69893E-02         0.00000E+00
    0.63251E-02        -0.35298E-02         0.00000E+00
    0.00000E+00         0.00000E+00         0.00000E+00
   -0.19266E-01        -0.34064E-01         0.00000E+00
   -0.12307E-01        -0.33085E-01         0.00000E+00
   -0.52082E-02        -0.32499E-01         0.00000E+00
    0.17369E-02        -0.32242E-01         0.00000E+00
    0.82833E-02        -0.32224E-01         0.00000E+00
    0.14244E-01        -0.32339E-01         0.00000E+00
    0.19494E-01        -0.32477E-01         0.00000E+00
    0.23963E-01        -0.32539E-01         0.00000E+00
    0.27626E-01        -0.32443E-01         0.00000E+00
    0.30494E-01        -0.32126E-01         0.00000E+00
    0.32601E-01        -0.31549E-01         0.00000E+00
    0.33991E-01        -0.30689E-01         0.00000E+00
    0.34716E-01        -0.29541E-01         0.00000E+00
    0.34822E-01        -0.28113E-01         0.00000E+00
    0.34352E-01        -0.26422E-01         0.00000E+00
    0.33341E-01        -0.24488E-01         0.00000E+00
    0.31811E-01        -0.22339E-01         0.00000E+00
    0.29776E-01        -0.19999E-01         0.00000E+00
    0.27237E-01        -0.17496E-01         0.00000E+00
    0.24182E-01        -0.14851E-01         0.00000E+00
    0.20591E-01        -0.12084E-01         0.00000E+00
    0.16428E-01        -0.92118E-02         0.00000E+00
    0.11649E-01        -0.62412E-02         0.00000E+00
    0.61963E-02        -0.31736E-02         0.00000E+00
    0.00000E+00         0.00000E+00         0.00000E+00
   -0.16594E-01        -0.27761E-01         0.00000E+00
   -0.10544E-01        -0.26838E-01         0.00000E+00
   -0.43052E-02        -0.26262E-01         0.00000E+00
    0.18725E-02        -0.25987E-01         0.00000E+00
    0.77733E-02        -0.25943E-01         0.00000E+00
    0.13226E-01        -0.26045E-01         0.00000E+00
    0.18106E-01        -0.26206E-01         0.00000E+00
    0.22333E-01        -0.26340E-01         0.00000E+00
    0.25868E-01        -0.26374E-01         0.00000E+00
    0.28698E-01        -0.26249E-01         0.00000E+00
    0.30836E-01        -0.25923E-01         0.00000E+00
    0.32308E-01        -0.25369E-01         0.00000E+00
    0.33146E-01        -0.24574E-01         0.00000E+00
    0.33384E-01        -0.23535E-01         0.00000E+00
    0.33053E-01        -0.22261E-01         0.00000E+00
    0.32181E-01        -0.20765E-01         0.00000E+00
    0.30785E-01        -0.19063E-01         0.00000E+00
    0.28877E-01        -0.17177E-01         0.00000E+00
    0.26456E-01        -0.15123E-01         0.00000E+00
    0.23514E-01        -0.12921E-01         0.00000E+00
    0.20033E-01        -0.10584E-01         0.00000E+00
    0.15985E-01        -0.81228E-02         0.00000E+00
    0.11329E-01        -0.55421E-02         0.00000E+00
    0.60201E-02        -0.28386E-02         0.00000E+00
    0.00000E+00         0.00000E+00         0.00000E+00
   -0.14112E-01        -0.22315E-01         0.00000E+00
   -0.88590E-02        -0.21452E-01         0.00000E+00
   -0.33807E-02        -0.20896E-01         0.00000E+00
    0.21054E-02        -0.20614E-01         0.00000E+00
    0.74093E-02        -0.20552E-01         0.00000E+00
    0.12374E-01        -0.20644E-01         0.00000E+00
    0.16880E-01        -0.20817E-01         0.00000E+00
    0.20844E-01        -0.21000E-01         0.00000E+00
    0.24212E-01        -0.21128E-01         0.00000E+00
    0.26960E-01        -0.21148E-01         0.00000E+00
    0.29084E-01        -0.21017E-01         0.00000E+00
    0.30593E-01        -0.20706E-01         0.00000E+00
    0.31505E-01        -0.20196E-01         0.00000E+00
    0.31842E-01        -0.19479E-01         0.00000E+00
    0.31626E-01        -0.18555E-01         0.00000E+00
    0.30875E-01        -0.17431E-01         0.00000E+00
    0.29603E-01        -0.16117E-01         0.00000E+00
    0.27819E-01        -0.14625E-01         0.00000E+00
    0.25522E-01        -0.12969E-01         0.00000E+00
    0.22705E-01        -0.11160E-01         0.00000E+00
    0.19352E-01        -0.92086E-02         0.00000E+00
    0.15440E-01        -0.71200E-02         0.00000E+00
    0.10937E-01        -0.48947E-02         0.00000E+00
    0.58056E-02        -0.25265E-02         0.00000E+00
    0.00000E+00         0.00000E+00         0.00000E+00
   -0.11819E-01        -0.17619E-01         0.00000E+00
   -0.72657E-02        -0.16817E-01         0.00000E+00
   -0.24628E-02        -0.16289E-01         0.00000E+00
    0.24004E-02        -0.16009E-01         0.00000E+00
    0.71550E-02        -0.15938E-01         0.00000E+00
    0.11658E-01        -0.16022E-01         0.00000E+00
    0.15795E-01        -0.16202E-01         0.00000E+00
    0.19482E-01        -0.16419E-01         0.00000E+00
    0.22660E-01        -0.16616E-01         0.00000E+00
    0.25295E-01        -0.16744E-01         0.00000E+00
    0.27368E-01        -0.16764E-01         0.00000E+00
    0.28878E-01        -0.16645E-01         0.00000E+00
    0.29831E-01        -0.16365E-01         0.00000E+00
    0.30238E-01        -0.15913E-01         0.00000E+00
    0.30112E-01        -0.15282E-01         0.00000E+00
    0.29465E-01        -0.14473E-01         0.00000E+00
    0.28307E-01        -0.13490E-01         0.00000E+00
    0.26642E-01        -0.12340E-01         0.00000E+00
    0.24470E-01        -0.11030E-01         0.00000E+00
    0.21784E-01        -0.95686E-02         0.00000E+00
    0.18572E-01        -0.79593E-02         0.00000E+00
    0.14815E-01        -0.62043E-02         0.00000E+00
    0.10488E-01        -0.43004E-02         0.00000E+00
    0.55613E-02        -0.22380E-02         0.00000E+00
    0.00000E+00         0.00000E+00         0.00000E+00
   -0.97112E-02        -0.13580E-01         0.00000E+00
   -0.57750E-02        -0.12841E-01         0.00000E+00
   -0.15722E-02        -0.12345E-01         0.00000E+00
    0.27299E-02        -0.12076E-01         0.00000E+00
    0.69807E-02        -0.12002E-01         0.00000E+00
    0.11050E-01        -0.12081E-01         0.00000E+00
    0.14830E-01        -0.12266E-01         0.00000E+00
    0.18238E-01        -0.12506E-01         0.00000E+00
    0.21211E-01        -0.12753E-01         0.00000E+00
    0.23708E-01        -0.12963E-01         0.00000E+00
    0.25704E-01        -0.13100E-01         0.00000E+00
    0.27187E-01        -0.13132E-01         0.00000E+00
    0.28152E-01        -0.13038E-01         0.00000E+00
    0.28604E-01        -0.12801E-01         0.00000E+00
    0.28547E-01        -0.12412E-01         0.00000E+00
    0.27987E-01        -0.11868E-01         0.00000E+00
    0.26931E-01        -0.11166E-01         0.00000E+00
    0.25380E-01        -0.10309E-01         0.00000E+00
    0.23332E-01        -0.93002E-02         0.00000E+00
    0.20782E-01        -0.81414E-02         0.00000E+00
    0.17721E-01        -0.68337E-02         0.00000E+00
    0.14132E-01        -0.53750E-02         0.00000E+00
    0.99974E-02        -0.37589E-02         0.00000E+00
    0.52950E-02        -0.19735E-02         0.00000E+00
    0.00000E+00         0.00000E+00         0.00000E+00
   -0.77863E-02        -0.10119E-01         0.00000E+00
   -0.43937E-02        -0.94424E-02         0.00000E+00
   -0.72487E-03        -0.89834E-02         0.00000E+00
    0.30722E-02        -0.87299E-02         0.00000E+00
    0.68625E-02        -0.86584E-02         0.00000E+00
    0.10527E-01        -0.87360E-02         0.00000E+00
    0.13966E-01        -0.89237E-02         0.00000E+00
    0.17097E-01        -0.91800E-02         0.00000E+00
    0.19858E-01        -0.94636E-02         0.00000E+00
    0.22204E-01        -0.97358E-02         0.00000E+00
    0.24103E-01        -0.99621E-02         0.00000E+00
    0.25535E-01        -0.10114E-01         0.00000E+00
    0.26491E-01        -0.10167E-01         0.00000E+00
    0.26966E-01        -0.10105E-01         0.00000E+00
    0.26959E-01        -0.99162E-02         0.00000E+00
    0.26472E-01        -0.95914E-02         0.00000E+00
    0.25506E-01        -0.91265E-02         0.00000E+00
    0.24062E-01        -0.85191E-02         0.00000E+00
    0.22136E-01        -0.77679E-02         0.00000E+00
    0.19724E-01        -0.68714E-02         0.00000E+00
    0.16818E-01        -0.58270E-02         0.00000E+00
    0.13407E-01        -0.46291E-02         0.00000E+00
    0.94774E-02        -0.32690E-02         0.00000E+00
    0.50137E-02        -0.17326E-02         0.00000E+00
    0.00000E+00         0.00000E+00         0.00000E+00
   -0.60394E-02        -0.71648E-02         0.00000E+00
   -0.31261E-02        -0.65507E-02         0.00000E+00
    0.67904E-04        -0.61304E-02         0.00000E+00
    0.34107E-02        -0.58967E-02         0.00000E+00
    0.67809E-02        -0.58321E-02         0.00000E+00
    0.10070E-01        -0.59108E-02         0.00000E+00
    0.13185E-01        -0.61015E-02         0.00000E+00
    0.16047E-01        -0.63695E-02         0.00000E+00
    0.18595E-01        -0.66796E-02         0.00000E+00
    0.20781E-01        -0.69976E-02         0.00000E+00
    0.22569E-01        -0.72924E-02         0.00000E+00
    0.23935E-01        -0.75368E-02         0.00000E+00
    0.24863E-01        -0.77078E-02         0.00000E+00
    0.25344E-01        -0.77870E-02         0.00000E+00
    0.25372E-01        -0.77603E-02         0.00000E+00
    0.24944E-01        -0.76172E-02         0.00000E+00
    0.24058E-01        -0.73499E-02         0.00000E+00
    0.22713E-01        -0.69526E-02         0.00000E+00
    0.20906E-01        -0.64208E-02         0.00000E+00
    0.18632E-01        -0.57494E-02         0.00000E+00
    0.15885E-01        -0.49328E-02         0.00000E+00
    0.12657E-01        -0.39630E-02         0.00000E+00
    0.89395E-02        -0.28287E-02         0.00000E+00
    0.47234E-02        -0.15146E-02         0.00000E+00
    0.00000E+00         0.00000E+00         0.00000E+00
   -0.44649E-02        -0.46558E-02         0.00000E+00
   -0.19739E-02        -0.41030E-02         0.00000E+00
    0.79790E-03        -0.37228E-02         0.00000E+00
    0.37325E-02        -0.35117E-02         0.00000E+00
    0.67206E-02        -0.34573E-02         0.00000E+00
    0.96631E-02        -0.35396E-02         0.00000E+00
    0.12473E-01        -0.37333E-02         0.00000E+00
    0.15078E-01        -0.40096E-02         0.00000E+00
    0.17415E-01        -0.43386E-02         0.00000E+00
    0.19437E-01        -0.46903E-02         0.00000E+00
    0.21105E-01        -0.50369E-02         0.00000E+00
    0.22393E-01        -0.53528E-02         0.00000E+00
    0.23281E-01        -0.56159E-02         0.00000E+00
    0.23754E-01        -0.58075E-02         0.00000E+00
    0.23803E-01        -0.59122E-02         0.00000E+00
    0.23422E-01        -0.59176E-02         0.00000E+00
    0.22608E-01        -0.58136E-02         0.00000E+00
    0.21355E-01        -0.55918E-02         0.00000E+00
    0.19662E-01        -0.52447E-02         0.00000E+00
    0.17524E-01        -0.47649E-02         0.00000E+00
    0.14936E-01        -0.41440E-02         0.00000E+00
    0.11894E-01        -0.33718E-02         0.00000E+00
    0.83934E-02        -0.24354E-02         0.00000E+00
    0.44294E-02        -0.13185E-02         0.00000E+00
    0.00000E+00         0.00000E+00         0.00000E+00
   -0.30566E-02        -0.25370E-02         0.00000E+00
   -0.93711E-03        -0.20439E-02         0.00000E+00
    0.14596E-02        -0.17043E-02         0.00000E+00
    0.40280E-02        -0.15179E-02         0.00000E+00
    0.66691E-02        -0.14761E-02         0.00000E+00
    0.92928E-02        -0.15638E-02         0.00000E+00
    0.11819E-01        -0.17606E-02         0.00000E+00
    0.14177E-01        -0.20428E-02         0.00000E+00
    0.16310E-01        -0.23849E-02         0.00000E+00
    0.18168E-01        -0.27609E-02         0.00000E+00
    0.19713E-01        -0.31457E-02         0.00000E+00
    0.20915E-01        -0.35159E-02         0.00000E+00
    0.21752E-01        -0.38502E-02         0.00000E+00
    0.22206E-01        -0.41302E-02         0.00000E+00
    0.22266E-01        -0.43398E-02         0.00000E+00
    0.21924E-01        -0.44652E-02         0.00000E+00
    0.21171E-01        -0.44947E-02         0.00000E+00
    0.20005E-01        -0.44179E-02         0.00000E+00
    0.18421E-01        -0.42252E-02         0.00000E+00
    0.16416E-01        -0.39068E-02         0.00000E+00
    0.13987E-01        -0.34525E-02         0.00000E+00
    0.11131E-01        -0.28503E-02         0.00000E+00
    0.78473E-02        -0.20861E-02         0.00000E+00
    0.41360E-02        -0.11430E-02         0.00000E+00
    0.00000E+00         0.00000E+00         0.00000E+00
   -0.18076E-02        -0.75965E-03         0.00000E+00
   -0.14395E-04        -0.32416E-03         0.00000E+00
    0.20497E-02        -0.25143E-04         0.00000E+00
    0.42900E-02         0.13547E-03         0.00000E+00
    0.66171E-02         0.16291E-03         0.00000E+00
    0.89486E-02         0.68523E-04         0.00000E+00
    0.11210E-01        -0.13159E-03         0.00000E+00
    0.13337E-01        -0.41786E-03         0.00000E+00
    0.15273E-01        -0.76864E-03         0.00000E+00
    0.16970E-01        -0.11614E-02         0.00000E+00
    0.18390E-01        -0.15736E-02         0.00000E+00
    0.19502E-01        -0.19839E-02         0.00000E+00
    0.20282E-01        -0.23723E-02         0.00000E+00
    0.20710E-01        -0.27206E-02         0.00000E+00
    0.20773E-01        -0.30126E-02         0.00000E+00
    0.20460E-01        -0.32337E-02         0.00000E+00
    0.19763E-01        -0.33711E-02         0.00000E+00
    0.18677E-01        -0.34127E-02         0.00000E+00
    0.17198E-01        -0.33473E-02         0.00000E+00
    0.15322E-01        -0.31637E-02         0.00000E+00
    0.13048E-01        -0.28499E-02         0.00000E+00
    0.10377E-01        -0.23929E-02         0.00000E+00
    0.73080E-02        -0.17776E-02         0.00000E+00
    0.38468E-02        -0.98676E-03         0.00000E+00
    0.00000E+00         0.00000E+00         0.00000E+00
   -0.71049E-03         0.71978E-03         0.00000E+00
    0.79686E-03         0.10999E-02         0.00000E+00
    0.25666E-02         0.13591E-02         0.00000E+00
    0.45135E-02         0.14933E-02         0.00000E+00
    0.65569E-02         0.15054E-02         0.00000E+00
    0.86217E-02         0.14033E-02         0.00000E+00
    0.10639E-01         0.11998E-02         0.00000E+00
    0.12549E-01         0.91090E-03         0.00000E+00
    0.14298E-01         0.55495E-03         0.00000E+00
    0.15839E-01         0.15150E-03         0.00000E+00
    0.17136E-01        -0.27950E-03         0.00000E+00
    0.18156E-01        -0.71846E-03         0.00000E+00
    0.18875E-01        -0.11467E-02         0.00000E+00
    0.19271E-01        -0.15466E-02         0.00000E+00
    0.19331E-01        -0.19020E-02         0.00000E+00
    0.19041E-01        -0.21981E-02         0.00000E+00
    0.18393E-01        -0.24212E-02         0.00000E+00
    0.17382E-01        -0.25582E-02         0.00000E+00
    0.16002E-01        -0.25968E-02         0.00000E+00
    0.14251E-01        -0.25244E-02         0.00000E+00
    0.12130E-01        -0.23281E-02         0.00000E+00
    0.96381E-02        -0.19940E-02         0.00000E+00
    0.67809E-02        -0.15065E-02         0.00000E+00
    0.35646E-02        -0.84843E-03         0.00000E+00
    0.00000E+00         0.00000E+00         0.00000E+00
    0.24253E-03         0.19401E-02         0.00000E+00
    0.15002E-02         0.22674E-02         0.00000E+00
    0.30099E-02         0.24877E-02         0.00000E+00
    0.46952E-02         0.25956E-02         0.00000E+00
    0.64831E-02         0.25916E-02         0.00000E+00
    0.83051E-02         0.24813E-02         0.00000E+00
    0.10098E-01         0.22744E-02         0.00000E+00
    0.11806E-01         0.19841E-02         0.00000E+00
    0.13378E-01         0.16258E-02         0.00000E+00
    0.14771E-01         0.12164E-02         0.00000E+00
    0.15947E-01         0.77367E-03         0.00000E+00
    0.16876E-01         0.31547E-03         0.00000E+00
    0.17532E-01        -0.14080E-03         0.00000E+00
    0.17893E-01        -0.57840E-03         0.00000E+00
    0.17944E-01        -0.98145E-03         0.00000E+00
    0.17673E-01        -0.13350E-02         0.00000E+00
    0.17070E-01        -0.16249E-02         0.00000E+00
    0.16127E-01        -0.18375E-02         0.00000E+00
    0.14842E-01        -0.19597E-02         0.00000E+00
    0.13212E-01        -0.19780E-02         0.00000E+00
    0.11238E-01        -0.18790E-02         0.00000E+00
    0.89217E-02        -0.16480E-02         0.00000E+00
    0.62700E-02        -0.12696E-02         0.00000E+00
    0.32917E-02        -0.72650E-03         0.00000E+00
    0.00000E+00         0.00000E+00         0.00000E+00
    0.10595E-02         0.29358E-02         0.00000E+00
    0.20997E-02         0.32131E-02         0.00000E+00
    0.33805E-02         0.33960E-02         0.00000E+00
    0.48331E-02         0.34779E-02         0.00000E+00
    0.63914E-02         0.34577E-02         0.00000E+00
    0.79933E-02         0.33388E-02         0.00000E+00
    0.95809E-02         0.31286E-02         0.00000E+00
    0.11102E-01         0.28378E-02         0.00000E+00
    0.12509E-01         0.24793E-02         0.00000E+00
    0.13761E-01         0.20679E-02         0.00000E+00
    0.14821E-01         0.16192E-02         0.00000E+00
    0.15661E-01         0.11494E-02         0.00000E+00
    0.16253E-01         0.67465E-03         0.00000E+00
    0.16578E-01         0.21091E-03         0.00000E+00
    0.16618E-01        -0.22648E-03         0.00000E+00
    0.16362E-01        -0.62268E-03         0.00000E+00
    0.15798E-01        -0.96339E-03         0.00000E+00
    0.14920E-01        -0.12347E-02         0.00000E+00
    0.13725E-01        -0.14229E-02         0.00000E+00
    0.12211E-01        -0.15143E-02         0.00000E+00
    0.10378E-01        -0.14948E-02         0.00000E+00
    0.82318E-02        -0.13497E-02         0.00000E+00
    0.57787E-02        -0.10635E-02         0.00000E+00
    0.30297E-02        -0.61955E-03         0.00000E+00
    0.00000E+00         0.00000E+00         0.00000E+00
    0.17485E-02         0.37379E-02         0.00000E+00
    0.26004E-02         0.39680E-02         0.00000E+00
    0.36802E-02         0.41151E-02         0.00000E+00
    0.49263E-02         0.41717E-02         0.00000E+00
    0.62791E-02         0.41354E-02         0.00000E+00
    0.76820E-02         0.40079E-02         0.00000E+00
    0.90821E-02         0.37946E-02         0.00000E+00
    0.10431E-01         0.35041E-02         0.00000E+00
    0.11684E-01         0.31473E-02         0.00000E+00
    0.12804E-01         0.27369E-02         0.00000E+00
    0.13755E-01         0.22867E-02         0.00000E+00
    0.14508E-01         0.18115E-02         0.00000E+00
    0.15039E-01         0.13262E-02         0.00000E+00
    0.15326E-01         0.84584E-03         0.00000E+00
    0.15354E-01         0.38514E-03         0.00000E+00
    0.15109E-01        -0.41362E-04         0.00000E+00
    0.14582E-01        -0.41943E-03         0.00000E+00
    0.13765E-01        -0.73509E-03         0.00000E+00
    0.12655E-01        -0.97444E-03         0.00000E+00
    0.11251E-01        -0.11236E-02         0.00000E+00
    0.95550E-02        -0.11682E-02         0.00000E+00
    0.75716E-02        -0.10939E-02         0.00000E+00
    0.53091E-02        -0.88516E-03         0.00000E+00
    0.27797E-02        -0.52615E-03         0.00000E+00
    0.00000E+00         0.00000E+00         0.00000E+00
    0.23178E-02         0.43739E-02         0.00000E+00
    0.30072E-02         0.45597E-02         0.00000E+00
    0.39113E-02         0.46727E-02         0.00000E+00
    0.49749E-02         0.47050E-02         0.00000E+00
    0.61443E-02         0.46530E-02         0.00000E+00
    0.73680E-02         0.45170E-02         0.00000E+00
    0.85978E-02         0.43009E-02         0.00000E+00
    0.97889E-02         0.40114E-02         0.00000E+00
    0.10901E-01         0.36577E-02         0.00000E+00
    0.11897E-01         0.32507E-02         0.00000E+00
    0.12744E-01         0.28028E-02         0.00000E+00
    0.13416E-01         0.23272E-02         0.00000E+00
    0.13887E-01         0.18377E-02         0.00000E+00
    0.14138E-01         0.13484E-02         0.00000E+00
    0.14152E-01         0.87350E-03         0.00000E+00
    0.13917E-01         0.42695E-03         0.00000E+00
    0.13423E-01         0.22777E-04         0.00000E+00
    0.12664E-01        -0.32515E-03         0.00000E+00
    0.11635E-01        -0.60298E-03         0.00000E+00
    0.10336E-01        -0.79680E-03         0.00000E+00
    0.87706E-02        -0.89252E-03         0.00000E+00
    0.69430E-02        -0.87573E-03         0.00000E+00
    0.48627E-02        -0.73164E-03         0.00000E+00
    0.25426E-02        -0.44497E-03         0.00000E+00
    0.00000E+00         0.00000E+00         0.00000E+00
    0.27756E-02         0.48681E-02         0.00000E+00
    0.33256E-02         0.50126E-02         0.00000E+00
    0.40768E-02         0.50936E-02         0.00000E+00
    0.49796E-02         0.51027E-02         0.00000E+00
    0.59858E-02         0.50355E-02         0.00000E+00
    0.70487E-02         0.48914E-02         0.00000E+00
    0.81245E-02         0.46727E-02         0.00000E+00
    0.91719E-02         0.43848E-02         0.00000E+00
    0.10153E-01         0.40353E-02         0.00000E+00
    0.11035E-01         0.36337E-02         0.00000E+00
    0.11786E-01         0.31909E-02         0.00000E+00
    0.12381E-01         0.27189E-02         0.00000E+00
    0.12795E-01         0.22304E-02         0.00000E+00
    0.13011E-01         0.17385E-02         0.00000E+00
    0.13012E-01         0.12567E-02         0.00000E+00
    0.12786E-01         0.79847E-03         0.00000E+00
    0.12323E-01         0.37751E-03         0.00000E+00
    0.11618E-01         0.73726E-05         0.00000E+00
    0.10666E-01        -0.29831E-03         0.00000E+00
    0.94682E-02        -0.52584E-03         0.00000E+00
    0.80266E-02        -0.66136E-03         0.00000E+00
    0.63474E-02        -0.69088E-03         0.00000E+00
    0.44403E-02        -0.60015E-03         0.00000E+00
    0.23186E-02        -0.37473E-03         0.00000E+00
    0.00000E+00         0.00000E+00         0.00000E+00
    0.31301E-02         0.52426E-02         0.00000E+00
    0.35613E-02         0.53486E-02         0.00000E+00
    0.41799E-02         0.53995E-02         0.00000E+00
    0.49417E-02         0.53867E-02         0.00000E+00
    0.58033E-02         0.53051E-02         0.00000E+00
    0.67225E-02         0.51532E-02         0.00000E+00
    0.76594E-02         0.49323E-02         0.00000E+00
    0.85765E-02         0.46465E-02         0.00000E+00
    0.94391E-02         0.43021E-02         0.00000E+00
    0.10216E-01         0.39074E-02         0.00000E+00
    0.10878E-01         0.34719E-02         0.00000E+00
    0.11401E-01         0.30065E-02         0.00000E+00
    0.11762E-01         0.25230E-02         0.00000E+00
    0.11945E-01         0.20335E-02         0.00000E+00
    0.11933E-01         0.15507E-02         0.00000E+00
    0.11715E-01         0.10877E-02         0.00000E+00
    0.11282E-01         0.65761E-03         0.00000E+00
    0.10628E-01         0.27353E-03         0.00000E+00
    0.97494E-02        -0.51184E-04         0.00000E+00
    0.86468E-02        -0.30319E-03         0.00000E+00
    0.73233E-02        -0.46903E-03         0.00000E+00
    0.57851E-02        -0.53521E-03         0.00000E+00
    0.40421E-02        -0.48814E-03         0.00000E+00
    0.21079E-02        -0.31424E-03         0.00000E+00
    0.00000E+00         0.00000E+00         0.00000E+00
    0.33891E-02         0.55164E-02         0.00000E+00
    0.37199E-02         0.55869E-02         0.00000E+00
    0.42243E-02         0.56099E-02         0.00000E+00
    0.48630E-02         0.55765E-02         0.00000E+00
    0.55969E-02         0.54813E-02         0.00000E+00
    0.63881E-02         0.53221E-02         0.00000E+00
    0.72005E-02         0.50993E-02         0.00000E+00
    0.79998E-02         0.48160E-02         0.00000E+00
    0.87543E-02         0.44774E-02         0.00000E+00
    0.94348E-02         0.40906E-02         0.00000E+00
    0.10015E-01         0.36641E-02         0.00000E+00
    0.10472E-01         0.32077E-02         0.00000E+00
    0.10785E-01         0.27322E-02         0.00000E+00
    0.10937E-01         0.22490E-02         0.00000E+00
    0.10913E-01         0.17701E-02         0.00000E+00
    0.10703E-01         0.13077E-02         0.00000E+00
    0.10298E-01         0.87454E-03         0.00000E+00
    0.96928E-02         0.48326E-03         0.00000E+00
    0.88840E-02         0.14675E-03         0.00000E+00
    0.78721E-02        -0.12209E-03         0.00000E+00
    0.66607E-02        -0.31031E-03         0.00000E+00
    0.52560E-02        -0.40498E-03         0.00000E+00
    0.36680E-02        -0.39324E-03         0.00000E+00
    0.19102E-02        -0.26238E-03         0.00000E+00
    0.00000E+00         0.00000E+00         0.00000E+00
    0.35603E-02         0.57067E-02         0.00000E+00
    0.38070E-02         0.57447E-02         0.00000E+00
    0.42137E-02         0.57417E-02         0.00000E+00
    0.47453E-02         0.56891E-02         0.00000E+00
    0.53670E-02         0.55812E-02         0.00000E+00
    0.60448E-02         0.54152E-02         0.00000E+00
    0.67460E-02         0.51908E-02         0.00000E+00
    0.74394E-02         0.49104E-02         0.00000E+00
    0.80961E-02         0.45780E-02         0.00000E+00
    0.86893E-02         0.41999E-02         0.00000E+00
    0.91949E-02         0.37836E-02         0.00000E+00
    0.95913E-02         0.33380E-02         0.00000E+00
    0.98596E-02         0.28729E-02         0.00000E+00
    0.99836E-02         0.23989E-02         0.00000E+00
    0.99501E-02         0.19274E-02         0.00000E+00
    0.97483E-02         0.14699E-02         0.00000E+00
    0.93705E-02         0.10385E-02         0.00000E+00
    0.88114E-02         0.64540E-03         0.00000E+00
    0.80687E-02         0.30294E-03         0.00000E+00
    0.71430E-02         0.23513E-04         0.00000E+00
    0.60377E-02        -0.18050E-03         0.00000E+00
    0.47593E-02        -0.29681E-03         0.00000E+00
    0.33175E-02        -0.31330E-03         0.00000E+00
    0.17254E-02        -0.21815E-03         0.00000E+00
    0.00000E+00         0.00000E+00         0.00000E+00
    0.36514E-02         0.58287E-02         0.00000E+00
    0.38283E-02         0.58367E-02         0.00000E+00
    0.41519E-02         0.58100E-02         0.00000E+00
    0.45910E-02         0.57397E-02         0.00000E+00
    0.51147E-02         0.56200E-02         0.00000E+00
    0.56923E-02         0.54477E-02         0.00000E+00
    0.62944E-02         0.52221E-02         0.00000E+00
    0.68930E-02         0.49446E-02         0.00000E+00
    0.74617E-02         0.46188E-02         0.00000E+00
    0.79761E-02         0.42499E-02         0.00000E+00
    0.84141E-02         0.38445E-02         0.00000E+00
    0.87557E-02         0.34108E-02         0.00000E+00
    0.89835E-02         0.29577E-02         0.00000E+00
    0.90826E-02         0.24952E-02         0.00000E+00
    0.90405E-02         0.20337E-02         0.00000E+00
    0.88474E-02         0.15844E-02         0.00000E+00
    0.84959E-02         0.11585E-02         0.00000E+00
    0.79814E-02         0.76780E-03         0.00000E+00
    0.73019E-02         0.42404E-03         0.00000E+00
    0.64580E-02         0.13905E-03         0.00000E+00
    0.54532E-02        -0.75391E-04         0.00000E+00
    0.42939E-02        -0.20765E-03         0.00000E+00
    0.29895E-02        -0.24637E-03         0.00000E+00
    0.15529E-02        -0.18060E-03         0.00000E+00
    0.00000E+00         0.00000E+00         0.00000E+00
    0.36693E-02         0.58955E-02         0.00000E+00
    0.37894E-02         0.58764E-02         0.00000E+00
    0.40429E-02         0.58278E-02         0.00000E+00
    0.44026E-02         0.57412E-02         0.00000E+00
    0.48408E-02         0.56107E-02         0.00000E+00
    0.53303E-02         0.54327E-02         0.00000E+00
    0.58448E-02         0.52062E-02         0.00000E+00
    0.63589E-02         0.49319E-02         0.00000E+00
    0.68488E-02         0.46128E-02         0.00000E+00
    0.72924E-02         0.42532E-02         0.00000E+00
    0.76695E-02         0.38593E-02         0.00000E+00
    0.79618E-02         0.34381E-02         0.00000E+00
    0.81533E-02         0.29982E-02         0.00000E+00
    0.82304E-02         0.25485E-02         0.00000E+00
    0.81815E-02         0.20990E-02         0.00000E+00
    0.79976E-02         0.16600E-02         0.00000E+00
    0.76720E-02         0.12425E-02         0.00000E+00
    0.72004E-02         0.85737E-03         0.00000E+00
    0.65811E-02         0.51590E-03         0.00000E+00
    0.58149E-02         0.22932E-03         0.00000E+00
    0.49052E-02         0.87852E-05         0.00000E+00
    0.38583E-02        -0.13475E-03         0.00000E+00
    0.26832E-02        -0.19068E-03         0.00000E+00
    0.13920E-02        -0.14890E-03         0.00000E+00
    0.00000E+00         0.00000E+00         0.00000E+00
    0.36212E-02         0.59189E-02         0.00000E+00
    0.36955E-02         0.58751E-02         0.00000E+00
    0.38906E-02         0.58067E-02         0.00000E+00
    0.41825E-02         0.57052E-02         0.00000E+00
    0.45468E-02         0.55648E-02         0.00000E+00
    0.49592E-02         0.53818E-02         0.00000E+00
    0.53963E-02         0.51545E-02         0.00000E+00
    0.58354E-02         0.48835E-02         0.00000E+00
    0.62551E-02         0.45710E-02         0.00000E+00
    0.66354E-02         0.42209E-02         0.00000E+00
    0.69579E-02         0.38384E-02         0.00000E+00
    0.72062E-02         0.34302E-02         0.00000E+00
    0.73656E-02         0.30039E-02         0.00000E+00
    0.74237E-02         0.25680E-02         0.00000E+00
    0.73699E-02         0.21316E-02         0.00000E+00
    0.71960E-02         0.17047E-02         0.00000E+00
    0.68958E-02         0.12974E-02         0.00000E+00
    0.64656E-02         0.92020E-03         0.00000E+00
    0.59039E-02         0.58371E-03         0.00000E+00
    0.52115E-02         0.29858E-03         0.00000E+00
    0.43919E-02         0.75358E-04         0.00000E+00
    0.34509E-02        -0.75686E-04         0.00000E+00
    0.23972E-02        -0.14467E-03         0.00000E+00
    0.12421E-02        -0.12229E-03         0.00000E+00
    0.00000E+00         0.00000E+00         0.00000E+00
    0.35135E-02         0.59089E-02         0.00000E+00
    0.35519E-02         0.58430E-02         0.00000E+00
    0.36988E-02         0.57566E-02         0.00000E+00
    0.39333E-02         0.56418E-02         0.00000E+00
    0.42339E-02         0.54924E-02         0.00000E+00
    0.45793E-02         0.53048E-02         0.00000E+00
    0.49484E-02         0.50771E-02         0.00000E+00
    0.53212E-02         0.48094E-02         0.00000E+00
    0.56785E-02         0.45034E-02         0.00000E+00
    0.60025E-02         0.41625E-02         0.00000E+00
    0.62765E-02         0.37914E-02         0.00000E+00
    0.64857E-02         0.33960E-02         0.00000E+00
    0.66170E-02         0.29835E-02         0.00000E+00
    0.66590E-02         0.25617E-02         0.00000E+00
    0.66021E-02         0.21391E-02         0.00000E+00
    0.64390E-02         0.17252E-02         0.00000E+00
    0.61640E-02         0.13293E-02         0.00000E+00
    0.57739E-02         0.96160E-03         0.00000E+00
    0.52673E-02         0.63199E-03         0.00000E+00
    0.46452E-02         0.35057E-03         0.00000E+00
    0.39108E-02         0.12727E-03         0.00000E+00
    0.30698E-02        -0.28290E-04         0.00000E+00
    0.21301E-02        -0.10692E-03         0.00000E+00
    0.11024E-02        -0.10007E-03         0.00000E+00
    0.00000E+00         0.00000E+00         0.00000E+00
    0.33527E-02         0.58743E-02         0.00000E+00
    0.33636E-02         0.57887E-02         0.00000E+00
    0.34714E-02         0.56863E-02         0.00000E+00
    0.36577E-02         0.55594E-02         0.00000E+00
    0.39038E-02         0.54020E-02         0.00000E+00
    0.41909E-02         0.52104E-02         0.00000E+00
    0.45006E-02         0.49824E-02         0.00000E+00
    0.48150E-02         0.47179E-02         0.00000E+00
    0.51172E-02         0.44182E-02         0.00000E+00
    0.53912E-02         0.40861E-02         0.00000E+00
    0.56223E-02         0.37260E-02         0.00000E+00
    0.57972E-02         0.33432E-02         0.00000E+00
    0.59040E-02         0.29443E-02         0.00000E+00
    0.59326E-02         0.25365E-02         0.00000E+00
    0.58746E-02         0.21279E-02         0.00000E+00
    0.57230E-02         0.17272E-02         0.00000E+00
    0.54731E-02         0.13435E-02         0.00000E+00
    0.51218E-02         0.98619E-03         0.00000E+00
    0.46682E-02         0.66470E-03         0.00000E+00
    0.41131E-02         0.38855E-03         0.00000E+00
    0.34596E-02         0.16710E-03         0.00000E+00
    0.27129E-02         0.93388E-05         0.00000E+00
    0.18806E-02        -0.76191E-04         0.00000E+00
    0.97222E-03        -0.81634E-04         0.00000E+00
    0.00000E+00         0.00000E+00         0.00000E+00
    0.31445E-02         0.58230E-02         0.00000E+00
    0.31354E-02         0.57199E-02         0.00000E+00
    0.32120E-02         0.56032E-02         0.00000E+00
    0.33582E-02         0.54655E-02         0.00000E+00
    0.35579E-02         0.53010E-02         0.00000E+00
    0.37948E-02         0.51059E-02         0.00000E+00
    0.40526E-02         0.48778E-02         0.00000E+00
    0.43158E-02         0.46164E-02         0.00000E+00
    0.45693E-02         0.43226E-02         0.00000E+00
    0.47992E-02         0.39990E-02         0.00000E+00
    0.49925E-02         0.36493E-02         0.00000E+00
    0.51373E-02         0.32785E-02         0.00000E+00
    0.52232E-02         0.28925E-02         0.00000E+00
    0.52412E-02         0.24983E-02         0.00000E+00
    0.51835E-02         0.21034E-02         0.00000E+00
    0.50444E-02         0.17160E-02         0.00000E+00
    0.48195E-02         0.13445E-02         0.00000E+00
    0.45061E-02         0.99794E-03         0.00000E+00
    0.41033E-02         0.68524E-03         0.00000E+00
    0.36122E-02         0.41536E-03         0.00000E+00
    0.30356E-02         0.19709E-03         0.00000E+00
    0.23783E-02         0.38866E-04         0.00000E+00
    0.16470E-02        -0.51390E-04         0.00000E+00
    0.85058E-03        -0.66454E-04         0.00000E+00
    0.00000E+00         0.00000E+00         0.00000E+00
    0.28948E-02         0.57613E-02         0.00000E+00
    0.28721E-02         0.56429E-02         0.00000E+00
    0.29242E-02         0.55137E-02         0.00000E+00
    0.30375E-02         0.53666E-02         0.00000E+00
    0.31979E-02         0.51958E-02         0.00000E+00
    0.33915E-02         0.49976E-02         0.00000E+00
    0.36042E-02         0.47695E-02         0.00000E+00
    0.38224E-02         0.45110E-02         0.00000E+00
    0.40333E-02         0.42227E-02         0.00000E+00
    0.42244E-02         0.39069E-02         0.00000E+00
    0.43845E-02         0.35669E-02         0.00000E+00
    0.45032E-02         0.32073E-02         0.00000E+00
    0.45713E-02         0.28337E-02         0.00000E+00
    0.45809E-02         0.24523E-02         0.00000E+00
    0.45254E-02         0.20704E-02         0.00000E+00
    0.43995E-02         0.16957E-02         0.00000E+00
    0.41995E-02         0.13362E-02         0.00000E+00
    0.39230E-02         0.10003E-02         0.00000E+00
    0.35694E-02         0.69657E-03         0.00000E+00
    0.31397E-02         0.43345E-03         0.00000E+00
    0.26363E-02         0.21920E-03         0.00000E+00
    0.20637E-02         0.61740E-04         0.00000E+00
    0.14278E-02        -0.31562E-04         0.00000E+00
    0.73667E-03        -0.54052E-04         0.00000E+00
    0.00000E+00         0.00000E+00         0.00000E+00
    0.26089E-02         0.56950E-02         0.00000E+00
    0.25781E-02         0.55633E-02         0.00000E+00
    0.26116E-02         0.54232E-02         0.00000E+00
    0.26980E-02         0.52679E-02         0.00000E+00
    0.28254E-02         0.50917E-02         0.00000E+00
    0.29818E-02         0.48908E-02         0.00000E+00
    0.31553E-02         0.46629E-02         0.00000E+00
    0.33342E-02         0.44070E-02         0.00000E+00
    0.35075E-02         0.41238E-02         0.00000E+00
    0.36645E-02         0.38151E-02         0.00000E+00
    0.37955E-02         0.34839E-02         0.00000E+00
    0.38916E-02         0.31346E-02         0.00000E+00
    0.39448E-02         0.27722E-02         0.00000E+00
    0.39483E-02         0.24027E-02         0.00000E+00
    0.38964E-02         0.20329E-02         0.00000E+00
    0.37845E-02         0.16700E-02         0.00000E+00
    0.36093E-02         0.13218E-02         0.00000E+00
    0.33690E-02         0.99618E-03         0.00000E+00
    0.30631E-02         0.70120E-03         0.00000E+00
    0.26922E-02         0.44490E-03         0.00000E+00
    0.22589E-02         0.23509E-03         0.00000E+00
    0.17668E-02         0.79206E-04         0.00000E+00
    0.12214E-02        -0.15879E-04         0.00000E+00
    0.62964E-03        -0.44019E-04         0.00000E+00
    0.00000E+00         0.00000E+00         0.00000E+00
    0.22919E-02         0.56287E-02         0.00000E+00
    0.22575E-02         0.54857E-02         0.00000E+00
    0.22775E-02         0.53363E-02         0.00000E+00
    0.23422E-02         0.51739E-02         0.00000E+00
    0.24419E-02         0.49931E-02         0.00000E+00
    0.25664E-02         0.47901E-02         0.00000E+00
    0.27058E-02         0.45623E-02         0.00000E+00
    0.28503E-02         0.43089E-02         0.00000E+00
    0.29905E-02         0.40301E-02         0.00000E+00
    0.31176E-02         0.37277E-02         0.00000E+00
    0.32231E-02         0.34044E-02         0.00000E+00
    0.32997E-02         0.30642E-02         0.00000E+00
    0.33405E-02         0.27118E-02         0.00000E+00
    0.33398E-02         0.23531E-02         0.00000E+00
    0.32928E-02         0.19942E-02         0.00000E+00
    0.31955E-02         0.16421E-02         0.00000E+00
    0.30453E-02         0.13042E-02         0.00000E+00
    0.28406E-02         0.98803E-03         0.00000E+00
    0.25808E-02         0.70125E-03         0.00000E+00
    0.22668E-02         0.45150E-03         0.00000E+00
    0.19006E-02         0.24619E-03         0.00000E+00
    0.14856E-02         0.92328E-04         0.00000E+00
    0.10262E-02        -0.36370E-05         0.00000E+00
    0.52860E-03        -0.36002E-04         0.00000E+00
    0.00000E+00         0.00000E+00         0.00000E+00
    0.19489E-02         0.55663E-02         0.00000E+00
    0.19147E-02         0.54139E-02         0.00000E+00
    0.19252E-02         0.52568E-02         0.00000E+00
    0.19727E-02         0.50886E-02         0.00000E+00
    0.20491E-02         0.49039E-02         0.00000E+00
    0.21462E-02         0.46990E-02         0.00000E+00
    0.22558E-02         0.44714E-02         0.00000E+00
    0.23700E-02         0.42201E-02         0.00000E+00
    0.24810E-02         0.39452E-02         0.00000E+00
    0.25815E-02         0.36483E-02         0.00000E+00
    0.26648E-02         0.33318E-02         0.00000E+00
    0.27245E-02         0.29995E-02         0.00000E+00
    0.27551E-02         0.26559E-02         0.00000E+00
    0.27520E-02         0.23064E-02         0.00000E+00
    0.27109E-02         0.19570E-02         0.00000E+00
    0.26289E-02         0.16145E-02         0.00000E+00
    0.25037E-02         0.12857E-02         0.00000E+00
    0.23339E-02         0.97789E-03         0.00000E+00
    0.21192E-02         0.69848E-03         0.00000E+00
    0.18603E-02         0.45473E-03         0.00000E+00
    0.15588E-02         0.25368E-03         0.00000E+00
    0.12177E-02         0.10200E-03         0.00000E+00
    0.84062E-03         0.57596E-05         0.00000E+00
    0.43270E-03        -0.29702E-04         0.00000E+00
    0.00000E+00         0.00000E+00         0.00000E+00
    0.15843E-02         0.55111E-02         0.00000E+00
    0.15534E-02         0.53511E-02         0.00000E+00
    0.15579E-02         0.51878E-02         0.00000E+00
    0.15917E-02         0.50148E-02         0.00000E+00
    0.16485E-02         0.48270E-02         0.00000E+00
    0.17219E-02         0.46206E-02         0.00000E+00
    0.18053E-02         0.43933E-02         0.00000E+00
    0.18926E-02         0.41437E-02         0.00000E+00
    0.19776E-02         0.38720E-02         0.00000E+00
    0.20545E-02         0.35796E-02         0.00000E+00
    0.21180E-02         0.32688E-02         0.00000E+00
    0.21631E-02         0.29431E-02         0.00000E+00
    0.21854E-02         0.26068E-02         0.00000E+00
    0.21812E-02         0.22651E-02         0.00000E+00
    0.21472E-02         0.19238E-02         0.00000E+00
    0.20809E-02         0.15892E-02         0.00000E+00
    0.19807E-02         0.12681E-02         0.00000E+00
    0.18454E-02         0.96744E-03         0.00000E+00
    0.16748E-02         0.69434E-03         0.00000E+00
    0.14694E-02         0.45579E-03         0.00000E+00
    0.12307E-02         0.25853E-03         0.00000E+00
    0.96084E-03         0.10894E-03         0.00000E+00
    0.66297E-03         0.12801E-04         0.00000E+00
    0.34106E-03        -0.24875E-04         0.00000E+00
    0.00000E+00         0.00000E+00         0.00000E+00
    0.12029E-02         0.54656E-02         0.00000E+00
    0.11777E-02         0.52998E-02         0.00000E+00
    0.11787E-02         0.51316E-02         0.00000E+00
    0.12017E-02         0.49550E-02         0.00000E+00
    0.12418E-02         0.47648E-02         0.00000E+00
    0.12943E-02         0.45573E-02         0.00000E+00
    0.13544E-02         0.43301E-02         0.00000E+00
    0.14175E-02         0.40820E-02         0.00000E+00
    0.14790E-02         0.38129E-02         0.00000E+00
    0.15347E-02         0.35240E-02         0.00000E+00
    0.15805E-02         0.32177E-02         0.00000E+00
    0.16127E-02         0.28972E-02         0.00000E+00
    0.16282E-02         0.25666E-02         0.00000E+00
    0.16240E-02         0.22311E-02         0.00000E+00
    0.15978E-02         0.18961E-02         0.00000E+00
    0.15477E-02         0.15679E-02         0.00000E+00
    0.14725E-02         0.12529E-02         0.00000E+00
    0.13714E-02         0.95799E-03         0.00000E+00
    0.12441E-02         0.68997E-03         0.00000E+00
    0.10911E-02         0.45564E-03         0.00000E+00
    0.91347E-03         0.26153E-03         0.00000E+00
    0.71289E-03         0.11376E-03         0.00000E+00
    0.49167E-03         0.17881E-04         0.00000E+00
    0.25282E-03        -0.21321E-04         0.00000E+00
    0.00000E+00         0.00000E+00         0.00000E+00
    0.80884E-03         0.54318E-02         0.00000E+00
    0.79107E-03         0.52618E-02         0.00000E+00
    0.79072E-03         0.50902E-02         0.00000E+00
    0.80485E-03         0.49110E-02         0.00000E+00
    0.83039E-03         0.47191E-02         0.00000E+00
    0.86420E-03         0.45109E-02         0.00000E+00
    0.90313E-03         0.42838E-02         0.00000E+00
    0.94408E-03         0.40367E-02         0.00000E+00
    0.98404E-03         0.37694E-02         0.00000E+00
    0.10202E-02         0.34831E-02         0.00000E+00
    0.10498E-02         0.31800E-02         0.00000E+00
    0.10706E-02         0.28632E-02         0.00000E+00
    0.10803E-02         0.25369E-02         0.00000E+00
    0.10770E-02         0.22058E-02         0.00000E+00
    0.10592E-02         0.18754E-02         0.00000E+00
    0.10257E-02         0.15518E-02         0.00000E+00
    0.97550E-03         0.12413E-02         0.00000E+00
    0.90820E-03         0.95054E-03         0.00000E+00
    0.82367E-03         0.68625E-03         0.00000E+00
    0.72218E-03         0.45503E-03         0.00000E+00
    0.60444E-03         0.26325E-03         0.00000E+00
    0.47157E-03         0.11688E-03         0.00000E+00
    0.32514E-03         0.21298E-04         0.00000E+00
    0.16714E-03        -0.18889E-04         0.00000E+00
    0.00000E+00         0.00000E+00         0.00000E+00
    0.40649E-03         0.54110E-02         0.00000E+00
    0.39732E-03         0.52385E-02         0.00000E+00
    0.39682E-03         0.50649E-02         0.00000E+00
    0.40355E-03         0.48841E-02         0.00000E+00
    0.41596E-03         0.46912E-02         0.00000E+00
    0.43251E-03         0.44825E-02         0.00000E+00
    0.45163E-03         0.42555E-02         0.00000E+00
    0.47176E-03         0.40090E-02         0.00000E+00
    0.49143E-03         0.37428E-02         0.00000E+00
    0.50921E-03         0.34581E-02         0.00000E+00
    0.52378E-03         0.31569E-02         0.00000E+00
    0.53394E-03         0.28424E-02         0.00000E+00
    0.53859E-03         0.25186E-02         0.00000E+00
    0.53681E-03         0.21902E-02         0.00000E+00
    0.52781E-03         0.18626E-02         0.00000E+00
    0.51099E-03         0.15418E-02         0.00000E+00
    0.48590E-03         0.12340E-02         0.00000E+00
    0.45229E-03         0.94579E-03         0.00000E+00
    0.41012E-03         0.68377E-03         0.00000E+00
    0.35953E-03         0.45446E-03         0.00000E+00
    0.30086E-03         0.26412E-03         0.00000E+00
    0.23468E-03         0.11863E-03         0.00000E+00
    0.16178E-03         0.23264E-04         0.00000E+00
    0.83145E-04        -0.17472E-04         0.00000E+00
    0.00000E+00         0.00000E+00         0.00000E+00
    0.00000E+00         0.54039E-02         0.00000E+00
    0.00000E+00         0.52306E-02         0.00000E+00
    0.00000E+00         0.50564E-02         0.00000E+00
    0.00000E+00         0.48751E-02         0.00000E+00
    0.00000E+00         0.46818E-02         0.00000E+00
    0.00000E+00         0.44730E-02         0.00000E+00
    0.00000E+00         0.42460E-02         0.00000E+00
    0.00000E+00         0.39997E-02         0.00000E+00
    0.00000E+00         0.37339E-02         0.00000E+00
    0.00000E+00         0.34497E-02         0.00000E+00
    0.00000E+00         0.31492E-02         0.00000E+00
    0.00000E+00         0.28354E-02         0.00000E+00
    0.00000E+00         0.25124E-02         0.00000E+00
    0.00000E+00         0.21849E-02         0.00000E+00
    0.00000E+00         0.18583E-02         0.00000E+00
    0.00000E+00         0.15384E-02         0.00000E+00
    0.00000E+00         0.12315E-02         0.00000E+00
    0.00000E+00         0.94417E-03         0.00000E+00
    0.00000E+00         0.68291E-03         0.00000E+00
    0.00000E+00         0.45423E-03         0.00000E+00
    0.00000E+00         0.26439E-03         0.00000E+00
    0.00000E+00         0.11920E-03         0.00000E+00
    0.00000E+00         0.23906E-04         0.00000E+00
    0.00000E+00        -0.17007E-04         0.00000E+00
    0.00000E+00         0.00000E+00         0.00000E+00
CELL_DATA       1152
VECTORS vDarcy double 
    0.60399E-19        -0.33208E-19         0.00000E+00
    0.37413E-19        -0.32767E-19         0.00000E+00
    0.20126E-20         0.41701E-19         0.00000E+00
   -0.14231E-19         0.60144E-19         0.00000E+00
   -0.22900E-19         0.46002E-19         0.00000E+00
   -0.17095E-19        -0.27888E-20         0.00000E+00
    0.56223E-20         0.65411E-20         0.00000E+00
   -0.19558E-20         0.63054E-20         0.00000E+00
   -0.30653E-19         0.71741E-20         0.00000E+00
   -0.32342E-19         0.63221E-19         0.00000E+00
   -0.78115E-20         0.77614E-19         0.00000E+00
   -0.29934E-20         0.39005E-19         0.00000E+00
   -0.17368E-20         0.50647E-19         0.00000E+00
    0.77517E-20         0.89134E-19         0.00000E+00
    0.51683E-20         0.10201E-18         0.00000E+00
    0.36731E-20         0.50493E-19         0.00000E+00
    0.48255E-20         0.32216E-19         0.00000E+00
    0.80097E-20         0.36883E-19         0.00000E+00
    0.88774E-20        -0.22592E-20         0.00000E+00
    0.67626E-20         0.17204E-20         0.00000E+00
    0.19449E-20         0.93574E-20         0.00000E+00
    0.61360E-21         0.61028E-20         0.00000E+00
    0.38762E-20         0.81379E-20         0.00000E+00
    0.24666E-20         0.31702E-20         0.00000E+00
    0.10650E-18        -0.35505E-19         0.00000E+00
    0.97424E-19         0.15948E-20         0.00000E+00
    0.70447E-19         0.69717E-19         0.00000E+00
    0.52045E-19         0.66773E-19         0.00000E+00
    0.49289E-19         0.50799E-19         0.00000E+00
    0.44735E-19        -0.88361E-20         0.00000E+00
    0.39236E-19        -0.46302E-20         0.00000E+00
    0.18036E-19         0.46254E-19         0.00000E+00
   -0.75011E-20         0.21460E-19         0.00000E+00
    0.77541E-20         0.35369E-19         0.00000E+00
    0.13722E-19         0.74968E-19         0.00000E+00
   -0.19475E-20         0.52503E-19         0.00000E+00
   -0.12855E-19         0.46800E-19         0.00000E+00
   -0.10289E-19         0.80927E-19         0.00000E+00
    0.14727E-19         0.87781E-19         0.00000E+00
    0.25104E-19         0.55834E-19         0.00000E+00
    0.95965E-20         0.41229E-19         0.00000E+00
    0.17377E-20         0.32544E-19         0.00000E+00
    0.36416E-20        -0.69158E-21         0.00000E+00
    0.38251E-20         0.20840E-20         0.00000E+00
    0.60918E-20         0.11545E-19         0.00000E+00
    0.81021E-20         0.32365E-20         0.00000E+00
    0.82119E-20         0.76317E-20         0.00000E+00
    0.89178E-20         0.43801E-20         0.00000E+00
    0.25333E-18         0.10597E-18         0.00000E+00
    0.78330E-19         0.44206E-19         0.00000E+00
    0.54146E-19         0.78267E-19         0.00000E+00
    0.49494E-19         0.81277E-19         0.00000E+00
    0.38156E-19         0.50389E-19         0.00000E+00
    0.26007E-19         0.82758E-20         0.00000E+00
    0.18241E-19        -0.84770E-20         0.00000E+00
    0.32346E-19         0.57196E-19         0.00000E+00
    0.48614E-19         0.19787E-19         0.00000E+00
    0.33008E-19         0.37391E-19         0.00000E+00
    0.19214E-19         0.80771E-19         0.00000E+00
    0.30536E-19         0.51048E-19         0.00000E+00
    0.27182E-19         0.62517E-19         0.00000E+00
    0.14014E-19         0.75812E-19         0.00000E+00
    0.10148E-19         0.71747E-19         0.00000E+00
    0.64357E-20         0.65203E-19         0.00000E+00
    0.82849E-20         0.45520E-19         0.00000E+00
    0.17418E-19         0.26979E-19         0.00000E+00
    0.16478E-19         0.39104E-20         0.00000E+00
    0.14894E-19        -0.11176E-20         0.00000E+00
    0.19492E-19         0.78819E-20         0.00000E+00
    0.16342E-19         0.80394E-20         0.00000E+00
    0.12448E-19         0.66127E-20         0.00000E+00
    0.14450E-19         0.26913E-20         0.00000E+00
    0.45036E-19         0.20827E-18         0.00000E+00
    0.73910E-19         0.88035E-19         0.00000E+00
    0.48418E-19         0.84116E-19         0.00000E+00
    0.43290E-19         0.85208E-19         0.00000E+00
    0.52895E-19         0.48191E-19         0.00000E+00
    0.54215E-19         0.21304E-19         0.00000E+00
    0.37616E-19         0.28595E-20         0.00000E+00
    0.31851E-19         0.37520E-19         0.00000E+00
    0.31491E-19         0.23555E-19         0.00000E+00
    0.15050E-19         0.65670E-19         0.00000E+00
    0.28283E-20         0.78507E-19         0.00000E+00
    0.28153E-20         0.42002E-19         0.00000E+00
    0.11948E-19         0.65783E-19         0.00000E+00
    0.32585E-19         0.65078E-19         0.00000E+00
    0.43556E-19         0.75377E-19         0.00000E+00
    0.33552E-19         0.75289E-19         0.00000E+00
    0.24764E-19         0.42372E-19         0.00000E+00
    0.25423E-19         0.20333E-19         0.00000E+00
    0.27161E-19         0.97580E-20         0.00000E+00
    0.25657E-19        -0.38774E-20         0.00000E+00
    0.22717E-19         0.89842E-20         0.00000E+00
    0.18262E-19         0.14543E-19         0.00000E+00
    0.16734E-19         0.55307E-20         0.00000E+00
    0.17185E-19         0.13210E-20         0.00000E+00
    0.28678E-19         0.13455E-18         0.00000E+00
    0.41454E-19         0.12010E-18         0.00000E+00
    0.44449E-19         0.74549E-19         0.00000E+00
    0.68630E-19         0.75722E-19         0.00000E+00
    0.60711E-19         0.55990E-19         0.00000E+00
    0.34529E-19         0.38368E-19         0.00000E+00
    0.12829E-19         0.24094E-19         0.00000E+00
    0.76739E-20         0.27206E-19         0.00000E+00
   -0.51389E-21         0.42417E-19         0.00000E+00
   -0.96851E-20         0.72420E-19         0.00000E+00
    0.11758E-20         0.73118E-19         0.00000E+00
   -0.10527E-20         0.49634E-19         0.00000E+00
    0.20528E-20         0.45914E-19         0.00000E+00
    0.11903E-19         0.54461E-19         0.00000E+00
    0.15060E-19         0.71865E-19         0.00000E+00
    0.35678E-19         0.68186E-19         0.00000E+00
    0.47111E-19         0.46830E-19         0.00000E+00
    0.39989E-19         0.22339E-19         0.00000E+00
    0.32414E-19         0.13589E-19         0.00000E+00
    0.25311E-19         0.89866E-21         0.00000E+00
    0.22214E-19         0.10245E-19         0.00000E+00
    0.24849E-19         0.15102E-19         0.00000E+00
    0.25592E-19         0.57564E-20         0.00000E+00
    0.25629E-19         0.60761E-21         0.00000E+00
    0.10158E-19         0.95718E-19         0.00000E+00
    0.21525E-19         0.13479E-18         0.00000E+00
    0.24793E-19         0.53593E-19         0.00000E+00
    0.28711E-19         0.68581E-19         0.00000E+00
    0.22788E-19         0.76972E-19         0.00000E+00
    0.15283E-19         0.51073E-19         0.00000E+00
    0.74499E-20         0.40922E-19         0.00000E+00
   -0.41546E-20         0.27137E-19         0.00000E+00
   -0.42672E-20         0.50787E-19         0.00000E+00
    0.32969E-20         0.65658E-19         0.00000E+00
    0.94474E-20         0.62869E-19         0.00000E+00
    0.86792E-20         0.62879E-19         0.00000E+00
    0.23127E-20         0.35929E-19         0.00000E+00
    0.29111E-20         0.53997E-19         0.00000E+00
    0.11670E-19         0.60412E-19         0.00000E+00
    0.24581E-19         0.46110E-19         0.00000E+00
    0.38206E-19         0.43849E-19         0.00000E+00
    0.36087E-19         0.34562E-19         0.00000E+00
    0.29206E-19         0.15821E-19         0.00000E+00
    0.29696E-19         0.52791E-20         0.00000E+00
    0.27795E-19         0.10863E-19         0.00000E+00
    0.28133E-19         0.11512E-19         0.00000E+00
    0.30485E-19         0.62507E-20         0.00000E+00
    0.28383E-19         0.21782E-20         0.00000E+00
   -0.13877E-19         0.99436E-19         0.00000E+00
   -0.61238E-20         0.11195E-18         0.00000E+00
    0.24893E-19         0.42147E-19         0.00000E+00
    0.29998E-19         0.71004E-19         0.00000E+00
    0.19282E-19         0.91187E-19         0.00000E+00
    0.12165E-19         0.51481E-19         0.00000E+00
    0.98822E-20         0.50630E-19         0.00000E+00
    0.69495E-20         0.31966E-19         0.00000E+00
    0.13932E-19         0.39088E-19         0.00000E+00
    0.20230E-19         0.63494E-19         0.00000E+00
    0.16152E-19         0.62961E-19         0.00000E+00
    0.14082E-19         0.65625E-19         0.00000E+00
    0.53651E-20         0.48267E-19         0.00000E+00
    0.44111E-20         0.42015E-19         0.00000E+00
    0.16380E-19         0.51666E-19         0.00000E+00
    0.24111E-19         0.34214E-19         0.00000E+00
    0.30526E-19         0.35704E-19         0.00000E+00
    0.35618E-19         0.39734E-19         0.00000E+00
    0.34662E-19         0.18486E-19         0.00000E+00
    0.30494E-19         0.62917E-20         0.00000E+00
    0.31197E-19         0.11049E-19         0.00000E+00
    0.32121E-19         0.10064E-19         0.00000E+00
    0.31503E-19         0.59653E-20         0.00000E+00
    0.32143E-19         0.39254E-20         0.00000E+00
   -0.27212E-20         0.11603E-18         0.00000E+00
    0.91851E-20         0.75696E-19         0.00000E+00
    0.20197E-19         0.36376E-19         0.00000E+00
    0.10341E-19         0.81524E-19         0.00000E+00
    0.11380E-19         0.90343E-19         0.00000E+00
    0.23481E-19         0.47342E-19         0.00000E+00
    0.34955E-19         0.45577E-19         0.00000E+00
    0.28371E-19         0.46537E-19         0.00000E+00
    0.17055E-19         0.28851E-19         0.00000E+00
    0.23168E-19         0.61320E-19         0.00000E+00
    0.18228E-19         0.74153E-19         0.00000E+00
    0.16835E-19         0.57896E-19         0.00000E+00
    0.31780E-19         0.49767E-19         0.00000E+00
    0.29482E-19         0.43767E-19         0.00000E+00
    0.19818E-19         0.47609E-19         0.00000E+00
    0.22459E-19         0.27899E-19         0.00000E+00
    0.32428E-19         0.25634E-19         0.00000E+00
    0.41146E-19         0.35993E-19         0.00000E+00
    0.38425E-19         0.25904E-19         0.00000E+00
    0.35510E-19         0.59559E-20         0.00000E+00
    0.36904E-19         0.92892E-20         0.00000E+00
    0.36308E-19         0.11495E-19         0.00000E+00
    0.33911E-19         0.75505E-20         0.00000E+00
    0.32950E-19         0.26600E-20         0.00000E+00
    0.10256E-19         0.10850E-18         0.00000E+00
    0.27138E-19         0.54442E-19         0.00000E+00
    0.20774E-19         0.52983E-19         0.00000E+00
    0.13203E-19         0.82344E-19         0.00000E+00
    0.21291E-19         0.80397E-19         0.00000E+00
    0.25566E-19         0.40914E-19         0.00000E+00
    0.22724E-19         0.43372E-19         0.00000E+00
    0.16098E-19         0.61953E-19         0.00000E+00
    0.91117E-20         0.31736E-19         0.00000E+00
    0.12990E-19         0.48443E-19         0.00000E+00
    0.26502E-19         0.78458E-19         0.00000E+00
    0.24100E-19         0.57387E-19         0.00000E+00
    0.10924E-19         0.48506E-19         0.00000E+00
    0.12660E-19         0.45591E-19         0.00000E+00
    0.27769E-19         0.40339E-19         0.00000E+00
    0.31766E-19         0.28531E-19         0.00000E+00
    0.27232E-19         0.19568E-19         0.00000E+00
    0.32992E-19         0.27583E-19         0.00000E+00
    0.43133E-19         0.26895E-19         0.00000E+00
    0.43516E-19         0.74965E-20         0.00000E+00
    0.38910E-19         0.10961E-19         0.00000E+00
    0.36131E-19         0.13198E-19         0.00000E+00
    0.35698E-19         0.86775E-20         0.00000E+00
    0.36680E-19         0.15110E-20         0.00000E+00
    0.77852E-20         0.90459E-19         0.00000E+00
    0.14942E-19         0.48444E-19         0.00000E+00
    0.15778E-19         0.64510E-19         0.00000E+00
    0.26459E-19         0.67707E-19         0.00000E+00
    0.45417E-19         0.67986E-19         0.00000E+00
    0.40884E-19         0.53584E-19         0.00000E+00
    0.20781E-19         0.53647E-19         0.00000E+00
    0.20200E-19         0.58885E-19         0.00000E+00
    0.19827E-19         0.42163E-19         0.00000E+00
    0.89892E-20         0.44975E-19         0.00000E+00
    0.10489E-19         0.66914E-19         0.00000E+00
    0.18024E-19         0.63798E-19         0.00000E+00
    0.17775E-19         0.55519E-19         0.00000E+00
    0.24542E-19         0.30076E-19         0.00000E+00
    0.38334E-19         0.26953E-19         0.00000E+00
    0.40876E-19         0.35378E-19         0.00000E+00
    0.34862E-19         0.23268E-19         0.00000E+00
    0.34239E-19         0.18746E-19         0.00000E+00
    0.39369E-19         0.20460E-19         0.00000E+00
    0.41535E-19         0.11383E-19         0.00000E+00
    0.39697E-19         0.13518E-19         0.00000E+00
    0.40389E-19         0.12729E-19         0.00000E+00
    0.41929E-19         0.80400E-20         0.00000E+00
    0.40097E-19         0.29979E-20         0.00000E+00
    0.13192E-19         0.69482E-19         0.00000E+00
    0.18102E-19         0.57353E-19         0.00000E+00
    0.10375E-19         0.62491E-19         0.00000E+00
    0.12689E-19         0.56732E-19         0.00000E+00
    0.13308E-19         0.59384E-19         0.00000E+00
    0.16254E-19         0.63773E-19         0.00000E+00
    0.22098E-19         0.57716E-19         0.00000E+00
    0.26594E-19         0.50901E-19         0.00000E+00
    0.27322E-19         0.49791E-19         0.00000E+00
    0.22499E-19         0.53008E-19         0.00000E+00
    0.23367E-19         0.56514E-19         0.00000E+00
    0.26965E-19         0.63066E-19         0.00000E+00
    0.30582E-19         0.52883E-19         0.00000E+00
    0.31888E-19         0.24638E-19         0.00000E+00
    0.27365E-19         0.23121E-19         0.00000E+00
    0.32549E-19         0.31485E-19         0.00000E+00
    0.40121E-19         0.25603E-19         0.00000E+00
    0.39570E-19         0.17586E-19         0.00000E+00
    0.38013E-19         0.18047E-19         0.00000E+00
    0.37082E-19         0.12562E-19         0.00000E+00
    0.35354E-19         0.15905E-19         0.00000E+00
    0.36483E-19         0.85206E-20         0.00000E+00
    0.40266E-19         0.69248E-20         0.00000E+00
    0.41680E-19         0.45309E-20         0.00000E+00
    0.10804E-20         0.55210E-19         0.00000E+00
    0.56519E-20         0.62144E-19         0.00000E+00
    0.93706E-20         0.61708E-19         0.00000E+00
    0.67857E-20         0.57786E-19         0.00000E+00
    0.21268E-20         0.62370E-19         0.00000E+00
    0.45894E-20         0.55379E-19         0.00000E+00
    0.20001E-19         0.44855E-19         0.00000E+00
    0.31212E-19         0.48056E-19         0.00000E+00
    0.27596E-19         0.55524E-19         0.00000E+00
    0.28362E-19         0.51333E-19         0.00000E+00
    0.35289E-19         0.50395E-19         0.00000E+00
    0.39664E-19         0.61212E-19         0.00000E+00
    0.41995E-19         0.48789E-19         0.00000E+00
    0.39724E-19         0.29698E-19         0.00000E+00
    0.33380E-19         0.28927E-19         0.00000E+00
    0.35256E-19         0.18619E-19         0.00000E+00
    0.44910E-19         0.21243E-19         0.00000E+00
    0.44123E-19         0.23284E-19         0.00000E+00
    0.39369E-19         0.18660E-19         0.00000E+00
    0.39406E-19         0.12842E-19         0.00000E+00
    0.40149E-19         0.16610E-19         0.00000E+00
    0.39956E-19         0.68801E-20         0.00000E+00
    0.39683E-19         0.50553E-20         0.00000E+00
    0.41088E-19         0.35815E-20         0.00000E+00
    0.14346E-20         0.52695E-19         0.00000E+00
    0.59885E-20         0.55533E-19         0.00000E+00
    0.10521E-19         0.60067E-19         0.00000E+00
    0.10808E-19         0.61724E-19         0.00000E+00
    0.11136E-19         0.62764E-19         0.00000E+00
    0.12543E-19         0.51115E-19         0.00000E+00
    0.10350E-19         0.35900E-19         0.00000E+00
    0.11344E-19         0.44805E-19         0.00000E+00
    0.21808E-19         0.51926E-19         0.00000E+00
    0.30593E-19         0.45380E-19         0.00000E+00
    0.35671E-19         0.44342E-19         0.00000E+00
    0.42713E-19         0.55848E-19         0.00000E+00
    0.47647E-19         0.46888E-19         0.00000E+00
    0.48939E-19         0.32579E-19         0.00000E+00
    0.51996E-19         0.29333E-19         0.00000E+00
    0.47879E-19         0.20453E-19         0.00000E+00
    0.39629E-19         0.18005E-19         0.00000E+00
    0.40204E-19         0.26733E-19         0.00000E+00
    0.40200E-19         0.19970E-19         0.00000E+00
    0.37944E-19         0.13751E-19         0.00000E+00
    0.40487E-19         0.12416E-19         0.00000E+00
    0.43595E-19         0.81583E-20         0.00000E+00
    0.42480E-19         0.51655E-20         0.00000E+00
    0.41730E-19         0.28167E-20         0.00000E+00
    0.80958E-20         0.43164E-19         0.00000E+00
    0.11806E-19         0.56800E-19         0.00000E+00
    0.71791E-20         0.58896E-19         0.00000E+00
    0.10500E-19         0.59287E-19         0.00000E+00
    0.17340E-19         0.58035E-19         0.00000E+00
    0.21774E-19         0.50003E-19         0.00000E+00
    0.20363E-19         0.40616E-19         0.00000E+00
    0.17303E-19         0.42153E-19         0.00000E+00
    0.21430E-19         0.39988E-19         0.00000E+00
    0.27643E-19         0.42320E-19         0.00000E+00
    0.31461E-19         0.38506E-19         0.00000E+00
    0.40143E-19         0.45960E-19         0.00000E+00
    0.47073E-19         0.44911E-19         0.00000E+00
    0.47730E-19         0.32607E-19         0.00000E+00
    0.47281E-19         0.26697E-19         0.00000E+00
    0.45264E-19         0.29223E-19         0.00000E+00
    0.38558E-19         0.24191E-19         0.00000E+00
    0.33909E-19         0.24619E-19         0.00000E+00
    0.36411E-19         0.19586E-19         0.00000E+00
    0.39514E-19         0.13287E-19         0.00000E+00
    0.40428E-19         0.94232E-20         0.00000E+00
    0.40781E-19         0.76885E-20         0.00000E+00
    0.40132E-19         0.73991E-20         0.00000E+00
    0.39057E-19         0.24084E-20         0.00000E+00
    0.13918E-20         0.33677E-19         0.00000E+00
    0.55850E-20         0.58384E-19         0.00000E+00
    0.10923E-19         0.56601E-19         0.00000E+00
    0.17157E-19         0.52025E-19         0.00000E+00
    0.24017E-19         0.51598E-19         0.00000E+00
    0.28919E-19         0.47104E-19         0.00000E+00
    0.32063E-19         0.41782E-19         0.00000E+00
    0.34310E-19         0.41799E-19         0.00000E+00
    0.32133E-19         0.38393E-19         0.00000E+00
    0.32169E-19         0.37665E-19         0.00000E+00
    0.31607E-19         0.39905E-19         0.00000E+00
    0.29948E-19         0.37539E-19         0.00000E+00
    0.34413E-19         0.41937E-19         0.00000E+00
    0.39194E-19         0.30145E-19         0.00000E+00
    0.41087E-19         0.27716E-19         0.00000E+00
    0.39977E-19         0.31331E-19         0.00000E+00
    0.37282E-19         0.31485E-19         0.00000E+00
    0.36370E-19         0.22886E-19         0.00000E+00
    0.38738E-19         0.16450E-19         0.00000E+00
    0.40825E-19         0.11232E-19         0.00000E+00
    0.40078E-19         0.11312E-19         0.00000E+00
    0.38174E-19         0.73506E-20         0.00000E+00
    0.39028E-19         0.75315E-20         0.00000E+00
    0.40407E-19         0.19719E-20         0.00000E+00
   -0.28956E-20         0.35181E-19         0.00000E+00
    0.22770E-21         0.49563E-19         0.00000E+00
    0.96809E-20         0.50631E-19         0.00000E+00
    0.14444E-19         0.46998E-19         0.00000E+00
    0.17222E-19         0.46988E-19         0.00000E+00
    0.24102E-19         0.39931E-19         0.00000E+00
    0.31939E-19         0.37973E-19         0.00000E+00
    0.35031E-19         0.40269E-19         0.00000E+00
    0.35361E-19         0.41771E-19         0.00000E+00
    0.35523E-19         0.34089E-19         0.00000E+00
    0.36396E-19         0.43170E-19         0.00000E+00
    0.32742E-19         0.39586E-19         0.00000E+00
    0.32513E-19         0.35654E-19         0.00000E+00
    0.34382E-19         0.29777E-19         0.00000E+00
    0.34432E-19         0.26142E-19         0.00000E+00
    0.36230E-19         0.32216E-19         0.00000E+00
    0.36725E-19         0.32799E-19         0.00000E+00
    0.37773E-19         0.21435E-19         0.00000E+00
    0.37345E-19         0.15961E-19         0.00000E+00
    0.38450E-19         0.85288E-20         0.00000E+00
    0.42379E-19         0.10834E-19         0.00000E+00
    0.43975E-19         0.81361E-20         0.00000E+00
    0.42454E-19         0.74126E-20         0.00000E+00
    0.40855E-19         0.23110E-20         0.00000E+00
    0.67394E-21         0.37402E-19         0.00000E+00
    0.44330E-20         0.40459E-19         0.00000E+00
    0.90575E-20         0.45657E-19         0.00000E+00
    0.12359E-19         0.43907E-19         0.00000E+00
    0.17300E-19         0.42359E-19         0.00000E+00
    0.20486E-19         0.34494E-19         0.00000E+00
    0.22685E-19         0.33375E-19         0.00000E+00
    0.21712E-19         0.42748E-19         0.00000E+00
    0.20474E-19         0.40202E-19         0.00000E+00
    0.20128E-19         0.35842E-19         0.00000E+00
    0.19583E-19         0.41090E-19         0.00000E+00
    0.26430E-19         0.38473E-19         0.00000E+00
    0.35500E-19         0.27926E-19         0.00000E+00
    0.36977E-19         0.34159E-19         0.00000E+00
    0.34483E-19         0.24205E-19         0.00000E+00
    0.36839E-19         0.29998E-19         0.00000E+00
    0.38015E-19         0.33347E-19         0.00000E+00
    0.36895E-19         0.20959E-19         0.00000E+00
    0.38504E-19         0.15256E-19         0.00000E+00
    0.39521E-19         0.71132E-20         0.00000E+00
    0.39629E-19         0.82125E-20         0.00000E+00
    0.40146E-19         0.86443E-20         0.00000E+00
    0.39657E-19         0.89145E-20         0.00000E+00
    0.39149E-19         0.29162E-20         0.00000E+00
    0.23923E-20         0.34336E-19         0.00000E+00
    0.43406E-20         0.37818E-19         0.00000E+00
    0.55652E-20         0.42449E-19         0.00000E+00
    0.99661E-20         0.39413E-19         0.00000E+00
    0.14961E-19         0.36918E-19         0.00000E+00
    0.18658E-19         0.33053E-19         0.00000E+00
    0.17551E-19         0.33725E-19         0.00000E+00
    0.17287E-19         0.43634E-19         0.00000E+00
    0.20674E-19         0.37168E-19         0.00000E+00
    0.19716E-19         0.40178E-19         0.00000E+00
    0.17267E-19         0.39748E-19         0.00000E+00
    0.21113E-19         0.29124E-19         0.00000E+00
    0.25994E-19         0.23324E-19         0.00000E+00
    0.32518E-19         0.30759E-19         0.00000E+00
    0.34302E-19         0.28316E-19         0.00000E+00
    0.29052E-19         0.28780E-19         0.00000E+00
    0.31122E-19         0.31319E-19         0.00000E+00
    0.33640E-19         0.21588E-19         0.00000E+00
    0.33351E-19         0.13306E-19         0.00000E+00
    0.32667E-19         0.87292E-20         0.00000E+00
    0.32455E-19         0.67000E-20         0.00000E+00
    0.33010E-19         0.90854E-20         0.00000E+00
    0.34283E-19         0.76897E-20         0.00000E+00
    0.36455E-19         0.24766E-20         0.00000E+00
   -0.20943E-21         0.32153E-19         0.00000E+00
    0.21129E-20         0.35730E-19         0.00000E+00
    0.76567E-20         0.37768E-19         0.00000E+00
    0.10829E-19         0.36521E-19         0.00000E+00
    0.13067E-19         0.32576E-19         0.00000E+00
    0.15815E-19         0.30949E-19         0.00000E+00
    0.16483E-19         0.36268E-19         0.00000E+00
    0.17000E-19         0.40836E-19         0.00000E+00
    0.17429E-19         0.36150E-19         0.00000E+00
    0.21614E-19         0.37968E-19         0.00000E+00
    0.28003E-19         0.38017E-19         0.00000E+00
    0.27061E-19         0.27951E-19         0.00000E+00
    0.23148E-19         0.23528E-19         0.00000E+00
    0.22889E-19         0.24289E-19         0.00000E+00
    0.25332E-19         0.30560E-19         0.00000E+00
    0.27987E-19         0.29131E-19         0.00000E+00
    0.27738E-19         0.29148E-19         0.00000E+00
    0.29728E-19         0.19252E-19         0.00000E+00
    0.29188E-19         0.16472E-19         0.00000E+00
    0.25403E-19         0.10033E-19         0.00000E+00
    0.24603E-19         0.64079E-20         0.00000E+00
    0.27177E-19         0.62488E-20         0.00000E+00
    0.31455E-19         0.49758E-20         0.00000E+00
    0.32894E-19         0.15789E-20         0.00000E+00
    0.78754E-22         0.32284E-19         0.00000E+00
    0.25678E-20         0.30788E-19         0.00000E+00
    0.68627E-20         0.32872E-19         0.00000E+00
    0.10480E-19         0.34629E-19         0.00000E+00
    0.11872E-19         0.30838E-19         0.00000E+00
    0.10601E-19         0.31211E-19         0.00000E+00
    0.11270E-19         0.34669E-19         0.00000E+00
    0.15705E-19         0.37484E-19         0.00000E+00
    0.19737E-19         0.35042E-19         0.00000E+00
    0.22147E-19         0.32482E-19         0.00000E+00
    0.26642E-19         0.32619E-19         0.00000E+00
    0.27818E-19         0.33116E-19         0.00000E+00
    0.24568E-19         0.25527E-19         0.00000E+00
    0.23614E-19         0.23502E-19         0.00000E+00
    0.24981E-19         0.27537E-19         0.00000E+00
    0.25823E-19         0.28659E-19         0.00000E+00
    0.29738E-19         0.25954E-19         0.00000E+00
    0.33352E-19         0.16841E-19         0.00000E+00
    0.34741E-19         0.18033E-19         0.00000E+00
    0.33490E-19         0.13508E-19         0.00000E+00
    0.30504E-19         0.67183E-20         0.00000E+00
    0.30232E-19         0.36362E-20         0.00000E+00
    0.30147E-19         0.33962E-20         0.00000E+00
    0.31027E-19         0.83840E-21         0.00000E+00
    0.10440E-20         0.31161E-19         0.00000E+00
    0.28062E-20         0.27660E-19         0.00000E+00
    0.52665E-20         0.29245E-19         0.00000E+00
    0.88490E-20         0.31056E-19         0.00000E+00
    0.10895E-19         0.30972E-19         0.00000E+00
    0.11627E-19         0.31615E-19         0.00000E+00
    0.13133E-19         0.32088E-19         0.00000E+00
    0.16779E-19         0.31983E-19         0.00000E+00
    0.21886E-19         0.31404E-19         0.00000E+00
    0.25538E-19         0.30060E-19         0.00000E+00
    0.23429E-19         0.32655E-19         0.00000E+00
    0.24882E-19         0.30449E-19         0.00000E+00
    0.28077E-19         0.28248E-19         0.00000E+00
    0.25065E-19         0.24747E-19         0.00000E+00
    0.23447E-19         0.26544E-19         0.00000E+00
    0.24398E-19         0.27859E-19         0.00000E+00
    0.28894E-19         0.18342E-19         0.00000E+00
    0.31389E-19         0.18344E-19         0.00000E+00
    0.30607E-19         0.15924E-19         0.00000E+00
    0.32674E-19         0.14801E-19         0.00000E+00
    0.33247E-19         0.78384E-20         0.00000E+00
    0.31437E-19         0.45985E-20         0.00000E+00
    0.31671E-19         0.22846E-20         0.00000E+00
    0.32548E-19         0.19228E-21         0.00000E+00
    0.21375E-20         0.27980E-19         0.00000E+00
    0.46890E-20         0.26528E-19         0.00000E+00
    0.55894E-20         0.27016E-19         0.00000E+00
    0.69480E-20         0.28344E-19         0.00000E+00
    0.86092E-20         0.29978E-19         0.00000E+00
    0.10183E-19         0.30305E-19         0.00000E+00
    0.11552E-19         0.30524E-19         0.00000E+00
    0.13078E-19         0.28375E-19         0.00000E+00
    0.15513E-19         0.27471E-19         0.00000E+00
    0.18051E-19         0.27802E-19         0.00000E+00
    0.22245E-19         0.32828E-19         0.00000E+00
    0.24045E-19         0.27023E-19         0.00000E+00
    0.24922E-19         0.27601E-19         0.00000E+00
    0.25411E-19         0.27917E-19         0.00000E+00
    0.25365E-19         0.25038E-19         0.00000E+00
    0.30359E-19         0.23419E-19         0.00000E+00
    0.31079E-19         0.17567E-19         0.00000E+00
    0.28443E-19         0.19259E-19         0.00000E+00
    0.27933E-19         0.16300E-19         0.00000E+00
    0.29235E-19         0.11057E-19         0.00000E+00
    0.31796E-19         0.84489E-20         0.00000E+00
    0.32830E-19         0.47641E-20         0.00000E+00
    0.32951E-19         0.17634E-20         0.00000E+00
    0.32559E-19         0.22804E-21         0.00000E+00
    0.10277E-20         0.24814E-19         0.00000E+00
    0.27304E-20         0.25439E-19         0.00000E+00
    0.37813E-20         0.26154E-19         0.00000E+00
    0.48187E-20         0.26810E-19         0.00000E+00
    0.67667E-20         0.27902E-19         0.00000E+00
    0.87954E-20         0.28777E-19         0.00000E+00
    0.85597E-20         0.30919E-19         0.00000E+00
    0.93218E-20         0.25692E-19         0.00000E+00
    0.10423E-19         0.26618E-19         0.00000E+00
    0.11142E-19         0.25397E-19         0.00000E+00
    0.16469E-19         0.25712E-19         0.00000E+00
    0.21443E-19         0.27366E-19         0.00000E+00
    0.21778E-19         0.26046E-19         0.00000E+00
    0.21035E-19         0.29726E-19         0.00000E+00
    0.21174E-19         0.23137E-19         0.00000E+00
    0.23186E-19         0.18313E-19         0.00000E+00
    0.26630E-19         0.18509E-19         0.00000E+00
    0.29734E-19         0.17849E-19         0.00000E+00
    0.33455E-19         0.14499E-19         0.00000E+00
    0.34582E-19         0.10430E-19         0.00000E+00
    0.33396E-19         0.77007E-20         0.00000E+00
    0.33829E-19         0.40453E-20         0.00000E+00
    0.33138E-19         0.30518E-20         0.00000E+00
    0.31542E-19         0.92766E-21         0.00000E+00
    0.62062E-21         0.23166E-19         0.00000E+00
    0.19309E-20         0.24074E-19         0.00000E+00
    0.33258E-20         0.25073E-19         0.00000E+00
    0.45651E-20         0.25614E-19         0.00000E+00
    0.51198E-20         0.26595E-19         0.00000E+00
    0.38834E-20         0.29292E-19         0.00000E+00
    0.58435E-20         0.28679E-19         0.00000E+00
    0.99104E-20         0.23102E-19         0.00000E+00
    0.14018E-19         0.23999E-19         0.00000E+00
    0.16781E-19         0.24534E-19         0.00000E+00
    0.14132E-19         0.23897E-19         0.00000E+00
    0.14109E-19         0.24230E-19         0.00000E+00
    0.17626E-19         0.25331E-19         0.00000E+00
    0.21145E-19         0.27665E-19         0.00000E+00
    0.22145E-19         0.24059E-19         0.00000E+00
    0.21315E-19         0.16208E-19         0.00000E+00
    0.23764E-19         0.14722E-19         0.00000E+00
    0.28311E-19         0.13985E-19         0.00000E+00
    0.29463E-19         0.13490E-19         0.00000E+00
    0.29426E-19         0.10348E-19         0.00000E+00
    0.30825E-19         0.75687E-20         0.00000E+00
    0.30359E-19         0.42108E-20         0.00000E+00
    0.29942E-19         0.39937E-20         0.00000E+00
    0.30154E-19         0.13701E-20         0.00000E+00
    0.57780E-21         0.21968E-19         0.00000E+00
    0.18957E-20         0.22644E-19         0.00000E+00
    0.34682E-20         0.23535E-19         0.00000E+00
    0.47829E-20         0.24598E-19         0.00000E+00
    0.55224E-20         0.26317E-19         0.00000E+00
    0.78023E-20         0.28527E-19         0.00000E+00
    0.10287E-19         0.25000E-19         0.00000E+00
    0.10618E-19         0.22384E-19         0.00000E+00
    0.12091E-19         0.19136E-19         0.00000E+00
    0.14287E-19         0.24438E-19         0.00000E+00
    0.13965E-19         0.26964E-19         0.00000E+00
    0.13778E-19         0.21374E-19         0.00000E+00
    0.16556E-19         0.21894E-19         0.00000E+00
    0.20432E-19         0.23707E-19         0.00000E+00
    0.23785E-19         0.23664E-19         0.00000E+00
    0.25786E-19         0.15432E-19         0.00000E+00
    0.26214E-19         0.12622E-19         0.00000E+00
    0.23854E-19         0.13898E-19         0.00000E+00
    0.23071E-19         0.13208E-19         0.00000E+00
    0.24276E-19         0.94622E-20         0.00000E+00
    0.24793E-19         0.65391E-20         0.00000E+00
    0.26179E-19         0.43207E-20         0.00000E+00
    0.26880E-19         0.35990E-20         0.00000E+00
    0.27146E-19         0.12871E-20         0.00000E+00
    0.61611E-21         0.20774E-19         0.00000E+00
    0.19410E-20         0.21195E-19         0.00000E+00
    0.32495E-20         0.22103E-19         0.00000E+00
    0.50781E-20         0.22887E-19         0.00000E+00
    0.78909E-20         0.24476E-19         0.00000E+00
    0.11194E-19         0.24785E-19         0.00000E+00
    0.13656E-19         0.23795E-19         0.00000E+00
    0.13773E-19         0.23140E-19         0.00000E+00
    0.10498E-19         0.20182E-19         0.00000E+00
    0.89513E-20         0.22743E-19         0.00000E+00
    0.13813E-19         0.24118E-19         0.00000E+00
    0.18379E-19         0.19840E-19         0.00000E+00
    0.19267E-19         0.19762E-19         0.00000E+00
    0.20830E-19         0.20400E-19         0.00000E+00
    0.24486E-19         0.19961E-19         0.00000E+00
    0.26224E-19         0.15395E-19         0.00000E+00
    0.24924E-19         0.13531E-19         0.00000E+00
    0.24368E-19         0.15905E-19         0.00000E+00
    0.25666E-19         0.10687E-19         0.00000E+00
    0.26867E-19         0.95780E-20         0.00000E+00
    0.26594E-19         0.61792E-20         0.00000E+00
    0.25526E-19         0.43628E-20         0.00000E+00
    0.24934E-19         0.34469E-20         0.00000E+00
    0.24904E-19         0.12033E-20         0.00000E+00
    0.72627E-21         0.19431E-19         0.00000E+00
    0.23869E-20         0.19552E-19         0.00000E+00
    0.41954E-20         0.20629E-19         0.00000E+00
    0.54824E-20         0.21245E-19         0.00000E+00
    0.75910E-20         0.21196E-19         0.00000E+00
    0.10714E-19         0.21639E-19         0.00000E+00
    0.13529E-19         0.21664E-19         0.00000E+00
    0.13798E-19         0.24885E-19         0.00000E+00
    0.12959E-19         0.22551E-19         0.00000E+00
    0.13764E-19         0.21116E-19         0.00000E+00
    0.15736E-19         0.18911E-19         0.00000E+00
    0.16663E-19         0.19554E-19         0.00000E+00
    0.17407E-19         0.18417E-19         0.00000E+00
    0.20127E-19         0.17461E-19         0.00000E+00
    0.23734E-19         0.15638E-19         0.00000E+00
    0.25192E-19         0.16522E-19         0.00000E+00
    0.24899E-19         0.13997E-19         0.00000E+00
    0.26647E-19         0.14247E-19         0.00000E+00
    0.26125E-19         0.11569E-19         0.00000E+00
    0.23982E-19         0.96379E-20         0.00000E+00
    0.23849E-19         0.65254E-20         0.00000E+00
    0.23814E-19         0.51197E-20         0.00000E+00
    0.23712E-19         0.33837E-20         0.00000E+00
    0.24329E-19         0.67882E-21         0.00000E+00
    0.10834E-20         0.17622E-19         0.00000E+00
    0.24972E-20         0.18287E-19         0.00000E+00
    0.32902E-20         0.19293E-19         0.00000E+00
    0.46474E-20         0.19938E-19         0.00000E+00
    0.62839E-20         0.18759E-19         0.00000E+00
    0.79545E-20         0.19283E-19         0.00000E+00
    0.87634E-20         0.20395E-19         0.00000E+00
    0.10367E-19         0.24282E-19         0.00000E+00
    0.12571E-19         0.21788E-19         0.00000E+00
    0.14346E-19         0.19299E-19         0.00000E+00
    0.15069E-19         0.18032E-19         0.00000E+00
    0.15886E-19         0.18689E-19         0.00000E+00
    0.17387E-19         0.17038E-19         0.00000E+00
    0.18019E-19         0.15486E-19         0.00000E+00
    0.17908E-19         0.14117E-19         0.00000E+00
    0.19230E-19         0.15264E-19         0.00000E+00
    0.21835E-19         0.12943E-19         0.00000E+00
    0.22053E-19         0.13334E-19         0.00000E+00
    0.20573E-19         0.14484E-19         0.00000E+00
    0.19955E-19         0.94838E-20         0.00000E+00
    0.21428E-19         0.53398E-20         0.00000E+00
    0.22715E-19         0.50525E-20         0.00000E+00
    0.23749E-19         0.25187E-20         0.00000E+00
    0.24417E-19         0.25856E-21         0.00000E+00
    0.10525E-20         0.15486E-19         0.00000E+00
    0.26690E-20         0.17393E-19         0.00000E+00
    0.38771E-20         0.18186E-19         0.00000E+00
    0.50672E-20         0.18497E-19         0.00000E+00
    0.60467E-20         0.17584E-19         0.00000E+00
    0.65469E-20         0.18287E-19         0.00000E+00
    0.72041E-20         0.19925E-19         0.00000E+00
    0.10400E-19         0.19953E-19         0.00000E+00
    0.13595E-19         0.20718E-19         0.00000E+00
    0.14601E-19         0.17589E-19         0.00000E+00
    0.15980E-19         0.17641E-19         0.00000E+00
    0.17096E-19         0.17146E-19         0.00000E+00
    0.17635E-19         0.16543E-19         0.00000E+00
    0.17905E-19         0.15079E-19         0.00000E+00
    0.17249E-19         0.15292E-19         0.00000E+00
    0.18324E-19         0.11692E-19         0.00000E+00
    0.19923E-19         0.12310E-19         0.00000E+00
    0.20328E-19         0.13344E-19         0.00000E+00
    0.22126E-19         0.14156E-19         0.00000E+00
    0.23592E-19         0.89632E-20         0.00000E+00
    0.23433E-19         0.45470E-20         0.00000E+00
    0.23352E-19         0.46390E-20         0.00000E+00
    0.23290E-19         0.19594E-20         0.00000E+00
    0.22775E-19         0.66559E-21         0.00000E+00
    0.42627E-21         0.14007E-19         0.00000E+00
    0.17533E-20         0.15928E-19         0.00000E+00
    0.36603E-20         0.16536E-19         0.00000E+00
    0.54646E-20         0.17153E-19         0.00000E+00
    0.65546E-20         0.16858E-19         0.00000E+00
    0.75308E-20         0.17536E-19         0.00000E+00
    0.92103E-20         0.18340E-19         0.00000E+00
    0.10768E-19         0.16785E-19         0.00000E+00
    0.13919E-19         0.17540E-19         0.00000E+00
    0.16711E-19         0.16967E-19         0.00000E+00
    0.16229E-19         0.17366E-19         0.00000E+00
    0.15425E-19         0.17107E-19         0.00000E+00
    0.16526E-19         0.14943E-19         0.00000E+00
    0.17583E-19         0.15350E-19         0.00000E+00
    0.18049E-19         0.15211E-19         0.00000E+00
    0.17333E-19         0.11414E-19         0.00000E+00
    0.16285E-19         0.12038E-19         0.00000E+00
    0.17472E-19         0.12024E-19         0.00000E+00
    0.19193E-19         0.11958E-19         0.00000E+00
    0.20275E-19         0.86126E-20         0.00000E+00
    0.20427E-19         0.49052E-20         0.00000E+00
    0.20852E-19         0.39373E-20         0.00000E+00
    0.21070E-19         0.25038E-20         0.00000E+00
    0.20878E-19         0.82930E-21         0.00000E+00
    0.61019E-21         0.12971E-19         0.00000E+00
    0.12212E-20         0.15027E-19         0.00000E+00
    0.24189E-20         0.14333E-19         0.00000E+00
    0.50801E-20         0.14890E-19         0.00000E+00
    0.70027E-20         0.16108E-19         0.00000E+00
    0.86564E-20         0.15657E-19         0.00000E+00
    0.10902E-19         0.16294E-19         0.00000E+00
    0.12682E-19         0.15493E-19         0.00000E+00
    0.13160E-19         0.15204E-19         0.00000E+00
    0.11673E-19         0.17999E-19         0.00000E+00
    0.10585E-19         0.17905E-19         0.00000E+00
    0.12647E-19         0.15310E-19         0.00000E+00
    0.13963E-19         0.14325E-19         0.00000E+00
    0.14090E-19         0.14784E-19         0.00000E+00
    0.14898E-19         0.14503E-19         0.00000E+00
    0.13092E-19         0.14644E-19         0.00000E+00
    0.12204E-19         0.10745E-19         0.00000E+00
    0.13893E-19         0.10440E-19         0.00000E+00
    0.15289E-19         0.10426E-19         0.00000E+00
    0.17141E-19         0.72100E-20         0.00000E+00
    0.18522E-19         0.47744E-20         0.00000E+00
    0.18796E-19         0.33691E-20         0.00000E+00
    0.19177E-19         0.24732E-20         0.00000E+00
    0.19584E-19         0.64485E-21         0.00000E+00
    0.18375E-21         0.12177E-19         0.00000E+00
    0.13681E-20         0.14025E-19         0.00000E+00
    0.36130E-20         0.11891E-19         0.00000E+00
    0.58111E-20         0.12473E-19         0.00000E+00
    0.76902E-20         0.14724E-19         0.00000E+00
    0.88791E-20         0.14198E-19         0.00000E+00
    0.96654E-20         0.14721E-19         0.00000E+00
    0.98300E-20         0.15121E-19         0.00000E+00
    0.82265E-20         0.16701E-19         0.00000E+00
    0.79434E-20         0.18271E-19         0.00000E+00
    0.91833E-20         0.17481E-19         0.00000E+00
    0.93226E-20         0.13533E-19         0.00000E+00
    0.10308E-19         0.13801E-19         0.00000E+00
    0.11365E-19         0.14123E-19         0.00000E+00
    0.11933E-19         0.13789E-19         0.00000E+00
    0.13928E-19         0.15169E-19         0.00000E+00
    0.14056E-19         0.10979E-19         0.00000E+00
    0.13768E-19         0.88034E-20         0.00000E+00
    0.15210E-19         0.92255E-20         0.00000E+00
    0.16427E-19         0.53419E-20         0.00000E+00
    0.17190E-19         0.44984E-20         0.00000E+00
    0.17284E-19         0.32774E-20         0.00000E+00
    0.17810E-19         0.16587E-20         0.00000E+00
    0.18443E-19         0.41864E-21         0.00000E+00
    0.37768E-21         0.11615E-19         0.00000E+00
    0.17288E-20         0.12051E-19         0.00000E+00
    0.28020E-20         0.10547E-19         0.00000E+00
    0.35256E-20         0.10895E-19         0.00000E+00
    0.52186E-20         0.12730E-19         0.00000E+00
    0.62556E-20         0.13966E-19         0.00000E+00
    0.64023E-20         0.14020E-19         0.00000E+00
    0.64623E-20         0.15598E-19         0.00000E+00
    0.76984E-20         0.16592E-19         0.00000E+00
    0.10587E-19         0.15775E-19         0.00000E+00
    0.12804E-19         0.16520E-19         0.00000E+00
    0.13150E-19         0.14009E-19         0.00000E+00
    0.12246E-19         0.13243E-19         0.00000E+00
    0.11875E-19         0.13993E-19         0.00000E+00
    0.12919E-19         0.12308E-19         0.00000E+00
    0.14730E-19         0.12844E-19         0.00000E+00
    0.16124E-19         0.11783E-19         0.00000E+00
    0.16003E-19         0.84089E-20         0.00000E+00
    0.16062E-19         0.81190E-20         0.00000E+00
    0.16009E-19         0.52841E-20         0.00000E+00
    0.15967E-19         0.38352E-20         0.00000E+00
    0.17340E-19         0.24740E-20         0.00000E+00
    0.18022E-19         0.12537E-20         0.00000E+00
    0.17810E-19         0.40291E-21         0.00000E+00
    0.89159E-21         0.10346E-19         0.00000E+00
    0.21092E-20         0.10752E-19         0.00000E+00
    0.24670E-20         0.10416E-19         0.00000E+00
    0.27705E-20         0.99996E-20         0.00000E+00
    0.39133E-20         0.10789E-19         0.00000E+00
    0.61024E-20         0.12680E-19         0.00000E+00
    0.73688E-20         0.13892E-19         0.00000E+00
    0.84968E-20         0.14537E-19         0.00000E+00
    0.10278E-19         0.14635E-19         0.00000E+00
    0.10626E-19         0.14496E-19         0.00000E+00
    0.11014E-19         0.15193E-19         0.00000E+00
    0.12293E-19         0.13712E-19         0.00000E+00
    0.13039E-19         0.13698E-19         0.00000E+00
    0.13568E-19         0.13381E-19         0.00000E+00
    0.13770E-19         0.11674E-19         0.00000E+00
    0.14299E-19         0.11136E-19         0.00000E+00
    0.15495E-19         0.10900E-19         0.00000E+00
    0.15793E-19         0.91152E-20         0.00000E+00
    0.15779E-19         0.73677E-20         0.00000E+00
    0.15814E-19         0.60532E-20         0.00000E+00
    0.15890E-19         0.30324E-20         0.00000E+00
    0.16329E-19         0.14647E-20         0.00000E+00
    0.16701E-19         0.12087E-20         0.00000E+00
    0.16749E-19         0.61180E-21         0.00000E+00
    0.68146E-21         0.87730E-20         0.00000E+00
    0.25059E-20         0.92828E-20         0.00000E+00
    0.49060E-20         0.91265E-20         0.00000E+00
    0.62974E-20         0.95937E-20         0.00000E+00
    0.60248E-20         0.10325E-19         0.00000E+00
    0.59296E-20         0.11051E-19         0.00000E+00
    0.68137E-20         0.13371E-19         0.00000E+00
    0.74278E-20         0.13316E-19         0.00000E+00
    0.85978E-20         0.12904E-19         0.00000E+00
    0.10119E-19         0.14357E-19         0.00000E+00
    0.10227E-19         0.14837E-19         0.00000E+00
    0.10077E-19         0.12941E-19         0.00000E+00
    0.10454E-19         0.13345E-19         0.00000E+00
    0.11187E-19         0.12471E-19         0.00000E+00
    0.12144E-19         0.11425E-19         0.00000E+00
    0.12431E-19         0.10569E-19         0.00000E+00
    0.12524E-19         0.10180E-19         0.00000E+00
    0.13705E-19         0.83566E-20         0.00000E+00
    0.14398E-19         0.74475E-20         0.00000E+00
    0.14783E-19         0.55532E-20         0.00000E+00
    0.15428E-19         0.28122E-20         0.00000E+00
    0.15362E-19         0.13122E-20         0.00000E+00
    0.15282E-19         0.10683E-20         0.00000E+00
    0.15385E-19         0.60145E-21         0.00000E+00
    0.67902E-21         0.74125E-20         0.00000E+00
    0.18107E-20         0.76873E-20         0.00000E+00
    0.23802E-20         0.77523E-20         0.00000E+00
    0.38559E-20         0.81007E-20         0.00000E+00
    0.62728E-20         0.96739E-20         0.00000E+00
    0.66533E-20         0.11416E-19         0.00000E+00
    0.65514E-20         0.12224E-19         0.00000E+00
    0.77622E-20         0.12639E-19         0.00000E+00
    0.75378E-20         0.12636E-19         0.00000E+00
    0.79483E-20         0.12693E-19         0.00000E+00
    0.99718E-20         0.14370E-19         0.00000E+00
    0.99973E-20         0.13532E-19         0.00000E+00
    0.97548E-20         0.12619E-19         0.00000E+00
    0.10509E-19         0.11709E-19         0.00000E+00
    0.10958E-19         0.10781E-19         0.00000E+00
    0.11313E-19         0.10572E-19         0.00000E+00
    0.12067E-19         0.93298E-20         0.00000E+00
    0.12757E-19         0.73352E-20         0.00000E+00
    0.13638E-19         0.68952E-20         0.00000E+00
    0.14303E-19         0.50553E-20         0.00000E+00
    0.14036E-19         0.29321E-20         0.00000E+00
    0.13806E-19         0.14884E-20         0.00000E+00
    0.13855E-19         0.92229E-21         0.00000E+00
    0.14086E-19         0.41441E-21         0.00000E+00
    0.31834E-21         0.64152E-20         0.00000E+00
    0.94188E-21         0.69294E-20         0.00000E+00
    0.18391E-20         0.70434E-20         0.00000E+00
    0.21741E-20         0.69988E-20         0.00000E+00
    0.20857E-20         0.84473E-20         0.00000E+00
    0.30842E-20         0.11264E-19         0.00000E+00
    0.42899E-20         0.11272E-19         0.00000E+00
    0.50949E-20         0.11574E-19         0.00000E+00
    0.60633E-20         0.12956E-19         0.00000E+00
    0.68530E-20         0.11172E-19         0.00000E+00
    0.76557E-20         0.13065E-19         0.00000E+00
    0.88981E-20         0.13569E-19         0.00000E+00
    0.97199E-20         0.12003E-19         0.00000E+00
    0.98801E-20         0.11411E-19         0.00000E+00
    0.96151E-20         0.10895E-19         0.00000E+00
    0.98614E-20         0.98570E-20         0.00000E+00
    0.10675E-19         0.84755E-20         0.00000E+00
    0.11338E-19         0.68378E-20         0.00000E+00
    0.11987E-19         0.58627E-20         0.00000E+00
    0.12669E-19         0.47413E-20         0.00000E+00
    0.13187E-19         0.29945E-20         0.00000E+00
    0.13305E-19         0.15380E-20         0.00000E+00
    0.13157E-19         0.97128E-21         0.00000E+00
    0.12973E-19         0.31918E-21         0.00000E+00
    0.37905E-21         0.57178E-20         0.00000E+00
    0.92152E-21         0.64608E-20         0.00000E+00
    0.11695E-20         0.63669E-20         0.00000E+00
    0.17320E-20         0.67777E-20         0.00000E+00
    0.22342E-20         0.82546E-20         0.00000E+00
    0.31918E-20         0.95005E-20         0.00000E+00
    0.36637E-20         0.11358E-19         0.00000E+00
    0.27242E-20         0.11623E-19         0.00000E+00
    0.37644E-20         0.10899E-19         0.00000E+00
    0.61017E-20         0.10102E-19         0.00000E+00
    0.76275E-20         0.11806E-19         0.00000E+00
    0.87565E-20         0.12457E-19         0.00000E+00
    0.96901E-20         0.11360E-19         0.00000E+00
    0.10452E-19         0.11132E-19         0.00000E+00
    0.10485E-19         0.11406E-19         0.00000E+00
    0.10376E-19         0.92081E-20         0.00000E+00
    0.10677E-19         0.80100E-20         0.00000E+00
    0.11108E-19         0.62093E-20         0.00000E+00
    0.11674E-19         0.52762E-20         0.00000E+00
    0.12317E-19         0.40035E-20         0.00000E+00
    0.12584E-19         0.29459E-20         0.00000E+00
    0.12437E-19         0.16159E-20         0.00000E+00
    0.12243E-19         0.12351E-20         0.00000E+00
    0.12055E-19         0.42787E-21         0.00000E+00
    0.15238E-21         0.51864E-20         0.00000E+00
    0.61971E-21         0.59825E-20         0.00000E+00
    0.10024E-20         0.62147E-20         0.00000E+00
    0.15488E-20         0.58210E-20         0.00000E+00
    0.26200E-20         0.76379E-20         0.00000E+00
    0.35517E-20         0.82279E-20         0.00000E+00
    0.49128E-20         0.10798E-19         0.00000E+00
    0.58064E-20         0.12229E-19         0.00000E+00
    0.57578E-20         0.93012E-20         0.00000E+00
    0.61974E-20         0.89234E-20         0.00000E+00
    0.66176E-20         0.11039E-19         0.00000E+00
    0.74025E-20         0.11310E-19         0.00000E+00
    0.84823E-20         0.10493E-19         0.00000E+00
    0.94540E-20         0.10265E-19         0.00000E+00
    0.10844E-19         0.10850E-19         0.00000E+00
    0.11910E-19         0.88076E-20         0.00000E+00
    0.12271E-19         0.77483E-20         0.00000E+00
    0.11638E-19         0.66724E-20         0.00000E+00
    0.11210E-19         0.46761E-20         0.00000E+00
    0.11462E-19         0.37086E-20         0.00000E+00
    0.11251E-19         0.31843E-20         0.00000E+00
    0.10944E-19         0.18307E-20         0.00000E+00
    0.10813E-19         0.13460E-20         0.00000E+00
    0.10777E-19         0.54051E-21         0.00000E+00
    0.24071E-21         0.47933E-20         0.00000E+00
    0.27283E-21         0.58761E-20         0.00000E+00
    0.28624E-21         0.59250E-20         0.00000E+00
    0.42721E-21         0.54233E-20         0.00000E+00
    0.10326E-20         0.63589E-20         0.00000E+00
    0.20448E-20         0.75629E-20         0.00000E+00
    0.26318E-20         0.95149E-20         0.00000E+00
    0.46088E-20         0.10642E-19         0.00000E+00
    0.62782E-20         0.92678E-20         0.00000E+00
    0.58003E-20         0.89951E-20         0.00000E+00
    0.57597E-20         0.10588E-19         0.00000E+00
    0.65987E-20         0.10137E-19         0.00000E+00
    0.72134E-20         0.99713E-20         0.00000E+00
    0.77859E-20         0.92432E-20         0.00000E+00
    0.90712E-20         0.91965E-20         0.00000E+00
    0.97540E-20         0.87129E-20         0.00000E+00
    0.95918E-20         0.76435E-20         0.00000E+00
    0.10226E-19         0.67761E-20         0.00000E+00
    0.10506E-19         0.47210E-20         0.00000E+00
    0.10075E-19         0.38425E-20         0.00000E+00
    0.99769E-20         0.33597E-20         0.00000E+00
    0.98814E-20         0.20571E-20         0.00000E+00
    0.96832E-20         0.14491E-20         0.00000E+00
    0.96148E-20         0.54140E-21         0.00000E+00
   -0.49138E-21         0.50439E-20         0.00000E+00
   -0.61245E-21         0.57144E-20         0.00000E+00
    0.35022E-21         0.51106E-20         0.00000E+00
    0.11187E-20         0.53282E-20         0.00000E+00
    0.11315E-20         0.58359E-20         0.00000E+00
    0.11821E-20         0.70231E-20         0.00000E+00
    0.21347E-20         0.85151E-20         0.00000E+00
    0.27654E-20         0.90337E-20         0.00000E+00
    0.31478E-20         0.88240E-20         0.00000E+00
    0.42684E-20         0.87964E-20         0.00000E+00
    0.56160E-20         0.94792E-20         0.00000E+00
    0.62698E-20         0.97528E-20         0.00000E+00
    0.62129E-20         0.97980E-20         0.00000E+00
    0.65192E-20         0.85377E-20         0.00000E+00
    0.71013E-20         0.80344E-20         0.00000E+00
    0.76174E-20         0.86762E-20         0.00000E+00
    0.80424E-20         0.74175E-20         0.00000E+00
    0.85645E-20         0.58459E-20         0.00000E+00
    0.88659E-20         0.50698E-20         0.00000E+00
    0.86523E-20         0.41384E-20         0.00000E+00
    0.85433E-20         0.32709E-20         0.00000E+00
    0.85035E-20         0.22814E-20         0.00000E+00
    0.84650E-20         0.14616E-20         0.00000E+00
    0.85862E-20         0.47617E-21         0.00000E+00
    0.40548E-21         0.51298E-20         0.00000E+00
    0.88620E-21         0.52688E-20         0.00000E+00
    0.71201E-21         0.47677E-20         0.00000E+00
    0.10500E-20         0.45646E-20         0.00000E+00
    0.18436E-20         0.57931E-20         0.00000E+00
    0.21150E-20         0.67439E-20         0.00000E+00
    0.22934E-20         0.76633E-20         0.00000E+00
    0.22539E-20         0.92943E-20         0.00000E+00
    0.21983E-20         0.82366E-20         0.00000E+00
    0.24881E-20         0.79734E-20         0.00000E+00
    0.32433E-20         0.81995E-20         0.00000E+00
    0.40069E-20         0.96151E-20         0.00000E+00
    0.43841E-20         0.96153E-20         0.00000E+00
    0.48763E-20         0.79220E-20         0.00000E+00
    0.53986E-20         0.75457E-20         0.00000E+00
    0.60719E-20         0.79755E-20         0.00000E+00
    0.68343E-20         0.69308E-20         0.00000E+00
    0.71512E-20         0.54935E-20         0.00000E+00
    0.72872E-20         0.49848E-20         0.00000E+00
    0.74753E-20         0.42489E-20         0.00000E+00
    0.74042E-20         0.33404E-20         0.00000E+00
    0.73388E-20         0.23171E-20         0.00000E+00
    0.74694E-20         0.13337E-20         0.00000E+00
    0.75036E-20         0.44860E-21         0.00000E+00
    0.73685E-22         0.46507E-20         0.00000E+00
    0.68741E-21         0.46535E-20         0.00000E+00
    0.13966E-20         0.48480E-20         0.00000E+00
    0.15164E-20         0.40265E-20         0.00000E+00
    0.13881E-20         0.56659E-20         0.00000E+00
    0.10375E-20         0.69503E-20         0.00000E+00
    0.92868E-21         0.73873E-20         0.00000E+00
    0.18285E-20         0.87100E-20         0.00000E+00
    0.25503E-20         0.81548E-20         0.00000E+00
    0.26004E-20         0.77152E-20         0.00000E+00
    0.23619E-20         0.79410E-20         0.00000E+00
    0.22794E-20         0.91926E-20         0.00000E+00
    0.28989E-20         0.90411E-20         0.00000E+00
    0.33566E-20         0.75464E-20         0.00000E+00
    0.41801E-20         0.65755E-20         0.00000E+00
    0.51421E-20         0.73104E-20         0.00000E+00
    0.53495E-20         0.66262E-20         0.00000E+00
    0.54043E-20         0.54264E-20         0.00000E+00
    0.55387E-20         0.47814E-20         0.00000E+00
    0.58101E-20         0.39928E-20         0.00000E+00
    0.60347E-20         0.34430E-20         0.00000E+00
    0.61731E-20         0.21416E-20         0.00000E+00
    0.62796E-20         0.12721E-20         0.00000E+00
    0.63082E-20         0.44738E-21         0.00000E+00
    0.62068E-21         0.39563E-20         0.00000E+00
    0.10513E-20         0.43036E-20         0.00000E+00
    0.80488E-21         0.47351E-20         0.00000E+00
    0.12842E-20         0.35402E-20         0.00000E+00
    0.19717E-20         0.55929E-20         0.00000E+00
    0.15919E-20         0.77537E-20         0.00000E+00
    0.89472E-21         0.73901E-20         0.00000E+00
    0.11613E-20         0.75409E-20         0.00000E+00
    0.19838E-20         0.77796E-20         0.00000E+00
    0.23079E-20         0.77161E-20         0.00000E+00
    0.23178E-20         0.81687E-20         0.00000E+00
    0.22284E-20         0.91368E-20         0.00000E+00
    0.22281E-20         0.84777E-20         0.00000E+00
    0.25988E-20         0.72814E-20         0.00000E+00
    0.25843E-20         0.60314E-20         0.00000E+00
    0.30710E-20         0.64058E-20         0.00000E+00
    0.38306E-20         0.65638E-20         0.00000E+00
    0.39238E-20         0.53409E-20         0.00000E+00
    0.41710E-20         0.44854E-20         0.00000E+00
    0.44549E-20         0.37335E-20         0.00000E+00
    0.48203E-20         0.31123E-20         0.00000E+00
    0.50580E-20         0.20961E-20         0.00000E+00
    0.50467E-20         0.12223E-20         0.00000E+00
    0.51095E-20         0.40592E-21         0.00000E+00
    0.87237E-21         0.24633E-20         0.00000E+00
    0.19595E-20         0.42789E-20         0.00000E+00
    0.16221E-20         0.53436E-20         0.00000E+00
    0.67869E-21         0.33958E-20         0.00000E+00
    0.46628E-21         0.52622E-20         0.00000E+00
    0.11599E-20         0.77705E-20         0.00000E+00
    0.15834E-20         0.76470E-20         0.00000E+00
    0.11068E-20         0.74939E-20         0.00000E+00
    0.67282E-21         0.74381E-20         0.00000E+00
    0.85518E-21         0.75511E-20         0.00000E+00
    0.99237E-21         0.81866E-20         0.00000E+00
    0.12655E-20         0.89351E-20         0.00000E+00
    0.20308E-20         0.79144E-20         0.00000E+00
    0.22783E-20         0.72264E-20         0.00000E+00
    0.19605E-20         0.64187E-20         0.00000E+00
    0.18373E-20         0.56551E-20         0.00000E+00
    0.22836E-20         0.61085E-20         0.00000E+00
    0.29515E-20         0.50350E-20         0.00000E+00
    0.32756E-20         0.42200E-20         0.00000E+00
    0.34654E-20         0.35252E-20         0.00000E+00
    0.36035E-20         0.28173E-20         0.00000E+00
    0.37443E-20         0.20126E-20         0.00000E+00
    0.38783E-20         0.11831E-20         0.00000E+00
    0.38943E-20         0.36632E-21         0.00000E+00
    0.46037E-21         0.11305E-20         0.00000E+00
    0.12163E-20         0.37686E-20         0.00000E+00
    0.13841E-20         0.60236E-20         0.00000E+00
   -0.31110E-22         0.50744E-20         0.00000E+00
   -0.12658E-20         0.50307E-20         0.00000E+00
   -0.17803E-21         0.62206E-20         0.00000E+00
    0.10129E-20         0.75825E-20         0.00000E+00
    0.91214E-21         0.81357E-20         0.00000E+00
    0.76344E-21         0.73790E-20         0.00000E+00
    0.90774E-21         0.72836E-20         0.00000E+00
    0.11777E-20         0.80469E-20         0.00000E+00
    0.15457E-20         0.84336E-20         0.00000E+00
    0.15414E-20         0.76550E-20         0.00000E+00
    0.14071E-20         0.73725E-20         0.00000E+00
    0.14636E-20         0.65339E-20         0.00000E+00
    0.14738E-20         0.56529E-20         0.00000E+00
    0.18252E-20         0.53130E-20         0.00000E+00
    0.22750E-20         0.47128E-20         0.00000E+00
    0.24010E-20         0.40922E-20         0.00000E+00
    0.25076E-20         0.33566E-20         0.00000E+00
    0.26149E-20         0.27405E-20         0.00000E+00
    0.26954E-20         0.18681E-20         0.00000E+00
    0.27400E-20         0.11491E-20         0.00000E+00
    0.27719E-20         0.35246E-21         0.00000E+00
   -0.35372E-21         0.10239E-20         0.00000E+00
   -0.74902E-21         0.35146E-20         0.00000E+00
   -0.49270E-21         0.58535E-20         0.00000E+00
   -0.88959E-22         0.62560E-20         0.00000E+00
   -0.28271E-21         0.52776E-20         0.00000E+00
   -0.56188E-21         0.51652E-20         0.00000E+00
   -0.83857E-22         0.69690E-20         0.00000E+00
    0.48826E-21         0.82779E-20         0.00000E+00
    0.54529E-21         0.73286E-20         0.00000E+00
    0.12486E-21         0.76102E-20         0.00000E+00
   -0.12384E-21         0.76990E-20         0.00000E+00
    0.55004E-21         0.77396E-20         0.00000E+00
    0.11822E-20         0.77211E-20         0.00000E+00
    0.93459E-21         0.76883E-20         0.00000E+00
    0.60476E-21         0.64914E-20         0.00000E+00
    0.82532E-21         0.54646E-20         0.00000E+00
    0.11882E-20         0.47870E-20         0.00000E+00
    0.13803E-20         0.45968E-20         0.00000E+00
    0.14205E-20         0.40420E-20         0.00000E+00
    0.14317E-20         0.32890E-20         0.00000E+00
    0.15449E-20         0.25876E-20         0.00000E+00
    0.16584E-20         0.18269E-20         0.00000E+00
    0.16885E-20         0.11155E-20         0.00000E+00
    0.16785E-20         0.36415E-21         0.00000E+00
    0.15606E-21         0.12215E-20         0.00000E+00
   -0.15670E-21         0.40250E-20         0.00000E+00
   -0.58453E-21         0.55146E-20         0.00000E+00
   -0.21757E-21         0.58241E-20         0.00000E+00
    0.15530E-21         0.55303E-20         0.00000E+00
    0.19269E-21         0.51542E-20         0.00000E+00
    0.16760E-21         0.65270E-20         0.00000E+00
    0.12986E-21         0.81855E-20         0.00000E+00
   -0.30204E-21         0.77958E-20         0.00000E+00
   -0.49310E-21         0.77544E-20         0.00000E+00
    0.10244E-21         0.72080E-20         0.00000E+00
    0.47402E-21         0.71853E-20         0.00000E+00
    0.41430E-21         0.77030E-20         0.00000E+00
    0.41003E-21         0.79584E-20         0.00000E+00
    0.38142E-21         0.65798E-20         0.00000E+00
    0.24363E-21         0.52934E-20         0.00000E+00
    0.26690E-21         0.45720E-20         0.00000E+00
    0.35127E-21         0.45353E-20         0.00000E+00
    0.41755E-21         0.39970E-20         0.00000E+00
    0.51421E-21         0.32260E-20         0.00000E+00
    0.50286E-21         0.25487E-20         0.00000E+00
    0.49092E-21         0.17641E-20         0.00000E+00
    0.52702E-21         0.11122E-20         0.00000E+00
    0.53880E-21         0.36576E-21         0.00000E+00
POINT_DATA       1225
VECTORS vDarcyNodal double 
    0.63968E-19        -0.36777E-19         0.00000E+00
    0.56829E-19        -0.44480E-19         0.00000E+00
    0.17997E-19        -0.13233E-19         0.00000E+00
   -0.13972E-19         0.42801E-19         0.00000E+00
   -0.14490E-19         0.48739E-19         0.00000E+00
   -0.31310E-19         0.24509E-19         0.00000E+00
   -0.28804E-20         0.13235E-19         0.00000E+00
    0.14125E-19         0.26342E-20         0.00000E+00
   -0.18037E-19        -0.76091E-20         0.00000E+00
   -0.43270E-19         0.34353E-19         0.00000E+00
   -0.21414E-19         0.82683E-19         0.00000E+00
    0.57913E-20         0.60719E-19         0.00000E+00
   -0.11778E-19         0.45455E-19         0.00000E+00
    0.83046E-20         0.74635E-19         0.00000E+00
    0.71988E-20         0.94278E-19         0.00000E+00
    0.31378E-20         0.75502E-19         0.00000E+00
    0.42084E-20         0.41930E-19         0.00000E+00
    0.54426E-20         0.36142E-19         0.00000E+00
    0.10577E-19         0.17746E-19         0.00000E+00
    0.71780E-20        -0.13268E-20         0.00000E+00
    0.63472E-20         0.31301E-20         0.00000E+00
   -0.24573E-20         0.70644E-20         0.00000E+00
    0.36845E-20         0.87516E-20         0.00000E+00
    0.40678E-20         0.49493E-20         0.00000E+00
    0.86539E-21         0.15690E-20         0.00000E+00
    0.82302E-19        -0.29639E-19         0.00000E+00
    0.84600E-19        -0.21495E-19         0.00000E+00
    0.50238E-19         0.22167E-19         0.00000E+00
    0.22222E-19         0.59044E-19         0.00000E+00
    0.15592E-19         0.57408E-19         0.00000E+00
    0.10796E-19         0.18704E-19         0.00000E+00
    0.16843E-19        -0.94826E-20         0.00000E+00
    0.28015E-19         0.10212E-19         0.00000E+00
   -0.11934E-19         0.21089E-19         0.00000E+00
   -0.26220E-19         0.36042E-19         0.00000E+00
    0.16319E-20         0.58152E-19         0.00000E+00
    0.42787E-20         0.55901E-19         0.00000E+00
   -0.92196E-20         0.44198E-19         0.00000E+00
   -0.53721E-20         0.65147E-19         0.00000E+00
    0.28352E-20         0.96862E-19         0.00000E+00
    0.17060E-19         0.76997E-19         0.00000E+00
    0.11718E-19         0.40778E-19         0.00000E+00
    0.27041E-20         0.32957E-19         0.00000E+00
    0.70433E-20         0.16878E-19         0.00000E+00
    0.54757E-20         0.78800E-21         0.00000E+00
    0.51120E-20         0.79477E-20         0.00000E+00
    0.29247E-20         0.83957E-20         0.00000E+00
    0.57910E-20         0.54891E-20         0.00000E+00
    0.62971E-20         0.63588E-20         0.00000E+00
    0.50873E-20         0.47714E-20         0.00000E+00
    0.25065E-18        -0.41371E-19         0.00000E+00
    0.10918E-18        -0.12416E-19         0.00000E+00
    0.66572E-19         0.49145E-19         0.00000E+00
    0.58021E-19         0.77446E-19         0.00000E+00
    0.43518E-19         0.60164E-19         0.00000E+00
    0.43927E-19         0.23258E-19         0.00000E+00
    0.26815E-19        -0.39837E-20         0.00000E+00
    0.30662E-19         0.31412E-19         0.00000E+00
    0.19720E-19         0.46626E-19         0.00000E+00
    0.21392E-19         0.20787E-19         0.00000E+00
    0.19370E-19         0.52184E-19         0.00000E+00
    0.13567E-19         0.71570E-19         0.00000E+00
    0.15022E-19         0.55105E-19         0.00000E+00
   -0.69483E-21         0.62580E-19         0.00000E+00
    0.44200E-20         0.71846E-19         0.00000E+00
    0.20454E-19         0.66619E-19         0.00000E+00
    0.11086E-19         0.56286E-19         0.00000E+00
    0.67954E-20         0.40816E-19         0.00000E+00
    0.12361E-19         0.14974E-19         0.00000E+00
    0.77589E-20         0.60446E-21         0.00000E+00
    0.10961E-19         0.56810E-20         0.00000E+00
    0.14623E-19         0.63855E-20         0.00000E+00
    0.98204E-20         0.53792E-20         0.00000E+00
    0.10840E-19         0.56530E-20         0.00000E+00
    0.12528E-19         0.39887E-20         0.00000E+00
    0.20034E-18         0.25330E-18         0.00000E+00
    0.98034E-19         0.16259E-18         0.00000E+00
    0.54206E-19         0.73329E-19         0.00000E+00
    0.48357E-19         0.82098E-19         0.00000E+00
    0.44426E-19         0.71502E-19         0.00000E+00
    0.46625E-19         0.35407E-19         0.00000E+00
    0.33597E-19         0.37825E-20         0.00000E+00
    0.22260E-19         0.17307E-19         0.00000E+00
    0.41936E-19         0.30358E-19         0.00000E+00
    0.38168E-19         0.36392E-19         0.00000E+00
    0.98896E-20         0.65978E-19         0.00000E+00
    0.12153E-19         0.60248E-19         0.00000E+00
    0.21199E-19         0.58459E-19         0.00000E+00
    0.17932E-19         0.75749E-19         0.00000E+00
    0.28666E-19         0.75713E-19         0.00000E+00
    0.25037E-19         0.70331E-19         0.00000E+00
    0.14951E-19         0.54437E-19         0.00000E+00
    0.18098E-19         0.31683E-19         0.00000E+00
    0.24744E-19         0.15915E-19         0.00000E+00
    0.18896E-19         0.21883E-20         0.00000E+00
    0.21656E-19         0.10833E-20         0.00000E+00
    0.20553E-19         0.95358E-20         0.00000E+00
    0.14050E-19         0.92729E-20         0.00000E+00
    0.15132E-19         0.36510E-20         0.00000E+00
    0.16502E-19         0.13939E-20         0.00000E+00
    0.00000E+00         0.16323E-18         0.00000E+00
    0.73714E-19         0.13371E-18         0.00000E+00
    0.41650E-19         0.98822E-19         0.00000E+00
    0.51217E-19         0.87226E-19         0.00000E+00
    0.60703E-19         0.61897E-19         0.00000E+00
    0.52904E-19         0.34088E-19         0.00000E+00
    0.35840E-19         0.20381E-19         0.00000E+00
    0.14605E-19         0.23073E-19         0.00000E+00
    0.24920E-19         0.30718E-19         0.00000E+00
    0.60574E-20         0.52833E-19         0.00000E+00
   -0.69282E-21         0.78199E-19         0.00000E+00
    0.46969E-20         0.60261E-19         0.00000E+00
   -0.29343E-20         0.49327E-19         0.00000E+00
    0.16935E-19         0.55112E-19         0.00000E+00
    0.27552E-19         0.64742E-19         0.00000E+00
    0.31064E-19         0.80335E-19         0.00000E+00
    0.38166E-19         0.63224E-19         0.00000E+00
    0.33709E-19         0.31023E-19         0.00000E+00
    0.31703E-19         0.14177E-19         0.00000E+00
    0.27872E-19         0.36923E-20         0.00000E+00
    0.23096E-19         0.40235E-20         0.00000E+00
    0.21835E-19         0.13991E-19         0.00000E+00
    0.21276E-19         0.10801E-19         0.00000E+00
    0.21050E-19         0.32007E-20         0.00000E+00
    0.21764E-19         0.12481E-20         0.00000E+00
    0.00000E+00         0.10588E-18         0.00000E+00
    0.38836E-19         0.12094E-18         0.00000E+00
    0.24143E-19         0.95827E-19         0.00000E+00
    0.45100E-19         0.63045E-19         0.00000E+00
    0.52241E-19         0.69815E-19         0.00000E+00
    0.31259E-19         0.60270E-19         0.00000E+00
    0.18553E-19         0.42081E-19         0.00000E+00
    0.17252E-20         0.28227E-19         0.00000E+00
    0.17941E-20         0.38905E-19         0.00000E+00
   -0.65752E-20         0.62004E-19         0.00000E+00
    0.18702E-21         0.67339E-19         0.00000E+00
    0.10436E-19         0.62490E-19         0.00000E+00
   -0.28096E-20         0.46221E-19         0.00000E+00
    0.71750E-20         0.45262E-19         0.00000E+00
    0.76387E-20         0.61584E-19         0.00000E+00
    0.19092E-19         0.59716E-19         0.00000E+00
    0.41168E-19         0.51792E-19         0.00000E+00
    0.44149E-19         0.38146E-19         0.00000E+00
    0.31926E-19         0.21751E-19         0.00000E+00
    0.29694E-19         0.10795E-19         0.00000E+00
    0.25314E-19         0.71206E-20         0.00000E+00
    0.24696E-19         0.11356E-19         0.00000E+00
    0.28286E-19         0.10058E-19         0.00000E+00
    0.27791E-19         0.31633E-20         0.00000E+00
    0.26221E-19        -0.32901E-22         0.00000E+00
    0.15198E-33         0.85560E-19         0.00000E+00
   -0.37186E-20         0.10957E-18         0.00000E+00
    0.19120E-19         0.92558E-19         0.00000E+00
    0.30566E-19         0.59128E-19         0.00000E+00
    0.28143E-19         0.75738E-19         0.00000E+00
    0.13928E-19         0.67775E-19         0.00000E+00
    0.13520E-19         0.49914E-19         0.00000E+00
    0.38122E-20         0.39832E-19         0.00000E+00
   -0.10172E-20         0.39018E-19         0.00000E+00
    0.10682E-19         0.54440E-19         0.00000E+00
    0.12846E-19         0.61188E-19         0.00000E+00
    0.12753E-19         0.63258E-19         0.00000E+00
    0.10008E-19         0.52588E-19         0.00000E+00
   -0.23297E-20         0.44664E-19         0.00000E+00
    0.96519E-20         0.52825E-19         0.00000E+00
    0.18398E-19         0.46805E-19         0.00000E+00
    0.30294E-19         0.38167E-19         0.00000E+00
    0.38439E-19         0.40265E-19         0.00000E+00
    0.33266E-19         0.28632E-19         0.00000E+00
    0.30602E-19         0.10305E-19         0.00000E+00
    0.29589E-19         0.90216E-20         0.00000E+00
    0.29403E-19         0.11019E-19         0.00000E+00
    0.30851E-19         0.77051E-20         0.00000E+00
    0.31137E-19         0.52657E-20         0.00000E+00
    0.29389E-19         0.43894E-20         0.00000E+00
    0.00000E+00         0.11331E-18         0.00000E+00
   -0.16598E-19         0.10182E-18         0.00000E+00
    0.19659E-19         0.61542E-19         0.00000E+00
    0.25430E-19         0.54023E-19         0.00000E+00
    0.14910E-19         0.86453E-19         0.00000E+00
    0.15753E-19         0.74893E-19         0.00000E+00
    0.19892E-19         0.52197E-19         0.00000E+00
    0.24945E-19         0.42764E-19         0.00000E+00
    0.10375E-19         0.32036E-19         0.00000E+00
    0.20612E-19         0.48142E-19         0.00000E+00
    0.22786E-19         0.65267E-19         0.00000E+00
    0.11594E-19         0.65328E-19         0.00000E+00
    0.19323E-19         0.61304E-19         0.00000E+00
    0.17822E-19         0.45618E-19         0.00000E+00
    0.16071E-19         0.40856E-19         0.00000E+00
    0.20128E-19         0.39074E-19         0.00000E+00
    0.26443E-19         0.31751E-19         0.00000E+00
    0.36512E-19         0.35173E-19         0.00000E+00
    0.40253E-19         0.29588E-19         0.00000E+00
    0.32834E-19         0.14473E-19         0.00000E+00
    0.33170E-19         0.83194E-20         0.00000E+00
    0.34930E-19         0.10094E-19         0.00000E+00
    0.33499E-19         0.83240E-20         0.00000E+00
    0.31914E-19         0.46249E-20         0.00000E+00
    0.33179E-19         0.34613E-20         0.00000E+00
   -0.42190E-33         0.11876E-18         0.00000E+00
    0.75346E-20         0.89912E-19         0.00000E+00
    0.28789E-19         0.50531E-19         0.00000E+00
    0.12182E-19         0.63878E-19         0.00000E+00
    0.11362E-19         0.85415E-19         0.00000E+00
    0.21309E-19         0.62793E-19         0.00000E+00
    0.27737E-19         0.40722E-19         0.00000E+00
    0.29942E-19         0.49349E-19         0.00000E+00
    0.14526E-19         0.43352E-19         0.00000E+00
    0.11641E-19         0.42029E-19         0.00000E+00
    0.24517E-19         0.70206E-19         0.00000E+00
    0.20213E-19         0.66721E-19         0.00000E+00
    0.20722E-19         0.46359E-19         0.00000E+00
    0.21983E-19         0.47916E-19         0.00000E+00
    0.20159E-19         0.50520E-19         0.00000E+00
    0.27428E-19         0.36433E-19         0.00000E+00
    0.26797E-19         0.21782E-19         0.00000E+00
    0.32864E-19         0.26455E-19         0.00000E+00
    0.41274E-19         0.32310E-19         0.00000E+00
    0.40284E-19         0.17387E-19         0.00000E+00
    0.38743E-19         0.69257E-20         0.00000E+00
    0.37071E-19         0.10690E-19         0.00000E+00
    0.35368E-19         0.10721E-19         0.00000E+00
    0.34241E-19         0.55856E-20         0.00000E+00
    0.35390E-19         0.18586E-20         0.00000E+00
    0.29935E-48         0.98244E-19         0.00000E+00
    0.18041E-19         0.73030E-19         0.00000E+00
    0.24039E-19         0.56895E-19         0.00000E+00
    0.12512E-19         0.71449E-19         0.00000E+00
    0.27149E-19         0.77326E-19         0.00000E+00
    0.39559E-19         0.58518E-19         0.00000E+00
    0.26890E-19         0.43564E-19         0.00000E+00
    0.16615E-19         0.55975E-19         0.00000E+00
    0.19683E-19         0.50338E-19         0.00000E+00
    0.92560E-20         0.38150E-19         0.00000E+00
    0.12724E-19         0.56695E-19         0.00000E+00
    0.24267E-19         0.69124E-19         0.00000E+00
    0.17856E-19         0.59534E-19         0.00000E+00
    0.10843E-19         0.46181E-19         0.00000E+00
    0.26359E-19         0.35410E-19         0.00000E+00
    0.39745E-19         0.32436E-19         0.00000E+00
    0.32897E-19         0.26316E-19         0.00000E+00
    0.29197E-19         0.20695E-19         0.00000E+00
    0.38034E-19         0.22168E-19         0.00000E+00
    0.44469E-19         0.17004E-19         0.00000E+00
    0.40582E-19         0.11532E-19         0.00000E+00
    0.38025E-19         0.13469E-19         0.00000E+00
    0.38495E-19         0.11154E-19         0.00000E+00
    0.39132E-19         0.46030E-20         0.00000E+00
    0.37645E-19         0.11635E-20         0.00000E+00
    0.14686E-33         0.82673E-19         0.00000E+00
    0.20977E-19         0.65873E-19         0.00000E+00
    0.12067E-19         0.56059E-19         0.00000E+00
    0.14087E-19         0.60768E-19         0.00000E+00
    0.25062E-19         0.58368E-19         0.00000E+00
    0.33663E-19         0.63052E-19         0.00000E+00
    0.23474E-19         0.63667E-19         0.00000E+00
    0.19405E-19         0.56556E-19         0.00000E+00
    0.27389E-19         0.50710E-19         0.00000E+00
    0.19761E-19         0.48988E-19         0.00000E+00
    0.11728E-19         0.55195E-19         0.00000E+00
    0.22128E-19         0.61589E-19         0.00000E+00
    0.22861E-19         0.59783E-19         0.00000E+00
    0.25496E-19         0.39414E-19         0.00000E+00
    0.30934E-19         0.21618E-19         0.00000E+00
    0.34766E-19         0.29895E-19         0.00000E+00
    0.38659E-19         0.32330E-19         0.00000E+00
    0.36324E-19         0.21319E-19         0.00000E+00
    0.37485E-19         0.17038E-19         0.00000E+00
    0.39898E-19         0.14839E-19         0.00000E+00
    0.38719E-19         0.13370E-19         0.00000E+00
    0.36332E-19         0.12777E-19         0.00000E+00
    0.40540E-19         0.96144E-20         0.00000E+00
    0.41655E-19         0.64349E-20         0.00000E+00
    0.40122E-19         0.48323E-20         0.00000E+00
    0.00000E+00         0.56290E-19         0.00000E+00
    0.14272E-19         0.60963E-19         0.00000E+00
    0.94815E-20         0.63785E-19         0.00000E+00
    0.10265E-19         0.58454E-19         0.00000E+00
    0.92103E-20         0.57749E-19         0.00000E+00
    0.62244E-20         0.60106E-19         0.00000E+00
    0.14619E-19         0.57822E-19         0.00000E+00
    0.27480E-19         0.52061E-19         0.00000E+00
    0.30326E-19         0.49982E-19         0.00000E+00
    0.24593E-19         0.53811E-19         0.00000E+00
    0.26268E-19         0.54328E-19         0.00000E+00
    0.32388E-19         0.57991E-19         0.00000E+00
    0.34241E-19         0.56166E-19         0.00000E+00
    0.38335E-19         0.38108E-19         0.00000E+00
    0.33276E-19         0.26141E-19         0.00000E+00
    0.27469E-19         0.24711E-19         0.00000E+00
    0.40335E-19         0.24757E-19         0.00000E+00
    0.44695E-19         0.21870E-19         0.00000E+00
    0.38997E-19         0.18595E-19         0.00000E+00
    0.38384E-19         0.15770E-19         0.00000E+00
    0.38104E-19         0.15098E-19         0.00000E+00
    0.37399E-19         0.11648E-19         0.00000E+00
    0.39040E-19         0.58310E-20         0.00000E+00
    0.40909E-19         0.50208E-20         0.00000E+00
    0.41859E-19         0.42296E-20         0.00000E+00
    0.00000E+00         0.54130E-19         0.00000E+00
    0.25150E-20         0.56391E-19         0.00000E+00
    0.91254E-20         0.60066E-19         0.00000E+00
    0.10766E-19         0.61039E-19         0.00000E+00
    0.68281E-20         0.62408E-19         0.00000E+00
    0.64342E-20         0.57643E-19         0.00000E+00
    0.10698E-19         0.42411E-19         0.00000E+00
    0.19653E-19         0.40850E-19         0.00000E+00
    0.22903E-19         0.53598E-19         0.00000E+00
    0.26501E-19         0.53045E-19         0.00000E+00
    0.32454E-19         0.47400E-19         0.00000E+00
    0.38506E-19         0.53616E-19         0.00000E+00
    0.43870E-19         0.53835E-19         0.00000E+00
    0.45771E-19         0.40379E-19         0.00000E+00
    0.42891E-19         0.32484E-19         0.00000E+00
    0.42485E-19         0.22835E-19         0.00000E+00
    0.40650E-19         0.15104E-19         0.00000E+00
    0.43888E-19         0.22657E-19         0.00000E+00
    0.40439E-19         0.23349E-19         0.00000E+00
    0.39129E-19         0.15732E-19         0.00000E+00
    0.38221E-19         0.14355E-19         0.00000E+00
    0.42415E-19         0.11841E-19         0.00000E+00
    0.41137E-19         0.61044E-20         0.00000E+00
    0.41027E-19         0.36160E-20         0.00000E+00
    0.41791E-19         0.29334E-20         0.00000E+00
    0.00000E+00         0.51260E-19         0.00000E+00
    0.95304E-20         0.51837E-19         0.00000E+00
    0.82643E-20         0.55534E-19         0.00000E+00
    0.94356E-20         0.60752E-19         0.00000E+00
    0.11873E-19         0.62081E-19         0.00000E+00
    0.16602E-19         0.56236E-19         0.00000E+00
    0.17714E-19         0.44604E-19         0.00000E+00
    0.12998E-19         0.39855E-19         0.00000E+00
    0.15650E-19         0.43134E-19         0.00000E+00
    0.27588E-19         0.44261E-19         0.00000E+00
    0.30648E-19         0.42322E-19         0.00000E+00
    0.36484E-19         0.46574E-19         0.00000E+00
    0.46372E-19         0.48901E-19         0.00000E+00
    0.48349E-19         0.39087E-19         0.00000E+00
    0.48320E-19         0.29428E-19         0.00000E+00
    0.50956E-19         0.26952E-19         0.00000E+00
    0.42186E-19         0.23354E-19         0.00000E+00
    0.36000E-19         0.22081E-19         0.00000E+00
    0.38113E-19         0.23353E-19         0.00000E+00
    0.38497E-19         0.17988E-19         0.00000E+00
    0.38961E-19         0.11812E-19         0.00000E+00
    0.41953E-19         0.87326E-20         0.00000E+00
    0.42423E-19         0.72194E-20         0.00000E+00
    0.40190E-19         0.43662E-20         0.00000E+00
    0.40598E-19         0.26999E-20         0.00000E+00
    0.00000E+00         0.35069E-19         0.00000E+00
    0.94876E-20         0.48127E-19         0.00000E+00
    0.79036E-20         0.60161E-19         0.00000E+00
    0.10198E-19         0.57431E-19         0.00000E+00
    0.17460E-19         0.55241E-19         0.00000E+00
    0.23897E-19         0.51802E-19         0.00000E+00
    0.26796E-19         0.46015E-19         0.00000E+00
    0.25630E-19         0.42914E-19         0.00000E+00
    0.25983E-19         0.39008E-19         0.00000E+00
    0.27579E-19         0.38047E-19         0.00000E+00
    0.32233E-19         0.38504E-19         0.00000E+00
    0.30835E-19         0.37892E-19         0.00000E+00
    0.39256E-19         0.41970E-19         0.00000E+00
    0.42230E-19         0.38431E-19         0.00000E+00
    0.44693E-19         0.29877E-19         0.00000E+00
    0.43674E-19         0.28968E-19         0.00000E+00
    0.41567E-19         0.30060E-19         0.00000E+00
    0.34273E-19         0.26730E-19         0.00000E+00
    0.36006E-19         0.20852E-19         0.00000E+00
    0.39142E-19         0.14885E-19         0.00000E+00
    0.41197E-19         0.10898E-19         0.00000E+00
    0.39309E-19         0.83791E-20         0.00000E+00
    0.39646E-19         0.78682E-20         0.00000E+00
    0.39514E-19         0.54413E-20         0.00000E+00
    0.39951E-19         0.21169E-20         0.00000E+00
    0.00000E+00         0.32285E-19         0.00000E+00
   -0.15038E-20         0.43934E-19         0.00000E+00
    0.73165E-20         0.54824E-19         0.00000E+00
    0.13287E-19         0.51196E-19         0.00000E+00
    0.18314E-19         0.48382E-19         0.00000E+00
    0.22924E-19         0.46900E-19         0.00000E+00
    0.30097E-19         0.42871E-19         0.00000E+00
    0.33906E-19         0.40667E-19         0.00000E+00
    0.35436E-19         0.41185E-19         0.00000E+00
    0.32058E-19         0.38011E-19         0.00000E+00
    0.35634E-19         0.39066E-19         0.00000E+00
    0.32369E-19         0.39551E-19         0.00000E+00
    0.30321E-19         0.37505E-19         0.00000E+00
    0.36604E-19         0.33651E-19         0.00000E+00
    0.36972E-19         0.27984E-19         0.00000E+00
    0.38546E-19         0.30078E-19         0.00000E+00
    0.37660E-19         0.32755E-19         0.00000E+00
    0.36346E-19         0.27641E-19         0.00000E+00
    0.37797E-19         0.18484E-19         0.00000E+00
    0.38286E-19         0.12798E-19         0.00000E+00
    0.40990E-19         0.11646E-19         0.00000E+00
    0.41467E-19         0.10283E-19         0.00000E+00
    0.40682E-19         0.70139E-20         0.00000E+00
    0.40801E-19         0.40621E-20         0.00000E+00
    0.40462E-19         0.18269E-20         0.00000E+00
    0.00000E+00         0.38076E-19         0.00000E+00
   -0.22216E-20         0.40810E-19         0.00000E+00
    0.68823E-20         0.45370E-19         0.00000E+00
    0.11856E-19         0.46433E-19         0.00000E+00
    0.14947E-19         0.45604E-19         0.00000E+00
    0.19576E-19         0.40019E-19         0.00000E+00
    0.25012E-19         0.35034E-19         0.00000E+00
    0.29611E-19         0.37575E-19         0.00000E+00
    0.27133E-19         0.40855E-19         0.00000E+00
    0.28702E-19         0.37849E-19         0.00000E+00
    0.26949E-19         0.38193E-19         0.00000E+00
    0.29029E-19         0.43205E-19         0.00000E+00
    0.30142E-19         0.37735E-19         0.00000E+00
    0.37871E-19         0.31781E-19         0.00000E+00
    0.33489E-19         0.27935E-19         0.00000E+00
    0.35425E-19         0.28280E-19         0.00000E+00
    0.37643E-19         0.32260E-19         0.00000E+00
    0.37096E-19         0.26593E-19         0.00000E+00
    0.37572E-19         0.18912E-19         0.00000E+00
    0.38278E-19         0.11693E-19         0.00000E+00
    0.39693E-19         0.77170E-20         0.00000E+00
    0.42315E-19         0.86868E-20         0.00000E+00
    0.41807E-19         0.85348E-20         0.00000E+00
    0.40305E-19         0.56615E-20         0.00000E+00
    0.39699E-19         0.27950E-20         0.00000E+00
    0.00000E+00         0.36728E-19         0.00000E+00
    0.30663E-20         0.37051E-19         0.00000E+00
    0.57074E-20         0.40746E-19         0.00000E+00
    0.89154E-20         0.43131E-19         0.00000E+00
    0.13410E-19         0.40663E-19         0.00000E+00
    0.18851E-19         0.36834E-19         0.00000E+00
    0.20293E-19         0.32835E-19         0.00000E+00
    0.19943E-19         0.38547E-19         0.00000E+00
    0.19057E-19         0.42094E-19         0.00000E+00
    0.22090E-19         0.38194E-19         0.00000E+00
    0.17754E-19         0.38738E-19         0.00000E+00
    0.19096E-19         0.36359E-19         0.00000E+00
    0.28446E-19         0.28664E-19         0.00000E+00
    0.33048E-19         0.30304E-19         0.00000E+00
    0.36448E-19         0.30429E-19         0.00000E+00
    0.32337E-19         0.25923E-19         0.00000E+00
    0.33555E-19         0.31085E-19         0.00000E+00
    0.35582E-19         0.27713E-19         0.00000E+00
    0.34953E-19         0.17303E-19         0.00000E+00
    0.36902E-19         0.10676E-19         0.00000E+00
    0.35286E-19         0.76086E-20         0.00000E+00
    0.36798E-19         0.81699E-20         0.00000E+00
    0.36357E-19         0.90239E-20         0.00000E+00
    0.37582E-19         0.61692E-20         0.00000E+00
    0.38022E-19         0.30373E-20         0.00000E+00
    0.00000E+00         0.31944E-19         0.00000E+00
    0.21829E-20         0.35103E-19         0.00000E+00
    0.42706E-20         0.39521E-19         0.00000E+00
    0.89513E-20         0.38731E-19         0.00000E+00
    0.11843E-19         0.35668E-19         0.00000E+00
    0.16184E-19         0.33136E-19         0.00000E+00
    0.18289E-19         0.33943E-19         0.00000E+00
    0.15745E-19         0.38811E-19         0.00000E+00
    0.18542E-19         0.38708E-19         0.00000E+00
    0.19560E-19         0.39152E-19         0.00000E+00
    0.21770E-19         0.41188E-19         0.00000E+00
    0.23501E-19         0.32513E-19         0.00000E+00
    0.24673E-19         0.23783E-19         0.00000E+00
    0.24469E-19         0.23779E-19         0.00000E+00
    0.30939E-19         0.28646E-19         0.00000E+00
    0.28695E-19         0.31173E-19         0.00000E+00
    0.28344E-19         0.29015E-19         0.00000E+00
    0.30516E-19         0.25195E-19         0.00000E+00
    0.32852E-19         0.17592E-19         0.00000E+00
    0.29687E-19         0.11360E-19         0.00000E+00
    0.28383E-19         0.78205E-20         0.00000E+00
    0.28675E-19         0.76155E-20         0.00000E+00
    0.31512E-19         0.77511E-20         0.00000E+00
    0.34226E-19         0.39970E-20         0.00000E+00
    0.35123E-19         0.19158E-20         0.00000E+00
    0.00000E+00         0.32363E-19         0.00000E+00
   -0.13068E-21         0.32781E-19         0.00000E+00
    0.48114E-20         0.33977E-19         0.00000E+00
    0.97080E-20         0.35559E-19         0.00000E+00
    0.11600E-19         0.33430E-19         0.00000E+00
    0.13339E-19         0.30389E-19         0.00000E+00
    0.13077E-19         0.33274E-19         0.00000E+00
    0.14676E-19         0.38294E-19         0.00000E+00
    0.18029E-19         0.38279E-19         0.00000E+00
    0.19137E-19         0.34967E-19         0.00000E+00
    0.24623E-19         0.34798E-19         0.00000E+00
    0.30022E-19         0.33455E-19         0.00000E+00
    0.24857E-19         0.27696E-19         0.00000E+00
    0.22859E-19         0.24038E-19         0.00000E+00
    0.23645E-19         0.26203E-19         0.00000E+00
    0.26668E-19         0.28518E-19         0.00000E+00
    0.27141E-19         0.29264E-19         0.00000E+00
    0.30335E-19         0.23205E-19         0.00000E+00
    0.32745E-19         0.18131E-19         0.00000E+00
    0.31184E-19         0.15145E-19         0.00000E+00
    0.27709E-19         0.86203E-20         0.00000E+00
    0.27398E-19         0.50411E-20         0.00000E+00
    0.30011E-19         0.34734E-20         0.00000E+00
    0.31591E-19         0.25577E-20         0.00000E+00
    0.32331E-19         0.12420E-20         0.00000E+00
    0.00000E+00         0.32205E-19         0.00000E+00
    0.11228E-20         0.30292E-19         0.00000E+00
    0.42512E-20         0.29683E-19         0.00000E+00
    0.78780E-20         0.31942E-19         0.00000E+00
    0.11451E-19         0.32038E-19         0.00000E+00
    0.11316E-19         0.31660E-19         0.00000E+00
    0.10911E-19         0.32605E-19         0.00000E+00
    0.13492E-19         0.33859E-19         0.00000E+00
    0.18993E-19         0.34247E-19         0.00000E+00
    0.22631E-19         0.32558E-19         0.00000E+00
    0.25053E-19         0.30303E-19         0.00000E+00
    0.25017E-19         0.32279E-19         0.00000E+00
    0.27683E-19         0.30946E-19         0.00000E+00
    0.24962E-19         0.24991E-19         0.00000E+00
    0.23717E-19         0.24836E-19         0.00000E+00
    0.24711E-19         0.27677E-19         0.00000E+00
    0.25510E-19         0.25348E-19         0.00000E+00
    0.33122E-19         0.19590E-19         0.00000E+00
    0.31620E-19         0.16743E-19         0.00000E+00
    0.33728E-19         0.16396E-19         0.00000E+00
    0.32436E-19         0.11606E-19         0.00000E+00
    0.31315E-19         0.53134E-20         0.00000E+00
    0.30353E-19         0.35589E-20         0.00000E+00
    0.31465E-19         0.16769E-20         0.00000E+00
    0.32111E-19         0.43479E-21         0.00000E+00
    0.00000E+00         0.30117E-19         0.00000E+00
    0.31815E-20         0.28529E-19         0.00000E+00
    0.43137E-20         0.27222E-19         0.00000E+00
    0.65422E-20         0.28359E-19         0.00000E+00
    0.92548E-20         0.29991E-19         0.00000E+00
    0.10250E-19         0.30928E-19         0.00000E+00
    0.11561E-19         0.31099E-19         0.00000E+00
    0.13124E-19         0.30212E-19         0.00000E+00
    0.16733E-19         0.29140E-19         0.00000E+00
    0.20665E-19         0.28906E-19         0.00000E+00
    0.22923E-19         0.32412E-19         0.00000E+00
    0.22750E-19         0.30826E-19         0.00000E+00
    0.26176E-19         0.27751E-19         0.00000E+00
    0.26823E-19         0.28004E-19         0.00000E+00
    0.23653E-19         0.26455E-19         0.00000E+00
    0.25158E-19         0.26726E-19         0.00000E+00
    0.29599E-19         0.20853E-19         0.00000E+00
    0.30374E-19         0.17095E-19         0.00000E+00
    0.29458E-19         0.17525E-19         0.00000E+00
    0.29083E-19         0.14329E-19         0.00000E+00
    0.32827E-19         0.11033E-19         0.00000E+00
    0.32216E-19         0.71235E-20         0.00000E+00
    0.32051E-19         0.33242E-20         0.00000E+00
    0.32572E-19         0.79996E-21         0.00000E+00
    0.32536E-19        -0.50219E-22         0.00000E+00
    0.00000E+00         0.25842E-19         0.00000E+00
    0.31651E-20         0.25978E-19         0.00000E+00
    0.42543E-20         0.26322E-19         0.00000E+00
    0.51164E-20         0.27001E-19         0.00000E+00
    0.66503E-20         0.28330E-19         0.00000E+00
    0.87257E-20         0.29354E-19         0.00000E+00
    0.10253E-19         0.29730E-19         0.00000E+00
    0.98586E-20         0.28686E-19         0.00000E+00
    0.12541E-19         0.26706E-19         0.00000E+00
    0.13394E-19         0.26367E-19         0.00000E+00
    0.15799E-19         0.28218E-19         0.00000E+00
    0.22915E-19         0.29026E-19         0.00000E+00
    0.22573E-19         0.26874E-19         0.00000E+00
    0.24127E-19         0.27514E-19         0.00000E+00
    0.22319E-19         0.26501E-19         0.00000E+00
    0.24220E-19         0.21731E-19         0.00000E+00
    0.29326E-19         0.20133E-19         0.00000E+00
    0.28383E-19         0.19731E-19         0.00000E+00
    0.29794E-19         0.18034E-19         0.00000E+00
    0.31595E-19         0.13027E-19         0.00000E+00
    0.32222E-19         0.84724E-20         0.00000E+00
    0.32970E-19         0.60894E-20         0.00000E+00
    0.33689E-19         0.32033E-20         0.00000E+00
    0.32400E-19         0.11915E-20         0.00000E+00
    0.31701E-19         0.50630E-21         0.00000E+00
    0.00000E+00         0.23787E-19         0.00000E+00
    0.16483E-20         0.24275E-19         0.00000E+00
    0.30130E-20         0.25271E-19         0.00000E+00
    0.40941E-20         0.25963E-19         0.00000E+00
    0.52897E-20         0.26382E-19         0.00000E+00
    0.65968E-20         0.27325E-19         0.00000E+00
    0.60819E-20         0.29966E-19         0.00000E+00
    0.83213E-20         0.27924E-19         0.00000E+00
    0.10911E-19         0.25605E-19         0.00000E+00
    0.13530E-19         0.25648E-19         0.00000E+00
    0.14393E-19         0.22891E-19         0.00000E+00
    0.16208E-19         0.24052E-19         0.00000E+00
    0.19344E-19         0.26539E-19         0.00000E+00
    0.20060E-19         0.28258E-19         0.00000E+00
    0.22120E-19         0.26362E-19         0.00000E+00
    0.21198E-19         0.19719E-19         0.00000E+00
    0.23303E-19         0.16689E-19         0.00000E+00
    0.27090E-19         0.16627E-19         0.00000E+00
    0.30955E-19         0.14313E-19         0.00000E+00
    0.31963E-19         0.11901E-19         0.00000E+00
    0.32044E-19         0.96581E-20         0.00000E+00
    0.32176E-19         0.56566E-20         0.00000E+00
    0.32011E-19         0.38937E-20         0.00000E+00
    0.31069E-19         0.27879E-20         0.00000E+00
    0.30627E-19         0.13490E-20         0.00000E+00
    0.00000E+00         0.22546E-19         0.00000E+00
    0.11984E-20         0.22965E-19         0.00000E+00
    0.26281E-20         0.23876E-19         0.00000E+00
    0.41659E-20         0.24724E-19         0.00000E+00
    0.51821E-20         0.25827E-19         0.00000E+00
    0.54601E-20         0.28562E-19         0.00000E+00
    0.62255E-20         0.28006E-19         0.00000E+00
    0.99050E-20         0.23857E-19         0.00000E+00
    0.10624E-19         0.21497E-19         0.00000E+00
    0.15486E-19         0.22885E-19         0.00000E+00
    0.15582E-19         0.25540E-19         0.00000E+00
    0.12516E-19         0.24075E-19         0.00000E+00
    0.15372E-19         0.23023E-19         0.00000E+00
    0.18809E-19         0.24738E-19         0.00000E+00
    0.22767E-19         0.25362E-19         0.00000E+00
    0.23163E-19         0.20548E-19         0.00000E+00
    0.23939E-19         0.14241E-19         0.00000E+00
    0.26039E-19         0.12080E-19         0.00000E+00
    0.26126E-19         0.13162E-19         0.00000E+00
    0.26408E-19         0.11938E-19         0.00000E+00
    0.27294E-19         0.82590E-20         0.00000E+00
    0.28324E-19         0.61229E-20         0.00000E+00
    0.28214E-19         0.43107E-20         0.00000E+00
    0.28608E-19         0.25758E-20         0.00000E+00
    0.28691E-19         0.13911E-20         0.00000E+00
    0.00000E+00         0.21390E-19         0.00000E+00
    0.11939E-20         0.21647E-19         0.00000E+00
    0.26427E-20         0.22303E-19         0.00000E+00
    0.40750E-20         0.23409E-19         0.00000E+00
    0.57861E-20         0.25088E-19         0.00000E+00
    0.76272E-20         0.26282E-19         0.00000E+00
    0.11369E-19         0.25521E-19         0.00000E+00
    0.12574E-19         0.23526E-19         0.00000E+00
    0.11817E-19         0.20023E-19         0.00000E+00
    0.10772E-19         0.20689E-19         0.00000E+00
    0.12466E-19         0.25862E-19         0.00000E+00
    0.15312E-19         0.24262E-19         0.00000E+00
    0.16846E-19         0.20245E-19         0.00000E+00
    0.18977E-19         0.20862E-19         0.00000E+00
    0.22284E-19         0.22008E-19         0.00000E+00
    0.25987E-19         0.18547E-19         0.00000E+00
    0.26024E-19         0.13813E-19         0.00000E+00
    0.25114E-19         0.14440E-19         0.00000E+00
    0.23108E-19         0.13945E-19         0.00000E+00
    0.25629E-19         0.10733E-19         0.00000E+00
    0.25513E-19         0.77422E-20         0.00000E+00
    0.25873E-19         0.47369E-20         0.00000E+00
    0.25831E-19         0.36090E-20         0.00000E+00
    0.25983E-19         0.23103E-20         0.00000E+00
    0.26067E-19         0.11831E-20         0.00000E+00
    0.00000E+00         0.20158E-19         0.00000E+00
    0.13424E-20         0.20322E-19         0.00000E+00
    0.29855E-20         0.20995E-19         0.00000E+00
    0.44594E-20         0.21581E-19         0.00000E+00
    0.61011E-20         0.22275E-19         0.00000E+00
    0.93808E-20         0.22979E-19         0.00000E+00
    0.12527E-19         0.23059E-19         0.00000E+00
    0.14658E-19         0.23409E-19         0.00000E+00
    0.12913E-19         0.23299E-19         0.00000E+00
    0.10544E-19         0.22236E-19         0.00000E+00
    0.12171E-19         0.21000E-19         0.00000E+00
    0.17378E-19         0.19696E-19         0.00000E+00
    0.17664E-19         0.19357E-19         0.00000E+00
    0.19009E-19         0.19299E-19         0.00000E+00
    0.21948E-19         0.18353E-19         0.00000E+00
    0.26271E-19         0.16809E-19         0.00000E+00
    0.25144E-19         0.15113E-19         0.00000E+00
    0.24679E-19         0.14996E-19         0.00000E+00
    0.26337E-19         0.12647E-19         0.00000E+00
    0.25454E-19         0.95321E-20         0.00000E+00
    0.25394E-19         0.80150E-20         0.00000E+00
    0.25048E-19         0.58051E-20         0.00000E+00
    0.24291E-19         0.42008E-20         0.00000E+00
    0.24355E-19         0.23399E-20         0.00000E+00
    0.24879E-19         0.12234E-20         0.00000E+00
    0.00000E+00         0.18705E-19         0.00000E+00
    0.18096E-20         0.18662E-19         0.00000E+00
    0.30744E-20         0.19186E-19         0.00000E+00
    0.44111E-20         0.20294E-19         0.00000E+00
    0.57187E-20         0.20166E-19         0.00000E+00
    0.81563E-20         0.19856E-19         0.00000E+00
    0.10512E-19         0.20244E-19         0.00000E+00
    0.11780E-19         0.23140E-19         0.00000E+00
    0.12384E-19         0.24137E-19         0.00000E+00
    0.13147E-19         0.21431E-19         0.00000E+00
    0.14963E-19         0.19027E-19         0.00000E+00
    0.15842E-19         0.18769E-19         0.00000E+00
    0.16707E-19         0.18614E-19         0.00000E+00
    0.18086E-19         0.16579E-19         0.00000E+00
    0.20061E-19         0.14746E-19         0.00000E+00
    0.21581E-19         0.15351E-19         0.00000E+00
    0.22840E-19         0.15406E-19         0.00000E+00
    0.23894E-19         0.13248E-19         0.00000E+00
    0.24806E-19         0.13169E-19         0.00000E+00
    0.21891E-19         0.11675E-19         0.00000E+00
    0.22046E-19         0.81483E-20         0.00000E+00
    0.23231E-19         0.58400E-20         0.00000E+00
    0.23298E-19         0.43027E-20         0.00000E+00
    0.24163E-19         0.17226E-20         0.00000E+00
    0.24584E-19         0.13419E-21         0.00000E+00
    0.00000E+00         0.16538E-19         0.00000E+00
    0.21359E-20         0.17248E-19         0.00000E+00
    0.30304E-20         0.18394E-19         0.00000E+00
    0.41369E-20         0.18936E-19         0.00000E+00
    0.55778E-20         0.18530E-19         0.00000E+00
    0.67528E-20         0.18186E-19         0.00000E+00
    0.77486E-20         0.19435E-19         0.00000E+00
    0.82189E-20         0.21537E-19         0.00000E+00
    0.12548E-19         0.21933E-19         0.00000E+00
    0.13618E-19         0.19657E-19         0.00000E+00
    0.15329E-19         0.18304E-19         0.00000E+00
    0.15720E-19         0.17952E-19         0.00000E+00
    0.17263E-19         0.17114E-19         0.00000E+00
    0.17758E-19         0.15946E-19         0.00000E+00
    0.18166E-19         0.14857E-19         0.00000E+00
    0.16991E-19         0.14030E-19         0.00000E+00
    0.20563E-19         0.12801E-19         0.00000E+00
    0.21195E-19         0.13030E-19         0.00000E+00
    0.21185E-19         0.14649E-19         0.00000E+00
    0.21513E-19         0.12293E-19         0.00000E+00
    0.22034E-19         0.66754E-20         0.00000E+00
    0.22827E-19         0.45524E-20         0.00000E+00
    0.23240E-19         0.32685E-20         0.00000E+00
    0.23800E-19         0.10546E-20         0.00000E+00
    0.23393E-19         0.38293E-21         0.00000E+00
    0.00000E+00         0.14433E-19         0.00000E+00
    0.14788E-20         0.15631E-19         0.00000E+00
    0.29435E-20         0.17185E-19         0.00000E+00
    0.45938E-20         0.17746E-19         0.00000E+00
    0.59379E-20         0.17550E-19         0.00000E+00
    0.66633E-20         0.17685E-19         0.00000E+00
    0.74145E-20         0.18778E-19         0.00000E+00
    0.89999E-20         0.18341E-19         0.00000E+00
    0.12168E-19         0.18738E-19         0.00000E+00
    0.15346E-19         0.18650E-19         0.00000E+00
    0.15967E-19         0.16926E-19         0.00000E+00
    0.16241E-19         0.16835E-19         0.00000E+00
    0.16280E-19         0.16575E-19         0.00000E+00
    0.17880E-19         0.15675E-19         0.00000E+00
    0.17608E-19         0.15513E-19         0.00000E+00
    0.17689E-19         0.12955E-19         0.00000E+00
    0.17968E-19         0.11202E-19         0.00000E+00
    0.18240E-19         0.12625E-19         0.00000E+00
    0.19560E-19         0.12851E-19         0.00000E+00
    0.21759E-19         0.10826E-19         0.00000E+00
    0.22109E-19         0.68348E-20         0.00000E+00
    0.21751E-19         0.46336E-20         0.00000E+00
    0.22453E-19         0.33299E-20         0.00000E+00
    0.21908E-19         0.15704E-20         0.00000E+00
    0.21744E-19         0.94824E-21         0.00000E+00
    0.00000E+00         0.13581E-19         0.00000E+00
    0.10365E-20         0.14304E-19         0.00000E+00
    0.19380E-20         0.15278E-19         0.00000E+00
    0.41412E-20         0.15942E-19         0.00000E+00
    0.64034E-20         0.16460E-19         0.00000E+00
    0.71538E-20         0.16709E-19         0.00000E+00
    0.90334E-20         0.17098E-19         0.00000E+00
    0.11079E-19         0.16783E-19         0.00000E+00
    0.12371E-19         0.15587E-19         0.00000E+00
    0.14707E-19         0.15858E-19         0.00000E+00
    0.13676E-19         0.17408E-19         0.00000E+00
    0.13137E-19         0.17639E-19         0.00000E+00
    0.14935E-19         0.15475E-19         0.00000E+00
    0.15553E-19         0.14618E-19         0.00000E+00
    0.16120E-19         0.15048E-19         0.00000E+00
    0.16827E-19         0.13670E-19         0.00000E+00
    0.13598E-19         0.12250E-19         0.00000E+00
    0.14891E-19         0.11437E-19         0.00000E+00
    0.16475E-19         0.11131E-19         0.00000E+00
    0.18007E-19         0.97442E-20         0.00000E+00
    0.19409E-19         0.66831E-20         0.00000E+00
    0.19540E-19         0.42089E-20         0.00000E+00
    0.20108E-19         0.31112E-20         0.00000E+00
    0.20139E-19         0.17627E-20         0.00000E+00
    0.20323E-19         0.71036E-21         0.00000E+00
    0.00000E+00         0.12361E-19         0.00000E+00
    0.79394E-21         0.13693E-19         0.00000E+00
    0.17954E-20         0.14081E-19         0.00000E+00
    0.42366E-20         0.13281E-19         0.00000E+00
    0.66546E-20         0.14538E-19         0.00000E+00
    0.80383E-20         0.15055E-19         0.00000E+00
    0.94973E-20         0.14852E-19         0.00000E+00
    0.11070E-19         0.15003E-19         0.00000E+00
    0.11442E-19         0.15109E-19         0.00000E+00
    0.99442E-20         0.17345E-19         0.00000E+00
    0.96719E-20         0.18496E-19         0.00000E+00
    0.10096E-19         0.15577E-19         0.00000E+00
    0.11873E-19         0.14159E-19         0.00000E+00
    0.12397E-19         0.14491E-19         0.00000E+00
    0.13058E-19         0.14239E-19         0.00000E+00
    0.13773E-19         0.15477E-19         0.00000E+00
    0.13247E-19         0.13138E-19         0.00000E+00
    0.13013E-19         0.97475E-20         0.00000E+00
    0.14649E-19         0.97355E-20         0.00000E+00
    0.15850E-19         0.78923E-20         0.00000E+00
    0.17718E-19         0.53014E-20         0.00000E+00
    0.17994E-19         0.39346E-20         0.00000E+00
    0.18086E-19         0.27310E-20         0.00000E+00
    0.18900E-19         0.13553E-20         0.00000E+00
    0.19127E-19         0.57934E-21         0.00000E+00
    0.00000E+00         0.11993E-19         0.00000E+00
    0.56143E-21         0.12509E-19         0.00000E+00
    0.25355E-20         0.11836E-19         0.00000E+00
    0.38796E-20         0.11083E-19         0.00000E+00
    0.54571E-20         0.12659E-19         0.00000E+00
    0.74516E-20         0.13866E-19         0.00000E+00
    0.76831E-20         0.14066E-19         0.00000E+00
    0.83846E-20         0.14839E-19         0.00000E+00
    0.79077E-20         0.16713E-19         0.00000E+00
    0.80172E-20         0.17628E-19         0.00000E+00
    0.10513E-19         0.17256E-19         0.00000E+00
    0.11474E-19         0.15437E-19         0.00000E+00
    0.10998E-19         0.13174E-19         0.00000E+00
    0.11555E-19         0.13433E-19         0.00000E+00
    0.11685E-19         0.13672E-19         0.00000E+00
    0.13166E-19         0.13481E-19         0.00000E+00
    0.15492E-19         0.13010E-19         0.00000E+00
    0.14688E-19         0.10035E-19         0.00000E+00
    0.15083E-19         0.82935E-20         0.00000E+00
    0.16189E-19         0.66751E-20         0.00000E+00
    0.16247E-19         0.45388E-20         0.00000E+00
    0.16910E-19         0.38411E-20         0.00000E+00
    0.17713E-19         0.22050E-20         0.00000E+00
    0.18118E-19         0.72205E-21         0.00000E+00
    0.18134E-19         0.25793E-21         0.00000E+00
    0.00000E+00         0.11238E-19         0.00000E+00
    0.12693E-20         0.11158E-19         0.00000E+00
    0.25687E-20         0.10763E-19         0.00000E+00
    0.27004E-20         0.10359E-19         0.00000E+00
    0.35958E-20         0.10966E-19         0.00000E+00
    0.55361E-20         0.12829E-19         0.00000E+00
    0.68219E-20         0.13919E-19         0.00000E+00
    0.69492E-20         0.14779E-19         0.00000E+00
    0.80098E-20         0.15477E-19         0.00000E+00
    0.99670E-20         0.14739E-19         0.00000E+00
    0.11246E-19         0.15039E-19         0.00000E+00
    0.12573E-19         0.15092E-19         0.00000E+00
    0.12870E-19         0.14078E-19         0.00000E+00
    0.12416E-19         0.13803E-19         0.00000E+00
    0.13028E-19         0.12629E-19         0.00000E+00
    0.13661E-19         0.11670E-19         0.00000E+00
    0.15368E-19         0.11616E-19         0.00000E+00
    0.16251E-19         0.10157E-19         0.00000E+00
    0.15545E-19         0.82344E-20         0.00000E+00
    0.16296E-19         0.67281E-20         0.00000E+00
    0.15527E-19         0.45805E-20         0.00000E+00
    0.16330E-19         0.24681E-20         0.00000E+00
    0.17339E-19         0.15227E-20         0.00000E+00
    0.17384E-19         0.93455E-21         0.00000E+00
    0.17175E-19         0.54790E-21         0.00000E+00
    0.00000E+00         0.94545E-20         0.00000E+00
    0.15730E-20         0.99401E-20         0.00000E+00
    0.30420E-20         0.10405E-19         0.00000E+00
    0.43311E-20         0.10056E-19         0.00000E+00
    0.47369E-20         0.98230E-20         0.00000E+00
    0.52012E-20         0.10640E-19         0.00000E+00
    0.68308E-20         0.12653E-19         0.00000E+00
    0.73516E-20         0.13651E-19         0.00000E+00
    0.85729E-20         0.13695E-19         0.00000E+00
    0.10303E-19         0.14391E-19         0.00000E+00
    0.10442E-19         0.14650E-19         0.00000E+00
    0.10799E-19         0.13814E-19         0.00000E+00
    0.11570E-19         0.13332E-19         0.00000E+00
    0.11923E-19         0.13275E-19         0.00000E+00
    0.12832E-19         0.12427E-19         0.00000E+00
    0.13082E-19         0.11141E-19         0.00000E+00
    0.13649E-19         0.10421E-19         0.00000E+00
    0.14370E-19         0.98588E-20         0.00000E+00
    0.15128E-19         0.82485E-20         0.00000E+00
    0.15049E-19         0.66929E-20         0.00000E+00
    0.15549E-19         0.45052E-20         0.00000E+00
    0.15769E-19         0.20290E-20         0.00000E+00
    0.15921E-19         0.11507E-20         0.00000E+00
    0.16062E-19         0.88599E-21         0.00000E+00
    0.16072E-19         0.67570E-21         0.00000E+00
    0.14374E-34         0.80916E-20         0.00000E+00
    0.13605E-20         0.81157E-20         0.00000E+00
    0.29560E-20         0.80045E-20         0.00000E+00
    0.43302E-20         0.86644E-20         0.00000E+00
    0.58232E-20         0.10096E-19         0.00000E+00
    0.64743E-20         0.10735E-19         0.00000E+00
    0.61086E-20         0.11769E-19         0.00000E+00
    0.72565E-20         0.13037E-19         0.00000E+00
    0.79335E-20         0.12525E-19         0.00000E+00
    0.82020E-20         0.12870E-19         0.00000E+00
    0.98657E-20         0.14543E-19         0.00000E+00
    0.10333E-19         0.13964E-19         0.00000E+00
    0.97412E-20         0.12954E-19         0.00000E+00
    0.10467E-19         0.12541E-19         0.00000E+00
    0.11229E-19         0.11470E-19         0.00000E+00
    0.11873E-19         0.10854E-19         0.00000E+00
    0.11871E-19         0.10328E-19         0.00000E+00
    0.12720E-19         0.86773E-20         0.00000E+00
    0.13742E-19         0.75555E-20         0.00000E+00
    0.14294E-19         0.63078E-20         0.00000E+00
    0.14792E-19         0.38603E-20         0.00000E+00
    0.14672E-19         0.20954E-20         0.00000E+00
    0.14496E-19         0.12298E-20         0.00000E+00
    0.14642E-19         0.78374E-21         0.00000E+00
    0.14829E-19         0.52721E-21         0.00000E+00
    0.17106E-48         0.67335E-20         0.00000E+00
    0.99736E-21         0.69841E-20         0.00000E+00
    0.17552E-20         0.74350E-20         0.00000E+00
    0.24641E-20         0.71886E-20         0.00000E+00
    0.35660E-20         0.76789E-20         0.00000E+00
    0.47925E-20         0.10355E-19         0.00000E+00
    0.49450E-20         0.11871E-19         0.00000E+00
    0.58963E-20         0.11826E-19         0.00000E+00
    0.69609E-20         0.12750E-19         0.00000E+00
    0.66402E-20         0.12459E-19         0.00000E+00
    0.81612E-20         0.12520E-19         0.00000E+00
    0.94663E-20         0.13938E-19         0.00000E+00
    0.94291E-20         0.13197E-19         0.00000E+00
    0.10046E-19         0.11787E-19         0.00000E+00
    0.10343E-19         0.11021E-19         0.00000E+00
    0.10230E-19         0.10499E-19         0.00000E+00
    0.10944E-19         0.95733E-20         0.00000E+00
    0.11799E-19         0.79877E-20         0.00000E+00
    0.12296E-19         0.66749E-20         0.00000E+00
    0.13329E-19         0.56428E-20         0.00000E+00
    0.13643E-19         0.41272E-20         0.00000E+00
    0.13580E-19         0.23251E-20         0.00000E+00
    0.13531E-19         0.11809E-20         0.00000E+00
    0.13482E-19         0.55296E-21         0.00000E+00
    0.13577E-19         0.30161E-21         0.00000E+00
   -0.10830E-34         0.60968E-20         0.00000E+00
    0.69739E-21         0.63605E-20         0.00000E+00
    0.11660E-20         0.65378E-20         0.00000E+00
    0.18425E-20         0.68536E-20         0.00000E+00
    0.20636E-20         0.77672E-20         0.00000E+00
    0.22564E-20         0.93564E-20         0.00000E+00
    0.40197E-20         0.10665E-19         0.00000E+00
    0.39339E-20         0.11021E-19         0.00000E+00
    0.38852E-20         0.11781E-19         0.00000E+00
    0.59425E-20         0.11669E-19         0.00000E+00
    0.70123E-20         0.11717E-19         0.00000E+00
    0.82710E-20         0.12696E-19         0.00000E+00
    0.93836E-20         0.12375E-19         0.00000E+00
    0.10026E-19         0.11627E-19         0.00000E+00
    0.10306E-19         0.11286E-19         0.00000E+00
    0.97942E-20         0.10253E-19         0.00000E+00
    0.10443E-19         0.87593E-20         0.00000E+00
    0.10909E-19         0.73256E-20         0.00000E+00
    0.11537E-19         0.60256E-20         0.00000E+00
    0.12124E-19         0.49612E-20         0.00000E+00
    0.12861E-19         0.36086E-20         0.00000E+00
    0.12910E-19         0.22074E-20         0.00000E+00
    0.12832E-19         0.13283E-20         0.00000E+00
    0.12568E-19         0.73750E-21         0.00000E+00
    0.12460E-19         0.33675E-21         0.00000E+00
    0.00000E+00         0.53387E-20         0.00000E+00
    0.53143E-21         0.58181E-20         0.00000E+00
    0.10098E-20         0.62899E-20         0.00000E+00
    0.11620E-20         0.62910E-20         0.00000E+00
    0.21188E-20         0.72651E-20         0.00000E+00
    0.27355E-20         0.83987E-20         0.00000E+00
    0.40081E-20         0.10193E-19         0.00000E+00
    0.45684E-20         0.11960E-19         0.00000E+00
    0.39621E-20         0.10741E-19         0.00000E+00
    0.55601E-20         0.93321E-20         0.00000E+00
    0.67391E-20         0.10191E-19         0.00000E+00
    0.75061E-20         0.11567E-19         0.00000E+00
    0.86529E-20         0.11442E-19         0.00000E+00
    0.95195E-20         0.10865E-19         0.00000E+00
    0.10386E-19         0.11253E-19         0.00000E+00
    0.10943E-19         0.10362E-19         0.00000E+00
    0.11343E-19         0.84588E-20         0.00000E+00
    0.11605E-19         0.68938E-20         0.00000E+00
    0.11142E-19         0.54600E-20         0.00000E+00
    0.11742E-19         0.43186E-20         0.00000E+00
    0.12037E-19         0.33408E-20         0.00000E+00
    0.11798E-19         0.23543E-20         0.00000E+00
    0.11583E-19         0.15226E-20         0.00000E+00
    0.11473E-19         0.92543E-21         0.00000E+00
    0.11360E-19         0.51899E-21         0.00000E+00
    0.00000E+00         0.50340E-20         0.00000E+00
    0.39309E-21         0.53507E-20         0.00000E+00
    0.49946E-21         0.59072E-20         0.00000E+00
    0.78913E-21         0.57446E-20         0.00000E+00
    0.11869E-20         0.61938E-20         0.00000E+00
    0.24658E-20         0.74670E-20         0.00000E+00
    0.31308E-20         0.88323E-20         0.00000E+00
    0.44138E-20         0.11067E-19         0.00000E+00
    0.60013E-20         0.10790E-19         0.00000E+00
    0.60347E-20         0.88925E-20         0.00000E+00
    0.59630E-20         0.97710E-20         0.00000E+00
    0.64143E-20         0.10782E-19         0.00000E+00
    0.75869E-20         0.10362E-19         0.00000E+00
    0.81089E-20         0.98934E-20         0.00000E+00
    0.91309E-20         0.98625E-20         0.00000E+00
    0.10785E-19         0.92961E-20         0.00000E+00
    0.10879E-19         0.80971E-20         0.00000E+00
    0.10984E-19         0.75269E-20         0.00000E+00
    0.10880E-19         0.58885E-20         0.00000E+00
    0.10835E-19         0.40662E-20         0.00000E+00
    0.10702E-19         0.35521E-20         0.00000E+00
    0.10526E-19         0.26607E-20         0.00000E+00
    0.10300E-19         0.16541E-20         0.00000E+00
    0.10196E-19         0.96105E-21         0.00000E+00
    0.10196E-19         0.56204E-21         0.00000E+00
    0.00000E+00         0.45526E-20         0.00000E+00
   -0.25067E-21         0.53186E-20         0.00000E+00
   -0.88948E-22         0.58938E-20         0.00000E+00
    0.72541E-21         0.56037E-20         0.00000E+00
    0.82049E-21         0.55884E-20         0.00000E+00
    0.13436E-20         0.64548E-20         0.00000E+00
    0.18834E-20         0.82454E-20         0.00000E+00
    0.28831E-20         0.90898E-20         0.00000E+00
    0.44911E-20         0.91201E-20         0.00000E+00
    0.49350E-20         0.93705E-20         0.00000E+00
    0.51337E-20         0.98116E-20         0.00000E+00
    0.62420E-20         0.99429E-20         0.00000E+00
    0.66265E-20         0.97470E-20         0.00000E+00
    0.67998E-20         0.93210E-20         0.00000E+00
    0.75052E-20         0.85772E-20         0.00000E+00
    0.86673E-20         0.86133E-20         0.00000E+00
    0.87041E-20         0.82593E-20         0.00000E+00
    0.89301E-20         0.68928E-20         0.00000E+00
    0.98604E-20         0.56085E-20         0.00000E+00
    0.95115E-20         0.44973E-20         0.00000E+00
    0.92157E-20         0.36501E-20         0.00000E+00
    0.93045E-20         0.27562E-20         0.00000E+00
    0.90803E-20         0.18522E-20         0.00000E+00
    0.90679E-20         0.10295E-20         0.00000E+00
    0.91331E-20         0.52076E-21         0.00000E+00
    0.00000E+00         0.55353E-20         0.00000E+00
   -0.85900E-22         0.54397E-20         0.00000E+00
    0.35965E-21         0.49312E-20         0.00000E+00
    0.70259E-21         0.48352E-20         0.00000E+00
    0.14662E-20         0.55756E-20         0.00000E+00
    0.15089E-20         0.64042E-20         0.00000E+00
    0.17881E-20         0.72928E-20         0.00000E+00
    0.26399E-20         0.84590E-20         0.00000E+00
    0.23794E-20         0.87376E-20         0.00000E+00
    0.29667E-20         0.82499E-20         0.00000E+00
    0.37898E-20         0.84640E-20         0.00000E+00
    0.50695E-20         0.92891E-20         0.00000E+00
    0.52072E-20         0.98039E-20         0.00000E+00
    0.53899E-20         0.90147E-20         0.00000E+00
    0.60056E-20         0.79950E-20         0.00000E+00
    0.64943E-20         0.80973E-20         0.00000E+00
    0.71950E-20         0.78344E-20         0.00000E+00
    0.76817E-20         0.63706E-20         0.00000E+00
    0.80340E-20         0.53072E-20         0.00000E+00
    0.81191E-20         0.47109E-20         0.00000E+00
    0.80085E-20         0.37591E-20         0.00000E+00
    0.79390E-20         0.27960E-20         0.00000E+00
    0.79032E-20         0.18907E-20         0.00000E+00
    0.80311E-20         0.90826E-21         0.00000E+00
    0.80587E-20         0.43158E-21         0.00000E+00
    0.00000E+00         0.47244E-20         0.00000E+00
    0.47916E-21         0.49590E-20         0.00000E+00
    0.10944E-20         0.51053E-20         0.00000E+00
    0.10141E-20         0.44972E-20         0.00000E+00
    0.15523E-20         0.47821E-20         0.00000E+00
    0.16794E-20         0.61328E-20         0.00000E+00
    0.14730E-20         0.71144E-20         0.00000E+00
    0.17490E-20         0.84985E-20         0.00000E+00
    0.23333E-20         0.87933E-20         0.00000E+00
    0.24152E-20         0.79601E-20         0.00000E+00
    0.26733E-20         0.77089E-20         0.00000E+00
    0.29318E-20         0.85255E-20         0.00000E+00
    0.33544E-20         0.94266E-20         0.00000E+00
    0.39286E-20         0.85226E-20         0.00000E+00
    0.43042E-20         0.74727E-20         0.00000E+00
    0.52744E-20         0.74240E-20         0.00000E+00
    0.59396E-20         0.70720E-20         0.00000E+00
    0.62442E-20         0.60537E-20         0.00000E+00
    0.63113E-20         0.51711E-20         0.00000E+00
    0.65147E-20         0.45228E-20         0.00000E+00
    0.67708E-20         0.38302E-20         0.00000E+00
    0.66682E-20         0.28614E-20         0.00000E+00
    0.68437E-20         0.17601E-20         0.00000E+00
    0.69053E-20         0.87406E-21         0.00000E+00
    0.69065E-20         0.46562E-21         0.00000E+00
    0.00000E+00         0.45770E-20         0.00000E+00
    0.69436E-21         0.43452E-20         0.00000E+00
    0.10443E-20         0.43962E-20         0.00000E+00
    0.11572E-20         0.43774E-20         0.00000E+00
    0.16434E-20         0.49103E-20         0.00000E+00
    0.17164E-20         0.64834E-20         0.00000E+00
    0.91306E-21         0.72233E-20         0.00000E+00
    0.91033E-21         0.75988E-20         0.00000E+00
    0.20794E-20         0.80715E-20         0.00000E+00
    0.24546E-20         0.79099E-20         0.00000E+00
    0.24537E-20         0.79474E-20         0.00000E+00
    0.22260E-20         0.86081E-20         0.00000E+00
    0.22818E-20         0.88071E-20         0.00000E+00
    0.28452E-20         0.80649E-20         0.00000E+00
    0.31102E-20         0.66492E-20         0.00000E+00
    0.36542E-20         0.64619E-20         0.00000E+00
    0.45589E-20         0.68646E-20         0.00000E+00
    0.46213E-20         0.59989E-20         0.00000E+00
    0.47069E-20         0.50367E-20         0.00000E+00
    0.50029E-20         0.42514E-20         0.00000E+00
    0.52622E-20         0.36056E-20         0.00000E+00
    0.55928E-20         0.27231E-20         0.00000E+00
    0.56383E-20         0.16536E-20         0.00000E+00
    0.56881E-20         0.84546E-21         0.00000E+00
    0.57296E-20         0.42913E-21         0.00000E+00
    0.00000E+00         0.33356E-20         0.00000E+00
    0.14930E-20         0.39147E-20         0.00000E+00
    0.15177E-20         0.46426E-20         0.00000E+00
    0.90925E-21         0.38980E-20         0.00000E+00
    0.10537E-20         0.42228E-20         0.00000E+00
    0.13843E-20         0.68632E-20         0.00000E+00
    0.13675E-20         0.79205E-20         0.00000E+00
    0.11106E-20         0.73322E-20         0.00000E+00
    0.11576E-20         0.72490E-20         0.00000E+00
    0.14990E-20         0.75858E-20         0.00000E+00
    0.16640E-20         0.79374E-20         0.00000E+00
    0.16461E-20         0.86974E-20         0.00000E+00
    0.18478E-20         0.88074E-20         0.00000E+00
    0.24111E-20         0.76942E-20         0.00000E+00
    0.24660E-20         0.66637E-20         0.00000E+00
    0.20788E-20         0.59753E-20         0.00000E+00
    0.28295E-20         0.61049E-20         0.00000E+00
    0.32847E-20         0.59057E-20         0.00000E+00
    0.35906E-20         0.47895E-20         0.00000E+00
    0.38560E-20         0.39675E-20         0.00000E+00
    0.40643E-20         0.32402E-20         0.00000E+00
    0.43594E-20         0.24854E-20         0.00000E+00
    0.44429E-20         0.16648E-20         0.00000E+00
    0.44821E-20         0.78274E-21         0.00000E+00
    0.45217E-20         0.38270E-21         0.00000E+00
    0.00000E+00         0.15909E-20         0.00000E+00
    0.13327E-20         0.28275E-20         0.00000E+00
    0.18431E-20         0.49800E-20         0.00000E+00
    0.11631E-20         0.48414E-20         0.00000E+00
   -0.51551E-21         0.44352E-20         0.00000E+00
   -0.28398E-21         0.61695E-20         0.00000E+00
    0.12659E-20         0.74970E-20         0.00000E+00
    0.13304E-20         0.78087E-20         0.00000E+00
    0.68858E-21         0.76830E-20         0.00000E+00
    0.74767E-21         0.74035E-20         0.00000E+00
    0.10152E-20         0.78002E-20         0.00000E+00
    0.11549E-20         0.84242E-20         0.00000E+00
    0.16564E-20         0.80421E-20         0.00000E+00
    0.19158E-20         0.74467E-20         0.00000E+00
    0.17697E-20         0.69815E-20         0.00000E+00
    0.16545E-20         0.60985E-20         0.00000E+00
    0.16566E-20         0.56586E-20         0.00000E+00
    0.24521E-20         0.52378E-20         0.00000E+00
    0.27744E-20         0.44655E-20         0.00000E+00
    0.29022E-20         0.37777E-20         0.00000E+00
    0.30708E-20         0.31022E-20         0.00000E+00
    0.31476E-20         0.23445E-20         0.00000E+00
    0.32921E-20         0.15309E-20         0.00000E+00
    0.33262E-20         0.76668E-21         0.00000E+00
    0.33400E-20         0.34993E-21         0.00000E+00
    0.00000E+00         0.67016E-21         0.00000E+00
    0.10665E-21         0.20716E-20         0.00000E+00
    0.36066E-21         0.48122E-20         0.00000E+00
    0.53073E-21         0.62566E-20         0.00000E+00
   -0.65080E-21         0.56699E-20         0.00000E+00
   -0.89768E-21         0.50818E-20         0.00000E+00
    0.15776E-21         0.63061E-20         0.00000E+00
    0.77127E-21         0.79095E-20         0.00000E+00
    0.62913E-21         0.78317E-20         0.00000E+00
    0.67960E-21         0.72591E-20         0.00000E+00
    0.35300E-21         0.75303E-20         0.00000E+00
    0.70090E-21         0.80563E-20         0.00000E+00
    0.13948E-20         0.80465E-20         0.00000E+00
    0.13288E-20         0.75809E-20         0.00000E+00
    0.10129E-20         0.69250E-20         0.00000E+00
    0.10554E-20         0.60883E-20         0.00000E+00
    0.12437E-20         0.53073E-20         0.00000E+00
    0.17697E-20         0.47880E-20         0.00000E+00
    0.18856E-20         0.43395E-20         0.00000E+00
    0.19358E-20         0.36711E-20         0.00000E+00
    0.20034E-20         0.29948E-20         0.00000E+00
    0.21563E-20         0.22640E-20         0.00000E+00
    0.21975E-20         0.14863E-20         0.00000E+00
    0.22310E-20         0.73484E-21         0.00000E+00
    0.22193E-20         0.35498E-21         0.00000E+00
    0.00000E+00         0.13776E-20         0.00000E+00
   -0.19767E-21         0.24669E-20         0.00000E+00
   -0.70805E-21         0.45559E-20         0.00000E+00
   -0.36918E-21         0.58529E-20         0.00000E+00
    0.62655E-22         0.58637E-20         0.00000E+00
   -0.19007E-21         0.53610E-20         0.00000E+00
   -0.17912E-21         0.58281E-20         0.00000E+00
    0.26287E-21         0.73374E-20         0.00000E+00
    0.35525E-21         0.77747E-20         0.00000E+00
   -0.11199E-21         0.76796E-20         0.00000E+00
   -0.25625E-21         0.77790E-20         0.00000E+00
    0.23485E-21         0.73824E-20         0.00000E+00
    0.78922E-21         0.74143E-20         0.00000E+00
    0.80733E-21         0.78285E-20         0.00000E+00
    0.53729E-21         0.72548E-20         0.00000E+00
    0.44889E-21         0.58677E-20         0.00000E+00
    0.62006E-21         0.49444E-20         0.00000E+00
    0.83505E-21         0.45959E-20         0.00000E+00
    0.89654E-21         0.42993E-20         0.00000E+00
    0.94149E-21         0.36599E-20         0.00000E+00
    0.10044E-20         0.28817E-20         0.00000E+00
    0.10433E-20         0.21504E-20         0.00000E+00
    0.11061E-20         0.14562E-20         0.00000E+00
    0.11094E-20         0.74486E-21         0.00000E+00
    0.11078E-20         0.37333E-21         0.00000E+00
    0.00000E+00         0.10655E-20         0.00000E+00
    0.31211E-21         0.27796E-20         0.00000E+00
   -0.62551E-21         0.49837E-20         0.00000E+00
   -0.54355E-21         0.54859E-20         0.00000E+00
    0.10842E-21         0.54908E-20         0.00000E+00
    0.20218E-21         0.53236E-20         0.00000E+00
    0.18321E-21         0.58532E-20         0.00000E+00
    0.15200E-21         0.73751E-20         0.00000E+00
    0.10772E-21         0.82066E-20         0.00000E+00
   -0.71179E-21         0.78706E-20         0.00000E+00
   -0.27440E-21         0.71834E-20         0.00000E+00
    0.47928E-21         0.70108E-20         0.00000E+00
    0.46876E-21         0.74740E-20         0.00000E+00
    0.35984E-21         0.78328E-20         0.00000E+00
    0.46021E-21         0.72834E-20         0.00000E+00
    0.30263E-21         0.60055E-20         0.00000E+00
    0.18463E-21         0.49211E-20         0.00000E+00
    0.34917E-21         0.45115E-20         0.00000E+00
    0.35336E-21         0.42330E-20         0.00000E+00
    0.48174E-21         0.35632E-20         0.00000E+00
    0.54669E-21         0.28930E-20         0.00000E+00
    0.45904E-21         0.21624E-20         0.00000E+00
    0.52280E-21         0.14201E-20         0.00000E+00
    0.53123E-21         0.73307E-21         0.00000E+00
    0.54637E-21         0.35819E-21         0.00000E+00
CELL_DATA       1152
TENSORS stressef double 
   -0.69268E+05         0.61812E+03         0.00000E+00
    0.61812E+03        -0.99344E+05         0.00000E+00
    0.00000E+00         0.00000E+00        -0.50584E+05
 
   -0.36011E+05         0.35672E+04         0.00000E+00
    0.35672E+04        -0.95065E+05         0.00000E+00
    0.00000E+00         0.00000E+00        -0.39323E+05
 
   -0.16312E+05         0.53464E+04         0.00000E+00
    0.53464E+04        -0.85331E+05         0.00000E+00
    0.00000E+00         0.00000E+00        -0.30493E+05
 
   -0.65784E+04         0.51471E+04         0.00000E+00
    0.51471E+04        -0.74779E+05         0.00000E+00
    0.00000E+00         0.00000E+00        -0.24407E+05
 
   -0.17946E+04         0.43655E+04         0.00000E+00
    0.43655E+04        -0.65457E+05         0.00000E+00
    0.00000E+00         0.00000E+00        -0.20176E+05
 
    0.59132E+03         0.35678E+04         0.00000E+00
    0.35678E+04        -0.57722E+05         0.00000E+00
    0.00000E+00         0.00000E+00        -0.17139E+05
 
    0.17586E+04         0.28931E+04         0.00000E+00
    0.28931E+04        -0.51418E+05         0.00000E+00
    0.00000E+00         0.00000E+00        -0.14898E+05
 
    0.22749E+04         0.23539E+04         0.00000E+00
    0.23539E+04        -0.46287E+05         0.00000E+00
    0.00000E+00         0.00000E+00        -0.13204E+05
 
    0.24247E+04         0.19294E+04         0.00000E+00
    0.19294E+04        -0.42086E+05         0.00000E+00
    0.00000E+00         0.00000E+00        -0.11899E+05
 
    0.23569E+04         0.15951E+04         0.00000E+00
    0.15951E+04        -0.38622E+05         0.00000E+00
    0.00000E+00         0.00000E+00        -0.10879E+05
 
    0.21519E+04         0.13299E+04         0.00000E+00
    0.13299E+04        -0.35741E+05         0.00000E+00
    0.00000E+00         0.00000E+00        -0.10077E+05
 
    0.18536E+04         0.11176E+04         0.00000E+00
    0.11176E+04        -0.33326E+05         0.00000E+00
    0.00000E+00         0.00000E+00        -0.94416E+04
 
    0.14857E+04         0.94618E+03         0.00000E+00
    0.94618E+03        -0.31286E+05         0.00000E+00
    0.00000E+00         0.00000E+00        -0.89401E+04
 
    0.10595E+04         0.80664E+03         0.00000E+00
    0.80664E+03        -0.29552E+05         0.00000E+00
    0.00000E+00         0.00000E+00        -0.85476E+04
 
    0.57902E+03         0.69240E+03         0.00000E+00
    0.69240E+03        -0.28067E+05         0.00000E+00
    0.00000E+00         0.00000E+00        -0.82463E+04
 
    0.42690E+02         0.59865E+03         0.00000E+00
    0.59865E+03        -0.26787E+05         0.00000E+00
    0.00000E+00         0.00000E+00        -0.80232E+04
 
   -0.55501E+03         0.52194E+03         0.00000E+00
    0.52194E+03        -0.25675E+05         0.00000E+00
    0.00000E+00         0.00000E+00        -0.78690E+04
 
   -0.12232E+04         0.45980E+03         0.00000E+00
    0.45980E+03        -0.24700E+05         0.00000E+00
    0.00000E+00         0.00000E+00        -0.77770E+04
 
   -0.19745E+04         0.41065E+03         0.00000E+00
    0.41065E+03        -0.23836E+05         0.00000E+00
    0.00000E+00         0.00000E+00        -0.77430E+04
 
   -0.28255E+04         0.37360E+03         0.00000E+00
    0.37360E+03        -0.23056E+05         0.00000E+00
    0.00000E+00         0.00000E+00        -0.77645E+04
 
   -0.37968E+04         0.34843E+03         0.00000E+00
    0.34843E+03        -0.22338E+05         0.00000E+00
    0.00000E+00         0.00000E+00        -0.78406E+04
 
   -0.49148E+04         0.33562E+03         0.00000E+00
    0.33562E+03        -0.21658E+05         0.00000E+00
    0.00000E+00         0.00000E+00        -0.79719E+04
 
   -0.62125E+04         0.33637E+03         0.00000E+00
    0.33637E+03        -0.20990E+05         0.00000E+00
    0.00000E+00         0.00000E+00        -0.81608E+04
 
   -0.77313E+04         0.35280E+03         0.00000E+00
    0.35280E+03        -0.20305E+05         0.00000E+00
    0.00000E+00         0.00000E+00        -0.84109E+04
 
   -0.64581E+05         0.30733E+04         0.00000E+00
    0.30733E+04        -0.99316E+05         0.00000E+00
    0.00000E+00         0.00000E+00        -0.49169E+05
 
   -0.30576E+05         0.13481E+05         0.00000E+00
    0.13481E+05        -0.87764E+05         0.00000E+00
    0.00000E+00         0.00000E+00        -0.35502E+05
 
   -0.15864E+05         0.15997E+05         0.00000E+00
    0.15997E+05        -0.76817E+05         0.00000E+00
    0.00000E+00         0.00000E+00        -0.27804E+05
 
   -0.79189E+04         0.14598E+05         0.00000E+00
    0.14598E+05        -0.67775E+05         0.00000E+00
    0.00000E+00         0.00000E+00        -0.22708E+05
 
   -0.33863E+04         0.12296E+05         0.00000E+00
    0.12296E+05        -0.60185E+05         0.00000E+00
    0.00000E+00         0.00000E+00        -0.19071E+05
 
   -0.82163E+03         0.10092E+05         0.00000E+00
    0.10092E+05        -0.53839E+05         0.00000E+00
    0.00000E+00         0.00000E+00        -0.16398E+05
 
    0.60624E+03         0.82403E+04         0.00000E+00
    0.82403E+04        -0.48548E+05         0.00000E+00
    0.00000E+00         0.00000E+00        -0.14383E+05
 
    0.13593E+04         0.67507E+04         0.00000E+00
    0.67507E+04        -0.44137E+05         0.00000E+00
    0.00000E+00         0.00000E+00        -0.12833E+05
 
    0.17006E+04         0.55668E+04         0.00000E+00
    0.55668E+04        -0.40449E+05         0.00000E+00
    0.00000E+00         0.00000E+00        -0.11625E+05
 
    0.17820E+04         0.46256E+04         0.00000E+00
    0.46256E+04        -0.37352E+05         0.00000E+00
    0.00000E+00         0.00000E+00        -0.10671E+05
 
    0.16919E+04         0.38730E+04         0.00000E+00
    0.38730E+04        -0.34739E+05         0.00000E+00
    0.00000E+00         0.00000E+00        -0.99140E+04
 
    0.14824E+04         0.32663E+04         0.00000E+00
    0.32663E+04        -0.32521E+05         0.00000E+00
    0.00000E+00         0.00000E+00        -0.93115E+04
 
    0.11837E+04         0.27735E+04         0.00000E+00
    0.27735E+04        -0.30629E+05         0.00000E+00
    0.00000E+00         0.00000E+00        -0.88336E+04
 
    0.81227E+03         0.23704E+04         0.00000E+00
    0.23704E+04        -0.29007E+05         0.00000E+00
    0.00000E+00         0.00000E+00        -0.84583E+04
 
    0.37585E+03         0.20391E+04         0.00000E+00
    0.20391E+04        -0.27607E+05         0.00000E+00
    0.00000E+00         0.00000E+00        -0.81695E+04
 
   -0.12420E+03         0.17664E+04         0.00000E+00
    0.17664E+04        -0.26394E+05         0.00000E+00
    0.00000E+00         0.00000E+00        -0.79554E+04
 
   -0.69121E+03         0.15426E+04         0.00000E+00
    0.15426E+04        -0.25334E+05         0.00000E+00
    0.00000E+00         0.00000E+00        -0.78075E+04
 
   -0.13325E+04         0.13611E+04         0.00000E+00
    0.13611E+04        -0.24400E+05         0.00000E+00
    0.00000E+00         0.00000E+00        -0.77198E+04
 
   -0.20594E+04         0.12173E+04         0.00000E+00
    0.12173E+04        -0.23568E+05         0.00000E+00
    0.00000E+00         0.00000E+00        -0.76882E+04
 
   -0.28868E+04         0.11089E+04         0.00000E+00
    0.11089E+04        -0.22815E+05         0.00000E+00
    0.00000E+00         0.00000E+00        -0.77105E+04
 
   -0.38343E+04         0.10354E+04         0.00000E+00
    0.10354E+04        -0.22118E+05         0.00000E+00
    0.00000E+00         0.00000E+00        -0.77858E+04
 
   -0.49269E+04         0.99828E+03         0.00000E+00
    0.99828E+03        -0.21457E+05         0.00000E+00
    0.00000E+00         0.00000E+00        -0.79150E+04
 
   -0.61959E+04         0.10012E+04         0.00000E+00
    0.10012E+04        -0.20805E+05         0.00000E+00
    0.00000E+00         0.00000E+00        -0.81002E+04
 
   -0.76807E+04         0.10503E+04         0.00000E+00
    0.10503E+04        -0.20135E+05         0.00000E+00
    0.00000E+00         0.00000E+00        -0.83448E+04
 
   -0.48122E+05         0.17594E+05         0.00000E+00
    0.17594E+05        -0.74889E+05         0.00000E+00
    0.00000E+00         0.00000E+00        -0.36903E+05
 
   -0.26322E+05         0.25407E+05         0.00000E+00
    0.25407E+05        -0.65491E+05         0.00000E+00
    0.00000E+00         0.00000E+00        -0.27544E+05
 
   -0.17169E+05         0.24191E+05         0.00000E+00
    0.24191E+05        -0.59592E+05         0.00000E+00
    0.00000E+00         0.00000E+00        -0.23028E+05
 
   -0.10622E+05         0.21198E+05         0.00000E+00
    0.21198E+05        -0.54922E+05         0.00000E+00
    0.00000E+00         0.00000E+00        -0.19663E+05
 
   -0.61871E+04         0.17918E+05         0.00000E+00
    0.17918E+05        -0.50728E+05         0.00000E+00
    0.00000E+00         0.00000E+00        -0.17074E+05
 
   -0.32687E+04         0.14922E+05         0.00000E+00
    0.14922E+05        -0.46857E+05         0.00000E+00
    0.00000E+00         0.00000E+00        -0.15038E+05
 
   -0.14113E+04         0.12380E+05         0.00000E+00
    0.12380E+05        -0.43337E+05         0.00000E+00
    0.00000E+00         0.00000E+00        -0.13424E+05
 
   -0.26890E+03         0.10288E+05         0.00000E+00
    0.10288E+05        -0.40189E+05         0.00000E+00
    0.00000E+00         0.00000E+00        -0.12137E+05
 
    0.39331E+03         0.85882E+04         0.00000E+00
    0.85882E+04        -0.37409E+05         0.00000E+00
    0.00000E+00         0.00000E+00        -0.11105E+05
 
    0.72979E+03         0.72088E+04         0.00000E+00
    0.72088E+04        -0.34972E+05         0.00000E+00
    0.00000E+00         0.00000E+00        -0.10273E+05
 
    0.84026E+03         0.60866E+04         0.00000E+00
    0.60866E+04        -0.32844E+05         0.00000E+00
    0.00000E+00         0.00000E+00        -0.96011E+04
 
    0.78849E+03         0.51691E+04         0.00000E+00
    0.51691E+04        -0.30989E+05         0.00000E+00
    0.00000E+00         0.00000E+00        -0.90600E+04
 
    0.61470E+03         0.44149E+04         0.00000E+00
    0.44149E+04        -0.29370E+05         0.00000E+00
    0.00000E+00         0.00000E+00        -0.86267E+04
 
    0.34344E+03         0.37919E+04         0.00000E+00
    0.37919E+04        -0.27957E+05         0.00000E+00
    0.00000E+00         0.00000E+00        -0.82840E+04
 
   -0.11429E+02         0.32759E+04         0.00000E+00
    0.32759E+04        -0.26719E+05         0.00000E+00
    0.00000E+00         0.00000E+00        -0.80191E+04
 
   -0.44366E+03         0.28484E+04         0.00000E+00
    0.28484E+04        -0.25631E+05         0.00000E+00
    0.00000E+00         0.00000E+00        -0.78224E+04
 
   -0.95275E+03         0.24959E+04         0.00000E+00
    0.24959E+04        -0.24670E+05         0.00000E+00
    0.00000E+00         0.00000E+00        -0.76868E+04
 
   -0.15430E+04         0.22089E+04         0.00000E+00
    0.22089E+04        -0.23814E+05         0.00000E+00
    0.00000E+00         0.00000E+00        -0.76071E+04
 
   -0.22228E+04         0.19811E+04         0.00000E+00
    0.19811E+04        -0.23044E+05         0.00000E+00
    0.00000E+00         0.00000E+00        -0.75801E+04
 
   -0.30048E+04         0.18094E+04         0.00000E+00
    0.18094E+04        -0.22341E+05         0.00000E+00
    0.00000E+00         0.00000E+00        -0.76039E+04
 
   -0.39062E+04         0.16934E+04         0.00000E+00
    0.16934E+04        -0.21687E+05         0.00000E+00
    0.00000E+00         0.00000E+00        -0.76779E+04
 
   -0.49492E+04         0.16357E+04         0.00000E+00
    0.16357E+04        -0.21060E+05         0.00000E+00
    0.00000E+00         0.00000E+00        -0.78028E+04
 
   -0.61621E+04         0.16424E+04         0.00000E+00
    0.16424E+04        -0.20440E+05         0.00000E+00
    0.00000E+00         0.00000E+00        -0.79807E+04
 
   -0.75807E+04         0.17238E+04         0.00000E+00
    0.17238E+04        -0.19802E+05         0.00000E+00
    0.00000E+00         0.00000E+00        -0.82148E+04
 
   -0.22457E+05         0.17640E+05         0.00000E+00
    0.17640E+05        -0.25090E+05         0.00000E+00
    0.00000E+00         0.00000E+00        -0.14264E+05
 
   -0.25864E+05         0.25944E+05         0.00000E+00
    0.25944E+05        -0.33925E+05         0.00000E+00
    0.00000E+00         0.00000E+00        -0.17937E+05
 
   -0.19351E+05         0.25462E+05         0.00000E+00
    0.25462E+05        -0.37966E+05         0.00000E+00
    0.00000E+00         0.00000E+00        -0.17195E+05
 
   -0.13710E+05         0.23127E+05         0.00000E+00
    0.23127E+05        -0.39342E+05         0.00000E+00
    0.00000E+00         0.00000E+00        -0.15916E+05
 
   -0.92865E+04         0.20259E+05         0.00000E+00
    0.20259E+05        -0.39182E+05         0.00000E+00
    0.00000E+00         0.00000E+00        -0.14540E+05
 
   -0.60619E+04         0.17422E+05         0.00000E+00
    0.17422E+05        -0.38161E+05         0.00000E+00
    0.00000E+00         0.00000E+00        -0.13267E+05
 
   -0.38002E+04         0.14850E+05         0.00000E+00
    0.14850E+05        -0.36697E+05         0.00000E+00
    0.00000E+00         0.00000E+00        -0.12149E+05
 
   -0.22636E+04         0.12620E+05         0.00000E+00
    0.12620E+05        -0.35050E+05         0.00000E+00
    0.00000E+00         0.00000E+00        -0.11194E+05
 
   -0.12555E+04         0.10729E+05         0.00000E+00
    0.10729E+05        -0.33376E+05         0.00000E+00
    0.00000E+00         0.00000E+00        -0.10389E+05
 
   -0.62967E+03         0.91414E+04         0.00000E+00
    0.91414E+04        -0.31762E+05         0.00000E+00
    0.00000E+00         0.00000E+00        -0.97175E+04
 
   -0.28216E+03         0.78138E+04         0.00000E+00
    0.78138E+04        -0.30253E+05         0.00000E+00
    0.00000E+00         0.00000E+00        -0.91606E+04
 
   -0.14109E+03         0.67039E+04         0.00000E+00
    0.67039E+04        -0.28868E+05         0.00000E+00
    0.00000E+00         0.00000E+00        -0.87028E+04
 
   -0.15778E+03         0.57748E+04         0.00000E+00
    0.57748E+04        -0.27611E+05         0.00000E+00
    0.00000E+00         0.00000E+00        -0.83307E+04
 
   -0.30007E+03         0.49961E+04         0.00000E+00
    0.49961E+04        -0.26477E+05         0.00000E+00
    0.00000E+00         0.00000E+00        -0.80331E+04
 
   -0.54769E+03         0.43432E+04         0.00000E+00
    0.43432E+04        -0.25458E+05         0.00000E+00
    0.00000E+00         0.00000E+00        -0.78016E+04
 
   -0.88909E+03         0.37973E+04         0.00000E+00
    0.37973E+04        -0.24541E+05         0.00000E+00
    0.00000E+00         0.00000E+00        -0.76291E+04
 
   -0.13193E+04         0.33438E+04         0.00000E+00
    0.33438E+04        -0.23716E+05         0.00000E+00
    0.00000E+00         0.00000E+00        -0.75106E+04
 
   -0.18389E+04         0.29727E+04         0.00000E+00
    0.29727E+04        -0.22969E+05         0.00000E+00
    0.00000E+00         0.00000E+00        -0.74423E+04
 
   -0.24529E+04         0.26773E+04         0.00000E+00
    0.26773E+04        -0.22286E+05         0.00000E+00
    0.00000E+00         0.00000E+00        -0.74217E+04
 
   -0.31707E+04         0.24546E+04         0.00000E+00
    0.24546E+04        -0.21654E+05         0.00000E+00
    0.00000E+00         0.00000E+00        -0.74475E+04
 
   -0.40062E+04         0.23049E+04         0.00000E+00
    0.23049E+04        -0.21058E+05         0.00000E+00
    0.00000E+00         0.00000E+00        -0.75194E+04
 
   -0.49781E+04         0.22325E+04         0.00000E+00
    0.22325E+04        -0.20482E+05         0.00000E+00
    0.00000E+00         0.00000E+00        -0.76381E+04
 
   -0.61103E+04         0.22459E+04         0.00000E+00
    0.22459E+04        -0.19908E+05         0.00000E+00
    0.00000E+00         0.00000E+00        -0.78055E+04
 
   -0.74335E+04         0.23587E+04         0.00000E+00
    0.23587E+04        -0.19314E+05         0.00000E+00
    0.00000E+00         0.00000E+00        -0.80243E+04
 
   -0.54729E+04         0.32381E+04         0.00000E+00
    0.32381E+04        -0.64123E+03         0.00000E+00
    0.00000E+00         0.00000E+00        -0.18342E+04
 
   -0.20250E+05         0.15274E+05         0.00000E+00
    0.15274E+05        -0.11420E+05         0.00000E+00
    0.00000E+00         0.00000E+00        -0.95010E+04
 
   -0.19185E+05         0.20104E+05         0.00000E+00
    0.20104E+05        -0.19980E+05         0.00000E+00
    0.00000E+00         0.00000E+00        -0.11750E+05
 
   -0.15355E+05         0.20644E+05         0.00000E+00
    0.20644E+05        -0.25158E+05         0.00000E+00
    0.00000E+00         0.00000E+00        -0.12154E+05
 
   -0.11573E+05         0.19462E+05         0.00000E+00
    0.19462E+05        -0.27999E+05         0.00000E+00
    0.00000E+00         0.00000E+00        -0.11872E+05
 
   -0.84367E+04         0.17615E+05         0.00000E+00
    0.17615E+05        -0.29315E+05         0.00000E+00
    0.00000E+00         0.00000E+00        -0.11325E+05
 
   -0.60220E+04         0.15604E+05         0.00000E+00
    0.15604E+05        -0.29664E+05         0.00000E+00
    0.00000E+00         0.00000E+00        -0.10706E+05
 
   -0.42404E+04         0.13665E+05         0.00000E+00
    0.13665E+05        -0.29422E+05         0.00000E+00
    0.00000E+00         0.00000E+00        -0.10099E+05
 
   -0.29697E+04         0.11898E+05         0.00000E+00
    0.11898E+05        -0.28835E+05         0.00000E+00
    0.00000E+00         0.00000E+00        -0.95415E+04
 
   -0.20966E+04         0.10335E+05         0.00000E+00
    0.10335E+05        -0.28064E+05         0.00000E+00
    0.00000E+00         0.00000E+00        -0.90483E+04
 
   -0.15295E+04         0.89743E+04         0.00000E+00
    0.89743E+04        -0.27211E+05         0.00000E+00
    0.00000E+00         0.00000E+00        -0.86221E+04
 
   -0.11988E+04         0.78009E+04         0.00000E+00
    0.78009E+04        -0.26338E+05         0.00000E+00
    0.00000E+00         0.00000E+00        -0.82610E+04
 
   -0.10536E+04         0.67939E+04         0.00000E+00
    0.67939E+04        -0.25482E+05         0.00000E+00
    0.00000E+00         0.00000E+00        -0.79608E+04
 
   -0.10579E+04         0.59329E+04         0.00000E+00
    0.59329E+04        -0.24666E+05         0.00000E+00
    0.00000E+00         0.00000E+00        -0.77171E+04
 
   -0.11870E+04         0.51996E+04         0.00000E+00
    0.51996E+04        -0.23898E+05         0.00000E+00
    0.00000E+00         0.00000E+00        -0.75256E+04
 
   -0.14253E+04         0.45786E+04         0.00000E+00
    0.45786E+04        -0.23183E+05         0.00000E+00
    0.00000E+00         0.00000E+00        -0.73824E+04
 
   -0.17638E+04         0.40579E+04         0.00000E+00
    0.40579E+04        -0.22519E+05         0.00000E+00
    0.00000E+00         0.00000E+00        -0.72847E+04
 
   -0.21994E+04         0.36288E+04         0.00000E+00
    0.36288E+04        -0.21901E+05         0.00000E+00
    0.00000E+00         0.00000E+00        -0.72302E+04
 
   -0.27336E+04         0.32860E+04         0.00000E+00
    0.32860E+04        -0.21324E+05         0.00000E+00
    0.00000E+00         0.00000E+00        -0.72174E+04
 
   -0.33725E+04         0.30277E+04         0.00000E+00
    0.30277E+04        -0.20779E+05         0.00000E+00
    0.00000E+00         0.00000E+00        -0.72455E+04
 
   -0.41261E+04         0.28557E+04         0.00000E+00
    0.28557E+04        -0.20256E+05         0.00000E+00
    0.00000E+00         0.00000E+00        -0.73145E+04
 
   -0.50087E+04         0.27759E+04         0.00000E+00
    0.27759E+04        -0.19742E+05         0.00000E+00
    0.00000E+00         0.00000E+00        -0.74253E+04
 
   -0.60395E+04         0.27991E+04         0.00000E+00
    0.27991E+04        -0.19225E+05         0.00000E+00
    0.00000E+00         0.00000E+00        -0.75793E+04
 
   -0.72424E+04         0.29422E+04         0.00000E+00
    0.29422E+04        -0.18687E+05         0.00000E+00
    0.00000E+00         0.00000E+00        -0.77788E+04
 
    0.48349E+03         0.10065E+04         0.00000E+00
    0.10065E+04        -0.58769E+03         0.00000E+00
    0.00000E+00         0.00000E+00        -0.31258E+02
 
   -0.11757E+05         0.73085E+04         0.00000E+00
    0.73085E+04        -0.33812E+04         0.00000E+00
    0.00000E+00         0.00000E+00        -0.45414E+04
 
   -0.15764E+05         0.13257E+05         0.00000E+00
    0.13257E+05        -0.94797E+04         0.00000E+00
    0.00000E+00         0.00000E+00        -0.75730E+04
 
   -0.14785E+05         0.16060E+05         0.00000E+00
    0.16060E+05        -0.14942E+05         0.00000E+00
    0.00000E+00         0.00000E+00        -0.89181E+04
 
   -0.12401E+05         0.16680E+05         0.00000E+00
    0.16680E+05        -0.18915E+05         0.00000E+00
    0.00000E+00         0.00000E+00        -0.93948E+04
 
   -0.98842E+04         0.16111E+05         0.00000E+00
    0.16111E+05        -0.21533E+05         0.00000E+00
    0.00000E+00         0.00000E+00        -0.94250E+04
 
   -0.76752E+04         0.14962E+05         0.00000E+00
    0.14962E+05        -0.23107E+05         0.00000E+00
    0.00000E+00         0.00000E+00        -0.92346E+04
 
   -0.58872E+04         0.13584E+05         0.00000E+00
    0.13584E+05        -0.23933E+05         0.00000E+00
    0.00000E+00         0.00000E+00        -0.89461E+04
 
   -0.45086E+04         0.12167E+05         0.00000E+00
    0.12167E+05        -0.24245E+05         0.00000E+00
    0.00000E+00         0.00000E+00        -0.86261E+04
 
   -0.34866E+04         0.10813E+05         0.00000E+00
    0.10813E+05        -0.24215E+05         0.00000E+00
    0.00000E+00         0.00000E+00        -0.83105E+04
 
   -0.27606E+04         0.95666E+04         0.00000E+00
    0.95666E+04        -0.23966E+05         0.00000E+00
    0.00000E+00         0.00000E+00        -0.80180E+04
 
   -0.22764E+04         0.84456E+04         0.00000E+00
    0.84456E+04        -0.23584E+05         0.00000E+00
    0.00000E+00         0.00000E+00        -0.77581E+04
 
   -0.19894E+04         0.74521E+04         0.00000E+00
    0.74521E+04        -0.23126E+05         0.00000E+00
    0.00000E+00         0.00000E+00        -0.75347E+04
 
   -0.18654E+04         0.65809E+04         0.00000E+00
    0.65809E+04        -0.22632E+05         0.00000E+00
    0.00000E+00         0.00000E+00        -0.73492E+04
 
   -0.18791E+04         0.58239E+04         0.00000E+00
    0.58239E+04        -0.22126E+05         0.00000E+00
    0.00000E+00         0.00000E+00        -0.72014E+04
 
   -0.20128E+04         0.51728E+04         0.00000E+00
    0.51728E+04        -0.21623E+05         0.00000E+00
    0.00000E+00         0.00000E+00        -0.70906E+04
 
   -0.22551E+04         0.46204E+04         0.00000E+00
    0.46204E+04        -0.21131E+05         0.00000E+00
    0.00000E+00         0.00000E+00        -0.70160E+04
 
   -0.26002E+04         0.41615E+04         0.00000E+00
    0.41615E+04        -0.20656E+05         0.00000E+00
    0.00000E+00         0.00000E+00        -0.69767E+04
 
   -0.30464E+04         0.37935E+04         0.00000E+00
    0.37935E+04        -0.20195E+05         0.00000E+00
    0.00000E+00         0.00000E+00        -0.69724E+04
 
   -0.35962E+04         0.35166E+04         0.00000E+00
    0.35166E+04        -0.19746E+05         0.00000E+00
    0.00000E+00         0.00000E+00        -0.70028E+04
 
   -0.42560E+04         0.33346E+04         0.00000E+00
    0.33346E+04        -0.19305E+05         0.00000E+00
    0.00000E+00         0.00000E+00        -0.70683E+04
 
   -0.50356E+04         0.32555E+04         0.00000E+00
    0.32555E+04        -0.18863E+05         0.00000E+00
    0.00000E+00         0.00000E+00        -0.71695E+04
 
   -0.59484E+04         0.32921E+04         0.00000E+00
    0.32921E+04        -0.18411E+05         0.00000E+00
    0.00000E+00         0.00000E+00        -0.73079E+04
 
   -0.70118E+04         0.34638E+04         0.00000E+00
    0.34638E+04        -0.17938E+05         0.00000E+00
    0.00000E+00         0.00000E+00        -0.74850E+04
 
    0.32281E+04         0.38100E+03         0.00000E+00
    0.38100E+03        -0.78819E+02         0.00000E+00
    0.00000E+00         0.00000E+00         0.94478E+03
 
   -0.63738E+04         0.38495E+04         0.00000E+00
    0.38495E+04        -0.14772E+04         0.00000E+00
    0.00000E+00         0.00000E+00        -0.23553E+04
 
   -0.11415E+05         0.82619E+04         0.00000E+00
    0.82619E+04        -0.46528E+04         0.00000E+00
    0.00000E+00         0.00000E+00        -0.48203E+04
 
   -0.12696E+05         0.11567E+05         0.00000E+00
    0.11567E+05        -0.87216E+04         0.00000E+00
    0.00000E+00         0.00000E+00        -0.64252E+04
 
   -0.11889E+05         0.13263E+05         0.00000E+00
    0.13263E+05        -0.12441E+05         0.00000E+00
    0.00000E+00         0.00000E+00        -0.72991E+04
 
   -0.10311E+05         0.13734E+05         0.00000E+00
    0.13734E+05        -0.15390E+05         0.00000E+00
    0.00000E+00         0.00000E+00        -0.77103E+04
 
   -0.85983E+04         0.13429E+05         0.00000E+00
    0.13429E+05        -0.17543E+05         0.00000E+00
    0.00000E+00         0.00000E+00        -0.78425E+04
 
   -0.70324E+04         0.12684E+05         0.00000E+00
    0.12684E+05        -0.19016E+05         0.00000E+00
    0.00000E+00         0.00000E+00        -0.78145E+04
 
   -0.57149E+04         0.11723E+05         0.00000E+00
    0.11723E+05        -0.19953E+05         0.00000E+00
    0.00000E+00         0.00000E+00        -0.77004E+04
 
   -0.46640E+04         0.10685E+05         0.00000E+00
    0.10685E+05        -0.20490E+05         0.00000E+00
    0.00000E+00         0.00000E+00        -0.75462E+04
 
   -0.38626E+04         0.96526E+04         0.00000E+00
    0.96526E+04        -0.20736E+05         0.00000E+00
    0.00000E+00         0.00000E+00        -0.73796E+04
 
   -0.32815E+04         0.86711E+04         0.00000E+00
    0.86711E+04        -0.20777E+05         0.00000E+00
    0.00000E+00         0.00000E+00        -0.72177E+04
 
   -0.28904E+04         0.77649E+04         0.00000E+00
    0.77649E+04        -0.20677E+05         0.00000E+00
    0.00000E+00         0.00000E+00        -0.70703E+04
 
   -0.26624E+04         0.69449E+04         0.00000E+00
    0.69449E+04        -0.20482E+05         0.00000E+00
    0.00000E+00         0.00000E+00        -0.69433E+04
 
   -0.25754E+04         0.62150E+04         0.00000E+00
    0.62150E+04        -0.20225E+05         0.00000E+00
    0.00000E+00         0.00000E+00        -0.68402E+04
 
   -0.26126E+04         0.55754E+04         0.00000E+00
    0.55754E+04        -0.19930E+05         0.00000E+00
    0.00000E+00         0.00000E+00        -0.67627E+04
 
   -0.27622E+04         0.50252E+04         0.00000E+00
    0.50252E+04        -0.19611E+05         0.00000E+00
    0.00000E+00         0.00000E+00        -0.67120E+04
 
   -0.30164E+04         0.45640E+04         0.00000E+00
    0.45640E+04        -0.19279E+05         0.00000E+00
    0.00000E+00         0.00000E+00        -0.66885E+04
 
   -0.33715E+04         0.41926E+04         0.00000E+00
    0.41926E+04        -0.18938E+05         0.00000E+00
    0.00000E+00         0.00000E+00        -0.66928E+04
 
   -0.38270E+04         0.39142E+04         0.00000E+00
    0.39142E+04        -0.18590E+05         0.00000E+00
    0.00000E+00         0.00000E+00        -0.67252E+04
 
   -0.43857E+04         0.37347E+04         0.00000E+00
    0.37347E+04        -0.18236E+05         0.00000E+00
    0.00000E+00         0.00000E+00        -0.67864E+04
 
   -0.50528E+04         0.36643E+04         0.00000E+00
    0.36643E+04        -0.17870E+05         0.00000E+00
    0.00000E+00         0.00000E+00        -0.68770E+04
 
   -0.58363E+04         0.37176E+04         0.00000E+00
    0.37176E+04        -0.17490E+05         0.00000E+00
    0.00000E+00         0.00000E+00        -0.69979E+04
 
   -0.67464E+04         0.39159E+04         0.00000E+00
    0.39159E+04        -0.17088E+05         0.00000E+00
    0.00000E+00         0.00000E+00        -0.71503E+04
 
    0.45669E+04         0.14594E+03         0.00000E+00
    0.14594E+03        -0.52071E+02         0.00000E+00
    0.00000E+00         0.00000E+00         0.13545E+04
 
   -0.29309E+04         0.21453E+04         0.00000E+00
    0.21453E+04        -0.70813E+03         0.00000E+00
    0.00000E+00         0.00000E+00        -0.10917E+04
 
   -0.78677E+04         0.52211E+04         0.00000E+00
    0.52211E+04        -0.25444E+04         0.00000E+00
    0.00000E+00         0.00000E+00        -0.31236E+04
 
   -0.10168E+05         0.80895E+04         0.00000E+00
    0.80895E+04        -0.52415E+04         0.00000E+00
    0.00000E+00         0.00000E+00        -0.46230E+04
 
   -0.10582E+05         0.10099E+05         0.00000E+00
    0.10099E+05        -0.81899E+04         0.00000E+00
    0.00000E+00         0.00000E+00        -0.56315E+04
 
   -0.99391E+04         0.11170E+05         0.00000E+00
    0.11170E+05        -0.10892E+05         0.00000E+00
    0.00000E+00         0.00000E+00        -0.62492E+04
 
   -0.88464E+04         0.11495E+05         0.00000E+00
    0.11495E+05        -0.13134E+05         0.00000E+00
    0.00000E+00         0.00000E+00        -0.65941E+04
 
   -0.76499E+04         0.11305E+05         0.00000E+00
    0.11305E+05        -0.14878E+05         0.00000E+00
    0.00000E+00         0.00000E+00        -0.67584E+04
 
   -0.65270E+04         0.10795E+05         0.00000E+00
    0.10795E+05        -0.16168E+05         0.00000E+00
    0.00000E+00         0.00000E+00        -0.68086E+04
 
   -0.55561E+04         0.10106E+05         0.00000E+00
    0.10106E+05        -0.17078E+05         0.00000E+00
    0.00000E+00         0.00000E+00        -0.67902E+04
 
   -0.47634E+04         0.93341E+04         0.00000E+00
    0.93341E+04        -0.17684E+05         0.00000E+00
    0.00000E+00         0.00000E+00        -0.67342E+04
 
   -0.41482E+04         0.85438E+04         0.00000E+00
    0.85438E+04        -0.18055E+05         0.00000E+00
    0.00000E+00         0.00000E+00        -0.66611E+04
 
   -0.36987E+04         0.77747E+04         0.00000E+00
    0.77747E+04        -0.18249E+05         0.00000E+00
    0.00000E+00         0.00000E+00        -0.65844E+04
 
   -0.33992E+04         0.70514E+04         0.00000E+00
    0.70514E+04        -0.18311E+05         0.00000E+00
    0.00000E+00         0.00000E+00        -0.65131E+04
 
   -0.32341E+04         0.63885E+04         0.00000E+00
    0.63885E+04        -0.18276E+05         0.00000E+00
    0.00000E+00         0.00000E+00        -0.64530E+04
 
   -0.31899E+04         0.57950E+04         0.00000E+00
    0.57950E+04        -0.18170E+05         0.00000E+00
    0.00000E+00         0.00000E+00        -0.64080E+04
 
   -0.32561E+04         0.52763E+04         0.00000E+00
    0.52763E+04        -0.18013E+05         0.00000E+00
    0.00000E+00         0.00000E+00        -0.63806E+04
 
   -0.34246E+04         0.48372E+04         0.00000E+00
    0.48372E+04        -0.17817E+05         0.00000E+00
    0.00000E+00         0.00000E+00        -0.63726E+04
 
   -0.36904E+04         0.44824E+04         0.00000E+00
    0.44824E+04        -0.17593E+05         0.00000E+00
    0.00000E+00         0.00000E+00        -0.63850E+04
 
   -0.40507E+04         0.42181E+04         0.00000E+00
    0.42181E+04        -0.17346E+05         0.00000E+00
    0.00000E+00         0.00000E+00        -0.64190E+04
 
   -0.45051E+04         0.40527E+04         0.00000E+00
    0.40527E+04        -0.17079E+05         0.00000E+00
    0.00000E+00         0.00000E+00        -0.64751E+04
 
   -0.50549E+04         0.39983E+04         0.00000E+00
    0.39983E+04        -0.16792E+05         0.00000E+00
    0.00000E+00         0.00000E+00        -0.65541E+04
 
   -0.57026E+04         0.40712E+04         0.00000E+00
    0.40712E+04        -0.16486E+05         0.00000E+00
    0.00000E+00         0.00000E+00        -0.66565E+04
 
   -0.64517E+04         0.42934E+04         0.00000E+00
    0.42934E+04        -0.16158E+05         0.00000E+00
    0.00000E+00         0.00000E+00        -0.67828E+04
 
    0.52585E+04         0.27342E+02         0.00000E+00
    0.27342E+02        -0.24802E+02         0.00000E+00
    0.00000E+00         0.00000E+00         0.15701E+04
 
   -0.73847E+03         0.12238E+04         0.00000E+00
    0.12238E+04        -0.40043E+03         0.00000E+00
    0.00000E+00         0.00000E+00        -0.34167E+03
 
   -0.51908E+04         0.33417E+04         0.00000E+00
    0.33417E+04        -0.15001E+04         0.00000E+00
    0.00000E+00         0.00000E+00        -0.20073E+04
 
   -0.78533E+04         0.56212E+04         0.00000E+00
    0.56212E+04        -0.33012E+04         0.00000E+00
    0.00000E+00         0.00000E+00        -0.33463E+04
 
   -0.89950E+04         0.75193E+04         0.00000E+00
    0.75193E+04        -0.54927E+04         0.00000E+00
    0.00000E+00         0.00000E+00        -0.43463E+04
 
   -0.90935E+04         0.88149E+04         0.00000E+00
    0.88149E+04        -0.77363E+04         0.00000E+00
    0.00000E+00         0.00000E+00        -0.50489E+04
 
   -0.85924E+04         0.95157E+04         0.00000E+00
    0.95157E+04        -0.97929E+04         0.00000E+00
    0.00000E+00         0.00000E+00        -0.55156E+04
 
   -0.78144E+04         0.97335E+04         0.00000E+00
    0.97335E+04        -0.11548E+05         0.00000E+00
    0.00000E+00         0.00000E+00        -0.58086E+04
 
   -0.69613E+04         0.96006E+04         0.00000E+00
    0.96006E+04        -0.12971E+05         0.00000E+00
    0.00000E+00         0.00000E+00        -0.59796E+04
 
   -0.61478E+04         0.92343E+04         0.00000E+00
    0.92343E+04        -0.14079E+05         0.00000E+00
    0.00000E+00         0.00000E+00        -0.60681E+04
 
   -0.54322E+04         0.87268E+04         0.00000E+00
    0.87268E+04        -0.14912E+05         0.00000E+00
    0.00000E+00         0.00000E+00        -0.61034E+04
 
   -0.48398E+04         0.81458E+04         0.00000E+00
    0.81458E+04        -0.15515E+05         0.00000E+00
    0.00000E+00         0.00000E+00        -0.61064E+04
 
   -0.43769E+04         0.75393E+04         0.00000E+00
    0.75393E+04        -0.15930E+05         0.00000E+00
    0.00000E+00         0.00000E+00        -0.60921E+04
 
   -0.40404E+04         0.69405E+04         0.00000E+00
    0.69405E+04        -0.16196E+05         0.00000E+00
    0.00000E+00         0.00000E+00        -0.60709E+04
 
   -0.38232E+04         0.63723E+04         0.00000E+00
    0.63723E+04        -0.16345E+05         0.00000E+00
    0.00000E+00         0.00000E+00        -0.60503E+04
 
   -0.37166E+04         0.58502E+04         0.00000E+00
    0.58502E+04        -0.16401E+05         0.00000E+00
    0.00000E+00         0.00000E+00        -0.60354E+04
 
   -0.37127E+04         0.53860E+04         0.00000E+00
    0.53860E+04        -0.16386E+05         0.00000E+00
    0.00000E+00         0.00000E+00        -0.60297E+04
 
   -0.38045E+04         0.49888E+04         0.00000E+00
    0.49888E+04        -0.16315E+05         0.00000E+00
    0.00000E+00         0.00000E+00        -0.60360E+04
 
   -0.39865E+04         0.46672E+04         0.00000E+00
    0.46672E+04        -0.16199E+05         0.00000E+00
    0.00000E+00         0.00000E+00        -0.60558E+04
 
   -0.42546E+04         0.44303E+04         0.00000E+00
    0.44303E+04        -0.16047E+05         0.00000E+00
    0.00000E+00         0.00000E+00        -0.60905E+04
 
   -0.46056E+04         0.42890E+04         0.00000E+00
    0.42890E+04        -0.15865E+05         0.00000E+00
    0.00000E+00         0.00000E+00        -0.61410E+04
 
   -0.50373E+04         0.42568E+04         0.00000E+00
    0.42568E+04        -0.15655E+05         0.00000E+00
    0.00000E+00         0.00000E+00        -0.62078E+04
 
   -0.55475E+04         0.43511E+04         0.00000E+00
    0.43511E+04        -0.15423E+05         0.00000E+00
    0.00000E+00         0.00000E+00        -0.62911E+04
 
   -0.61335E+04         0.45944E+04         0.00000E+00
    0.45944E+04        -0.15170E+05         0.00000E+00
    0.00000E+00         0.00000E+00        -0.63910E+04
 
    0.55916E+04        -0.42965E+02         0.00000E+00
   -0.42965E+02        -0.16511E+02         0.00000E+00
    0.00000E+00         0.00000E+00         0.16725E+04
 
    0.68875E+03         0.67650E+03         0.00000E+00
    0.67650E+03        -0.24594E+03         0.00000E+00
    0.00000E+00         0.00000E+00         0.13285E+03
 
   -0.32320E+04         0.21408E+04         0.00000E+00
    0.21408E+04        -0.94805E+03         0.00000E+00
    0.00000E+00         0.00000E+00        -0.12540E+04
 
   -0.59202E+04         0.38902E+04         0.00000E+00
    0.38902E+04        -0.21706E+04         0.00000E+00
    0.00000E+00         0.00000E+00        -0.24272E+04
 
   -0.74420E+04         0.55283E+04         0.00000E+00
    0.55283E+04        -0.37781E+04         0.00000E+00
    0.00000E+00         0.00000E+00        -0.33660E+04
 
   -0.80466E+04         0.68213E+04         0.00000E+00
    0.68213E+04        -0.55591E+04         0.00000E+00
    0.00000E+00         0.00000E+00        -0.40817E+04
 
   -0.80288E+04         0.76921E+04         0.00000E+00
    0.76921E+04        -0.73233E+04         0.00000E+00
    0.00000E+00         0.00000E+00        -0.46056E+04
 
   -0.76441E+04         0.81648E+04         0.00000E+00
    0.81648E+04        -0.89417E+04         0.00000E+00
    0.00000E+00         0.00000E+00        -0.49758E+04
 
   -0.70811E+04         0.83104E+04         0.00000E+00
    0.83104E+04        -0.10348E+05         0.00000E+00
    0.00000E+00         0.00000E+00        -0.52288E+04
 
   -0.64649E+04         0.82105E+04         0.00000E+00
    0.82105E+04        -0.11522E+05         0.00000E+00
    0.00000E+00         0.00000E+00        -0.53960E+04
 
   -0.58720E+04         0.79400E+04         0.00000E+00
    0.79400E+04        -0.12470E+05         0.00000E+00
    0.00000E+00         0.00000E+00        -0.55025E+04
 
   -0.53456E+04         0.75610E+04         0.00000E+00
    0.75610E+04        -0.13212E+05         0.00000E+00
    0.00000E+00         0.00000E+00        -0.55674E+04
 
   -0.49072E+04         0.71220E+04         0.00000E+00
    0.71220E+04        -0.13778E+05         0.00000E+00
    0.00000E+00         0.00000E+00        -0.56054E+04
 
   -0.45655E+04         0.66594E+04         0.00000E+00
    0.66594E+04        -0.14193E+05         0.00000E+00
    0.00000E+00         0.00000E+00        -0.56274E+04
 
   -0.43215E+04         0.62007E+04         0.00000E+00
    0.62007E+04        -0.14483E+05         0.00000E+00
    0.00000E+00         0.00000E+00        -0.56413E+04
 
   -0.41724E+04         0.57663E+04         0.00000E+00
    0.57663E+04        -0.14671E+05         0.00000E+00
    0.00000E+00         0.00000E+00        -0.56530E+04
 
   -0.41137E+04         0.53722E+04         0.00000E+00
    0.53722E+04        -0.14775E+05         0.00000E+00
    0.00000E+00         0.00000E+00        -0.56667E+04
 
   -0.41402E+04         0.50313E+04         0.00000E+00
    0.50313E+04        -0.14811E+05         0.00000E+00
    0.00000E+00         0.00000E+00        -0.56855E+04
 
   -0.42467E+04         0.47556E+04         0.00000E+00
    0.47556E+04        -0.14792E+05         0.00000E+00
    0.00000E+00         0.00000E+00        -0.57115E+04
 
   -0.44282E+04         0.45566E+04         0.00000E+00
    0.45566E+04        -0.14726E+05         0.00000E+00
    0.00000E+00         0.00000E+00        -0.57462E+04
 
   -0.46799E+04         0.44470E+04         0.00000E+00
    0.44470E+04        -0.14622E+05         0.00000E+00
    0.00000E+00         0.00000E+00        -0.57905E+04
 
   -0.49964E+04         0.44416E+04         0.00000E+00
    0.44416E+04        -0.14487E+05         0.00000E+00
    0.00000E+00         0.00000E+00        -0.58449E+04
 
   -0.53716E+04         0.45583E+04         0.00000E+00
    0.45583E+04        -0.14326E+05         0.00000E+00
    0.00000E+00         0.00000E+00        -0.59091E+04
 
   -0.57975E+04         0.48192E+04         0.00000E+00
    0.48192E+04        -0.14145E+05         0.00000E+00
    0.00000E+00         0.00000E+00        -0.59828E+04
 
    0.57083E+04        -0.88766E+02         0.00000E+00
   -0.88766E+02        -0.11153E+02         0.00000E+00
    0.00000E+00         0.00000E+00         0.17091E+04
 
    0.16225E+04         0.32784E+03         0.00000E+00
    0.32784E+03        -0.16179E+03         0.00000E+00
    0.00000E+00         0.00000E+00         0.43821E+03
 
   -0.18083E+04         0.13418E+04         0.00000E+00
    0.13418E+04        -0.63066E+03         0.00000E+00
    0.00000E+00         0.00000E+00        -0.73169E+03
 
   -0.43736E+04         0.26656E+04         0.00000E+00
    0.26656E+04        -0.14827E+04         0.00000E+00
    0.00000E+00         0.00000E+00        -0.17569E+04
 
   -0.60552E+04         0.40190E+04         0.00000E+00
    0.40190E+04        -0.26645E+04         0.00000E+00
    0.00000E+00         0.00000E+00        -0.26159E+04
 
   -0.69736E+04         0.52009E+04         0.00000E+00
    0.52009E+04        -0.40536E+04         0.00000E+00
    0.00000E+00         0.00000E+00        -0.33082E+04
 
   -0.73123E+04         0.61069E+04         0.00000E+00
    0.61069E+04        -0.55142E+04         0.00000E+00
    0.00000E+00         0.00000E+00        -0.38480E+04
 
   -0.72576E+04         0.67121E+04         0.00000E+00
    0.67121E+04        -0.69341E+04         0.00000E+00
    0.00000E+00         0.00000E+00        -0.42575E+04
 
   -0.69661E+04         0.70409E+04         0.00000E+00
    0.70409E+04        -0.82383E+04         0.00000E+00
    0.00000E+00         0.00000E+00        -0.45613E+04
 
   -0.65555E+04         0.71407E+04         0.00000E+00
    0.71407E+04        -0.93861E+04         0.00000E+00
    0.00000E+00         0.00000E+00        -0.47825E+04
 
   -0.61074E+04         0.70652E+04         0.00000E+00
    0.70652E+04        -0.10363E+05         0.00000E+00
    0.00000E+00         0.00000E+00        -0.49412E+04
 
   -0.56743E+04         0.68649E+04         0.00000E+00
    0.68649E+04        -0.11172E+05         0.00000E+00
    0.00000E+00         0.00000E+00        -0.50539E+04
 
   -0.52882E+04         0.65830E+04         0.00000E+00
    0.65830E+04        -0.11824E+05         0.00000E+00
    0.00000E+00         0.00000E+00        -0.51338E+04
 
   -0.49667E+04         0.62554E+04         0.00000E+00
    0.62554E+04        -0.12337E+05         0.00000E+00
    0.00000E+00         0.00000E+00        -0.51912E+04
 
   -0.47182E+04         0.59105E+04         0.00000E+00
    0.59105E+04        -0.12728E+05         0.00000E+00
    0.00000E+00         0.00000E+00        -0.52340E+04
 
   -0.45453E+04         0.55712E+04         0.00000E+00
    0.55712E+04        -0.13015E+05         0.00000E+00
    0.00000E+00         0.00000E+00        -0.52682E+04
 
   -0.44471E+04         0.52560E+04         0.00000E+00
    0.52560E+04        -0.13214E+05         0.00000E+00
    0.00000E+00         0.00000E+00        -0.52983E+04
 
   -0.44204E+04         0.49806E+04         0.00000E+00
    0.49806E+04        -0.13338E+05         0.00000E+00
    0.00000E+00         0.00000E+00        -0.53276E+04
 
   -0.44612E+04         0.47591E+04         0.00000E+00
    0.47591E+04        -0.13400E+05         0.00000E+00
    0.00000E+00         0.00000E+00        -0.53583E+04
 
   -0.45640E+04         0.46050E+04         0.00000E+00
    0.46050E+04        -0.13410E+05         0.00000E+00
    0.00000E+00         0.00000E+00        -0.53921E+04
 
   -0.47228E+04         0.45324E+04         0.00000E+00
    0.45324E+04        -0.13377E+05         0.00000E+00
    0.00000E+00         0.00000E+00        -0.54299E+04
 
   -0.49301E+04         0.45567E+04         0.00000E+00
    0.45567E+04        -0.13309E+05         0.00000E+00
    0.00000E+00         0.00000E+00        -0.54718E+04
 
   -0.51764E+04         0.46958E+04         0.00000E+00
    0.46958E+04        -0.13215E+05         0.00000E+00
    0.00000E+00         0.00000E+00        -0.55175E+04
 
   -0.54495E+04         0.49708E+04         0.00000E+00
    0.49708E+04        -0.13104E+05         0.00000E+00
    0.00000E+00         0.00000E+00        -0.55662E+04
 
    0.56842E+04        -0.12027E+03         0.00000E+00
   -0.12027E+03        -0.79328E+01         0.00000E+00
    0.00000E+00         0.00000E+00         0.17029E+04
 
    0.22266E+04         0.93866E+02         0.00000E+00
    0.93866E+02        -0.11111E+03         0.00000E+00
    0.00000E+00         0.00000E+00         0.63463E+03
 
   -0.77774E+03         0.79121E+03         0.00000E+00
    0.79121E+03        -0.43617E+03         0.00000E+00
    0.00000E+00         0.00000E+00        -0.36417E+03
 
   -0.31607E+04         0.17849E+04         0.00000E+00
    0.17849E+04        -0.10442E+04         0.00000E+00
    0.00000E+00         0.00000E+00        -0.12615E+04
 
   -0.48738E+04         0.28777E+04         0.00000E+00
    0.28777E+04        -0.19213E+04         0.00000E+00
    0.00000E+00         0.00000E+00        -0.20385E+04
 
   -0.59673E+04         0.39084E+04         0.00000E+00
    0.39084E+04        -0.29991E+04         0.00000E+00
    0.00000E+00         0.00000E+00        -0.26899E+04
 
   -0.65502E+04         0.47736E+04         0.00000E+00
    0.47736E+04        -0.41865E+04         0.00000E+00
    0.00000E+00         0.00000E+00        -0.32210E+04
 
   -0.67513E+04         0.54259E+04         0.00000E+00
    0.54259E+04        -0.53958E+04         0.00000E+00
    0.00000E+00         0.00000E+00        -0.36441E+04
 
   -0.66923E+04         0.58603E+04         0.00000E+00
    0.58603E+04        -0.65578E+04         0.00000E+00
    0.00000E+00         0.00000E+00        -0.39750E+04
 
   -0.64741E+04         0.60976E+04         0.00000E+00
    0.60976E+04        -0.76260E+04         0.00000E+00
    0.00000E+00         0.00000E+00        -0.42300E+04
 
   -0.61739E+04         0.61714E+04         0.00000E+00
    0.61714E+04        -0.85745E+04         0.00000E+00
    0.00000E+00         0.00000E+00        -0.44245E+04
 
   -0.58468E+04         0.61186E+04         0.00000E+00
    0.61186E+04        -0.93931E+04         0.00000E+00
    0.00000E+00         0.00000E+00        -0.45720E+04
 
   -0.55299E+04         0.59749E+04         0.00000E+00
    0.59749E+04        -0.10082E+05         0.00000E+00
    0.00000E+00         0.00000E+00        -0.46836E+04
 
   -0.52468E+04         0.57719E+04         0.00000E+00
    0.57719E+04        -0.10649E+05         0.00000E+00
    0.00000E+00         0.00000E+00        -0.47687E+04
 
   -0.50112E+04         0.55370E+04         0.00000E+00
    0.55370E+04        -0.11104E+05         0.00000E+00
    0.00000E+00         0.00000E+00        -0.48346E+04
 
   -0.48303E+04         0.52930E+04         0.00000E+00
    0.52930E+04        -0.11460E+05         0.00000E+00
    0.00000E+00         0.00000E+00        -0.48870E+04
 
   -0.47064E+04         0.50596E+04         0.00000E+00
    0.50596E+04        -0.11728E+05         0.00000E+00
    0.00000E+00         0.00000E+00        -0.49303E+04
 
   -0.46387E+04         0.48537E+04         0.00000E+00
    0.48537E+04        -0.11921E+05         0.00000E+00
    0.00000E+00         0.00000E+00        -0.49678E+04
 
   -0.46239E+04         0.46908E+04         0.00000E+00
    0.46908E+04        -0.12049E+05         0.00000E+00
    0.00000E+00         0.00000E+00        -0.50019E+04
 
   -0.46571E+04         0.45855E+04         0.00000E+00
    0.45855E+04        -0.12123E+05         0.00000E+00
    0.00000E+00         0.00000E+00        -0.50339E+04
 
   -0.47313E+04         0.45526E+04         0.00000E+00
    0.45526E+04        -0.12151E+05         0.00000E+00
    0.00000E+00         0.00000E+00        -0.50648E+04
 
   -0.48375E+04         0.46078E+04         0.00000E+00
    0.46078E+04        -0.12144E+05         0.00000E+00
    0.00000E+00         0.00000E+00        -0.50946E+04
 
   -0.49639E+04         0.47682E+04         0.00000E+00
    0.47682E+04        -0.12112E+05         0.00000E+00
    0.00000E+00         0.00000E+00        -0.51227E+04
 
   -0.50950E+04         0.50535E+04         0.00000E+00
    0.50535E+04        -0.12065E+05         0.00000E+00
    0.00000E+00         0.00000E+00        -0.51479E+04
 
    0.55641E+04        -0.14254E+03         0.00000E+00
   -0.14254E+03        -0.56653E+01         0.00000E+00
    0.00000E+00         0.00000E+00         0.16675E+04
 
    0.26022E+04        -0.68971E+02         0.00000E+00
   -0.68971E+02        -0.78385E+02         0.00000E+00
    0.00000E+00         0.00000E+00         0.75714E+03
 
   -0.36790E+02         0.40077E+03         0.00000E+00
    0.40077E+03        -0.30986E+03         0.00000E+00
    0.00000E+00         0.00000E+00        -0.10399E+03
 
   -0.22207E+04         0.11409E+04         0.00000E+00
    0.11409E+04        -0.75255E+03         0.00000E+00
    0.00000E+00         0.00000E+00        -0.89198E+03
 
   -0.38936E+04         0.20109E+04         0.00000E+00
    0.20109E+04        -0.14104E+04         0.00000E+00
    0.00000E+00         0.00000E+00        -0.15912E+04
 
   -0.50685E+04         0.28855E+04         0.00000E+00
    0.28855E+04        -0.22472E+04         0.00000E+00
    0.00000E+00         0.00000E+00        -0.21947E+04
 
   -0.58070E+04         0.36727E+04         0.00000E+00
    0.36727E+04        -0.32037E+04         0.00000E+00
    0.00000E+00         0.00000E+00        -0.27032E+04
 
   -0.61949E+04         0.43186E+04         0.00000E+00
    0.43186E+04        -0.42154E+04         0.00000E+00
    0.00000E+00         0.00000E+00        -0.31231E+04
 
   -0.63224E+04         0.48018E+04         0.00000E+00
    0.48018E+04        -0.52243E+04         0.00000E+00
    0.00000E+00         0.00000E+00        -0.34640E+04
 
   -0.62714E+04         0.51251E+04         0.00000E+00
    0.51251E+04        -0.61861E+04         0.00000E+00
    0.00000E+00         0.00000E+00        -0.37373E+04
 
   -0.61096E+04         0.53057E+04         0.00000E+00
    0.53057E+04        -0.70706E+04         0.00000E+00
    0.00000E+00         0.00000E+00        -0.39541E+04
 
   -0.58895E+04         0.53682E+04         0.00000E+00
    0.53682E+04        -0.78605E+04         0.00000E+00
    0.00000E+00         0.00000E+00        -0.41250E+04
 
   -0.56493E+04         0.53395E+04         0.00000E+00
    0.53395E+04        -0.85485E+04         0.00000E+00
    0.00000E+00         0.00000E+00        -0.42593E+04
 
   -0.54154E+04         0.52459E+04         0.00000E+00
    0.52459E+04        -0.91343E+04         0.00000E+00
    0.00000E+00         0.00000E+00        -0.43649E+04
 
   -0.52050E+04         0.51114E+04         0.00000E+00
    0.51114E+04        -0.96224E+04         0.00000E+00
    0.00000E+00         0.00000E+00        -0.44482E+04
 
   -0.50283E+04         0.49578E+04         0.00000E+00
    0.49578E+04        -0.10020E+05         0.00000E+00
    0.00000E+00         0.00000E+00        -0.45145E+04
 
   -0.48905E+04         0.48042E+04         0.00000E+00
    0.48042E+04        -0.10336E+05         0.00000E+00
    0.00000E+00         0.00000E+00        -0.45678E+04
 
   -0.47926E+04         0.46677E+04         0.00000E+00
    0.46677E+04        -0.10578E+05         0.00000E+00
    0.00000E+00         0.00000E+00        -0.46113E+04
 
   -0.47324E+04         0.45643E+04         0.00000E+00
    0.45643E+04        -0.10758E+05         0.00000E+00
    0.00000E+00         0.00000E+00        -0.46471E+04
 
   -0.47055E+04         0.45089E+04         0.00000E+00
    0.45089E+04        -0.10883E+05         0.00000E+00
    0.00000E+00         0.00000E+00        -0.46766E+04
 
   -0.47044E+04         0.45162E+04         0.00000E+00
    0.45162E+04        -0.10964E+05         0.00000E+00
    0.00000E+00         0.00000E+00        -0.47005E+04
 
   -0.47193E+04         0.46017E+04         0.00000E+00
    0.46017E+04        -0.11010E+05         0.00000E+00
    0.00000E+00         0.00000E+00        -0.47188E+04
 
   -0.47367E+04         0.47816E+04         0.00000E+00
    0.47816E+04        -0.11032E+05         0.00000E+00
    0.00000E+00         0.00000E+00        -0.47306E+04
 
   -0.47391E+04         0.50735E+04         0.00000E+00
    0.50735E+04        -0.11042E+05         0.00000E+00
    0.00000E+00         0.00000E+00        -0.47344E+04
 
    0.53767E+04        -0.15836E+03         0.00000E+00
   -0.15836E+03        -0.39766E+01         0.00000E+00
    0.00000E+00         0.00000E+00         0.16118E+04
 
    0.28151E+04        -0.18495E+03         0.00000E+00
   -0.18495E+03        -0.55905E+02         0.00000E+00
    0.00000E+00         0.00000E+00         0.82777E+03
 
    0.48856E+03         0.11804E+03         0.00000E+00
    0.11804E+03        -0.22366E+03         0.00000E+00
    0.00000E+00         0.00000E+00         0.79470E+02
 
   -0.14991E+04         0.66310E+03         0.00000E+00
    0.66310E+03        -0.55078E+03         0.00000E+00
    0.00000E+00         0.00000E+00        -0.61496E+03
 
   -0.30935E+04         0.13485E+04         0.00000E+00
    0.13485E+04        -0.10488E+04         0.00000E+00
    0.00000E+00         0.00000E+00        -0.12427E+04
 
   -0.42888E+04         0.20777E+04         0.00000E+00
    0.20777E+04        -0.17001E+04         0.00000E+00
    0.00000E+00         0.00000E+00        -0.17967E+04
 
   -0.51172E+04         0.27732E+04         0.00000E+00
    0.27732E+04        -0.24673E+04         0.00000E+00
    0.00000E+00         0.00000E+00        -0.22754E+04
 
   -0.56339E+04         0.33820E+04         0.00000E+00
    0.33820E+04        -0.33043E+04         0.00000E+00
    0.00000E+00         0.00000E+00        -0.26814E+04
 
   -0.59035E+04         0.38758E+04         0.00000E+00
    0.38758E+04        -0.41654E+04         0.00000E+00
    0.00000E+00         0.00000E+00        -0.30207E+04
 
   -0.59900E+04         0.42459E+04         0.00000E+00
    0.42459E+04        -0.50117E+04         0.00000E+00
    0.00000E+00         0.00000E+00        -0.33005E+04
 
   -0.59498E+04         0.44978E+04         0.00000E+00
    0.44978E+04        -0.58135E+04         0.00000E+00
    0.00000E+00         0.00000E+00        -0.35290E+04
 
   -0.58298E+04         0.46457E+04         0.00000E+00
    0.46457E+04        -0.65506E+04         0.00000E+00
    0.00000E+00         0.00000E+00        -0.37141E+04
 
   -0.56663E+04         0.47085E+04         0.00000E+00
    0.47085E+04        -0.72112E+04         0.00000E+00
    0.00000E+00         0.00000E+00        -0.38632E+04
 
   -0.54862E+04         0.47065E+04         0.00000E+00
    0.47065E+04        -0.77899E+04         0.00000E+00
    0.00000E+00         0.00000E+00        -0.39828E+04
 
   -0.53082E+04         0.46600E+04         0.00000E+00
    0.46600E+04        -0.82864E+04         0.00000E+00
    0.00000E+00         0.00000E+00        -0.40784E+04
 
   -0.51446E+04         0.45883E+04         0.00000E+00
    0.45883E+04        -0.87038E+04         0.00000E+00
    0.00000E+00         0.00000E+00        -0.41545E+04
 
   -0.50020E+04         0.45090E+04         0.00000E+00
    0.45090E+04        -0.90474E+04         0.00000E+00
    0.00000E+00         0.00000E+00        -0.42148E+04
 
   -0.48832E+04         0.44387E+04         0.00000E+00
    0.44387E+04        -0.93238E+04         0.00000E+00
    0.00000E+00         0.00000E+00        -0.42621E+04
 
   -0.47870E+04         0.43927E+04         0.00000E+00
    0.43927E+04        -0.95406E+04         0.00000E+00
    0.00000E+00         0.00000E+00        -0.42983E+04
 
   -0.47093E+04         0.43856E+04         0.00000E+00
    0.43856E+04        -0.97061E+04         0.00000E+00
    0.00000E+00         0.00000E+00        -0.43246E+04
 
   -0.46428E+04         0.44320E+04         0.00000E+00
    0.44320E+04        -0.98293E+04         0.00000E+00
    0.00000E+00         0.00000E+00        -0.43416E+04
 
   -0.45770E+04         0.45461E+04         0.00000E+00
    0.45461E+04        -0.99199E+04         0.00000E+00
    0.00000E+00         0.00000E+00        -0.43491E+04
 
   -0.44978E+04         0.47427E+04         0.00000E+00
    0.47427E+04        -0.99891E+04         0.00000E+00
    0.00000E+00         0.00000E+00        -0.43460E+04
 
   -0.43864E+04         0.50375E+04         0.00000E+00
    0.50375E+04        -0.10050E+05         0.00000E+00
    0.00000E+00         0.00000E+00        -0.43309E+04
 
    0.51414E+04        -0.16939E+03         0.00000E+00
   -0.16939E+03        -0.26433E+01         0.00000E+00
    0.00000E+00         0.00000E+00         0.15416E+04
 
    0.29098E+04        -0.26846E+03         0.00000E+00
   -0.26846E+03        -0.39662E+02         0.00000E+00
    0.00000E+00         0.00000E+00         0.86105E+03
 
    0.85162E+03        -0.89490E+02         0.00000E+00
   -0.89490E+02        -0.16226E+03         0.00000E+00
    0.00000E+00         0.00000E+00         0.20681E+03
 
   -0.95074E+03         0.30481E+03         0.00000E+00
    0.30481E+03        -0.40624E+03         0.00000E+00
    0.00000E+00         0.00000E+00        -0.40709E+03
 
   -0.24480E+04         0.83950E+03         0.00000E+00
    0.83950E+03        -0.78576E+03         0.00000E+00
    0.00000E+00         0.00000E+00        -0.97012E+03
 
   -0.36252E+04         0.14401E+04         0.00000E+00
    0.14401E+04        -0.12939E+04         0.00000E+00
    0.00000E+00         0.00000E+00        -0.14757E+04
 
   -0.44964E+04         0.20427E+04         0.00000E+00
    0.20427E+04        -0.19078E+04         0.00000E+00
    0.00000E+00         0.00000E+00        -0.19212E+04
 
   -0.50958E+04         0.25993E+04         0.00000E+00
    0.25993E+04        -0.25951E+04         0.00000E+00
    0.00000E+00         0.00000E+00        -0.23073E+04
 
   -0.54686E+04         0.30794E+04         0.00000E+00
    0.30794E+04        -0.33212E+04         0.00000E+00
    0.00000E+00         0.00000E+00        -0.26369E+04
 
   -0.56629E+04         0.34682E+04         0.00000E+00
    0.34682E+04        -0.40537E+04         0.00000E+00
    0.00000E+00         0.00000E+00        -0.29150E+04
 
   -0.57243E+04         0.37633E+04         0.00000E+00
    0.37633E+04        -0.47657E+04         0.00000E+00
    0.00000E+00         0.00000E+00        -0.31470E+04
 
   -0.56928E+04         0.39711E+04         0.00000E+00
    0.39711E+04        -0.54368E+04         0.00000E+00
    0.00000E+00         0.00000E+00        -0.33389E+04
 
   -0.56010E+04         0.41036E+04         0.00000E+00
    0.41036E+04        -0.60532E+04         0.00000E+00
    0.00000E+00         0.00000E+00        -0.34963E+04
 
   -0.54746E+04         0.41757E+04         0.00000E+00
    0.41757E+04        -0.66065E+04         0.00000E+00
    0.00000E+00         0.00000E+00        -0.36243E+04
 
   -0.53323E+04         0.42034E+04         0.00000E+00
    0.42034E+04        -0.70932E+04         0.00000E+00
    0.00000E+00         0.00000E+00        -0.37276E+04
 
   -0.51869E+04         0.42031E+04         0.00000E+00
    0.42031E+04        -0.75131E+04         0.00000E+00
    0.00000E+00         0.00000E+00        -0.38100E+04
 
   -0.50465E+04         0.41905E+04         0.00000E+00
    0.41905E+04        -0.78688E+04         0.00000E+00
    0.00000E+00         0.00000E+00        -0.38746E+04
 
   -0.49143E+04         0.41807E+04         0.00000E+00
    0.41807E+04        -0.81647E+04         0.00000E+00
    0.00000E+00         0.00000E+00        -0.39237E+04
 
   -0.47903E+04         0.41880E+04         0.00000E+00
    0.41880E+04        -0.84066E+04         0.00000E+00
    0.00000E+00         0.00000E+00        -0.39591E+04
 
   -0.46707E+04         0.42261E+04         0.00000E+00
    0.42261E+04        -0.86017E+04         0.00000E+00
    0.00000E+00         0.00000E+00        -0.39817E+04
 
   -0.45486E+04         0.43085E+04         0.00000E+00
    0.43085E+04        -0.87581E+04         0.00000E+00
    0.00000E+00         0.00000E+00        -0.39920E+04
 
   -0.44132E+04         0.44484E+04         0.00000E+00
    0.44484E+04        -0.88852E+04         0.00000E+00
    0.00000E+00         0.00000E+00        -0.39895E+04
 
   -0.42503E+04         0.46588E+04         0.00000E+00
    0.46588E+04        -0.89942E+04         0.00000E+00
    0.00000E+00         0.00000E+00        -0.39734E+04
 
   -0.40408E+04         0.49529E+04         0.00000E+00
    0.49529E+04        -0.90981E+04         0.00000E+00
    0.00000E+00         0.00000E+00        -0.39417E+04
 
    0.48721E+04        -0.17668E+03         0.00000E+00
   -0.17668E+03        -0.15516E+01         0.00000E+00
    0.00000E+00         0.00000E+00         0.14612E+04
 
    0.29174E+04        -0.32847E+03         0.00000E+00
   -0.32847E+03        -0.27430E+02         0.00000E+00
    0.00000E+00         0.00000E+00         0.86698E+03
 
    0.10913E+04        -0.24271E+03         0.00000E+00
   -0.24271E+03        -0.11691E+03         0.00000E+00
    0.00000E+00         0.00000E+00         0.29232E+03
 
   -0.53974E+03         0.34477E+02         0.00000E+00
    0.34477E+02        -0.29946E+03         0.00000E+00
    0.00000E+00         0.00000E+00        -0.25176E+03
 
   -0.19323E+04         0.44692E+03         0.00000E+00
    0.44692E+03        -0.58957E+03         0.00000E+00
    0.00000E+00         0.00000E+00        -0.75657E+03
 
   -0.30676E+04         0.93684E+03         0.00000E+00
    0.93684E+03        -0.98645E+03         0.00000E+00
    0.00000E+00         0.00000E+00        -0.12162E+04
 
   -0.39488E+04         0.14520E+04         0.00000E+00
    0.14520E+04        -0.14765E+04         0.00000E+00
    0.00000E+00         0.00000E+00        -0.16276E+04
 
   -0.45958E+04         0.19506E+04         0.00000E+00
    0.19506E+04        -0.20378E+04         0.00000E+00
    0.00000E+00         0.00000E+00        -0.19901E+04
 
   -0.50392E+04         0.24029E+04         0.00000E+00
    0.24029E+04        -0.26445E+04         0.00000E+00
    0.00000E+00         0.00000E+00        -0.23051E+04
 
   -0.53145E+04         0.27914E+04         0.00000E+00
    0.27914E+04        -0.32706E+04         0.00000E+00
    0.00000E+00         0.00000E+00        -0.25755E+04
 
   -0.54572E+04         0.31087E+04         0.00000E+00
    0.31087E+04        -0.38930E+04         0.00000E+00
    0.00000E+00         0.00000E+00        -0.28051E+04
 
   -0.55004E+04         0.33558E+04         0.00000E+00
    0.33558E+04        -0.44927E+04         0.00000E+00
    0.00000E+00         0.00000E+00        -0.29979E+04
 
   -0.54723E+04         0.35391E+04         0.00000E+00
    0.35391E+04        -0.50555E+04         0.00000E+00
    0.00000E+00         0.00000E+00        -0.31583E+04
 
   -0.53961E+04         0.36688E+04         0.00000E+00
    0.36688E+04        -0.55717E+04         0.00000E+00
    0.00000E+00         0.00000E+00        -0.32903E+04
 
   -0.52894E+04         0.37571E+04         0.00000E+00
    0.37571E+04        -0.60357E+04         0.00000E+00
    0.00000E+00         0.00000E+00        -0.33975E+04
 
   -0.51650E+04         0.38171E+04         0.00000E+00
    0.38171E+04        -0.64452E+04         0.00000E+00
    0.00000E+00         0.00000E+00        -0.34831E+04
 
   -0.50310E+04         0.38623E+04         0.00000E+00
    0.38623E+04        -0.68006E+04         0.00000E+00
    0.00000E+00         0.00000E+00        -0.35495E+04
 
   -0.48915E+04         0.39060E+04         0.00000E+00
    0.39060E+04        -0.71044E+04         0.00000E+00
    0.00000E+00         0.00000E+00        -0.35988E+04
 
   -0.47468E+04         0.39609E+04         0.00000E+00
    0.39609E+04        -0.73610E+04         0.00000E+00
    0.00000E+00         0.00000E+00        -0.36323E+04
 
   -0.45935E+04         0.40397E+04         0.00000E+00
    0.40397E+04        -0.75763E+04         0.00000E+00
    0.00000E+00         0.00000E+00        -0.36510E+04
 
   -0.44251E+04         0.41542E+04         0.00000E+00
    0.41542E+04        -0.77576E+04         0.00000E+00
    0.00000E+00         0.00000E+00        -0.36548E+04
 
   -0.42312E+04         0.43163E+04         0.00000E+00
    0.43163E+04        -0.79137E+04         0.00000E+00
    0.00000E+00         0.00000E+00        -0.36435E+04
 
   -0.39976E+04         0.45371E+04         0.00000E+00
    0.45371E+04        -0.80552E+04         0.00000E+00
    0.00000E+00         0.00000E+00        -0.36159E+04
 
   -0.37057E+04         0.48274E+04         0.00000E+00
    0.48274E+04        -0.81949E+04         0.00000E+00
    0.00000E+00         0.00000E+00        -0.35702E+04
 
    0.45794E+04        -0.18096E+03         0.00000E+00
   -0.18096E+03        -0.63613E+00         0.00000E+00
    0.00000E+00         0.00000E+00         0.13736E+04
 
    0.28602E+04        -0.37088E+03         0.00000E+00
   -0.37088E+03        -0.17915E+02         0.00000E+00
    0.00000E+00         0.00000E+00         0.85270E+03
 
    0.12365E+04        -0.35554E+03         0.00000E+00
   -0.35554E+03        -0.82386E+02         0.00000E+00
    0.00000E+00         0.00000E+00         0.34625E+03
 
   -0.23766E+03        -0.16968E+03         0.00000E+00
   -0.16968E+03        -0.21847E+03         0.00000E+00
    0.00000E+00         0.00000E+00        -0.13684E+03
 
   -0.15245E+04         0.14390E+03         0.00000E+00
    0.14390E+03        -0.43999E+03         0.00000E+00
    0.00000E+00         0.00000E+00        -0.58934E+03
 
   -0.26038E+04         0.54001E+03         0.00000E+00
    0.54001E+03        -0.74952E+03         0.00000E+00
    0.00000E+00         0.00000E+00        -0.10060E+04
 
   -0.34725E+04         0.97622E+03         0.00000E+00
    0.97622E+03        -0.11397E+04         0.00000E+00
    0.00000E+00         0.00000E+00        -0.13837E+04
 
   -0.41408E+04         0.14166E+04         0.00000E+00
    0.14166E+04        -0.15957E+04         0.00000E+00
    0.00000E+00         0.00000E+00        -0.17210E+04
 
   -0.46288E+04         0.18339E+04         0.00000E+00
    0.18339E+04        -0.20987E+04         0.00000E+00
    0.00000E+00         0.00000E+00        -0.20183E+04
 
   -0.49617E+04         0.22098E+04         0.00000E+00
    0.22098E+04        -0.26285E+04         0.00000E+00
    0.00000E+00         0.00000E+00        -0.22771E+04
 
   -0.51669E+04         0.25343E+04         0.00000E+00
    0.25343E+04        -0.31658E+04         0.00000E+00
    0.00000E+00         0.00000E+00        -0.24998E+04
 
   -0.52706E+04         0.28046E+04         0.00000E+00
    0.28046E+04        -0.36938E+04         0.00000E+00
    0.00000E+00         0.00000E+00        -0.26893E+04
 
   -0.52966E+04         0.30230E+04         0.00000E+00
    0.30230E+04        -0.41990E+04         0.00000E+00
    0.00000E+00         0.00000E+00        -0.28487E+04
 
   -0.52650E+04         0.31958E+04         0.00000E+00
    0.31958E+04        -0.46715E+04         0.00000E+00
    0.00000E+00         0.00000E+00        -0.29809E+04
 
   -0.51918E+04         0.33318E+04         0.00000E+00
    0.33318E+04        -0.51045E+04         0.00000E+00
    0.00000E+00         0.00000E+00        -0.30889E+04
 
   -0.50888E+04         0.34411E+04         0.00000E+00
    0.34411E+04        -0.54945E+04         0.00000E+00
    0.00000E+00         0.00000E+00        -0.31750E+04
 
   -0.49640E+04         0.35349E+04         0.00000E+00
    0.35349E+04        -0.58402E+04         0.00000E+00
    0.00000E+00         0.00000E+00        -0.32413E+04
 
   -0.48215E+04         0.36243E+04         0.00000E+00
    0.36243E+04        -0.61430E+04         0.00000E+00
    0.00000E+00         0.00000E+00        -0.32893E+04
 
   -0.46618E+04         0.37205E+04         0.00000E+00
    0.37205E+04        -0.64058E+04         0.00000E+00
    0.00000E+00         0.00000E+00        -0.33203E+04
 
   -0.44822E+04         0.38345E+04         0.00000E+00
    0.38345E+04        -0.66334E+04         0.00000E+00
    0.00000E+00         0.00000E+00        -0.33347E+04
 
   -0.42763E+04         0.39766E+04         0.00000E+00
    0.39766E+04        -0.68322E+04         0.00000E+00
    0.00000E+00         0.00000E+00        -0.33326E+04
 
   -0.40344E+04         0.41569E+04         0.00000E+00
    0.41569E+04        -0.70103E+04         0.00000E+00
    0.00000E+00         0.00000E+00        -0.33134E+04
 
   -0.37428E+04         0.43847E+04         0.00000E+00
    0.43847E+04        -0.71775E+04         0.00000E+00
    0.00000E+00         0.00000E+00        -0.32761E+04
 
   -0.33839E+04         0.46684E+04         0.00000E+00
    0.46684E+04        -0.73459E+04         0.00000E+00
    0.00000E+00         0.00000E+00        -0.32189E+04
 
    0.42713E+04        -0.18275E+03         0.00000E+00
   -0.18275E+03         0.14148E+00         0.00000E+00
    0.00000E+00         0.00000E+00         0.12814E+04
 
    0.27552E+04        -0.39971E+03         0.00000E+00
   -0.39971E+03        -0.10335E+02         0.00000E+00
    0.00000E+00         0.00000E+00         0.82345E+03
 
    0.13092E+04        -0.43760E+03         0.00000E+00
   -0.43760E+03        -0.55472E+02         0.00000E+00
    0.00000E+00         0.00000E+00         0.37611E+03
 
   -0.22012E+02        -0.32311E+03         0.00000E+00
   -0.32311E+03        -0.15570E+03         0.00000E+00
    0.00000E+00         0.00000E+00        -0.53314E+02
 
   -0.12054E+04        -0.89323E+02         0.00000E+00
   -0.89323E+02        -0.32379E+03         0.00000E+00
    0.00000E+00         0.00000E+00        -0.45876E+03
 
   -0.22212E+04         0.22808E+03         0.00000E+00
    0.22808E+03        -0.56412E+03         0.00000E+00
    0.00000E+00         0.00000E+00        -0.83558E+03
 
   -0.30623E+04         0.59459E+03         0.00000E+00
    0.59459E+03        -0.87330E+03         0.00000E+00
    0.00000E+00         0.00000E+00        -0.11807E+04
 
   -0.37327E+04         0.97979E+03         0.00000E+00
    0.97979E+03        -0.12418E+04         0.00000E+00
    0.00000E+00         0.00000E+00        -0.14923E+04
 
   -0.42448E+04         0.13592E+04         0.00000E+00
    0.13592E+04        -0.16559E+04         0.00000E+00
    0.00000E+00         0.00000E+00        -0.17702E+04
 
   -0.46161E+04         0.17152E+04         0.00000E+00
    0.17152E+04        -0.21003E+04         0.00000E+00
    0.00000E+00         0.00000E+00        -0.20149E+04
 
   -0.48668E+04         0.20364E+04         0.00000E+00
    0.20364E+04        -0.25592E+04         0.00000E+00
    0.00000E+00         0.00000E+00        -0.22278E+04
 
   -0.50176E+04         0.23178E+04         0.00000E+00
    0.23178E+04        -0.30184E+04         0.00000E+00
    0.00000E+00         0.00000E+00        -0.24108E+04
 
   -0.50878E+04         0.25586E+04         0.00000E+00
    0.25586E+04        -0.34657E+04         0.00000E+00
    0.00000E+00         0.00000E+00        -0.25660E+04
 
   -0.50942E+04         0.27623E+04         0.00000E+00
    0.27623E+04        -0.38915E+04         0.00000E+00
    0.00000E+00         0.00000E+00        -0.26957E+04
 
   -0.50508E+04         0.29345E+04         0.00000E+00
    0.29345E+04        -0.42889E+04         0.00000E+00
    0.00000E+00         0.00000E+00        -0.28019E+04
 
   -0.49683E+04         0.30829E+04         0.00000E+00
    0.30829E+04        -0.46534E+04         0.00000E+00
    0.00000E+00         0.00000E+00        -0.28865E+04
 
   -0.48538E+04         0.32162E+04         0.00000E+00
    0.32162E+04        -0.49831E+04         0.00000E+00
    0.00000E+00         0.00000E+00        -0.29511E+04
 
   -0.47113E+04         0.33435E+04         0.00000E+00
    0.33435E+04        -0.52781E+04         0.00000E+00
    0.00000E+00         0.00000E+00        -0.29968E+04
 
   -0.45416E+04         0.34742E+04         0.00000E+00
    0.34742E+04        -0.55404E+04         0.00000E+00
    0.00000E+00         0.00000E+00        -0.30246E+04
 
   -0.43420E+04         0.36176E+04         0.00000E+00
    0.36176E+04        -0.57738E+04         0.00000E+00
    0.00000E+00         0.00000E+00        -0.30347E+04
 
   -0.41067E+04         0.37823E+04         0.00000E+00
    0.37823E+04        -0.59838E+04         0.00000E+00
    0.00000E+00         0.00000E+00        -0.30271E+04
 
   -0.38266E+04         0.39767E+04         0.00000E+00
    0.39767E+04        -0.61775E+04         0.00000E+00
    0.00000E+00         0.00000E+00        -0.30012E+04
 
   -0.34891E+04         0.42082E+04         0.00000E+00
    0.42082E+04        -0.63642E+04         0.00000E+00
    0.00000E+00         0.00000E+00        -0.29560E+04
 
   -0.30776E+04         0.44828E+04         0.00000E+00
    0.44828E+04        -0.65547E+04         0.00000E+00
    0.00000E+00         0.00000E+00        -0.28897E+04
 
    0.39544E+04        -0.18246E+03         0.00000E+00
   -0.18246E+03         0.80479E+00         0.00000E+00
    0.00000E+00         0.00000E+00         0.11866E+04
 
    0.26149E+04        -0.41783E+03         0.00000E+00
   -0.41783E+03        -0.41974E+01         0.00000E+00
    0.00000E+00         0.00000E+00         0.78322E+03
 
    0.13260E+04        -0.49573E+03         0.00000E+00
   -0.49573E+03        -0.34114E+02         0.00000E+00
    0.00000E+00         0.00000E+00         0.38757E+03
 
    0.12502E+03        -0.43697E+03         0.00000E+00
   -0.43697E+03        -0.10623E+03         0.00000E+00
    0.00000E+00         0.00000E+00         0.56367E+01
 
   -0.95923E+03        -0.26749E+03         0.00000E+00
   -0.26749E+03        -0.23215E+03         0.00000E+00
    0.00000E+00         0.00000E+00        -0.35742E+03
 
   -0.19078E+04        -0.15700E+02         0.00000E+00
   -0.15700E+02        -0.41717E+03         0.00000E+00
    0.00000E+00         0.00000E+00        -0.69749E+03
 
   -0.27116E+04         0.29026E+03         0.00000E+00
    0.29026E+03        -0.66047E+03         0.00000E+00
    0.00000E+00         0.00000E+00        -0.10116E+04
 
   -0.33703E+04         0.62478E+03         0.00000E+00
    0.62478E+03        -0.95616E+03         0.00000E+00
    0.00000E+00         0.00000E+00        -0.12979E+04
 
   -0.38908E+04         0.96633E+03         0.00000E+00
    0.96633E+03        -0.12947E+04         0.00000E+00
    0.00000E+00         0.00000E+00        -0.15556E+04
 
   -0.42847E+04         0.12984E+04         0.00000E+00
    0.12984E+04        -0.16643E+04         0.00000E+00
    0.00000E+00         0.00000E+00        -0.17847E+04
 
   -0.45667E+04         0.16095E+04         0.00000E+00
    0.16095E+04        -0.20527E+04         0.00000E+00
    0.00000E+00         0.00000E+00        -0.19858E+04
 
   -0.47524E+04         0.18930E+04         0.00000E+00
    0.18930E+04        -0.24479E+04         0.00000E+00
    0.00000E+00         0.00000E+00        -0.21601E+04
 
   -0.48571E+04         0.21465E+04         0.00000E+00
    0.21465E+04        -0.28393E+04         0.00000E+00
    0.00000E+00         0.00000E+00        -0.23089E+04
 
   -0.48947E+04         0.23707E+04         0.00000E+00
    0.23707E+04        -0.32182E+04         0.00000E+00
    0.00000E+00         0.00000E+00        -0.24339E+04
 
   -0.48768E+04         0.25693E+04         0.00000E+00
    0.25693E+04        -0.35779E+04         0.00000E+00
    0.00000E+00         0.00000E+00        -0.25364E+04
 
   -0.48127E+04         0.27475E+04         0.00000E+00
    0.27475E+04        -0.39137E+04         0.00000E+00
    0.00000E+00         0.00000E+00        -0.26179E+04
 
   -0.47087E+04         0.29117E+04         0.00000E+00
    0.29117E+04        -0.42231E+04         0.00000E+00
    0.00000E+00         0.00000E+00        -0.26795E+04
 
   -0.45684E+04         0.30694E+04         0.00000E+00
    0.30694E+04        -0.45055E+04         0.00000E+00
    0.00000E+00         0.00000E+00        -0.27222E+04
 
   -0.43924E+04         0.32279E+04         0.00000E+00
    0.32279E+04        -0.47622E+04         0.00000E+00
    0.00000E+00         0.00000E+00        -0.27464E+04
 
   -0.41782E+04         0.33948E+04         0.00000E+00
    0.33948E+04        -0.49961E+04         0.00000E+00
    0.00000E+00         0.00000E+00        -0.27523E+04
 
   -0.39208E+04         0.35772E+04         0.00000E+00
    0.35772E+04        -0.52119E+04         0.00000E+00
    0.00000E+00         0.00000E+00        -0.27398E+04
 
   -0.36116E+04         0.37817E+04         0.00000E+00
    0.37817E+04        -0.54160E+04         0.00000E+00
    0.00000E+00         0.00000E+00        -0.27083E+04
 
   -0.32390E+04         0.40136E+04         0.00000E+00
    0.40136E+04        -0.56164E+04         0.00000E+00
    0.00000E+00         0.00000E+00        -0.26566E+04
 
   -0.27882E+04         0.42772E+04         0.00000E+00
    0.42772E+04        -0.58231E+04         0.00000E+00
    0.00000E+00         0.00000E+00        -0.25834E+04
 
    0.36337E+04        -0.18041E+03         0.00000E+00
   -0.18041E+03         0.13691E+01         0.00000E+00
    0.00000E+00         0.00000E+00         0.10905E+04
 
    0.24494E+04        -0.42739E+03         0.00000E+00
   -0.42739E+03         0.81650E+00         0.00000E+00
    0.00000E+00         0.00000E+00         0.73506E+03
 
    0.13001E+04        -0.53497E+03         0.00000E+00
   -0.53497E+03        -0.16960E+02         0.00000E+00
    0.00000E+00         0.00000E+00         0.38495E+03
 
    0.21766E+03        -0.51957E+03         0.00000E+00
   -0.51957E+03        -0.66745E+02         0.00000E+00
    0.00000E+00         0.00000E+00         0.45275E+02
 
   -0.77268E+03        -0.40179E+03         0.00000E+00
   -0.40179E+03        -0.15905E+03         0.00000E+00
    0.00000E+00         0.00000E+00        -0.27952E+03
 
   -0.16531E+04        -0.20442E+03         0.00000E+00
   -0.20442E+03        -0.29952E+03         0.00000E+00
    0.00000E+00         0.00000E+00        -0.58579E+03
 
   -0.24135E+04         0.49506E+02         0.00000E+00
    0.49506E+02        -0.48902E+03         0.00000E+00
    0.00000E+00         0.00000E+00        -0.87076E+03
 
   -0.30508E+04         0.33846E+03         0.00000E+00
    0.33846E+03        -0.72424E+03         0.00000E+00
    0.00000E+00         0.00000E+00        -0.11325E+04
 
   -0.35679E+04         0.64372E+03         0.00000E+00
    0.64372E+03        -0.99862E+03         0.00000E+00
    0.00000E+00         0.00000E+00        -0.13699E+04
 
   -0.39719E+04         0.95022E+03         0.00000E+00
    0.95022E+03        -0.13035E+04         0.00000E+00
    0.00000E+00         0.00000E+00        -0.15826E+04
 
   -0.42732E+04         0.12468E+04         0.00000E+00
    0.12468E+04        -0.16293E+04         0.00000E+00
    0.00000E+00         0.00000E+00        -0.17707E+04
 
   -0.44832E+04         0.15262E+04         0.00000E+00
    0.15262E+04        -0.19662E+04         0.00000E+00
    0.00000E+00         0.00000E+00        -0.19348E+04
 
   -0.46136E+04         0.17847E+04         0.00000E+00
    0.17847E+04        -0.23054E+04         0.00000E+00
    0.00000E+00         0.00000E+00        -0.20757E+04
 
   -0.46756E+04         0.20213E+04         0.00000E+00
    0.20213E+04        -0.26390E+04         0.00000E+00
    0.00000E+00         0.00000E+00        -0.21944E+04
 
   -0.46787E+04         0.22379E+04         0.00000E+00
    0.22379E+04        -0.29608E+04         0.00000E+00
    0.00000E+00         0.00000E+00        -0.22919E+04
 
   -0.46305E+04         0.24376E+04         0.00000E+00
    0.24376E+04        -0.32664E+04         0.00000E+00
    0.00000E+00         0.00000E+00        -0.23691E+04
 
   -0.45365E+04         0.26252E+04         0.00000E+00
    0.26252E+04        -0.35531E+04         0.00000E+00
    0.00000E+00         0.00000E+00        -0.24269E+04
 
   -0.43996E+04         0.28061E+04         0.00000E+00
    0.28061E+04        -0.38198E+04         0.00000E+00
    0.00000E+00         0.00000E+00        -0.24658E+04
 
   -0.42202E+04         0.29861E+04         0.00000E+00
    0.29861E+04        -0.40672E+04         0.00000E+00
    0.00000E+00         0.00000E+00        -0.24862E+04
 
   -0.39963E+04         0.31710E+04         0.00000E+00
    0.31710E+04        -0.42975E+04         0.00000E+00
    0.00000E+00         0.00000E+00        -0.24882E+04
 
   -0.37230E+04         0.33663E+04         0.00000E+00
    0.33663E+04        -0.45149E+04         0.00000E+00
    0.00000E+00         0.00000E+00        -0.24714E+04
 
   -0.33927E+04         0.35769E+04         0.00000E+00
    0.35769E+04        -0.47246E+04         0.00000E+00
    0.00000E+00         0.00000E+00        -0.24352E+04
 
   -0.29951E+04         0.38065E+04         0.00000E+00
    0.38065E+04        -0.49338E+04         0.00000E+00
    0.00000E+00         0.00000E+00        -0.23787E+04
 
   -0.25169E+04         0.40576E+04         0.00000E+00
    0.40576E+04        -0.51514E+04         0.00000E+00
    0.00000E+00         0.00000E+00        -0.23005E+04
 
    0.33135E+04        -0.17690E+03         0.00000E+00
   -0.17690E+03         0.18453E+01         0.00000E+00
    0.00000E+00         0.00000E+00         0.99460E+03
 
    0.22663E+04        -0.43004E+03         0.00000E+00
   -0.43004E+03         0.49241E+01         0.00000E+00
    0.00000E+00         0.00000E+00         0.68137E+03
 
    0.12418E+04        -0.55911E+03         0.00000E+00
   -0.55911E+03        -0.30894E+01         0.00000E+00
    0.00000E+00         0.00000E+00         0.37162E+03
 
    0.26735E+03        -0.57722E+03         0.00000E+00
   -0.57722E+03        -0.34987E+02         0.00000E+00
    0.00000E+00         0.00000E+00         0.69708E+02
 
   -0.63472E+03        -0.50085E+03         0.00000E+00
   -0.50085E+03        -0.10027E+03         0.00000E+00
    0.00000E+00         0.00000E+00        -0.22049E+03
 
   -0.14478E+04        -0.34842E+03         0.00000E+00
   -0.34842E+03        -0.20465E+03         0.00000E+00
    0.00000E+00         0.00000E+00        -0.49574E+03
 
   -0.21614E+04        -0.13888E+03         0.00000E+00
   -0.13888E+03        -0.35008E+03         0.00000E+00
    0.00000E+00         0.00000E+00        -0.75344E+03
 
   -0.27706E+04         0.10970E+03         0.00000E+00
    0.10970E+03        -0.53505E+03         0.00000E+00
    0.00000E+00         0.00000E+00        -0.99169E+03
 
   -0.32755E+04         0.38113E+03         0.00000E+00
    0.38113E+03        -0.75526E+03         0.00000E+00
    0.00000E+00         0.00000E+00        -0.12092E+04
 
   -0.36800E+04         0.66190E+03         0.00000E+00
    0.66190E+03        -0.10045E+04         0.00000E+00
    0.00000E+00         0.00000E+00        -0.14053E+04
 
   -0.39907E+04         0.94147E+03         0.00000E+00
    0.94147E+03        -0.12753E+04         0.00000E+00
    0.00000E+00         0.00000E+00        -0.15798E+04
 
   -0.42160E+04         0.12124E+04         0.00000E+00
    0.12124E+04        -0.15600E+04         0.00000E+00
    0.00000E+00         0.00000E+00        -0.17328E+04
 
   -0.43644E+04         0.14702E+04         0.00000E+00
    0.14702E+04        -0.18512E+04         0.00000E+00
    0.00000E+00         0.00000E+00        -0.18647E+04
 
   -0.44447E+04         0.17127E+04         0.00000E+00
    0.17127E+04        -0.21422E+04         0.00000E+00
    0.00000E+00         0.00000E+00        -0.19761E+04
 
   -0.44642E+04         0.19403E+04         0.00000E+00
    0.19403E+04        -0.24275E+04         0.00000E+00
    0.00000E+00         0.00000E+00        -0.20675E+04
 
   -0.44293E+04         0.21546E+04         0.00000E+00
    0.21546E+04        -0.27029E+04         0.00000E+00
    0.00000E+00         0.00000E+00        -0.21396E+04
 
   -0.43441E+04         0.23587E+04         0.00000E+00
    0.23587E+04        -0.29657E+04         0.00000E+00
    0.00000E+00         0.00000E+00        -0.21930E+04
 
   -0.42113E+04         0.25564E+04         0.00000E+00
    0.25564E+04        -0.32148E+04         0.00000E+00
    0.00000E+00         0.00000E+00        -0.22278E+04
 
   -0.40310E+04         0.27520E+04         0.00000E+00
    0.27520E+04        -0.34504E+04         0.00000E+00
    0.00000E+00         0.00000E+00        -0.22444E+04
 
   -0.38011E+04         0.29497E+04         0.00000E+00
    0.29497E+04        -0.36742E+04         0.00000E+00
    0.00000E+00         0.00000E+00        -0.22426E+04
 
   -0.35175E+04         0.31535E+04         0.00000E+00
    0.31535E+04        -0.38895E+04         0.00000E+00
    0.00000E+00         0.00000E+00        -0.22221E+04
 
   -0.31733E+04         0.33667E+04         0.00000E+00
    0.33667E+04        -0.41011E+04         0.00000E+00
    0.00000E+00         0.00000E+00        -0.21823E+04
 
   -0.27594E+04         0.35916E+04         0.00000E+00
    0.35916E+04        -0.43150E+04         0.00000E+00
    0.00000E+00         0.00000E+00        -0.21223E+04
 
   -0.22642E+04         0.38289E+04         0.00000E+00
    0.38289E+04        -0.45388E+04         0.00000E+00
    0.00000E+00         0.00000E+00        -0.20409E+04
 
    0.29973E+04        -0.17217E+03         0.00000E+00
   -0.17217E+03         0.22415E+01         0.00000E+00
    0.00000E+00         0.00000E+00         0.89987E+03
 
    0.20719E+04        -0.42709E+03         0.00000E+00
   -0.42709E+03         0.82788E+01         0.00000E+00
    0.00000E+00         0.00000E+00         0.62406E+03
 
    0.11593E+04        -0.57112E+03         0.00000E+00
   -0.57112E+03         0.81422E+01         0.00000E+00
    0.00000E+00         0.00000E+00         0.35024E+03
 
    0.28331E+03        -0.61481E+03         0.00000E+00
   -0.61481E+03        -0.93509E+01         0.00000E+00
    0.00000E+00         0.00000E+00         0.82186E+02
 
   -0.53620E+03        -0.57142E+03         0.00000E+00
   -0.57142E+03        -0.52802E+02         0.00000E+00
    0.00000E+00         0.00000E+00        -0.17670E+03
 
   -0.12838E+04        -0.45597E+03         0.00000E+00
   -0.45597E+03        -0.12785E+03         0.00000E+00
    0.00000E+00         0.00000E+00        -0.42350E+03
 
   -0.19490E+04        -0.28405E+03         0.00000E+00
   -0.28405E+03        -0.23709E+03         0.00000E+00
    0.00000E+00         0.00000E+00        -0.65583E+03
 
   -0.25257E+04        -0.70892E+02         0.00000E+00
   -0.70892E+02        -0.38029E+03         0.00000E+00
    0.00000E+00         0.00000E+00        -0.87181E+03
 
   -0.30121E+04         0.16958E+03         0.00000E+00
    0.16958E+03        -0.55488E+03         0.00000E+00
    0.00000E+00         0.00000E+00        -0.10701E+04
 
   -0.34096E+04         0.42536E+03         0.00000E+00
    0.42536E+03        -0.75646E+03         0.00000E+00
    0.00000E+00         0.00000E+00        -0.12498E+04
 
   -0.37221E+04         0.68669E+03         0.00000E+00
    0.68669E+03        -0.97951E+03         0.00000E+00
    0.00000E+00         0.00000E+00        -0.14105E+04
 
   -0.39551E+04         0.94628E+03         0.00000E+00
    0.94628E+03        -0.12180E+04         0.00000E+00
    0.00000E+00         0.00000E+00        -0.15519E+04
 
   -0.41149E+04         0.11992E+04         0.00000E+00
    0.11992E+04        -0.14659E+04         0.00000E+00
    0.00000E+00         0.00000E+00        -0.16742E+04
 
   -0.42078E+04         0.14425E+04         0.00000E+00
    0.14425E+04        -0.17176E+04         0.00000E+00
    0.00000E+00         0.00000E+00        -0.17776E+04
 
   -0.42397E+04         0.16755E+04         0.00000E+00
    0.16755E+04        -0.19684E+04         0.00000E+00
    0.00000E+00         0.00000E+00        -0.18624E+04
 
   -0.42152E+04         0.18985E+04         0.00000E+00
    0.18985E+04        -0.22146E+04         0.00000E+00
    0.00000E+00         0.00000E+00        -0.19289E+04
 
   -0.41379E+04         0.21132E+04         0.00000E+00
    0.21132E+04        -0.24536E+04         0.00000E+00
    0.00000E+00         0.00000E+00        -0.19774E+04
 
   -0.40094E+04         0.23222E+04         0.00000E+00
    0.23222E+04        -0.26842E+04         0.00000E+00
    0.00000E+00         0.00000E+00        -0.20081E+04
 
   -0.38299E+04         0.25281E+04         0.00000E+00
    0.25281E+04        -0.29063E+04         0.00000E+00
    0.00000E+00         0.00000E+00        -0.20209E+04
 
   -0.35974E+04         0.27339E+04         0.00000E+00
    0.27339E+04        -0.31214E+04         0.00000E+00
    0.00000E+00         0.00000E+00        -0.20156E+04
 
   -0.33081E+04         0.29422E+04         0.00000E+00
    0.29422E+04        -0.33321E+04         0.00000E+00
    0.00000E+00         0.00000E+00        -0.19920E+04
 
   -0.29561E+04         0.31549E+04         0.00000E+00
    0.31549E+04        -0.35423E+04         0.00000E+00
    0.00000E+00         0.00000E+00        -0.19495E+04
 
   -0.25335E+04         0.33729E+04         0.00000E+00
    0.33729E+04        -0.37573E+04         0.00000E+00
    0.00000E+00         0.00000E+00        -0.18872E+04
 
   -0.20303E+04         0.35958E+04         0.00000E+00
    0.35958E+04        -0.39834E+04         0.00000E+00
    0.00000E+00         0.00000E+00        -0.18041E+04
 
    0.26880E+04        -0.16644E+03         0.00000E+00
   -0.16644E+03         0.25647E+01         0.00000E+00
    0.00000E+00         0.00000E+00         0.80716E+03
 
    0.18712E+04        -0.41960E+03         0.00000E+00
   -0.41960E+03         0.10994E+02         0.00000E+00
    0.00000E+00         0.00000E+00         0.56465E+03
 
    0.10592E+04        -0.57336E+03         0.00000E+00
   -0.57336E+03         0.17205E+02         0.00000E+00
    0.00000E+00         0.00000E+00         0.32293E+03
 
    0.27303E+03        -0.63621E+03         0.00000E+00
   -0.63621E+03         0.11327E+02         0.00000E+00
    0.00000E+00         0.00000E+00         0.85308E+02
 
   -0.46955E+03        -0.61891E+03         0.00000E+00
   -0.61891E+03        -0.14456E+02         0.00000E+00
    0.00000E+00         0.00000E+00        -0.14520E+03
 
   -0.11543E+04        -0.53371E+03         0.00000E+00
   -0.53371E+03        -0.65595E+02         0.00000E+00
    0.00000E+00         0.00000E+00        -0.36596E+03
 
   -0.17708E+04        -0.39355E+03         0.00000E+00
   -0.39355E+03        -0.14509E+03         0.00000E+00
    0.00000E+00         0.00000E+00        -0.57476E+03
 
   -0.23124E+04        -0.21123E+03         0.00000E+00
   -0.21123E+03        -0.25363E+03         0.00000E+00
    0.00000E+00         0.00000E+00        -0.76980E+03
 
   -0.27758E+04         0.12645E+01         0.00000E+00
    0.12645E+01        -0.38988E+03         0.00000E+00
    0.00000E+00         0.00000E+00        -0.94970E+03
 
   -0.31607E+04         0.23333E+03         0.00000E+00
    0.23333E+03        -0.55091E+03         0.00000E+00
    0.00000E+00         0.00000E+00        -0.11135E+04
 
   -0.34688E+04         0.47609E+03         0.00000E+00
    0.47609E+03        -0.73271E+03         0.00000E+00
    0.00000E+00         0.00000E+00        -0.12604E+04
 
   -0.37035E+04         0.72252E+03         0.00000E+00
    0.72252E+03        -0.93065E+03         0.00000E+00
    0.00000E+00         0.00000E+00        -0.13903E+04
 
   -0.38691E+04         0.96753E+03         0.00000E+00
    0.96753E+03        -0.11400E+04         0.00000E+00
    0.00000E+00         0.00000E+00        -0.15027E+04
 
   -0.39700E+04         0.12078E+04         0.00000E+00
    0.12078E+04        -0.13561E+04         0.00000E+00
    0.00000E+00         0.00000E+00        -0.15978E+04
 
   -0.40104E+04         0.14416E+04         0.00000E+00
    0.14416E+04        -0.15750E+04         0.00000E+00
    0.00000E+00         0.00000E+00        -0.16756E+04
 
   -0.39939E+04         0.16684E+04         0.00000E+00
    0.16684E+04        -0.17935E+04         0.00000E+00
    0.00000E+00         0.00000E+00        -0.17362E+04
 
   -0.39230E+04         0.18888E+04         0.00000E+00
    0.18888E+04        -0.20094E+04         0.00000E+00
    0.00000E+00         0.00000E+00        -0.17797E+04
 
   -0.37989E+04         0.21041E+04         0.00000E+00
    0.21041E+04        -0.22213E+04         0.00000E+00
    0.00000E+00         0.00000E+00        -0.18061E+04
 
   -0.36216E+04         0.23158E+04         0.00000E+00
    0.23158E+04        -0.24292E+04         0.00000E+00
    0.00000E+00         0.00000E+00        -0.18152E+04
 
   -0.33891E+04         0.25256E+04         0.00000E+00
    0.25256E+04        -0.26341E+04         0.00000E+00
    0.00000E+00         0.00000E+00        -0.18069E+04
 
   -0.30981E+04         0.27349E+04         0.00000E+00
    0.27349E+04        -0.28381E+04         0.00000E+00
    0.00000E+00         0.00000E+00        -0.17808E+04
 
   -0.27435E+04         0.29444E+04         0.00000E+00
    0.29444E+04        -0.30445E+04         0.00000E+00
    0.00000E+00         0.00000E+00        -0.17364E+04
 
   -0.23186E+04         0.31539E+04         0.00000E+00
    0.31539E+04        -0.32576E+04         0.00000E+00
    0.00000E+00         0.00000E+00        -0.16729E+04
 
   -0.18150E+04         0.33619E+04         0.00000E+00
    0.33619E+04        -0.34827E+04         0.00000E+00
    0.00000E+00         0.00000E+00        -0.15893E+04
 
    0.23877E+04        -0.15989E+03         0.00000E+00
   -0.15989E+03         0.28210E+01         0.00000E+00
    0.00000E+00         0.00000E+00         0.71716E+03
 
    0.16681E+04        -0.40846E+03         0.00000E+00
   -0.40846E+03         0.13158E+02         0.00000E+00
    0.00000E+00         0.00000E+00         0.50437E+03
 
    0.94685E+03        -0.56773E+03         0.00000E+00
   -0.56773E+03         0.24453E+02         0.00000E+00
    0.00000E+00         0.00000E+00         0.29139E+03
 
    0.24264E+03        -0.64455E+03         0.00000E+00
   -0.64455E+03         0.27920E+02         0.00000E+00
    0.00000E+00         0.00000E+00         0.81167E+02
 
   -0.42847E+03        -0.64765E+03         0.00000E+00
   -0.64765E+03         0.16430E+02         0.00000E+00
    0.00000E+00         0.00000E+00        -0.12361E+03
 
   -0.10533E+04        -0.58708E+03         0.00000E+00
   -0.58708E+03        -0.15238E+02         0.00000E+00
    0.00000E+00         0.00000E+00        -0.32056E+03
 
   -0.16218E+04        -0.47360E+03         0.00000E+00
   -0.47360E+03        -0.70316E+02         0.00000E+00
    0.00000E+00         0.00000E+00        -0.50763E+03
 
   -0.21268E+04        -0.31800E+03         0.00000E+00
   -0.31800E+03        -0.15012E+03         0.00000E+00
    0.00000E+00         0.00000E+00        -0.68309E+03
 
   -0.25643E+04        -0.13057E+03         0.00000E+00
   -0.13057E+03        -0.25424E+03         0.00000E+00
    0.00000E+00         0.00000E+00        -0.84558E+03
 
   -0.29325E+04         0.79361E+02         0.00000E+00
    0.79361E+02        -0.38092E+03         0.00000E+00
    0.00000E+00         0.00000E+00        -0.99403E+03
 
   -0.32316E+04         0.30376E+03         0.00000E+00
    0.30376E+03        -0.52732E+03         0.00000E+00
    0.00000E+00         0.00000E+00        -0.11277E+04
 
   -0.34632E+04         0.53602E+03         0.00000E+00
    0.53602E+03        -0.69001E+03         0.00000E+00
    0.00000E+00         0.00000E+00        -0.12460E+04
 
   -0.36300E+04         0.77108E+03         0.00000E+00
    0.77108E+03        -0.86529E+03         0.00000E+00
    0.00000E+00         0.00000E+00        -0.13486E+04
 
   -0.37348E+04         0.10053E+04         0.00000E+00
    0.10053E+04        -0.10495E+04         0.00000E+00
    0.00000E+00         0.00000E+00        -0.14353E+04
 
   -0.37806E+04         0.12364E+04         0.00000E+00
    0.12364E+04        -0.12394E+04         0.00000E+00
    0.00000E+00         0.00000E+00        -0.15060E+04
 
   -0.37698E+04         0.14630E+04         0.00000E+00
    0.14630E+04        -0.14323E+04         0.00000E+00
    0.00000E+00         0.00000E+00        -0.15606E+04
 
   -0.37041E+04         0.16850E+04         0.00000E+00
    0.16850E+04        -0.16261E+04         0.00000E+00
    0.00000E+00         0.00000E+00        -0.15991E+04
 
   -0.35844E+04         0.19025E+04         0.00000E+00
    0.19025E+04        -0.18198E+04         0.00000E+00
    0.00000E+00         0.00000E+00        -0.16212E+04
 
   -0.34101E+04         0.21161E+04         0.00000E+00
    0.21161E+04        -0.20131E+04         0.00000E+00
    0.00000E+00         0.00000E+00        -0.16270E+04
 
   -0.31798E+04         0.23264E+04         0.00000E+00
    0.23264E+04        -0.22069E+04         0.00000E+00
    0.00000E+00         0.00000E+00        -0.16160E+04
 
   -0.28904E+04         0.25337E+04         0.00000E+00
    0.25337E+04        -0.24027E+04         0.00000E+00
    0.00000E+00         0.00000E+00        -0.15879E+04
 
   -0.25376E+04         0.27378E+04         0.00000E+00
    0.27378E+04        -0.26033E+04         0.00000E+00
    0.00000E+00         0.00000E+00        -0.15423E+04
 
   -0.21157E+04         0.29375E+04         0.00000E+00
    0.29375E+04        -0.28123E+04         0.00000E+00
    0.00000E+00         0.00000E+00        -0.14784E+04
 
   -0.16180E+04         0.31304E+04         0.00000E+00
    0.31304E+04        -0.30338E+04         0.00000E+00
    0.00000E+00         0.00000E+00        -0.13955E+04
 
    0.20984E+04        -0.15272E+03         0.00000E+00
   -0.15272E+03         0.30163E+01         0.00000E+00
    0.00000E+00         0.00000E+00         0.63043E+03
 
    0.14658E+04        -0.39444E+03         0.00000E+00
   -0.39444E+03         0.14843E+02         0.00000E+00
    0.00000E+00         0.00000E+00         0.44419E+03
 
    0.82649E+03        -0.55582E+03         0.00000E+00
   -0.55582E+03         0.30164E+02         0.00000E+00
    0.00000E+00         0.00000E+00         0.25700E+03
 
    0.19711E+03        -0.64238E+03         0.00000E+00
   -0.64238E+03         0.41102E+02         0.00000E+00
    0.00000E+00         0.00000E+00         0.71464E+02
 
   -0.40776E+03        -0.66119E+03         0.00000E+00
   -0.66119E+03         0.41131E+02         0.00000E+00
    0.00000E+00         0.00000E+00        -0.10999E+03
 
   -0.97590E+03        -0.62055E+03         0.00000E+00
   -0.62055E+03         0.25281E+02         0.00000E+00
    0.00000E+00         0.00000E+00        -0.28518E+03
 
   -0.14976E+04        -0.52940E+03         0.00000E+00
   -0.52940E+03        -0.97911E+01         0.00000E+00
    0.00000E+00         0.00000E+00        -0.45222E+03
 
   -0.19658E+04        -0.39685E+03         0.00000E+00
   -0.39685E+03        -0.65834E+02         0.00000E+00
    0.00000E+00         0.00000E+00        -0.60948E+03
 
   -0.23755E+04        -0.23174E+03         0.00000E+00
   -0.23174E+03        -0.14315E+03         0.00000E+00
    0.00000E+00         0.00000E+00        -0.75560E+03
 
   -0.27241E+04        -0.42255E+02         0.00000E+00
   -0.42255E+02        -0.24084E+03         0.00000E+00
    0.00000E+00         0.00000E+00        -0.88949E+03
 
   -0.30107E+04         0.16437E+03         0.00000E+00
    0.16437E+03        -0.35704E+03         0.00000E+00
    0.00000E+00         0.00000E+00        -0.10103E+04
 
   -0.32355E+04         0.38201E+03         0.00000E+00
    0.38201E+03        -0.48931E+03         0.00000E+00
    0.00000E+00         0.00000E+00        -0.11174E+04
 
   -0.33998E+04         0.60572E+03         0.00000E+00
    0.60572E+03        -0.63484E+03         0.00000E+00
    0.00000E+00         0.00000E+00        -0.12104E+04
 
   -0.35052E+04         0.83172E+03         0.00000E+00
    0.83172E+03        -0.79080E+03         0.00000E+00
    0.00000E+00         0.00000E+00        -0.12888E+04
 
   -0.35536E+04         0.10573E+04         0.00000E+00
    0.10573E+04        -0.95458E+03         0.00000E+00
    0.00000E+00         0.00000E+00        -0.13525E+04
 
   -0.35465E+04         0.12807E+04         0.00000E+00
    0.12807E+04        -0.11239E+04         0.00000E+00
    0.00000E+00         0.00000E+00        -0.14011E+04
 
   -0.34850E+04         0.15008E+04         0.00000E+00
    0.15008E+04        -0.12972E+04         0.00000E+00
    0.00000E+00         0.00000E+00        -0.14347E+04
 
   -0.33693E+04         0.17171E+04         0.00000E+00
    0.17171E+04        -0.14734E+04         0.00000E+00
    0.00000E+00         0.00000E+00        -0.14528E+04
 
   -0.31990E+04         0.19293E+04         0.00000E+00
    0.19293E+04        -0.16523E+04         0.00000E+00
    0.00000E+00         0.00000E+00        -0.14554E+04
 
   -0.29726E+04         0.21371E+04         0.00000E+00
    0.21371E+04        -0.18345E+04         0.00000E+00
    0.00000E+00         0.00000E+00        -0.14421E+04
 
   -0.26874E+04         0.23400E+04         0.00000E+00
    0.23400E+04        -0.20212E+04         0.00000E+00
    0.00000E+00         0.00000E+00        -0.14126E+04
 
   -0.23399E+04         0.25368E+04         0.00000E+00
    0.25368E+04        -0.22146E+04         0.00000E+00
    0.00000E+00         0.00000E+00        -0.13663E+04
 
   -0.19254E+04         0.27258E+04         0.00000E+00
    0.27258E+04        -0.24174E+04         0.00000E+00
    0.00000E+00         0.00000E+00        -0.13029E+04
 
   -0.14386E+04         0.29037E+04         0.00000E+00
    0.29037E+04        -0.26332E+04         0.00000E+00
    0.00000E+00         0.00000E+00        -0.12216E+04
 
    0.18215E+04        -0.14507E+03         0.00000E+00
   -0.14507E+03         0.31565E+01         0.00000E+00
    0.00000E+00         0.00000E+00         0.54739E+03
 
    0.12669E+04        -0.37817E+03         0.00000E+00
   -0.37817E+03         0.16110E+02         0.00000E+00
    0.00000E+00         0.00000E+00         0.38491E+03
 
    0.70161E+03        -0.53895E+03         0.00000E+00
   -0.53895E+03         0.34563E+02         0.00000E+00
    0.00000E+00         0.00000E+00         0.22085E+03
 
    0.14053E+03        -0.63180E+03         0.00000E+00
   -0.63180E+03         0.51410E+02         0.00000E+00
    0.00000E+00         0.00000E+00         0.57582E+02
 
   -0.40307E+03        -0.66249E+03         0.00000E+00
   -0.66249E+03         0.60658E+02         0.00000E+00
    0.00000E+00         0.00000E+00        -0.10272E+03
 
   -0.91785E+03        -0.63783E+03         0.00000E+00
   -0.63783E+03         0.57592E+02         0.00000E+00
    0.00000E+00         0.00000E+00        -0.25808E+03
 
   -0.13946E+04        -0.56528E+03         0.00000E+00
   -0.56528E+03         0.38840E+02         0.00000E+00
    0.00000E+00         0.00000E+00        -0.40672E+03
 
   -0.18260E+04        -0.45255E+03         0.00000E+00
   -0.45255E+03         0.23566E+01         0.00000E+00
    0.00000E+00         0.00000E+00        -0.54710E+03
 
   -0.22071E+04        -0.30724E+03         0.00000E+00
   -0.30724E+03        -0.52678E+02         0.00000E+00
    0.00000E+00         0.00000E+00        -0.67793E+03
 
   -0.25343E+04        -0.13650E+03         0.00000E+00
   -0.13650E+03        -0.12603E+03         0.00000E+00
    0.00000E+00         0.00000E+00        -0.79811E+03
 
   -0.28059E+04         0.53171E+02         0.00000E+00
    0.53171E+02        -0.21663E+03         0.00000E+00
    0.00000E+00         0.00000E+00        -0.90675E+03
 
   -0.30210E+04         0.25612E+03         0.00000E+00
    0.25612E+03        -0.32280E+03         0.00000E+00
    0.00000E+00         0.00000E+00        -0.10032E+04
 
   -0.31800E+04         0.46762E+03         0.00000E+00
    0.46762E+03        -0.44252E+03         0.00000E+00
    0.00000E+00         0.00000E+00        -0.10868E+04
 
   -0.32834E+04         0.68385E+03         0.00000E+00
    0.68385E+03        -0.57366E+03         0.00000E+00
    0.00000E+00         0.00000E+00        -0.11571E+04
 
   -0.33322E+04         0.90185E+03         0.00000E+00
    0.90185E+03        -0.71417E+03         0.00000E+00
    0.00000E+00         0.00000E+00        -0.12139E+04
 
   -0.33271E+04         0.11194E+04         0.00000E+00
    0.11194E+04        -0.86227E+03         0.00000E+00
    0.00000E+00         0.00000E+00        -0.12568E+04
 
   -0.32687E+04         0.13350E+04         0.00000E+00
    0.13350E+04        -0.10166E+04         0.00000E+00
    0.00000E+00         0.00000E+00        -0.12856E+04
 
   -0.31569E+04         0.15473E+04         0.00000E+00
    0.15473E+04        -0.11763E+04         0.00000E+00
    0.00000E+00         0.00000E+00        -0.13000E+04
 
   -0.29910E+04         0.17554E+04         0.00000E+00
    0.17554E+04        -0.13412E+04         0.00000E+00
    0.00000E+00         0.00000E+00        -0.12997E+04
 
   -0.27698E+04         0.19583E+04         0.00000E+00
    0.19583E+04        -0.15116E+04         0.00000E+00
    0.00000E+00         0.00000E+00        -0.12844E+04
 
   -0.24910E+04         0.21548E+04         0.00000E+00
    0.21548E+04        -0.16885E+04         0.00000E+00
    0.00000E+00         0.00000E+00        -0.12538E+04
 
   -0.21516E+04         0.23430E+04         0.00000E+00
    0.23430E+04        -0.18737E+04         0.00000E+00
    0.00000E+00         0.00000E+00        -0.12076E+04
 
   -0.17480E+04         0.25206E+04         0.00000E+00
    0.25206E+04        -0.20691E+04         0.00000E+00
    0.00000E+00         0.00000E+00        -0.11451E+04
 
   -0.12760E+04         0.26839E+04         0.00000E+00
    0.26839E+04        -0.22775E+04         0.00000E+00
    0.00000E+00         0.00000E+00        -0.10661E+04
 
    0.15580E+04        -0.13709E+03         0.00000E+00
   -0.13709E+03         0.32472E+01         0.00000E+00
    0.00000E+00         0.00000E+00         0.46837E+03
 
    0.10735E+04        -0.36020E+03         0.00000E+00
   -0.36020E+03         0.17012E+02         0.00000E+00
    0.00000E+00         0.00000E+00         0.32714E+03
 
    0.57503E+03        -0.51821E+03         0.00000E+00
   -0.51821E+03         0.37838E+02         0.00000E+00
    0.00000E+00         0.00000E+00         0.18386E+03
 
    0.76234E+02        -0.61458E+03         0.00000E+00
   -0.61458E+03         0.59283E+02         0.00000E+00
    0.00000E+00         0.00000E+00         0.40655E+02
 
   -0.41082E+03        -0.65397E+03         0.00000E+00
   -0.65397E+03         0.75830E+02         0.00000E+00
    0.00000E+00         0.00000E+00        -0.10050E+03
 
   -0.87562E+03        -0.64200E+03         0.00000E+00
   -0.64200E+03         0.83016E+02         0.00000E+00
    0.00000E+00         0.00000E+00        -0.23778E+03
 
   -0.13093E+04        -0.58489E+03         0.00000E+00
   -0.58489E+03         0.77492E+02         0.00000E+00
    0.00000E+00         0.00000E+00        -0.36956E+03
 
   -0.17050E+04        -0.48916E+03         0.00000E+00
   -0.48916E+03         0.57024E+02         0.00000E+00
    0.00000E+00         0.00000E+00        -0.49438E+03
 
   -0.20571E+04        -0.36135E+03         0.00000E+00
   -0.36135E+03         0.20413E+02         0.00000E+00
    0.00000E+00         0.00000E+00        -0.61099E+03
 
   -0.23618E+04        -0.20772E+03         0.00000E+00
   -0.20772E+03        -0.32624E+02         0.00000E+00
    0.00000E+00         0.00000E+00        -0.71832E+03
 
   -0.26166E+04        -0.34073E+02         0.00000E+00
   -0.34073E+02        -0.10162E+03         0.00000E+00
    0.00000E+00         0.00000E+00        -0.81547E+03
 
   -0.28201E+04         0.15440E+03         0.00000E+00
    0.15440E+03        -0.18556E+03         0.00000E+00
    0.00000E+00         0.00000E+00        -0.90170E+03
 
   -0.29716E+04         0.35322E+03         0.00000E+00
    0.35322E+03        -0.28305E+03         0.00000E+00
    0.00000E+00         0.00000E+00        -0.97639E+03
 
   -0.30709E+04         0.55861E+03         0.00000E+00
    0.55861E+03        -0.39255E+03         0.00000E+00
    0.00000E+00         0.00000E+00        -0.10390E+04
 
   -0.31183E+04         0.76748E+03         0.00000E+00
    0.76748E+03        -0.51251E+03         0.00000E+00
    0.00000E+00         0.00000E+00        -0.10892E+04
 
   -0.31139E+04         0.97734E+03         0.00000E+00
    0.97734E+03        -0.64156E+03         0.00000E+00
    0.00000E+00         0.00000E+00        -0.11266E+04
 
   -0.30577E+04         0.11862E+04         0.00000E+00
    0.11862E+04        -0.77863E+03         0.00000E+00
    0.00000E+00         0.00000E+00        -0.11509E+04
 
   -0.29495E+04         0.13923E+04         0.00000E+00
    0.13923E+04        -0.92301E+03         0.00000E+00
    0.00000E+00         0.00000E+00        -0.11618E+04
 
   -0.27885E+04         0.15942E+04         0.00000E+00
    0.15942E+04        -0.10745E+04         0.00000E+00
    0.00000E+00         0.00000E+00        -0.11589E+04
 
   -0.25735E+04         0.17903E+04         0.00000E+00
    0.17903E+04        -0.12332E+04         0.00000E+00
    0.00000E+00         0.00000E+00        -0.11420E+04
 
   -0.23027E+04         0.19788E+04         0.00000E+00
    0.19788E+04        -0.14001E+04         0.00000E+00
    0.00000E+00         0.00000E+00        -0.11108E+04
 
   -0.19736E+04         0.21574E+04         0.00000E+00
    0.21574E+04        -0.15762E+04         0.00000E+00
    0.00000E+00         0.00000E+00        -0.10650E+04
 
   -0.15835E+04         0.23232E+04         0.00000E+00
    0.23232E+04        -0.17633E+04         0.00000E+00
    0.00000E+00         0.00000E+00        -0.10040E+04
 
   -0.11293E+04         0.24724E+04         0.00000E+00
    0.24724E+04        -0.19631E+04         0.00000E+00
    0.00000E+00         0.00000E+00        -0.92772E+03
 
    0.13087E+04        -0.12891E+03         0.00000E+00
   -0.12891E+03         0.32940E+01         0.00000E+00
    0.00000E+00         0.00000E+00         0.39360E+03
 
    0.88699E+03        -0.34102E+03         0.00000E+00
   -0.34102E+03         0.17598E+02         0.00000E+00
    0.00000E+00         0.00000E+00         0.27138E+03
 
    0.44898E+03        -0.49455E+03         0.00000E+00
   -0.49455E+03         0.40151E+02         0.00000E+00
    0.00000E+00         0.00000E+00         0.14674E+03
 
    0.69425E+01        -0.59219E+03         0.00000E+00
   -0.59219E+03         0.65091E+02         0.00000E+00
    0.00000E+00         0.00000E+00         0.21610E+02
 
   -0.42804E+03        -0.63769E+03         0.00000E+00
   -0.63769E+03         0.87326E+02         0.00000E+00
    0.00000E+00         0.00000E+00        -0.10221E+03
 
   -0.84618E+03        -0.63565E+03         0.00000E+00
   -0.63565E+03         0.10264E+03         0.00000E+00
    0.00000E+00         0.00000E+00        -0.22306E+03
 
   -0.12392E+04        -0.59129E+03         0.00000E+00
   -0.59129E+03         0.10775E+03         0.00000E+00
    0.00000E+00         0.00000E+00        -0.33942E+03
 
   -0.16001E+04        -0.51011E+03         0.00000E+00
   -0.51011E+03         0.10030E+03         0.00000E+00
    0.00000E+00         0.00000E+00        -0.44994E+03
 
   -0.19235E+04        -0.39775E+03         0.00000E+00
   -0.39775E+03         0.78821E+02         0.00000E+00
    0.00000E+00         0.00000E+00        -0.55341E+03
 
   -0.22053E+04        -0.25967E+03         0.00000E+00
   -0.25967E+03         0.42640E+02         0.00000E+00
    0.00000E+00         0.00000E+00        -0.64878E+03
 
   -0.24423E+04        -0.10107E+03         0.00000E+00
   -0.10107E+03        -0.82569E+01         0.00000E+00
    0.00000E+00         0.00000E+00        -0.73518E+03
 
   -0.26327E+04         0.73320E+02         0.00000E+00
    0.73320E+02        -0.73368E+02         0.00000E+00
    0.00000E+00         0.00000E+00        -0.81183E+03
 
   -0.27751E+04         0.25929E+03         0.00000E+00
    0.25929E+03        -0.15183E+03         0.00000E+00
    0.00000E+00         0.00000E+00        -0.87809E+03
 
   -0.28689E+04         0.45316E+03         0.00000E+00
    0.45316E+03        -0.24260E+03         0.00000E+00
    0.00000E+00         0.00000E+00        -0.93343E+03
 
   -0.29134E+04         0.65179E+03         0.00000E+00
    0.65179E+03        -0.34455E+03         0.00000E+00
    0.00000E+00         0.00000E+00        -0.97739E+03
 
   -0.29086E+04         0.85250E+03         0.00000E+00
    0.85250E+03        -0.45667E+03         0.00000E+00
    0.00000E+00         0.00000E+00        -0.10096E+04
 
   -0.28540E+04         0.10530E+04         0.00000E+00
    0.10530E+04        -0.57812E+03         0.00000E+00
    0.00000E+00         0.00000E+00        -0.10296E+04
 
   -0.27491E+04         0.12512E+04         0.00000E+00
    0.12512E+04        -0.70834E+03         0.00000E+00
    0.00000E+00         0.00000E+00        -0.10372E+04
 
   -0.25933E+04         0.14452E+04         0.00000E+00
    0.14452E+04        -0.84712E+03         0.00000E+00
    0.00000E+00         0.00000E+00        -0.10321E+04
 
   -0.23852E+04         0.16330E+04         0.00000E+00
    0.16330E+04        -0.99460E+03         0.00000E+00
    0.00000E+00         0.00000E+00        -0.10140E+04
 
   -0.21236E+04         0.18124E+04         0.00000E+00
    0.18124E+04        -0.11513E+04         0.00000E+00
    0.00000E+00         0.00000E+00        -0.98247E+03
 
   -0.18065E+04         0.19807E+04         0.00000E+00
    0.19807E+04        -0.13181E+04         0.00000E+00
    0.00000E+00         0.00000E+00        -0.93737E+03
 
   -0.14319E+04         0.21347E+04         0.00000E+00
    0.21347E+04        -0.14960E+04         0.00000E+00
    0.00000E+00         0.00000E+00        -0.87836E+03
 
   -0.99744E+03         0.22703E+04         0.00000E+00
    0.22703E+04        -0.16865E+04         0.00000E+00
    0.00000E+00         0.00000E+00        -0.80518E+03
 
    0.10741E+04        -0.12063E+03         0.00000E+00
   -0.12063E+03         0.33025E+01         0.00000E+00
    0.00000E+00         0.00000E+00         0.32322E+03
 
    0.70871E+03        -0.32103E+03         0.00000E+00
   -0.32103E+03         0.17911E+02         0.00000E+00
    0.00000E+00         0.00000E+00         0.21799E+03
 
    0.32525E+03        -0.46876E+03         0.00000E+00
   -0.46876E+03         0.41643E+02         0.00000E+00
    0.00000E+00         0.00000E+00         0.11007E+03
 
   -0.65136E+02        -0.56586E+03         0.00000E+00
   -0.56586E+03         0.69149E+02         0.00000E+00
    0.00000E+00         0.00000E+00         0.12039E+01
 
   -0.45226E+03        -0.61534E+03         0.00000E+00
   -0.61534E+03         0.95721E+02         0.00000E+00
    0.00000E+00         0.00000E+00        -0.10696E+03
 
   -0.82704E+03        -0.62096E+03         0.00000E+00
   -0.62096E+03         0.11738E+03         0.00000E+00
    0.00000E+00         0.00000E+00        -0.21290E+03
 
   -0.11816E+04        -0.58706E+03         0.00000E+00
   -0.58706E+03         0.13094E+03         0.00000E+00
    0.00000E+00         0.00000E+00        -0.31520E+03
 
   -0.15093E+04        -0.51832E+03         0.00000E+00
   -0.51832E+03         0.13397E+03         0.00000E+00
    0.00000E+00         0.00000E+00        -0.41261E+03
 
   -0.18047E+04        -0.41957E+03         0.00000E+00
   -0.41957E+03         0.12483E+03         0.00000E+00
    0.00000E+00         0.00000E+00        -0.50397E+03
 
   -0.20635E+04        -0.29562E+03         0.00000E+00
   -0.29562E+03         0.10253E+03         0.00000E+00
    0.00000E+00         0.00000E+00        -0.58828E+03
 
   -0.22823E+04        -0.15108E+03         0.00000E+00
   -0.15108E+03         0.66706E+02         0.00000E+00
    0.00000E+00         0.00000E+00        -0.66467E+03
 
   -0.24587E+04         0.97455E+01         0.00000E+00
    0.97455E+01         0.17433E+02         0.00000E+00
    0.00000E+00         0.00000E+00        -0.73238E+03
 
   -0.25910E+04         0.18291E+03         0.00000E+00
    0.18291E+03        -0.44852E+02         0.00000E+00
    0.00000E+00         0.00000E+00        -0.79076E+03
 
   -0.26780E+04         0.36488E+03         0.00000E+00
    0.36488E+03        -0.11950E+03         0.00000E+00
    0.00000E+00         0.00000E+00        -0.83924E+03
 
   -0.27187E+04         0.55253E+03         0.00000E+00
    0.55253E+03        -0.20577E+03         0.00000E+00
    0.00000E+00         0.00000E+00        -0.87734E+03
 
   -0.27126E+04         0.74307E+03         0.00000E+00
    0.74307E+03        -0.30293E+03         0.00000E+00
    0.00000E+00         0.00000E+00        -0.90466E+03
 
   -0.26590E+04         0.93401E+03         0.00000E+00
    0.93401E+03        -0.41037E+03         0.00000E+00
    0.00000E+00         0.00000E+00        -0.92081E+03
 
   -0.25573E+04         0.11230E+04         0.00000E+00
    0.11230E+04        -0.52765E+03         0.00000E+00
    0.00000E+00         0.00000E+00        -0.92549E+03
 
   -0.24067E+04         0.13079E+04         0.00000E+00
    0.13079E+04        -0.65458E+03         0.00000E+00
    0.00000E+00         0.00000E+00        -0.91838E+03
 
   -0.22062E+04         0.14863E+04         0.00000E+00
    0.14863E+04        -0.79121E+03         0.00000E+00
    0.00000E+00         0.00000E+00        -0.89921E+03
 
   -0.19546E+04         0.16557E+04         0.00000E+00
    0.16557E+04        -0.93785E+03         0.00000E+00
    0.00000E+00         0.00000E+00        -0.86772E+03
 
   -0.16506E+04         0.18132E+04         0.00000E+00
    0.18132E+04        -0.10951E+04         0.00000E+00
    0.00000E+00         0.00000E+00        -0.82368E+03
 
   -0.12927E+04         0.19555E+04         0.00000E+00
    0.19555E+04        -0.12635E+04         0.00000E+00
    0.00000E+00         0.00000E+00        -0.76687E+03
 
   -0.87951E+03         0.20783E+04         0.00000E+00
    0.20783E+04        -0.14441E+04         0.00000E+00
    0.00000E+00         0.00000E+00        -0.69708E+03
 
    0.85446E+03        -0.11235E+03         0.00000E+00
   -0.11235E+03         0.32781E+01         0.00000E+00
    0.00000E+00         0.00000E+00         0.25732E+03
 
    0.53950E+03        -0.30057E+03         0.00000E+00
   -0.30057E+03         0.17992E+02         0.00000E+00
    0.00000E+00         0.00000E+00         0.16725E+03
 
    0.20522E+03        -0.44150E+03         0.00000E+00
   -0.44150E+03         0.42441E+02         0.00000E+00
    0.00000E+00         0.00000E+00         0.74299E+02
 
   -0.13822E+03        -0.53665E+03         0.00000E+00
   -0.53665E+03         0.71731E+02         0.00000E+00
    0.00000E+00         0.00000E+00        -0.19945E+02
 
   -0.48146E+03        -0.58837E+03         0.00000E+00
   -0.58837E+03         0.10151E+03         0.00000E+00
    0.00000E+00         0.00000E+00        -0.11399E+03
 
   -0.81608E+03        -0.59975E+03         0.00000E+00
   -0.59975E+03         0.12802E+03         0.00000E+00
    0.00000E+00         0.00000E+00        -0.20642E+03
 
   -0.11347E+04        -0.57439E+03         0.00000E+00
   -0.57439E+03         0.14818E+03         0.00000E+00
    0.00000E+00         0.00000E+00        -0.29594E+03
 
   -0.14308E+04        -0.51626E+03         0.00000E+00
   -0.51626E+03         0.15956E+03         0.00000E+00
    0.00000E+00         0.00000E+00        -0.38137E+03
 
   -0.16991E+04        -0.42952E+03         0.00000E+00
   -0.42952E+03         0.16037E+03         0.00000E+00
    0.00000E+00         0.00000E+00        -0.46162E+03
 
   -0.19352E+04        -0.31837E+03         0.00000E+00
   -0.31837E+03         0.14943E+03         0.00000E+00
    0.00000E+00         0.00000E+00        -0.53575E+03
 
   -0.21357E+04        -0.18691E+03         0.00000E+00
   -0.18691E+03         0.12605E+03         0.00000E+00
    0.00000E+00         0.00000E+00        -0.60289E+03
 
   -0.22977E+04        -0.39070E+02         0.00000E+00
   -0.39070E+02         0.90017E+02         0.00000E+00
    0.00000E+00         0.00000E+00        -0.66230E+03
 
   -0.24192E+04         0.12150E+03         0.00000E+00
    0.12150E+03         0.41404E+02         0.00000E+00
    0.00000E+00         0.00000E+00        -0.71334E+03
 
   -0.24987E+04         0.29142E+03         0.00000E+00
    0.29142E+03        -0.19468E+02         0.00000E+00
    0.00000E+00         0.00000E+00        -0.75544E+03
 
   -0.25348E+04         0.46762E+03         0.00000E+00
    0.46762E+03        -0.92159E+02         0.00000E+00
    0.00000E+00         0.00000E+00        -0.78810E+03
 
   -0.25268E+04         0.64730E+03         0.00000E+00
    0.64730E+03        -0.17619E+03         0.00000E+00
    0.00000E+00         0.00000E+00        -0.81091E+03
 
   -0.24738E+04         0.82783E+03         0.00000E+00
    0.82783E+03        -0.27113E+03         0.00000E+00
    0.00000E+00         0.00000E+00        -0.82349E+03
 
   -0.23751E+04         0.10067E+04         0.00000E+00
    0.10067E+04        -0.37666E+03         0.00000E+00
    0.00000E+00         0.00000E+00        -0.82552E+03
 
   -0.22297E+04         0.11816E+04         0.00000E+00
    0.11816E+04        -0.49259E+03         0.00000E+00
    0.00000E+00         0.00000E+00        -0.81670E+03
 
   -0.20370E+04         0.13498E+04         0.00000E+00
    0.13498E+04        -0.61890E+03         0.00000E+00
    0.00000E+00         0.00000E+00        -0.79678E+03
 
   -0.17961E+04         0.15088E+04         0.00000E+00
    0.15088E+04        -0.75575E+03         0.00000E+00
    0.00000E+00         0.00000E+00        -0.76555E+03
 
   -0.15059E+04         0.16553E+04         0.00000E+00
    0.16553E+04        -0.90342E+03         0.00000E+00
    0.00000E+00         0.00000E+00        -0.72279E+03
 
   -0.11656E+04         0.17860E+04         0.00000E+00
    0.17860E+04        -0.10623E+04         0.00000E+00
    0.00000E+00         0.00000E+00        -0.66836E+03
 
   -0.77443E+03         0.18967E+04         0.00000E+00
    0.18967E+04        -0.12327E+04         0.00000E+00
    0.00000E+00         0.00000E+00        -0.60213E+03
 
    0.64986E+03        -0.10415E+03         0.00000E+00
   -0.10415E+03         0.32261E+01         0.00000E+00
    0.00000E+00         0.00000E+00         0.19593E+03
 
    0.37999E+03        -0.27993E+03         0.00000E+00
   -0.27993E+03         0.17878E+02         0.00000E+00
    0.00000E+00         0.00000E+00         0.11936E+03
 
    0.89992E+02        -0.41334E+03         0.00000E+00
   -0.41334E+03         0.42657E+02         0.00000E+00
    0.00000E+00         0.00000E+00         0.39795E+02
 
   -0.21087E+03        -0.50541E+03         0.00000E+00
   -0.50541E+03         0.73081E+02         0.00000E+00
    0.00000E+00         0.00000E+00        -0.41336E+02
 
   -0.51399E+03        -0.55798E+03         0.00000E+00
   -0.55798E+03         0.10511E+03         0.00000E+00
    0.00000E+00         0.00000E+00        -0.12266E+03
 
   -0.81154E+03        -0.57355E+03         0.00000E+00
   -0.57355E+03         0.13523E+03         0.00000E+00
    0.00000E+00         0.00000E+00        -0.20289E+03
 
   -0.10965E+04        -0.55511E+03         0.00000E+00
   -0.55511E+03         0.16046E+03         0.00000E+00
    0.00000E+00         0.00000E+00        -0.28082E+03
 
   -0.13629E+04        -0.50602E+03         0.00000E+00
   -0.50602E+03         0.17838E+03         0.00000E+00
    0.00000E+00         0.00000E+00        -0.35535E+03
 
   -0.16053E+04        -0.42986E+03         0.00000E+00
   -0.42986E+03         0.18713E+03         0.00000E+00
    0.00000E+00         0.00000E+00        -0.42546E+03
 
   -0.18195E+04        -0.33030E+03         0.00000E+00
   -0.33030E+03         0.18537E+03         0.00000E+00
    0.00000E+00         0.00000E+00        -0.49024E+03
 
   -0.20018E+04        -0.21101E+03         0.00000E+00
   -0.21101E+03         0.17221E+03         0.00000E+00
    0.00000E+00         0.00000E+00        -0.54887E+03
 
   -0.21493E+04        -0.75525E+02         0.00000E+00
   -0.75525E+02         0.14715E+03         0.00000E+00
    0.00000E+00         0.00000E+00        -0.60064E+03
 
   -0.22597E+04         0.72761E+02         0.00000E+00
    0.72761E+02         0.11002E+03         0.00000E+00
    0.00000E+00         0.00000E+00        -0.64490E+03
 
   -0.23312E+04         0.23066E+03         0.00000E+00
    0.23066E+03         0.60852E+02         0.00000E+00
    0.00000E+00         0.00000E+00        -0.68109E+03
 
   -0.23623E+04         0.39520E+03         0.00000E+00
    0.39520E+03        -0.14835E+00         0.00000E+00
    0.00000E+00         0.00000E+00        -0.70874E+03
 
   -0.23520E+04         0.56358E+03         0.00000E+00
    0.56358E+03        -0.72716E+02         0.00000E+00
    0.00000E+00         0.00000E+00        -0.72741E+03
 
   -0.22992E+04         0.73314E+03         0.00000E+00
    0.73314E+03        -0.15657E+03         0.00000E+00
    0.00000E+00         0.00000E+00        -0.73674E+03
 
   -0.22032E+04         0.90131E+03         0.00000E+00
    0.90131E+03        -0.25148E+03         0.00000E+00
    0.00000E+00         0.00000E+00        -0.73640E+03
 
   -0.20632E+04         0.10655E+04         0.00000E+00
    0.10655E+04        -0.35727E+03         0.00000E+00
    0.00000E+00         0.00000E+00        -0.72613E+03
 
   -0.18785E+04         0.12231E+04         0.00000E+00
    0.12231E+04        -0.47387E+03         0.00000E+00
    0.00000E+00         0.00000E+00        -0.70570E+03
 
   -0.16484E+04         0.13713E+04         0.00000E+00
    0.13713E+04        -0.60129E+03         0.00000E+00
    0.00000E+00         0.00000E+00        -0.67490E+03
 
   -0.13724E+04         0.15069E+04         0.00000E+00
    0.15069E+04        -0.73958E+03         0.00000E+00
    0.00000E+00         0.00000E+00        -0.63359E+03
 
   -0.10500E+04         0.16263E+04         0.00000E+00
    0.16263E+04        -0.88883E+03         0.00000E+00
    0.00000E+00         0.00000E+00        -0.58166E+03
 
   -0.68115E+03         0.17258E+04         0.00000E+00
    0.17258E+04        -0.10490E+04         0.00000E+00
    0.00000E+00         0.00000E+00        -0.51906E+03
 
    0.46021E+03        -0.96092E+02         0.00000E+00
   -0.96092E+02         0.31513E+01         0.00000E+00
    0.00000E+00         0.00000E+00         0.13901E+03
 
    0.23057E+03        -0.25937E+03         0.00000E+00
   -0.25937E+03         0.17604E+02         0.00000E+00
    0.00000E+00         0.00000E+00         0.74453E+02
 
   -0.19636E+02        -0.38474E+03         0.00000E+00
   -0.38474E+03         0.42394E+02         0.00000E+00
    0.00000E+00         0.00000E+00         0.68272E+01
 
   -0.28196E+03        -0.47287E+03         0.00000E+00
   -0.47287E+03         0.73412E+02         0.00000E+00
    0.00000E+00         0.00000E+00        -0.62563E+02
 
   -0.54848E+03        -0.52517E+03         0.00000E+00
   -0.52517E+03         0.10692E+03         0.00000E+00
    0.00000E+00         0.00000E+00        -0.13247E+03
 
   -0.81193E+03        -0.54364E+03         0.00000E+00
   -0.54364E+03         0.13960E+03         0.00000E+00
    0.00000E+00         0.00000E+00        -0.20170E+03
 
   -0.10658E+04        -0.53075E+03         0.00000E+00
   -0.53075E+03         0.16861E+03         0.00000E+00
    0.00000E+00         0.00000E+00        -0.26915E+03
 
   -0.13042E+04        -0.48935E+03         0.00000E+00
   -0.48935E+03         0.19156E+03         0.00000E+00
    0.00000E+00         0.00000E+00        -0.33378E+03
 
   -0.15221E+04        -0.42252E+03         0.00000E+00
   -0.42252E+03         0.20655E+03         0.00000E+00
    0.00000E+00         0.00000E+00        -0.39466E+03
 
   -0.17152E+04        -0.33348E+03         0.00000E+00
   -0.33348E+03         0.21214E+03         0.00000E+00
    0.00000E+00         0.00000E+00        -0.45091E+03
 
   -0.18798E+04        -0.22547E+03         0.00000E+00
   -0.22547E+03         0.20727E+03         0.00000E+00
    0.00000E+00         0.00000E+00        -0.50176E+03
 
   -0.20129E+04        -0.10170E+03         0.00000E+00
   -0.10170E+03         0.19125E+03         0.00000E+00
    0.00000E+00         0.00000E+00        -0.54651E+03
 
   -0.21122E+04         0.34700E+02         0.00000E+00
    0.34700E+02         0.16369E+03         0.00000E+00
    0.00000E+00         0.00000E+00        -0.58455E+03
 
   -0.21755E+04         0.18074E+03         0.00000E+00
    0.18074E+03         0.12442E+03         0.00000E+00
    0.00000E+00         0.00000E+00        -0.61533E+03
 
   -0.22013E+04         0.33357E+03         0.00000E+00
    0.33357E+03         0.73429E+02         0.00000E+00
    0.00000E+00         0.00000E+00        -0.63837E+03
 
   -0.21884E+04         0.49044E+03         0.00000E+00
    0.49044E+03         0.10827E+02         0.00000E+00
    0.00000E+00         0.00000E+00        -0.65327E+03
 
   -0.21356E+04         0.64870E+03         0.00000E+00
    0.64870E+03        -0.63238E+02         0.00000E+00
    0.00000E+00         0.00000E+00        -0.65966E+03
 
   -0.20422E+04         0.80577E+03         0.00000E+00
    0.80577E+03        -0.14860E+03         0.00000E+00
    0.00000E+00         0.00000E+00        -0.65724E+03
 
   -0.19074E+04         0.95900E+03         0.00000E+00
    0.95900E+03        -0.24510E+03         0.00000E+00
    0.00000E+00         0.00000E+00        -0.64575E+03
 
   -0.17307E+04         0.11057E+04         0.00000E+00
    0.11057E+04        -0.35262E+03         0.00000E+00
    0.00000E+00         0.00000E+00        -0.62498E+03
 
   -0.15116E+04         0.12430E+04         0.00000E+00
    0.12430E+04        -0.47105E+03         0.00000E+00
    0.00000E+00         0.00000E+00        -0.59478E+03
 
   -0.12498E+04         0.13677E+04         0.00000E+00
    0.13677E+04        -0.60026E+03         0.00000E+00
    0.00000E+00         0.00000E+00        -0.55502E+03
 
   -0.94543E+03         0.14765E+04         0.00000E+00
    0.14765E+04        -0.74009E+03         0.00000E+00
    0.00000E+00         0.00000E+00        -0.50566E+03
 
   -0.59869E+03         0.15654E+04         0.00000E+00
    0.15654E+04        -0.89023E+03         0.00000E+00
    0.00000E+00         0.00000E+00        -0.44667E+03
 
    0.28528E+03        -0.88238E+02         0.00000E+00
   -0.88238E+02         0.30586E+01         0.00000E+00
    0.00000E+00         0.00000E+00         0.86500E+02
 
    0.91464E+02        -0.23908E+03         0.00000E+00
   -0.23908E+03         0.17202E+02         0.00000E+00
    0.00000E+00         0.00000E+00         0.32600E+02
 
   -0.12307E+03        -0.35609E+03         0.00000E+00
   -0.35609E+03         0.41744E+02         0.00000E+00
    0.00000E+00         0.00000E+00        -0.24398E+02
 
   -0.35059E+03        -0.43964E+03         0.00000E+00
   -0.43964E+03         0.72916E+02         0.00000E+00
    0.00000E+00         0.00000E+00        -0.83304E+02
 
   -0.58383E+03        -0.49077E+03         0.00000E+00
   -0.49077E+03         0.10725E+03         0.00000E+00
    0.00000E+00         0.00000E+00        -0.14297E+03
 
   -0.81605E+03        -0.51108E+03         0.00000E+00
   -0.51108E+03         0.14164E+03         0.00000E+00
    0.00000E+00         0.00000E+00        -0.20232E+03
 
   -0.10411E+04        -0.50260E+03         0.00000E+00
   -0.50260E+03         0.17336E+03         0.00000E+00
    0.00000E+00         0.00000E+00        -0.26032E+03
 
   -0.12535E+04        -0.46774E+03         0.00000E+00
   -0.46774E+03         0.20008E+03         0.00000E+00
    0.00000E+00         0.00000E+00        -0.31601E+03
 
   -0.14483E+04        -0.40915E+03         0.00000E+00
   -0.40915E+03         0.21990E+03         0.00000E+00
    0.00000E+00         0.00000E+00        -0.36851E+03
 
   -0.16213E+04        -0.32964E+03         0.00000E+00
   -0.32964E+03         0.23128E+03         0.00000E+00
    0.00000E+00         0.00000E+00        -0.41701E+03
 
   -0.17690E+04        -0.23208E+03         0.00000E+00
   -0.23208E+03         0.23307E+03         0.00000E+00
    0.00000E+00         0.00000E+00        -0.46077E+03
 
   -0.18882E+04        -0.11939E+03         0.00000E+00
   -0.11939E+03         0.22443E+03         0.00000E+00
    0.00000E+00         0.00000E+00        -0.49912E+03
 
   -0.19764E+04         0.55698E+01         0.00000E+00
    0.55698E+01         0.20480E+03         0.00000E+00
    0.00000E+00         0.00000E+00        -0.53148E+03
 
   -0.20316E+04         0.14001E+03         0.00000E+00
    0.14001E+03         0.17383E+03         0.00000E+00
    0.00000E+00         0.00000E+00        -0.55732E+03
 
   -0.20520E+04         0.28122E+03         0.00000E+00
    0.28122E+03         0.13138E+03         0.00000E+00
    0.00000E+00         0.00000E+00        -0.57618E+03
 
   -0.20363E+04         0.42654E+03         0.00000E+00
    0.42654E+03         0.77399E+02         0.00000E+00
    0.00000E+00         0.00000E+00        -0.58766E+03
 
   -0.19833E+04         0.57339E+03         0.00000E+00
    0.57339E+03         0.11946E+02         0.00000E+00
    0.00000E+00         0.00000E+00        -0.59141E+03
 
   -0.18923E+04         0.71917E+03         0.00000E+00
    0.71917E+03        -0.64874E+02         0.00000E+00
    0.00000E+00         0.00000E+00        -0.58716E+03
 
   -0.17626E+04         0.86128E+03         0.00000E+00
    0.86128E+03        -0.15292E+03         0.00000E+00
    0.00000E+00         0.00000E+00        -0.57466E+03
 
   -0.15938E+04         0.99700E+03         0.00000E+00
    0.99700E+03        -0.25201E+03         0.00000E+00
    0.00000E+00         0.00000E+00        -0.55373E+03
 
   -0.13855E+04         0.11235E+04         0.00000E+00
    0.11235E+04        -0.36194E+03         0.00000E+00
    0.00000E+00         0.00000E+00        -0.52424E+03
 
   -0.11379E+04         0.12377E+04         0.00000E+00
    0.12377E+04        -0.48245E+03         0.00000E+00
    0.00000E+00         0.00000E+00        -0.48610E+03
 
   -0.85116E+03         0.13362E+04         0.00000E+00
    0.13362E+04        -0.61315E+03         0.00000E+00
    0.00000E+00         0.00000E+00        -0.43929E+03
 
   -0.52605E+03         0.14153E+04         0.00000E+00
    0.14153E+04        -0.75351E+03         0.00000E+00
    0.00000E+00         0.00000E+00        -0.38387E+03
 
    0.12473E+03        -0.80627E+02         0.00000E+00
   -0.80627E+02         0.29523E+01         0.00000E+00
    0.00000E+00         0.00000E+00         0.38305E+02
 
   -0.37270E+02        -0.21921E+03         0.00000E+00
   -0.21921E+03         0.16701E+02         0.00000E+00
    0.00000E+00         0.00000E+00        -0.61708E+01
 
   -0.21990E+03        -0.32768E+03         0.00000E+00
   -0.32768E+03         0.40791E+02         0.00000E+00
    0.00000E+00         0.00000E+00        -0.53733E+02
 
   -0.41610E+03        -0.40619E+03         0.00000E+00
   -0.40619E+03         0.71764E+02         0.00000E+00
    0.00000E+00         0.00000E+00        -0.10330E+03
 
   -0.61917E+03        -0.45546E+03         0.00000E+00
   -0.45546E+03         0.10641E+03         0.00000E+00
    0.00000E+00         0.00000E+00        -0.15383E+03
 
   -0.82287E+03        -0.47674E+03         0.00000E+00
   -0.47674E+03         0.14181E+03         0.00000E+00
    0.00000E+00         0.00000E+00        -0.20432E+03
 
   -0.10214E+04        -0.47172E+03         0.00000E+00
   -0.47172E+03         0.17536E+03         0.00000E+00
    0.00000E+00         0.00000E+00        -0.25383E+03
 
   -0.12097E+04        -0.44242E+03         0.00000E+00
   -0.44242E+03         0.20481E+03         0.00000E+00
    0.00000E+00         0.00000E+00        -0.30146E+03
 
   -0.13829E+04        -0.39111E+03         0.00000E+00
   -0.39111E+03         0.22826E+03         0.00000E+00
    0.00000E+00         0.00000E+00        -0.34640E+03
 
   -0.15371E+04        -0.32024E+03         0.00000E+00
   -0.32024E+03         0.24414E+03         0.00000E+00
    0.00000E+00         0.00000E+00        -0.38788E+03
 
   -0.16686E+04        -0.23238E+03         0.00000E+00
   -0.23238E+03         0.25122E+03         0.00000E+00
    0.00000E+00         0.00000E+00        -0.42521E+03
 
   -0.17744E+04        -0.13014E+03         0.00000E+00
   -0.13014E+03         0.24854E+03         0.00000E+00
    0.00000E+00         0.00000E+00        -0.45776E+03
 
   -0.18520E+04        -0.16136E+02         0.00000E+00
   -0.16136E+02         0.23542E+03         0.00000E+00
    0.00000E+00         0.00000E+00        -0.48496E+03
 
   -0.18991E+04         0.10704E+03         0.00000E+00
    0.10704E+03         0.21140E+03         0.00000E+00
    0.00000E+00         0.00000E+00        -0.50632E+03
 
   -0.19141E+04         0.23683E+03         0.00000E+00
    0.23683E+03         0.17618E+03         0.00000E+00
    0.00000E+00         0.00000E+00        -0.52139E+03
 
   -0.18956E+04         0.37070E+03         0.00000E+00
    0.37070E+03         0.12963E+03         0.00000E+00
    0.00000E+00         0.00000E+00        -0.52979E+03
 
   -0.18424E+04         0.50614E+03         0.00000E+00
    0.50614E+03         0.71720E+02         0.00000E+00
    0.00000E+00         0.00000E+00        -0.53120E+03
 
   -0.17537E+04         0.64064E+03         0.00000E+00
    0.64064E+03         0.25118E+01         0.00000E+00
    0.00000E+00         0.00000E+00        -0.52535E+03
 
   -0.16289E+04         0.77162E+03         0.00000E+00
    0.77162E+03        -0.77856E+02         0.00000E+00
    0.00000E+00         0.00000E+00        -0.51202E+03
 
   -0.14677E+04         0.89645E+03         0.00000E+00
    0.89645E+03        -0.16917E+03         0.00000E+00
    0.00000E+00         0.00000E+00        -0.49106E+03
 
   -0.12700E+04         0.10123E+04         0.00000E+00
    0.10123E+04        -0.27115E+03         0.00000E+00
    0.00000E+00         0.00000E+00        -0.46236E+03
 
   -0.10361E+04         0.11163E+04         0.00000E+00
    0.11163E+04        -0.38339E+03         0.00000E+00
    0.00000E+00         0.00000E+00        -0.42586E+03
 
   -0.76657E+03         0.12051E+04         0.00000E+00
    0.12051E+04        -0.50536E+03         0.00000E+00
    0.00000E+00         0.00000E+00        -0.38158E+03
 
   -0.46233E+03         0.12753E+04         0.00000E+00
    0.12753E+04        -0.63633E+03         0.00000E+00
    0.00000E+00         0.00000E+00        -0.32960E+03
 
   -0.21837E+02        -0.73289E+02         0.00000E+00
   -0.73289E+02         0.28366E+01         0.00000E+00
    0.00000E+00         0.00000E+00        -0.57002E+01
 
   -0.15568E+03        -0.19988E+03         0.00000E+00
   -0.19988E+03         0.16128E+02         0.00000E+00
    0.00000E+00         0.00000E+00        -0.41866E+02
 
   -0.30987E+03        -0.29978E+03         0.00000E+00
   -0.29978E+03         0.39609E+02         0.00000E+00
    0.00000E+00         0.00000E+00        -0.81079E+02
 
   -0.47796E+03        -0.37291E+03         0.00000E+00
   -0.37291E+03         0.70110E+02         0.00000E+00
    0.00000E+00         0.00000E+00        -0.12236E+03
 
   -0.65379E+03        -0.41977E+03         0.00000E+00
   -0.41977E+03         0.10465E+03         0.00000E+00
    0.00000E+00         0.00000E+00        -0.16474E+03
 
   -0.83158E+03        -0.44134E+03         0.00000E+00
   -0.44134E+03         0.14049E+03         0.00000E+00
    0.00000E+00         0.00000E+00        -0.20733E+03
 
   -0.10059E+04        -0.43898E+03         0.00000E+00
   -0.43898E+03         0.17517E+03         0.00000E+00
    0.00000E+00         0.00000E+00        -0.24923E+03
 
   -0.11719E+04        -0.41439E+03         0.00000E+00
   -0.41439E+03         0.20650E+03         0.00000E+00
    0.00000E+00         0.00000E+00        -0.28964E+03
 
   -0.13252E+04        -0.36952E+03         0.00000E+00
   -0.36952E+03         0.23260E+03         0.00000E+00
    0.00000E+00         0.00000E+00        -0.32778E+03
 
   -0.14617E+04        -0.30652E+03         0.00000E+00
   -0.30652E+03         0.25190E+03         0.00000E+00
    0.00000E+00         0.00000E+00        -0.36293E+03
 
   -0.15780E+04        -0.22765E+03         0.00000E+00
   -0.22765E+03         0.26311E+03         0.00000E+00
    0.00000E+00         0.00000E+00        -0.39446E+03
 
   -0.16711E+04        -0.13525E+03         0.00000E+00
   -0.13525E+03         0.26520E+03         0.00000E+00
    0.00000E+00         0.00000E+00        -0.42177E+03
 
   -0.17384E+04        -0.31714E+02         0.00000E+00
   -0.31714E+02         0.25740E+03         0.00000E+00
    0.00000E+00         0.00000E+00        -0.44431E+03
 
   -0.17779E+04         0.80576E+02         0.00000E+00
    0.80576E+02         0.23913E+03         0.00000E+00
    0.00000E+00         0.00000E+00        -0.46162E+03
 
   -0.17876E+04         0.19922E+03         0.00000E+00
    0.19922E+03         0.21002E+03         0.00000E+00
    0.00000E+00         0.00000E+00        -0.47328E+03
 
   -0.17663E+04         0.32183E+03         0.00000E+00
    0.32183E+03         0.16985E+03         0.00000E+00
    0.00000E+00         0.00000E+00        -0.47893E+03
 
   -0.17127E+04         0.44601E+03         0.00000E+00
    0.44601E+03         0.11852E+03         0.00000E+00
    0.00000E+00         0.00000E+00        -0.47827E+03
 
   -0.16262E+04         0.56934E+03         0.00000E+00
    0.56934E+03         0.56065E+02         0.00000E+00
    0.00000E+00         0.00000E+00        -0.47104E+03
 
   -0.15061E+04         0.68933E+03         0.00000E+00
    0.68933E+03        -0.17377E+02         0.00000E+00
    0.00000E+00         0.00000E+00        -0.45705E+03
 
   -0.13523E+04         0.80344E+03         0.00000E+00
    0.80344E+03        -0.10157E+03         0.00000E+00
    0.00000E+00         0.00000E+00        -0.43616E+03
 
   -0.11648E+04         0.90897E+03         0.00000E+00
    0.90897E+03        -0.19614E+03         0.00000E+00
    0.00000E+00         0.00000E+00        -0.40829E+03
 
   -0.94414E+03         0.10031E+04         0.00000E+00
    0.10031E+04        -0.30062E+03         0.00000E+00
    0.00000E+00         0.00000E+00        -0.37343E+03
 
   -0.69100E+03         0.10828E+04         0.00000E+00
    0.10828E+04        -0.41432E+03         0.00000E+00
    0.00000E+00         0.00000E+00        -0.33160E+03
 
   -0.40666E+03         0.11448E+04         0.00000E+00
    0.11448E+04        -0.53638E+03         0.00000E+00
    0.00000E+00         0.00000E+00        -0.28291E+03
 
   -0.15491E+03        -0.66247E+02         0.00000E+00
   -0.66247E+02         0.27151E+01         0.00000E+00
    0.00000E+00         0.00000E+00        -0.45659E+02
 
   -0.26391E+03        -0.18119E+03         0.00000E+00
   -0.18119E+03         0.15506E+02         0.00000E+00
    0.00000E+00         0.00000E+00        -0.74522E+02
 
   -0.39284E+03        -0.27254E+03         0.00000E+00
   -0.27254E+03         0.38268E+02         0.00000E+00
    0.00000E+00         0.00000E+00        -0.10637E+03
 
   -0.53580E+03        -0.34010E+03         0.00000E+00
   -0.34010E+03         0.68088E+02         0.00000E+00
    0.00000E+00         0.00000E+00        -0.14032E+03
 
   -0.68714E+03        -0.38415E+03         0.00000E+00
   -0.38415E+03         0.10220E+03         0.00000E+00
    0.00000E+00         0.00000E+00        -0.17548E+03
 
   -0.84147E+03        -0.40544E+03         0.00000E+00
   -0.40544E+03         0.13805E+03         0.00000E+00
    0.00000E+00         0.00000E+00        -0.21103E+03
 
   -0.99379E+03        -0.40508E+03         0.00000E+00
   -0.40508E+03         0.17328E+03         0.00000E+00
    0.00000E+00         0.00000E+00        -0.24615E+03
 
   -0.11395E+04        -0.38449E+03         0.00000E+00
   -0.38449E+03         0.20580E+03         0.00000E+00
    0.00000E+00         0.00000E+00        -0.28010E+03
 
   -0.12743E+04        -0.34535E+03         0.00000E+00
   -0.34535E+03         0.23376E+03         0.00000E+00
    0.00000E+00         0.00000E+00        -0.31215E+03
 
   -0.13944E+04        -0.28950E+03         0.00000E+00
   -0.28950E+03         0.25559E+03         0.00000E+00
    0.00000E+00         0.00000E+00        -0.34164E+03
 
   -0.14965E+04        -0.21897E+03         0.00000E+00
   -0.21897E+03         0.26998E+03         0.00000E+00
    0.00000E+00         0.00000E+00        -0.36796E+03
 
   -0.15777E+04        -0.13584E+03         0.00000E+00
   -0.13584E+03         0.27584E+03         0.00000E+00
    0.00000E+00         0.00000E+00        -0.39056E+03
 
   -0.16354E+04        -0.42269E+02         0.00000E+00
   -0.42269E+02         0.27233E+03         0.00000E+00
    0.00000E+00         0.00000E+00        -0.40892E+03
 
   -0.16675E+04         0.59541E+02         0.00000E+00
    0.59541E+02         0.25881E+03         0.00000E+00
    0.00000E+00         0.00000E+00        -0.42260E+03
 
   -0.16722E+04         0.16737E+03         0.00000E+00
    0.16737E+03         0.23482E+03         0.00000E+00
    0.00000E+00         0.00000E+00        -0.43121E+03
 
   -0.16481E+04         0.27899E+03         0.00000E+00
    0.27899E+03         0.20010E+03         0.00000E+00
    0.00000E+00         0.00000E+00        -0.43441E+03
 
   -0.15942E+04         0.39213E+03         0.00000E+00
    0.39213E+03         0.15449E+03         0.00000E+00
    0.00000E+00         0.00000E+00        -0.43192E+03
 
   -0.15097E+04         0.50449E+03         0.00000E+00
    0.50449E+03         0.98009E+02         0.00000E+00
    0.00000E+00         0.00000E+00        -0.42350E+03
 
   -0.13941E+04         0.61372E+03         0.00000E+00
    0.61372E+03         0.30787E+02         0.00000E+00
    0.00000E+00         0.00000E+00        -0.40899E+03
 
   -0.12473E+04         0.71737E+03         0.00000E+00
    0.71737E+03        -0.46906E+02         0.00000E+00
    0.00000E+00         0.00000E+00        -0.38826E+03
 
   -0.10695E+04         0.81291E+03         0.00000E+00
    0.81291E+03        -0.13466E+03         0.00000E+00
    0.00000E+00         0.00000E+00        -0.36126E+03
 
   -0.86138E+03         0.89766E+03         0.00000E+00
    0.89766E+03        -0.23189E+03         0.00000E+00
    0.00000E+00         0.00000E+00        -0.32798E+03
 
   -0.62380E+03         0.96880E+03         0.00000E+00
    0.96880E+03        -0.33785E+03         0.00000E+00
    0.00000E+00         0.00000E+00        -0.28849E+03
 
   -0.35822E+03         0.10233E+04         0.00000E+00
    0.10233E+04        -0.45154E+03         0.00000E+00
    0.00000E+00         0.00000E+00        -0.24293E+03
 
   -0.27501E+03        -0.59510E+02         0.00000E+00
   -0.59510E+02         0.25913E+01         0.00000E+00
    0.00000E+00         0.00000E+00        -0.81725E+02
 
   -0.36219E+03        -0.16319E+03         0.00000E+00
   -0.16319E+03         0.14859E+02         0.00000E+00
    0.00000E+00         0.00000E+00        -0.10420E+03
 
   -0.46877E+03        -0.24612E+03         0.00000E+00
   -0.24612E+03         0.36826E+02         0.00000E+00
    0.00000E+00         0.00000E+00        -0.12958E+03
 
   -0.58937E+03        -0.30798E+03         0.00000E+00
   -0.30798E+03         0.65819E+02         0.00000E+00
    0.00000E+00         0.00000E+00        -0.15706E+03
 
   -0.71877E+03        -0.34892E+03         0.00000E+00
   -0.34892E+03         0.99276E+02         0.00000E+00
    0.00000E+00         0.00000E+00        -0.18585E+03
 
   -0.85201E+03        -0.36949E+03         0.00000E+00
   -0.36949E+03         0.13479E+03         0.00000E+00
    0.00000E+00         0.00000E+00        -0.21517E+03
 
   -0.98439E+03        -0.37059E+03         0.00000E+00
   -0.37059E+03         0.17013E+03         0.00000E+00
    0.00000E+00         0.00000E+00        -0.24428E+03
 
   -0.11116E+04        -0.35339E+03         0.00000E+00
   -0.35339E+03         0.20329E+03         0.00000E+00
    0.00000E+00         0.00000E+00        -0.27248E+03
 
   -0.12295E+04        -0.31933E+03         0.00000E+00
   -0.31933E+03         0.23247E+03         0.00000E+00
    0.00000E+00         0.00000E+00        -0.29910E+03
 
   -0.13346E+04        -0.27002E+03         0.00000E+00
   -0.27002E+03         0.25612E+03         0.00000E+00
    0.00000E+00         0.00000E+00        -0.32354E+03
 
   -0.14236E+04        -0.20723E+03         0.00000E+00
   -0.20723E+03         0.27289E+03         0.00000E+00
    0.00000E+00         0.00000E+00        -0.34521E+03
 
   -0.14937E+04        -0.13282E+03         0.00000E+00
   -0.13282E+03         0.28168E+03         0.00000E+00
    0.00000E+00         0.00000E+00        -0.36360E+03
 
   -0.15424E+04        -0.48742E+02         0.00000E+00
   -0.48742E+02         0.28161E+03         0.00000E+00
    0.00000E+00         0.00000E+00        -0.37822E+03
 
   -0.15675E+04         0.43011E+02         0.00000E+00
    0.43011E+02         0.27197E+03         0.00000E+00
    0.00000E+00         0.00000E+00        -0.38867E+03
 
   -0.15675E+04         0.14039E+03         0.00000E+00
    0.14039E+03         0.25227E+03         0.00000E+00
    0.00000E+00         0.00000E+00        -0.39457E+03
 
   -0.15409E+04         0.24134E+03         0.00000E+00
    0.24134E+03         0.22218E+03         0.00000E+00
    0.00000E+00         0.00000E+00        -0.39561E+03
 
   -0.14866E+04         0.34372E+03         0.00000E+00
    0.34372E+03         0.18153E+03         0.00000E+00
    0.00000E+00         0.00000E+00        -0.39151E+03
 
   -0.14039E+04         0.44539E+03         0.00000E+00
    0.44539E+03         0.13030E+03         0.00000E+00
    0.00000E+00         0.00000E+00        -0.38209E+03
 
   -0.12925E+04         0.54414E+03         0.00000E+00
    0.54414E+03         0.68636E+02         0.00000E+00
    0.00000E+00         0.00000E+00        -0.36717E+03
 
   -0.11524E+04         0.63766E+03         0.00000E+00
    0.63766E+03        -0.31745E+01         0.00000E+00
    0.00000E+00         0.00000E+00        -0.34666E+03
 
   -0.98373E+03         0.72359E+03         0.00000E+00
    0.72359E+03        -0.84675E+02         0.00000E+00
    0.00000E+00         0.00000E+00        -0.32052E+03
 
   -0.78736E+03         0.79943E+03         0.00000E+00
    0.79943E+03        -0.17523E+03         0.00000E+00
    0.00000E+00         0.00000E+00        -0.28878E+03
 
   -0.56435E+03         0.86258E+03         0.00000E+00
    0.86258E+03        -0.27399E+03         0.00000E+00
    0.00000E+00         0.00000E+00        -0.25150E+03
 
   -0.31628E+03         0.91029E+03         0.00000E+00
    0.91029E+03        -0.37989E+03         0.00000E+00
    0.00000E+00         0.00000E+00        -0.20885E+03
 
   -0.38266E+03        -0.53082E+02         0.00000E+00
   -0.53082E+02         0.24682E+01         0.00000E+00
    0.00000E+00         0.00000E+00        -0.11406E+03
 
   -0.45077E+03        -0.14591E+03         0.00000E+00
   -0.14591E+03         0.14204E+02         0.00000E+00
    0.00000E+00         0.00000E+00        -0.13097E+03
 
   -0.53768E+03        -0.22058E+03         0.00000E+00
   -0.22058E+03         0.35338E+02         0.00000E+00
    0.00000E+00         0.00000E+00        -0.15070E+03
 
   -0.63848E+03        -0.27671E+03         0.00000E+00
   -0.27671E+03         0.63411E+02         0.00000E+00
    0.00000E+00         0.00000E+00        -0.17252E+03
 
   -0.74837E+03        -0.31433E+03         0.00000E+00
   -0.31433E+03         0.96044E+02         0.00000E+00
    0.00000E+00         0.00000E+00        -0.19570E+03
 
   -0.86273E+03        -0.33383E+03         0.00000E+00
   -0.33383E+03         0.13098E+03         0.00000E+00
    0.00000E+00         0.00000E+00        -0.21953E+03
 
   -0.97719E+03        -0.33593E+03         0.00000E+00
   -0.33593E+03         0.16610E+03         0.00000E+00
    0.00000E+00         0.00000E+00        -0.24333E+03
 
   -0.10876E+04        -0.32161E+03         0.00000E+00
   -0.32161E+03         0.19948E+03         0.00000E+00
    0.00000E+00         0.00000E+00        -0.26645E+03
 
   -0.11903E+04        -0.29209E+03         0.00000E+00
   -0.29209E+03         0.22938E+03         0.00000E+00
    0.00000E+00         0.00000E+00        -0.28827E+03
 
   -0.12817E+04        -0.24876E+03         0.00000E+00
   -0.24876E+03         0.25425E+03         0.00000E+00
    0.00000E+00         0.00000E+00        -0.30822E+03
 
   -0.13587E+04        -0.19317E+03         0.00000E+00
   -0.19317E+03         0.27277E+03         0.00000E+00
    0.00000E+00         0.00000E+00        -0.32577E+03
 
   -0.14185E+04        -0.12698E+03         0.00000E+00
   -0.12698E+03         0.28382E+03         0.00000E+00
    0.00000E+00         0.00000E+00        -0.34042E+03
 
   -0.14589E+04        -0.51922E+02         0.00000E+00
   -0.51922E+02         0.28646E+03         0.00000E+00
    0.00000E+00         0.00000E+00        -0.35173E+03
 
   -0.14777E+04         0.30194E+02         0.00000E+00
    0.30194E+02         0.27998E+03         0.00000E+00
    0.00000E+00         0.00000E+00        -0.35931E+03
 
   -0.14732E+04         0.11751E+03         0.00000E+00
    0.11751E+03         0.26384E+03         0.00000E+00
    0.00000E+00         0.00000E+00        -0.36282E+03
 
   -0.14442E+04         0.20812E+03         0.00000E+00
    0.20812E+03         0.23768E+03         0.00000E+00
    0.00000E+00         0.00000E+00        -0.36195E+03
 
   -0.13895E+04         0.30007E+03         0.00000E+00
    0.30007E+03         0.20129E+03         0.00000E+00
    0.00000E+00         0.00000E+00        -0.35647E+03
 
   -0.13086E+04         0.39137E+03         0.00000E+00
    0.39137E+03         0.15466E+03         0.00000E+00
    0.00000E+00         0.00000E+00        -0.34618E+03
 
   -0.12011E+04         0.47996E+03         0.00000E+00
    0.47996E+03         0.97935E+02         0.00000E+00
    0.00000E+00         0.00000E+00        -0.33096E+03
 
   -0.10671E+04         0.56371E+03         0.00000E+00
    0.56371E+03         0.31414E+02         0.00000E+00
    0.00000E+00         0.00000E+00        -0.31071E+03
 
   -0.90699E+03         0.64044E+03         0.00000E+00
    0.64044E+03        -0.44408E+02         0.00000E+00
    0.00000E+00         0.00000E+00        -0.28542E+03
 
   -0.72156E+03         0.70784E+03         0.00000E+00
    0.70784E+03        -0.12885E+03         0.00000E+00
    0.00000E+00         0.00000E+00        -0.25512E+03
 
   -0.51205E+03         0.76353E+03         0.00000E+00
    0.76353E+03        -0.22100E+03         0.00000E+00
    0.00000E+00         0.00000E+00        -0.21991E+03
 
   -0.28013E+03         0.80503E+03         0.00000E+00
    0.80503E+03        -0.31973E+03         0.00000E+00
    0.00000E+00         0.00000E+00        -0.17996E+03
 
   -0.47843E+03        -0.46960E+02         0.00000E+00
   -0.46960E+02         0.23485E+01         0.00000E+00
    0.00000E+00         0.00000E+00        -0.14282E+03
 
   -0.52995E+03        -0.12935E+03         0.00000E+00
   -0.12935E+03         0.13560E+02         0.00000E+00
    0.00000E+00         0.00000E+00        -0.15492E+03
 
   -0.59966E+03        -0.19597E+03         0.00000E+00
   -0.19597E+03         0.33850E+02         0.00000E+00
    0.00000E+00         0.00000E+00        -0.16974E+03
 
   -0.68304E+03        -0.24639E+03         0.00000E+00
   -0.24639E+03         0.60956E+02         0.00000E+00
    0.00000E+00         0.00000E+00        -0.18663E+03
 
   -0.77568E+03        -0.28054E+03         0.00000E+00
   -0.28054E+03         0.92665E+02         0.00000E+00
    0.00000E+00         0.00000E+00        -0.20490E+03
 
   -0.87328E+03        -0.29870E+03         0.00000E+00
   -0.29870E+03         0.12685E+03         0.00000E+00
    0.00000E+00         0.00000E+00        -0.22393E+03
 
   -0.97175E+03        -0.30143E+03         0.00000E+00
   -0.30143E+03         0.16152E+03         0.00000E+00
    0.00000E+00         0.00000E+00        -0.24307E+03
 
   -0.10672E+04        -0.28956E+03         0.00000E+00
   -0.28956E+03         0.19480E+03         0.00000E+00
    0.00000E+00         0.00000E+00        -0.26173E+03
 
   -0.11561E+04        -0.26410E+03         0.00000E+00
   -0.26410E+03         0.22503E+03         0.00000E+00
    0.00000E+00         0.00000E+00        -0.27932E+03
 
   -0.12351E+04        -0.22627E+03         0.00000E+00
   -0.22627E+03         0.25068E+03         0.00000E+00
    0.00000E+00         0.00000E+00        -0.29533E+03
 
   -0.13012E+04        -0.17740E+03         0.00000E+00
   -0.17740E+03         0.27043E+03         0.00000E+00
    0.00000E+00         0.00000E+00        -0.30924E+03
 
   -0.13518E+04        -0.11895E+03         0.00000E+00
   -0.11895E+03         0.28317E+03         0.00000E+00
    0.00000E+00         0.00000E+00        -0.32060E+03
 
   -0.13846E+04        -0.52472E+02         0.00000E+00
   -0.52472E+02         0.28795E+03         0.00000E+00
    0.00000E+00         0.00000E+00        -0.32899E+03
 
   -0.13975E+04         0.20420E+02         0.00000E+00
    0.20420E+02         0.28401E+03         0.00000E+00
    0.00000E+00         0.00000E+00        -0.33405E+03
 
   -0.13890E+04         0.98046E+02         0.00000E+00
    0.98046E+02         0.27081E+03         0.00000E+00
    0.00000E+00         0.00000E+00        -0.33545E+03
 
   -0.13577E+04         0.17868E+03         0.00000E+00
    0.17868E+03         0.24795E+03         0.00000E+00
    0.00000E+00         0.00000E+00        -0.33293E+03
 
   -0.13027E+04         0.26054E+03         0.00000E+00
    0.26054E+03         0.21522E+03         0.00000E+00
    0.00000E+00         0.00000E+00        -0.32625E+03
 
   -0.12234E+04         0.34181E+03         0.00000E+00
    0.34181E+03         0.17260E+03         0.00000E+00
    0.00000E+00         0.00000E+00        -0.31524E+03
 
   -0.11195E+04         0.42059E+03         0.00000E+00
    0.42059E+03         0.12023E+03         0.00000E+00
    0.00000E+00         0.00000E+00        -0.29979E+03
 
   -0.99119E+03         0.49496E+03         0.00000E+00
    0.49496E+03         0.58423E+02         0.00000E+00
    0.00000E+00         0.00000E+00        -0.27983E+03
 
   -0.83889E+03         0.56289E+03         0.00000E+00
    0.56289E+03        -0.12288E+02         0.00000E+00
    0.00000E+00         0.00000E+00        -0.25535E+03
 
   -0.66350E+03         0.62231E+03         0.00000E+00
    0.62231E+03        -0.91185E+02         0.00000E+00
    0.00000E+00         0.00000E+00        -0.22641E+03
 
   -0.46634E+03         0.67106E+03         0.00000E+00
    0.67106E+03        -0.17733E+03         0.00000E+00
    0.00000E+00         0.00000E+00        -0.19310E+03
 
   -0.24918E+03         0.70691E+03         0.00000E+00
    0.70691E+03        -0.26953E+03         0.00000E+00
    0.00000E+00         0.00000E+00        -0.15561E+03
 
   -0.56284E+03        -0.41131E+02         0.00000E+00
   -0.41131E+02         0.22345E+01         0.00000E+00
    0.00000E+00         0.00000E+00        -0.16818E+03
 
   -0.60005E+03        -0.11352E+03         0.00000E+00
   -0.11352E+03         0.12941E+02         0.00000E+00
    0.00000E+00         0.00000E+00        -0.17613E+03
 
   -0.65482E+03        -0.17231E+03         0.00000E+00
   -0.17231E+03         0.32405E+02         0.00000E+00
    0.00000E+00         0.00000E+00        -0.18673E+03
 
   -0.72301E+03        -0.21706E+03         0.00000E+00
   -0.21706E+03         0.58537E+02         0.00000E+00
    0.00000E+00         0.00000E+00        -0.19934E+03
 
   -0.80052E+03        -0.24765E+03         0.00000E+00
   -0.24765E+03         0.89275E+02         0.00000E+00
    0.00000E+00         0.00000E+00        -0.21337E+03
 
   -0.88336E+03        -0.26426E+03         0.00000E+00
   -0.26426E+03         0.12262E+03         0.00000E+00
    0.00000E+00         0.00000E+00        -0.22822E+03
 
   -0.96770E+03        -0.26733E+03         0.00000E+00
   -0.26733E+03         0.15666E+03         0.00000E+00
    0.00000E+00         0.00000E+00        -0.24331E+03
 
   -0.10499E+04        -0.25754E+03         0.00000E+00
   -0.25754E+03         0.18964E+03         0.00000E+00
    0.00000E+00         0.00000E+00        -0.25808E+03
 
   -0.11265E+04        -0.23574E+03         0.00000E+00
   -0.23574E+03         0.21990E+03         0.00000E+00
    0.00000E+00         0.00000E+00        -0.27199E+03
 
   -0.11944E+04        -0.20297E+03         0.00000E+00
   -0.20297E+03         0.24598E+03         0.00000E+00
    0.00000E+00         0.00000E+00        -0.28454E+03
 
   -0.12508E+04        -0.16038E+03         0.00000E+00
   -0.16038E+03         0.26657E+03         0.00000E+00
    0.00000E+00         0.00000E+00        -0.29527E+03
 
   -0.12931E+04        -0.10925E+03         0.00000E+00
   -0.10925E+03         0.28055E+03         0.00000E+00
    0.00000E+00         0.00000E+00        -0.30376E+03
 
   -0.13190E+04        -0.50941E+02         0.00000E+00
   -0.50941E+02         0.28697E+03         0.00000E+00
    0.00000E+00         0.00000E+00        -0.30960E+03
 
   -0.13266E+04         0.13119E+02         0.00000E+00
    0.13119E+02         0.28508E+03         0.00000E+00
    0.00000E+00         0.00000E+00        -0.31246E+03
 
   -0.13144E+04         0.81431E+02         0.00000E+00
    0.81431E+02         0.27428E+03         0.00000E+00
    0.00000E+00         0.00000E+00        -0.31204E+03
 
   -0.12811E+04         0.15245E+03         0.00000E+00
    0.15245E+03         0.25419E+03         0.00000E+00
    0.00000E+00         0.00000E+00        -0.30808E+03
 
   -0.12258E+04         0.22457E+03         0.00000E+00
    0.22457E+03         0.22458E+03         0.00000E+00
    0.00000E+00         0.00000E+00        -0.30037E+03
 
   -0.11480E+04         0.29615E+03         0.00000E+00
    0.29615E+03         0.18541E+03         0.00000E+00
    0.00000E+00         0.00000E+00        -0.28876E+03
 
   -0.10474E+04         0.36549E+03         0.00000E+00
    0.36549E+03         0.13685E+03         0.00000E+00
    0.00000E+00         0.00000E+00        -0.27315E+03
 
   -0.92418E+03         0.43083E+03         0.00000E+00
    0.43083E+03         0.79217E+02         0.00000E+00
    0.00000E+00         0.00000E+00        -0.25349E+03
 
   -0.77898E+03         0.49038E+03         0.00000E+00
    0.49038E+03         0.13061E+02         0.00000E+00
    0.00000E+00         0.00000E+00        -0.22978E+03
 
   -0.61270E+03         0.54225E+03         0.00000E+00
    0.54225E+03        -0.60873E+02         0.00000E+00
    0.00000E+00         0.00000E+00        -0.20207E+03
 
   -0.42672E+03         0.58453E+03         0.00000E+00
    0.58453E+03        -0.14161E+03         0.00000E+00
    0.00000E+00         0.00000E+00        -0.17050E+03
 
   -0.22286E+03         0.61525E+03         0.00000E+00
    0.61525E+03        -0.22793E+03         0.00000E+00
    0.00000E+00         0.00000E+00        -0.13524E+03
 
   -0.63641E+03        -0.35579E+02         0.00000E+00
   -0.35579E+02         0.21285E+01         0.00000E+00
    0.00000E+00         0.00000E+00        -0.19029E+03
 
   -0.66140E+03        -0.98363E+02         0.00000E+00
   -0.98363E+02         0.12360E+02         0.00000E+00
    0.00000E+00         0.00000E+00        -0.19471E+03
 
   -0.70332E+03        -0.14956E+03         0.00000E+00
   -0.14956E+03         0.31037E+02         0.00000E+00
    0.00000E+00         0.00000E+00        -0.20169E+03
 
   -0.75838E+03        -0.18872E+03         0.00000E+00
   -0.18872E+03         0.56225E+02         0.00000E+00
    0.00000E+00         0.00000E+00        -0.21065E+03
 
   -0.82277E+03        -0.21570E+03         0.00000E+00
   -0.21570E+03         0.85991E+02         0.00000E+00
    0.00000E+00         0.00000E+00        -0.22103E+03
 
   -0.89276E+03        -0.23061E+03         0.00000E+00
   -0.23061E+03         0.11845E+03         0.00000E+00
    0.00000E+00         0.00000E+00        -0.23229E+03
 
   -0.96474E+03        -0.23378E+03         0.00000E+00
   -0.23378E+03         0.15179E+03         0.00000E+00
    0.00000E+00         0.00000E+00        -0.24389E+03
 
   -0.10353E+04        -0.22576E+03         0.00000E+00
   -0.22576E+03         0.18430E+03         0.00000E+00
    0.00000E+00         0.00000E+00        -0.25529E+03
 
   -0.11011E+04        -0.20728E+03         0.00000E+00
   -0.20728E+03         0.21441E+03         0.00000E+00
    0.00000E+00         0.00000E+00        -0.26602E+03
 
   -0.11593E+04        -0.17919E+03         0.00000E+00
   -0.17919E+03         0.24066E+03         0.00000E+00
    0.00000E+00         0.00000E+00        -0.27559E+03
 
   -0.12070E+04        -0.14250E+03         0.00000E+00
   -0.14250E+03         0.26178E+03         0.00000E+00
    0.00000E+00         0.00000E+00        -0.28358E+03
 
   -0.12419E+04        -0.98306E+02         0.00000E+00
   -0.98306E+02         0.27665E+03         0.00000E+00
    0.00000E+00         0.00000E+00        -0.28957E+03
 
   -0.12617E+04        -0.47782E+02         0.00000E+00
   -0.47782E+02         0.28433E+03         0.00000E+00
    0.00000E+00         0.00000E+00        -0.29322E+03
 
   -0.12646E+04         0.78132E+01         0.00000E+00
    0.78132E+01         0.28404E+03         0.00000E+00
    0.00000E+00         0.00000E+00        -0.29418E+03
 
   -0.12491E+04         0.67167E+02         0.00000E+00
    0.67167E+02         0.27521E+03         0.00000E+00
    0.00000E+00         0.00000E+00        -0.29218E+03
 
   -0.12140E+04         0.12891E+03         0.00000E+00
    0.12891E+03         0.25741E+03         0.00000E+00
    0.00000E+00         0.00000E+00        -0.28699E+03
 
   -0.11585E+04         0.19163E+03         0.00000E+00
    0.19163E+03         0.23043E+03         0.00000E+00
    0.00000E+00         0.00000E+00        -0.27842E+03
 
   -0.10819E+04         0.25386E+03         0.00000E+00
    0.25386E+03         0.19423E+03         0.00000E+00
    0.00000E+00         0.00000E+00        -0.26631E+03
 
   -0.98428E+03         0.31410E+03         0.00000E+00
    0.31410E+03         0.14896E+03         0.00000E+00
    0.00000E+00         0.00000E+00        -0.25060E+03
 
   -0.86572E+03         0.37080E+03         0.00000E+00
    0.37080E+03         0.94975E+02         0.00000E+00
    0.00000E+00         0.00000E+00        -0.23122E+03
 
   -0.72686E+03         0.42233E+03         0.00000E+00
    0.42233E+03         0.32827E+02         0.00000E+00
    0.00000E+00         0.00000E+00        -0.20821E+03
 
   -0.56871E+03         0.46708E+03         0.00000E+00
    0.46708E+03        -0.36717E+02         0.00000E+00
    0.00000E+00         0.00000E+00        -0.18163E+03
 
   -0.39270E+03         0.50333E+03         0.00000E+00
    0.50333E+03        -0.11266E+03         0.00000E+00
    0.00000E+00         0.00000E+00        -0.15161E+03
 
   -0.20066E+03         0.52936E+03         0.00000E+00
    0.52936E+03        -0.19377E+03         0.00000E+00
    0.00000E+00         0.00000E+00        -0.11833E+03
 
   -0.69963E+03        -0.30283E+02         0.00000E+00
   -0.30283E+02         0.20321E+01         0.00000E+00
    0.00000E+00         0.00000E+00        -0.20928E+03
 
   -0.71429E+03        -0.83847E+02         0.00000E+00
   -0.83847E+02         0.11829E+02         0.00000E+00
    0.00000E+00         0.00000E+00        -0.21074E+03
 
   -0.74532E+03        -0.12768E+03         0.00000E+00
   -0.12768E+03         0.29779E+02         0.00000E+00
    0.00000E+00         0.00000E+00        -0.21466E+03
 
   -0.78917E+03        -0.16135E+03         0.00000E+00
   -0.16135E+03         0.54078E+02         0.00000E+00
    0.00000E+00         0.00000E+00        -0.22053E+03
 
   -0.84232E+03        -0.18470E+03         0.00000E+00
   -0.18470E+03         0.82915E+02         0.00000E+00
    0.00000E+00         0.00000E+00        -0.22782E+03
 
   -0.90127E+03        -0.19778E+03         0.00000E+00
   -0.19778E+03         0.11450E+03         0.00000E+00
    0.00000E+00         0.00000E+00        -0.23603E+03
 
   -0.96262E+03        -0.20085E+03         0.00000E+00
   -0.20085E+03         0.14710E+03         0.00000E+00
    0.00000E+00         0.00000E+00        -0.24465E+03
 
   -0.10231E+04        -0.19436E+03         0.00000E+00
   -0.19436E+03         0.17908E+03         0.00000E+00
    0.00000E+00         0.00000E+00        -0.25320E+03
 
   -0.10796E+04        -0.17889E+03         0.00000E+00
   -0.17889E+03         0.20890E+03         0.00000E+00
    0.00000E+00         0.00000E+00        -0.26121E+03
 
   -0.11293E+04        -0.15518E+03         0.00000E+00
   -0.15518E+03         0.23515E+03         0.00000E+00
    0.00000E+00         0.00000E+00        -0.26825E+03
 
   -0.11695E+04        -0.12405E+03         0.00000E+00
   -0.12405E+03         0.25657E+03         0.00000E+00
    0.00000E+00         0.00000E+00        -0.27389E+03
 
   -0.11979E+04        -0.86442E+02         0.00000E+00
   -0.86442E+02         0.27206E+03         0.00000E+00
    0.00000E+00         0.00000E+00        -0.27776E+03
 
   -0.12124E+04        -0.43366E+02         0.00000E+00
   -0.43366E+02         0.28068E+03         0.00000E+00
    0.00000E+00         0.00000E+00        -0.27952E+03
 
   -0.12112E+04         0.41009E+01         0.00000E+00
    0.41009E+01         0.28165E+03         0.00000E+00
    0.00000E+00         0.00000E+00        -0.27887E+03
 
   -0.11929E+04         0.54825E+02         0.00000E+00
    0.54825E+02         0.27439E+03         0.00000E+00
    0.00000E+00         0.00000E+00        -0.27554E+03
 
   -0.11562E+04         0.10762E+03         0.00000E+00
    0.10762E+03         0.25848E+03         0.00000E+00
    0.00000E+00         0.00000E+00        -0.26931E+03
 
   -0.11004E+04         0.16126E+03         0.00000E+00
    0.16126E+03         0.23370E+03         0.00000E+00
    0.00000E+00         0.00000E+00        -0.26001E+03
 
   -0.10250E+04         0.21447E+03         0.00000E+00
    0.21447E+03         0.20000E+03         0.00000E+00
    0.00000E+00         0.00000E+00        -0.24750E+03
 
   -0.92993E+03         0.26594E+03         0.00000E+00
    0.26594E+03         0.15755E+03         0.00000E+00
    0.00000E+00         0.00000E+00        -0.23171E+03
 
   -0.81543E+03         0.31432E+03         0.00000E+00
    0.31432E+03         0.10671E+03         0.00000E+00
    0.00000E+00         0.00000E+00        -0.21262E+03
 
   -0.68216E+03         0.35821E+03         0.00000E+00
    0.35821E+03         0.48033E+02         0.00000E+00
    0.00000E+00         0.00000E+00        -0.19024E+03
 
   -0.53115E+03         0.39619E+03         0.00000E+00
    0.39619E+03        -0.17690E+02         0.00000E+00
    0.00000E+00         0.00000E+00        -0.16465E+03
 
   -0.36386E+03         0.42680E+03         0.00000E+00
    0.42680E+03        -0.89452E+02         0.00000E+00
    0.00000E+00         0.00000E+00        -0.13599E+03
 
   -0.18217E+03         0.44856E+03         0.00000E+00
    0.44856E+03        -0.16601E+03         0.00000E+00
    0.00000E+00         0.00000E+00        -0.10446E+03
 
   -0.75294E+03        -0.25216E+02         0.00000E+00
   -0.25216E+02         0.19468E+01         0.00000E+00
    0.00000E+00         0.00000E+00        -0.22530E+03
 
   -0.75903E+03        -0.69909E+02         0.00000E+00
   -0.69909E+02         0.11358E+02         0.00000E+00
    0.00000E+00         0.00000E+00        -0.22430E+03
 
   -0.78096E+03        -0.10659E+03         0.00000E+00
   -0.10659E+03         0.28654E+02         0.00000E+00
    0.00000E+00         0.00000E+00        -0.22569E+03
 
   -0.81543E+03        -0.13487E+03         0.00000E+00
   -0.13487E+03         0.52150E+02         0.00000E+00
    0.00000E+00         0.00000E+00        -0.22898E+03
 
   -0.85914E+03        -0.15458E+03         0.00000E+00
   -0.15458E+03         0.80130E+02         0.00000E+00
    0.00000E+00         0.00000E+00        -0.23370E+03
 
   -0.90878E+03        -0.16576E+03         0.00000E+00
   -0.16576E+03         0.11089E+03         0.00000E+00
    0.00000E+00         0.00000E+00        -0.23937E+03
 
   -0.96113E+03        -0.16858E+03         0.00000E+00
   -0.16858E+03         0.14278E+03         0.00000E+00
    0.00000E+00         0.00000E+00        -0.24551E+03
 
   -0.10131E+04        -0.16341E+03         0.00000E+00
   -0.16341E+03         0.17420E+03         0.00000E+00
    0.00000E+00         0.00000E+00        -0.25166E+03
 
   -0.10617E+04        -0.15071E+03         0.00000E+00
   -0.15071E+03         0.20366E+03         0.00000E+00
    0.00000E+00         0.00000E+00        -0.25740E+03
 
   -0.11041E+04        -0.13109E+03         0.00000E+00
   -0.13109E+03         0.22980E+03         0.00000E+00
    0.00000E+00         0.00000E+00        -0.26230E+03
 
   -0.11380E+04        -0.10524E+03         0.00000E+00
   -0.10524E+03         0.25137E+03         0.00000E+00
    0.00000E+00         0.00000E+00        -0.26598E+03
 
   -0.11609E+04        -0.73921E+02         0.00000E+00
   -0.73921E+02         0.26727E+03         0.00000E+00
    0.00000E+00         0.00000E+00        -0.26807E+03
 
   -0.11708E+04        -0.37992E+02         0.00000E+00
   -0.37992E+02         0.27658E+03         0.00000E+00
    0.00000E+00         0.00000E+00        -0.26826E+03
 
   -0.11661E+04         0.16461E+01         0.00000E+00
    0.16461E+01         0.27852E+03         0.00000E+00
    0.00000E+00         0.00000E+00        -0.26626E+03
 
   -0.11452E+04         0.44037E+02         0.00000E+00
    0.44037E+02         0.27251E+03         0.00000E+00
    0.00000E+00         0.00000E+00        -0.26181E+03
 
   -0.11072E+04         0.88180E+02         0.00000E+00
    0.88180E+02         0.25813E+03         0.00000E+00
    0.00000E+00         0.00000E+00        -0.25472E+03
 
   -0.10512E+04         0.13303E+03         0.00000E+00
    0.13303E+03         0.23515E+03         0.00000E+00
    0.00000E+00         0.00000E+00        -0.24482E+03
 
   -0.97683E+03         0.17752E+03         0.00000E+00
    0.17752E+03         0.20354E+03         0.00000E+00
    0.00000E+00         0.00000E+00        -0.23199E+03
 
   -0.88399E+03         0.22052E+03         0.00000E+00
    0.22052E+03         0.16346E+03         0.00000E+00
    0.00000E+00         0.00000E+00        -0.21616E+03
 
   -0.77299E+03         0.26090E+03         0.00000E+00
    0.26090E+03         0.11527E+03         0.00000E+00
    0.00000E+00         0.00000E+00        -0.19732E+03
 
   -0.64452E+03         0.29746E+03         0.00000E+00
    0.29746E+03         0.59543E+02         0.00000E+00
    0.00000E+00         0.00000E+00        -0.17549E+03
 
   -0.49964E+03         0.32902E+03         0.00000E+00
    0.32902E+03        -0.29216E+01         0.00000E+00
    0.00000E+00         0.00000E+00        -0.15077E+03
 
   -0.33984E+03         0.35433E+03         0.00000E+00
    0.35433E+03        -0.71111E+02         0.00000E+00
    0.00000E+00         0.00000E+00        -0.12329E+03
 
   -0.16701E+03         0.37215E+03         0.00000E+00
    0.37215E+03        -0.14378E+03         0.00000E+00
    0.00000E+00         0.00000E+00        -0.93235E+02
 
   -0.79674E+03        -0.20349E+02         0.00000E+00
   -0.20349E+02         0.18739E+01         0.00000E+00
    0.00000E+00         0.00000E+00        -0.23846E+03
 
   -0.79588E+03        -0.56477E+02         0.00000E+00
   -0.56477E+02         0.10953E+02         0.00000E+00
    0.00000E+00         0.00000E+00        -0.23548E+03
 
   -0.81040E+03        -0.86198E+02         0.00000E+00
   -0.86198E+02         0.27686E+02         0.00000E+00
    0.00000E+00         0.00000E+00        -0.23481E+03
 
   -0.83721E+03        -0.10918E+03         0.00000E+00
   -0.10918E+03         0.50481E+02         0.00000E+00
    0.00000E+00         0.00000E+00        -0.23602E+03
 
   -0.87318E+03        -0.12528E+03         0.00000E+00
   -0.12528E+03         0.77707E+02         0.00000E+00
    0.00000E+00         0.00000E+00        -0.23864E+03
 
   -0.91517E+03        -0.13448E+03         0.00000E+00
   -0.13448E+03         0.10773E+03         0.00000E+00
    0.00000E+00         0.00000E+00        -0.24223E+03
 
   -0.96011E+03        -0.13694E+03         0.00000E+00
   -0.13694E+03         0.13896E+03         0.00000E+00
    0.00000E+00         0.00000E+00        -0.24635E+03
 
   -0.10050E+04        -0.13292E+03         0.00000E+00
   -0.13292E+03         0.16985E+03         0.00000E+00
    0.00000E+00         0.00000E+00        -0.25055E+03
 
   -0.10471E+04        -0.12279E+03         0.00000E+00
   -0.12279E+03         0.19895E+03         0.00000E+00
    0.00000E+00         0.00000E+00        -0.25443E+03
 
   -0.10836E+04        -0.10704E+03         0.00000E+00
   -0.10704E+03         0.22491E+03         0.00000E+00
    0.00000E+00         0.00000E+00        -0.25759E+03
 
   -0.11121E+04        -0.86215E+02         0.00000E+00
   -0.86215E+02         0.24652E+03         0.00000E+00
    0.00000E+00         0.00000E+00        -0.25966E+03
 
   -0.11304E+04        -0.60940E+02         0.00000E+00
   -0.60940E+02         0.26269E+03         0.00000E+00
    0.00000E+00         0.00000E+00        -0.26031E+03
 
   -0.11365E+04        -0.31900E+02         0.00000E+00
   -0.31900E+02         0.27250E+03         0.00000E+00
    0.00000E+00         0.00000E+00        -0.25921E+03
 
   -0.11289E+04         0.16742E+00         0.00000E+00
    0.16742E+00         0.27517E+03         0.00000E+00
    0.00000E+00         0.00000E+00        -0.25611E+03
 
   -0.11060E+04         0.34484E+02         0.00000E+00
    0.34484E+02         0.27013E+03         0.00000E+00
    0.00000E+00         0.00000E+00        -0.25075E+03
 
   -0.10668E+04         0.70232E+02         0.00000E+00
    0.70232E+02         0.25696E+03         0.00000E+00
    0.00000E+00         0.00000E+00        -0.24296E+03
 
   -0.10107E+04         0.10656E+03         0.00000E+00
    0.10656E+03         0.23544E+03         0.00000E+00
    0.00000E+00         0.00000E+00        -0.23257E+03
 
   -0.93714E+03         0.14258E+03         0.00000E+00
    0.14258E+03         0.20552E+03         0.00000E+00
    0.00000E+00         0.00000E+00        -0.21949E+03
 
   -0.84617E+03         0.17738E+03         0.00000E+00
    0.17738E+03         0.16737E+03         0.00000E+00
    0.00000E+00         0.00000E+00        -0.20364E+03
 
   -0.73810E+03         0.21003E+03         0.00000E+00
    0.21003E+03         0.12136E+03         0.00000E+00
    0.00000E+00         0.00000E+00        -0.18502E+03
 
   -0.61364E+03         0.23955E+03         0.00000E+00
    0.23955E+03         0.68080E+02         0.00000E+00
    0.00000E+00         0.00000E+00        -0.16367E+03
 
   -0.47388E+03         0.26496E+03         0.00000E+00
    0.26496E+03         0.83165E+01         0.00000E+00
    0.00000E+00         0.00000E+00        -0.13967E+03
 
   -0.32031E+03         0.28527E+03         0.00000E+00
    0.28527E+03        -0.56906E+02         0.00000E+00
    0.00000E+00         0.00000E+00        -0.11317E+03
 
   -0.15485E+03         0.29946E+03         0.00000E+00
    0.29946E+03        -0.12634E+03         0.00000E+00
    0.00000E+00         0.00000E+00        -0.84355E+02
 
   -0.83135E+03        -0.15649E+02         0.00000E+00
   -0.15649E+02         0.18144E+01         0.00000E+00
    0.00000E+00         0.00000E+00        -0.24886E+03
 
   -0.82507E+03        -0.43471E+02         0.00000E+00
   -0.43471E+02         0.10622E+02         0.00000E+00
    0.00000E+00         0.00000E+00        -0.24433E+03
 
   -0.83377E+03        -0.66404E+02         0.00000E+00
   -0.66404E+02         0.26891E+02         0.00000E+00
    0.00000E+00         0.00000E+00        -0.24206E+03
 
   -0.85455E+03        -0.84182E+02         0.00000E+00
   -0.84182E+02         0.49106E+02         0.00000E+00
    0.00000E+00         0.00000E+00        -0.24163E+03
 
   -0.88442E+03        -0.96672E+02         0.00000E+00
   -0.96672E+02         0.75704E+02         0.00000E+00
    0.00000E+00         0.00000E+00        -0.24261E+03
 
   -0.92037E+03        -0.10387E+03         0.00000E+00
   -0.10387E+03         0.10511E+03         0.00000E+00
    0.00000E+00         0.00000E+00        -0.24458E+03
 
   -0.95944E+03        -0.10586E+03         0.00000E+00
   -0.10586E+03         0.13577E+03         0.00000E+00
    0.00000E+00         0.00000E+00        -0.24710E+03
 
   -0.99877E+03        -0.10286E+03         0.00000E+00
   -0.10286E+03         0.16620E+03         0.00000E+00
    0.00000E+00         0.00000E+00        -0.24977E+03
 
   -0.10356E+04        -0.95151E+02         0.00000E+00
   -0.95151E+02         0.19496E+03         0.00000E+00
    0.00000E+00         0.00000E+00        -0.25219E+03
 
   -0.10673E+04        -0.83085E+02         0.00000E+00
   -0.83085E+02         0.22073E+03         0.00000E+00
    0.00000E+00         0.00000E+00        -0.25398E+03
 
   -0.10916E+04        -0.67090E+02         0.00000E+00
   -0.67090E+02         0.24231E+03         0.00000E+00
    0.00000E+00         0.00000E+00        -0.25479E+03
 
   -0.11063E+04        -0.47647E+02         0.00000E+00
   -0.47647E+02         0.25864E+03         0.00000E+00
    0.00000E+00         0.00000E+00        -0.25429E+03
 
   -0.11094E+04        -0.25285E+02         0.00000E+00
   -0.25285E+02         0.26880E+03         0.00000E+00
    0.00000E+00         0.00000E+00        -0.25219E+03
 
   -0.10994E+04        -0.57127E+00         0.00000E+00
   -0.57127E+00         0.27201E+03         0.00000E+00
    0.00000E+00         0.00000E+00        -0.24822E+03
 
   -0.10749E+04         0.25889E+02         0.00000E+00
    0.25889E+02         0.26771E+03         0.00000E+00
    0.00000E+00         0.00000E+00        -0.24215E+03
 
   -0.10348E+04         0.53459E+02         0.00000E+00
    0.53459E+02         0.25547E+03         0.00000E+00
    0.00000E+00         0.00000E+00        -0.23381E+03
 
   -0.97856E+03         0.81478E+02         0.00000E+00
    0.81478E+02         0.23506E+03         0.00000E+00
    0.00000E+00         0.00000E+00        -0.22305E+03
 
   -0.90570E+03         0.10926E+03         0.00000E+00
    0.10926E+03         0.20647E+03         0.00000E+00
    0.00000E+00         0.00000E+00        -0.20977E+03
 
   -0.81623E+03         0.13608E+03         0.00000E+00
    0.13608E+03         0.16985E+03         0.00000E+00
    0.00000E+00         0.00000E+00        -0.19391E+03
 
   -0.71050E+03         0.16123E+03         0.00000E+00
    0.16123E+03         0.12557E+03         0.00000E+00
    0.00000E+00         0.00000E+00        -0.17548E+03
 
   -0.58925E+03         0.18394E+03         0.00000E+00
    0.18394E+03         0.74228E+02         0.00000E+00
    0.00000E+00         0.00000E+00        -0.15451E+03
 
   -0.45359E+03         0.20345E+03         0.00000E+00
    0.20345E+03         0.16616E+02         0.00000E+00
    0.00000E+00         0.00000E+00        -0.13109E+03
 
   -0.30501E+03         0.21900E+03         0.00000E+00
    0.21900E+03        -0.46240E+02         0.00000E+00
    0.00000E+00         0.00000E+00        -0.10538E+03
 
   -0.14543E+03         0.22978E+03         0.00000E+00
    0.22978E+03        -0.11309E+03         0.00000E+00
    0.00000E+00         0.00000E+00        -0.77556E+02
 
   -0.85707E+03        -0.11082E+02         0.00000E+00
   -0.11082E+02         0.17691E+01         0.00000E+00
    0.00000E+00         0.00000E+00        -0.25659E+03
 
   -0.84678E+03        -0.30804E+02         0.00000E+00
   -0.30804E+02         0.10370E+02         0.00000E+00
    0.00000E+00         0.00000E+00        -0.25092E+03
 
   -0.85119E+03        -0.47085E+02         0.00000E+00
   -0.47085E+02         0.26284E+02         0.00000E+00
    0.00000E+00         0.00000E+00        -0.24747E+03
 
   -0.86751E+03        -0.59727E+02         0.00000E+00
   -0.59727E+02         0.48052E+02         0.00000E+00
    0.00000E+00         0.00000E+00        -0.24584E+03
 
   -0.89285E+03        -0.68633E+02         0.00000E+00
   -0.68633E+02         0.74163E+02         0.00000E+00
    0.00000E+00         0.00000E+00        -0.24561E+03
 
   -0.92431E+03        -0.73788E+02         0.00000E+00
   -0.73788E+02         0.10309E+03         0.00000E+00
    0.00000E+00         0.00000E+00        -0.24637E+03
 
   -0.95902E+03        -0.75260E+02         0.00000E+00
   -0.75260E+02         0.13330E+03         0.00000E+00
    0.00000E+00         0.00000E+00        -0.24772E+03
 
   -0.99419E+03        -0.73184E+02         0.00000E+00
   -0.73184E+02         0.16335E+03         0.00000E+00
    0.00000E+00         0.00000E+00        -0.24925E+03
 
   -0.10271E+04        -0.67761E+02         0.00000E+00
   -0.67761E+02         0.19183E+03         0.00000E+00
    0.00000E+00         0.00000E+00        -0.25059E+03
 
   -0.10553E+04        -0.59241E+02         0.00000E+00
   -0.59241E+02         0.21743E+03         0.00000E+00
    0.00000E+00         0.00000E+00        -0.25137E+03
 
   -0.10765E+04        -0.47925E+02         0.00000E+00
   -0.47925E+02         0.23897E+03         0.00000E+00
    0.00000E+00         0.00000E+00        -0.25124E+03
 
   -0.10884E+04        -0.34153E+02         0.00000E+00
   -0.34153E+02         0.25539E+03         0.00000E+00
    0.00000E+00         0.00000E+00        -0.24990E+03
 
   -0.10893E+04        -0.18300E+02         0.00000E+00
   -0.18300E+02         0.26578E+03         0.00000E+00
    0.00000E+00         0.00000E+00        -0.24704E+03
 
   -0.10775E+04        -0.77051E+00         0.00000E+00
   -0.77051E+00         0.26937E+03         0.00000E+00
    0.00000E+00         0.00000E+00        -0.24243E+03
 
   -0.10517E+04         0.18005E+02         0.00000E+00
    0.18005E+02         0.26559E+03         0.00000E+00
    0.00000E+00         0.00000E+00        -0.23584E+03
 
   -0.10110E+04         0.37572E+02         0.00000E+00
    0.37572E+02         0.25402E+03         0.00000E+00
    0.00000E+00         0.00000E+00        -0.22710E+03
 
   -0.95465E+03         0.57457E+02         0.00000E+00
    0.57457E+02         0.23444E+03         0.00000E+00
    0.00000E+00         0.00000E+00        -0.21606E+03
 
   -0.88230E+03         0.77170E+02         0.00000E+00
    0.77170E+02         0.20682E+03         0.00000E+00
    0.00000E+00         0.00000E+00        -0.20264E+03
 
   -0.79395E+03         0.96201E+02         0.00000E+00
    0.96201E+02         0.17133E+03         0.00000E+00
    0.00000E+00         0.00000E+00        -0.18679E+03
 
   -0.68999E+03         0.11403E+03         0.00000E+00
    0.11403E+03         0.12834E+03         0.00000E+00
    0.00000E+00         0.00000E+00        -0.16849E+03
 
   -0.57116E+03         0.13012E+03         0.00000E+00
    0.13012E+03         0.78446E+02         0.00000E+00
    0.00000E+00         0.00000E+00        -0.14781E+03
 
   -0.43856E+03         0.14392E+03         0.00000E+00
    0.14392E+03         0.22443E+02         0.00000E+00
    0.00000E+00         0.00000E+00        -0.12484E+03
 
   -0.29373E+03         0.15488E+03         0.00000E+00
    0.15488E+03        -0.38643E+02         0.00000E+00
    0.00000E+00         0.00000E+00        -0.99711E+02
 
   -0.13855E+03         0.16246E+03         0.00000E+00
    0.16246E+03        -0.10356E+03         0.00000E+00
    0.00000E+00         0.00000E+00        -0.72633E+02
 
   -0.87409E+03        -0.66105E+01         0.00000E+00
   -0.66105E+01         0.17386E+01         0.00000E+00
    0.00000E+00         0.00000E+00        -0.26171E+03
 
   -0.86117E+03        -0.18383E+02         0.00000E+00
   -0.18383E+02         0.10199E+02         0.00000E+00
    0.00000E+00         0.00000E+00        -0.25529E+03
 
   -0.86276E+03        -0.28111E+02         0.00000E+00
   -0.28111E+02         0.25873E+02         0.00000E+00
    0.00000E+00         0.00000E+00        -0.25107E+03
 
   -0.87612E+03        -0.35674E+02         0.00000E+00
   -0.35674E+02         0.47339E+02         0.00000E+00
    0.00000E+00         0.00000E+00        -0.24864E+03
 
   -0.89847E+03        -0.41010E+02         0.00000E+00
   -0.41010E+02         0.73118E+02         0.00000E+00
    0.00000E+00         0.00000E+00        -0.24761E+03
 
   -0.92696E+03        -0.44109E+02         0.00000E+00
   -0.44109E+02         0.10171E+03         0.00000E+00
    0.00000E+00         0.00000E+00        -0.24757E+03
 
   -0.95878E+03        -0.45010E+02         0.00000E+00
   -0.45010E+02         0.13162E+03         0.00000E+00
    0.00000E+00         0.00000E+00        -0.24815E+03
 
   -0.99119E+03        -0.43791E+02         0.00000E+00
   -0.43791E+02         0.16141E+03         0.00000E+00
    0.00000E+00         0.00000E+00        -0.24893E+03
 
   -0.10216E+04        -0.40571E+02         0.00000E+00
   -0.40571E+02         0.18968E+03         0.00000E+00
    0.00000E+00         0.00000E+00        -0.24956E+03
 
   -0.10474E+04        -0.35498E+02         0.00000E+00
   -0.35498E+02         0.21516E+03         0.00000E+00
    0.00000E+00         0.00000E+00        -0.24967E+03
 
   -0.10664E+04        -0.28752E+02         0.00000E+00
   -0.28752E+02         0.23665E+03         0.00000E+00
    0.00000E+00         0.00000E+00        -0.24893E+03
 
   -0.10765E+04        -0.20535E+02         0.00000E+00
   -0.20535E+02         0.25312E+03         0.00000E+00
    0.00000E+00         0.00000E+00        -0.24702E+03
 
   -0.10759E+04        -0.11072E+02         0.00000E+00
   -0.11072E+02         0.26365E+03         0.00000E+00
    0.00000E+00         0.00000E+00        -0.24367E+03
 
   -0.10629E+04        -0.60350E+00         0.00000E+00
   -0.60350E+00         0.26748E+03         0.00000E+00
    0.00000E+00         0.00000E+00        -0.23864E+03
 
   -0.10364E+04         0.10611E+02         0.00000E+00
    0.10611E+02         0.26403E+03         0.00000E+00
    0.00000E+00         0.00000E+00        -0.23170E+03
 
   -0.99522E+03         0.22301E+02         0.00000E+00
    0.22301E+02         0.25290E+03         0.00000E+00
    0.00000E+00         0.00000E+00        -0.22269E+03
 
   -0.93880E+03         0.34181E+02         0.00000E+00
    0.34181E+02         0.23386E+03         0.00000E+00
    0.00000E+00         0.00000E+00        -0.21148E+03
 
   -0.86678E+03         0.45956E+02         0.00000E+00
    0.45956E+02         0.20689E+03         0.00000E+00
    0.00000E+00         0.00000E+00        -0.19797E+03
 
   -0.77919E+03         0.57322E+02         0.00000E+00
    0.57322E+02         0.17214E+03         0.00000E+00
    0.00000E+00         0.00000E+00        -0.18211E+03
 
   -0.67641E+03         0.67964E+02         0.00000E+00
    0.67964E+02         0.13001E+03         0.00000E+00
    0.00000E+00         0.00000E+00        -0.16392E+03
 
   -0.55918E+03         0.77563E+02         0.00000E+00
    0.77563E+02         0.81073E+02         0.00000E+00
    0.00000E+00         0.00000E+00        -0.14343E+03
 
   -0.42864E+03         0.85790E+02         0.00000E+00
    0.85790E+02         0.26139E+02         0.00000E+00
    0.00000E+00         0.00000E+00        -0.12075E+03
 
   -0.28629E+03         0.92315E+02         0.00000E+00
    0.92315E+02        -0.33769E+02         0.00000E+00
    0.00000E+00         0.00000E+00        -0.96018E+02
 
   -0.13404E+03         0.96807E+02         0.00000E+00
    0.96807E+02        -0.97405E+02         0.00000E+00
    0.00000E+00         0.00000E+00        -0.69435E+02
 
   -0.88257E+03        -0.21970E+01         0.00000E+00
   -0.21970E+01         0.17233E+01         0.00000E+00
    0.00000E+00         0.00000E+00        -0.26425E+03
 
   -0.86835E+03        -0.61111E+01         0.00000E+00
   -0.61111E+01         0.10114E+02         0.00000E+00
    0.00000E+00         0.00000E+00        -0.25747E+03
 
   -0.86852E+03        -0.93468E+01         0.00000E+00
   -0.93468E+01         0.25666E+02         0.00000E+00
    0.00000E+00         0.00000E+00        -0.25286E+03
 
   -0.88042E+03        -0.11864E+02         0.00000E+00
   -0.11864E+02         0.46979E+02         0.00000E+00
    0.00000E+00         0.00000E+00        -0.25003E+03
 
   -0.90128E+03        -0.13641E+02         0.00000E+00
   -0.13641E+02         0.72590E+02         0.00000E+00
    0.00000E+00         0.00000E+00        -0.24861E+03
 
   -0.92829E+03        -0.14675E+02         0.00000E+00
   -0.14675E+02         0.10101E+03         0.00000E+00
    0.00000E+00         0.00000E+00        -0.24818E+03
 
   -0.95867E+03        -0.14979E+02         0.00000E+00
   -0.14979E+02         0.13077E+03         0.00000E+00
    0.00000E+00         0.00000E+00        -0.24837E+03
 
   -0.98970E+03        -0.14577E+02         0.00000E+00
   -0.14577E+02         0.16042E+03         0.00000E+00
    0.00000E+00         0.00000E+00        -0.24878E+03
 
   -0.10188E+04        -0.13509E+02         0.00000E+00
   -0.13509E+02         0.18859E+03         0.00000E+00
    0.00000E+00         0.00000E+00        -0.24906E+03
 
   -0.10434E+04        -0.11825E+02         0.00000E+00
   -0.11825E+02         0.21400E+03         0.00000E+00
    0.00000E+00         0.00000E+00        -0.24883E+03
 
   -0.10614E+04        -0.95832E+01         0.00000E+00
   -0.95832E+01         0.23547E+03         0.00000E+00
    0.00000E+00         0.00000E+00        -0.24778E+03
 
   -0.10706E+04        -0.68520E+01         0.00000E+00
   -0.68520E+01         0.25195E+03         0.00000E+00
    0.00000E+00         0.00000E+00        -0.24560E+03
 
   -0.10692E+04        -0.37055E+01         0.00000E+00
   -0.37055E+01         0.26255E+03         0.00000E+00
    0.00000E+00         0.00000E+00        -0.24201E+03
 
   -0.10557E+04        -0.22432E+00         0.00000E+00
   -0.22432E+00         0.26649E+03         0.00000E+00
    0.00000E+00         0.00000E+00        -0.23676E+03
 
   -0.10287E+04         0.35055E+01         0.00000E+00
    0.35055E+01         0.26321E+03         0.00000E+00
    0.00000E+00         0.00000E+00        -0.22965E+03
 
   -0.98735E+03         0.73935E+01         0.00000E+00
    0.73935E+01         0.25230E+03         0.00000E+00
    0.00000E+00         0.00000E+00        -0.22051E+03
 
   -0.93089E+03         0.11345E+02         0.00000E+00
    0.11345E+02         0.23353E+03         0.00000E+00
    0.00000E+00         0.00000E+00        -0.20921E+03
 
   -0.85905E+03         0.15261E+02         0.00000E+00
    0.15261E+02         0.20687E+03         0.00000E+00
    0.00000E+00         0.00000E+00        -0.19565E+03
 
   -0.77184E+03         0.19041E+02         0.00000E+00
    0.19041E+02         0.17250E+03         0.00000E+00
    0.00000E+00         0.00000E+00        -0.17980E+03
 
   -0.66964E+03         0.22580E+02         0.00000E+00
    0.22580E+02         0.13079E+03         0.00000E+00
    0.00000E+00         0.00000E+00        -0.16166E+03
 
   -0.55322E+03         0.25770E+02         0.00000E+00
    0.25770E+02         0.82331E+02         0.00000E+00
    0.00000E+00         0.00000E+00        -0.14127E+03
 
   -0.42370E+03         0.28503E+02         0.00000E+00
    0.28503E+02         0.27931E+02         0.00000E+00
    0.00000E+00         0.00000E+00        -0.11873E+03
 
   -0.28260E+03         0.30669E+02         0.00000E+00
    0.30669E+02        -0.31389E+02         0.00000E+00
    0.00000E+00         0.00000E+00        -0.94196E+02
 
   -0.13182E+03         0.32158E+02         0.00000E+00
    0.32158E+02        -0.94383E+02         0.00000E+00
    0.00000E+00         0.00000E+00        -0.67860E+02
 
TENSORS stresstot double 
   -0.69268E+05         0.61812E+03         0.00000E+00
    0.61812E+03        -0.99344E+05         0.00000E+00
    0.00000E+00         0.00000E+00        -0.50584E+05
 
   -0.36011E+05         0.35672E+04         0.00000E+00
    0.35672E+04        -0.95065E+05         0.00000E+00
    0.00000E+00         0.00000E+00        -0.39323E+05
 
   -0.16312E+05         0.53464E+04         0.00000E+00
    0.53464E+04        -0.85331E+05         0.00000E+00
    0.00000E+00         0.00000E+00        -0.30493E+05
 
   -0.65784E+04         0.51471E+04         0.00000E+00
    0.51471E+04        -0.74779E+05         0.00000E+00
    0.00000E+00         0.00000E+00        -0.24407E+05
 
   -0.17946E+04         0.43655E+04         0.00000E+00
    0.43655E+04        -0.65457E+05         0.00000E+00
    0.00000E+00         0.00000E+00        -0.20176E+05
 
    0.59132E+03         0.35678E+04         0.00000E+00
    0.35678E+04        -0.57722E+05         0.00000E+00
    0.00000E+00         0.00000E+00        -0.17139E+05
 
    0.17586E+04         0.28931E+04         0.00000E+00
    0.28931E+04        -0.51418E+05         0.00000E+00
    0.00000E+00         0.00000E+00        -0.14898E+05
 
    0.22749E+04         0.23539E+04         0.00000E+00
    0.23539E+04        -0.46287E+05         0.00000E+00
    0.00000E+00         0.00000E+00        -0.13204E+05
 
    0.24247E+04         0.19294E+04         0.00000E+00
    0.19294E+04        -0.42086E+05         0.00000E+00
    0.00000E+00         0.00000E+00        -0.11899E+05
 
    0.23569E+04         0.15951E+04         0.00000E+00
    0.15951E+04        -0.38622E+05         0.00000E+00
    0.00000E+00         0.00000E+00        -0.10879E+05
 
    0.21519E+04         0.13299E+04         0.00000E+00
    0.13299E+04        -0.35741E+05         0.00000E+00
    0.00000E+00         0.00000E+00        -0.10077E+05
 
    0.18536E+04         0.11176E+04         0.00000E+00
    0.11176E+04        -0.33326E+05         0.00000E+00
    0.00000E+00         0.00000E+00        -0.94416E+04
 
    0.14857E+04         0.94618E+03         0.00000E+00
    0.94618E+03        -0.31286E+05         0.00000E+00
    0.00000E+00         0.00000E+00        -0.89401E+04
 
    0.10595E+04         0.80664E+03         0.00000E+00
    0.80664E+03        -0.29552E+05         0.00000E+00
    0.00000E+00         0.00000E+00        -0.85476E+04
 
    0.57902E+03         0.69240E+03         0.00000E+00
    0.69240E+03        -0.28067E+05         0.00000E+00
    0.00000E+00         0.00000E+00        -0.82463E+04
 
    0.42690E+02         0.59865E+03         0.00000E+00
    0.59865E+03        -0.26787E+05         0.00000E+00
    0.00000E+00         0.00000E+00        -0.80232E+04
 
   -0.55501E+03         0.52194E+03         0.00000E+00
    0.52194E+03        -0.25675E+05         0.00000E+00
    0.00000E+00         0.00000E+00        -0.78690E+04
 
   -0.12232E+04         0.45980E+03         0.00000E+00
    0.45980E+03        -0.24700E+05         0.00000E+00
    0.00000E+00         0.00000E+00        -0.77770E+04
 
   -0.19745E+04         0.41065E+03         0.00000E+00
    0.41065E+03        -0.23836E+05         0.00000E+00
    0.00000E+00         0.00000E+00        -0.77430E+04
 
   -0.28255E+04         0.37360E+03         0.00000E+00
    0.37360E+03        -0.23056E+05         0.00000E+00
    0.00000E+00         0.00000E+00        -0.77645E+04
 
   -0.37968E+04         0.34843E+03         0.00000E+00
    0.34843E+03        -0.22338E+05         0.00000E+00
    0.00000E+00         0.00000E+00        -0.78406E+04
 
   -0.49148E+04         0.33562E+03         0.00000E+00
    0.33562E+03        -0.21658E+05         0.00000E+00
    0.00000E+00         0.00000E+00        -0.79719E+04
 
   -0.62125E+04         0.33637E+03         0.00000E+00
    0.33637E+03        -0.20990E+05         0.00000E+00
    0.00000E+00         0.00000E+00        -0.81608E+04
 
   -0.77313E+04         0.35280E+03         0.00000E+00
    0.35280E+03        -0.20305E+05         0.00000E+00
    0.00000E+00         0.00000E+00        -0.84109E+04
 
   -0.64581E+05         0.30733E+04         0.00000E+00
    0.30733E+04        -0.99316E+05         0.00000E+00
    0.00000E+00         0.00000E+00        -0.49169E+05
 
   -0.30576E+05         0.13481E+05         0.00000E+00
    0.13481E+05        -0.87764E+05         0.00000E+00
    0.00000E+00         0.00000E+00        -0.35502E+05
 
   -0.15864E+05         0.15997E+05         0.00000E+00
    0.15997E+05        -0.76817E+05         0.00000E+00
    0.00000E+00         0.00000E+00        -0.27804E+05
 
   -0.79189E+04         0.14598E+05         0.00000E+00
    0.14598E+05        -0.67775E+05         0.00000E+00
    0.00000E+00         0.00000E+00        -0.22708E+05
 
   -0.33863E+04         0.12296E+05         0.00000E+00
    0.12296E+05        -0.60185E+05         0.00000E+00
    0.00000E+00         0.00000E+00        -0.19071E+05
 
   -0.82163E+03         0.10092E+05         0.00000E+00
    0.10092E+05        -0.53839E+05         0.00000E+00
    0.00000E+00         0.00000E+00        -0.16398E+05
 
    0.60624E+03         0.82403E+04         0.00000E+00
    0.82403E+04        -0.48548E+05         0.00000E+00
    0.00000E+00         0.00000E+00        -0.14383E+05
 
    0.13593E+04         0.67507E+04         0.00000E+00
    0.67507E+04        -0.44137E+05         0.00000E+00
    0.00000E+00         0.00000E+00        -0.12833E+05
 
    0.17006E+04         0.55668E+04         0.00000E+00
    0.55668E+04        -0.40449E+05         0.00000E+00
    0.00000E+00         0.00000E+00        -0.11625E+05
 
    0.17820E+04         0.46256E+04         0.00000E+00
    0.46256E+04        -0.37352E+05         0.00000E+00
    0.00000E+00         0.00000E+00        -0.10671E+05
 
    0.16919E+04         0.38730E+04         0.00000E+00
    0.38730E+04        -0.34739E+05         0.00000E+00
    0.00000E+00         0.00000E+00        -0.99140E+04
 
    0.14824E+04         0.32663E+04         0.00000E+00
    0.32663E+04        -0.32521E+05         0.00000E+00
    0.00000E+00         0.00000E+00        -0.93115E+04
 
    0.11837E+04         0.27735E+04         0.00000E+00
    0.27735E+04        -0.30629E+05         0.00000E+00
    0.00000E+00         0.00000E+00        -0.88336E+04
 
    0.81227E+03         0.23704E+04         0.00000E+00
    0.23704E+04        -0.29007E+05         0.00000E+00
    0.00000E+00         0.00000E+00        -0.84583E+04
 
    0.37585E+03         0.20391E+04         0.00000E+00
    0.20391E+04        -0.27607E+05         0.00000E+00
    0.00000E+00         0.00000E+00        -0.81695E+04
 
   -0.12420E+03         0.17664E+04         0.00000E+00
    0.17664E+04        -0.26394E+05         0.00000E+00
    0.00000E+00         0.00000E+00        -0.79554E+04
 
   -0.69121E+03         0.15426E+04         0.00000E+00
    0.15426E+04        -0.25334E+05         0.00000E+00
    0.00000E+00         0.00000E+00        -0.78075E+04
 
   -0.13325E+04         0.13611E+04         0.00000E+00
    0.13611E+04        -0.24400E+05         0.00000E+00
    0.00000E+00         0.00000E+00        -0.77198E+04
 
   -0.20594E+04         0.12173E+04         0.00000E+00
    0.12173E+04        -0.23568E+05         0.00000E+00
    0.00000E+00         0.00000E+00        -0.76882E+04
 
   -0.28868E+04         0.11089E+04         0.00000E+00
    0.11089E+04        -0.22815E+05         0.00000E+00
    0.00000E+00         0.00000E+00        -0.77105E+04
 
   -0.38343E+04         0.10354E+04         0.00000E+00
    0.10354E+04        -0.22118E+05         0.00000E+00
    0.00000E+00         0.00000E+00        -0.77858E+04
 
   -0.49269E+04         0.99828E+03         0.00000E+00
    0.99828E+03        -0.21457E+05         0.00000E+00
    0.00000E+00         0.00000E+00        -0.79150E+04
 
   -0.61959E+04         0.10012E+04         0.00000E+00
    0.10012E+04        -0.20805E+05         0.00000E+00
    0.00000E+00         0.00000E+00        -0.81002E+04
 
   -0.76807E+04         0.10503E+04         0.00000E+00
    0.10503E+04        -0.20135E+05         0.00000E+00
    0.00000E+00         0.00000E+00        -0.83448E+04
 
   -0.48122E+05         0.17594E+05         0.00000E+00
    0.17594E+05        -0.74889E+05         0.00000E+00
    0.00000E+00         0.00000E+00        -0.36903E+05
 
   -0.26322E+05         0.25407E+05         0.00000E+00
    0.25407E+05        -0.65491E+05         0.00000E+00
    0.00000E+00         0.00000E+00        -0.27544E+05
 
   -0.17169E+05         0.24191E+05         0.00000E+00
    0.24191E+05        -0.59592E+05         0.00000E+00
    0.00000E+00         0.00000E+00        -0.23028E+05
 
   -0.10622E+05         0.21198E+05         0.00000E+00
    0.21198E+05        -0.54922E+05         0.00000E+00
    0.00000E+00         0.00000E+00        -0.19663E+05
 
   -0.61871E+04         0.17918E+05         0.00000E+00
    0.17918E+05        -0.50728E+05         0.00000E+00
    0.00000E+00         0.00000E+00        -0.17074E+05
 
   -0.32687E+04         0.14922E+05         0.00000E+00
    0.14922E+05        -0.46857E+05         0.00000E+00
    0.00000E+00         0.00000E+00        -0.15038E+05
 
   -0.14113E+04         0.12380E+05         0.00000E+00
    0.12380E+05        -0.43337E+05         0.00000E+00
    0.00000E+00         0.00000E+00        -0.13424E+05
 
   -0.26890E+03         0.10288E+05         0.00000E+00
    0.10288E+05        -0.40189E+05         0.00000E+00
    0.00000E+00         0.00000E+00        -0.12137E+05
 
    0.39331E+03         0.85882E+04         0.00000E+00
    0.85882E+04        -0.37409E+05         0.00000E+00
    0.00000E+00         0.00000E+00        -0.11105E+05
 
    0.72979E+03         0.72088E+04         0.00000E+00
    0.72088E+04        -0.34972E+05         0.00000E+00
    0.00000E+00         0.00000E+00        -0.10273E+05
 
    0.84026E+03         0.60866E+04         0.00000E+00
    0.60866E+04        -0.32844E+05         0.00000E+00
    0.00000E+00         0.00000E+00        -0.96011E+04
 
    0.78849E+03         0.51691E+04         0.00000E+00
    0.51691E+04        -0.30989E+05         0.00000E+00
    0.00000E+00         0.00000E+00        -0.90600E+04
 
    0.61470E+03         0.44149E+04         0.00000E+00
    0.44149E+04        -0.29370E+05         0.00000E+00
    0.00000E+00         0.00000E+00        -0.86267E+04
 
    0.34344E+03         0.37919E+04         0.00000E+00
    0.37919E+04        -0.27957E+05         0.00000E+00
    0.00000E+00         0.00000E+00        -0.82840E+04
 
   -0.11429E+02         0.32759E+04         0.00000E+00
    0.32759E+04        -0.26719E+05         0.00000E+00
    0.00000E+00         0.00000E+00        -0.80191E+04
 
   -0.44366E+03         0.28484E+04         0.00000E+00
    0.28484E+04        -0.25631E+05         0.00000E+00
    0.00000E+00         0.00000E+00        -0.78224E+04
 
   -0.95275E+03         0.24959E+04         0.00000E+00
    0.24959E+04        -0.24670E+05         0.00000E+00
    0.00000E+00         0.00000E+00        -0.76868E+04
 
   -0.15430E+04         0.22089E+04         0.00000E+00
    0.22089E+04        -0.23814E+05         0.00000E+00
    0.00000E+00         0.00000E+00        -0.76071E+04
 
   -0.22228E+04         0.19811E+04         0.00000E+00
    0.19811E+04        -0.23044E+05         0.00000E+00
    0.00000E+00         0.00000E+00        -0.75801E+04
 
   -0.30048E+04         0.18094E+04         0.00000E+00
    0.18094E+04        -0.22341E+05         0.00000E+00
    0.00000E+00         0.00000E+00        -0.76039E+04
 
   -0.39062E+04         0.16934E+04         0.00000E+00
    0.16934E+04        -0.21687E+05         0.00000E+00
    0.00000E+00         0.00000E+00        -0.76779E+04
 
   -0.49492E+04         0.16357E+04         0.00000E+00
    0.16357E+04        -0.21060E+05         0.00000E+00
    0.00000E+00         0.00000E+00        -0.78028E+04
 
   -0.61621E+04         0.16424E+04         0.00000E+00
    0.16424E+04        -0.20440E+05         0.00000E+00
    0.00000E+00         0.00000E+00        -0.79807E+04
 
   -0.75807E+04         0.17238E+04         0.00000E+00
    0.17238E+04        -0.19802E+05         0.00000E+00
    0.00000E+00         0.00000E+00        -0.82148E+04
 
   -0.22457E+05         0.17640E+05         0.00000E+00
    0.17640E+05        -0.25090E+05         0.00000E+00
    0.00000E+00         0.00000E+00        -0.14264E+05
 
   -0.25864E+05         0.25944E+05         0.00000E+00
    0.25944E+05        -0.33925E+05         0.00000E+00
    0.00000E+00         0.00000E+00        -0.17937E+05
 
   -0.19351E+05         0.25462E+05         0.00000E+00
    0.25462E+05        -0.37966E+05         0.00000E+00
    0.00000E+00         0.00000E+00        -0.17195E+05
 
   -0.13710E+05         0.23127E+05         0.00000E+00
    0.23127E+05        -0.39342E+05         0.00000E+00
    0.00000E+00         0.00000E+00        -0.15916E+05
 
   -0.92865E+04         0.20259E+05         0.00000E+00
    0.20259E+05        -0.39182E+05         0.00000E+00
    0.00000E+00         0.00000E+00        -0.14540E+05
 
   -0.60619E+04         0.17422E+05         0.00000E+00
    0.17422E+05        -0.38161E+05         0.00000E+00
    0.00000E+00         0.00000E+00        -0.13267E+05
 
   -0.38002E+04         0.14850E+05         0.00000E+00
    0.14850E+05        -0.36697E+05         0.00000E+00
    0.00000E+00         0.00000E+00        -0.12149E+05
 
   -0.22636E+04         0.12620E+05         0.00000E+00
    0.12620E+05        -0.35050E+05         0.00000E+00
    0.00000E+00         0.00000E+00        -0.11194E+05
 
   -0.12555E+04         0.10729E+05         0.00000E+00
    0.10729E+05        -0.33376E+05         0.00000E+00
    0.00000E+00         0.00000E+00        -0.10389E+05
 
   -0.62967E+03         0.91414E+04         0.00000E+00
    0.91414E+04        -0.31762E+05         0.00000E+00
    0.00000E+00         0.00000E+00        -0.97175E+04
 
   -0.28216E+03         0.78138E+04         0.00000E+00
    0.78138E+04        -0.30253E+05         0.00000E+00
    0.00000E+00         0.00000E+00        -0.91606E+04
 
   -0.14109E+03         0.67039E+04         0.00000E+00
    0.67039E+04        -0.28868E+05         0.00000E+00
    0.00000E+00         0.00000E+00        -0.87028E+04
 
   -0.15778E+03         0.57748E+04         0.00000E+00
    0.57748E+04        -0.27611E+05         0.00000E+00
    0.00000E+00         0.00000E+00        -0.83307E+04
 
   -0.30007E+03         0.49961E+04         0.00000E+00
    0.49961E+04        -0.26477E+05         0.00000E+00
    0.00000E+00         0.00000E+00        -0.80331E+04
 
   -0.54769E+03         0.43432E+04         0.00000E+00
    0.43432E+04        -0.25458E+05         0.00000E+00
    0.00000E+00         0.00000E+00        -0.78016E+04
 
   -0.88909E+03         0.37973E+04         0.00000E+00
    0.37973E+04        -0.24541E+05         0.00000E+00
    0.00000E+00         0.00000E+00        -0.76291E+04
 
   -0.13193E+04         0.33438E+04         0.00000E+00
    0.33438E+04        -0.23716E+05         0.00000E+00
    0.00000E+00         0.00000E+00        -0.75106E+04
 
   -0.18389E+04         0.29727E+04         0.00000E+00
    0.29727E+04        -0.22969E+05         0.00000E+00
    0.00000E+00         0.00000E+00        -0.74423E+04
 
   -0.24529E+04         0.26773E+04         0.00000E+00
    0.26773E+04        -0.22286E+05         0.00000E+00
    0.00000E+00         0.00000E+00        -0.74217E+04
 
   -0.31707E+04         0.24546E+04         0.00000E+00
    0.24546E+04        -0.21654E+05         0.00000E+00
    0.00000E+00         0.00000E+00        -0.74475E+04
 
   -0.40062E+04         0.23049E+04         0.00000E+00
    0.23049E+04        -0.21058E+05         0.00000E+00
    0.00000E+00         0.00000E+00        -0.75194E+04
 
   -0.49781E+04         0.22325E+04         0.00000E+00
    0.22325E+04        -0.20482E+05         0.00000E+00
    0.00000E+00         0.00000E+00        -0.76381E+04
 
   -0.61103E+04         0.22459E+04         0.00000E+00
    0.22459E+04        -0.19908E+05         0.00000E+00
    0.00000E+00         0.00000E+00        -0.78055E+04
 
   -0.74335E+04         0.23587E+04         0.00000E+00
    0.23587E+04        -0.19314E+05         0.00000E+00
    0.00000E+00         0.00000E+00        -0.80243E+04
 
   -0.54729E+04         0.32381E+04         0.00000E+00
    0.32381E+04        -0.64123E+03         0.00000E+00
    0.00000E+00         0.00000E+00        -0.18342E+04
 
   -0.20250E+05         0.15274E+05         0.00000E+00
    0.15274E+05        -0.11420E+05         0.00000E+00
    0.00000E+00         0.00000E+00        -0.95010E+04
 
   -0.19185E+05         0.20104E+05         0.00000E+00
    0.20104E+05        -0.19980E+05         0.00000E+00
    0.00000E+00         0.00000E+00        -0.11750E+05
 
   -0.15355E+05         0.20644E+05         0.00000E+00
    0.20644E+05        -0.25158E+05         0.00000E+00
    0.00000E+00         0.00000E+00        -0.12154E+05
 
   -0.11573E+05         0.19462E+05         0.00000E+00
    0.19462E+05        -0.27999E+05         0.00000E+00
    0.00000E+00         0.00000E+00        -0.11872E+05
 
   -0.84367E+04         0.17615E+05         0.00000E+00
    0.17615E+05        -0.29315E+05         0.00000E+00
    0.00000E+00         0.00000E+00        -0.11325E+05
 
   -0.60220E+04         0.15604E+05         0.00000E+00
    0.15604E+05        -0.29664E+05         0.00000E+00
    0.00000E+00         0.00000E+00        -0.10706E+05
 
   -0.42404E+04         0.13665E+05         0.00000E+00
    0.13665E+05        -0.29422E+05         0.00000E+00
    0.00000E+00         0.00000E+00        -0.10099E+05
 
   -0.29697E+04         0.11898E+05         0.00000E+00
    0.11898E+05        -0.28835E+05         0.00000E+00
    0.00000E+00         0.00000E+00        -0.95415E+04
 
   -0.20966E+04         0.10335E+05         0.00000E+00
    0.10335E+05        -0.28064E+05         0.00000E+00
    0.00000E+00         0.00000E+00        -0.90483E+04
 
   -0.15295E+04         0.89743E+04         0.00000E+00
    0.89743E+04        -0.27211E+05         0.00000E+00
    0.00000E+00         0.00000E+00        -0.86221E+04
 
   -0.11988E+04         0.78009E+04         0.00000E+00
    0.78009E+04        -0.26338E+05         0.00000E+00
    0.00000E+00         0.00000E+00        -0.82610E+04
 
   -0.10536E+04         0.67939E+04         0.00000E+00
    0.67939E+04        -0.25482E+05         0.00000E+00
    0.00000E+00         0.00000E+00        -0.79608E+04
 
   -0.10579E+04         0.59329E+04         0.00000E+00
    0.59329E+04        -0.24666E+05         0.00000E+00
    0.00000E+00         0.00000E+00        -0.77171E+04
 
   -0.11870E+04         0.51996E+04         0.00000E+00
    0.51996E+04        -0.23898E+05         0.00000E+00
    0.00000E+00         0.00000E+00        -0.75256E+04
 
   -0.14253E+04         0.45786E+04         0.00000E+00
    0.45786E+04        -0.23183E+05         0.00000E+00
    0.00000E+00         0.00000E+00        -0.73824E+04
 
   -0.17638E+04         0.40579E+04         0.00000E+00
    0.40579E+04        -0.22519E+05         0.00000E+00
    0.00000E+00         0.00000E+00        -0.72847E+04
 
   -0.21994E+04         0.36288E+04         0.00000E+00
    0.36288E+04        -0.21901E+05         0.00000E+00
    0.00000E+00         0.00000E+00        -0.72302E+04
 
   -0.27336E+04         0.32860E+04         0.00000E+00
    0.32860E+04        -0.21324E+05         0.00000E+00
    0.00000E+00         0.00000E+00        -0.72174E+04
 
   -0.33725E+04         0.30277E+04         0.00000E+00
    0.30277E+04        -0.20779E+05         0.00000E+00
    0.00000E+00         0.00000E+00        -0.72455E+04
 
   -0.41261E+04         0.28557E+04         0.00000E+00
    0.28557E+04        -0.20256E+05         0.00000E+00
    0.00000E+00         0.00000E+00        -0.73145E+04
 
   -0.50087E+04         0.27759E+04         0.00000E+00
    0.27759E+04        -0.19742E+05         0.00000E+00
    0.00000E+00         0.00000E+00        -0.74253E+04
 
   -0.60395E+04         0.27991E+04         0.00000E+00
    0.27991E+04        -0.19225E+05         0.00000E+00
    0.00000E+00         0.00000E+00        -0.75793E+04
 
   -0.72424E+04         0.29422E+04         0.00000E+00
    0.29422E+04        -0.18687E+05         0.00000E+00
    0.00000E+00         0.00000E+00        -0.77788E+04
 
    0.48349E+03         0.10065E+04         0.00000E+00
    0.10065E+04        -0.58769E+03         0.00000E+00
    0.00000E+00         0.00000E+00        -0.31258E+02
 
   -0.11757E+05         0.73085E+04         0.00000E+00
    0.73085E+04        -0.33812E+04         0.00000E+00
    0.00000E+00         0.00000E+00        -0.45414E+04
 
   -0.15764E+05         0.13257E+05         0.00000E+00
    0.13257E+05        -0.94797E+04         0.00000E+00
    0.00000E+00         0.00000E+00        -0.75730E+04
 
   -0.14785E+05         0.16060E+05         0.00000E+00
    0.16060E+05        -0.14942E+05         0.00000E+00
    0.00000E+00         0.00000E+00        -0.89181E+04
 
   -0.12401E+05         0.16680E+05         0.00000E+00
    0.16680E+05        -0.18915E+05         0.00000E+00
    0.00000E+00         0.00000E+00        -0.93948E+04
 
   -0.98842E+04         0.16111E+05         0.00000E+00
    0.16111E+05        -0.21533E+05         0.00000E+00
    0.00000E+00         0.00000E+00        -0.94250E+04
 
   -0.76752E+04         0.14962E+05         0.00000E+00
    0.14962E+05        -0.23107E+05         0.00000E+00
    0.00000E+00         0.00000E+00        -0.92346E+04
 
   -0.58872E+04         0.13584E+05         0.00000E+00
    0.13584E+05        -0.23933E+05         0.00000E+00
    0.00000E+00         0.00000E+00        -0.89461E+04
 
   -0.45086E+04         0.12167E+05         0.00000E+00
    0.12167E+05        -0.24245E+05         0.00000E+00
    0.00000E+00         0.00000E+00        -0.86261E+04
 
   -0.34866E+04         0.10813E+05         0.00000E+00
    0.10813E+05        -0.24215E+05         0.00000E+00
    0.00000E+00         0.00000E+00        -0.83105E+04
 
   -0.27606E+04         0.95666E+04         0.00000E+00
    0.95666E+04        -0.23966E+05         0.00000E+00
    0.00000E+00         0.00000E+00        -0.80180E+04
 
   -0.22764E+04         0.84456E+04         0.00000E+00
    0.84456E+04        -0.23584E+05         0.00000E+00
    0.00000E+00         0.00000E+00        -0.77581E+04
 
   -0.19894E+04         0.74521E+04         0.00000E+00
    0.74521E+04        -0.23126E+05         0.00000E+00
    0.00000E+00         0.00000E+00        -0.75347E+04
 
   -0.18654E+04         0.65809E+04         0.00000E+00
    0.65809E+04        -0.22632E+05         0.00000E+00
    0.00000E+00         0.00000E+00        -0.73492E+04
 
   -0.18791E+04         0.58239E+04         0.00000E+00
    0.58239E+04        -0.22126E+05         0.00000E+00
    0.00000E+00         0.00000E+00        -0.72014E+04
 
   -0.20128E+04         0.51728E+04         0.00000E+00
    0.51728E+04        -0.21623E+05         0.00000E+00
    0.00000E+00         0.00000E+00        -0.70906E+04
 
   -0.22551E+04         0.46204E+04         0.00000E+00
    0.46204E+04        -0.21131E+05         0.00000E+00
    0.00000E+00         0.00000E+00        -0.70160E+04
 
   -0.26002E+04         0.41615E+04         0.00000E+00
    0.41615E+04        -0.20656E+05         0.00000E+00
    0.00000E+00         0.00000E+00        -0.69767E+04
 
   -0.30464E+04         0.37935E+04         0.00000E+00
    0.37935E+04        -0.20195E+05         0.00000E+00
    0.00000E+00         0.00000E+00        -0.69724E+04
 
   -0.35962E+04         0.35166E+04         0.00000E+00
    0.35166E+04        -0.19746E+05         0.00000E+00
    0.00000E+00         0.00000E+00        -0.70028E+04
 
   -0.42560E+04         0.33346E+04         0.00000E+00
    0.33346E+04        -0.19305E+05         0.00000E+00
    0.00000E+00         0.00000E+00        -0.70683E+04
 
   -0.50356E+04         0.32555E+04         0.00000E+00
    0.32555E+04        -0.18863E+05         0.00000E+00
    0.00000E+00         0.00000E+00        -0.71695E+04
 
   -0.59484E+04         0.32921E+04         0.00000E+00
    0.32921E+04        -0.18411E+05         0.00000E+00
    0.00000E+00         0.00000E+00        -0.73079E+04
 
   -0.70118E+04         0.34638E+04         0.00000E+00
    0.34638E+04        -0.17938E+05         0.00000E+00
    0.00000E+00         0.00000E+00        -0.74850E+04
 
    0.32281E+04         0.38100E+03         0.00000E+00
    0.38100E+03        -0.78819E+02         0.00000E+00
    0.00000E+00         0.00000E+00         0.94478E+03
 
   -0.63738E+04         0.38495E+04         0.00000E+00
    0.38495E+04        -0.14772E+04         0.00000E+00
    0.00000E+00         0.00000E+00        -0.23553E+04
 
   -0.11415E+05         0.82619E+04         0.00000E+00
    0.82619E+04        -0.46528E+04         0.00000E+00
    0.00000E+00         0.00000E+00        -0.48203E+04
 
   -0.12696E+05         0.11567E+05         0.00000E+00
    0.11567E+05        -0.87216E+04         0.00000E+00
    0.00000E+00         0.00000E+00        -0.64252E+04
 
   -0.11889E+05         0.13263E+05         0.00000E+00
    0.13263E+05        -0.12441E+05         0.00000E+00
    0.00000E+00         0.00000E+00        -0.72991E+04
 
   -0.10311E+05         0.13734E+05         0.00000E+00
    0.13734E+05        -0.15390E+05         0.00000E+00
    0.00000E+00         0.00000E+00        -0.77103E+04
 
   -0.85983E+04         0.13429E+05         0.00000E+00
    0.13429E+05        -0.17543E+05         0.00000E+00
    0.00000E+00         0.00000E+00        -0.78425E+04
 
   -0.70324E+04         0.12684E+05         0.00000E+00
    0.12684E+05        -0.19016E+05         0.00000E+00
    0.00000E+00         0.00000E+00        -0.78145E+04
 
   -0.57149E+04         0.11723E+05         0.00000E+00
    0.11723E+05        -0.19953E+05         0.00000E+00
    0.00000E+00         0.00000E+00        -0.77004E+04
 
   -0.46640E+04         0.10685E+05         0.00000E+00
    0.10685E+05        -0.20490E+05         0.00000E+00
    0.00000E+00         0.00000E+00        -0.75462E+04
 
   -0.38626E+04         0.96526E+04         0.00000E+00
    0.96526E+04        -0.20736E+05         0.00000E+00
    0.00000E+00         0.00000E+00        -0.73796E+04
 
   -0.32815E+04         0.86711E+04         0.00000E+00
    0.86711E+04        -0.20777E+05         0.00000E+00
    0.00000E+00         0.00000E+00        -0.72177E+04
 
   -0.28904E+04         0.77649E+04         0.00000E+00
    0.77649E+04        -0.20677E+05         0.00000E+00
    0.00000E+00         0.00000E+00        -0.70703E+04
 
   -0.26624E+04         0.69449E+04         0.00000E+00
    0.69449E+04        -0.20482E+05         0.00000E+00
    0.00000E+00         0.00000E+00        -0.69433E+04
 
   -0.25754E+04         0.62150E+04         0.00000E+00
    0.62150E+04        -0.20225E+05         0.00000E+00
    0.00000E+00         0.00000E+00        -0.68402E+04
 
   -0.26126E+04         0.55754E+04         0.00000E+00
    0.55754E+04        -0.19930E+05         0.00000E+00
    0.00000E+00         0.00000E+00        -0.67627E+04
 
   -0.27622E+04         0.50252E+04         0.00000E+00
    0.50252E+04        -0.19611E+05         0.00000E+00
    0.00000E+00         0.00000E+00        -0.67120E+04
 
   -0.30164E+04         0.45640E+04         0.00000E+00
    0.45640E+04        -0.19279E+05         0.00000E+00
    0.00000E+00         0.00000E+00        -0.66885E+04
 
   -0.33715E+04         0.41926E+04         0.00000E+00
    0.41926E+04        -0.18938E+05         0.00000E+00
    0.00000E+00         0.00000E+00        -0.66928E+04
 
   -0.38270E+04         0.39142E+04         0.00000E+00
    0.39142E+04        -0.18590E+05         0.00000E+00
    0.00000E+00         0.00000E+00        -0.67252E+04
 
   -0.43857E+04         0.37347E+04         0.00000E+00
    0.37347E+04        -0.18236E+05         0.00000E+00
    0.00000E+00         0.00000E+00        -0.67864E+04
 
   -0.50528E+04         0.36643E+04         0.00000E+00
    0.36643E+04        -0.17870E+05         0.00000E+00
    0.00000E+00         0.00000E+00        -0.68770E+04
 
   -0.58363E+04         0.37176E+04         0.00000E+00
    0.37176E+04        -0.17490E+05         0.00000E+00
    0.00000E+00         0.00000E+00        -0.69979E+04
 
   -0.67464E+04         0.39159E+04         0.00000E+00
    0.39159E+04        -0.17088E+05         0.00000E+00
    0.00000E+00         0.00000E+00        -0.71503E+04
 
    0.45669E+04         0.14594E+03         0.00000E+00
    0.14594E+03        -0.52071E+02         0.00000E+00
    0.00000E+00         0.00000E+00         0.13545E+04
 
   -0.29309E+04         0.21453E+04         0.00000E+00
    0.21453E+04        -0.70813E+03         0.00000E+00
    0.00000E+00         0.00000E+00        -0.10917E+04
 
   -0.78677E+04         0.52211E+04         0.00000E+00
    0.52211E+04        -0.25444E+04         0.00000E+00
    0.00000E+00         0.00000E+00        -0.31236E+04
 
   -0.10168E+05         0.80895E+04         0.00000E+00
    0.80895E+04        -0.52415E+04         0.00000E+00
    0.00000E+00         0.00000E+00        -0.46230E+04
 
   -0.10582E+05         0.10099E+05         0.00000E+00
    0.10099E+05        -0.81899E+04         0.00000E+00
    0.00000E+00         0.00000E+00        -0.56315E+04
 
   -0.99391E+04         0.11170E+05         0.00000E+00
    0.11170E+05        -0.10892E+05         0.00000E+00
    0.00000E+00         0.00000E+00        -0.62492E+04
 
   -0.88464E+04         0.11495E+05         0.00000E+00
    0.11495E+05        -0.13134E+05         0.00000E+00
    0.00000E+00         0.00000E+00        -0.65941E+04
 
   -0.76499E+04         0.11305E+05         0.00000E+00
    0.11305E+05        -0.14878E+05         0.00000E+00
    0.00000E+00         0.00000E+00        -0.67584E+04
 
   -0.65270E+04         0.10795E+05         0.00000E+00
    0.10795E+05        -0.16168E+05         0.00000E+00
    0.00000E+00         0.00000E+00        -0.68086E+04
 
   -0.55561E+04         0.10106E+05         0.00000E+00
    0.10106E+05        -0.17078E+05         0.00000E+00
    0.00000E+00         0.00000E+00        -0.67902E+04
 
   -0.47634E+04         0.93341E+04         0.00000E+00
    0.93341E+04        -0.17684E+05         0.00000E+00
    0.00000E+00         0.00000E+00        -0.67342E+04
 
   -0.41482E+04         0.85438E+04         0.00000E+00
    0.85438E+04        -0.18055E+05         0.00000E+00
    0.00000E+00         0.00000E+00        -0.66611E+04
 
   -0.36987E+04         0.77747E+04         0.00000E+00
    0.77747E+04        -0.18249E+05         0.00000E+00
    0.00000E+00         0.00000E+00        -0.65844E+04
 
   -0.33992E+04         0.70514E+04         0.00000E+00
    0.70514E+04        -0.18311E+05         0.00000E+00
    0.00000E+00         0.00000E+00        -0.65131E+04
 
   -0.32341E+04         0.63885E+04         0.00000E+00
    0.63885E+04        -0.18276E+05         0.00000E+00
    0.00000E+00         0.00000E+00        -0.64530E+04
 
   -0.31899E+04         0.57950E+04         0.00000E+00
    0.57950E+04        -0.18170E+05         0.00000E+00
    0.00000E+00         0.00000E+00        -0.64080E+04
 
   -0.32561E+04         0.52763E+04         0.00000E+00
    0.52763E+04        -0.18013E+05         0.00000E+00
    0.00000E+00         0.00000E+00        -0.63806E+04
 
   -0.34246E+04         0.48372E+04         0.00000E+00
    0.48372E+04        -0.17817E+05         0.00000E+00
    0.00000E+00         0.00000E+00        -0.63726E+04
 
   -0.36904E+04         0.44824E+04         0.00000E+00
    0.44824E+04        -0.17593E+05         0.00000E+00
    0.00000E+00         0.00000E+00        -0.63850E+04
 
   -0.40507E+04         0.42181E+04         0.00000E+00
    0.42181E+04        -0.17346E+05         0.00000E+00
    0.00000E+00         0.00000E+00        -0.64190E+04
 
   -0.45051E+04         0.40527E+04         0.00000E+00
    0.40527E+04        -0.17079E+05         0.00000E+00
    0.00000E+00         0.00000E+00        -0.64751E+04
 
   -0.50549E+04         0.39983E+04         0.00000E+00
    0.39983E+04        -0.16792E+05         0.00000E+00
    0.00000E+00         0.00000E+00        -0.65541E+04
 
   -0.57026E+04         0.40712E+04         0.00000E+00
    0.40712E+04        -0.16486E+05         0.00000E+00
    0.00000E+00         0.00000E+00        -0.66565E+04
 
   -0.64517E+04         0.42934E+04         0.00000E+00
    0.42934E+04        -0.16158E+05         0.00000E+00
    0.00000E+00         0.00000E+00        -0.67828E+04
 
    0.52585E+04         0.27342E+02         0.00000E+00
    0.27342E+02        -0.24802E+02         0.00000E+00
    0.00000E+00         0.00000E+00         0.15701E+04
 
   -0.73847E+03         0.12238E+04         0.00000E+00
    0.12238E+04        -0.40043E+03         0.00000E+00
    0.00000E+00         0.00000E+00        -0.34167E+03
 
   -0.51908E+04         0.33417E+04         0.00000E+00
    0.33417E+04        -0.15001E+04         0.00000E+00
    0.00000E+00         0.00000E+00        -0.20073E+04
 
   -0.78533E+04         0.56212E+04         0.00000E+00
    0.56212E+04        -0.33012E+04         0.00000E+00
    0.00000E+00         0.00000E+00        -0.33463E+04
 
   -0.89950E+04         0.75193E+04         0.00000E+00
    0.75193E+04        -0.54927E+04         0.00000E+00
    0.00000E+00         0.00000E+00        -0.43463E+04
 
   -0.90935E+04         0.88149E+04         0.00000E+00
    0.88149E+04        -0.77363E+04         0.00000E+00
    0.00000E+00         0.00000E+00        -0.50489E+04
 
   -0.85924E+04         0.95157E+04         0.00000E+00
    0.95157E+04        -0.97929E+04         0.00000E+00
    0.00000E+00         0.00000E+00        -0.55156E+04
 
   -0.78144E+04         0.97335E+04         0.00000E+00
    0.97335E+04        -0.11548E+05         0.00000E+00
    0.00000E+00         0.00000E+00        -0.58086E+04
 
   -0.69613E+04         0.96006E+04         0.00000E+00
    0.96006E+04        -0.12971E+05         0.00000E+00
    0.00000E+00         0.00000E+00        -0.59796E+04
 
   -0.61478E+04         0.92343E+04         0.00000E+00
    0.92343E+04        -0.14079E+05         0.00000E+00
    0.00000E+00         0.00000E+00        -0.60681E+04
 
   -0.54322E+04         0.87268E+04         0.00000E+00
    0.87268E+04        -0.14912E+05         0.00000E+00
    0.00000E+00         0.00000E+00        -0.61034E+04
 
   -0.48398E+04         0.81458E+04         0.00000E+00
    0.81458E+04        -0.15515E+05         0.00000E+00
    0.00000E+00         0.00000E+00        -0.61064E+04
 
   -0.43769E+04         0.75393E+04         0.00000E+00
    0.75393E+04        -0.15930E+05         0.00000E+00
    0.00000E+00         0.00000E+00        -0.60921E+04
 
   -0.40404E+04         0.69405E+04         0.00000E+00
    0.69405E+04        -0.16196E+05         0.00000E+00
    0.00000E+00         0.00000E+00        -0.60709E+04
 
   -0.38232E+04         0.63723E+04         0.00000E+00
    0.63723E+04        -0.16345E+05         0.00000E+00
    0.00000E+00         0.00000E+00        -0.60503E+04
 
   -0.37166E+04         0.58502E+04         0.00000E+00
    0.58502E+04        -0.16401E+05         0.00000E+00
    0.00000E+00         0.00000E+00        -0.60354E+04
 
   -0.37127E+04         0.53860E+04         0.00000E+00
    0.53860E+04        -0.16386E+05         0.00000E+00
    0.00000E+00         0.00000E+00        -0.60297E+04
 
   -0.38045E+04         0.49888E+04         0.00000E+00
    0.49888E+04        -0.16315E+05         0.00000E+00
    0.00000E+00         0.00000E+00        -0.60360E+04
 
   -0.39865E+04         0.46672E+04         0.00000E+00
    0.46672E+04        -0.16199E+05         0.00000E+00
    0.00000E+00         0.00000E+00        -0.60558E+04
 
   -0.42546E+04         0.44303E+04         0.00000E+00
    0.44303E+04        -0.16047E+05         0.00000E+00
    0.00000E+00         0.00000E+00        -0.60905E+04
 
   -0.46056E+04         0.42890E+04         0.00000E+00
    0.42890E+04        -0.15865E+05         0.00000E+00
    0.00000E+00         0.00000E+00        -0.61410E+04
 
   -0.50373E+04         0.42568E+04         0.00000E+00
    0.42568E+04        -0.15655E+05         0.00000E+00
    0.00000E+00         0.00000E+00        -0.62078E+04
 
   -0.55475E+04         0.43511E+04         0.00000E+00
    0.43511E+04        -0.15423E+05         0.00000E+00
    0.00000E+00         0.00000E+00        -0.62911E+04
 
   -0.61335E+04         0.45944E+04         0.00000E+00
    0.45944E+04        -0.15170E+05         0.00000E+00
    0.00000E+00         0.00000E+00        -0.63910E+04
 
    0.55916E+04        -0.42965E+02         0.00000E+00
   -0.42965E+02        -0.16511E+02         0.00000E+00
    0.00000E+00         0.00000E+00         0.16725E+04
 
    0.68875E+03         0.67650E+03         0.00000E+00
    0.67650E+03        -0.24594E+03         0.00000E+00
    0.00000E+00         0.00000E+00         0.13285E+03
 
   -0.32320E+04         0.21408E+04         0.00000E+00
    0.21408E+04        -0.94805E+03         0.00000E+00
    0.00000E+00         0.00000E+00        -0.12540E+04
 
   -0.59202E+04         0.38902E+04         0.00000E+00
    0.38902E+04        -0.21706E+04         0.00000E+00
    0.00000E+00         0.00000E+00        -0.24272E+04
 
   -0.74420E+04         0.55283E+04         0.00000E+00
    0.55283E+04        -0.37781E+04         0.00000E+00
    0.00000E+00         0.00000E+00        -0.33660E+04
 
   -0.80466E+04         0.68213E+04         0.00000E+00
    0.68213E+04        -0.55591E+04         0.00000E+00
    0.00000E+00         0.00000E+00        -0.40817E+04
 
   -0.80288E+04         0.76921E+04         0.00000E+00
    0.76921E+04        -0.73233E+04         0.00000E+00
    0.00000E+00         0.00000E+00        -0.46056E+04
 
   -0.76441E+04         0.81648E+04         0.00000E+00
    0.81648E+04        -0.89417E+04         0.00000E+00
    0.00000E+00         0.00000E+00        -0.49758E+04
 
   -0.70811E+04         0.83104E+04         0.00000E+00
    0.83104E+04        -0.10348E+05         0.00000E+00
    0.00000E+00         0.00000E+00        -0.52288E+04
 
   -0.64649E+04         0.82105E+04         0.00000E+00
    0.82105E+04        -0.11522E+05         0.00000E+00
    0.00000E+00         0.00000E+00        -0.53960E+04
 
   -0.58720E+04         0.79400E+04         0.00000E+00
    0.79400E+04        -0.12470E+05         0.00000E+00
    0.00000E+00         0.00000E+00        -0.55025E+04
 
   -0.53456E+04         0.75610E+04         0.00000E+00
    0.75610E+04        -0.13212E+05         0.00000E+00
    0.00000E+00         0.00000E+00        -0.55674E+04
 
   -0.49072E+04         0.71220E+04         0.00000E+00
    0.71220E+04        -0.13778E+05         0.00000E+00
    0.00000E+00         0.00000E+00        -0.56054E+04
 
   -0.45655E+04         0.66594E+04         0.00000E+00
    0.66594E+04        -0.14193E+05         0.00000E+00
    0.00000E+00         0.00000E+00        -0.56274E+04
 
   -0.43215E+04         0.62007E+04         0.00000E+00
    0.62007E+04        -0.14483E+05         0.00000E+00
    0.00000E+00         0.00000E+00        -0.56413E+04
 
   -0.41724E+04         0.57663E+04         0.00000E+00
    0.57663E+04        -0.14671E+05         0.00000E+00
    0.00000E+00         0.00000E+00        -0.56530E+04
 
   -0.41137E+04         0.53722E+04         0.00000E+00
    0.53722E+04        -0.14775E+05         0.00000E+00
    0.00000E+00         0.00000E+00        -0.56667E+04
 
   -0.41402E+04         0.50313E+04         0.00000E+00
    0.50313E+04        -0.14811E+05         0.00000E+00
    0.00000E+00         0.00000E+00        -0.56855E+04
 
   -0.42467E+04         0.47556E+04         0.00000E+00
    0.47556E+04        -0.14792E+05         0.00000E+00
    0.00000E+00         0.00000E+00        -0.57115E+04
 
   -0.44282E+04         0.45566E+04         0.00000E+00
    0.45566E+04        -0.14726E+05         0.00000E+00
    0.00000E+00         0.00000E+00        -0.57462E+04
 
   -0.46799E+04         0.44470E+04         0.00000E+00
    0.44470E+04        -0.14622E+05         0.00000E+00
    0.00000E+00         0.00000E+00        -0.57905E+04
 
   -0.49964E+04         0.44416E+04         0.00000E+00
    0.44416E+04        -0.14487E+05         0.00000E+00
    0.00000E+00         0.00000E+00        -0.58449E+04
 
   -0.53716E+04         0.45583E+04         0.00000E+00
    0.45583E+04        -0.14326E+05         0.00000E+00
    0.00000E+00         0.00000E+00        -0.59091E+04
 
   -0.57975E+04         0.48192E+04         0.00000E+00
    0.48192E+04        -0.14145E+05         0.00000E+00
    0.00000E+00         0.00000E+00        -0.59828E+04
 
    0.57083E+04        -0.88766E+02         0.00000E+00
   -0.88766E+02        -0.11153E+02         0.00000E+00
    0.00000E+00         0.00000E+00         0.17091E+04
 
    0.16225E+04         0.32784E+03         0.00000E+00
    0.32784E+03        -0.16179E+03         0.00000E+00
    0.00000E+00         0.00000E+00         0.43821E+03
 
   -0.18083E+04         0.13418E+04         0.00000E+00
    0.13418E+04        -0.63066E+03         0.00000E+00
    0.00000E+00         0.00000E+00        -0.73169E+03
 
   -0.43736E+04         0.26656E+04         0.00000E+00
    0.26656E+04        -0.14827E+04         0.00000E+00
    0.00000E+00         0.00000E+00        -0.17569E+04
 
   -0.60552E+04         0.40190E+04         0.00000E+00
    0.40190E+04        -0.26645E+04         0.00000E+00
    0.00000E+00         0.00000E+00        -0.26159E+04
 
   -0.69736E+04         0.52009E+04         0.00000E+00
    0.52009E+04        -0.40536E+04         0.00000E+00
    0.00000E+00         0.00000E+00        -0.33082E+04
 
   -0.73123E+04         0.61069E+04         0.00000E+00
    0.61069E+04        -0.55142E+04         0.00000E+00
    0.00000E+00         0.00000E+00        -0.38480E+04
 
   -0.72576E+04         0.67121E+04         0.00000E+00
    0.67121E+04        -0.69341E+04         0.00000E+00
    0.00000E+00         0.00000E+00        -0.42575E+04
 
   -0.69661E+04         0.70409E+04         0.00000E+00
    0.70409E+04        -0.82383E+04         0.00000E+00
    0.00000E+00         0.00000E+00        -0.45613E+04
 
   -0.65555E+04         0.71407E+04         0.00000E+00
    0.71407E+04        -0.93861E+04         0.00000E+00
    0.00000E+00         0.00000E+00        -0.47825E+04
 
   -0.61074E+04         0.70652E+04         0.00000E+00
    0.70652E+04        -0.10363E+05         0.00000E+00
    0.00000E+00         0.00000E+00        -0.49412E+04
 
   -0.56743E+04         0.68649E+04         0.00000E+00
    0.68649E+04        -0.11172E+05         0.00000E+00
    0.00000E+00         0.00000E+00        -0.50539E+04
 
   -0.52882E+04         0.65830E+04         0.00000E+00
    0.65830E+04        -0.11824E+05         0.00000E+00
    0.00000E+00         0.00000E+00        -0.51338E+04
 
   -0.49667E+04         0.62554E+04         0.00000E+00
    0.62554E+04        -0.12337E+05         0.00000E+00
    0.00000E+00         0.00000E+00        -0.51912E+04
 
   -0.47182E+04         0.59105E+04         0.00000E+00
    0.59105E+04        -0.12728E+05         0.00000E+00
    0.00000E+00         0.00000E+00        -0.52340E+04
 
   -0.45453E+04         0.55712E+04         0.00000E+00
    0.55712E+04        -0.13015E+05         0.00000E+00
    0.00000E+00         0.00000E+00        -0.52682E+04
 
   -0.44471E+04         0.52560E+04         0.00000E+00
    0.52560E+04        -0.13214E+05         0.00000E+00
    0.00000E+00         0.00000E+00        -0.52983E+04
 
   -0.44204E+04         0.49806E+04         0.00000E+00
    0.49806E+04        -0.13338E+05         0.00000E+00
    0.00000E+00         0.00000E+00        -0.53276E+04
 
   -0.44612E+04         0.47591E+04         0.00000E+00
    0.47591E+04        -0.13400E+05         0.00000E+00
    0.00000E+00         0.00000E+00        -0.53583E+04
 
   -0.45640E+04         0.46050E+04         0.00000E+00
    0.46050E+04        -0.13410E+05         0.00000E+00
    0.00000E+00         0.00000E+00        -0.53921E+04
 
   -0.47228E+04         0.45324E+04         0.00000E+00
    0.45324E+04        -0.13377E+05         0.00000E+00
    0.00000E+00         0.00000E+00        -0.54299E+04
 
   -0.49301E+04         0.45567E+04         0.00000E+00
    0.45567E+04        -0.13309E+05         0.00000E+00
    0.00000E+00         0.00000E+00        -0.54718E+04
 
   -0.51764E+04         0.46958E+04         0.00000E+00
    0.46958E+04        -0.13215E+05         0.00000E+00
    0.00000E+00         0.00000E+00        -0.55175E+04
 
   -0.54495E+04         0.49708E+04         0.00000E+00
    0.49708E+04        -0.13104E+05         0.00000E+00
    0.00000E+00         0.00000E+00        -0.55662E+04
 
    0.56842E+04        -0.12027E+03         0.00000E+00
   -0.12027E+03        -0.79328E+01         0.00000E+00
    0.00000E+00         0.00000E+00         0.17029E+04
 
    0.22266E+04         0.93866E+02         0.00000E+00
    0.93866E+02        -0.11111E+03         0.00000E+00
    0.00000E+00         0.00000E+00         0.63463E+03
 
   -0.77774E+03         0.79121E+03         0.00000E+00
    0.79121E+03        -0.43617E+03         0.00000E+00
    0.00000E+00         0.00000E+00        -0.36417E+03
 
   -0.31607E+04         0.17849E+04         0.00000E+00
    0.17849E+04        -0.10442E+04         0.00000E+00
    0.00000E+00         0.00000E+00        -0.12615E+04
 
   -0.48738E+04         0.28777E+04         0.00000E+00
    0.28777E+04        -0.19213E+04         0.00000E+00
    0.00000E+00         0.00000E+00        -0.20385E+04
 
   -0.59673E+04         0.39084E+04         0.00000E+00
    0.39084E+04        -0.29991E+04         0.00000E+00
    0.00000E+00         0.00000E+00        -0.26899E+04
 
   -0.65502E+04         0.47736E+04         0.00000E+00
    0.47736E+04        -0.41865E+04         0.00000E+00
    0.00000E+00         0.00000E+00        -0.32210E+04
 
   -0.67513E+04         0.54259E+04         0.00000E+00
    0.54259E+04        -0.53958E+04         0.00000E+00
    0.00000E+00         0.00000E+00        -0.36441E+04
 
   -0.66923E+04         0.58603E+04         0.00000E+00
    0.58603E+04        -0.65578E+04         0.00000E+00
    0.00000E+00         0.00000E+00        -0.39750E+04
 
   -0.64741E+04         0.60976E+04         0.00000E+00
    0.60976E+04        -0.76260E+04         0.00000E+00
    0.00000E+00         0.00000E+00        -0.42300E+04
 
   -0.61739E+04         0.61714E+04         0.00000E+00
    0.61714E+04        -0.85745E+04         0.00000E+00
    0.00000E+00         0.00000E+00        -0.44245E+04
 
   -0.58468E+04         0.61186E+04         0.00000E+00
    0.61186E+04        -0.93931E+04         0.00000E+00
    0.00000E+00         0.00000E+00        -0.45720E+04
 
   -0.55299E+04         0.59749E+04         0.00000E+00
    0.59749E+04        -0.10082E+05         0.00000E+00
    0.00000E+00         0.00000E+00        -0.46836E+04
 
   -0.52468E+04         0.57719E+04         0.00000E+00
    0.57719E+04        -0.10649E+05         0.00000E+00
    0.00000E+00         0.00000E+00        -0.47687E+04
 
   -0.50112E+04         0.55370E+04         0.00000E+00
    0.55370E+04        -0.11104E+05         0.00000E+00
    0.00000E+00         0.00000E+00        -0.48346E+04
 
   -0.48303E+04         0.52930E+04         0.00000E+00
    0.52930E+04        -0.11460E+05         0.00000E+00
    0.00000E+00         0.00000E+00        -0.48870E+04
 
   -0.47064E+04         0.50596E+04         0.00000E+00
    0.50596E+04        -0.11728E+05         0.00000E+00
    0.00000E+00         0.00000E+00        -0.49303E+04
 
   -0.46387E+04         0.48537E+04         0.00000E+00
    0.48537E+04        -0.11921E+05         0.00000E+00
    0.00000E+00         0.00000E+00        -0.49678E+04
 
   -0.46239E+04         0.46908E+04         0.00000E+00
    0.46908E+04        -0.12049E+05         0.00000E+00
    0.00000E+00         0.00000E+00        -0.50019E+04
 
   -0.46571E+04         0.45855E+04         0.00000E+00
    0.45855E+04        -0.12123E+05         0.00000E+00
    0.00000E+00         0.00000E+00        -0.50339E+04
 
   -0.47313E+04         0.45526E+04         0.00000E+00
    0.45526E+04        -0.12151E+05         0.00000E+00
    0.00000E+00         0.00000E+00        -0.50648E+04
 
   -0.48375E+04         0.46078E+04         0.00000E+00
    0.46078E+04        -0.12144E+05         0.00000E+00
    0.00000E+00         0.00000E+00        -0.50946E+04
 
   -0.49639E+04         0.47682E+04         0.00000E+00
    0.47682E+04        -0.12112E+05         0.00000E+00
    0.00000E+00         0.00000E+00        -0.51227E+04
 
   -0.50950E+04         0.50535E+04         0.00000E+00
    0.50535E+04        -0.12065E+05         0.00000E+00
    0.00000E+00         0.00000E+00        -0.51479E+04
 
    0.55641E+04        -0.14254E+03         0.00000E+00
   -0.14254E+03        -0.56653E+01         0.00000E+00
    0.00000E+00         0.00000E+00         0.16675E+04
 
    0.26022E+04        -0.68971E+02         0.00000E+00
   -0.68971E+02        -0.78385E+02         0.00000E+00
    0.00000E+00         0.00000E+00         0.75714E+03
 
   -0.36790E+02         0.40077E+03         0.00000E+00
    0.40077E+03        -0.30986E+03         0.00000E+00
    0.00000E+00         0.00000E+00        -0.10399E+03
 
   -0.22207E+04         0.11409E+04         0.00000E+00
    0.11409E+04        -0.75255E+03         0.00000E+00
    0.00000E+00         0.00000E+00        -0.89198E+03
 
   -0.38936E+04         0.20109E+04         0.00000E+00
    0.20109E+04        -0.14104E+04         0.00000E+00
    0.00000E+00         0.00000E+00        -0.15912E+04
 
   -0.50685E+04         0.28855E+04         0.00000E+00
    0.28855E+04        -0.22472E+04         0.00000E+00
    0.00000E+00         0.00000E+00        -0.21947E+04
 
   -0.58070E+04         0.36727E+04         0.00000E+00
    0.36727E+04        -0.32037E+04         0.00000E+00
    0.00000E+00         0.00000E+00        -0.27032E+04
 
   -0.61949E+04         0.43186E+04         0.00000E+00
    0.43186E+04        -0.42154E+04         0.00000E+00
    0.00000E+00         0.00000E+00        -0.31231E+04
 
   -0.63224E+04         0.48018E+04         0.00000E+00
    0.48018E+04        -0.52243E+04         0.00000E+00
    0.00000E+00         0.00000E+00        -0.34640E+04
 
   -0.62714E+04         0.51251E+04         0.00000E+00
    0.51251E+04        -0.61861E+04         0.00000E+00
    0.00000E+00         0.00000E+00        -0.37373E+04
 
   -0.61096E+04         0.53057E+04         0.00000E+00
    0.53057E+04        -0.70706E+04         0.00000E+00
    0.00000E+00         0.00000E+00        -0.39541E+04
 
   -0.58895E+04         0.53682E+04         0.00000E+00
    0.53682E+04        -0.78605E+04         0.00000E+00
    0.00000E+00         0.00000E+00        -0.41250E+04
 
   -0.56493E+04         0.53395E+04         0.00000E+00
    0.53395E+04        -0.85485E+04         0.00000E+00
    0.00000E+00         0.00000E+00        -0.42593E+04
 
   -0.54154E+04         0.52459E+04         0.00000E+00
    0.52459E+04        -0.91343E+04         0.00000E+00
    0.00000E+00         0.00000E+00        -0.43649E+04
 
   -0.52050E+04         0.51114E+04         0.00000E+00
    0.51114E+04        -0.96224E+04         0.00000E+00
    0.00000E+00         0.00000E+00        -0.44482E+04
 
   -0.50283E+04         0.49578E+04         0.00000E+00
    0.49578E+04        -0.10020E+05         0.00000E+00
    0.00000E+00         0.00000E+00        -0.45145E+04
 
   -0.48905E+04         0.48042E+04         0.00000E+00
    0.48042E+04        -0.10336E+05         0.00000E+00
    0.00000E+00         0.00000E+00        -0.45678E+04
 
   -0.47926E+04         0.46677E+04         0.00000E+00
    0.46677E+04        -0.10578E+05         0.00000E+00
    0.00000E+00         0.00000E+00        -0.46113E+04
 
   -0.47324E+04         0.45643E+04         0.00000E+00
    0.45643E+04        -0.10758E+05         0.00000E+00
    0.00000E+00         0.00000E+00        -0.46471E+04
 
   -0.47055E+04         0.45089E+04         0.00000E+00
    0.45089E+04        -0.10883E+05         0.00000E+00
    0.00000E+00         0.00000E+00        -0.46766E+04
 
   -0.47044E+04         0.45162E+04         0.00000E+00
    0.45162E+04        -0.10964E+05         0.00000E+00
    0.00000E+00         0.00000E+00        -0.47005E+04
 
   -0.47193E+04         0.46017E+04         0.00000E+00
    0.46017E+04        -0.11010E+05         0.00000E+00
    0.00000E+00         0.00000E+00        -0.47188E+04
 
   -0.47367E+04         0.47816E+04         0.00000E+00
    0.47816E+04        -0.11032E+05         0.00000E+00
    0.00000E+00         0.00000E+00        -0.47306E+04
 
   -0.47391E+04         0.50735E+04         0.00000E+00
    0.50735E+04        -0.11042E+05         0.00000E+00
    0.00000E+00         0.00000E+00        -0.47344E+04
 
    0.53767E+04        -0.15836E+03         0.00000E+00
   -0.15836E+03        -0.39766E+01         0.00000E+00
    0.00000E+00         0.00000E+00         0.16118E+04
 
    0.28151E+04        -0.18495E+03         0.00000E+00
   -0.18495E+03        -0.55905E+02         0.00000E+00
    0.00000E+00         0.00000E+00         0.82777E+03
 
    0.48856E+03         0.11804E+03         0.00000E+00
    0.11804E+03        -0.22366E+03         0.00000E+00
    0.00000E+00         0.00000E+00         0.79470E+02
 
   -0.14991E+04         0.66310E+03         0.00000E+00
    0.66310E+03        -0.55078E+03         0.00000E+00
    0.00000E+00         0.00000E+00        -0.61496E+03
 
   -0.30935E+04         0.13485E+04         0.00000E+00
    0.13485E+04        -0.10488E+04         0.00000E+00
    0.00000E+00         0.00000E+00        -0.12427E+04
 
   -0.42888E+04         0.20777E+04         0.00000E+00
    0.20777E+04        -0.17001E+04         0.00000E+00
    0.00000E+00         0.00000E+00        -0.17967E+04
 
   -0.51172E+04         0.27732E+04         0.00000E+00
    0.27732E+04        -0.24673E+04         0.00000E+00
    0.00000E+00         0.00000E+00        -0.22754E+04
 
   -0.56339E+04         0.33820E+04         0.00000E+00
    0.33820E+04        -0.33043E+04         0.00000E+00
    0.00000E+00         0.00000E+00        -0.26814E+04
 
   -0.59035E+04         0.38758E+04         0.00000E+00
    0.38758E+04        -0.41654E+04         0.00000E+00
    0.00000E+00         0.00000E+00        -0.30207E+04
 
   -0.59900E+04         0.42459E+04         0.00000E+00
    0.42459E+04        -0.50117E+04         0.00000E+00
    0.00000E+00         0.00000E+00        -0.33005E+04
 
   -0.59498E+04         0.44978E+04         0.00000E+00
    0.44978E+04        -0.58135E+04         0.00000E+00
    0.00000E+00         0.00000E+00        -0.35290E+04
 
   -0.58298E+04         0.46457E+04         0.00000E+00
    0.46457E+04        -0.65506E+04         0.00000E+00
    0.00000E+00         0.00000E+00        -0.37141E+04
 
   -0.56663E+04         0.47085E+04         0.00000E+00
    0.47085E+04        -0.72112E+04         0.00000E+00
    0.00000E+00         0.00000E+00        -0.38632E+04
 
   -0.54862E+04         0.47065E+04         0.00000E+00
    0.47065E+04        -0.77899E+04         0.00000E+00
    0.00000E+00         0.00000E+00        -0.39828E+04
 
   -0.53082E+04         0.46600E+04         0.00000E+00
    0.46600E+04        -0.82864E+04         0.00000E+00
    0.00000E+00         0.00000E+00        -0.40784E+04
 
   -0.51446E+04         0.45883E+04         0.00000E+00
    0.45883E+04        -0.87038E+04         0.00000E+00
    0.00000E+00         0.00000E+00        -0.41545E+04
 
   -0.50020E+04         0.45090E+04         0.00000E+00
    0.45090E+04        -0.90474E+04         0.00000E+00
    0.00000E+00         0.00000E+00        -0.42148E+04
 
   -0.48832E+04         0.44387E+04         0.00000E+00
    0.44387E+04        -0.93238E+04         0.00000E+00
    0.00000E+00         0.00000E+00        -0.42621E+04
 
   -0.47870E+04         0.43927E+04         0.00000E+00
    0.43927E+04        -0.95406E+04         0.00000E+00
    0.00000E+00         0.00000E+00        -0.42983E+04
 
   -0.47093E+04         0.43856E+04         0.00000E+00
    0.43856E+04        -0.97061E+04         0.00000E+00
    0.00000E+00         0.00000E+00        -0.43246E+04
 
   -0.46428E+04         0.44320E+04         0.00000E+00
    0.44320E+04        -0.98293E+04         0.00000E+00
    0.00000E+00         0.00000E+00        -0.43416E+04
 
   -0.45770E+04         0.45461E+04         0.00000E+00
    0.45461E+04        -0.99199E+04         0.00000E+00
    0.00000E+00         0.00000E+00        -0.43491E+04
 
   -0.44978E+04         0.47427E+04         0.00000E+00
    0.47427E+04        -0.99891E+04         0.00000E+00
    0.00000E+00         0.00000E+00        -0.43460E+04
 
   -0.43864E+04         0.50375E+04         0.00000E+00
    0.50375E+04        -0.10050E+05         0.00000E+00
    0.00000E+00         0.00000E+00        -0.43309E+04
 
    0.51414E+04        -0.16939E+03         0.00000E+00
   -0.16939E+03        -0.26433E+01         0.00000E+00
    0.00000E+00         0.00000E+00         0.15416E+04
 
    0.29098E+04        -0.26846E+03         0.00000E+00
   -0.26846E+03        -0.39662E+02         0.00000E+00
    0.00000E+00         0.00000E+00         0.86105E+03
 
    0.85162E+03        -0.89490E+02         0.00000E+00
   -0.89490E+02        -0.16226E+03         0.00000E+00
    0.00000E+00         0.00000E+00         0.20681E+03
 
   -0.95074E+03         0.30481E+03         0.00000E+00
    0.30481E+03        -0.40624E+03         0.00000E+00
    0.00000E+00         0.00000E+00        -0.40709E+03
 
   -0.24480E+04         0.83950E+03         0.00000E+00
    0.83950E+03        -0.78576E+03         0.00000E+00
    0.00000E+00         0.00000E+00        -0.97012E+03
 
   -0.36252E+04         0.14401E+04         0.00000E+00
    0.14401E+04        -0.12939E+04         0.00000E+00
    0.00000E+00         0.00000E+00        -0.14757E+04
 
   -0.44964E+04         0.20427E+04         0.00000E+00
    0.20427E+04        -0.19078E+04         0.00000E+00
    0.00000E+00         0.00000E+00        -0.19212E+04
 
   -0.50958E+04         0.25993E+04         0.00000E+00
    0.25993E+04        -0.25951E+04         0.00000E+00
    0.00000E+00         0.00000E+00        -0.23073E+04
 
   -0.54686E+04         0.30794E+04         0.00000E+00
    0.30794E+04        -0.33212E+04         0.00000E+00
    0.00000E+00         0.00000E+00        -0.26369E+04
 
   -0.56629E+04         0.34682E+04         0.00000E+00
    0.34682E+04        -0.40537E+04         0.00000E+00
    0.00000E+00         0.00000E+00        -0.29150E+04
 
   -0.57243E+04         0.37633E+04         0.00000E+00
    0.37633E+04        -0.47657E+04         0.00000E+00
    0.00000E+00         0.00000E+00        -0.31470E+04
 
   -0.56928E+04         0.39711E+04         0.00000E+00
    0.39711E+04        -0.54368E+04         0.00000E+00
    0.00000E+00         0.00000E+00        -0.33389E+04
 
   -0.56010E+04         0.41036E+04         0.00000E+00
    0.41036E+04        -0.60532E+04         0.00000E+00
    0.00000E+00         0.00000E+00        -0.34963E+04
 
   -0.54746E+04         0.41757E+04         0.00000E+00
    0.41757E+04        -0.66065E+04         0.00000E+00
    0.00000E+00         0.00000E+00        -0.36243E+04
 
   -0.53323E+04         0.42034E+04         0.00000E+00
    0.42034E+04        -0.70932E+04         0.00000E+00
    0.00000E+00         0.00000E+00        -0.37276E+04
 
   -0.51869E+04         0.42031E+04         0.00000E+00
    0.42031E+04        -0.75131E+04         0.00000E+00
    0.00000E+00         0.00000E+00        -0.38100E+04
 
   -0.50465E+04         0.41905E+04         0.00000E+00
    0.41905E+04        -0.78688E+04         0.00000E+00
    0.00000E+00         0.00000E+00        -0.38746E+04
 
   -0.49143E+04         0.41807E+04         0.00000E+00
    0.41807E+04        -0.81647E+04         0.00000E+00
    0.00000E+00         0.00000E+00        -0.39237E+04
 
   -0.47903E+04         0.41880E+04         0.00000E+00
    0.41880E+04        -0.84066E+04         0.00000E+00
    0.00000E+00         0.00000E+00        -0.39591E+04
 
   -0.46707E+04         0.42261E+04         0.00000E+00
    0.42261E+04        -0.86017E+04         0.00000E+00
    0.00000E+00         0.00000E+00        -0.39817E+04
 
   -0.45486E+04         0.43085E+04         0.00000E+00
    0.43085E+04        -0.87581E+04         0.00000E+00
    0.00000E+00         0.00000E+00        -0.39920E+04
 
   -0.44132E+04         0.44484E+04         0.00000E+00
    0.44484E+04        -0.88852E+04         0.00000E+00
    0.00000E+00         0.00000E+00        -0.39895E+04
 
   -0.42503E+04         0.46588E+04         0.00000E+00
    0.46588E+04        -0.89942E+04         0.00000E+00
    0.00000E+00         0.00000E+00        -0.39734E+04
 
   -0.40408E+04         0.49529E+04         0.00000E+00
    0.49529E+04        -0.90981E+04         0.00000E+00
    0.00000E+00         0.00000E+00        -0.39417E+04
 
    0.48721E+04        -0.17668E+03         0.00000E+00
   -0.17668E+03        -0.15516E+01         0.00000E+00
    0.00000E+00         0.00000E+00         0.14612E+04
 
    0.29174E+04        -0.32847E+03         0.00000E+00
   -0.32847E+03        -0.27430E+02         0.00000E+00
    0.00000E+00         0.00000E+00         0.86698E+03
 
    0.10913E+04        -0.24271E+03         0.00000E+00
   -0.24271E+03        -0.11691E+03         0.00000E+00
    0.00000E+00         0.00000E+00         0.29232E+03
 
   -0.53974E+03         0.34477E+02         0.00000E+00
    0.34477E+02        -0.29946E+03         0.00000E+00
    0.00000E+00         0.00000E+00        -0.25176E+03
 
   -0.19323E+04         0.44692E+03         0.00000E+00
    0.44692E+03        -0.58957E+03         0.00000E+00
    0.00000E+00         0.00000E+00        -0.75657E+03
 
   -0.30676E+04         0.93684E+03         0.00000E+00
    0.93684E+03        -0.98645E+03         0.00000E+00
    0.00000E+00         0.00000E+00        -0.12162E+04
 
   -0.39488E+04         0.14520E+04         0.00000E+00
    0.14520E+04        -0.14765E+04         0.00000E+00
    0.00000E+00         0.00000E+00        -0.16276E+04
 
   -0.45958E+04         0.19506E+04         0.00000E+00
    0.19506E+04        -0.20378E+04         0.00000E+00
    0.00000E+00         0.00000E+00        -0.19901E+04
 
   -0.50392E+04         0.24029E+04         0.00000E+00
    0.24029E+04        -0.26445E+04         0.00000E+00
    0.00000E+00         0.00000E+00        -0.23051E+04
 
   -0.53145E+04         0.27914E+04         0.00000E+00
    0.27914E+04        -0.32706E+04         0.00000E+00
    0.00000E+00         0.00000E+00        -0.25755E+04
 
   -0.54572E+04         0.31087E+04         0.00000E+00
    0.31087E+04        -0.38930E+04         0.00000E+00
    0.00000E+00         0.00000E+00        -0.28051E+04
 
   -0.55004E+04         0.33558E+04         0.00000E+00
    0.33558E+04        -0.44927E+04         0.00000E+00
    0.00000E+00         0.00000E+00        -0.29979E+04
 
   -0.54723E+04         0.35391E+04         0.00000E+00
    0.35391E+04        -0.50555E+04         0.00000E+00
    0.00000E+00         0.00000E+00        -0.31583E+04
 
   -0.53961E+04         0.36688E+04         0.00000E+00
    0.36688E+04        -0.55717E+04         0.00000E+00
    0.00000E+00         0.00000E+00        -0.32903E+04
 
   -0.52894E+04         0.37571E+04         0.00000E+00
    0.37571E+04        -0.60357E+04         0.00000E+00
    0.00000E+00         0.00000E+00        -0.33975E+04
 
   -0.51650E+04         0.38171E+04         0.00000E+00
    0.38171E+04        -0.64452E+04         0.00000E+00
    0.00000E+00         0.00000E+00        -0.34831E+04
 
   -0.50310E+04         0.38623E+04         0.00000E+00
    0.38623E+04        -0.68006E+04         0.00000E+00
    0.00000E+00         0.00000E+00        -0.35495E+04
 
   -0.48915E+04         0.39060E+04         0.00000E+00
    0.39060E+04        -0.71044E+04         0.00000E+00
    0.00000E+00         0.00000E+00        -0.35988E+04
 
   -0.47468E+04         0.39609E+04         0.00000E+00
    0.39609E+04        -0.73610E+04         0.00000E+00
    0.00000E+00         0.00000E+00        -0.36323E+04
 
   -0.45935E+04         0.40397E+04         0.00000E+00
    0.40397E+04        -0.75763E+04         0.00000E+00
    0.00000E+00         0.00000E+00        -0.36510E+04
 
   -0.44251E+04         0.41542E+04         0.00000E+00
    0.41542E+04        -0.77576E+04         0.00000E+00
    0.00000E+00         0.00000E+00        -0.36548E+04
 
   -0.42312E+04         0.43163E+04         0.00000E+00
    0.43163E+04        -0.79137E+04         0.00000E+00
    0.00000E+00         0.00000E+00        -0.36435E+04
 
   -0.39976E+04         0.45371E+04         0.00000E+00
    0.45371E+04        -0.80552E+04         0.00000E+00
    0.00000E+00         0.00000E+00        -0.36159E+04
 
   -0.37057E+04         0.48274E+04         0.00000E+00
    0.48274E+04        -0.81949E+04         0.00000E+00
    0.00000E+00         0.00000E+00        -0.35702E+04
 
    0.45794E+04        -0.18096E+03         0.00000E+00
   -0.18096E+03        -0.63613E+00         0.00000E+00
    0.00000E+00         0.00000E+00         0.13736E+04
 
    0.28602E+04        -0.37088E+03         0.00000E+00
   -0.37088E+03        -0.17915E+02         0.00000E+00
    0.00000E+00         0.00000E+00         0.85270E+03
 
    0.12365E+04        -0.35554E+03         0.00000E+00
   -0.35554E+03        -0.82386E+02         0.00000E+00
    0.00000E+00         0.00000E+00         0.34625E+03
 
   -0.23766E+03        -0.16968E+03         0.00000E+00
   -0.16968E+03        -0.21847E+03         0.00000E+00
    0.00000E+00         0.00000E+00        -0.13684E+03
 
   -0.15245E+04         0.14390E+03         0.00000E+00
    0.14390E+03        -0.43999E+03         0.00000E+00
    0.00000E+00         0.00000E+00        -0.58934E+03
 
   -0.26038E+04         0.54001E+03         0.00000E+00
    0.54001E+03        -0.74952E+03         0.00000E+00
    0.00000E+00         0.00000E+00        -0.10060E+04
 
   -0.34725E+04         0.97622E+03         0.00000E+00
    0.97622E+03        -0.11397E+04         0.00000E+00
    0.00000E+00         0.00000E+00        -0.13837E+04
 
   -0.41408E+04         0.14166E+04         0.00000E+00
    0.14166E+04        -0.15957E+04         0.00000E+00
    0.00000E+00         0.00000E+00        -0.17210E+04
 
   -0.46288E+04         0.18339E+04         0.00000E+00
    0.18339E+04        -0.20987E+04         0.00000E+00
    0.00000E+00         0.00000E+00        -0.20183E+04
 
   -0.49617E+04         0.22098E+04         0.00000E+00
    0.22098E+04        -0.26285E+04         0.00000E+00
    0.00000E+00         0.00000E+00        -0.22771E+04
 
   -0.51669E+04         0.25343E+04         0.00000E+00
    0.25343E+04        -0.31658E+04         0.00000E+00
    0.00000E+00         0.00000E+00        -0.24998E+04
 
   -0.52706E+04         0.28046E+04         0.00000E+00
    0.28046E+04        -0.36938E+04         0.00000E+00
    0.00000E+00         0.00000E+00        -0.26893E+04
 
   -0.52966E+04         0.30230E+04         0.00000E+00
    0.30230E+04        -0.41990E+04         0.00000E+00
    0.00000E+00         0.00000E+00        -0.28487E+04
 
   -0.52650E+04         0.31958E+04         0.00000E+00
    0.31958E+04        -0.46715E+04         0.00000E+00
    0.00000E+00         0.00000E+00        -0.29809E+04
 
   -0.51918E+04         0.33318E+04         0.00000E+00
    0.33318E+04        -0.51045E+04         0.00000E+00
    0.00000E+00         0.00000E+00        -0.30889E+04
 
   -0.50888E+04         0.34411E+04         0.00000E+00
    0.34411E+04        -0.54945E+04         0.00000E+00
    0.00000E+00         0.00000E+00        -0.31750E+04
 
   -0.49640E+04         0.35349E+04         0.00000E+00
    0.35349E+04        -0.58402E+04         0.00000E+00
    0.00000E+00         0.00000E+00        -0.32413E+04
 
   -0.48215E+04         0.36243E+04         0.00000E+00
    0.36243E+04        -0.61430E+04         0.00000E+00
    0.00000E+00         0.00000E+00        -0.32893E+04
 
   -0.46618E+04         0.37205E+04         0.00000E+00
    0.37205E+04        -0.64058E+04         0.00000E+00
    0.00000E+00         0.00000E+00        -0.33203E+04
 
   -0.44822E+04         0.38345E+04         0.00000E+00
    0.38345E+04        -0.66334E+04         0.00000E+00
    0.00000E+00         0.00000E+00        -0.33347E+04
 
   -0.42763E+04         0.39766E+04         0.00000E+00
    0.39766E+04        -0.68322E+04         0.00000E+00
    0.00000E+00         0.00000E+00        -0.33326E+04
 
   -0.40344E+04         0.41569E+04         0.00000E+00
    0.41569E+04        -0.70103E+04         0.00000E+00
    0.00000E+00         0.00000E+00        -0.33134E+04
 
   -0.37428E+04         0.43847E+04         0.00000E+00
    0.43847E+04        -0.71775E+04         0.00000E+00
    0.00000E+00         0.00000E+00        -0.32761E+04
 
   -0.33839E+04         0.46684E+04         0.00000E+00
    0.46684E+04        -0.73459E+04         0.00000E+00
    0.00000E+00         0.00000E+00        -0.32189E+04
 
    0.42713E+04        -0.18275E+03         0.00000E+00
   -0.18275E+03         0.14148E+00         0.00000E+00
    0.00000E+00         0.00000E+00         0.12814E+04
 
    0.27552E+04        -0.39971E+03         0.00000E+00
   -0.39971E+03        -0.10335E+02         0.00000E+00
    0.00000E+00         0.00000E+00         0.82345E+03
 
    0.13092E+04        -0.43760E+03         0.00000E+00
   -0.43760E+03        -0.55472E+02         0.00000E+00
    0.00000E+00         0.00000E+00         0.37611E+03
 
   -0.22012E+02        -0.32311E+03         0.00000E+00
   -0.32311E+03        -0.15570E+03         0.00000E+00
    0.00000E+00         0.00000E+00        -0.53314E+02
 
   -0.12054E+04        -0.89323E+02         0.00000E+00
   -0.89323E+02        -0.32379E+03         0.00000E+00
    0.00000E+00         0.00000E+00        -0.45876E+03
 
   -0.22212E+04         0.22808E+03         0.00000E+00
    0.22808E+03        -0.56412E+03         0.00000E+00
    0.00000E+00         0.00000E+00        -0.83558E+03
 
   -0.30623E+04         0.59459E+03         0.00000E+00
    0.59459E+03        -0.87330E+03         0.00000E+00
    0.00000E+00         0.00000E+00        -0.11807E+04
 
   -0.37327E+04         0.97979E+03         0.00000E+00
    0.97979E+03        -0.12418E+04         0.00000E+00
    0.00000E+00         0.00000E+00        -0.14923E+04
 
   -0.42448E+04         0.13592E+04         0.00000E+00
    0.13592E+04        -0.16559E+04         0.00000E+00
    0.00000E+00         0.00000E+00        -0.17702E+04
 
   -0.46161E+04         0.17152E+04         0.00000E+00
    0.17152E+04        -0.21003E+04         0.00000E+00
    0.00000E+00         0.00000E+00        -0.20149E+04
 
   -0.48668E+04         0.20364E+04         0.00000E+00
    0.20364E+04        -0.25592E+04         0.00000E+00
    0.00000E+00         0.00000E+00        -0.22278E+04
 
   -0.50176E+04         0.23178E+04         0.00000E+00
    0.23178E+04        -0.30184E+04         0.00000E+00
    0.00000E+00         0.00000E+00        -0.24108E+04
 
   -0.50878E+04         0.25586E+04         0.00000E+00
    0.25586E+04        -0.34657E+04         0.00000E+00
    0.00000E+00         0.00000E+00        -0.25660E+04
 
   -0.50942E+04         0.27623E+04         0.00000E+00
    0.27623E+04        -0.38915E+04         0.00000E+00
    0.00000E+00         0.00000E+00        -0.26957E+04
 
   -0.50508E+04         0.29345E+04         0.00000E+00
    0.29345E+04        -0.42889E+04         0.00000E+00
    0.00000E+00         0.00000E+00        -0.28019E+04
 
   -0.49683E+04         0.30829E+04         0.00000E+00
    0.30829E+04        -0.46534E+04         0.00000E+00
    0.00000E+00         0.00000E+00        -0.28865E+04
 
   -0.48538E+04         0.32162E+04         0.00000E+00
    0.32162E+04        -0.49831E+04         0.00000E+00
    0.00000E+00         0.00000E+00        -0.29511E+04
 
   -0.47113E+04         0.33435E+04         0.00000E+00
    0.33435E+04        -0.52781E+04         0.00000E+00
    0.00000E+00         0.00000E+00        -0.29968E+04
 
   -0.45416E+04         0.34742E+04         0.00000E+00
    0.34742E+04        -0.55404E+04         0.00000E+00
    0.00000E+00         0.00000E+00        -0.30246E+04
 
   -0.43420E+04         0.36176E+04         0.00000E+00
    0.36176E+04        -0.57738E+04         0.00000E+00
    0.00000E+00         0.00000E+00        -0.30347E+04
 
   -0.41067E+04         0.37823E+04         0.00000E+00
    0.37823E+04        -0.59838E+04         0.00000E+00
    0.00000E+00         0.00000E+00        -0.30271E+04
 
   -0.38266E+04         0.39767E+04         0.00000E+00
    0.39767E+04        -0.61775E+04         0.00000E+00
    0.00000E+00         0.00000E+00        -0.30012E+04
 
   -0.34891E+04         0.42082E+04         0.00000E+00
    0.42082E+04        -0.63642E+04         0.00000E+00
    0.00000E+00         0.00000E+00        -0.29560E+04
 
   -0.30776E+04         0.44828E+04         0.00000E+00
    0.44828E+04        -0.65547E+04         0.00000E+00
    0.00000E+00         0.00000E+00        -0.28897E+04
 
    0.39544E+04        -0.18246E+03         0.00000E+00
   -0.18246E+03         0.80479E+00         0.00000E+00
    0.00000E+00         0.00000E+00         0.11866E+04
 
    0.26149E+04        -0.41783E+03         0.00000E+00
   -0.41783E+03        -0.41974E+01         0.00000E+00
    0.00000E+00         0.00000E+00         0.78322E+03
 
    0.13260E+04        -0.49573E+03         0.00000E+00
   -0.49573E+03        -0.34114E+02         0.00000E+00
    0.00000E+00         0.00000E+00         0.38757E+03
 
    0.12502E+03        -0.43697E+03         0.00000E+00
   -0.43697E+03        -0.10623E+03         0.00000E+00
    0.00000E+00         0.00000E+00         0.56367E+01
 
   -0.95923E+03        -0.26749E+03         0.00000E+00
   -0.26749E+03        -0.23215E+03         0.00000E+00
    0.00000E+00         0.00000E+00        -0.35742E+03
 
   -0.19078E+04        -0.15700E+02         0.00000E+00
   -0.15700E+02        -0.41717E+03         0.00000E+00
    0.00000E+00         0.00000E+00        -0.69749E+03
 
   -0.27116E+04         0.29026E+03         0.00000E+00
    0.29026E+03        -0.66047E+03         0.00000E+00
    0.00000E+00         0.00000E+00        -0.10116E+04
 
   -0.33703E+04         0.62478E+03         0.00000E+00
    0.62478E+03        -0.95616E+03         0.00000E+00
    0.00000E+00         0.00000E+00        -0.12979E+04
 
   -0.38908E+04         0.96633E+03         0.00000E+00
    0.96633E+03        -0.12947E+04         0.00000E+00
    0.00000E+00         0.00000E+00        -0.15556E+04
 
   -0.42847E+04         0.12984E+04         0.00000E+00
    0.12984E+04        -0.16643E+04         0.00000E+00
    0.00000E+00         0.00000E+00        -0.17847E+04
 
   -0.45667E+04         0.16095E+04         0.00000E+00
    0.16095E+04        -0.20527E+04         0.00000E+00
    0.00000E+00         0.00000E+00        -0.19858E+04
 
   -0.47524E+04         0.18930E+04         0.00000E+00
    0.18930E+04        -0.24479E+04         0.00000E+00
    0.00000E+00         0.00000E+00        -0.21601E+04
 
   -0.48571E+04         0.21465E+04         0.00000E+00
    0.21465E+04        -0.28393E+04         0.00000E+00
    0.00000E+00         0.00000E+00        -0.23089E+04
 
   -0.48947E+04         0.23707E+04         0.00000E+00
    0.23707E+04        -0.32182E+04         0.00000E+00
    0.00000E+00         0.00000E+00        -0.24339E+04
 
   -0.48768E+04         0.25693E+04         0.00000E+00
    0.25693E+04        -0.35779E+04         0.00000E+00
    0.00000E+00         0.00000E+00        -0.25364E+04
 
   -0.48127E+04         0.27475E+04         0.00000E+00
    0.27475E+04        -0.39137E+04         0.00000E+00
    0.00000E+00         0.00000E+00        -0.26179E+04
 
   -0.47087E+04         0.29117E+04         0.00000E+00
    0.29117E+04        -0.42231E+04         0.00000E+00
    0.00000E+00         0.00000E+00        -0.26795E+04
 
   -0.45684E+04         0.30694E+04         0.00000E+00
    0.30694E+04        -0.45055E+04         0.00000E+00
    0.00000E+00         0.00000E+00        -0.27222E+04
 
   -0.43924E+04         0.32279E+04         0.00000E+00
    0.32279E+04        -0.47622E+04         0.00000E+00
    0.00000E+00         0.00000E+00        -0.27464E+04
 
   -0.41782E+04         0.33948E+04         0.00000E+00
    0.33948E+04        -0.49961E+04         0.00000E+00
    0.00000E+00         0.00000E+00        -0.27523E+04
 
   -0.39208E+04         0.35772E+04         0.00000E+00
    0.35772E+04        -0.52119E+04         0.00000E+00
    0.00000E+00         0.00000E+00        -0.27398E+04
 
   -0.36116E+04         0.37817E+04         0.00000E+00
    0.37817E+04        -0.54160E+04         0.00000E+00
    0.00000E+00         0.00000E+00        -0.27083E+04
 
   -0.32390E+04         0.40136E+04         0.00000E+00
    0.40136E+04        -0.56164E+04         0.00000E+00
    0.00000E+00         0.00000E+00        -0.26566E+04
 
   -0.27882E+04         0.42772E+04         0.00000E+00
    0.42772E+04        -0.58231E+04         0.00000E+00
    0.00000E+00         0.00000E+00        -0.25834E+04
 
    0.36337E+04        -0.18041E+03         0.00000E+00
   -0.18041E+03         0.13691E+01         0.00000E+00
    0.00000E+00         0.00000E+00         0.10905E+04
 
    0.24494E+04        -0.42739E+03         0.00000E+00
   -0.42739E+03         0.81650E+00         0.00000E+00
    0.00000E+00         0.00000E+00         0.73506E+03
 
    0.13001E+04        -0.53497E+03         0.00000E+00
   -0.53497E+03        -0.16960E+02         0.00000E+00
    0.00000E+00         0.00000E+00         0.38495E+03
 
    0.21766E+03        -0.51957E+03         0.00000E+00
   -0.51957E+03        -0.66745E+02         0.00000E+00
    0.00000E+00         0.00000E+00         0.45275E+02
 
   -0.77268E+03        -0.40179E+03         0.00000E+00
   -0.40179E+03        -0.15905E+03         0.00000E+00
    0.00000E+00         0.00000E+00        -0.27952E+03
 
   -0.16531E+04        -0.20442E+03         0.00000E+00
   -0.20442E+03        -0.29952E+03         0.00000E+00
    0.00000E+00         0.00000E+00        -0.58579E+03
 
   -0.24135E+04         0.49506E+02         0.00000E+00
    0.49506E+02        -0.48902E+03         0.00000E+00
    0.00000E+00         0.00000E+00        -0.87076E+03
 
   -0.30508E+04         0.33846E+03         0.00000E+00
    0.33846E+03        -0.72424E+03         0.00000E+00
    0.00000E+00         0.00000E+00        -0.11325E+04
 
   -0.35679E+04         0.64372E+03         0.00000E+00
    0.64372E+03        -0.99862E+03         0.00000E+00
    0.00000E+00         0.00000E+00        -0.13699E+04
 
   -0.39719E+04         0.95022E+03         0.00000E+00
    0.95022E+03        -0.13035E+04         0.00000E+00
    0.00000E+00         0.00000E+00        -0.15826E+04
 
   -0.42732E+04         0.12468E+04         0.00000E+00
    0.12468E+04        -0.16293E+04         0.00000E+00
    0.00000E+00         0.00000E+00        -0.17707E+04
 
   -0.44832E+04         0.15262E+04         0.00000E+00
    0.15262E+04        -0.19662E+04         0.00000E+00
    0.00000E+00         0.00000E+00        -0.19348E+04
 
   -0.46136E+04         0.17847E+04         0.00000E+00
    0.17847E+04        -0.23054E+04         0.00000E+00
    0.00000E+00         0.00000E+00        -0.20757E+04
 
   -0.46756E+04         0.20213E+04         0.00000E+00
    0.20213E+04        -0.26390E+04         0.00000E+00
    0.00000E+00         0.00000E+00        -0.21944E+04
 
   -0.46787E+04         0.22379E+04         0.00000E+00
    0.22379E+04        -0.29608E+04         0.00000E+00
    0.00000E+00         0.00000E+00        -0.22919E+04
 
   -0.46305E+04         0.24376E+04         0.00000E+00
    0.24376E+04        -0.32664E+04         0.00000E+00
    0.00000E+00         0.00000E+00        -0.23691E+04
 
   -0.45365E+04         0.26252E+04         0.00000E+00
    0.26252E+04        -0.35531E+04         0.00000E+00
    0.00000E+00         0.00000E+00        -0.24269E+04
 
   -0.43996E+04         0.28061E+04         0.00000E+00
    0.28061E+04        -0.38198E+04         0.00000E+00
    0.00000E+00         0.00000E+00        -0.24658E+04
 
   -0.42202E+04         0.29861E+04         0.00000E+00
    0.29861E+04        -0.40672E+04         0.00000E+00
    0.00000E+00         0.00000E+00        -0.24862E+04
 
   -0.39963E+04         0.31710E+04         0.00000E+00
    0.31710E+04        -0.42975E+04         0.00000E+00
    0.00000E+00         0.00000E+00        -0.24882E+04
 
   -0.37230E+04         0.33663E+04         0.00000E+00
    0.33663E+04        -0.45149E+04         0.00000E+00
    0.00000E+00         0.00000E+00        -0.24714E+04
 
   -0.33927E+04         0.35769E+04         0.00000E+00
    0.35769E+04        -0.47246E+04         0.00000E+00
    0.00000E+00         0.00000E+00        -0.24352E+04
 
   -0.29951E+04         0.38065E+04         0.00000E+00
    0.38065E+04        -0.49338E+04         0.00000E+00
    0.00000E+00         0.00000E+00        -0.23787E+04
 
   -0.25169E+04         0.40576E+04         0.00000E+00
    0.40576E+04        -0.51514E+04         0.00000E+00
    0.00000E+00         0.00000E+00        -0.23005E+04
 
    0.33135E+04        -0.17690E+03         0.00000E+00
   -0.17690E+03         0.18453E+01         0.00000E+00
    0.00000E+00         0.00000E+00         0.99460E+03
 
    0.22663E+04        -0.43004E+03         0.00000E+00
   -0.43004E+03         0.49241E+01         0.00000E+00
    0.00000E+00         0.00000E+00         0.68137E+03
 
    0.12418E+04        -0.55911E+03         0.00000E+00
   -0.55911E+03        -0.30894E+01         0.00000E+00
    0.00000E+00         0.00000E+00         0.37162E+03
 
    0.26735E+03        -0.57722E+03         0.00000E+00
   -0.57722E+03        -0.34987E+02         0.00000E+00
    0.00000E+00         0.00000E+00         0.69708E+02
 
   -0.63472E+03        -0.50085E+03         0.00000E+00
   -0.50085E+03        -0.10027E+03         0.00000E+00
    0.00000E+00         0.00000E+00        -0.22049E+03
 
   -0.14478E+04        -0.34842E+03         0.00000E+00
   -0.34842E+03        -0.20465E+03         0.00000E+00
    0.00000E+00         0.00000E+00        -0.49574E+03
 
   -0.21614E+04        -0.13888E+03         0.00000E+00
   -0.13888E+03        -0.35008E+03         0.00000E+00
    0.00000E+00         0.00000E+00        -0.75344E+03
 
   -0.27706E+04         0.10970E+03         0.00000E+00
    0.10970E+03        -0.53505E+03         0.00000E+00
    0.00000E+00         0.00000E+00        -0.99169E+03
 
   -0.32755E+04         0.38113E+03         0.00000E+00
    0.38113E+03        -0.75526E+03         0.00000E+00
    0.00000E+00         0.00000E+00        -0.12092E+04
 
   -0.36800E+04         0.66190E+03         0.00000E+00
    0.66190E+03        -0.10045E+04         0.00000E+00
    0.00000E+00         0.00000E+00        -0.14053E+04
 
   -0.39907E+04         0.94147E+03         0.00000E+00
    0.94147E+03        -0.12753E+04         0.00000E+00
    0.00000E+00         0.00000E+00        -0.15798E+04
 
   -0.42160E+04         0.12124E+04         0.00000E+00
    0.12124E+04        -0.15600E+04         0.00000E+00
    0.00000E+00         0.00000E+00        -0.17328E+04
 
   -0.43644E+04         0.14702E+04         0.00000E+00
    0.14702E+04        -0.18512E+04         0.00000E+00
    0.00000E+00         0.00000E+00        -0.18647E+04
 
   -0.44447E+04         0.17127E+04         0.00000E+00
    0.17127E+04        -0.21422E+04         0.00000E+00
    0.00000E+00         0.00000E+00        -0.19761E+04
 
   -0.44642E+04         0.19403E+04         0.00000E+00
    0.19403E+04        -0.24275E+04         0.00000E+00
    0.00000E+00         0.00000E+00        -0.20675E+04
 
   -0.44293E+04         0.21546E+04         0.00000E+00
    0.21546E+04        -0.27029E+04         0.00000E+00
    0.00000E+00         0.00000E+00        -0.21396E+04
 
   -0.43441E+04         0.23587E+04         0.00000E+00
    0.23587E+04        -0.29657E+04         0.00000E+00
    0.00000E+00         0.00000E+00        -0.21930E+04
 
   -0.42113E+04         0.25564E+04         0.00000E+00
    0.25564E+04        -0.32148E+04         0.00000E+00
    0.00000E+00         0.00000E+00        -0.22278E+04
 
   -0.40310E+04         0.27520E+04         0.00000E+00
    0.27520E+04        -0.34504E+04         0.00000E+00
    0.00000E+00         0.00000E+00        -0.22444E+04
 
   -0.38011E+04         0.29497E+04         0.00000E+00
    0.29497E+04        -0.36742E+04         0.00000E+00
    0.00000E+00         0.00000E+00        -0.22426E+04
 
   -0.35175E+04         0.31535E+04         0.00000E+00
    0.31535E+04        -0.38895E+04         0.00000E+00
    0.00000E+00         0.00000E+00        -0.22221E+04
 
   -0.31733E+04         0.33667E+04         0.00000E+00
    0.33667E+04        -0.41011E+04         0.00000E+00
    0.00000E+00         0.00000E+00        -0.21823E+04
 
   -0.27594E+04         0.35916E+04         0.00000E+00
    0.35916E+04        -0.43150E+04         0.00000E+00
    0.00000E+00         0.00000E+00        -0.21223E+04
 
   -0.22642E+04         0.38289E+04         0.00000E+00
    0.38289E+04        -0.45388E+04         0.00000E+00
    0.00000E+00         0.00000E+00        -0.20409E+04
 
    0.29973E+04        -0.17217E+03         0.00000E+00
   -0.17217E+03         0.22415E+01         0.00000E+00
    0.00000E+00         0.00000E+00         0.89987E+03
 
    0.20719E+04        -0.42709E+03         0.00000E+00
   -0.42709E+03         0.82788E+01         0.00000E+00
    0.00000E+00         0.00000E+00         0.62406E+03
 
    0.11593E+04        -0.57112E+03         0.00000E+00
   -0.57112E+03         0.81422E+01         0.00000E+00
    0.00000E+00         0.00000E+00         0.35024E+03
 
    0.28331E+03        -0.61481E+03         0.00000E+00
   -0.61481E+03        -0.93509E+01         0.00000E+00
    0.00000E+00         0.00000E+00         0.82186E+02
 
   -0.53620E+03        -0.57142E+03         0.00000E+00
   -0.57142E+03        -0.52802E+02         0.00000E+00
    0.00000E+00         0.00000E+00        -0.17670E+03
 
   -0.12838E+04        -0.45597E+03         0.00000E+00
   -0.45597E+03        -0.12785E+03         0.00000E+00
    0.00000E+00         0.00000E+00        -0.42350E+03
 
   -0.19490E+04        -0.28405E+03         0.00000E+00
   -0.28405E+03        -0.23709E+03         0.00000E+00
    0.00000E+00         0.00000E+00        -0.65583E+03
 
   -0.25257E+04        -0.70892E+02         0.00000E+00
   -0.70892E+02        -0.38029E+03         0.00000E+00
    0.00000E+00         0.00000E+00        -0.87181E+03
 
   -0.30121E+04         0.16958E+03         0.00000E+00
    0.16958E+03        -0.55488E+03         0.00000E+00
    0.00000E+00         0.00000E+00        -0.10701E+04
 
   -0.34096E+04         0.42536E+03         0.00000E+00
    0.42536E+03        -0.75646E+03         0.00000E+00
    0.00000E+00         0.00000E+00        -0.12498E+04
 
   -0.37221E+04         0.68669E+03         0.00000E+00
    0.68669E+03        -0.97951E+03         0.00000E+00
    0.00000E+00         0.00000E+00        -0.14105E+04
 
   -0.39551E+04         0.94628E+03         0.00000E+00
    0.94628E+03        -0.12180E+04         0.00000E+00
    0.00000E+00         0.00000E+00        -0.15519E+04
 
   -0.41149E+04         0.11992E+04         0.00000E+00
    0.11992E+04        -0.14659E+04         0.00000E+00
    0.00000E+00         0.00000E+00        -0.16742E+04
 
   -0.42078E+04         0.14425E+04         0.00000E+00
    0.14425E+04        -0.17176E+04         0.00000E+00
    0.00000E+00         0.00000E+00        -0.17776E+04
 
   -0.42397E+04         0.16755E+04         0.00000E+00
    0.16755E+04        -0.19684E+04         0.00000E+00
    0.00000E+00         0.00000E+00        -0.18624E+04
 
   -0.42152E+04         0.18985E+04         0.00000E+00
    0.18985E+04        -0.22146E+04         0.00000E+00
    0.00000E+00         0.00000E+00        -0.19289E+04
 
   -0.41379E+04         0.21132E+04         0.00000E+00
    0.21132E+04        -0.24536E+04         0.00000E+00
    0.00000E+00         0.00000E+00        -0.19774E+04
 
   -0.40094E+04         0.23222E+04         0.00000E+00
    0.23222E+04        -0.26842E+04         0.00000E+00
    0.00000E+00         0.00000E+00        -0.20081E+04
 
   -0.38299E+04         0.25281E+04         0.00000E+00
    0.25281E+04        -0.29063E+04         0.00000E+00
    0.00000E+00         0.00000E+00        -0.20209E+04
 
   -0.35974E+04         0.27339E+04         0.00000E+00
    0.27339E+04        -0.31214E+04         0.00000E+00
    0.00000E+00         0.00000E+00        -0.20156E+04
 
   -0.33081E+04         0.29422E+04         0.00000E+00
    0.29422E+04        -0.33321E+04         0.00000E+00
    0.00000E+00         0.00000E+00        -0.19920E+04
 
   -0.29561E+04         0.31549E+04         0.00000E+00
    0.31549E+04        -0.35423E+04         0.00000E+00
    0.00000E+00         0.00000E+00        -0.19495E+04
 
   -0.25335E+04         0.33729E+04         0.00000E+00
    0.33729E+04        -0.37573E+04         0.00000E+00
    0.00000E+00         0.00000E+00        -0.18872E+04
 
   -0.20303E+04         0.35958E+04         0.00000E+00
    0.35958E+04        -0.39834E+04         0.00000E+00
    0.00000E+00         0.00000E+00        -0.18041E+04
 
    0.26880E+04        -0.16644E+03         0.00000E+00
   -0.16644E+03         0.25647E+01         0.00000E+00
    0.00000E+00         0.00000E+00         0.80716E+03
 
    0.18712E+04        -0.41960E+03         0.00000E+00
   -0.41960E+03         0.10994E+02         0.00000E+00
    0.00000E+00         0.00000E+00         0.56465E+03
 
    0.10592E+04        -0.57336E+03         0.00000E+00
   -0.57336E+03         0.17205E+02         0.00000E+00
    0.00000E+00         0.00000E+00         0.32293E+03
 
    0.27303E+03        -0.63621E+03         0.00000E+00
   -0.63621E+03         0.11327E+02         0.00000E+00
    0.00000E+00         0.00000E+00         0.85308E+02
 
   -0.46955E+03        -0.61891E+03         0.00000E+00
   -0.61891E+03        -0.14456E+02         0.00000E+00
    0.00000E+00         0.00000E+00        -0.14520E+03
 
   -0.11543E+04        -0.53371E+03         0.00000E+00
   -0.53371E+03        -0.65595E+02         0.00000E+00
    0.00000E+00         0.00000E+00        -0.36596E+03
 
   -0.17708E+04        -0.39355E+03         0.00000E+00
   -0.39355E+03        -0.14509E+03         0.00000E+00
    0.00000E+00         0.00000E+00        -0.57476E+03
 
   -0.23124E+04        -0.21123E+03         0.00000E+00
   -0.21123E+03        -0.25363E+03         0.00000E+00
    0.00000E+00         0.00000E+00        -0.76980E+03
 
   -0.27758E+04         0.12645E+01         0.00000E+00
    0.12645E+01        -0.38988E+03         0.00000E+00
    0.00000E+00         0.00000E+00        -0.94970E+03
 
   -0.31607E+04         0.23333E+03         0.00000E+00
    0.23333E+03        -0.55091E+03         0.00000E+00
    0.00000E+00         0.00000E+00        -0.11135E+04
 
   -0.34688E+04         0.47609E+03         0.00000E+00
    0.47609E+03        -0.73271E+03         0.00000E+00
    0.00000E+00         0.00000E+00        -0.12604E+04
 
   -0.37035E+04         0.72252E+03         0.00000E+00
    0.72252E+03        -0.93065E+03         0.00000E+00
    0.00000E+00         0.00000E+00        -0.13903E+04
 
   -0.38691E+04         0.96753E+03         0.00000E+00
    0.96753E+03        -0.11400E+04         0.00000E+00
    0.00000E+00         0.00000E+00        -0.15027E+04
 
   -0.39700E+04         0.12078E+04         0.00000E+00
    0.12078E+04        -0.13561E+04         0.00000E+00
    0.00000E+00         0.00000E+00        -0.15978E+04
 
   -0.40104E+04         0.14416E+04         0.00000E+00
    0.14416E+04        -0.15750E+04         0.00000E+00
    0.00000E+00         0.00000E+00        -0.16756E+04
 
   -0.39939E+04         0.16684E+04         0.00000E+00
    0.16684E+04        -0.17935E+04         0.00000E+00
    0.00000E+00         0.00000E+00        -0.17362E+04
 
   -0.39230E+04         0.18888E+04         0.00000E+00
    0.18888E+04        -0.20094E+04         0.00000E+00
    0.00000E+00         0.00000E+00        -0.17797E+04
 
   -0.37989E+04         0.21041E+04         0.00000E+00
    0.21041E+04        -0.22213E+04         0.00000E+00
    0.00000E+00         0.00000E+00        -0.18061E+04
 
   -0.36216E+04         0.23158E+04         0.00000E+00
    0.23158E+04        -0.24292E+04         0.00000E+00
    0.00000E+00         0.00000E+00        -0.18152E+04
 
   -0.33891E+04         0.25256E+04         0.00000E+00
    0.25256E+04        -0.26341E+04         0.00000E+00
    0.00000E+00         0.00000E+00        -0.18069E+04
 
   -0.30981E+04         0.27349E+04         0.00000E+00
    0.27349E+04        -0.28381E+04         0.00000E+00
    0.00000E+00         0.00000E+00        -0.17808E+04
 
   -0.27435E+04         0.29444E+04         0.00000E+00
    0.29444E+04        -0.30445E+04         0.00000E+00
    0.00000E+00         0.00000E+00        -0.17364E+04
 
   -0.23186E+04         0.31539E+04         0.00000E+00
    0.31539E+04        -0.32576E+04         0.00000E+00
    0.00000E+00         0.00000E+00        -0.16729E+04
 
   -0.18150E+04         0.33619E+04         0.00000E+00
    0.33619E+04        -0.34827E+04         0.00000E+00
    0.00000E+00         0.00000E+00        -0.15893E+04
 
    0.23877E+04        -0.15989E+03         0.00000E+00
   -0.15989E+03         0.28210E+01         0.00000E+00
    0.00000E+00         0.00000E+00         0.71716E+03
 
    0.16681E+04        -0.40846E+03         0.00000E+00
   -0.40846E+03         0.13158E+02         0.00000E+00
    0.00000E+00         0.00000E+00         0.50437E+03
 
    0.94685E+03        -0.56773E+03         0.00000E+00
   -0.56773E+03         0.24453E+02         0.00000E+00
    0.00000E+00         0.00000E+00         0.29139E+03
 
    0.24264E+03        -0.64455E+03         0.00000E+00
   -0.64455E+03         0.27920E+02         0.00000E+00
    0.00000E+00         0.00000E+00         0.81167E+02
 
   -0.42847E+03        -0.64765E+03         0.00000E+00
   -0.64765E+03         0.16430E+02         0.00000E+00
    0.00000E+00         0.00000E+00        -0.12361E+03
 
   -0.10533E+04        -0.58708E+03         0.00000E+00
   -0.58708E+03        -0.15238E+02         0.00000E+00
    0.00000E+00         0.00000E+00        -0.32056E+03
 
   -0.16218E+04        -0.47360E+03         0.00000E+00
   -0.47360E+03        -0.70316E+02         0.00000E+00
    0.00000E+00         0.00000E+00        -0.50763E+03
 
   -0.21268E+04        -0.31800E+03         0.00000E+00
   -0.31800E+03        -0.15012E+03         0.00000E+00
    0.00000E+00         0.00000E+00        -0.68309E+03
 
   -0.25643E+04        -0.13057E+03         0.00000E+00
   -0.13057E+03        -0.25424E+03         0.00000E+00
    0.00000E+00         0.00000E+00        -0.84558E+03
 
   -0.29325E+04         0.79361E+02         0.00000E+00
    0.79361E+02        -0.38092E+03         0.00000E+00
    0.00000E+00         0.00000E+00        -0.99403E+03
 
   -0.32316E+04         0.30376E+03         0.00000E+00
    0.30376E+03        -0.52732E+03         0.00000E+00
    0.00000E+00         0.00000E+00        -0.11277E+04
 
   -0.34632E+04         0.53602E+03         0.00000E+00
    0.53602E+03        -0.69001E+03         0.00000E+00
    0.00000E+00         0.00000E+00        -0.12460E+04
 
   -0.36300E+04         0.77108E+03         0.00000E+00
    0.77108E+03        -0.86529E+03         0.00000E+00
    0.00000E+00         0.00000E+00        -0.13486E+04
 
   -0.37348E+04         0.10053E+04         0.00000E+00
    0.10053E+04        -0.10495E+04         0.00000E+00
    0.00000E+00         0.00000E+00        -0.14353E+04
 
   -0.37806E+04         0.12364E+04         0.00000E+00
    0.12364E+04        -0.12394E+04         0.00000E+00
    0.00000E+00         0.00000E+00        -0.15060E+04
 
   -0.37698E+04         0.14630E+04         0.00000E+00
    0.14630E+04        -0.14323E+04         0.00000E+00
    0.00000E+00         0.00000E+00        -0.15606E+04
 
   -0.37041E+04         0.16850E+04         0.00000E+00
    0.16850E+04        -0.16261E+04         0.00000E+00
    0.00000E+00         0.00000E+00        -0.15991E+04
 
   -0.35844E+04         0.19025E+04         0.00000E+00
    0.19025E+04        -0.18198E+04         0.00000E+00
    0.00000E+00         0.00000E+00        -0.16212E+04
 
   -0.34101E+04         0.21161E+04         0.00000E+00
    0.21161E+04        -0.20131E+04         0.00000E+00
    0.00000E+00         0.00000E+00        -0.16270E+04
 
   -0.31798E+04         0.23264E+04         0.00000E+00
    0.23264E+04        -0.22069E+04         0.00000E+00
    0.00000E+00         0.00000E+00        -0.16160E+04
 
   -0.28904E+04         0.25337E+04         0.00000E+00
    0.25337E+04        -0.24027E+04         0.00000E+00
    0.00000E+00         0.00000E+00        -0.15879E+04
 
   -0.25376E+04         0.27378E+04         0.00000E+00
    0.27378E+04        -0.26033E+04         0.00000E+00
    0.00000E+00         0.00000E+00        -0.15423E+04
 
   -0.21157E+04         0.29375E+04         0.00000E+00
    0.29375E+04        -0.28123E+04         0.00000E+00
    0.00000E+00         0.00000E+00        -0.14784E+04
 
   -0.16180E+04         0.31304E+04         0.00000E+00
    0.31304E+04        -0.30338E+04         0.00000E+00
    0.00000E+00         0.00000E+00        -0.13955E+04
 
    0.20984E+04        -0.15272E+03         0.00000E+00
   -0.15272E+03         0.30163E+01         0.00000E+00
    0.00000E+00         0.00000E+00         0.63043E+03
 
    0.14658E+04        -0.39444E+03         0.00000E+00
   -0.39444E+03         0.14843E+02         0.00000E+00
    0.00000E+00         0.00000E+00         0.44419E+03
 
    0.82649E+03        -0.55582E+03         0.00000E+00
   -0.55582E+03         0.30164E+02         0.00000E+00
    0.00000E+00         0.00000E+00         0.25700E+03
 
    0.19711E+03        -0.64238E+03         0.00000E+00
   -0.64238E+03         0.41102E+02         0.00000E+00
    0.00000E+00         0.00000E+00         0.71464E+02
 
   -0.40776E+03        -0.66119E+03         0.00000E+00
   -0.66119E+03         0.41131E+02         0.00000E+00
    0.00000E+00         0.00000E+00        -0.10999E+03
 
   -0.97590E+03        -0.62055E+03         0.00000E+00
   -0.62055E+03         0.25281E+02         0.00000E+00
    0.00000E+00         0.00000E+00        -0.28518E+03
 
   -0.14976E+04        -0.52940E+03         0.00000E+00
   -0.52940E+03        -0.97911E+01         0.00000E+00
    0.00000E+00         0.00000E+00        -0.45222E+03
 
   -0.19658E+04        -0.39685E+03         0.00000E+00
   -0.39685E+03        -0.65834E+02         0.00000E+00
    0.00000E+00         0.00000E+00        -0.60948E+03
 
   -0.23755E+04        -0.23174E+03         0.00000E+00
   -0.23174E+03        -0.14315E+03         0.00000E+00
    0.00000E+00         0.00000E+00        -0.75560E+03
 
   -0.27241E+04        -0.42255E+02         0.00000E+00
   -0.42255E+02        -0.24084E+03         0.00000E+00
    0.00000E+00         0.00000E+00        -0.88949E+03
 
   -0.30107E+04         0.16437E+03         0.00000E+00
    0.16437E+03        -0.35704E+03         0.00000E+00
    0.00000E+00         0.00000E+00        -0.10103E+04
 
   -0.32355E+04         0.38201E+03         0.00000E+00
    0.38201E+03        -0.48931E+03         0.00000E+00
    0.00000E+00         0.00000E+00        -0.11174E+04
 
   -0.33998E+04         0.60572E+03         0.00000E+00
    0.60572E+03        -0.63484E+03         0.00000E+00
    0.00000E+00         0.00000E+00        -0.12104E+04
 
   -0.35052E+04         0.83172E+03         0.00000E+00
    0.83172E+03        -0.79080E+03         0.00000E+00
    0.00000E+00         0.00000E+00        -0.12888E+04
 
   -0.35536E+04         0.10573E+04         0.00000E+00
    0.10573E+04        -0.95458E+03         0.00000E+00
    0.00000E+00         0.00000E+00        -0.13525E+04
 
   -0.35465E+04         0.12807E+04         0.00000E+00
    0.12807E+04        -0.11239E+04         0.00000E+00
    0.00000E+00         0.00000E+00        -0.14011E+04
 
   -0.34850E+04         0.15008E+04         0.00000E+00
    0.15008E+04        -0.12972E+04         0.00000E+00
    0.00000E+00         0.00000E+00        -0.14347E+04
 
   -0.33693E+04         0.17171E+04         0.00000E+00
    0.17171E+04        -0.14734E+04         0.00000E+00
    0.00000E+00         0.00000E+00        -0.14528E+04
 
   -0.31990E+04         0.19293E+04         0.00000E+00
    0.19293E+04        -0.16523E+04         0.00000E+00
    0.00000E+00         0.00000E+00        -0.14554E+04
 
   -0.29726E+04         0.21371E+04         0.00000E+00
    0.21371E+04        -0.18345E+04         0.00000E+00
    0.00000E+00         0.00000E+00        -0.14421E+04
 
   -0.26874E+04         0.23400E+04         0.00000E+00
    0.23400E+04        -0.20212E+04         0.00000E+00
    0.00000E+00         0.00000E+00        -0.14126E+04
 
   -0.23399E+04         0.25368E+04         0.00000E+00
    0.25368E+04        -0.22146E+04         0.00000E+00
    0.00000E+00         0.00000E+00        -0.13663E+04
 
   -0.19254E+04         0.27258E+04         0.00000E+00
    0.27258E+04        -0.24174E+04         0.00000E+00
    0.00000E+00         0.00000E+00        -0.13029E+04
 
   -0.14386E+04         0.29037E+04         0.00000E+00
    0.29037E+04        -0.26332E+04         0.00000E+00
    0.00000E+00         0.00000E+00        -0.12216E+04
 
    0.18215E+04        -0.14507E+03         0.00000E+00
   -0.14507E+03         0.31565E+01         0.00000E+00
    0.00000E+00         0.00000E+00         0.54739E+03
 
    0.12669E+04        -0.37817E+03         0.00000E+00
   -0.37817E+03         0.16110E+02         0.00000E+00
    0.00000E+00         0.00000E+00         0.38491E+03
 
    0.70161E+03        -0.53895E+03         0.00000E+00
   -0.53895E+03         0.34563E+02         0.00000E+00
    0.00000E+00         0.00000E+00         0.22085E+03
 
    0.14053E+03        -0.63180E+03         0.00000E+00
   -0.63180E+03         0.51410E+02         0.00000E+00
    0.00000E+00         0.00000E+00         0.57582E+02
 
   -0.40307E+03        -0.66249E+03         0.00000E+00
   -0.66249E+03         0.60658E+02         0.00000E+00
    0.00000E+00         0.00000E+00        -0.10272E+03
 
   -0.91785E+03        -0.63783E+03         0.00000E+00
   -0.63783E+03         0.57592E+02         0.00000E+00
    0.00000E+00         0.00000E+00        -0.25808E+03
 
   -0.13946E+04        -0.56528E+03         0.00000E+00
   -0.56528E+03         0.38840E+02         0.00000E+00
    0.00000E+00         0.00000E+00        -0.40672E+03
 
   -0.18260E+04        -0.45255E+03         0.00000E+00
   -0.45255E+03         0.23566E+01         0.00000E+00
    0.00000E+00         0.00000E+00        -0.54710E+03
 
   -0.22071E+04        -0.30724E+03         0.00000E+00
   -0.30724E+03        -0.52678E+02         0.00000E+00
    0.00000E+00         0.00000E+00        -0.67793E+03
 
   -0.25343E+04        -0.13650E+03         0.00000E+00
   -0.13650E+03        -0.12603E+03         0.00000E+00
    0.00000E+00         0.00000E+00        -0.79811E+03
 
   -0.28059E+04         0.53171E+02         0.00000E+00
    0.53171E+02        -0.21663E+03         0.00000E+00
    0.00000E+00         0.00000E+00        -0.90675E+03
 
   -0.30210E+04         0.25612E+03         0.00000E+00
    0.25612E+03        -0.32280E+03         0.00000E+00
    0.00000E+00         0.00000E+00        -0.10032E+04
 
   -0.31800E+04         0.46762E+03         0.00000E+00
    0.46762E+03        -0.44252E+03         0.00000E+00
    0.00000E+00         0.00000E+00        -0.10868E+04
 
   -0.32834E+04         0.68385E+03         0.00000E+00
    0.68385E+03        -0.57366E+03         0.00000E+00
    0.00000E+00         0.00000E+00        -0.11571E+04
 
   -0.33322E+04         0.90185E+03         0.00000E+00
    0.90185E+03        -0.71417E+03         0.00000E+00
    0.00000E+00         0.00000E+00        -0.12139E+04
 
   -0.33271E+04         0.11194E+04         0.00000E+00
    0.11194E+04        -0.86227E+03         0.00000E+00
    0.00000E+00         0.00000E+00        -0.12568E+04
 
   -0.32687E+04         0.13350E+04         0.00000E+00
    0.13350E+04        -0.10166E+04         0.00000E+00
    0.00000E+00         0.00000E+00        -0.12856E+04
 
   -0.31569E+04         0.15473E+04         0.00000E+00
    0.15473E+04        -0.11763E+04         0.00000E+00
    0.00000E+00         0.00000E+00        -0.13000E+04
 
   -0.29910E+04         0.17554E+04         0.00000E+00
    0.17554E+04        -0.13412E+04         0.00000E+00
    0.00000E+00         0.00000E+00        -0.12997E+04
 
   -0.27698E+04         0.19583E+04         0.00000E+00
    0.19583E+04        -0.15116E+04         0.00000E+00
    0.00000E+00         0.00000E+00        -0.12844E+04
 
   -0.24910E+04         0.21548E+04         0.00000E+00
    0.21548E+04        -0.16885E+04         0.00000E+00
    0.00000E+00         0.00000E+00        -0.12538E+04
 
   -0.21516E+04         0.23430E+04         0.00000E+00
    0.23430E+04        -0.18737E+04         0.00000E+00
    0.00000E+00         0.00000E+00        -0.12076E+04
 
   -0.17480E+04         0.25206E+04         0.00000E+00
    0.25206E+04        -0.20691E+04         0.00000E+00
    0.00000E+00         0.00000E+00        -0.11451E+04
 
   -0.12760E+04         0.26839E+04         0.00000E+00
    0.26839E+04        -0.22775E+04         0.00000E+00
    0.00000E+00         0.00000E+00        -0.10661E+04
 
    0.15580E+04        -0.13709E+03         0.00000E+00
   -0.13709E+03         0.32472E+01         0.00000E+00
    0.00000E+00         0.00000E+00         0.46837E+03
 
    0.10735E+04        -0.36020E+03         0.00000E+00
   -0.36020E+03         0.17012E+02         0.00000E+00
    0.00000E+00         0.00000E+00         0.32714E+03
 
    0.57503E+03        -0.51821E+03         0.00000E+00
   -0.51821E+03         0.37838E+02         0.00000E+00
    0.00000E+00         0.00000E+00         0.18386E+03
 
    0.76234E+02        -0.61458E+03         0.00000E+00
   -0.61458E+03         0.59283E+02         0.00000E+00
    0.00000E+00         0.00000E+00         0.40655E+02
 
   -0.41082E+03        -0.65397E+03         0.00000E+00
   -0.65397E+03         0.75830E+02         0.00000E+00
    0.00000E+00         0.00000E+00        -0.10050E+03
 
   -0.87562E+03        -0.64200E+03         0.00000E+00
   -0.64200E+03         0.83016E+02         0.00000E+00
    0.00000E+00         0.00000E+00        -0.23778E+03
 
   -0.13093E+04        -0.58489E+03         0.00000E+00
   -0.58489E+03         0.77492E+02         0.00000E+00
    0.00000E+00         0.00000E+00        -0.36956E+03
 
   -0.17050E+04        -0.48916E+03         0.00000E+00
   -0.48916E+03         0.57024E+02         0.00000E+00
    0.00000E+00         0.00000E+00        -0.49438E+03
 
   -0.20571E+04        -0.36135E+03         0.00000E+00
   -0.36135E+03         0.20413E+02         0.00000E+00
    0.00000E+00         0.00000E+00        -0.61099E+03
 
   -0.23618E+04        -0.20772E+03         0.00000E+00
   -0.20772E+03        -0.32624E+02         0.00000E+00
    0.00000E+00         0.00000E+00        -0.71832E+03
 
   -0.26166E+04        -0.34073E+02         0.00000E+00
   -0.34073E+02        -0.10162E+03         0.00000E+00
    0.00000E+00         0.00000E+00        -0.81547E+03
 
   -0.28201E+04         0.15440E+03         0.00000E+00
    0.15440E+03        -0.18556E+03         0.00000E+00
    0.00000E+00         0.00000E+00        -0.90170E+03
 
   -0.29716E+04         0.35322E+03         0.00000E+00
    0.35322E+03        -0.28305E+03         0.00000E+00
    0.00000E+00         0.00000E+00        -0.97639E+03
 
   -0.30709E+04         0.55861E+03         0.00000E+00
    0.55861E+03        -0.39255E+03         0.00000E+00
    0.00000E+00         0.00000E+00        -0.10390E+04
 
   -0.31183E+04         0.76748E+03         0.00000E+00
    0.76748E+03        -0.51251E+03         0.00000E+00
    0.00000E+00         0.00000E+00        -0.10892E+04
 
   -0.31139E+04         0.97734E+03         0.00000E+00
    0.97734E+03        -0.64156E+03         0.00000E+00
    0.00000E+00         0.00000E+00        -0.11266E+04
 
   -0.30577E+04         0.11862E+04         0.00000E+00
    0.11862E+04        -0.77863E+03         0.00000E+00
    0.00000E+00         0.00000E+00        -0.11509E+04
 
   -0.29495E+04         0.13923E+04         0.00000E+00
    0.13923E+04        -0.92301E+03         0.00000E+00
    0.00000E+00         0.00000E+00        -0.11618E+04
 
   -0.27885E+04         0.15942E+04         0.00000E+00
    0.15942E+04        -0.10745E+04         0.00000E+00
    0.00000E+00         0.00000E+00        -0.11589E+04
 
   -0.25735E+04         0.17903E+04         0.00000E+00
    0.17903E+04        -0.12332E+04         0.00000E+00
    0.00000E+00         0.00000E+00        -0.11420E+04
 
   -0.23027E+04         0.19788E+04         0.00000E+00
    0.19788E+04        -0.14001E+04         0.00000E+00
    0.00000E+00         0.00000E+00        -0.11108E+04
 
   -0.19736E+04         0.21574E+04         0.00000E+00
    0.21574E+04        -0.15762E+04         0.00000E+00
    0.00000E+00         0.00000E+00        -0.10650E+04
 
   -0.15835E+04         0.23232E+04         0.00000E+00
    0.23232E+04        -0.17633E+04         0.00000E+00
    0.00000E+00         0.00000E+00        -0.10040E+04
 
   -0.11293E+04         0.24724E+04         0.00000E+00
    0.24724E+04        -0.19631E+04         0.00000E+00
    0.00000E+00         0.00000E+00        -0.92772E+03
 
    0.13087E+04        -0.12891E+03         0.00000E+00
   -0.12891E+03         0.32940E+01         0.00000E+00
    0.00000E+00         0.00000E+00         0.39360E+03
 
    0.88699E+03        -0.34102E+03         0.00000E+00
   -0.34102E+03         0.17598E+02         0.00000E+00
    0.00000E+00         0.00000E+00         0.27138E+03
 
    0.44898E+03        -0.49455E+03         0.00000E+00
   -0.49455E+03         0.40151E+02         0.00000E+00
    0.00000E+00         0.00000E+00         0.14674E+03
 
    0.69425E+01        -0.59219E+03         0.00000E+00
   -0.59219E+03         0.65091E+02         0.00000E+00
    0.00000E+00         0.00000E+00         0.21610E+02
 
   -0.42804E+03        -0.63769E+03         0.00000E+00
   -0.63769E+03         0.87326E+02         0.00000E+00
    0.00000E+00         0.00000E+00        -0.10221E+03
 
   -0.84618E+03        -0.63565E+03         0.00000E+00
   -0.63565E+03         0.10264E+03         0.00000E+00
    0.00000E+00         0.00000E+00        -0.22306E+03
 
   -0.12392E+04        -0.59129E+03         0.00000E+00
   -0.59129E+03         0.10775E+03         0.00000E+00
    0.00000E+00         0.00000E+00        -0.33942E+03
 
   -0.16001E+04        -0.51011E+03         0.00000E+00
   -0.51011E+03         0.10030E+03         0.00000E+00
    0.00000E+00         0.00000E+00        -0.44994E+03
 
   -0.19235E+04        -0.39775E+03         0.00000E+00
   -0.39775E+03         0.78821E+02         0.00000E+00
    0.00000E+00         0.00000E+00        -0.55341E+03
 
   -0.22053E+04        -0.25967E+03         0.00000E+00
   -0.25967E+03         0.42640E+02         0.00000E+00
    0.00000E+00         0.00000E+00        -0.64878E+03
 
   -0.24423E+04        -0.10107E+03         0.00000E+00
   -0.10107E+03        -0.82569E+01         0.00000E+00
    0.00000E+00         0.00000E+00        -0.73518E+03
 
   -0.26327E+04         0.73320E+02         0.00000E+00
    0.73320E+02        -0.73368E+02         0.00000E+00
    0.00000E+00         0.00000E+00        -0.81183E+03
 
   -0.27751E+04         0.25929E+03         0.00000E+00
    0.25929E+03        -0.15183E+03         0.00000E+00
    0.00000E+00         0.00000E+00        -0.87809E+03
 
   -0.28689E+04         0.45316E+03         0.00000E+00
    0.45316E+03        -0.24260E+03         0.00000E+00
    0.00000E+00         0.00000E+00        -0.93343E+03
 
   -0.29134E+04         0.65179E+03         0.00000E+00
    0.65179E+03        -0.34455E+03         0.00000E+00
    0.00000E+00         0.00000E+00        -0.97739E+03
 
   -0.29086E+04         0.85250E+03         0.00000E+00
    0.85250E+03        -0.45667E+03         0.00000E+00
    0.00000E+00         0.00000E+00        -0.10096E+04
 
   -0.28540E+04         0.10530E+04         0.00000E+00
    0.10530E+04        -0.57812E+03         0.00000E+00
    0.00000E+00         0.00000E+00        -0.10296E+04
 
   -0.27491E+04         0.12512E+04         0.00000E+00
    0.12512E+04        -0.70834E+03         0.00000E+00
    0.00000E+00         0.00000E+00        -0.10372E+04
 
   -0.25933E+04         0.14452E+04         0.00000E+00
    0.14452E+04        -0.84712E+03         0.00000E+00
    0.00000E+00         0.00000E+00        -0.10321E+04
 
   -0.23852E+04         0.16330E+04         0.00000E+00
    0.16330E+04        -0.99460E+03         0.00000E+00
    0.00000E+00         0.00000E+00        -0.10140E+04
 
   -0.21236E+04         0.18124E+04         0.00000E+00
    0.18124E+04        -0.11513E+04         0.00000E+00
    0.00000E+00         0.00000E+00        -0.98247E+03
 
   -0.18065E+04         0.19807E+04         0.00000E+00
    0.19807E+04        -0.13181E+04         0.00000E+00
    0.00000E+00         0.00000E+00        -0.93737E+03
 
   -0.14319E+04         0.21347E+04         0.00000E+00
    0.21347E+04        -0.14960E+04         0.00000E+00
    0.00000E+00         0.00000E+00        -0.87836E+03
 
   -0.99744E+03         0.22703E+04         0.00000E+00
    0.22703E+04        -0.16865E+04         0.00000E+00
    0.00000E+00         0.00000E+00        -0.80518E+03
 
    0.10741E+04        -0.12063E+03         0.00000E+00
   -0.12063E+03         0.33025E+01         0.00000E+00
    0.00000E+00         0.00000E+00         0.32322E+03
 
    0.70871E+03        -0.32103E+03         0.00000E+00
   -0.32103E+03         0.17911E+02         0.00000E+00
    0.00000E+00         0.00000E+00         0.21799E+03
 
    0.32525E+03        -0.46876E+03         0.00000E+00
   -0.46876E+03         0.41643E+02         0.00000E+00
    0.00000E+00         0.00000E+00         0.11007E+03
 
   -0.65136E+02        -0.56586E+03         0.00000E+00
   -0.56586E+03         0.69149E+02         0.00000E+00
    0.00000E+00         0.00000E+00         0.12039E+01
 
   -0.45226E+03        -0.61534E+03         0.00000E+00
   -0.61534E+03         0.95721E+02         0.00000E+00
    0.00000E+00         0.00000E+00        -0.10696E+03
 
   -0.82704E+03        -0.62096E+03         0.00000E+00
   -0.62096E+03         0.11738E+03         0.00000E+00
    0.00000E+00         0.00000E+00        -0.21290E+03
 
   -0.11816E+04        -0.58706E+03         0.00000E+00
   -0.58706E+03         0.13094E+03         0.00000E+00
    0.00000E+00         0.00000E+00        -0.31520E+03
 
   -0.15093E+04        -0.51832E+03         0.00000E+00
   -0.51832E+03         0.13397E+03         0.00000E+00
    0.00000E+00         0.00000E+00        -0.41261E+03
 
   -0.18047E+04        -0.41957E+03         0.00000E+00
   -0.41957E+03         0.12483E+03         0.00000E+00
    0.00000E+00         0.00000E+00        -0.50397E+03
 
   -0.20635E+04        -0.29562E+03         0.00000E+00
   -0.29562E+03         0.10253E+03         0.00000E+00
    0.00000E+00         0.00000E+00        -0.58828E+03
 
   -0.22823E+04        -0.15108E+03         0.00000E+00
   -0.15108E+03         0.66706E+02         0.00000E+00
    0.00000E+00         0.00000E+00        -0.66467E+03
 
   -0.24587E+04         0.97455E+01         0.00000E+00
    0.97455E+01         0.17433E+02         0.00000E+00
    0.00000E+00         0.00000E+00        -0.73238E+03
 
   -0.25910E+04         0.18291E+03         0.00000E+00
    0.18291E+03        -0.44852E+02         0.00000E+00
    0.00000E+00         0.00000E+00        -0.79076E+03
 
   -0.26780E+04         0.36488E+03         0.00000E+00
    0.36488E+03        -0.11950E+03         0.00000E+00
    0.00000E+00         0.00000E+00        -0.83924E+03
 
   -0.27187E+04         0.55253E+03         0.00000E+00
    0.55253E+03        -0.20577E+03         0.00000E+00
    0.00000E+00         0.00000E+00        -0.87734E+03
 
   -0.27126E+04         0.74307E+03         0.00000E+00
    0.74307E+03        -0.30293E+03         0.00000E+00
    0.00000E+00         0.00000E+00        -0.90466E+03
 
   -0.26590E+04         0.93401E+03         0.00000E+00
    0.93401E+03        -0.41037E+03         0.00000E+00
    0.00000E+00         0.00000E+00        -0.92081E+03
 
   -0.25573E+04         0.11230E+04         0.00000E+00
    0.11230E+04        -0.52765E+03         0.00000E+00
    0.00000E+00         0.00000E+00        -0.92549E+03
 
   -0.24067E+04         0.13079E+04         0.00000E+00
    0.13079E+04        -0.65458E+03         0.00000E+00
    0.00000E+00         0.00000E+00        -0.91838E+03
 
   -0.22062E+04         0.14863E+04         0.00000E+00
    0.14863E+04        -0.79121E+03         0.00000E+00
    0.00000E+00         0.00000E+00        -0.89921E+03
 
   -0.19546E+04         0.16557E+04         0.00000E+00
    0.16557E+04        -0.93785E+03         0.00000E+00
    0.00000E+00         0.00000E+00        -0.86772E+03
 
   -0.16506E+04         0.18132E+04         0.00000E+00
    0.18132E+04        -0.10951E+04         0.00000E+00
    0.00000E+00         0.00000E+00        -0.82368E+03
 
   -0.12927E+04         0.19555E+04         0.00000E+00
    0.19555E+04        -0.12635E+04         0.00000E+00
    0.00000E+00         0.00000E+00        -0.76687E+03
 
   -0.87951E+03         0.20783E+04         0.00000E+00
    0.20783E+04        -0.14441E+04         0.00000E+00
    0.00000E+00         0.00000E+00        -0.69708E+03
 
    0.85446E+03        -0.11235E+03         0.00000E+00
   -0.11235E+03         0.32781E+01         0.00000E+00
    0.00000E+00         0.00000E+00         0.25732E+03
 
    0.53950E+03        -0.30057E+03         0.00000E+00
   -0.30057E+03         0.17992E+02         0.00000E+00
    0.00000E+00         0.00000E+00         0.16725E+03
 
    0.20522E+03        -0.44150E+03         0.00000E+00
   -0.44150E+03         0.42441E+02         0.00000E+00
    0.00000E+00         0.00000E+00         0.74299E+02
 
   -0.13822E+03        -0.53665E+03         0.00000E+00
   -0.53665E+03         0.71731E+02         0.00000E+00
    0.00000E+00         0.00000E+00        -0.19945E+02
 
   -0.48146E+03        -0.58837E+03         0.00000E+00
   -0.58837E+03         0.10151E+03         0.00000E+00
    0.00000E+00         0.00000E+00        -0.11399E+03
 
   -0.81608E+03        -0.59975E+03         0.00000E+00
   -0.59975E+03         0.12802E+03         0.00000E+00
    0.00000E+00         0.00000E+00        -0.20642E+03
 
   -0.11347E+04        -0.57439E+03         0.00000E+00
   -0.57439E+03         0.14818E+03         0.00000E+00
    0.00000E+00         0.00000E+00        -0.29594E+03
 
   -0.14308E+04        -0.51626E+03         0.00000E+00
   -0.51626E+03         0.15956E+03         0.00000E+00
    0.00000E+00         0.00000E+00        -0.38137E+03
 
   -0.16991E+04        -0.42952E+03         0.00000E+00
   -0.42952E+03         0.16037E+03         0.00000E+00
    0.00000E+00         0.00000E+00        -0.46162E+03
 
   -0.19352E+04        -0.31837E+03         0.00000E+00
   -0.31837E+03         0.14943E+03         0.00000E+00
    0.00000E+00         0.00000E+00        -0.53575E+03
 
   -0.21357E+04        -0.18691E+03         0.00000E+00
   -0.18691E+03         0.12605E+03         0.00000E+00
    0.00000E+00         0.00000E+00        -0.60289E+03
 
   -0.22977E+04        -0.39070E+02         0.00000E+00
   -0.39070E+02         0.90017E+02         0.00000E+00
    0.00000E+00         0.00000E+00        -0.66230E+03
 
   -0.24192E+04         0.12150E+03         0.00000E+00
    0.12150E+03         0.41404E+02         0.00000E+00
    0.00000E+00         0.00000E+00        -0.71334E+03
 
   -0.24987E+04         0.29142E+03         0.00000E+00
    0.29142E+03        -0.19468E+02         0.00000E+00
    0.00000E+00         0.00000E+00        -0.75544E+03
 
   -0.25348E+04         0.46762E+03         0.00000E+00
    0.46762E+03        -0.92159E+02         0.00000E+00
    0.00000E+00         0.00000E+00        -0.78810E+03
 
   -0.25268E+04         0.64730E+03         0.00000E+00
    0.64730E+03        -0.17619E+03         0.00000E+00
    0.00000E+00         0.00000E+00        -0.81091E+03
 
   -0.24738E+04         0.82783E+03         0.00000E+00
    0.82783E+03        -0.27113E+03         0.00000E+00
    0.00000E+00         0.00000E+00        -0.82349E+03
 
   -0.23751E+04         0.10067E+04         0.00000E+00
    0.10067E+04        -0.37666E+03         0.00000E+00
    0.00000E+00         0.00000E+00        -0.82552E+03
 
   -0.22297E+04         0.11816E+04         0.00000E+00
    0.11816E+04        -0.49259E+03         0.00000E+00
    0.00000E+00         0.00000E+00        -0.81670E+03
 
   -0.20370E+04         0.13498E+04         0.00000E+00
    0.13498E+04        -0.61890E+03         0.00000E+00
    0.00000E+00         0.00000E+00        -0.79678E+03
 
   -0.17961E+04         0.15088E+04         0.00000E+00
    0.15088E+04        -0.75575E+03         0.00000E+00
    0.00000E+00         0.00000E+00        -0.76555E+03
 
   -0.15059E+04         0.16553E+04         0.00000E+00
    0.16553E+04        -0.90342E+03         0.00000E+00
    0.00000E+00         0.00000E+00        -0.72279E+03
 
   -0.11656E+04         0.17860E+04         0.00000E+00
    0.17860E+04        -0.10623E+04         0.00000E+00
    0.00000E+00         0.00000E+00        -0.66836E+03
 
   -0.77443E+03         0.18967E+04         0.00000E+00
    0.18967E+04        -0.12327E+04         0.00000E+00
    0.00000E+00         0.00000E+00        -0.60213E+03
 
    0.64986E+03        -0.10415E+03         0.00000E+00
   -0.10415E+03         0.32261E+01         0.00000E+00
    0.00000E+00         0.00000E+00         0.19593E+03
 
    0.37999E+03        -0.27993E+03         0.00000E+00
   -0.27993E+03         0.17878E+02         0.00000E+00
    0.00000E+00         0.00000E+00         0.11936E+03
 
    0.89992E+02        -0.41334E+03         0.00000E+00
   -0.41334E+03         0.42657E+02         0.00000E+00
    0.00000E+00         0.00000E+00         0.39795E+02
 
   -0.21087E+03        -0.50541E+03         0.00000E+00
   -0.50541E+03         0.73081E+02         0.00000E+00
    0.00000E+00         0.00000E+00        -0.41336E+02
 
   -0.51399E+03        -0.55798E+03         0.00000E+00
   -0.55798E+03         0.10511E+03         0.00000E+00
    0.00000E+00         0.00000E+00        -0.12266E+03
 
   -0.81154E+03        -0.57355E+03         0.00000E+00
   -0.57355E+03         0.13523E+03         0.00000E+00
    0.00000E+00         0.00000E+00        -0.20289E+03
 
   -0.10965E+04        -0.55511E+03         0.00000E+00
   -0.55511E+03         0.16046E+03         0.00000E+00
    0.00000E+00         0.00000E+00        -0.28082E+03
 
   -0.13629E+04        -0.50602E+03         0.00000E+00
   -0.50602E+03         0.17838E+03         0.00000E+00
    0.00000E+00         0.00000E+00        -0.35535E+03
 
   -0.16053E+04        -0.42986E+03         0.00000E+00
   -0.42986E+03         0.18713E+03         0.00000E+00
    0.00000E+00         0.00000E+00        -0.42546E+03
 
   -0.18195E+04        -0.33030E+03         0.00000E+00
   -0.33030E+03         0.18537E+03         0.00000E+00
    0.00000E+00         0.00000E+00        -0.49024E+03
 
   -0.20018E+04        -0.21101E+03         0.00000E+00
   -0.21101E+03         0.17221E+03         0.00000E+00
    0.00000E+00         0.00000E+00        -0.54887E+03
 
   -0.21493E+04        -0.75525E+02         0.00000E+00
   -0.75525E+02         0.14715E+03         0.00000E+00
    0.00000E+00         0.00000E+00        -0.60064E+03
 
   -0.22597E+04         0.72761E+02         0.00000E+00
    0.72761E+02         0.11002E+03         0.00000E+00
    0.00000E+00         0.00000E+00        -0.64490E+03
 
   -0.23312E+04         0.23066E+03         0.00000E+00
    0.23066E+03         0.60852E+02         0.00000E+00
    0.00000E+00         0.00000E+00        -0.68109E+03
 
   -0.23623E+04         0.39520E+03         0.00000E+00
    0.39520E+03        -0.14835E+00         0.00000E+00
    0.00000E+00         0.00000E+00        -0.70874E+03
 
   -0.23520E+04         0.56358E+03         0.00000E+00
    0.56358E+03        -0.72716E+02         0.00000E+00
    0.00000E+00         0.00000E+00        -0.72741E+03
 
   -0.22992E+04         0.73314E+03         0.00000E+00
    0.73314E+03        -0.15657E+03         0.00000E+00
    0.00000E+00         0.00000E+00        -0.73674E+03
 
   -0.22032E+04         0.90131E+03         0.00000E+00
    0.90131E+03        -0.25148E+03         0.00000E+00
    0.00000E+00         0.00000E+00        -0.73640E+03
 
   -0.20632E+04         0.10655E+04         0.00000E+00
    0.10655E+04        -0.35727E+03         0.00000E+00
    0.00000E+00         0.00000E+00        -0.72613E+03
 
   -0.18785E+04         0.12231E+04         0.00000E+00
    0.12231E+04        -0.47387E+03         0.00000E+00
    0.00000E+00         0.00000E+00        -0.70570E+03
 
   -0.16484E+04         0.13713E+04         0.00000E+00
    0.13713E+04        -0.60129E+03         0.00000E+00
    0.00000E+00         0.00000E+00        -0.67490E+03
 
   -0.13724E+04         0.15069E+04         0.00000E+00
    0.15069E+04        -0.73958E+03         0.00000E+00
    0.00000E+00         0.00000E+00        -0.63359E+03
 
   -0.10500E+04         0.16263E+04         0.00000E+00
    0.16263E+04        -0.88883E+03         0.00000E+00
    0.00000E+00         0.00000E+00        -0.58166E+03
 
   -0.68115E+03         0.17258E+04         0.00000E+00
    0.17258E+04        -0.10490E+04         0.00000E+00
    0.00000E+00         0.00000E+00        -0.51906E+03
 
    0.46021E+03        -0.96092E+02         0.00000E+00
   -0.96092E+02         0.31513E+01         0.00000E+00
    0.00000E+00         0.00000E+00         0.13901E+03
 
    0.23057E+03        -0.25937E+03         0.00000E+00
   -0.25937E+03         0.17604E+02         0.00000E+00
    0.00000E+00         0.00000E+00         0.74453E+02
 
   -0.19636E+02        -0.38474E+03         0.00000E+00
   -0.38474E+03         0.42394E+02         0.00000E+00
    0.00000E+00         0.00000E+00         0.68272E+01
 
   -0.28196E+03        -0.47287E+03         0.00000E+00
   -0.47287E+03         0.73412E+02         0.00000E+00
    0.00000E+00         0.00000E+00        -0.62563E+02
 
   -0.54848E+03        -0.52517E+03         0.00000E+00
   -0.52517E+03         0.10692E+03         0.00000E+00
    0.00000E+00         0.00000E+00        -0.13247E+03
 
   -0.81193E+03        -0.54364E+03         0.00000E+00
   -0.54364E+03         0.13960E+03         0.00000E+00
    0.00000E+00         0.00000E+00        -0.20170E+03
 
   -0.10658E+04        -0.53075E+03         0.00000E+00
   -0.53075E+03         0.16861E+03         0.00000E+00
    0.00000E+00         0.00000E+00        -0.26915E+03
 
   -0.13042E+04        -0.48935E+03         0.00000E+00
   -0.48935E+03         0.19156E+03         0.00000E+00
    0.00000E+00         0.00000E+00        -0.33378E+03
 
   -0.15221E+04        -0.42252E+03         0.00000E+00
   -0.42252E+03         0.20655E+03         0.00000E+00
    0.00000E+00         0.00000E+00        -0.39466E+03
 
   -0.17152E+04        -0.33348E+03         0.00000E+00
   -0.33348E+03         0.21214E+03         0.00000E+00
    0.00000E+00         0.00000E+00        -0.45091E+03
 
   -0.18798E+04        -0.22547E+03         0.00000E+00
   -0.22547E+03         0.20727E+03         0.00000E+00
    0.00000E+00         0.00000E+00        -0.50176E+03
 
   -0.20129E+04        -0.10170E+03         0.00000E+00
   -0.10170E+03         0.19125E+03         0.00000E+00
    0.00000E+00         0.00000E+00        -0.54651E+03
 
   -0.21122E+04         0.34700E+02         0.00000E+00
    0.34700E+02         0.16369E+03         0.00000E+00
    0.00000E+00         0.00000E+00        -0.58455E+03
 
   -0.21755E+04         0.18074E+03         0.00000E+00
    0.18074E+03         0.12442E+03         0.00000E+00
    0.00000E+00         0.00000E+00        -0.61533E+03
 
   -0.22013E+04         0.33357E+03         0.00000E+00
    0.33357E+03         0.73429E+02         0.00000E+00
    0.00000E+00         0.00000E+00        -0.63837E+03
 
   -0.21884E+04         0.49044E+03         0.00000E+00
    0.49044E+03         0.10827E+02         0.00000E+00
    0.00000E+00         0.00000E+00        -0.65327E+03
 
   -0.21356E+04         0.64870E+03         0.00000E+00
    0.64870E+03        -0.63238E+02         0.00000E+00
    0.00000E+00         0.00000E+00        -0.65966E+03
 
   -0.20422E+04         0.80577E+03         0.00000E+00
    0.80577E+03        -0.14860E+03         0.00000E+00
    0.00000E+00         0.00000E+00        -0.65724E+03
 
   -0.19074E+04         0.95900E+03         0.00000E+00
    0.95900E+03        -0.24510E+03         0.00000E+00
    0.00000E+00         0.00000E+00        -0.64575E+03
 
   -0.17307E+04         0.11057E+04         0.00000E+00
    0.11057E+04        -0.35262E+03         0.00000E+00
    0.00000E+00         0.00000E+00        -0.62498E+03
 
   -0.15116E+04         0.12430E+04         0.00000E+00
    0.12430E+04        -0.47105E+03         0.00000E+00
    0.00000E+00         0.00000E+00        -0.59478E+03
 
   -0.12498E+04         0.13677E+04         0.00000E+00
    0.13677E+04        -0.60026E+03         0.00000E+00
    0.00000E+00         0.00000E+00        -0.55502E+03
 
   -0.94543E+03         0.14765E+04         0.00000E+00
    0.14765E+04        -0.74009E+03         0.00000E+00
    0.00000E+00         0.00000E+00        -0.50566E+03
 
   -0.59869E+03         0.15654E+04         0.00000E+00
    0.15654E+04        -0.89023E+03         0.00000E+00
    0.00000E+00         0.00000E+00        -0.44667E+03
 
    0.28528E+03        -0.88238E+02         0.00000E+00
   -0.88238E+02         0.30586E+01         0.00000E+00
    0.00000E+00         0.00000E+00         0.86500E+02
 
    0.91464E+02        -0.23908E+03         0.00000E+00
   -0.23908E+03         0.17202E+02         0.00000E+00
    0.00000E+00         0.00000E+00         0.32600E+02
 
   -0.12307E+03        -0.35609E+03         0.00000E+00
   -0.35609E+03         0.41744E+02         0.00000E+00
    0.00000E+00         0.00000E+00        -0.24398E+02
 
   -0.35059E+03        -0.43964E+03         0.00000E+00
   -0.43964E+03         0.72916E+02         0.00000E+00
    0.00000E+00         0.00000E+00        -0.83304E+02
 
   -0.58383E+03        -0.49077E+03         0.00000E+00
   -0.49077E+03         0.10725E+03         0.00000E+00
    0.00000E+00         0.00000E+00        -0.14297E+03
 
   -0.81605E+03        -0.51108E+03         0.00000E+00
   -0.51108E+03         0.14164E+03         0.00000E+00
    0.00000E+00         0.00000E+00        -0.20232E+03
 
   -0.10411E+04        -0.50260E+03         0.00000E+00
   -0.50260E+03         0.17336E+03         0.00000E+00
    0.00000E+00         0.00000E+00        -0.26032E+03
 
   -0.12535E+04        -0.46774E+03         0.00000E+00
   -0.46774E+03         0.20008E+03         0.00000E+00
    0.00000E+00         0.00000E+00        -0.31601E+03
 
   -0.14483E+04        -0.40915E+03         0.00000E+00
   -0.40915E+03         0.21990E+03         0.00000E+00
    0.00000E+00         0.00000E+00        -0.36851E+03
 
   -0.16213E+04        -0.32964E+03         0.00000E+00
   -0.32964E+03         0.23128E+03         0.00000E+00
    0.00000E+00         0.00000E+00        -0.41701E+03
 
   -0.17690E+04        -0.23208E+03         0.00000E+00
   -0.23208E+03         0.23307E+03         0.00000E+00
    0.00000E+00         0.00000E+00        -0.46077E+03
 
   -0.18882E+04        -0.11939E+03         0.00000E+00
   -0.11939E+03         0.22443E+03         0.00000E+00
    0.00000E+00         0.00000E+00        -0.49912E+03
 
   -0.19764E+04         0.55698E+01         0.00000E+00
    0.55698E+01         0.20480E+03         0.00000E+00
    0.00000E+00         0.00000E+00        -0.53148E+03
 
   -0.20316E+04         0.14001E+03         0.00000E+00
    0.14001E+03         0.17383E+03         0.00000E+00
    0.00000E+00         0.00000E+00        -0.55732E+03
 
   -0.20520E+04         0.28122E+03         0.00000E+00
    0.28122E+03         0.13138E+03         0.00000E+00
    0.00000E+00         0.00000E+00        -0.57618E+03
 
   -0.20363E+04         0.42654E+03         0.00000E+00
    0.42654E+03         0.77399E+02         0.00000E+00
    0.00000E+00         0.00000E+00        -0.58766E+03
 
   -0.19833E+04         0.57339E+03         0.00000E+00
    0.57339E+03         0.11946E+02         0.00000E+00
    0.00000E+00         0.00000E+00        -0.59141E+03
 
   -0.18923E+04         0.71917E+03         0.00000E+00
    0.71917E+03        -0.64874E+02         0.00000E+00
    0.00000E+00         0.00000E+00        -0.58716E+03
 
   -0.17626E+04         0.86128E+03         0.00000E+00
    0.86128E+03        -0.15292E+03         0.00000E+00
    0.00000E+00         0.00000E+00        -0.57466E+03
 
   -0.15938E+04         0.99700E+03         0.00000E+00
    0.99700E+03        -0.25201E+03         0.00000E+00
    0.00000E+00         0.00000E+00        -0.55373E+03
 
   -0.13855E+04         0.11235E+04         0.00000E+00
    0.11235E+04        -0.36194E+03         0.00000E+00
    0.00000E+00         0.00000E+00        -0.52424E+03
 
   -0.11379E+04         0.12377E+04         0.00000E+00
    0.12377E+04        -0.48245E+03         0.00000E+00
    0.00000E+00         0.00000E+00        -0.48610E+03
 
   -0.85116E+03         0.13362E+04         0.00000E+00
    0.13362E+04        -0.61315E+03         0.00000E+00
    0.00000E+00         0.00000E+00        -0.43929E+03
 
   -0.52605E+03         0.14153E+04         0.00000E+00
    0.14153E+04        -0.75351E+03         0.00000E+00
    0.00000E+00         0.00000E+00        -0.38387E+03
 
    0.12473E+03        -0.80627E+02         0.00000E+00
   -0.80627E+02         0.29523E+01         0.00000E+00
    0.00000E+00         0.00000E+00         0.38305E+02
 
   -0.37270E+02        -0.21921E+03         0.00000E+00
   -0.21921E+03         0.16701E+02         0.00000E+00
    0.00000E+00         0.00000E+00        -0.61708E+01
 
   -0.21990E+03        -0.32768E+03         0.00000E+00
   -0.32768E+03         0.40791E+02         0.00000E+00
    0.00000E+00         0.00000E+00        -0.53733E+02
 
   -0.41610E+03        -0.40619E+03         0.00000E+00
   -0.40619E+03         0.71764E+02         0.00000E+00
    0.00000E+00         0.00000E+00        -0.10330E+03
 
   -0.61917E+03        -0.45546E+03         0.00000E+00
   -0.45546E+03         0.10641E+03         0.00000E+00
    0.00000E+00         0.00000E+00        -0.15383E+03
 
   -0.82287E+03        -0.47674E+03         0.00000E+00
   -0.47674E+03         0.14181E+03         0.00000E+00
    0.00000E+00         0.00000E+00        -0.20432E+03
 
   -0.10214E+04        -0.47172E+03         0.00000E+00
   -0.47172E+03         0.17536E+03         0.00000E+00
    0.00000E+00         0.00000E+00        -0.25383E+03
 
   -0.12097E+04        -0.44242E+03         0.00000E+00
   -0.44242E+03         0.20481E+03         0.00000E+00
    0.00000E+00         0.00000E+00        -0.30146E+03
 
   -0.13829E+04        -0.39111E+03         0.00000E+00
   -0.39111E+03         0.22826E+03         0.00000E+00
    0.00000E+00         0.00000E+00        -0.34640E+03
 
   -0.15371E+04        -0.32024E+03         0.00000E+00
   -0.32024E+03         0.24414E+03         0.00000E+00
    0.00000E+00         0.00000E+00        -0.38788E+03
 
   -0.16686E+04        -0.23238E+03         0.00000E+00
   -0.23238E+03         0.25122E+03         0.00000E+00
    0.00000E+00         0.00000E+00        -0.42521E+03
 
   -0.17744E+04        -0.13014E+03         0.00000E+00
   -0.13014E+03         0.24854E+03         0.00000E+00
    0.00000E+00         0.00000E+00        -0.45776E+03
 
   -0.18520E+04        -0.16136E+02         0.00000E+00
   -0.16136E+02         0.23542E+03         0.00000E+00
    0.00000E+00         0.00000E+00        -0.48496E+03
 
   -0.18991E+04         0.10704E+03         0.00000E+00
    0.10704E+03         0.21140E+03         0.00000E+00
    0.00000E+00         0.00000E+00        -0.50632E+03
 
   -0.19141E+04         0.23683E+03         0.00000E+00
    0.23683E+03         0.17618E+03         0.00000E+00
    0.00000E+00         0.00000E+00        -0.52139E+03
 
   -0.18956E+04         0.37070E+03         0.00000E+00
    0.37070E+03         0.12963E+03         0.00000E+00
    0.00000E+00         0.00000E+00        -0.52979E+03
 
   -0.18424E+04         0.50614E+03         0.00000E+00
    0.50614E+03         0.71720E+02         0.00000E+00
    0.00000E+00         0.00000E+00        -0.53120E+03
 
   -0.17537E+04         0.64064E+03         0.00000E+00
    0.64064E+03         0.25118E+01         0.00000E+00
    0.00000E+00         0.00000E+00        -0.52535E+03
 
   -0.16289E+04         0.77162E+03         0.00000E+00
    0.77162E+03        -0.77856E+02         0.00000E+00
    0.00000E+00         0.00000E+00        -0.51202E+03
 
   -0.14677E+04         0.89645E+03         0.00000E+00
    0.89645E+03        -0.16917E+03         0.00000E+00
    0.00000E+00         0.00000E+00        -0.49106E+03
 
   -0.12700E+04         0.10123E+04         0.00000E+00
    0.10123E+04        -0.27115E+03         0.00000E+00
    0.00000E+00         0.00000E+00        -0.46236E+03
 
   -0.10361E+04         0.11163E+04         0.00000E+00
    0.11163E+04        -0.38339E+03         0.00000E+00
    0.00000E+00         0.00000E+00        -0.42586E+03
 
   -0.76657E+03         0.12051E+04         0.00000E+00
    0.12051E+04        -0.50536E+03         0.00000E+00
    0.00000E+00         0.00000E+00        -0.38158E+03
 
   -0.46233E+03         0.12753E+04         0.00000E+00
    0.12753E+04        -0.63633E+03         0.00000E+00
    0.00000E+00         0.00000E+00        -0.32960E+03
 
   -0.21837E+02        -0.73289E+02         0.00000E+00
   -0.73289E+02         0.28366E+01         0.00000E+00
    0.00000E+00         0.00000E+00        -0.57002E+01
 
   -0.15568E+03        -0.19988E+03         0.00000E+00
   -0.19988E+03         0.16128E+02         0.00000E+00
    0.00000E+00         0.00000E+00        -0.41866E+02
 
   -0.30987E+03        -0.29978E+03         0.00000E+00
   -0.29978E+03         0.39609E+02         0.00000E+00
    0.00000E+00         0.00000E+00        -0.81079E+02
 
   -0.47796E+03        -0.37291E+03         0.00000E+00
   -0.37291E+03         0.70110E+02         0.00000E+00
    0.00000E+00         0.00000E+00        -0.12236E+03
 
   -0.65379E+03        -0.41977E+03         0.00000E+00
   -0.41977E+03         0.10465E+03         0.00000E+00
    0.00000E+00         0.00000E+00        -0.16474E+03
 
   -0.83158E+03        -0.44134E+03         0.00000E+00
   -0.44134E+03         0.14049E+03         0.00000E+00
    0.00000E+00         0.00000E+00        -0.20733E+03
 
   -0.10059E+04        -0.43898E+03         0.00000E+00
   -0.43898E+03         0.17517E+03         0.00000E+00
    0.00000E+00         0.00000E+00        -0.24923E+03
 
   -0.11719E+04        -0.41439E+03         0.00000E+00
   -0.41439E+03         0.20650E+03         0.00000E+00
    0.00000E+00         0.00000E+00        -0.28964E+03
 
   -0.13252E+04        -0.36952E+03         0.00000E+00
   -0.36952E+03         0.23260E+03         0.00000E+00
    0.00000E+00         0.00000E+00        -0.32778E+03
 
   -0.14617E+04        -0.30652E+03         0.00000E+00
   -0.30652E+03         0.25190E+03         0.00000E+00
    0.00000E+00         0.00000E+00        -0.36293E+03
 
   -0.15780E+04        -0.22765E+03         0.00000E+00
   -0.22765E+03         0.26311E+03         0.00000E+00
    0.00000E+00         0.00000E+00        -0.39446E+03
 
   -0.16711E+04        -0.13525E+03         0.00000E+00
   -0.13525E+03         0.26520E+03         0.00000E+00
    0.00000E+00         0.00000E+00        -0.42177E+03
 
   -0.17384E+04        -0.31714E+02         0.00000E+00
   -0.31714E+02         0.25740E+03         0.00000E+00
    0.00000E+00         0.00000E+00        -0.44431E+03
 
   -0.17779E+04         0.80576E+02         0.00000E+00
    0.80576E+02         0.23913E+03         0.00000E+00
    0.00000E+00         0.00000E+00        -0.46162E+03
 
   -0.17876E+04         0.19922E+03         0.00000E+00
    0.19922E+03         0.21002E+03         0.00000E+00
    0.00000E+00         0.00000E+00        -0.47328E+03
 
   -0.17663E+04         0.32183E+03         0.00000E+00
    0.32183E+03         0.16985E+03         0.00000E+00
    0.00000E+00         0.00000E+00        -0.47893E+03
 
   -0.17127E+04         0.44601E+03         0.00000E+00
    0.44601E+03         0.11852E+03         0.00000E+00
    0.00000E+00         0.00000E+00        -0.47827E+03
 
   -0.16262E+04         0.56934E+03         0.00000E+00
    0.56934E+03         0.56065E+02         0.00000E+00
    0.00000E+00         0.00000E+00        -0.47104E+03
 
   -0.15061E+04         0.68933E+03         0.00000E+00
    0.68933E+03        -0.17377E+02         0.00000E+00
    0.00000E+00         0.00000E+00        -0.45705E+03
 
   -0.13523E+04         0.80344E+03         0.00000E+00
    0.80344E+03        -0.10157E+03         0.00000E+00
    0.00000E+00         0.00000E+00        -0.43616E+03
 
   -0.11648E+04         0.90897E+03         0.00000E+00
    0.90897E+03        -0.19614E+03         0.00000E+00
    0.00000E+00         0.00000E+00        -0.40829E+03
 
   -0.94414E+03         0.10031E+04         0.00000E+00
    0.10031E+04        -0.30062E+03         0.00000E+00
    0.00000E+00         0.00000E+00        -0.37343E+03
 
   -0.69100E+03         0.10828E+04         0.00000E+00
    0.10828E+04        -0.41432E+03         0.00000E+00
    0.00000E+00         0.00000E+00        -0.33160E+03
 
   -0.40666E+03         0.11448E+04         0.00000E+00
    0.11448E+04        -0.53638E+03         0.00000E+00
    0.00000E+00         0.00000E+00        -0.28291E+03
 
   -0.15491E+03        -0.66247E+02         0.00000E+00
   -0.66247E+02         0.27151E+01         0.00000E+00
    0.00000E+00         0.00000E+00        -0.45659E+02
 
   -0.26391E+03        -0.18119E+03         0.00000E+00
   -0.18119E+03         0.15506E+02         0.00000E+00
    0.00000E+00         0.00000E+00        -0.74522E+02
 
   -0.39284E+03        -0.27254E+03         0.00000E+00
   -0.27254E+03         0.38268E+02         0.00000E+00
    0.00000E+00         0.00000E+00        -0.10637E+03
 
   -0.53580E+03        -0.34010E+03         0.00000E+00
   -0.34010E+03         0.68088E+02         0.00000E+00
    0.00000E+00         0.00000E+00        -0.14032E+03
 
   -0.68714E+03        -0.38415E+03         0.00000E+00
   -0.38415E+03         0.10220E+03         0.00000E+00
    0.00000E+00         0.00000E+00        -0.17548E+03
 
   -0.84147E+03        -0.40544E+03         0.00000E+00
   -0.40544E+03         0.13805E+03         0.00000E+00
    0.00000E+00         0.00000E+00        -0.21103E+03
 
   -0.99379E+03        -0.40508E+03         0.00000E+00
   -0.40508E+03         0.17328E+03         0.00000E+00
    0.00000E+00         0.00000E+00        -0.24615E+03
 
   -0.11395E+04        -0.38449E+03         0.00000E+00
   -0.38449E+03         0.20580E+03         0.00000E+00
    0.00000E+00         0.00000E+00        -0.28010E+03
 
   -0.12743E+04        -0.34535E+03         0.00000E+00
   -0.34535E+03         0.23376E+03         0.00000E+00
    0.00000E+00         0.00000E+00        -0.31215E+03
 
   -0.13944E+04        -0.28950E+03         0.00000E+00
   -0.28950E+03         0.25559E+03         0.00000E+00
    0.00000E+00         0.00000E+00        -0.34164E+03
 
   -0.14965E+04        -0.21897E+03         0.00000E+00
   -0.21897E+03         0.26998E+03         0.00000E+00
    0.00000E+00         0.00000E+00        -0.36796E+03
 
   -0.15777E+04        -0.13584E+03         0.00000E+00
   -0.13584E+03         0.27584E+03         0.00000E+00
    0.00000E+00         0.00000E+00        -0.39056E+03
 
   -0.16354E+04        -0.42269E+02         0.00000E+00
   -0.42269E+02         0.27233E+03         0.00000E+00
    0.00000E+00         0.00000E+00        -0.40892E+03
 
   -0.16675E+04         0.59541E+02         0.00000E+00
    0.59541E+02         0.25881E+03         0.00000E+00
    0.00000E+00         0.00000E+00        -0.42260E+03
 
   -0.16722E+04         0.16737E+03         0.00000E+00
    0.16737E+03         0.23482E+03         0.00000E+00
    0.00000E+00         0.00000E+00        -0.43121E+03
 
   -0.16481E+04         0.27899E+03         0.00000E+00
    0.27899E+03         0.20010E+03         0.00000E+00
    0.00000E+00         0.00000E+00        -0.43441E+03
 
   -0.15942E+04         0.39213E+03         0.00000E+00
    0.39213E+03         0.15449E+03         0.00000E+00
    0.00000E+00         0.00000E+00        -0.43192E+03
 
   -0.15097E+04         0.50449E+03         0.00000E+00
    0.50449E+03         0.98009E+02         0.00000E+00
    0.00000E+00         0.00000E+00        -0.42350E+03
 
   -0.13941E+04         0.61372E+03         0.00000E+00
    0.61372E+03         0.30787E+02         0.00000E+00
    0.00000E+00         0.00000E+00        -0.40899E+03
 
   -0.12473E+04         0.71737E+03         0.00000E+00
    0.71737E+03        -0.46906E+02         0.00000E+00
    0.00000E+00         0.00000E+00        -0.38826E+03
 
   -0.10695E+04         0.81291E+03         0.00000E+00
    0.81291E+03        -0.13466E+03         0.00000E+00
    0.00000E+00         0.00000E+00        -0.36126E+03
 
   -0.86138E+03         0.89766E+03         0.00000E+00
    0.89766E+03        -0.23189E+03         0.00000E+00
    0.00000E+00         0.00000E+00        -0.32798E+03
 
   -0.62380E+03         0.96880E+03         0.00000E+00
    0.96880E+03        -0.33785E+03         0.00000E+00
    0.00000E+00         0.00000E+00        -0.28849E+03
 
   -0.35822E+03         0.10233E+04         0.00000E+00
    0.10233E+04        -0.45154E+03         0.00000E+00
    0.00000E+00         0.00000E+00        -0.24293E+03
 
   -0.27501E+03        -0.59510E+02         0.00000E+00
   -0.59510E+02         0.25913E+01         0.00000E+00
    0.00000E+00         0.00000E+00        -0.81725E+02
 
   -0.36219E+03        -0.16319E+03         0.00000E+00
   -0.16319E+03         0.14859E+02         0.00000E+00
    0.00000E+00         0.00000E+00        -0.10420E+03
 
   -0.46877E+03        -0.24612E+03         0.00000E+00
   -0.24612E+03         0.36826E+02         0.00000E+00
    0.00000E+00         0.00000E+00        -0.12958E+03
 
   -0.58937E+03        -0.30798E+03         0.00000E+00
   -0.30798E+03         0.65819E+02         0.00000E+00
    0.00000E+00         0.00000E+00        -0.15706E+03
 
   -0.71877E+03        -0.34892E+03         0.00000E+00
   -0.34892E+03         0.99276E+02         0.00000E+00
    0.00000E+00         0.00000E+00        -0.18585E+03
 
   -0.85201E+03        -0.36949E+03         0.00000E+00
   -0.36949E+03         0.13479E+03         0.00000E+00
    0.00000E+00         0.00000E+00        -0.21517E+03
 
   -0.98439E+03        -0.37059E+03         0.00000E+00
   -0.37059E+03         0.17013E+03         0.00000E+00
    0.00000E+00         0.00000E+00        -0.24428E+03
 
   -0.11116E+04        -0.35339E+03         0.00000E+00
   -0.35339E+03         0.20329E+03         0.00000E+00
    0.00000E+00         0.00000E+00        -0.27248E+03
 
   -0.12295E+04        -0.31933E+03         0.00000E+00
   -0.31933E+03         0.23247E+03         0.00000E+00
    0.00000E+00         0.00000E+00        -0.29910E+03
 
   -0.13346E+04        -0.27002E+03         0.00000E+00
   -0.27002E+03         0.25612E+03         0.00000E+00
    0.00000E+00         0.00000E+00        -0.32354E+03
 
   -0.14236E+04        -0.20723E+03         0.00000E+00
   -0.20723E+03         0.27289E+03         0.00000E+00
    0.00000E+00         0.00000E+00        -0.34521E+03
 
   -0.14937E+04        -0.13282E+03         0.00000E+00
   -0.13282E+03         0.28168E+03         0.00000E+00
    0.00000E+00         0.00000E+00        -0.36360E+03
 
   -0.15424E+04        -0.48742E+02         0.00000E+00
   -0.48742E+02         0.28161E+03         0.00000E+00
    0.00000E+00         0.00000E+00        -0.37822E+03
 
   -0.15675E+04         0.43011E+02         0.00000E+00
    0.43011E+02         0.27197E+03         0.00000E+00
    0.00000E+00         0.00000E+00        -0.38867E+03
 
   -0.15675E+04         0.14039E+03         0.00000E+00
    0.14039E+03         0.25227E+03         0.00000E+00
    0.00000E+00         0.00000E+00        -0.39457E+03
 
   -0.15409E+04         0.24134E+03         0.00000E+00
    0.24134E+03         0.22218E+03         0.00000E+00
    0.00000E+00         0.00000E+00        -0.39561E+03
 
   -0.14866E+04         0.34372E+03         0.00000E+00
    0.34372E+03         0.18153E+03         0.00000E+00
    0.00000E+00         0.00000E+00        -0.39151E+03
 
   -0.14039E+04         0.44539E+03         0.00000E+00
    0.44539E+03         0.13030E+03         0.00000E+00
    0.00000E+00         0.00000E+00        -0.38209E+03
 
   -0.12925E+04         0.54414E+03         0.00000E+00
    0.54414E+03         0.68636E+02         0.00000E+00
    0.00000E+00         0.00000E+00        -0.36717E+03
 
   -0.11524E+04         0.63766E+03         0.00000E+00
    0.63766E+03        -0.31745E+01         0.00000E+00
    0.00000E+00         0.00000E+00        -0.34666E+03
 
   -0.98373E+03         0.72359E+03         0.00000E+00
    0.72359E+03        -0.84675E+02         0.00000E+00
    0.00000E+00         0.00000E+00        -0.32052E+03
 
   -0.78736E+03         0.79943E+03         0.00000E+00
    0.79943E+03        -0.17523E+03         0.00000E+00
    0.00000E+00         0.00000E+00        -0.28878E+03
 
   -0.56435E+03         0.86258E+03         0.00000E+00
    0.86258E+03        -0.27399E+03         0.00000E+00
    0.00000E+00         0.00000E+00        -0.25150E+03
 
   -0.31628E+03         0.91029E+03         0.00000E+00
    0.91029E+03        -0.37989E+03         0.00000E+00
    0.00000E+00         0.00000E+00        -0.20885E+03
 
   -0.38266E+03        -0.53082E+02         0.00000E+00
   -0.53082E+02         0.24682E+01         0.00000E+00
    0.00000E+00         0.00000E+00        -0.11406E+03
 
   -0.45077E+03        -0.14591E+03         0.00000E+00
   -0.14591E+03         0.14204E+02         0.00000E+00
    0.00000E+00         0.00000E+00        -0.13097E+03
 
   -0.53768E+03        -0.22058E+03         0.00000E+00
   -0.22058E+03         0.35338E+02         0.00000E+00
    0.00000E+00         0.00000E+00        -0.15070E+03
 
   -0.63848E+03        -0.27671E+03         0.00000E+00
   -0.27671E+03         0.63411E+02         0.00000E+00
    0.00000E+00         0.00000E+00        -0.17252E+03
 
   -0.74837E+03        -0.31433E+03         0.00000E+00
   -0.31433E+03         0.96044E+02         0.00000E+00
    0.00000E+00         0.00000E+00        -0.19570E+03
 
   -0.86273E+03        -0.33383E+03         0.00000E+00
   -0.33383E+03         0.13098E+03         0.00000E+00
    0.00000E+00         0.00000E+00        -0.21953E+03
 
   -0.97719E+03        -0.33593E+03         0.00000E+00
   -0.33593E+03         0.16610E+03         0.00000E+00
    0.00000E+00         0.00000E+00        -0.24333E+03
 
   -0.10876E+04        -0.32161E+03         0.00000E+00
   -0.32161E+03         0.19948E+03         0.00000E+00
    0.00000E+00         0.00000E+00        -0.26645E+03
 
   -0.11903E+04        -0.29209E+03         0.00000E+00
   -0.29209E+03         0.22938E+03         0.00000E+00
    0.00000E+00         0.00000E+00        -0.28827E+03
 
   -0.12817E+04        -0.24876E+03         0.00000E+00
   -0.24876E+03         0.25425E+03         0.00000E+00
    0.00000E+00         0.00000E+00        -0.30822E+03
 
   -0.13587E+04        -0.19317E+03         0.00000E+00
   -0.19317E+03         0.27277E+03         0.00000E+00
    0.00000E+00         0.00000E+00        -0.32577E+03
 
   -0.14185E+04        -0.12698E+03         0.00000E+00
   -0.12698E+03         0.28382E+03         0.00000E+00
    0.00000E+00         0.00000E+00        -0.34042E+03
 
   -0.14589E+04        -0.51922E+02         0.00000E+00
   -0.51922E+02         0.28646E+03         0.00000E+00
    0.00000E+00         0.00000E+00        -0.35173E+03
 
   -0.14777E+04         0.30194E+02         0.00000E+00
    0.30194E+02         0.27998E+03         0.00000E+00
    0.00000E+00         0.00000E+00        -0.35931E+03
 
   -0.14732E+04         0.11751E+03         0.00000E+00
    0.11751E+03         0.26384E+03         0.00000E+00
    0.00000E+00         0.00000E+00        -0.36282E+03
 
   -0.14442E+04         0.20812E+03         0.00000E+00
    0.20812E+03         0.23768E+03         0.00000E+00
    0.00000E+00         0.00000E+00        -0.36195E+03
 
   -0.13895E+04         0.30007E+03         0.00000E+00
    0.30007E+03         0.20129E+03         0.00000E+00
    0.00000E+00         0.00000E+00        -0.35647E+03
 
   -0.13086E+04         0.39137E+03         0.00000E+00
    0.39137E+03         0.15466E+03         0.00000E+00
    0.00000E+00         0.00000E+00        -0.34618E+03
 
   -0.12011E+04         0.47996E+03         0.00000E+00
    0.47996E+03         0.97935E+02         0.00000E+00
    0.00000E+00         0.00000E+00        -0.33096E+03
 
   -0.10671E+04         0.56371E+03         0.00000E+00
    0.56371E+03         0.31414E+02         0.00000E+00
    0.00000E+00         0.00000E+00        -0.31071E+03
 
   -0.90699E+03         0.64044E+03         0.00000E+00
    0.64044E+03        -0.44408E+02         0.00000E+00
    0.00000E+00         0.00000E+00        -0.28542E+03
 
   -0.72156E+03         0.70784E+03         0.00000E+00
    0.70784E+03        -0.12885E+03         0.00000E+00
    0.00000E+00         0.00000E+00        -0.25512E+03
 
   -0.51205E+03         0.76353E+03         0.00000E+00
    0.76353E+03        -0.22100E+03         0.00000E+00
    0.00000E+00         0.00000E+00        -0.21991E+03
 
   -0.28013E+03         0.80503E+03         0.00000E+00
    0.80503E+03        -0.31973E+03         0.00000E+00
    0.00000E+00         0.00000E+00        -0.17996E+03
 
   -0.47843E+03        -0.46960E+02         0.00000E+00
   -0.46960E+02         0.23485E+01         0.00000E+00
    0.00000E+00         0.00000E+00        -0.14282E+03
 
   -0.52995E+03        -0.12935E+03         0.00000E+00
   -0.12935E+03         0.13560E+02         0.00000E+00
    0.00000E+00         0.00000E+00        -0.15492E+03
 
   -0.59966E+03        -0.19597E+03         0.00000E+00
   -0.19597E+03         0.33850E+02         0.00000E+00
    0.00000E+00         0.00000E+00        -0.16974E+03
 
   -0.68304E+03        -0.24639E+03         0.00000E+00
   -0.24639E+03         0.60956E+02         0.00000E+00
    0.00000E+00         0.00000E+00        -0.18663E+03
 
   -0.77568E+03        -0.28054E+03         0.00000E+00
   -0.28054E+03         0.92665E+02         0.00000E+00
    0.00000E+00         0.00000E+00        -0.20490E+03
 
   -0.87328E+03        -0.29870E+03         0.00000E+00
   -0.29870E+03         0.12685E+03         0.00000E+00
    0.00000E+00         0.00000E+00        -0.22393E+03
 
   -0.97175E+03        -0.30143E+03         0.00000E+00
   -0.30143E+03         0.16152E+03         0.00000E+00
    0.00000E+00         0.00000E+00        -0.24307E+03
 
   -0.10672E+04        -0.28956E+03         0.00000E+00
   -0.28956E+03         0.19480E+03         0.00000E+00
    0.00000E+00         0.00000E+00        -0.26173E+03
 
   -0.11561E+04        -0.26410E+03         0.00000E+00
   -0.26410E+03         0.22503E+03         0.00000E+00
    0.00000E+00         0.00000E+00        -0.27932E+03
 
   -0.12351E+04        -0.22627E+03         0.00000E+00
   -0.22627E+03         0.25068E+03         0.00000E+00
    0.00000E+00         0.00000E+00        -0.29533E+03
 
   -0.13012E+04        -0.17740E+03         0.00000E+00
   -0.17740E+03         0.27043E+03         0.00000E+00
    0.00000E+00         0.00000E+00        -0.30924E+03
 
   -0.13518E+04        -0.11895E+03         0.00000E+00
   -0.11895E+03         0.28317E+03         0.00000E+00
    0.00000E+00         0.00000E+00        -0.32060E+03
 
   -0.13846E+04        -0.52472E+02         0.00000E+00
   -0.52472E+02         0.28795E+03         0.00000E+00
    0.00000E+00         0.00000E+00        -0.32899E+03
 
   -0.13975E+04         0.20420E+02         0.00000E+00
    0.20420E+02         0.28401E+03         0.00000E+00
    0.00000E+00         0.00000E+00        -0.33405E+03
 
   -0.13890E+04         0.98046E+02         0.00000E+00
    0.98046E+02         0.27081E+03         0.00000E+00
    0.00000E+00         0.00000E+00        -0.33545E+03
 
   -0.13577E+04         0.17868E+03         0.00000E+00
    0.17868E+03         0.24795E+03         0.00000E+00
    0.00000E+00         0.00000E+00        -0.33293E+03
 
   -0.13027E+04         0.26054E+03         0.00000E+00
    0.26054E+03         0.21522E+03         0.00000E+00
    0.00000E+00         0.00000E+00        -0.32625E+03
 
   -0.12234E+04         0.34181E+03         0.00000E+00
    0.34181E+03         0.17260E+03         0.00000E+00
    0.00000E+00         0.00000E+00        -0.31524E+03
 
   -0.11195E+04         0.42059E+03         0.00000E+00
    0.42059E+03         0.12023E+03         0.00000E+00
    0.00000E+00         0.00000E+00        -0.29979E+03
 
   -0.99119E+03         0.49496E+03         0.00000E+00
    0.49496E+03         0.58423E+02         0.00000E+00
    0.00000E+00         0.00000E+00        -0.27983E+03
 
   -0.83889E+03         0.56289E+03         0.00000E+00
    0.56289E+03        -0.12288E+02         0.00000E+00
    0.00000E+00         0.00000E+00        -0.25535E+03
 
   -0.66350E+03         0.62231E+03         0.00000E+00
    0.62231E+03        -0.91185E+02         0.00000E+00
    0.00000E+00         0.00000E+00        -0.22641E+03
 
   -0.46634E+03         0.67106E+03         0.00000E+00
    0.67106E+03        -0.17733E+03         0.00000E+00
    0.00000E+00         0.00000E+00        -0.19310E+03
 
   -0.24918E+03         0.70691E+03         0.00000E+00
    0.70691E+03        -0.26953E+03         0.00000E+00
    0.00000E+00         0.00000E+00        -0.15561E+03
 
   -0.56284E+03        -0.41131E+02         0.00000E+00
   -0.41131E+02         0.22345E+01         0.00000E+00
    0.00000E+00         0.00000E+00        -0.16818E+03
 
   -0.60005E+03        -0.11352E+03         0.00000E+00
   -0.11352E+03         0.12941E+02         0.00000E+00
    0.00000E+00         0.00000E+00        -0.17613E+03
 
   -0.65482E+03        -0.17231E+03         0.00000E+00
   -0.17231E+03         0.32405E+02         0.00000E+00
    0.00000E+00         0.00000E+00        -0.18673E+03
 
   -0.72301E+03        -0.21706E+03         0.00000E+00
   -0.21706E+03         0.58537E+02         0.00000E+00
    0.00000E+00         0.00000E+00        -0.19934E+03
 
   -0.80052E+03        -0.24765E+03         0.00000E+00
   -0.24765E+03         0.89275E+02         0.00000E+00
    0.00000E+00         0.00000E+00        -0.21337E+03
 
   -0.88336E+03        -0.26426E+03         0.00000E+00
   -0.26426E+03         0.12262E+03         0.00000E+00
    0.00000E+00         0.00000E+00        -0.22822E+03
 
   -0.96770E+03        -0.26733E+03         0.00000E+00
   -0.26733E+03         0.15666E+03         0.00000E+00
    0.00000E+00         0.00000E+00        -0.24331E+03
 
   -0.10499E+04        -0.25754E+03         0.00000E+00
   -0.25754E+03         0.18964E+03         0.00000E+00
    0.00000E+00         0.00000E+00        -0.25808E+03
 
   -0.11265E+04        -0.23574E+03         0.00000E+00
   -0.23574E+03         0.21990E+03         0.00000E+00
    0.00000E+00         0.00000E+00        -0.27199E+03
 
   -0.11944E+04        -0.20297E+03         0.00000E+00
   -0.20297E+03         0.24598E+03         0.00000E+00
    0.00000E+00         0.00000E+00        -0.28454E+03
 
   -0.12508E+04        -0.16038E+03         0.00000E+00
   -0.16038E+03         0.26657E+03         0.00000E+00
    0.00000E+00         0.00000E+00        -0.29527E+03
 
   -0.12931E+04        -0.10925E+03         0.00000E+00
   -0.10925E+03         0.28055E+03         0.00000E+00
    0.00000E+00         0.00000E+00        -0.30376E+03
 
   -0.13190E+04        -0.50941E+02         0.00000E+00
   -0.50941E+02         0.28697E+03         0.00000E+00
    0.00000E+00         0.00000E+00        -0.30960E+03
 
   -0.13266E+04         0.13119E+02         0.00000E+00
    0.13119E+02         0.28508E+03         0.00000E+00
    0.00000E+00         0.00000E+00        -0.31246E+03
 
   -0.13144E+04         0.81431E+02         0.00000E+00
    0.81431E+02         0.27428E+03         0.00000E+00
    0.00000E+00         0.00000E+00        -0.31204E+03
 
   -0.12811E+04         0.15245E+03         0.00000E+00
    0.15245E+03         0.25419E+03         0.00000E+00
    0.00000E+00         0.00000E+00        -0.30808E+03
 
   -0.12258E+04         0.22457E+03         0.00000E+00
    0.22457E+03         0.22458E+03         0.00000E+00
    0.00000E+00         0.00000E+00        -0.30037E+03
 
   -0.11480E+04         0.29615E+03         0.00000E+00
    0.29615E+03         0.18541E+03         0.00000E+00
    0.00000E+00         0.00000E+00        -0.28876E+03
 
   -0.10474E+04         0.36549E+03         0.00000E+00
    0.36549E+03         0.13685E+03         0.00000E+00
    0.00000E+00         0.00000E+00        -0.27315E+03
 
   -0.92418E+03         0.43083E+03         0.00000E+00
    0.43083E+03         0.79217E+02         0.00000E+00
    0.00000E+00         0.00000E+00        -0.25349E+03
 
   -0.77898E+03         0.49038E+03         0.00000E+00
    0.49038E+03         0.13061E+02         0.00000E+00
    0.00000E+00         0.00000E+00        -0.22978E+03
 
   -0.61270E+03         0.54225E+03         0.00000E+00
    0.54225E+03        -0.60873E+02         0.00000E+00
    0.00000E+00         0.00000E+00        -0.20207E+03
 
   -0.42672E+03         0.58453E+03         0.00000E+00
    0.58453E+03        -0.14161E+03         0.00000E+00
    0.00000E+00         0.00000E+00        -0.17050E+03
 
   -0.22286E+03         0.61525E+03         0.00000E+00
    0.61525E+03        -0.22793E+03         0.00000E+00
    0.00000E+00         0.00000E+00        -0.13524E+03
 
   -0.63641E+03        -0.35579E+02         0.00000E+00
   -0.35579E+02         0.21285E+01         0.00000E+00
    0.00000E+00         0.00000E+00        -0.19029E+03
 
   -0.66140E+03        -0.98363E+02         0.00000E+00
   -0.98363E+02         0.12360E+02         0.00000E+00
    0.00000E+00         0.00000E+00        -0.19471E+03
 
   -0.70332E+03        -0.14956E+03         0.00000E+00
   -0.14956E+03         0.31037E+02         0.00000E+00
    0.00000E+00         0.00000E+00        -0.20169E+03
 
   -0.75838E+03        -0.18872E+03         0.00000E+00
   -0.18872E+03         0.56225E+02         0.00000E+00
    0.00000E+00         0.00000E+00        -0.21065E+03
 
   -0.82277E+03        -0.21570E+03         0.00000E+00
   -0.21570E+03         0.85991E+02         0.00000E+00
    0.00000E+00         0.00000E+00        -0.22103E+03
 
   -0.89276E+03        -0.23061E+03         0.00000E+00
   -0.23061E+03         0.11845E+03         0.00000E+00
    0.00000E+00         0.00000E+00        -0.23229E+03
 
   -0.96474E+03        -0.23378E+03         0.00000E+00
   -0.23378E+03         0.15179E+03         0.00000E+00
    0.00000E+00         0.00000E+00        -0.24389E+03
 
   -0.10353E+04        -0.22576E+03         0.00000E+00
   -0.22576E+03         0.18430E+03         0.00000E+00
    0.00000E+00         0.00000E+00        -0.25529E+03
 
   -0.11011E+04        -0.20728E+03         0.00000E+00
   -0.20728E+03         0.21441E+03         0.00000E+00
    0.00000E+00         0.00000E+00        -0.26602E+03
 
   -0.11593E+04        -0.17919E+03         0.00000E+00
   -0.17919E+03         0.24066E+03         0.00000E+00
    0.00000E+00         0.00000E+00        -0.27559E+03
 
   -0.12070E+04        -0.14250E+03         0.00000E+00
   -0.14250E+03         0.26178E+03         0.00000E+00
    0.00000E+00         0.00000E+00        -0.28358E+03
 
   -0.12419E+04        -0.98306E+02         0.00000E+00
   -0.98306E+02         0.27665E+03         0.00000E+00
    0.00000E+00         0.00000E+00        -0.28957E+03
 
   -0.12617E+04        -0.47782E+02         0.00000E+00
   -0.47782E+02         0.28433E+03         0.00000E+00
    0.00000E+00         0.00000E+00        -0.29322E+03
 
   -0.12646E+04         0.78132E+01         0.00000E+00
    0.78132E+01         0.28404E+03         0.00000E+00
    0.00000E+00         0.00000E+00        -0.29418E+03
 
   -0.12491E+04         0.67167E+02         0.00000E+00
    0.67167E+02         0.27521E+03         0.00000E+00
    0.00000E+00         0.00000E+00        -0.29218E+03
 
   -0.12140E+04         0.12891E+03         0.00000E+00
    0.12891E+03         0.25741E+03         0.00000E+00
    0.00000E+00         0.00000E+00        -0.28699E+03
 
   -0.11585E+04         0.19163E+03         0.00000E+00
    0.19163E+03         0.23043E+03         0.00000E+00
    0.00000E+00         0.00000E+00        -0.27842E+03
 
   -0.10819E+04         0.25386E+03         0.00000E+00
    0.25386E+03         0.19423E+03         0.00000E+00
    0.00000E+00         0.00000E+00        -0.26631E+03
 
   -0.98428E+03         0.31410E+03         0.00000E+00
    0.31410E+03         0.14896E+03         0.00000E+00
    0.00000E+00         0.00000E+00        -0.25060E+03
 
   -0.86572E+03         0.37080E+03         0.00000E+00
    0.37080E+03         0.94975E+02         0.00000E+00
    0.00000E+00         0.00000E+00        -0.23122E+03
 
   -0.72686E+03         0.42233E+03         0.00000E+00
    0.42233E+03         0.32827E+02         0.00000E+00
    0.00000E+00         0.00000E+00        -0.20821E+03
 
   -0.56871E+03         0.46708E+03         0.00000E+00
    0.46708E+03        -0.36717E+02         0.00000E+00
    0.00000E+00         0.00000E+00        -0.18163E+03
 
   -0.39270E+03         0.50333E+03         0.00000E+00
    0.50333E+03        -0.11266E+03         0.00000E+00
    0.00000E+00         0.00000E+00        -0.15161E+03
 
   -0.20066E+03         0.52936E+03         0.00000E+00
    0.52936E+03        -0.19377E+03         0.00000E+00
    0.00000E+00         0.00000E+00        -0.11833E+03
 
   -0.69963E+03        -0.30283E+02         0.00000E+00
   -0.30283E+02         0.20321E+01         0.00000E+00
    0.00000E+00         0.00000E+00        -0.20928E+03
 
   -0.71429E+03        -0.83847E+02         0.00000E+00
   -0.83847E+02         0.11829E+02         0.00000E+00
    0.00000E+00         0.00000E+00        -0.21074E+03
 
   -0.74532E+03        -0.12768E+03         0.00000E+00
   -0.12768E+03         0.29779E+02         0.00000E+00
    0.00000E+00         0.00000E+00        -0.21466E+03
 
   -0.78917E+03        -0.16135E+03         0.00000E+00
   -0.16135E+03         0.54078E+02         0.00000E+00
    0.00000E+00         0.00000E+00        -0.22053E+03
 
   -0.84232E+03        -0.18470E+03         0.00000E+00
   -0.18470E+03         0.82915E+02         0.00000E+00
    0.00000E+00         0.00000E+00        -0.22782E+03
 
   -0.90127E+03        -0.19778E+03         0.00000E+00
   -0.19778E+03         0.11450E+03         0.00000E+00
    0.00000E+00         0.00000E+00        -0.23603E+03
 
   -0.96262E+03        -0.20085E+03         0.00000E+00
   -0.20085E+03         0.14710E+03         0.00000E+00
    0.00000E+00         0.00000E+00        -0.24465E+03
 
   -0.10231E+04        -0.19436E+03         0.00000E+00
   -0.19436E+03         0.17908E+03         0.00000E+00
    0.00000E+00         0.00000E+00        -0.25320E+03
 
   -0.10796E+04        -0.17889E+03         0.00000E+00
   -0.17889E+03         0.20890E+03         0.00000E+00
    0.00000E+00         0.00000E+00        -0.26121E+03
 
   -0.11293E+04        -0.15518E+03         0.00000E+00
   -0.15518E+03         0.23515E+03         0.00000E+00
    0.00000E+00         0.00000E+00        -0.26825E+03
 
   -0.11695E+04        -0.12405E+03         0.00000E+00
   -0.12405E+03         0.25657E+03         0.00000E+00
    0.00000E+00         0.00000E+00        -0.27389E+03
 
   -0.11979E+04        -0.86442E+02         0.00000E+00
   -0.86442E+02         0.27206E+03         0.00000E+00
    0.00000E+00         0.00000E+00        -0.27776E+03
 
   -0.12124E+04        -0.43366E+02         0.00000E+00
   -0.43366E+02         0.28068E+03         0.00000E+00
    0.00000E+00         0.00000E+00        -0.27952E+03
 
   -0.12112E+04         0.41009E+01         0.00000E+00
    0.41009E+01         0.28165E+03         0.00000E+00
    0.00000E+00         0.00000E+00        -0.27887E+03
 
   -0.11929E+04         0.54825E+02         0.00000E+00
    0.54825E+02         0.27439E+03         0.00000E+00
    0.00000E+00         0.00000E+00        -0.27554E+03
 
   -0.11562E+04         0.10762E+03         0.00000E+00
    0.10762E+03         0.25848E+03         0.00000E+00
    0.00000E+00         0.00000E+00        -0.26931E+03
 
   -0.11004E+04         0.16126E+03         0.00000E+00
    0.16126E+03         0.23370E+03         0.00000E+00
    0.00000E+00         0.00000E+00        -0.26001E+03
 
   -0.10250E+04         0.21447E+03         0.00000E+00
    0.21447E+03         0.20000E+03         0.00000E+00
    0.00000E+00         0.00000E+00        -0.24750E+03
 
   -0.92993E+03         0.26594E+03         0.00000E+00
    0.26594E+03         0.15755E+03         0.00000E+00
    0.00000E+00         0.00000E+00        -0.23171E+03
 
   -0.81543E+03         0.31432E+03         0.00000E+00
    0.31432E+03         0.10671E+03         0.00000E+00
    0.00000E+00         0.00000E+00        -0.21262E+03
 
   -0.68216E+03         0.35821E+03         0.00000E+00
    0.35821E+03         0.48033E+02         0.00000E+00
    0.00000E+00         0.00000E+00        -0.19024E+03
 
   -0.53115E+03         0.39619E+03         0.00000E+00
    0.39619E+03        -0.17690E+02         0.00000E+00
    0.00000E+00         0.00000E+00        -0.16465E+03
 
   -0.36386E+03         0.42680E+03         0.00000E+00
    0.42680E+03        -0.89452E+02         0.00000E+00
    0.00000E+00         0.00000E+00        -0.13599E+03
 
   -0.18217E+03         0.44856E+03         0.00000E+00
    0.44856E+03        -0.16601E+03         0.00000E+00
    0.00000E+00         0.00000E+00        -0.10446E+03
 
   -0.75294E+03        -0.25216E+02         0.00000E+00
   -0.25216E+02         0.19468E+01         0.00000E+00
    0.00000E+00         0.00000E+00        -0.22530E+03
 
   -0.75903E+03        -0.69909E+02         0.00000E+00
   -0.69909E+02         0.11358E+02         0.00000E+00
    0.00000E+00         0.00000E+00        -0.22430E+03
 
   -0.78096E+03        -0.10659E+03         0.00000E+00
   -0.10659E+03         0.28654E+02         0.00000E+00
    0.00000E+00         0.00000E+00        -0.22569E+03
 
   -0.81543E+03        -0.13487E+03         0.00000E+00
   -0.13487E+03         0.52150E+02         0.00000E+00
    0.00000E+00         0.00000E+00        -0.22898E+03
 
   -0.85914E+03        -0.15458E+03         0.00000E+00
   -0.15458E+03         0.80130E+02         0.00000E+00
    0.00000E+00         0.00000E+00        -0.23370E+03
 
   -0.90878E+03        -0.16576E+03         0.00000E+00
   -0.16576E+03         0.11089E+03         0.00000E+00
    0.00000E+00         0.00000E+00        -0.23937E+03
 
   -0.96113E+03        -0.16858E+03         0.00000E+00
   -0.16858E+03         0.14278E+03         0.00000E+00
    0.00000E+00         0.00000E+00        -0.24551E+03
 
   -0.10131E+04        -0.16341E+03         0.00000E+00
   -0.16341E+03         0.17420E+03         0.00000E+00
    0.00000E+00         0.00000E+00        -0.25166E+03
 
   -0.10617E+04        -0.15071E+03         0.00000E+00
   -0.15071E+03         0.20366E+03         0.00000E+00
    0.00000E+00         0.00000E+00        -0.25740E+03
 
   -0.11041E+04        -0.13109E+03         0.00000E+00
   -0.13109E+03         0.22980E+03         0.00000E+00
    0.00000E+00         0.00000E+00        -0.26230E+03
 
   -0.11380E+04        -0.10524E+03         0.00000E+00
   -0.10524E+03         0.25137E+03         0.00000E+00
    0.00000E+00         0.00000E+00        -0.26598E+03
 
   -0.11609E+04        -0.73921E+02         0.00000E+00
   -0.73921E+02         0.26727E+03         0.00000E+00
    0.00000E+00         0.00000E+00        -0.26807E+03
 
   -0.11708E+04        -0.37992E+02         0.00000E+00
   -0.37992E+02         0.27658E+03         0.00000E+00
    0.00000E+00         0.00000E+00        -0.26826E+03
 
   -0.11661E+04         0.16461E+01         0.00000E+00
    0.16461E+01         0.27852E+03         0.00000E+00
    0.00000E+00         0.00000E+00        -0.26626E+03
 
   -0.11452E+04         0.44037E+02         0.00000E+00
    0.44037E+02         0.27251E+03         0.00000E+00
    0.00000E+00         0.00000E+00        -0.26181E+03
 
   -0.11072E+04         0.88180E+02         0.00000E+00
    0.88180E+02         0.25813E+03         0.00000E+00
    0.00000E+00         0.00000E+00        -0.25472E+03
 
   -0.10512E+04         0.13303E+03         0.00000E+00
    0.13303E+03         0.23515E+03         0.00000E+00
    0.00000E+00         0.00000E+00        -0.24482E+03
 
   -0.97683E+03         0.17752E+03         0.00000E+00
    0.17752E+03         0.20354E+03         0.00000E+00
    0.00000E+00         0.00000E+00        -0.23199E+03
 
   -0.88399E+03         0.22052E+03         0.00000E+00
    0.22052E+03         0.16346E+03         0.00000E+00
    0.00000E+00         0.00000E+00        -0.21616E+03
 
   -0.77299E+03         0.26090E+03         0.00000E+00
    0.26090E+03         0.11527E+03         0.00000E+00
    0.00000E+00         0.00000E+00        -0.19732E+03
 
   -0.64452E+03         0.29746E+03         0.00000E+00
    0.29746E+03         0.59543E+02         0.00000E+00
    0.00000E+00         0.00000E+00        -0.17549E+03
 
   -0.49964E+03         0.32902E+03         0.00000E+00
    0.32902E+03        -0.29216E+01         0.00000E+00
    0.00000E+00         0.00000E+00        -0.15077E+03
 
   -0.33984E+03         0.35433E+03         0.00000E+00
    0.35433E+03        -0.71111E+02         0.00000E+00
    0.00000E+00         0.00000E+00        -0.12329E+03
 
   -0.16701E+03         0.37215E+03         0.00000E+00
    0.37215E+03        -0.14378E+03         0.00000E+00
    0.00000E+00         0.00000E+00        -0.93235E+02
 
   -0.79674E+03        -0.20349E+02         0.00000E+00
   -0.20349E+02         0.18739E+01         0.00000E+00
    0.00000E+00         0.00000E+00        -0.23846E+03
 
   -0.79588E+03        -0.56477E+02         0.00000E+00
   -0.56477E+02         0.10953E+02         0.00000E+00
    0.00000E+00         0.00000E+00        -0.23548E+03
 
   -0.81040E+03        -0.86198E+02         0.00000E+00
   -0.86198E+02         0.27686E+02         0.00000E+00
    0.00000E+00         0.00000E+00        -0.23481E+03
 
   -0.83721E+03        -0.10918E+03         0.00000E+00
   -0.10918E+03         0.50481E+02         0.00000E+00
    0.00000E+00         0.00000E+00        -0.23602E+03
 
   -0.87318E+03        -0.12528E+03         0.00000E+00
   -0.12528E+03         0.77707E+02         0.00000E+00
    0.00000E+00         0.00000E+00        -0.23864E+03
 
   -0.91517E+03        -0.13448E+03         0.00000E+00
   -0.13448E+03         0.10773E+03         0.00000E+00
    0.00000E+00         0.00000E+00        -0.24223E+03
 
   -0.96011E+03        -0.13694E+03         0.00000E+00
   -0.13694E+03         0.13896E+03         0.00000E+00
    0.00000E+00         0.00000E+00        -0.24635E+03
 
   -0.10050E+04        -0.13292E+03         0.00000E+00
   -0.13292E+03         0.16985E+03         0.00000E+00
    0.00000E+00         0.00000E+00        -0.25055E+03
 
   -0.10471E+04        -0.12279E+03         0.00000E+00
   -0.12279E+03         0.19895E+03         0.00000E+00
    0.00000E+00         0.00000E+00        -0.25443E+03
 
   -0.10836E+04        -0.10704E+03         0.00000E+00
   -0.10704E+03         0.22491E+03         0.00000E+00
    0.00000E+00         0.00000E+00        -0.25759E+03
 
   -0.11121E+04        -0.86215E+02         0.00000E+00
   -0.86215E+02         0.24652E+03         0.00000E+00
    0.00000E+00         0.00000E+00        -0.25966E+03
 
   -0.11304E+04        -0.60940E+02         0.00000E+00
   -0.60940E+02         0.26269E+03         0.00000E+00
    0.00000E+00         0.00000E+00        -0.26031E+03
 
   -0.11365E+04        -0.31900E+02         0.00000E+00
   -0.31900E+02         0.27250E+03         0.00000E+00
    0.00000E+00         0.00000E+00        -0.25921E+03
 
   -0.11289E+04         0.16742E+00         0.00000E+00
    0.16742E+00         0.27517E+03         0.00000E+00
    0.00000E+00         0.00000E+00        -0.25611E+03
 
   -0.11060E+04         0.34484E+02         0.00000E+00
    0.34484E+02         0.27013E+03         0.00000E+00
    0.00000E+00         0.00000E+00        -0.25075E+03
 
   -0.10668E+04         0.70232E+02         0.00000E+00
    0.70232E+02         0.25696E+03         0.00000E+00
    0.00000E+00         0.00000E+00        -0.24296E+03
 
   -0.10107E+04         0.10656E+03         0.00000E+00
    0.10656E+03         0.23544E+03         0.00000E+00
    0.00000E+00         0.00000E+00        -0.23257E+03
 
   -0.93714E+03         0.14258E+03         0.00000E+00
    0.14258E+03         0.20552E+03         0.00000E+00
    0.00000E+00         0.00000E+00        -0.21949E+03
 
   -0.84617E+03         0.17738E+03         0.00000E+00
    0.17738E+03         0.16737E+03         0.00000E+00
    0.00000E+00         0.00000E+00        -0.20364E+03
 
   -0.73810E+03         0.21003E+03         0.00000E+00
    0.21003E+03         0.12136E+03         0.00000E+00
    0.00000E+00         0.00000E+00        -0.18502E+03
 
   -0.61364E+03         0.23955E+03         0.00000E+00
    0.23955E+03         0.68080E+02         0.00000E+00
    0.00000E+00         0.00000E+00        -0.16367E+03
 
   -0.47388E+03         0.26496E+03         0.00000E+00
    0.26496E+03         0.83165E+01         0.00000E+00
    0.00000E+00         0.00000E+00        -0.13967E+03
 
   -0.32031E+03         0.28527E+03         0.00000E+00
    0.28527E+03        -0.56906E+02         0.00000E+00
    0.00000E+00         0.00000E+00        -0.11317E+03
 
   -0.15485E+03         0.29946E+03         0.00000E+00
    0.29946E+03        -0.12634E+03         0.00000E+00
    0.00000E+00         0.00000E+00        -0.84355E+02
 
   -0.83135E+03        -0.15649E+02         0.00000E+00
   -0.15649E+02         0.18144E+01         0.00000E+00
    0.00000E+00         0.00000E+00        -0.24886E+03
 
   -0.82507E+03        -0.43471E+02         0.00000E+00
   -0.43471E+02         0.10622E+02         0.00000E+00
    0.00000E+00         0.00000E+00        -0.24433E+03
 
   -0.83377E+03        -0.66404E+02         0.00000E+00
   -0.66404E+02         0.26891E+02         0.00000E+00
    0.00000E+00         0.00000E+00        -0.24206E+03
 
   -0.85455E+03        -0.84182E+02         0.00000E+00
   -0.84182E+02         0.49106E+02         0.00000E+00
    0.00000E+00         0.00000E+00        -0.24163E+03
 
   -0.88442E+03        -0.96672E+02         0.00000E+00
   -0.96672E+02         0.75704E+02         0.00000E+00
    0.00000E+00         0.00000E+00        -0.24261E+03
 
   -0.92037E+03        -0.10387E+03         0.00000E+00
   -0.10387E+03         0.10511E+03         0.00000E+00
    0.00000E+00         0.00000E+00        -0.24458E+03
 
   -0.95944E+03        -0.10586E+03         0.00000E+00
   -0.10586E+03         0.13577E+03         0.00000E+00
    0.00000E+00         0.00000E+00        -0.24710E+03
 
   -0.99877E+03        -0.10286E+03         0.00000E+00
   -0.10286E+03         0.16620E+03         0.00000E+00
    0.00000E+00         0.00000E+00        -0.24977E+03
 
   -0.10356E+04        -0.95151E+02         0.00000E+00
   -0.95151E+02         0.19496E+03         0.00000E+00
    0.00000E+00         0.00000E+00        -0.25219E+03
 
   -0.10673E+04        -0.83085E+02         0.00000E+00
   -0.83085E+02         0.22073E+03         0.00000E+00
    0.00000E+00         0.00000E+00        -0.25398E+03
 
   -0.10916E+04        -0.67090E+02         0.00000E+00
   -0.67090E+02         0.24231E+03         0.00000E+00
    0.00000E+00         0.00000E+00        -0.25479E+03
 
   -0.11063E+04        -0.47647E+02         0.00000E+00
   -0.47647E+02         0.25864E+03         0.00000E+00
    0.00000E+00         0.00000E+00        -0.25429E+03
 
   -0.11094E+04        -0.25285E+02         0.00000E+00
   -0.25285E+02         0.26880E+03         0.00000E+00
    0.00000E+00         0.00000E+00        -0.25219E+03
 
   -0.10994E+04        -0.57127E+00         0.00000E+00
   -0.57127E+00         0.27201E+03         0.00000E+00
    0.00000E+00         0.00000E+00        -0.24822E+03
 
   -0.10749E+04         0.25889E+02         0.00000E+00
    0.25889E+02         0.26771E+03         0.00000E+00
    0.00000E+00         0.00000E+00        -0.24215E+03
 
   -0.10348E+04         0.53459E+02         0.00000E+00
    0.53459E+02         0.25547E+03         0.00000E+00
    0.00000E+00         0.00000E+00        -0.23381E+03
 
   -0.97856E+03         0.81478E+02         0.00000E+00
    0.81478E+02         0.23506E+03         0.00000E+00
    0.00000E+00         0.00000E+00        -0.22305E+03
 
   -0.90570E+03         0.10926E+03         0.00000E+00
    0.10926E+03         0.20647E+03         0.00000E+00
    0.00000E+00         0.00000E+00        -0.20977E+03
 
   -0.81623E+03         0.13608E+03         0.00000E+00
    0.13608E+03         0.16985E+03         0.00000E+00
    0.00000E+00         0.00000E+00        -0.19391E+03
 
   -0.71050E+03         0.16123E+03         0.00000E+00
    0.16123E+03         0.12557E+03         0.00000E+00
    0.00000E+00         0.00000E+00        -0.17548E+03
 
   -0.58925E+03         0.18394E+03         0.00000E+00
    0.18394E+03         0.74228E+02         0.00000E+00
    0.00000E+00         0.00000E+00        -0.15451E+03
 
   -0.45359E+03         0.20345E+03         0.00000E+00
    0.20345E+03         0.16616E+02         0.00000E+00
    0.00000E+00         0.00000E+00        -0.13109E+03
 
   -0.30501E+03         0.21900E+03         0.00000E+00
    0.21900E+03        -0.46240E+02         0.00000E+00
    0.00000E+00         0.00000E+00        -0.10538E+03
 
   -0.14543E+03         0.22978E+03         0.00000E+00
    0.22978E+03        -0.11309E+03         0.00000E+00
    0.00000E+00         0.00000E+00        -0.77556E+02
 
   -0.85707E+03        -0.11082E+02         0.00000E+00
   -0.11082E+02         0.17691E+01         0.00000E+00
    0.00000E+00         0.00000E+00        -0.25659E+03
 
   -0.84678E+03        -0.30804E+02         0.00000E+00
   -0.30804E+02         0.10370E+02         0.00000E+00
    0.00000E+00         0.00000E+00        -0.25092E+03
 
   -0.85119E+03        -0.47085E+02         0.00000E+00
   -0.47085E+02         0.26284E+02         0.00000E+00
    0.00000E+00         0.00000E+00        -0.24747E+03
 
   -0.86751E+03        -0.59727E+02         0.00000E+00
   -0.59727E+02         0.48052E+02         0.00000E+00
    0.00000E+00         0.00000E+00        -0.24584E+03
 
   -0.89285E+03        -0.68633E+02         0.00000E+00
   -0.68633E+02         0.74163E+02         0.00000E+00
    0.00000E+00         0.00000E+00        -0.24561E+03
 
   -0.92431E+03        -0.73788E+02         0.00000E+00
   -0.73788E+02         0.10309E+03         0.00000E+00
    0.00000E+00         0.00000E+00        -0.24637E+03
 
   -0.95902E+03        -0.75260E+02         0.00000E+00
   -0.75260E+02         0.13330E+03         0.00000E+00
    0.00000E+00         0.00000E+00        -0.24772E+03
 
   -0.99419E+03        -0.73184E+02         0.00000E+00
   -0.73184E+02         0.16335E+03         0.00000E+00
    0.00000E+00         0.00000E+00        -0.24925E+03
 
   -0.10271E+04        -0.67761E+02         0.00000E+00
   -0.67761E+02         0.19183E+03         0.00000E+00
    0.00000E+00         0.00000E+00        -0.25059E+03
 
   -0.10553E+04        -0.59241E+02         0.00000E+00
   -0.59241E+02         0.21743E+03         0.00000E+00
    0.00000E+00         0.00000E+00        -0.25137E+03
 
   -0.10765E+04        -0.47925E+02         0.00000E+00
   -0.47925E+02         0.23897E+03         0.00000E+00
    0.00000E+00         0.00000E+00        -0.25124E+03
 
   -0.10884E+04        -0.34153E+02         0.00000E+00
   -0.34153E+02         0.25539E+03         0.00000E+00
    0.00000E+00         0.00000E+00        -0.24990E+03
 
   -0.10893E+04        -0.18300E+02         0.00000E+00
   -0.18300E+02         0.26578E+03         0.00000E+00
    0.00000E+00         0.00000E+00        -0.24704E+03
 
   -0.10775E+04        -0.77051E+00         0.00000E+00
   -0.77051E+00         0.26937E+03         0.00000E+00
    0.00000E+00         0.00000E+00        -0.24243E+03
 
   -0.10517E+04         0.18005E+02         0.00000E+00
    0.18005E+02         0.26559E+03         0.00000E+00
    0.00000E+00         0.00000E+00        -0.23584E+03
 
   -0.10110E+04         0.37572E+02         0.00000E+00
    0.37572E+02         0.25402E+03         0.00000E+00
    0.00000E+00         0.00000E+00        -0.22710E+03
 
   -0.95465E+03         0.57457E+02         0.00000E+00
    0.57457E+02         0.23444E+03         0.00000E+00
    0.00000E+00         0.00000E+00        -0.21606E+03
 
   -0.88230E+03         0.77170E+02         0.00000E+00
    0.77170E+02         0.20682E+03         0.00000E+00
    0.00000E+00         0.00000E+00        -0.20264E+03
 
   -0.79395E+03         0.96201E+02         0.00000E+00
    0.96201E+02         0.17133E+03         0.00000E+00
    0.00000E+00         0.00000E+00        -0.18679E+03
 
   -0.68999E+03         0.11403E+03         0.00000E+00
    0.11403E+03         0.12834E+03         0.00000E+00
    0.00000E+00         0.00000E+00        -0.16849E+03
 
   -0.57116E+03         0.13012E+03         0.00000E+00
    0.13012E+03         0.78446E+02         0.00000E+00
    0.00000E+00         0.00000E+00        -0.14781E+03
 
   -0.43856E+03         0.14392E+03         0.00000E+00
    0.14392E+03         0.22443E+02         0.00000E+00
    0.00000E+00         0.00000E+00        -0.12484E+03
 
   -0.29373E+03         0.15488E+03         0.00000E+00
    0.15488E+03        -0.38643E+02         0.00000E+00
    0.00000E+00         0.00000E+00        -0.99711E+02
 
   -0.13855E+03         0.16246E+03         0.00000E+00
    0.16246E+03        -0.10356E+03         0.00000E+00
    0.00000E+00         0.00000E+00        -0.72633E+02
 
   -0.87409E+03        -0.66105E+01         0.00000E+00
   -0.66105E+01         0.17386E+01         0.00000E+00
    0.00000E+00         0.00000E+00        -0.26171E+03
 
   -0.86117E+03        -0.18383E+02         0.00000E+00
   -0.18383E+02         0.10199E+02         0.00000E+00
    0.00000E+00         0.00000E+00        -0.25529E+03
 
   -0.86276E+03        -0.28111E+02         0.00000E+00
   -0.28111E+02         0.25873E+02         0.00000E+00
    0.00000E+00         0.00000E+00        -0.25107E+03
 
   -0.87612E+03        -0.35674E+02         0.00000E+00
   -0.35674E+02         0.47339E+02         0.00000E+00
    0.00000E+00         0.00000E+00        -0.24864E+03
 
   -0.89847E+03        -0.41010E+02         0.00000E+00
   -0.41010E+02         0.73118E+02         0.00000E+00
    0.00000E+00         0.00000E+00        -0.24761E+03
 
   -0.92696E+03        -0.44109E+02         0.00000E+00
   -0.44109E+02         0.10171E+03         0.00000E+00
    0.00000E+00         0.00000E+00        -0.24757E+03
 
   -0.95878E+03        -0.45010E+02         0.00000E+00
   -0.45010E+02         0.13162E+03         0.00000E+00
    0.00000E+00         0.00000E+00        -0.24815E+03
 
   -0.99119E+03        -0.43791E+02         0.00000E+00
   -0.43791E+02         0.16141E+03         0.00000E+00
    0.00000E+00         0.00000E+00        -0.24893E+03
 
   -0.10216E+04        -0.40571E+02         0.00000E+00
   -0.40571E+02         0.18968E+03         0.00000E+00
    0.00000E+00         0.00000E+00        -0.24956E+03
 
   -0.10474E+04        -0.35498E+02         0.00000E+00
   -0.35498E+02         0.21516E+03         0.00000E+00
    0.00000E+00         0.00000E+00        -0.24967E+03
 
   -0.10664E+04        -0.28752E+02         0.00000E+00
   -0.28752E+02         0.23665E+03         0.00000E+00
    0.00000E+00         0.00000E+00        -0.24893E+03
 
   -0.10765E+04        -0.20535E+02         0.00000E+00
   -0.20535E+02         0.25312E+03         0.00000E+00
    0.00000E+00         0.00000E+00        -0.24702E+03
 
   -0.10759E+04        -0.11072E+02         0.00000E+00
   -0.11072E+02         0.26365E+03         0.00000E+00
    0.00000E+00         0.00000E+00        -0.24367E+03
 
   -0.10629E+04        -0.60350E+00         0.00000E+00
   -0.60350E+00         0.26748E+03         0.00000E+00
    0.00000E+00         0.00000E+00        -0.23864E+03
 
   -0.10364E+04         0.10611E+02         0.00000E+00
    0.10611E+02         0.26403E+03         0.00000E+00
    0.00000E+00         0.00000E+00        -0.23170E+03
 
   -0.99522E+03         0.22301E+02         0.00000E+00
    0.22301E+02         0.25290E+03         0.00000E+00
    0.00000E+00         0.00000E+00        -0.22269E+03
 
   -0.93880E+03         0.34181E+02         0.00000E+00
    0.34181E+02         0.23386E+03         0.00000E+00
    0.00000E+00         0.00000E+00        -0.21148E+03
 
   -0.86678E+03         0.45956E+02         0.00000E+00
    0.45956E+02         0.20689E+03         0.00000E+00
    0.00000E+00         0.00000E+00        -0.19797E+03
 
   -0.77919E+03         0.57322E+02         0.00000E+00
    0.57322E+02         0.17214E+03         0.00000E+00
    0.00000E+00         0.00000E+00        -0.18211E+03
 
   -0.67641E+03         0.67964E+02         0.00000E+00
    0.67964E+02         0.13001E+03         0.00000E+00
    0.00000E+00         0.00000E+00        -0.16392E+03
 
   -0.55918E+03         0.77563E+02         0.00000E+00
    0.77563E+02         0.81073E+02         0.00000E+00
    0.00000E+00         0.00000E+00        -0.14343E+03
 
   -0.42864E+03         0.85790E+02         0.00000E+00
    0.85790E+02         0.26139E+02         0.00000E+00
    0.00000E+00         0.00000E+00        -0.12075E+03
 
   -0.28629E+03         0.92315E+02         0.00000E+00
    0.92315E+02        -0.33769E+02         0.00000E+00
    0.00000E+00         0.00000E+00        -0.96018E+02
 
   -0.13404E+03         0.96807E+02         0.00000E+00
    0.96807E+02        -0.97405E+02         0.00000E+00
    0.00000E+00         0.00000E+00        -0.69435E+02
 
   -0.88257E+03        -0.21970E+01         0.00000E+00
   -0.21970E+01         0.17233E+01         0.00000E+00
    0.00000E+00         0.00000E+00        -0.26425E+03
 
   -0.86835E+03        -0.61111E+01         0.00000E+00
   -0.61111E+01         0.10114E+02         0.00000E+00
    0.00000E+00         0.00000E+00        -0.25747E+03
 
   -0.86852E+03        -0.93468E+01         0.00000E+00
   -0.93468E+01         0.25666E+02         0.00000E+00
    0.00000E+00         0.00000E+00        -0.25286E+03
 
   -0.88042E+03        -0.11864E+02         0.00000E+00
   -0.11864E+02         0.46979E+02         0.00000E+00
    0.00000E+00         0.00000E+00        -0.25003E+03
 
   -0.90128E+03        -0.13641E+02         0.00000E+00
   -0.13641E+02         0.72590E+02         0.00000E+00
    0.00000E+00         0.00000E+00        -0.24861E+03
 
   -0.92829E+03        -0.14675E+02         0.00000E+00
   -0.14675E+02         0.10101E+03         0.00000E+00
    0.00000E+00         0.00000E+00        -0.24818E+03
 
   -0.95867E+03        -0.14979E+02         0.00000E+00
   -0.14979E+02         0.13077E+03         0.00000E+00
    0.00000E+00         0.00000E+00        -0.24837E+03
 
   -0.98970E+03        -0.14577E+02         0.00000E+00
   -0.14577E+02         0.16042E+03         0.00000E+00
    0.00000E+00         0.00000E+00        -0.24878E+03
 
   -0.10188E+04        -0.13509E+02         0.00000E+00
   -0.13509E+02         0.18859E+03         0.00000E+00
    0.00000E+00         0.00000E+00        -0.24906E+03
 
   -0.10434E+04        -0.11825E+02         0.00000E+00
   -0.11825E+02         0.21400E+03         0.00000E+00
    0.00000E+00         0.00000E+00        -0.24883E+03
 
   -0.10614E+04        -0.95832E+01         0.00000E+00
   -0.95832E+01         0.23547E+03         0.00000E+00
    0.00000E+00         0.00000E+00        -0.24778E+03
 
   -0.10706E+04        -0.68520E+01         0.00000E+00
   -0.68520E+01         0.25195E+03         0.00000E+00
    0.00000E+00         0.00000E+00        -0.24560E+03
 
   -0.10692E+04        -0.37055E+01         0.00000E+00
   -0.37055E+01         0.26255E+03         0.00000E+00
    0.00000E+00         0.00000E+00        -0.24201E+03
 
   -0.10557E+04        -0.22432E+00         0.00000E+00
   -0.22432E+00         0.26649E+03         0.00000E+00
    0.00000E+00         0.00000E+00        -0.23676E+03
 
   -0.10287E+04         0.35055E+01         0.00000E+00
    0.35055E+01         0.26321E+03         0.00000E+00
    0.00000E+00         0.00000E+00        -0.22965E+03
 
   -0.98735E+03         0.73935E+01         0.00000E+00
    0.73935E+01         0.25230E+03         0.00000E+00
    0.00000E+00         0.00000E+00        -0.22051E+03
 
   -0.93089E+03         0.11345E+02         0.00000E+00
    0.11345E+02         0.23353E+03         0.00000E+00
    0.00000E+00         0.00000E+00        -0.20921E+03
 
   -0.85905E+03         0.15261E+02         0.00000E+00
    0.15261E+02         0.20687E+03         0.00000E+00
    0.00000E+00         0.00000E+00        -0.19565E+03
 
   -0.77184E+03         0.19041E+02         0.00000E+00
    0.19041E+02         0.17250E+03         0.00000E+00
    0.00000E+00         0.00000E+00        -0.17980E+03
 
   -0.66964E+03         0.22580E+02         0.00000E+00
    0.22580E+02         0.13079E+03         0.00000E+00
    0.00000E+00         0.00000E+00        -0.16166E+03
 
   -0.55322E+03         0.25770E+02         0.00000E+00
    0.25770E+02         0.82331E+02         0.00000E+00
    0.00000E+00         0.00000E+00        -0.14127E+03
 
   -0.42370E+03         0.28503E+02         0.00000E+00
    0.28503E+02         0.27931E+02         0.00000E+00
    0.00000E+00         0.00000E+00        -0.11873E+03
 
   -0.28260E+03         0.30669E+02         0.00000E+00
    0.30669E+02        -0.31389E+02         0.00000E+00
    0.00000E+00         0.00000E+00        -0.94196E+02
 
   -0.13182E+03         0.32158E+02         0.00000E+00
    0.32158E+02        -0.94383E+02         0.00000E+00
    0.00000E+00         0.00000E+00        -0.67860E+02
 
SCALARS stresss double 
LOOKUP_TABLE default
  -73065.3235689566     
  -56799.6379260709     
  -44044.9589065964     
  -35254.7482806801     
  -29142.5553799973     
  -24756.7235034935     
  -21519.2330533643     
  -19071.7729868367     
  -17186.7471157128     
  -15714.8227268799     
  -14555.1396015016     
  -13637.8276080294     
  -12913.4708648559     
  -12346.5666673646     
  -11911.3567745178     
  -11589.1101419283     
  -11366.3210746727     
  -11233.5027364797     
  -11184.3809430419     
  -11215.3677606787     
  -11325.2405538408     
  -11514.9819494372     
  -11787.7567445692     
  -12149.0173716040     
  -71021.9224136750     
  -51280.4629758976     
  -40161.7113569262     
  -32800.6841652527     
  -27547.6109647606     
  -23686.3837838671     
  -20774.9482303526     
  -18537.0998153021     
  -16791.0211712613     
  -15413.8153677381     
  -14320.2554348733     
  -13450.0089041164     
  -12759.6427783126     
  -12217.5033022009     
  -11800.3611938734     
  -11491.1737067888     
  -11277.5718172706     
  -11150.8314562246     
  -11105.1778757518     
  -11137.3278858109     
  -11246.2101606310     
  -11432.8274144050     
  -11700.2409580698     
  -12053.6711271561     
  -53304.7350831746     
  -39785.4484420192     
  -33263.0880348073     
  -28402.0933308350     
  -24662.9921911419     
  -21721.1487470070     
  -19390.8110690673     
  -17531.7468839692     
  -16040.1043805852     
  -14838.2791813813     
  -13868.2974403656     
  -13086.6888190784     
  -12460.7391512909     
  -11965.7692319342     
  -11583.1773294040     
  -11299.0352774929     
  -11103.0849557915     
  -10988.0260635114     
  -10949.0192142390     
  -10983.3523988958     
  -11090.2362942780     
  -11270.7068030702     
  -11527.6232211563     
  -11865.7587945271     
  -20603.6618314951     
  -25908.4896556783     
  -24837.2352669915     
  -22989.5501110135     
  -21002.9387280023     
  -19163.4472465962     
  -17548.7119907424     
  -16169.0525709760     
  -15006.8077980363     
  -14036.3929434296     
  -13232.0359177578     
  -12570.7527689267     
  -12033.1613335226     
  -11603.4340530010     
  -11268.9423993953     
  -11019.8352819457     
  -10848.6492463640     
  -10749.9852428580     
  -10720.2598882585     
  -10757.5289796289     
  -10861.3783372834     
  -11032.8777030301     
  -11274.5955268844     
  -11590.6752593467     
  -2649.44264166312     
  -13723.6674001356     
  -16971.5723260165     
  -17555.6814988578     
  -17147.9578662887     
  -16358.9081518383     
  -15464.0722428659     
  -14587.1159074991     
  -13782.2195206529     
  -13069.7956428420     
  -12454.2158323149     
  -11932.5534928177     
  -11498.9794767519     
  -11146.9464543253     
  -10870.2494142807     
  -10663.5132805290     
  -10522.3935686709     
  -10443.6394200266     
  -10425.0976072423     
  -10465.6990391819     
  -10565.4498508814     
  -10725.4390287033     
  -10947.8693273572     
  -11236.1156248628     
  -45.1510962030842     
  -6559.80676966543     
  -10938.8167917723     
  -12881.6545929680     
  -13570.2758081985     
  -13613.9216663537     
  -13338.9243996365     
  -12922.2103175818     
  -12459.9697931738     
  -12004.0525821117     
  -11581.6245312323     
  -11206.1307136694     
  -10883.4659230898     
  -10615.4862095480     
  -10402.0179778679     
  -10242.0116826310     
  -10134.2052300821     
  -10077.5059387115     
  -10071.2116731963     
  -10115.1413995737     
  -10209.7162503903     
  -10356.0150020018     
  -10555.8173992783     
  -10811.6419248865     
   1364.68215098987     
  -3402.08628739387     
  -6962.62453642141     
  -9280.89140362082     
  -10543.1652082851     
  -11137.1152142400     
  -11328.0166706123     
  -11287.5456164954     
  -11122.8704108446     
  -10900.0727375885     
  -10659.4941775128     
  -10425.4970622195     
  -10212.5871019080     
  -10029.2376959870     
  -9880.27981993586     
  -9768.39890885361     
  -9695.07556392286     
  -9661.17885622420     
  -9667.34169245550     
  -9714.19849815373     
  -9802.53470446454     
  -9933.37791441671     
  -10108.0476245142     
  -10328.1710573232     
   1956.43672721974     
  -1576.90611534889     
  -4511.91755925420     
  -6677.65036059998     
  -8134.44868228132     
  -9026.66860856373     
  -9524.82398674136     
  -9762.17016195141     
  -9834.59968915233     
  -9808.11793098903     
  -9727.23649073855     
  -9621.60960415687     
  -9510.84311379787     
  -9407.83348709689     
  -9321.04058671533     
  -9256.01923336916     
  -9216.44602377948     
  -9204.80534829899     
  -9222.84534229772     
  -9271.87721048332     
  -9352.96562798759     
  -9467.04003865920     
  -9614.94380984359     
  -9797.42825097925     
   2267.95468545487     
  -493.523878467996     
  -2899.38228696416     
  -4833.59063354251     
  -6278.02204547542     
  -7292.90029928610     
  -7966.95391990383     
  -8390.18204563532     
  -8637.12836087091     
  -8765.02302522832     
  -8816.00047359055     
  -8820.38428884794     
  -8799.70800599261     
  -8769.14482052087     
  -8739.34141947838     
  -8717.75640530766     
  -8709.61740767804     
  -8718.59531119544     
  -8747.27174352094     
  -8797.45527148958     
  -8870.38475713114     
  -8966.84490127879     
  -9087.20828731431     
  -9231.40920521426     
   2415.85239347901     
   191.887612520570     
  -1811.36675324444     
  -3506.02227898160     
  -4862.05802783467     
  -5895.79631864206     
  -6652.53975731953     
  -7187.20036716691     
  -7552.73313440892     
  -7794.28437377201     
  -7948.01058389940     
  -8041.81589761594     
  -8096.75778915737     
  -8128.50140508957     
  -8148.58959119075     
  -8165.46661100101     
  -8185.26630120184     
  -8212.39966853085     
  -8249.98016482252     
  -8300.11977455892     
  -8364.12136917628     
  -8442.58483678257     
  -8535.43699005023     
  -8641.88815531093     
   2468.74266581995     
   632.975181144940     
  -1056.88451940780     
  -2537.72706764581     
  -3778.53479152932     
  -4778.48138906992     
  -5558.15040914586     
  -6149.71784860652     
  -6588.54806021832     
  -6908.06673213322     
  -7137.26279281814     
  -7300.02945182491     
  -7415.42766900844     
  -7498.33342030271     
  -7560.17216179884     
  -7609.60195539272     
  -7653.09119554579     
  -7695.37898130335     
  -7739.82446316057     
  -7788.65746413020     
  -7843.14258639600     
  -7903.66612444460     
  -7969.75096838726     
  -8039.99993603010     
   2459.69726151021     
   916.691598457234     
  -526.029431425264     
  -1822.12592224216     
  -2944.54901721832     
  -3885.46209953258     
  -4652.58708341435     
  -5263.74770115443     
  -5741.67952295988     
  -6110.04798210627     
  -6391.00207978383     
  -6603.96236703160     
  -6765.24685309114     
  -6888.16363992804     
  -6983.32243252765     
  -7059.01585360299     
  -7121.59058735360     
  -7175.77008010195     
  -7224.91369976678     
  -7271.20880724297     
  -7315.79692738921     
  -7358.83608724157     
  -7399.50013060142     
  -7435.91335371727     
   2408.65654808274     
   1093.64347827035     
  -150.213807395747     
  -1288.41935844106     
  -2298.38628749292     
  -3170.12478175806     
  -3904.65297905480     
  -4511.11621137008     
  -5003.57943161695     
  -5398.25089068073     
  -5711.45220897207     
  -5958.36104533667     
  -6152.36681810408     
  -6304.84545033243     
  -6425.18231268707     
  -6520.92113795212     
  -6597.95990866349     
  -6660.74680831172     
  -6712.45034049561     
  -6755.09033153971     
  -6789.62336954475     
  -6815.97934896861     
  -6833.04659785417     
  -6838.60248489260     
   2328.17254572471     
   1195.66841324127     
   114.790534014956     
  -888.275020131303     
  -1794.98573540945     
  -2595.20915741736     
  -3286.62562019086     
  -3873.18835056165     
  -4363.18882787483     
  -4767.37856914490     
  -5097.43060713129     
  -5364.83676103589     
  -5580.21520108763     
  -5752.94017127637     
  -5890.99487426006     
  -6000.96159812778     
  -6088.08477333649     
  -6156.36282702121     
  -6208.64039658893     
  -6246.68335258468     
  -6271.22600584528     
  -6281.98388443860     
  -6277.62749029053     
  -6255.71321329023     
   2226.77884964558     
   1243.74141928742     
   298.720612996663     
  -588.024164502935     
  -1401.29042928045     
  -2131.61939001716     
  -2775.13298963789     
  -3332.72519075912     
  -3808.89575760148     
  -4210.50658372995     
  -4545.66180593243     
  -4822.81831792689     
  -5050.15086895013     
  -5235.14481892762     
  -5384.36632563570     
  -5503.35668399906     
  -5596.60453077763     
  -5667.56004240441     
  -5718.66523038991     
  -5751.38249638952     
  -5766.20947716771     
  -5762.67217719892     
  -5739.29091979745     
  -5693.51522961931     
   2110.57854834578     
   1252.30623081270     
   422.237632947888     
  -363.651519078212     
  -1092.83016366600     
  -1756.77270969113     
  -2350.98455391606     
  -2874.58567015506     
  -3329.60975837135     
  -3720.18644218291     
  -4051.74464702850     
  -4330.32567022770     
  -4562.04545222083     
  -4752.70797451734     
  -4907.54953104977     
  -5031.08431915196     
  -5127.02117315162     
  -5198.22507892898     
  -5246.70246426784     
  -5273.59449315692     
  -5279.16699099728     
  -5262.78903571233     
  -5222.89479894233     
  -5156.92517291522     
   1984.13490636867     
   1231.67306948907     
   500.132874156563     
  -197.653065443536     
  -851.261669993751     
  -1453.12094012975     
  -1998.60709041724     
  -2485.83983426522     
  -2915.26139385910     
  -3289.10002637852     
  -3610.80940400593     
  -3884.55107776870     
  -4114.75870345832     
  -4305.79773520364     
  -4461.71656038935     
  -4586.07503761679     
  -4681.83250569098     
  -4751.27743298090     
  -4795.98306862709     
  -4816.77642309747     
  -4813.71088619327     
  -4786.03545189898     
  -4732.15579995191     
  -4649.58448290252     
   1850.97751256486     
   1189.43241117242     
   543.272687068208     
  -77.0095321544773     
  -662.650098872026     
  -1206.95423461328     
  -1705.41242904866     
  -2155.60880410555     
  -2556.96880219238     
  -2910.40674311774     
  -3217.93296465724     
  -3482.26906969027     
  -3706.50386372786     
  -3893.80665480465     
  -4047.20175616790     
  -4169.39939209394     
  -4262.67352999292     
  -4328.77551387356     
  -4368.87269076743     
  -4383.50260494603     
  -4372.53516788452     
  -4335.13714417315     
  -4269.73518153465     
  -4173.97545675009     
   1713.90649349873     
   1131.31778523586     
   559.821874483012     
   8.14193387250204     
  -516.267344669009     
  -1007.48156781872     
  -1461.21823478251     
  -1874.80447522239     
  -2247.02650228707     
  -2577.89729039439     
  -2868.38124805442     
  -3120.11004250220     
  -3335.11510329972     
  -3515.59255779609     
  -3663.70754642922     
  -3781.43816912114     
  -3870.45499703552     
  -3932.02986822251     
  -3966.96704788457     
  -3975.55023571713     
  -3957.49990925240     
  -3911.93681190082     
  -3837.34887046245     
  -3731.56040932775     
   1575.18184687523     
   1061.75171551882     
   556.034719673576     
   65.3967427126762     
  -403.748120497301     
  -846.137732090340     
  -1257.76038201314     
  -1635.85257833571     
  -1978.80998656923     
  -2286.03358619102     
  -2557.73618011906     
  -2794.73296478861     
  -2998.23540741871     
  -3169.66183759934     
  -3310.47234335251     
  -3422.03067900761     
  -3505.49235347210     
  -3561.71589443971     
  -3591.19327301582     
  -3593.99533672375     
  -3569.72856250719     
  -3517.50029243934     
  -3435.89071637286     
  -3322.93114996744     
   1436.64597783003     
   984.201833769910     
   536.780158002046     
   100.689173803913     
  -318.491754784590     
  -716.065145387645     
  -1088.29852829492     
  -1432.43640574148     
  -1746.64835550377     
  -2029.92664253291     
  -2281.94964536344     
  -2502.92744108964     
  -2693.44374681402     
  -2854.30503038138     
  -2986.40386919006     
  -3090.60022039348     
  -3167.62155593448     
  -3217.98094931725     
  -3241.91114075763     
  -3239.31222367413     
  -3209.71073189898     
  -3152.22842221723     
  -3065.55983455768     
  -2947.95870462630     
   1299.80616122958     
   901.419974682711     
   505.898884962717     
   118.713664438380     
  -255.233579006724     
  -611.726611317602     
  -947.303566431466     
  -1259.27461703932     
  -1545.69253002056     
  -1805.28419889493     
  -2037.35375570195     
  -2241.66850176658     
  -2418.33800600571     
  -2567.69482984374     
  -2690.18300370043     
  -2786.25806427271     
  -2856.30047914115     
  -2900.54279769825     
  -2919.00991442485     
  -2911.47137194977     
  -2877.40458840308     
  -2815.96817964357     
  -2725.98508540183     
  -2605.93593960536     
   1165.89246608331     
   815.607191741834     
   466.451747920972     
   123.222792247991     
  -209.734192069090     
  -528.615003396984     
  -830.212416147754     
  -1111.93521643227     
  -1371.79230431894     
  -1608.34675228025     
  -1820.64673496309     
  -2008.14106426122     
  -2170.58682902091     
  -2307.95564278744     
  -2420.34358516813     
  -2507.88839378147     
  -2570.69606138415     
  -2608.77786431325     
  -2621.99806013296     
  -2610.03204975518     
  -2572.33467039599     
  -2508.11842145160     
  -2416.34177323099     
  -2295.70821944110     
   1035.90037356404     
   728.530802473707     
   420.896315832792     
   117.241717488324     
  -178.551417589524     
  -463.034390084293     
  -733.236398179742     
  -986.682853504643     
  -1221.38764821643     
  -1435.82231346935     
  -1628.86659744098     
  -1799.74580035861     
  -1947.96029295202     
  -2073.21217142964     
  -2175.33317159375     
  -2254.21698174975     
  -2309.75812935482     
  -2341.79879033185     
  -2350.08425126262     
  -2334.22736824799     
  -2293.68220581784     
  -2227.72707964603     
  -2135.45743321449     
  -2015.78931225533     
   910.623686363307     
   641.609723692184     
   371.215094107582     
   103.225138198552     
  -158.870848407900     
  -411.933846835908     
  -653.211500622441     
  -880.354852795573     
  -1091.41553750830     
  -1284.82518084735     
  -1459.35999077379     
  -1614.09423793824     
  -1748.34656059049     
  -1861.62285068033     
  -1953.55901695996     
  -2023.86630698083     
  -2072.28122273479     
  -2098.52147664485     
  -2102.24896603109     
  -2083.04042541348     
  -2040.36625320078     
  -1973.57799125867     
  -1881.90504003355     
  -1764.46138853859     
   790.681164190514     
   555.978438817660     
   319.010608275829     
   83.1741033402703     
  -148.378324852550     
  -372.780247586179     
  -587.481101617906     
  -790.261131165905     
  -979.231565921482     
  -1152.82107130369     
  -1309.75044472014     
  -1448.99814277172     
  -1569.75950241710     
  -1671.40250509702     
  -1753.42269865530     
  -1815.39952225230     
  -1856.95585607939     
  -1877.72220853942     
  -1877.30660748741     
  -1855.27100790472     
  -1811.11487686928     
  -1744.26656433737     
  -1654.08310066961     
  -1539.85915650608     
   676.539005062075     
   472.536291133718     
   265.577406816788     
   58.7244019084962     
  -145.162735611353     
  -343.460031487717     
  -533.803734185158     
  -714.103562395318     
  -882.544720674992     
  -1037.57928748390     
  -1177.90829420778     
  -1302.45631615121     
  -1410.34067271131     
  -1500.83740226105     
  -1573.34607905778     
  -1627.35532811031     
  -1662.41062435667     
  -1678.08568336395     
  -1673.95849953443     
  -1649.59288885830     
  -1604.52625812012     
  -1538.26425135440     
  -1450.28290810277     
  -1340.03898990788     
   568.530478639911     
   391.986499962584     
   211.957720997211     
   31.2145514840498     
  -147.640970456914     
  -322.202631987237     
  -490.280152613118     
  -649.910974343074     
  -799.363441726303     
  -937.131719618019     
  -1061.92333982096     
  -1172.64067331312     
  -1268.35787670171     
  -1348.29496601654     
  -1411.79065099460     
  -1458.27545170703     
  -1487.24645311242     
  -1498.24486588830     
  -1490.83738139675     
  -1464.60215418600     
  -1419.12012732772     
  -1353.97233590914     
  -1268.74377634092     
  -1163.03440155213     
   466.873509848441     
   314.867824189764     
   158.985360790160     
   1.73894763064128     
  -154.499222864798     
  -307.520205069076     
  -455.295290736065     
  -595.986618337227     
  -727.951127576259     
  -849.738057612160     
  -960.080600646912     
  -1057.88264612640     
  -1142.20176993311     
  -1212.22973763152     
  -1267.27181316973     
  -1306.72611453588     
  -1330.06415937565     
  -1336.81361977882     
  -1326.54417623259     
  -1298.85724071991     
  -1253.38021655212     
  -1189.76587994746     
  -1107.69740195213     
  -1006.89947025257     
   371.686692895793     
   241.580839342732     
   107.320997034401     
  -28.8099276422121     
  -164.646486821917     
  -298.159706991205     
  -427.471738219087     
  -550.865548916784     
  -666.789430850431     
  -773.856428397475     
  -870.839120347307     
  -956.660438721301     
  -1030.38139412168     
  -1091.18668812756     
  -1138.36923595127     
  -1171.31460877267     
  -1189.48634996803     
  -1192.41303846592     
  -1179.67787963056     
  -1150.91151006524     
  -1105.78861407573     
  -1044.02886830497     
  -965.402654993526     
  -869.741907282680     
   283.004017946878     
   172.410163461589     
   57.4810213978515     
  -59.7074775539926     
  -177.177246723691     
  -293.064399422035     
  -405.632157694457     
  -513.279865614106     
  -614.547915649244     
  -708.118656126576     
  -792.813587164829     
  -867.587354137929     
  -931.519200859561     
  -983.802645233725     
  -1023.73419013261     
  -1050.70188836891     
  -1064.17455219450     
  -1063.69234504124     
  -1048.85942575824     
  -1019.33924098240     
  -974.852984364768     
  -915.181663934539     
  -840.172139588283     
  -749.747407391925     
   200.788471816216     
   107.543547819299     
   9.86152519427469     
  -90.3691680437889     
  -191.341176097693     
  -291.342609853439     
  -388.768674599632     
  -482.130193883473     
  -570.058880412254     
  -651.309398450302     
  -724.758444629639     
  -789.401232227248     
  -844.345888859700     
  -888.806364954059     
  -922.094500290129     
  -943.611911777846     
  -952.842353046945     
  -949.345161954030     
  -932.750362133393     
  -902.755924499774     
  -859.127627676218     
  -801.701884111010     
  -730.391820466747     
  -645.196814054329     
   124.944602728343     
   47.0884683623887     
  -35.2415076452998     
  -120.327485902521     
  -206.518243466874     
  -292.242124950209     
  -376.017735716489     
  -456.462127276173     
  -532.296363363729     
  -602.348500069771     
  -665.554152657759     
  -720.954945285235     
  -767.695240588549     
  -805.017619950666     
  -832.257631225700     
  -848.838340191001     
  -854.265218220964     
  -848.121875699601     
  -830.067112676018     
  -799.833708798797     
  -757.229316150060     
  -702.139752396000     
  -634.534917415767     
  -554.477472706845     
   55.3300996614247     
  -8.91333421956406     
  -77.6150060768370     
  -149.212639132698     
  -222.198042259681     
  -295.128999377968     
  -366.639285781685     
  -435.446628982855     
  -500.358534033745     
  -560.276002136264     
  -614.195277751272     
  -661.207855760016     
  -700.499060758930     
  -731.345571685414     
  -753.112305175152     
  -765.249090646875     
  -767.287570738673     
  -758.838744800186     
  -739.591543323318     
  -709.312779858597     
  -667.848775886302     
  -615.128894226999     
  -551.171147925735     
  -476.089973362228     
  -8.23358264719881     
  -60.4730441877568     
  -117.114042752717     
  -176.736235610591     
  -237.962464491984     
  -299.469862158602     
  -359.999380579261     
  -418.363609725490     
  -473.452832152488     
  -524.239340608811     
  -569.780127324596     
  -609.218128564784     
  -641.782271930889     
  -666.786623637314     
  -683.628966934477     
  -691.789160671493     
  -690.827629376094     
  -680.384324525647     
  -660.178472516855     
  -630.009389782840     
  -589.758600805903     
  -539.393441205915     
  -478.972265896643     
  -408.651311285798     
  -65.9515290703706     
  -107.643453507513     
  -153.649066878355     
  -202.677372291460     
  -253.471058376677     
  -304.817025108938     
  -355.555559894326     
  -404.588071441970     
  -450.883345962403     
  -493.482352383138     
  -531.501685654423     
  -564.135795411199     
  -590.658197639465     
  -610.421906934042     
  -622.859354829034     
  -627.482074885183     
  -623.880437857665     
  -611.723711014432     
  -590.760695489304     
  -560.821165455827     
  -521.818293792894     
  -473.752201439825     
  -416.714712193798     
  -350.895331453152     
  -118.046575855715     
  -150.508958065873     
  -187.174821407723     
  -226.870708315022     
  -268.448571414424     
  -310.795863895166     
  -352.844460010619     
  -393.578341490697     
  -432.040028677311     
  -467.335782494470     
  -498.639651275852     
  -525.196481616676     
  -546.324051933163     
  -561.414519111037     
  -569.935391039074     
  -571.430250181761     
  -565.519455464234     
  -551.901041883055     
  -530.352019956205     
  -500.730251045987     
  -462.977040387407     
  -417.120547909169     
  -363.280068118909     
  -301.671174847035     
  -164.751401108947     
  -189.176726281998     
  -217.680701684301     
  -249.196197561191     
  -282.674299367277     
  -317.094066534398     
  -351.471264767275     
  -384.866027863537     
  -416.389437867516     
  -445.209048599233     
  -470.553414516632     
  -491.715721885031     
  -508.056650089707     
  -519.006615834621     
  -524.067570633170     
  -522.814531630439     
  -514.897027066147     
  -500.040630618687     
  -478.048743743837     
  -448.804762370043     
  -412.274734438530     
  -368.510578300139     
  -317.653889424395     
  -259.940314792280     
  -206.301461206095     
  -223.768925253607     
  -245.182366121332     
  -269.570230756318     
  -295.972949549565     
  -323.452437635086     
  -351.100685420865     
  -378.047408360695     
  -403.466751327885     
  -426.583070943526     
  -446.675847793048     
  -463.083807655508     
  -475.208354898941     
  -482.516440597652     
  -484.543001598347     
  -480.893113967786     
  -471.244004605318     
  -455.347058202485     
  -433.029943310392     
  -404.198961327463     
  -368.841696148540     
  -327.030010497680     
  -278.923398144311     
  -224.772659902940     
  -242.928735260964     
  -254.415907772698     
  -269.714448214190     
  -287.937992093219     
  -308.206792504930     
  -329.657017246535     
  -351.449229422117     
  -372.776030856233     
  -392.868867553656     
  -411.004018312259     
  -426.507809877207     
  -438.761123200751     
  -447.203274053527     
  -451.335366238651     
  -450.723226061511     
  -445.000031853277     
  -433.868751846913     
  -417.104497412283     
  -394.556886623915     
  -366.152495573575     
  -331.897452089371     
  -291.880199027377     
  -246.274422604069     
  -195.342105992812     
  -274.856235598045     
  -281.250276630390     
  -291.324247655305     
  -304.266876151472     
  -319.268925453560     
  -335.532326755126     
  -352.278571836090     
  -368.756351662338     
  -384.248441981613     
  -398.077854377141     
  -409.613288781484     
  -418.273940035177     
  -423.533725610389     
  -424.925013161433     
  -422.041934345377     
  -414.543374815747     
  -402.155729075604     
  -384.675502824093     
  -361.971834558761     
  -333.988992672876     
  -300.748884411522     
  -262.353589239356     
  -218.987901957328     
  -170.921840936909     
  -302.293239399879     
  -304.401752591680     
  -310.066299775895     
  -318.540841717769     
  -329.077508303254     
  -340.935595174600     
  -353.389884413685     
  -365.738277753043     
  -377.308743926643     
  -387.465595772197     
  -395.615126693424     
  -401.210649191459     
  -403.756989529261     
  -402.814501444594     
  -398.002667550544     
  -389.003359186226     
  -375.563823696288     
  -357.499462279383     
  -334.696451658539     
  -307.114249036506     
  -274.788002380305     
  -237.830867425456     
  -196.436209412270     
  -150.879642094603     
  -325.431195531529     
  -323.992780580251     
  -325.997739207459     
  -330.755602794942     
  -337.570861743219     
  -345.751850669945     
  -354.619009241746     
  -363.512508739648     
  -371.799245554469     
  -378.879214370307     
  -384.191285164640     
  -387.218418644113     
  -387.492363680521     
  -384.597887107274     
  -378.176590376564     
  -367.930368671959     
  -353.624565862099     
  -335.090873045266     
  -312.230009381075     
  -285.014211571063     
  -253.489542992796     
  -217.778015486065     
  -178.079496622263     
  -134.673353559164     
  -344.440261034204     
  -340.134815839152     
  -339.174387102588     
  -340.914575722763     
  -344.703339337252     
  -349.889786649091     
  -355.832388737123     
  -361.906597975656     
  -367.511874844975     
  -372.078132718590     
  -375.071620164199     
  -376.000268859862     
  -374.418542378642     
  -369.931826351340     
  -362.200403466689     
  -350.943057093068     
  -335.940344794253     
  -317.037577566423     
  -294.147532264024     
  -267.252913543121     
  -236.408567979988     
  -201.743437177240     
  -163.462219113433     
  -121.846688292547     
  -359.466423850700     
  -352.925238677055     
  -349.647502564659     
  -349.025516399738     
  -350.441903333828     
  -353.278331066255     
  -356.923683251636     
  -360.781670561930     
  -364.277880592376     
  -366.866274365546     
  -368.035145269785     
  -367.312563446235     
  -364.271334491551     
  -358.533505479462     
  -349.774453387612     
  -337.726590785251     
  -322.182720920970     
  -302.999069075148     
  -280.098009239913     
  -253.470494996746     
  -223.178191119062     
  -189.355288277564     
  -152.209967712247     
  -112.025466394267     
  -370.629171851152     
  -362.444853205502     
  -357.461148855660     
  -355.097794158634     
  -354.763348386570     
  -355.863863066012     
  -357.811023057417     
  -360.029750543321     
  -361.965270090789     
  -363.089640680808     
  -362.907767744383     
  -360.962914470122     
  -356.841736603337     
  -350.178868316810     
  -340.661088216741     
  -328.031093935941     
  -312.090910919724     
  -292.704955875449     
  -269.802767975956     
  -243.381411418900     
  -213.507541584824     
  -180.319114139056     
  -144.026702411637     
  -104.914373777645     
  -378.019672982340     
  -368.755932403273     
  -362.650133988783     
  -359.140259672608     
  -357.652129467249     
  -357.608033782522     
  -358.434854013848     
  -359.571661194335     
  -360.476790098407     
  -360.634393394938     
  -359.560487014070     
  -356.808503521400     
  -351.974374686062     
  -344.701167301954     
  -334.683297428785     
  -321.670347371837     
  -305.470506797424     
  -285.953654346175     
  -263.054089007925     
  -236.772911501196     
  -207.180045190639     
  -174.415874002863     
  -138.692461777551     
  -100.294304011880     
  -381.699437161320     
  -371.900778992494     
  -365.238493805311     
  -361.159673899381     
  -359.098760648196     
  -358.486158769930     
  -358.756346572299     
  -359.355471739129     
  -359.748429629178     
  -359.425428021848     
  -357.908048532464     
  -354.754820263368     
  -349.566325379228     
  -341.989858933037     
  -331.723666195669     
  -318.520779781500     
  -302.192475906317     
  -282.611364130791     
  -259.714117986217     
  -233.503845091377     
  -204.052084982842     
  -171.500411217312     
  -136.061601770457     
  -98.0203288380302     
SCALARS 2waySource double 
LOOKUP_TABLE default
  1.067898642832211E-018
  1.697140218115647E-019
 -1.751534932663861E-018
 -8.529442980115433E-020
  1.659390411840227E-018
  2.478693275186821E-018
 -1.186365683139224E-018
  1.375989552307041E-018
 -3.520503810615212E-019
 -1.833598083441764E-020
  2.192699307545117E-019
  5.690317139312540E-019
 -1.028457763995194E-018
 -6.916385311124504E-019
  5.022333713923191E-019
  1.655367841005802E-018
 -7.519655985043862E-019
  6.709710520052200E-019
  3.865352482534941E-019
 -5.546168005233376E-019
  3.144606812139085E-019
  1.067781436792446E-019
  7.207456703958550E-020
  1.788527107188301E-019
  3.404075253481582E-018
 -2.540055286797323E-018
  6.943059448727157E-019
  1.581063279101327E-018
  3.398654625185007E-019
  1.879913996260963E-018
 -1.699210106552728E-018
  4.701972085129273E-019
  2.193878655559613E-018
 -1.577142211674824E-018
 -7.267209236275973E-020
  1.482388880110795E-018
 -3.116331610258395E-019
 -3.232205542456868E-019
 -1.501243873109105E-020
  1.853825888857132E-019
 -1.804851802605508E-019
  6.070002296543542E-019
  6.130926889258661E-019
 -4.533335907924295E-019
  4.630698050228698E-019
  4.324474022375130E-020
 -1.386542001308343E-019
  2.728484105318784E-019
 -2.151012731211366E-018
  2.199752405383443E-018
 -2.765796492698816E-018
  1.198113182786878E-018
 -5.907341372570310E-019
 -5.439471454822667E-020
 -4.385398615090240E-019
 -5.899765055060531E-019
  2.471085552413367E-018
 -2.134047610082946E-018
  1.232059127675555E-018
 -5.627205452120589E-019
 -5.119695856227589E-019
  1.524598676116004E-018
  7.290095215123755E-019
  6.689984594685168E-021
  9.206446760974039E-019
  2.048550173465947E-019
  5.653879589723248E-019
  6.211964336145862E-020
  8.344325081174709E-020
 -2.229994864895082E-021
  2.182349865359656E-019
  8.567324567664221E-020
  6.914784246846505E-019
  2.505484618829266E-019
 -1.579430809559599E-018
  2.109677772996902E-018
  5.396043617922455E-019
  1.898191374075493E-018
 -1.507953767843190E-018
 -1.380566748076595E-019
 -3.843052533885991E-019
 -1.938987409986674E-018
  1.479342650475039E-018
 -8.185452315956362E-019
 -3.565103707913107E-019
  2.249249711306511E-019
 -1.548531094306671E-018
  6.829372611005559E-019
  1.246692750531160E-018
  2.643072469477858E-019
  8.806648749570944E-019
 -2.212812161717211E-019
 -2.706184156669832E-019
  1.538853483096118E-019
  1.364242052659391E-019
  1.303317459944282E-019
 -6.875573572581476E-019
  6.147251584675862E-019
  2.026250224816997E-019
 -7.665406183401065E-019
  2.969995381702372E-019
 -2.574571559252975E-019
  1.121418519589692E-018
 -1.299529301189401E-019
 -4.918996318387031E-019
  4.503731619327452E-020
 -3.337144002271035E-019
  4.035589724017948E-019
  3.321405337052668E-019
 -5.306843823326654E-019
  6.483937908886990E-019
 -1.453441847255194E-019
  3.230018447980013E-019
  4.295612790295585E-019
  1.644377973109129E-019
  1.705302565824240E-019
 -2.539735073941711E-019
  2.675721860312278E-019
  3.804427889819834E-019
  9.399569981304825E-020
 -2.551657330772140E-018
  3.707222773833953E-020
  1.653895477891886E-018
 -1.689473892322292E-018
  1.130557208496962E-018
 -1.187619336805456E-018
  1.284005137911202E-018
 -6.496474445549305E-019
 -1.199980064408129E-019
  4.549660603341523E-019
 -2.825846247623191E-019
  9.094947017729284E-019
  4.736222540241708E-019
 -7.688292162248848E-019
  6.563374291496165E-019
  7.348832713362017E-020
 -1.234230519520567E-019
  1.319642155361491E-019
  8.008653791042771E-019
  7.125833226872517E-020
 -2.578359718007871E-020
  2.576172623531010E-019
 -8.708700577067691E-020
  1.500228839029959E-019
 -4.254366788487841E-019
  6.941419127869564E-019
  4.524373028076670E-019
 -1.900202659492705E-018
  7.584954766712712E-019
  1.165639601012107E-018
  3.684765798866476E-019
  6.746148069641503E-019
 -1.483904143612744E-019
 -3.047244669834694E-019
  1.096451157180478E-018
 -1.099497386816233E-018
  1.162433264948550E-018
  4.398950185831738E-019
  8.266489762843566E-019
  7.667593277877906E-019
 -9.441982784125858E-019
  3.371980487582319E-019
  5.046820757049004E-019
 -1.031343887203149E-019
 -5.075095958929701E-020
  3.183231456205248E-019
  8.322454136406110E-021
  1.538853483096117E-019
  1.414926038464553E-018
  1.381509209404391E-018
 -2.048403665916243E-019
 -3.715228095224015E-019
  4.718003765447089E-019
  2.417885888511492E-019
 -5.036471314863510E-019
 -3.558542424482536E-019
  5.552143258465088E-019
 -1.708130086012310E-018
  1.424510517031442E-018
 -1.211930570871620E-019
  1.691164964883889E-019
 -5.592954997008126E-019
 -1.713464913532844E-019
  1.774389506247953E-019
 -1.075943784501049E-019
 -3.704878653038567E-019
  7.539768839215944E-019
  6.380600513350843E-019
 -1.250555214937774E-019
 -8.404077613492143E-020
  1.167330673573715E-019
  1.106406080858605E-019
  8.646904828130956E-019
  3.360361900485939E-019
 -7.431256722587055E-019
  6.275876555476878E-019
  6.004195997835143E-019
  3.526479063846952E-019
 -1.073932499083840E-018
  3.677403983296879E-019
  1.111492897421510E-018
 -1.864872256019936E-018
  1.760251905307610E-019
 -2.273736754432326E-020
  3.032814053794917E-019
 -4.106863758918527E-019
  2.541922168418574E-019
  3.402442783939883E-019
  1.857614047612017E-019
 -1.095853631857304E-018
  3.160931507556303E-019
 -2.273736754432318E-020
  1.805559322863034E-035
  2.578359718007869E-020
  2.470648133517997E-019
  1.136868377216159E-019
  2.145259587146819E-018
 -2.777679436210005E-022
 -8.289209605851782E-019
  7.590772993625970E-020
 -2.959645939516904E-019
 -4.918703303287627E-019
 -2.689859461252622E-020
 -5.056155165155301E-020
  7.838416549559750E-019
 -1.889169891208000E-019
 -2.578359718007866E-020
 -3.796851572310064E-020
  5.071307800174796E-019
  8.367132546863238E-019
 -4.069332662090781E-019
  3.621654111674500E-019
  2.009925529399788E-019
  3.111156889165651E-019
 -5.145783963631422E-020
 -6.973521745084743E-020
  5.643530147537786E-020
 -6.799339318528354E-021
  9.176570494815327E-020
  1.477928890381007E-019
 -5.597836703001423E-019
 -7.258594053948694E-021
  2.782211703457729E-019
 -3.028879387490316E-019
 -2.501256937425268E-019
 -5.342187825677524E-019
 -2.999364130821495E-019
  8.316264381234156E-019
 -4.255094066851989E-019
  2.213905708955649E-019
 -8.363265874949112E-020
  4.296706337534026E-019
  5.809178698126890E-019
  4.050020340057715E-019
 -2.802745766835230E-019
 -4.382918505513968E-019
  5.385579224493725E-021
 -1.765133611300919E-019
  6.973521745084754E-020
  1.109393707474476E-019
 -5.227407440717473E-020
  9.358758242761807E-020
 -1.265786363116554E-019
  9.968004169912902E-020
  3.237214127710077E-019
 -6.447767700344736E-019
  5.627235726553391E-019
 -6.912450644819925E-019
  6.319675920635735E-019
 -1.643831199489909E-019
  1.055244900130108E-020
 -8.326320808320248E-019
 -1.258717562646377E-019
  9.055228826424724E-019
 -2.706184156669834E-019
 -1.664490827281223E-020
  1.889169891207997E-019
  2.368111270120862E-019
  6.090408165815057E-019
  6.047702347894608E-019
 -3.314043521483080E-019
  3.837877812793265E-019
  3.800346715965529E-019
  1.454535394493631E-019
  2.266667953962151E-019
  2.818777447153025E-019
 -1.136868377216161E-020
  1.292167485619807E-019
  4.138419602514505E-019
 -1.704387245950499E-019
  1.634489959242862E-019
 -2.443346784068554E-019
  2.945654846126269E-019
  4.523679746907746E-019
 -1.359614105185883E-019
 -6.600905388323884E-019
  2.749611993570054E-020
  3.398361610085583E-019
 -5.935909589550446E-019
 -1.356079704950789E-019
  7.489994220825306E-019
  6.690105182919718E-019
 -2.591403771709787E-019
  2.728484105318781E-019
 -3.787302662263624E-019
 -9.481193458390883E-020
  8.069578383757886E-020
 -5.045219692770997E-020
 -5.379718922505264E-020
 -3.328981654562447E-020
  8.638012572365976E-020
  9.511069724549607E-020
  2.279111608559804E-019
 -6.013568957897168E-019
  5.151256606896048E-019
 -1.638903052464263E-019
  3.952511690203612E-019
  3.757387139525267E-019
  1.503362973195538E-019
  5.606145558259743E-019
 -4.517597242705945E-020
 -7.396864641702985E-021
  2.430929942213398E-019
 -6.347150590377430E-019
  1.124624855653250E-019
 -1.628053277691919E-019
 -5.806777101709867E-020
 -7.642520204553269E-020
  4.194169474136899E-019
 -2.231030936511854E-019
 -3.065170429529918E-020
  3.558835439581952E-019
 -5.276224500650599E-021
 -2.087975349671113E-019
  9.845568954283811E-021
  1.136868377216160E-020
 -7.133102160377453E-019
 -1.812193989885282E-019
  2.870444677519439E-019
 -2.586512251571565E-020
 -2.446454105491618E-020
 -5.297362907670609E-020
 -9.750864985411788E-021
 -4.607226041182113E-020
  4.073413835945089E-019
  9.438916644350722E-020
  4.270581792045956E-021
  1.917366579929434E-020
 -2.703997062192963E-019
  0.000000000000000E+000
 -2.027050756956009E-019
 -1.354185625573343E-019
 -2.810615099444408E-019
  4.191181847521012E-019
 -7.166644965415536E-020
  3.288169916019417E-020
 -8.404077613492141E-020
  2.640084842861992E-019
  1.493160038559787E-019
  1.307398633798585E-019
 -4.882685648057655E-019
  2.046016438404630E-019
 -2.483267966933421E-019
  1.330741439004232E-019
 -1.624692197749079E-019
  3.291743572834122E-019
 -3.666254008972420E-019
 -1.742833662651978E-019
 -1.268773989732428E-019
 -5.221939704525324E-020
 -5.188929304201046E-019
  3.785115567786762E-019
  2.345811321471903E-019
  2.057513053313567E-019
 -2.273736754432324E-019
 -2.039801795558494E-020
  1.602765702427106E-019
  1.550003457420600E-019
 -1.114997432447466E-021
  2.080906549200954E-019
 -5.948153111113329E-020
  4.569344453633239E-021
  4.131350802044352E-020
  7.805767158725362E-020
  2.052738598290314E-020
 -1.553991749210222E-020
 -6.922940372636545E-020
  2.065437414331883E-019
 -1.070915570958034E-019
  9.336351043142765E-020
 -4.116593173709919E-019
 -4.146035176603901E-019
  1.049015888378582E-019
 -3.799799942346337E-019
 -4.055195061150459E-019
 -7.891393296506455E-020
 -2.441279384398871E-019
  9.085476620842113E-020
  4.966583842300820E-019
 -2.588416145093923E-019
 -2.575079076292582E-019
  4.644835651169046E-019
 -1.370217305891140E-019
  4.618161513566370E-020
 -2.492948082166959E-019
 -3.339917126946748E-020
 -4.506661770321634E-020
  6.668898781509213E-020
 -5.405592527968939E-021
 -1.848057953112857E-019
  8.356138541921459E-020
 -6.430661924922354E-020
 -4.639433984299052E-020
  1.964905737742569E-019
 -1.014819058751188E-019
  1.445426007096302E-019
  2.729030878938001E-019
 -5.684341886080813E-021
  4.684954108543144E-019
  4.324474022375136E-020
  2.192953066064912E-019
 -3.237487514519691E-019
 -3.722150388144494E-019
 -3.165959721099320E-019
  7.785361289453839E-020
 -1.998990057015481E-020
 -7.207456703958560E-021
 -1.106406080858606E-019
 -5.725153624623830E-020
 -1.167330673573715E-019
  8.089984253029355E-020
  5.684341886080786E-020
 -4.852096472440194E-020
  6.343503679787824E-020
 -3.783865698853711E-020
  1.489548134900443E-019
 -1.968113125683009E-020
 -1.610381276516481E-019
 -2.716787357375099E-019
 -9.267664368788563E-020
 -6.551931302072253E-020
 -4.304868685242626E-019
  2.113956206104871E-019
  4.866634339450060E-019
 -4.456379634891411E-020
 -2.068663027638042E-019
 -1.996041686979240E-019
  3.060835497155803E-019
  7.556894066772146E-020
  3.003992078295000E-019
  5.552436273564543E-020
  3.334449390754603E-020
  3.877009973899007E-020
  9.789819082661451E-020
  4.070133194229830E-020
 -8.526512829121233E-021
  2.349892495326210E-020
  9.004853808929821E-020
 -1.271329630463822E-019
  9.260854233910644E-020
  2.886717214853283E-020
  1.887856582645000E-020
 -8.795791790345906E-020
 -2.727937331699558E-020
  3.331188377329127E-019
  9.973471906105103E-020
 -1.160261873103543E-019
 -1.975782325257440E-019
  2.330580173293125E-019
 -5.658468280617135E-020
  3.288169916019404E-020
 -2.402654740332728E-019
  1.554084631274905E-019
  2.136656420823330E-019
 -8.510109620544737E-020
  1.341942104010443E-019
  3.005085625533438E-019
  8.673356574716862E-020
  1.481463290616099E-019
  7.577299936043702E-020
  1.480442997152516E-019
  7.437558988113492E-020
 -5.420030328461373E-020
 -2.986897255707663E-020
 -7.682197214209928E-020
 -2.519875978289403E-020
 -1.552624815162177E-020
  2.471595173206717E-020
 -8.927697402862149E-020
 -1.852146311419848E-020
 -2.630975455464667E-019
  8.892353400511284E-020
 -2.303613020591034E-020
  1.971154377783921E-019
 -1.774789772317460E-019
  1.433328993083102E-019
  6.256778735383888E-020
 -4.638567382837862E-020
 -1.215064705037199E-019
 -1.516953800516673E-019
  1.094162559295699E-019
  1.037865914054105E-019
  5.968558980384822E-020
  1.573396953307972E-020
 -3.133857103884128E-020
 -1.078384637497701E-020
 -5.791374558307155E-021
 -4.235700320456783E-020
 -8.786589520883891E-021
 -3.297640312906600E-021
 -2.016027661891424E-020
  1.400679602248682E-020
 -2.312561531533231E-019
 -1.178754034707800E-019
 -8.355796808409457E-020
  1.666131148138858E-019
 -1.128305763438051E-019
 -5.017488446013945E-021
  6.689304650780690E-020
  6.202493939258656E-020
  1.579918980158936E-019
  6.440431558827543E-020
 -3.897415843170519E-020
  2.513754217507966E-019
  2.654515458901761E-020
  1.292167485619804E-019
  6.328931815582773E-020
 -7.615574089388784E-022
  9.274400897579628E-021
 -4.169428672491267E-020
 -5.473729799011705E-020
 -5.589768135414116E-020
 -5.289415197181031E-020
 -1.231584626416698E-019
 -1.084953105380991E-019
  3.847133707740286E-020
  8.247763471009287E-021
 -5.039751956578829E-020
 -2.345157296882615E-020
 -3.558962318841857E-019
  1.526609961533204E-019
 -1.502269425957107E-019
  2.581200837074007E-019
 -2.188471626141108E-019
 -3.022357360639357E-019
  5.253281046181106E-020
  1.811373829456463E-019
 -1.679428960360577E-020
  1.439851019934061E-019
  5.816247498597069E-020
 -9.845568954283862E-021
  2.974076555556658E-020
 -1.174946247663113E-020
 -1.596170421801298E-020
  1.982209192663473E-020
  3.546234653311081E-020
 -2.546942363929875E-020
 -6.532257970549371E-020
  1.369580279899461E-019
  4.397529626298665E-020
 -2.663985855788943E-020
  1.509138093392538E-019
  1.945593415709491E-019
 -6.646491581890164E-020
 -2.185137358940782E-019
 -1.487038277778333E-020
  1.099884054007656E-019
  2.954363967454090E-019
 -5.833723216874220E-021
  8.043704778294258E-020
 -1.898132771055623E-019
 -1.714958726840781E-019
 -4.582817511215490E-020
 -1.775336545936683E-019
 -7.207456703958557E-021
  7.486206062070462E-021
 -7.615574089388800E-022
 -1.402046536296736E-020
 -5.726837756821586E-020
 -4.279055015260562E-020
  4.892483890818500E-020
  1.805935535699026E-019
  1.319705594991435E-019
 -7.574566067947617E-021
  1.176740260523169E-019
 -3.915053847150732E-019
 -1.638529599137283E-019
  1.946887095982682E-019
  7.947875705877329E-020
 -1.629146824930353E-020
  0.000000000000000E+000
  5.389921857140990E-020
 -4.055195061150452E-020
 -1.257150495563589E-019
  4.106209734329226E-020
  3.399669659264189E-021
  1.200307076702782E-019
  1.730443633539348E-020
  5.407593858316461E-020
 -2.055472466386414E-020
 -1.903893522347119E-022
 -1.252969255191919E-020
  4.583842711751552E-020
  4.289804066092486E-020
 -1.865046531303268E-020
 -1.109822101132606E-019
  1.146014391500916E-019
  1.021004259162593E-019
  1.290263592097462E-019
  6.118136594076574E-020
  1.225194385898102E-019
  1.430194858917527E-019
 -8.907291533590626E-021
 -1.383007601073262E-020
  1.090701412835472E-019
  2.099125323995602E-019
 -6.445899295019705E-021
  1.664710588605791E-019
  1.644377973109136E-019
  5.354577854790165E-020
  1.210710144373293E-019
 -2.415845301584343E-020
 -1.552991084036471E-020
  3.646541420869824E-020
  3.490495405812181E-020
  4.181240371678373E-022
 -2.277813021214161E-020
 -4.908984360064168E-020
  1.792594874671338E-020
 -3.508167406987630E-020
 -2.176357613530282E-020
 -2.357944962372521E-019
  5.339273452836486E-020
 -8.573060431281573E-020
  5.158720766363239E-020
 -1.815655136345513E-019
  0.000000000000000E+000
 -1.667224695377295E-020
 -3.055700032642692E-020
 -1.694352724534512E-019
 -2.869509624001141E-021
 -1.101578000350331E-019
 -9.805489753489349E-020
 -1.713665046567593E-019
 -1.555305057773214E-019
 -2.870045878851577E-020
  5.910075240666368E-020
  5.285891180435896E-020
 -1.958410523634146E-020
 -3.794117704214014E-021
 -2.935281702157570E-020
 -1.781150089134283E-020
 -8.463660159833438E-021
 -1.006584114690777E-019
 -1.182406814903976E-019
 -1.960041030346884E-019
  1.092568679470386E-019
  9.338352373490352E-020
  9.142861553937721E-020
  2.408376235044671E-020
  9.604897466618924E-020
 -1.317054794815126E-020
 -3.791383836117928E-020
 -8.610137636554776E-020
  9.947598300641443E-021
 -1.677427630013065E-020
 -7.803033290629328E-020
  3.005832532187429E-019
  7.293082841739704E-020
  4.346881221994186E-020
  1.024948739612095E-019
  1.197719716156425E-020
 -6.049633054159465E-020
 -5.163663634606253E-020
 -1.491916960890359E-020
  4.416593096884421E-020
  3.214055595631720E-020
 -3.416457097846675E-020
  1.802547643013656E-020
  4.303701884229337E-020
 -4.950659412953162E-020
  4.147557727722653E-021
  5.199532504906292E-020
  5.813513630501009E-020
 -4.943190346413397E-020
  6.516587299721435E-020
  4.040256928071092E-020
  7.397113518444749E-020
  1.421085471520200E-020
 -1.098790506769216E-019
 -2.536082903967738E-021
  7.430456190448060E-020
 -6.128339528712292E-020
  4.519598573053457E-020
 -2.944200289397952E-021
 -2.766015202146514E-020
 -7.185317631764727E-020
  2.040851531456788E-020
 -5.230158066777573E-020
 -3.775702541166472E-020
 -1.339703180161716E-020
 -4.390652459564424E-020
 -1.198403183180430E-020
  7.962130371932702E-020
  8.864112195825794E-020
  6.001535383513908E-020
 -2.291775024482029E-020
  2.230557416667496E-020
  5.492585599798028E-020
 -1.030523726774318E-019
 -2.055472466386406E-020
  7.082287620233426E-020
 -2.266868086996886E-019
 -5.405592527968901E-021
 -9.500866789913832E-020
  2.017394595939464E-020
 -1.725708435095742E-020
 -6.114402060806665E-020
  3.182137908966818E-020
  1.525116148225272E-020
 -5.644988648804416E-020
 -2.575546550374386E-020
  4.712942220507336E-021
 -3.661733410872156E-020
  1.011293815237962E-020
  6.168376233012769E-020
 -3.831646171349514E-020
  2.302978624291548E-020
 -1.099200586983630E-019
 -2.334014507010845E-019
 -8.852542327142046E-020
 -6.965686409670802E-020
 -1.156517525688798E-019
  1.421085471520204E-021
 -2.702796263984455E-020
 -6.929976138445602E-020
  1.378179520564993E-019
 -2.733038799017456E-020
  9.084011545345088E-021
 -3.464988069222837E-020
  3.684619291316780E-020
  3.517003407575365E-020
 -1.861348580881847E-020
  2.842170943040413E-021
 -4.787919365598380E-020
 -7.822682086789947E-021
  1.410017863653436E-019
 -7.676277995960483E-020
 -4.557243142769832E-020
 -3.831987904861504E-020
 -1.780638146289298E-019
 -9.580757064077530E-020
 -8.370466814063561E-020
  5.796207898199838E-020
  9.063337548648218E-020
  1.016176178654322E-019
 -3.301472987625529E-020
 -5.330901862572158E-021
 -6.795702926707595E-020
  3.909816391051912E-021
  1.107426374322182E-019
 -2.478063574572625E-020
  5.888668706221099E-020
  8.873948861587303E-020
 -5.939415251974699E-021
  5.379718922505275E-020
  4.225178544113671E-020
  9.376430243937221E-021
  0.000000000000000E+000
  3.724790169427249E-020
 -3.389681966381307E-020
 -7.741385669199431E-020
 -9.973605969817639E-020
 -2.072802734049808E-020
 -2.578176583570731E-020
 -7.618795141610670E-020
  1.230564332953130E-019
 -1.993254193398112E-020
 -1.988152726080227E-020
  2.014370342436166E-019
  1.009207444701514E-019
  4.490356703194207E-020
  8.752246183706718E-020
  2.410377565392170E-021
  4.059295863294537E-020
  1.351014864520328E-019
  8.339858010156277E-020
  4.176897739030959E-020
  2.059206999656253E-020
  2.131628207280285E-020
  1.903893522347164E-022
  3.171934974331043E-021
 -4.797222182844877E-020
 -1.834429348413971E-020
  1.266902451428605E-019
  9.144570221497757E-020
 -1.388743464690616E-021
 -1.026112429666099E-019
 -1.028736898366945E-020
 -4.434423697134734E-020
  8.920960874071030E-021
  3.057701362990241E-020
 -7.360500723494896E-021
 -1.822150350453969E-019
 -8.012461578087469E-020
 -3.452417535365265E-020
  1.585967487165529E-020
 -1.738278968953309E-020
 -1.082485439641831E-020
 -1.113748268138394E-019
 -1.188883715568697E-020
 -2.052738598290339E-020
  4.145288269949919E-020
 -1.899426451328806E-020
 -3.185372109649800E-020
  3.552713678800517E-021
  2.700697217827526E-020
 -8.053850542419476E-021
 -3.278174651183057E-020
 -4.949133879830212E-020
  3.662187556335497E-020
  4.472001234994800E-020
 -1.413146477362515E-019
  5.626541613386350E-020
 -1.021327679230890E-019
 -1.096818266544479E-019
  5.459975465543258E-020
  9.367594243349548E-020
 -1.268773989732423E-020
 -7.917999439718674E-021
  4.695049792208841E-021
 -2.138096608646223E-020
 -2.635110254804008E-020
  2.774851202734230E-020
  8.628542175478792E-021
  5.594248677281344E-020
  1.954908195526043E-021
 -8.285108803707766E-021
 -3.317961189190063E-020
  0.000000000000000E+000
 -1.004490427584649E-019
  2.385373848504915E-020
 -6.986525579672866E-020
 -4.290289284272887E-020
 -1.724475740916284E-019
  4.272092415148304E-020
 -3.139141705639122E-020
  5.983863382338411E-020
 -4.756071117125304E-021
 -3.582639015683707E-020
 -1.086228472210460E-019
 -5.599350144599166E-020
  3.171934974331054E-021
  3.850868241010110E-020
 -1.440124406743662E-020
 -2.414040254134977E-022
  1.054254049101257E-019
 -1.483303744508483E-020
 -2.868678944803546E-020
 -2.461392238570940E-021
  2.545200180441650E-020
 -2.417712568219243E-020
 -4.973799150320669E-021
 -1.910813185575442E-020
  1.262568022341088E-020
  4.059197721845336E-021
  2.471094840619845E-020
  8.850357862357396E-021
 -3.444448136238717E-020
 -1.260703209242388E-019
  3.143876904082733E-020
 -1.590085287907278E-019
 -1.098143666632624E-019
  1.065814103640160E-021
 -8.548602830590481E-020
  9.847400298655235E-021
  4.199671207524257E-020
  8.336123476886537E-021
 -1.956543256999225E-020
 -6.738317993611974E-021
 -4.343146688724361E-020
  1.969113790856782E-020
  3.816524903833057E-020
  4.053144660078399E-020
  3.238070915026335E-020
  1.951441789681337E-020
  1.965379257586934E-020
  7.457281390361013E-021
 -3.347019924612137E-020
 -2.831968008404675E-020
  4.198145674401335E-020
 -1.283982574818097E-019
  5.509940402823774E-020
 -1.340511730332454E-020
 -1.321289660671846E-020
 -2.522243577511197E-020
  5.219254907153843E-020
  2.568424910797350E-021
  2.157135543869704E-021
  1.572030019259951E-020
  2.146249142209918E-020
 -1.885580078634244E-022
  9.009320879948275E-021
  1.449880634277599E-019
  8.698363578719379E-020
  5.164005368118282E-020
 -6.937128006835577E-020
  1.499108479049010E-020
  1.472100144699011E-021
 -2.392388366067043E-020
 -2.439302237101690E-020
 -7.755619087007786E-021
 -4.593362179363254E-020
  1.172554113079027E-020
 -1.233063718507279E-020
  1.947023789387453E-020
 -1.032427620296666E-019
  5.308566507480154E-021
 -8.693762443988363E-020
  9.082876816458629E-020
  1.316831441264195E-019
  5.517628526063836E-021
 -3.136590971980194E-020
 -7.356484914338790E-020
 -2.384736165090194E-020
 -3.537592411283987E-020
 -1.763603171105542E-020
  2.010926194573546E-021
 -1.423636205179140E-020
  3.870090310670732E-020
  6.389099687498966E-020
  2.809828936210797E-021
 -4.691387103466381E-022
  5.278055845021913E-021
 -7.305153043010285E-021
  1.300383458813450E-022
 -7.290623675299291E-020
 -1.603389322047522E-020
  1.276462112972747E-021
  4.121648199995459E-020
 -2.910857617394601E-020
 -7.518816196325225E-020
 -9.003169676731957E-020
 -5.075279093366791E-020
 -6.743687588355003E-020
 -2.684123597635268E-021
 -5.597800076113975E-020
  2.533129979170993E-020
 -1.476835343142578E-020
  7.549058731358187E-021
 -5.050455223801462E-020
 -2.266084553455515E-020
 -2.187561213339802E-020
 -2.785054137369963E-020
 -4.336177954771536E-020
 -1.573396953307978E-020
 -4.593020445851264E-021
 -2.331353892689614E-021
 -2.899196181492259E-020
  4.759733805867969E-023
  1.311269860473253E-020
 -7.676595414305279E-021
  2.051054466092536E-020
 -4.327940428219814E-021
  7.982683453377880E-021
  9.293073563928884E-021
  9.954432970881604E-021
  2.616254454017677E-020
 -3.212063245850060E-020
 -1.750349170223988E-020
 -2.432333503148871E-020
 -2.267951820090424E-020
 -2.115823472739783E-020
  2.107487804738955E-020
 -4.635699451029196E-020
 -3.454284802000188E-020
  7.467533395721244E-021
  1.055110836417514E-020
 -1.666541228353277E-020
  1.377906133755389E-020
  6.629453977014208E-021
 -6.303107280843654E-021
  1.135501443168137E-021
  9.003737041175209E-021
  5.849223901726111E-020
 -2.522426711948334E-020
  7.898911433770724E-020
  8.324285480777407E-021
 -7.595155071656276E-020
  1.206738851181271E-020
 -8.393923749580983E-020
 -5.379035455481214E-020
  1.335410263014581E-020
 -1.935637055140824E-020
 -3.188105977745862E-020
 -8.572059766107824E-020
 -1.636799025907169E-020
 -8.285108803707753E-021
 -3.879426643845341E-020
  3.275965651036139E-020
 -2.033882797504016E-020
 -1.435706406449813E-020
 -2.486899575160356E-020
 -1.638666292542101E-020
 -1.122247442286546E-020
 -1.893641516986910E-021
 -3.232285980684433E-021
 -5.216454007201435E-021
  1.128666772927976E-021
  3.634239014437498E-021
 -3.333082456706539E-020
  5.760863895849012E-021
 -4.636382918053260E-020
  1.413433270543397E-020
 -1.651419960836771E-020
 -3.254375982153753E-020
  4.409099494982431E-020
  4.250502746265938E-020
 -1.344563461752037E-021
  6.000436576891127E-021
  5.024813823499494E-021
  1.584783687554626E-020
 -1.107126174770056E-020
 -5.607502678162927E-020
  2.332720826737647E-020
 -1.943789588704531E-020
  5.201533835253345E-022
 -8.726238514530485E-021
 -2.304754323707899E-020
  1.689406264065159E-020
 -7.495542395245086E-021
 -1.379864967608873E-021
 -4.319506618769882E-020
  5.937583907603239E-021
  6.053282594441254E-021
  5.963091244192705E-021
 -3.512085074694620E-020
 -3.973254385914651E-020
  5.326519784541818E-020
 -3.267996251909559E-020
 -1.903844451622657E-020
 -4.897643409426778E-020
 -1.024001699923366E-020
 -7.074818553693698E-020
  4.238432544995227E-020
 -7.409684052302294E-021
  2.068726467267988E-020
 -6.403720622428581E-020
 -1.991386926763201E-020
 -9.877910961113436E-021
  1.465265474458786E-021
 -1.660255961424501E-020
  6.924374338540895E-021
 -1.852762746587566E-020
 -5.122967998644031E-021
 -3.600311016859177E-021
 -2.842170943040389E-021
 -1.233725279861246E-019
  5.162321235920514E-020
 -1.410382204297568E-020
 -1.092773719577594E-019
 -1.103891974087083E-020
  7.917999439718697E-021
  1.077200837886817E-020
  2.981545622096338E-021
  1.721107300364765E-020
 -2.783870337759096E-020
  2.569340582983028E-020
  3.330031390460729E-020
 -1.700201098506362E-020
  2.949435820428443E-020
 -1.929400858936517E-021
 -7.384176715712888E-021
  2.308580424196307E-020
  1.141628111022029E-020
 -1.295465125932714E-020
  9.411273913701235E-021
 -5.623990879727427E-021
 -2.428257236367016E-021
 -4.891358142498011E-021
 -1.007863731169640E-019
 -7.936488971630690E-020
 -5.883384104466098E-020
  5.349976720059143E-020
 -2.461575373008095E-020
 -3.701790959905298E-020
 -7.391511718539960E-020
  9.357757577588040E-021
 -5.036651819608470E-021
 -5.449772530907504E-021
 -5.010510086719605E-020
  2.842170943040403E-021
 -1.214891384744965E-020
 -1.091821772816419E-020
 -8.526512829121200E-021
 -5.823716565136748E-021
  2.765331735122496E-020
 -1.243449787580174E-020
 -2.426548568806972E-021
 -1.518147414272483E-020
 -6.501917294067263E-022
 -4.145971736973955E-021
  1.911063351868906E-021
 -1.809720759650624E-021
 -7.496225862269039E-020
 -1.811883976188254E-020
 -7.932070971336797E-020
  1.050009369099632E-020
  2.202682480856310E-020
  3.663029622434361E-020
 -6.248358074395002E-020
  2.169706077727228E-020
 -2.621355921335538E-020
 -4.644035119030025E-021
  1.182415314202776E-020
  4.142554401853824E-021
 -2.686625260569646E-020
  5.329070518200724E-021
  4.153440803513600E-020
  5.182861168904578E-021
 -1.392527068684983E-020
 -2.460208438960044E-020
  3.714423712948402E-022
 -1.906395185281600E-021
 -3.102247634803079E-021
 -7.413101387422405E-021
 -4.819962135409979E-021
 -5.272762262701052E-021
 -4.479470301534441E-020
 -1.709720566118082E-020
 -3.692088357856429E-021
  2.524977445607277E-020
 -1.608924090095972E-020
  2.108854738786971E-020
 -7.998023777594934E-020
  2.931580684815870E-020
  1.716005833046866E-020
  1.389292868002048E-020
  1.653287227471703E-020
 -2.822448540792886E-020
 -1.582916420919701E-020
  1.273875457050305E-020
  8.006359445595856E-021
  1.155907312439640E-020
 -6.603946640424773E-021
 -1.004279297675868E-020
  4.485072101439181E-021
 -5.008642820084654E-021
 -3.197442310920455E-021
 -2.239576551692338E-021
 -4.884981308350657E-021
 -3.446474001948484E-021
SCALARS elementIsPlast double 
LOOKUP_TABLE default
  0.000000000000000E+000
  0.000000000000000E+000
  0.000000000000000E+000
  0.000000000000000E+000
  0.000000000000000E+000
  0.000000000000000E+000
  0.000000000000000E+000
  0.000000000000000E+000
  0.000000000000000E+000
  0.000000000000000E+000
  0.000000000000000E+000
  0.000000000000000E+000
  0.000000000000000E+000
  0.000000000000000E+000
  0.000000000000000E+000
  0.000000000000000E+000
  0.000000000000000E+000
  0.000000000000000E+000
  0.000000000000000E+000
  0.000000000000000E+000
  0.000000000000000E+000
  0.000000000000000E+000
  0.000000000000000E+000
  0.000000000000000E+000
  0.000000000000000E+000
  0.000000000000000E+000
  0.000000000000000E+000
  0.000000000000000E+000
  0.000000000000000E+000
  0.000000000000000E+000
  0.000000000000000E+000
  0.000000000000000E+000
  0.000000000000000E+000
  0.000000000000000E+000
  0.000000000000000E+000
  0.000000000000000E+000
  0.000000000000000E+000
  0.000000000000000E+000
  0.000000000000000E+000
  0.000000000000000E+000
  0.000000000000000E+000
  0.000000000000000E+000
  0.000000000000000E+000
  0.000000000000000E+000
  0.000000000000000E+000
  0.000000000000000E+000
  0.000000000000000E+000
  0.000000000000000E+000
  0.000000000000000E+000
  0.000000000000000E+000
  0.000000000000000E+000
  0.000000000000000E+000
  0.000000000000000E+000
  0.000000000000000E+000
  0.000000000000000E+000
  0.000000000000000E+000
  0.000000000000000E+000
  0.000000000000000E+000
  0.000000000000000E+000
  0.000000000000000E+000
  0.000000000000000E+000
  0.000000000000000E+000
  0.000000000000000E+000
  0.000000000000000E+000
  0.000000000000000E+000
  0.000000000000000E+000
  0.000000000000000E+000
  0.000000000000000E+000
  0.000000000000000E+000
  0.000000000000000E+000
  0.000000000000000E+000
  0.000000000000000E+000
  0.000000000000000E+000
  0.000000000000000E+000
  0.000000000000000E+000
  0.000000000000000E+000
  0.000000000000000E+000
  0.000000000000000E+000
  0.000000000000000E+000
  0.000000000000000E+000
  0.000000000000000E+000
  0.000000000000000E+000
  0.000000000000000E+000
  0.000000000000000E+000
  0.000000000000000E+000
  0.000000000000000E+000
  0.000000000000000E+000
  0.000000000000000E+000
  0.000000000000000E+000
  0.000000000000000E+000
  0.000000000000000E+000
  0.000000000000000E+000
  0.000000000000000E+000
  0.000000000000000E+000
  0.000000000000000E+000
  0.000000000000000E+000
  0.000000000000000E+000
  0.000000000000000E+000
  0.000000000000000E+000
  0.000000000000000E+000
  0.000000000000000E+000
  0.000000000000000E+000
  0.000000000000000E+000
  0.000000000000000E+000
  0.000000000000000E+000
  0.000000000000000E+000
  0.000000000000000E+000
  0.000000000000000E+000
  0.000000000000000E+000
  0.000000000000000E+000
  0.000000000000000E+000
  0.000000000000000E+000
  0.000000000000000E+000
  0.000000000000000E+000
  0.000000000000000E+000
  0.000000000000000E+000
  0.000000000000000E+000
  0.000000000000000E+000
  0.000000000000000E+000
  0.000000000000000E+000
  0.000000000000000E+000
  0.000000000000000E+000
  0.000000000000000E+000
  0.000000000000000E+000
  0.000000000000000E+000
  0.000000000000000E+000
  0.000000000000000E+000
  0.000000000000000E+000
  0.000000000000000E+000
  0.000000000000000E+000
  0.000000000000000E+000
  0.000000000000000E+000
  0.000000000000000E+000
  0.000000000000000E+000
  0.000000000000000E+000
  0.000000000000000E+000
  0.000000000000000E+000
  0.000000000000000E+000
  0.000000000000000E+000
  0.000000000000000E+000
  0.000000000000000E+000
  0.000000000000000E+000
  0.000000000000000E+000
  0.000000000000000E+000
  0.000000000000000E+000
  0.000000000000000E+000
  0.000000000000000E+000
  0.000000000000000E+000
  0.000000000000000E+000
  0.000000000000000E+000
  0.000000000000000E+000
  0.000000000000000E+000
  0.000000000000000E+000
  0.000000000000000E+000
  0.000000000000000E+000
  0.000000000000000E+000
  0.000000000000000E+000
  0.000000000000000E+000
  0.000000000000000E+000
  0.000000000000000E+000
  0.000000000000000E+000
  0.000000000000000E+000
  0.000000000000000E+000
  0.000000000000000E+000
  0.000000000000000E+000
  0.000000000000000E+000
  0.000000000000000E+000
  0.000000000000000E+000
  0.000000000000000E+000
  0.000000000000000E+000
  0.000000000000000E+000
  0.000000000000000E+000
  0.000000000000000E+000
  0.000000000000000E+000
  0.000000000000000E+000
  0.000000000000000E+000
  0.000000000000000E+000
  0.000000000000000E+000
  0.000000000000000E+000
  0.000000000000000E+000
  0.000000000000000E+000
  0.000000000000000E+000
  0.000000000000000E+000
  0.000000000000000E+000
  0.000000000000000E+000
  0.000000000000000E+000
  0.000000000000000E+000
  0.000000000000000E+000
  0.000000000000000E+000
  0.000000000000000E+000
  0.000000000000000E+000
  0.000000000000000E+000
  0.000000000000000E+000
  0.000000000000000E+000
  0.000000000000000E+000
  0.000000000000000E+000
  0.000000000000000E+000
  0.000000000000000E+000
  0.000000000000000E+000
  0.000000000000000E+000
  0.000000000000000E+000
  0.000000000000000E+000
  0.000000000000000E+000
  0.000000000000000E+000
  0.000000000000000E+000
  0.000000000000000E+000
  0.000000000000000E+000
  0.000000000000000E+000
  0.000000000000000E+000
  0.000000000000000E+000
  0.000000000000000E+000
  0.000000000000000E+000
  0.000000000000000E+000
  0.000000000000000E+000
  0.000000000000000E+000
  0.000000000000000E+000
  0.000000000000000E+000
  0.000000000000000E+000
  0.000000000000000E+000
  0.000000000000000E+000
  0.000000000000000E+000
  0.000000000000000E+000
  0.000000000000000E+000
  0.000000000000000E+000
  0.000000000000000E+000
  0.000000000000000E+000
  0.000000000000000E+000
  0.000000000000000E+000
  0.000000000000000E+000
  0.000000000000000E+000
  0.000000000000000E+000
  0.000000000000000E+000
  0.000000000000000E+000
  0.000000000000000E+000
  0.000000000000000E+000
  0.000000000000000E+000
  0.000000000000000E+000
  0.000000000000000E+000
  0.000000000000000E+000
  0.000000000000000E+000
  0.000000000000000E+000
  0.000000000000000E+000
  0.000000000000000E+000
  0.000000000000000E+000
  0.000000000000000E+000
  0.000000000000000E+000
  0.000000000000000E+000
  0.000000000000000E+000
  0.000000000000000E+000
  0.000000000000000E+000
  0.000000000000000E+000
  0.000000000000000E+000
  0.000000000000000E+000
  0.000000000000000E+000
  0.000000000000000E+000
  0.000000000000000E+000
  0.000000000000000E+000
  0.000000000000000E+000
  0.000000000000000E+000
  0.000000000000000E+000
  0.000000000000000E+000
  0.000000000000000E+000
  0.000000000000000E+000
  0.000000000000000E+000
  0.000000000000000E+000
  0.000000000000000E+000
  0.000000000000000E+000
  0.000000000000000E+000
  0.000000000000000E+000
  0.000000000000000E+000
  0.000000000000000E+000
  0.000000000000000E+000
  0.000000000000000E+000
  0.000000000000000E+000
  0.000000000000000E+000
  0.000000000000000E+000
  0.000000000000000E+000
  0.000000000000000E+000
  0.000000000000000E+000
  0.000000000000000E+000
  0.000000000000000E+000
  0.000000000000000E+000
  0.000000000000000E+000
  0.000000000000000E+000
  0.000000000000000E+000
  0.000000000000000E+000
  0.000000000000000E+000
  0.000000000000000E+000
  0.000000000000000E+000
  0.000000000000000E+000
  0.000000000000000E+000
  0.000000000000000E+000
  0.000000000000000E+000
  0.000000000000000E+000
  0.000000000000000E+000
  0.000000000000000E+000
  0.000000000000000E+000
  0.000000000000000E+000
  0.000000000000000E+000
  0.000000000000000E+000
  0.000000000000000E+000
  0.000000000000000E+000
  0.000000000000000E+000
  0.000000000000000E+000
  0.000000000000000E+000
  0.000000000000000E+000
  0.000000000000000E+000
  0.000000000000000E+000
  0.000000000000000E+000
  0.000000000000000E+000
  0.000000000000000E+000
  0.000000000000000E+000
  0.000000000000000E+000
  0.000000000000000E+000
  0.000000000000000E+000
  0.000000000000000E+000
  0.000000000000000E+000
  0.000000000000000E+000
  0.000000000000000E+000
  0.000000000000000E+000
  0.000000000000000E+000
  0.000000000000000E+000
  0.000000000000000E+000
  0.000000000000000E+000
  0.000000000000000E+000
  0.000000000000000E+000
  0.000000000000000E+000
  0.000000000000000E+000
  0.000000000000000E+000
  0.000000000000000E+000
  0.000000000000000E+000
  0.000000000000000E+000
  0.000000000000000E+000
  0.000000000000000E+000
  0.000000000000000E+000
  0.000000000000000E+000
  0.000000000000000E+000
  0.000000000000000E+000
  0.000000000000000E+000
  0.000000000000000E+000
  0.000000000000000E+000
  0.000000000000000E+000
  0.000000000000000E+000
  0.000000000000000E+000
  0.000000000000000E+000
  0.000000000000000E+000
  0.000000000000000E+000
  0.000000000000000E+000
  0.000000000000000E+000
  0.000000000000000E+000
  0.000000000000000E+000
  0.000000000000000E+000
  0.000000000000000E+000
  0.000000000000000E+000
  0.000000000000000E+000
  0.000000000000000E+000
  0.000000000000000E+000
  0.000000000000000E+000
  0.000000000000000E+000
  0.000000000000000E+000
  0.000000000000000E+000
  0.000000000000000E+000
  0.000000000000000E+000
  0.000000000000000E+000
  0.000000000000000E+000
  0.000000000000000E+000
  0.000000000000000E+000
  0.000000000000000E+000
  0.000000000000000E+000
  0.000000000000000E+000
  0.000000000000000E+000
  0.000000000000000E+000
  0.000000000000000E+000
  0.000000000000000E+000
  0.000000000000000E+000
  0.000000000000000E+000
  0.000000000000000E+000
  0.000000000000000E+000
  0.000000000000000E+000
  0.000000000000000E+000
  0.000000000000000E+000
  0.000000000000000E+000
  0.000000000000000E+000
  0.000000000000000E+000
  0.000000000000000E+000
  0.000000000000000E+000
  0.000000000000000E+000
  0.000000000000000E+000
  0.000000000000000E+000
  0.000000000000000E+000
  0.000000000000000E+000
  0.000000000000000E+000
  0.000000000000000E+000
  0.000000000000000E+000
  0.000000000000000E+000
  0.000000000000000E+000
  0.000000000000000E+000
  0.000000000000000E+000
  0.000000000000000E+000
  0.000000000000000E+000
  0.000000000000000E+000
  0.000000000000000E+000
  0.000000000000000E+000
  0.000000000000000E+000
  0.000000000000000E+000
  0.000000000000000E+000
  0.000000000000000E+000
  0.000000000000000E+000
  0.000000000000000E+000
  0.000000000000000E+000
  0.000000000000000E+000
  0.000000000000000E+000
  0.000000000000000E+000
  0.000000000000000E+000
  0.000000000000000E+000
  0.000000000000000E+000
  0.000000000000000E+000
  0.000000000000000E+000
  0.000000000000000E+000
  0.000000000000000E+000
  0.000000000000000E+000
  0.000000000000000E+000
  0.000000000000000E+000
  0.000000000000000E+000
  0.000000000000000E+000
  0.000000000000000E+000
  0.000000000000000E+000
  0.000000000000000E+000
  0.000000000000000E+000
  0.000000000000000E+000
  0.000000000000000E+000
  0.000000000000000E+000
  0.000000000000000E+000
  0.000000000000000E+000
  0.000000000000000E+000
  0.000000000000000E+000
  0.000000000000000E+000
  0.000000000000000E+000
  0.000000000000000E+000
  0.000000000000000E+000
  0.000000000000000E+000
  0.000000000000000E+000
  0.000000000000000E+000
  0.000000000000000E+000
  0.000000000000000E+000
  0.000000000000000E+000
  0.000000000000000E+000
  0.000000000000000E+000
  0.000000000000000E+000
  0.000000000000000E+000
  0.000000000000000E+000
  0.000000000000000E+000
  0.000000000000000E+000
  0.000000000000000E+000
  0.000000000000000E+000
  0.000000000000000E+000
  0.000000000000000E+000
  0.000000000000000E+000
  0.000000000000000E+000
  0.000000000000000E+000
  0.000000000000000E+000
  0.000000000000000E+000
  0.000000000000000E+000
  0.000000000000000E+000
  0.000000000000000E+000
  0.000000000000000E+000
  0.000000000000000E+000
  0.000000000000000E+000
  0.000000000000000E+000
  0.000000000000000E+000
  0.000000000000000E+000
  0.000000000000000E+000
  0.000000000000000E+000
  0.000000000000000E+000
  0.000000000000000E+000
  0.000000000000000E+000
  0.000000000000000E+000
  0.000000000000000E+000
  0.000000000000000E+000
  0.000000000000000E+000
  0.000000000000000E+000
  0.000000000000000E+000
  0.000000000000000E+000
  0.000000000000000E+000
  0.000000000000000E+000
  0.000000000000000E+000
  0.000000000000000E+000
  0.000000000000000E+000
  0.000000000000000E+000
  0.000000000000000E+000
  0.000000000000000E+000
  0.000000000000000E+000
  0.000000000000000E+000
  0.000000000000000E+000
  0.000000000000000E+000
  0.000000000000000E+000
  0.000000000000000E+000
  0.000000000000000E+000
  0.000000000000000E+000
  0.000000000000000E+000
  0.000000000000000E+000
  0.000000000000000E+000
  0.000000000000000E+000
  0.000000000000000E+000
  0.000000000000000E+000
  0.000000000000000E+000
  0.000000000000000E+000
  0.000000000000000E+000
  0.000000000000000E+000
  0.000000000000000E+000
  0.000000000000000E+000
  0.000000000000000E+000
  0.000000000000000E+000
  0.000000000000000E+000
  0.000000000000000E+000
  0.000000000000000E+000
  0.000000000000000E+000
  0.000000000000000E+000
  0.000000000000000E+000
  0.000000000000000E+000
  0.000000000000000E+000
  0.000000000000000E+000
  0.000000000000000E+000
  0.000000000000000E+000
  0.000000000000000E+000
  0.000000000000000E+000
  0.000000000000000E+000
  0.000000000000000E+000
  0.000000000000000E+000
  0.000000000000000E+000
  0.000000000000000E+000
  0.000000000000000E+000
  0.000000000000000E+000
  0.000000000000000E+000
  0.000000000000000E+000
  0.000000000000000E+000
  0.000000000000000E+000
  0.000000000000000E+000
  0.000000000000000E+000
  0.000000000000000E+000
  0.000000000000000E+000
  0.000000000000000E+000
  0.000000000000000E+000
  0.000000000000000E+000
  0.000000000000000E+000
  0.000000000000000E+000
  0.000000000000000E+000
  0.000000000000000E+000
  0.000000000000000E+000
  0.000000000000000E+000
  0.000000000000000E+000
  0.000000000000000E+000
  0.000000000000000E+000
  0.000000000000000E+000
  0.000000000000000E+000
  0.000000000000000E+000
  0.000000000000000E+000
  0.000000000000000E+000
  0.000000000000000E+000
  0.000000000000000E+000
  0.000000000000000E+000
  0.000000000000000E+000
  0.000000000000000E+000
  0.000000000000000E+000
  0.000000000000000E+000
  0.000000000000000E+000
  0.000000000000000E+000
  0.000000000000000E+000
  0.000000000000000E+000
  0.000000000000000E+000
  0.000000000000000E+000
  0.000000000000000E+000
  0.000000000000000E+000
  0.000000000000000E+000
  0.000000000000000E+000
  0.000000000000000E+000
  0.000000000000000E+000
  0.000000000000000E+000
  0.000000000000000E+000
  0.000000000000000E+000
  0.000000000000000E+000
  0.000000000000000E+000
  0.000000000000000E+000
  0.000000000000000E+000
  0.000000000000000E+000
  0.000000000000000E+000
  0.000000000000000E+000
  0.000000000000000E+000
  0.000000000000000E+000
  0.000000000000000E+000
  0.000000000000000E+000
  0.000000000000000E+000
  0.000000000000000E+000
  0.000000000000000E+000
  0.000000000000000E+000
  0.000000000000000E+000
  0.000000000000000E+000
  0.000000000000000E+000
  0.000000000000000E+000
  0.000000000000000E+000
  0.000000000000000E+000
  0.000000000000000E+000
  0.000000000000000E+000
  0.000000000000000E+000
  0.000000000000000E+000
  0.000000000000000E+000
  0.000000000000000E+000
  0.000000000000000E+000
  0.000000000000000E+000
  0.000000000000000E+000
  0.000000000000000E+000
  0.000000000000000E+000
  0.000000000000000E+000
  0.000000000000000E+000
  0.000000000000000E+000
  0.000000000000000E+000
  0.000000000000000E+000
  0.000000000000000E+000
  0.000000000000000E+000
  0.000000000000000E+000
  0.000000000000000E+000
  0.000000000000000E+000
  0.000000000000000E+000
  0.000000000000000E+000
  0.000000000000000E+000
  0.000000000000000E+000
  0.000000000000000E+000
  0.000000000000000E+000
  0.000000000000000E+000
  0.000000000000000E+000
  0.000000000000000E+000
  0.000000000000000E+000
  0.000000000000000E+000
  0.000000000000000E+000
  0.000000000000000E+000
  0.000000000000000E+000
  0.000000000000000E+000
  0.000000000000000E+000
  0.000000000000000E+000
  0.000000000000000E+000
  0.000000000000000E+000
  0.000000000000000E+000
  0.000000000000000E+000
  0.000000000000000E+000
  0.000000000000000E+000
  0.000000000000000E+000
  0.000000000000000E+000
  0.000000000000000E+000
  0.000000000000000E+000
  0.000000000000000E+000
  0.000000000000000E+000
  0.000000000000000E+000
  0.000000000000000E+000
  0.000000000000000E+000
  0.000000000000000E+000
  0.000000000000000E+000
  0.000000000000000E+000
  0.000000000000000E+000
  0.000000000000000E+000
  0.000000000000000E+000
  0.000000000000000E+000
  0.000000000000000E+000
  0.000000000000000E+000
  0.000000000000000E+000
  0.000000000000000E+000
  0.000000000000000E+000
  0.000000000000000E+000
  0.000000000000000E+000
  0.000000000000000E+000
  0.000000000000000E+000
  0.000000000000000E+000
  0.000000000000000E+000
  0.000000000000000E+000
  0.000000000000000E+000
  0.000000000000000E+000
  0.000000000000000E+000
  0.000000000000000E+000
  0.000000000000000E+000
  0.000000000000000E+000
  0.000000000000000E+000
  0.000000000000000E+000
  0.000000000000000E+000
  0.000000000000000E+000
  0.000000000000000E+000
  0.000000000000000E+000
  0.000000000000000E+000
  0.000000000000000E+000
  0.000000000000000E+000
  0.000000000000000E+000
  0.000000000000000E+000
  0.000000000000000E+000
  0.000000000000000E+000
  0.000000000000000E+000
  0.000000000000000E+000
  0.000000000000000E+000
  0.000000000000000E+000
  0.000000000000000E+000
  0.000000000000000E+000
  0.000000000000000E+000
  0.000000000000000E+000
  0.000000000000000E+000
  0.000000000000000E+000
  0.000000000000000E+000
  0.000000000000000E+000
  0.000000000000000E+000
  0.000000000000000E+000
  0.000000000000000E+000
  0.000000000000000E+000
  0.000000000000000E+000
  0.000000000000000E+000
  0.000000000000000E+000
  0.000000000000000E+000
  0.000000000000000E+000
  0.000000000000000E+000
  0.000000000000000E+000
  0.000000000000000E+000
  0.000000000000000E+000
  0.000000000000000E+000
  0.000000000000000E+000
  0.000000000000000E+000
  0.000000000000000E+000
  0.000000000000000E+000
  0.000000000000000E+000
  0.000000000000000E+000
  0.000000000000000E+000
  0.000000000000000E+000
  0.000000000000000E+000
  0.000000000000000E+000
  0.000000000000000E+000
  0.000000000000000E+000
  0.000000000000000E+000
  0.000000000000000E+000
  0.000000000000000E+000
  0.000000000000000E+000
  0.000000000000000E+000
  0.000000000000000E+000
  0.000000000000000E+000
  0.000000000000000E+000
  0.000000000000000E+000
  0.000000000000000E+000
  0.000000000000000E+000
  0.000000000000000E+000
  0.000000000000000E+000
  0.000000000000000E+000
  0.000000000000000E+000
  0.000000000000000E+000
  0.000000000000000E+000
  0.000000000000000E+000
  0.000000000000000E+000
  0.000000000000000E+000
  0.000000000000000E+000
  0.000000000000000E+000
  0.000000000000000E+000
  0.000000000000000E+000
  0.000000000000000E+000
  0.000000000000000E+000
  0.000000000000000E+000
  0.000000000000000E+000
  0.000000000000000E+000
  0.000000000000000E+000
  0.000000000000000E+000
  0.000000000000000E+000
  0.000000000000000E+000
  0.000000000000000E+000
  0.000000000000000E+000
  0.000000000000000E+000
  0.000000000000000E+000
  0.000000000000000E+000
  0.000000000000000E+000
  0.000000000000000E+000
  0.000000000000000E+000
  0.000000000000000E+000
  0.000000000000000E+000
  0.000000000000000E+000
  0.000000000000000E+000
  0.000000000000000E+000
  0.000000000000000E+000
  0.000000000000000E+000
  0.000000000000000E+000
  0.000000000000000E+000
  0.000000000000000E+000
  0.000000000000000E+000
  0.000000000000000E+000
  0.000000000000000E+000
  0.000000000000000E+000
  0.000000000000000E+000
  0.000000000000000E+000
  0.000000000000000E+000
  0.000000000000000E+000
  0.000000000000000E+000
  0.000000000000000E+000
  0.000000000000000E+000
  0.000000000000000E+000
  0.000000000000000E+000
  0.000000000000000E+000
  0.000000000000000E+000
  0.000000000000000E+000
  0.000000000000000E+000
  0.000000000000000E+000
  0.000000000000000E+000
  0.000000000000000E+000
  0.000000000000000E+000
  0.000000000000000E+000
  0.000000000000000E+000
  0.000000000000000E+000
  0.000000000000000E+000
  0.000000000000000E+000
  0.000000000000000E+000
  0.000000000000000E+000
  0.000000000000000E+000
  0.000000000000000E+000
  0.000000000000000E+000
  0.000000000000000E+000
  0.000000000000000E+000
  0.000000000000000E+000
  0.000000000000000E+000
  0.000000000000000E+000
  0.000000000000000E+000
  0.000000000000000E+000
  0.000000000000000E+000
  0.000000000000000E+000
  0.000000000000000E+000
  0.000000000000000E+000
  0.000000000000000E+000
  0.000000000000000E+000
  0.000000000000000E+000
  0.000000000000000E+000
  0.000000000000000E+000
  0.000000000000000E+000
  0.000000000000000E+000
  0.000000000000000E+000
  0.000000000000000E+000
  0.000000000000000E+000
  0.000000000000000E+000
  0.000000000000000E+000
  0.000000000000000E+000
  0.000000000000000E+000
  0.000000000000000E+000
  0.000000000000000E+000
  0.000000000000000E+000
  0.000000000000000E+000
  0.000000000000000E+000
  0.000000000000000E+000
  0.000000000000000E+000
  0.000000000000000E+000
  0.000000000000000E+000
  0.000000000000000E+000
  0.000000000000000E+000
  0.000000000000000E+000
  0.000000000000000E+000
  0.000000000000000E+000
  0.000000000000000E+000
  0.000000000000000E+000
  0.000000000000000E+000
  0.000000000000000E+000
  0.000000000000000E+000
  0.000000000000000E+000
  0.000000000000000E+000
  0.000000000000000E+000
  0.000000000000000E+000
  0.000000000000000E+000
  0.000000000000000E+000
  0.000000000000000E+000
  0.000000000000000E+000
  0.000000000000000E+000
  0.000000000000000E+000
  0.000000000000000E+000
  0.000000000000000E+000
  0.000000000000000E+000
  0.000000000000000E+000
  0.000000000000000E+000
  0.000000000000000E+000
  0.000000000000000E+000
  0.000000000000000E+000
  0.000000000000000E+000
  0.000000000000000E+000
  0.000000000000000E+000
  0.000000000000000E+000
  0.000000000000000E+000
  0.000000000000000E+000
  0.000000000000000E+000
  0.000000000000000E+000
  0.000000000000000E+000
  0.000000000000000E+000
  0.000000000000000E+000
  0.000000000000000E+000
  0.000000000000000E+000
  0.000000000000000E+000
  0.000000000000000E+000
  0.000000000000000E+000
  0.000000000000000E+000
  0.000000000000000E+000
  0.000000000000000E+000
  0.000000000000000E+000
  0.000000000000000E+000
  0.000000000000000E+000
  0.000000000000000E+000
  0.000000000000000E+000
  0.000000000000000E+000
  0.000000000000000E+000
  0.000000000000000E+000
  0.000000000000000E+000
  0.000000000000000E+000
  0.000000000000000E+000
  0.000000000000000E+000
  0.000000000000000E+000
  0.000000000000000E+000
  0.000000000000000E+000
  0.000000000000000E+000
  0.000000000000000E+000
  0.000000000000000E+000
  0.000000000000000E+000
  0.000000000000000E+000
  0.000000000000000E+000
  0.000000000000000E+000
  0.000000000000000E+000
  0.000000000000000E+000
  0.000000000000000E+000
  0.000000000000000E+000
  0.000000000000000E+000
  0.000000000000000E+000
  0.000000000000000E+000
  0.000000000000000E+000
  0.000000000000000E+000
  0.000000000000000E+000
  0.000000000000000E+000
  0.000000000000000E+000
  0.000000000000000E+000
  0.000000000000000E+000
  0.000000000000000E+000
  0.000000000000000E+000
  0.000000000000000E+000
  0.000000000000000E+000
  0.000000000000000E+000
  0.000000000000000E+000
  0.000000000000000E+000
  0.000000000000000E+000
  0.000000000000000E+000
  0.000000000000000E+000
  0.000000000000000E+000
  0.000000000000000E+000
  0.000000000000000E+000
  0.000000000000000E+000
  0.000000000000000E+000
  0.000000000000000E+000
  0.000000000000000E+000
  0.000000000000000E+000
  0.000000000000000E+000
  0.000000000000000E+000
  0.000000000000000E+000
  0.000000000000000E+000
  0.000000000000000E+000
  0.000000000000000E+000
  0.000000000000000E+000
  0.000000000000000E+000
  0.000000000000000E+000
  0.000000000000000E+000
  0.000000000000000E+000
  0.000000000000000E+000
  0.000000000000000E+000
  0.000000000000000E+000
  0.000000000000000E+000
  0.000000000000000E+000
  0.000000000000000E+000
  0.000000000000000E+000
  0.000000000000000E+000
  0.000000000000000E+000
  0.000000000000000E+000
  0.000000000000000E+000
  0.000000000000000E+000
  0.000000000000000E+000
  0.000000000000000E+000
  0.000000000000000E+000
  0.000000000000000E+000
  0.000000000000000E+000
  0.000000000000000E+000
  0.000000000000000E+000
  0.000000000000000E+000
  0.000000000000000E+000
  0.000000000000000E+000
  0.000000000000000E+000
  0.000000000000000E+000
  0.000000000000000E+000
  0.000000000000000E+000
  0.000000000000000E+000
  0.000000000000000E+000
  0.000000000000000E+000
  0.000000000000000E+000
  0.000000000000000E+000
  0.000000000000000E+000
  0.000000000000000E+000
  0.000000000000000E+000
  0.000000000000000E+000
  0.000000000000000E+000
  0.000000000000000E+000
  0.000000000000000E+000
  0.000000000000000E+000
  0.000000000000000E+000
  0.000000000000000E+000
  0.000000000000000E+000
  0.000000000000000E+000
  0.000000000000000E+000
  0.000000000000000E+000
  0.000000000000000E+000
  0.000000000000000E+000
  0.000000000000000E+000
  0.000000000000000E+000
  0.000000000000000E+000
  0.000000000000000E+000
  0.000000000000000E+000
  0.000000000000000E+000
  0.000000000000000E+000
  0.000000000000000E+000
  0.000000000000000E+000
  0.000000000000000E+000
  0.000000000000000E+000
  0.000000000000000E+000
  0.000000000000000E+000
  0.000000000000000E+000
  0.000000000000000E+000
  0.000000000000000E+000
  0.000000000000000E+000
  0.000000000000000E+000
  0.000000000000000E+000
  0.000000000000000E+000
  0.000000000000000E+000
  0.000000000000000E+000
  0.000000000000000E+000
  0.000000000000000E+000
  0.000000000000000E+000
  0.000000000000000E+000
  0.000000000000000E+000
  0.000000000000000E+000
  0.000000000000000E+000
  0.000000000000000E+000
  0.000000000000000E+000
  0.000000000000000E+000
  0.000000000000000E+000
  0.000000000000000E+000
  0.000000000000000E+000
  0.000000000000000E+000
  0.000000000000000E+000
  0.000000000000000E+000
  0.000000000000000E+000
  0.000000000000000E+000
  0.000000000000000E+000
  0.000000000000000E+000
  0.000000000000000E+000
  0.000000000000000E+000
  0.000000000000000E+000
  0.000000000000000E+000
  0.000000000000000E+000
  0.000000000000000E+000
  0.000000000000000E+000
  0.000000000000000E+000
  0.000000000000000E+000
  0.000000000000000E+000
  0.000000000000000E+000
  0.000000000000000E+000
  0.000000000000000E+000
  0.000000000000000E+000
  0.000000000000000E+000
  0.000000000000000E+000
  0.000000000000000E+000
  0.000000000000000E+000
  0.000000000000000E+000
  0.000000000000000E+000
  0.000000000000000E+000
  0.000000000000000E+000
  0.000000000000000E+000
  0.000000000000000E+000
  0.000000000000000E+000
  0.000000000000000E+000
  0.000000000000000E+000
  0.000000000000000E+000
  0.000000000000000E+000
  0.000000000000000E+000
  0.000000000000000E+000
  0.000000000000000E+000
  0.000000000000000E+000
  0.000000000000000E+000
  0.000000000000000E+000
  0.000000000000000E+000
  0.000000000000000E+000
  0.000000000000000E+000
  0.000000000000000E+000
  0.000000000000000E+000
  0.000000000000000E+000
  0.000000000000000E+000
  0.000000000000000E+000
  0.000000000000000E+000
  0.000000000000000E+000
  0.000000000000000E+000
  0.000000000000000E+000
  0.000000000000000E+000
  0.000000000000000E+000
  0.000000000000000E+000
  0.000000000000000E+000
  0.000000000000000E+000
  0.000000000000000E+000
  0.000000000000000E+000
  0.000000000000000E+000
  0.000000000000000E+000
  0.000000000000000E+000
  0.000000000000000E+000
  0.000000000000000E+000
  0.000000000000000E+000
  0.000000000000000E+000
  0.000000000000000E+000
  0.000000000000000E+000
  0.000000000000000E+000
  0.000000000000000E+000
  0.000000000000000E+000
  0.000000000000000E+000
  0.000000000000000E+000
  0.000000000000000E+000
  0.000000000000000E+000
  0.000000000000000E+000
  0.000000000000000E+000
  0.000000000000000E+000
  0.000000000000000E+000
  0.000000000000000E+000
  0.000000000000000E+000
  0.000000000000000E+000
  0.000000000000000E+000
  0.000000000000000E+000
  0.000000000000000E+000
  0.000000000000000E+000
  0.000000000000000E+000
  0.000000000000000E+000
  0.000000000000000E+000
  0.000000000000000E+000
  0.000000000000000E+000
  0.000000000000000E+000
  0.000000000000000E+000
  0.000000000000000E+000
  0.000000000000000E+000
  0.000000000000000E+000
  0.000000000000000E+000
  0.000000000000000E+000
  0.000000000000000E+000
  0.000000000000000E+000
  0.000000000000000E+000
  0.000000000000000E+000
  0.000000000000000E+000
  0.000000000000000E+000
  0.000000000000000E+000
  0.000000000000000E+000
  0.000000000000000E+000
  0.000000000000000E+000
  0.000000000000000E+000
  0.000000000000000E+000
