# vtk DataFile Version 3.0
vtk output
ASCII
DATASET UNSTRUCTURED_GRID
POINTS      1225 double 
  0.00000000E+00  2.40000000E+01  0.00000000E+00
  0.00000000E+00  2.30000000E+01  0.00000000E+00
  0.00000000E+00  2.20000000E+01  0.00000000E+00
  0.00000000E+00  2.10000000E+01  0.00000000E+00
  0.00000000E+00  2.00000000E+01  0.00000000E+00
  0.00000000E+00  1.90000000E+01  0.00000000E+00
  0.00000000E+00  1.80000000E+01  0.00000000E+00
  0.00000000E+00  1.70000000E+01  0.00000000E+00
  0.00000000E+00  1.60000000E+01  0.00000000E+00
  0.00000000E+00  1.50000000E+01  0.00000000E+00
  0.00000000E+00  1.40000000E+01  0.00000000E+00
  0.00000000E+00  1.30000000E+01  0.00000000E+00
  0.00000000E+00  1.20000000E+01  0.00000000E+00
  0.00000000E+00  1.10000000E+01  0.00000000E+00
  0.00000000E+00  1.00000000E+01  0.00000000E+00
  0.00000000E+00  9.00000000E+00  0.00000000E+00
  0.00000000E+00  8.00000000E+00  0.00000000E+00
  0.00000000E+00  7.00000000E+00  0.00000000E+00
  0.00000000E+00  6.00000000E+00  0.00000000E+00
  0.00000000E+00  5.00000000E+00  0.00000000E+00
  0.00000000E+00  4.00000000E+00  0.00000000E+00
  0.00000000E+00  3.00000000E+00  0.00000000E+00
  0.00000000E+00  2.00000000E+00  0.00000000E+00
  0.00000000E+00  1.00000000E+00  0.00000000E+00
  0.00000000E+00 -2.66453526E-15  0.00000000E+00
  1.00000000E+00  2.40000000E+01  0.00000000E+00
  1.00000000E+00  2.30000000E+01  0.00000000E+00
  1.00000000E+00  2.20000000E+01  0.00000000E+00
  1.00000000E+00  2.10000000E+01  0.00000000E+00
  1.00000000E+00  2.00000000E+01  0.00000000E+00
  1.00000000E+00  1.90000000E+01  0.00000000E+00
  1.00000000E+00  1.80000000E+01  0.00000000E+00
  1.00000000E+00  1.70000000E+01  0.00000000E+00
  1.00000000E+00  1.60000000E+01  0.00000000E+00
  1.00000000E+00  1.50000000E+01  0.00000000E+00
  1.00000000E+00  1.40000000E+01  0.00000000E+00
  1.00000000E+00  1.30000000E+01  0.00000000E+00
  1.00000000E+00  1.20000000E+01  0.00000000E+00
  1.00000000E+00  1.10000000E+01  0.00000000E+00
  1.00000000E+00  1.00000000E+01  0.00000000E+00
  1.00000000E+00  9.00000000E+00  0.00000000E+00
  1.00000000E+00  8.00000000E+00  0.00000000E+00
  1.00000000E+00  7.00000000E+00  0.00000000E+00
  1.00000000E+00  6.00000000E+00  0.00000000E+00
  1.00000000E+00  5.00000000E+00  0.00000000E+00
  1.00000000E+00  4.00000000E+00  0.00000000E+00
  1.00000000E+00  3.00000000E+00  0.00000000E+00
  1.00000000E+00  2.00000000E+00  0.00000000E+00
  1.00000000E+00  1.00000000E+00  0.00000000E+00
  1.00000000E+00 -2.66453526E-15  0.00000000E+00
  2.00000000E+00  2.40000000E+01  0.00000000E+00
  2.00000000E+00  2.30000000E+01  0.00000000E+00
  2.00000000E+00  2.20000000E+01  0.00000000E+00
  2.00000000E+00  2.10000000E+01  0.00000000E+00
  2.00000000E+00  2.00000000E+01  0.00000000E+00
  2.00000000E+00  1.90000000E+01  0.00000000E+00
  2.00000000E+00  1.80000000E+01  0.00000000E+00
  2.00000000E+00  1.70000000E+01  0.00000000E+00
  2.00000000E+00  1.60000000E+01  0.00000000E+00
  2.00000000E+00  1.50000000E+01  0.00000000E+00
  2.00000000E+00  1.40000000E+01  0.00000000E+00
  2.00000000E+00  1.30000000E+01  0.00000000E+00
  2.00000000E+00  1.20000000E+01  0.00000000E+00
  2.00000000E+00  1.10000000E+01  0.00000000E+00
  2.00000000E+00  1.00000000E+01  0.00000000E+00
  2.00000000E+00  9.00000000E+00  0.00000000E+00
  2.00000000E+00  8.00000000E+00  0.00000000E+00
  2.00000000E+00  7.00000000E+00  0.00000000E+00
  2.00000000E+00  6.00000000E+00  0.00000000E+00
  2.00000000E+00  5.00000000E+00  0.00000000E+00
  2.00000000E+00  4.00000000E+00  0.00000000E+00
  2.00000000E+00  3.00000000E+00  0.00000000E+00
  2.00000000E+00  2.00000000E+00  0.00000000E+00
  2.00000000E+00  1.00000000E+00  0.00000000E+00
  2.00000000E+00 -2.66453526E-15  0.00000000E+00
  3.00000000E+00  2.40000000E+01  0.00000000E+00
  3.00000000E+00  2.30000000E+01  0.00000000E+00
  3.00000000E+00  2.20000000E+01  0.00000000E+00
  3.00000000E+00  2.10000000E+01  0.00000000E+00
  3.00000000E+00  2.00000000E+01  0.00000000E+00
  3.00000000E+00  1.90000000E+01  0.00000000E+00
  3.00000000E+00  1.80000000E+01  0.00000000E+00
  3.00000000E+00  1.70000000E+01  0.00000000E+00
  3.00000000E+00  1.60000000E+01  0.00000000E+00
  3.00000000E+00  1.50000000E+01  0.00000000E+00
  3.00000000E+00  1.40000000E+01  0.00000000E+00
  3.00000000E+00  1.30000000E+01  0.00000000E+00
  3.00000000E+00  1.20000000E+01  0.00000000E+00
  3.00000000E+00  1.10000000E+01  0.00000000E+00
  3.00000000E+00  1.00000000E+01  0.00000000E+00
  3.00000000E+00  9.00000000E+00  0.00000000E+00
  3.00000000E+00  8.00000000E+00  0.00000000E+00
  3.00000000E+00  7.00000000E+00  0.00000000E+00
  3.00000000E+00  6.00000000E+00  0.00000000E+00
  3.00000000E+00  5.00000000E+00  0.00000000E+00
  3.00000000E+00  4.00000000E+00  0.00000000E+00
  3.00000000E+00  3.00000000E+00  0.00000000E+00
  3.00000000E+00  2.00000000E+00  0.00000000E+00
  3.00000000E+00  1.00000000E+00  0.00000000E+00
  3.00000000E+00 -2.66453526E-15  0.00000000E+00
  4.00000000E+00  2.40000000E+01  0.00000000E+00
  4.00000000E+00  2.30000000E+01  0.00000000E+00
  4.00000000E+00  2.20000000E+01  0.00000000E+00
  4.00000000E+00  2.10000000E+01  0.00000000E+00
  4.00000000E+00  2.00000000E+01  0.00000000E+00
  4.00000000E+00  1.90000000E+01  0.00000000E+00
  4.00000000E+00  1.80000000E+01  0.00000000E+00
  4.00000000E+00  1.70000000E+01  0.00000000E+00
  4.00000000E+00  1.60000000E+01  0.00000000E+00
  4.00000000E+00  1.50000000E+01  0.00000000E+00
  4.00000000E+00  1.40000000E+01  0.00000000E+00
  4.00000000E+00  1.30000000E+01  0.00000000E+00
  4.00000000E+00  1.20000000E+01  0.00000000E+00
  4.00000000E+00  1.10000000E+01  0.00000000E+00
  4.00000000E+00  1.00000000E+01  0.00000000E+00
  4.00000000E+00  9.00000000E+00  0.00000000E+00
  4.00000000E+00  8.00000000E+00  0.00000000E+00
  4.00000000E+00  7.00000000E+00  0.00000000E+00
  4.00000000E+00  6.00000000E+00  0.00000000E+00
  4.00000000E+00  5.00000000E+00  0.00000000E+00
  4.00000000E+00  4.00000000E+00  0.00000000E+00
  4.00000000E+00  3.00000000E+00  0.00000000E+00
  4.00000000E+00  2.00000000E+00  0.00000000E+00
  4.00000000E+00  1.00000000E+00  0.00000000E+00
  4.00000000E+00 -2.66453526E-15  0.00000000E+00
  5.00000000E+00  2.40000000E+01  0.00000000E+00
  5.00000000E+00  2.30000000E+01  0.00000000E+00
  5.00000000E+00  2.20000000E+01  0.00000000E+00
  5.00000000E+00  2.10000000E+01  0.00000000E+00
  5.00000000E+00  2.00000000E+01  0.00000000E+00
  5.00000000E+00  1.90000000E+01  0.00000000E+00
  5.00000000E+00  1.80000000E+01  0.00000000E+00
  5.00000000E+00  1.70000000E+01  0.00000000E+00
  5.00000000E+00  1.60000000E+01  0.00000000E+00
  5.00000000E+00  1.50000000E+01  0.00000000E+00
  5.00000000E+00  1.40000000E+01  0.00000000E+00
  5.00000000E+00  1.30000000E+01  0.00000000E+00
  5.00000000E+00  1.20000000E+01  0.00000000E+00
  5.00000000E+00  1.10000000E+01  0.00000000E+00
  5.00000000E+00  1.00000000E+01  0.00000000E+00
  5.00000000E+00  9.00000000E+00  0.00000000E+00
  5.00000000E+00  8.00000000E+00  0.00000000E+00
  5.00000000E+00  7.00000000E+00  0.00000000E+00
  5.00000000E+00  6.00000000E+00  0.00000000E+00
  5.00000000E+00  5.00000000E+00  0.00000000E+00
  5.00000000E+00  4.00000000E+00  0.00000000E+00
  5.00000000E+00  3.00000000E+00  0.00000000E+00
  5.00000000E+00  2.00000000E+00  0.00000000E+00
  5.00000000E+00  1.00000000E+00  0.00000000E+00
  5.00000000E+00 -2.66453526E-15  0.00000000E+00
  6.00000000E+00  2.40000000E+01  0.00000000E+00
  6.00000000E+00  2.30000000E+01  0.00000000E+00
  6.00000000E+00  2.20000000E+01  0.00000000E+00
  6.00000000E+00  2.10000000E+01  0.00000000E+00
  6.00000000E+00  2.00000000E+01  0.00000000E+00
  6.00000000E+00  1.90000000E+01  0.00000000E+00
  6.00000000E+00  1.80000000E+01  0.00000000E+00
  6.00000000E+00  1.70000000E+01  0.00000000E+00
  6.00000000E+00  1.60000000E+01  0.00000000E+00
  6.00000000E+00  1.50000000E+01  0.00000000E+00
  6.00000000E+00  1.40000000E+01  0.00000000E+00
  6.00000000E+00  1.30000000E+01  0.00000000E+00
  6.00000000E+00  1.20000000E+01  0.00000000E+00
  6.00000000E+00  1.10000000E+01  0.00000000E+00
  6.00000000E+00  1.00000000E+01  0.00000000E+00
  6.00000000E+00  9.00000000E+00  0.00000000E+00
  6.00000000E+00  8.00000000E+00  0.00000000E+00
  6.00000000E+00  7.00000000E+00  0.00000000E+00
  6.00000000E+00  6.00000000E+00  0.00000000E+00
  6.00000000E+00  5.00000000E+00  0.00000000E+00
  6.00000000E+00  4.00000000E+00  0.00000000E+00
  6.00000000E+00  3.00000000E+00  0.00000000E+00
  6.00000000E+00  2.00000000E+00  0.00000000E+00
  6.00000000E+00  1.00000000E+00  0.00000000E+00
  6.00000000E+00 -2.66453526E-15  0.00000000E+00
  7.00000000E+00  2.40000000E+01  0.00000000E+00
  7.00000000E+00  2.30000000E+01  0.00000000E+00
  7.00000000E+00  2.20000000E+01  0.00000000E+00
  7.00000000E+00  2.10000000E+01  0.00000000E+00
  7.00000000E+00  2.00000000E+01  0.00000000E+00
  7.00000000E+00  1.90000000E+01  0.00000000E+00
  7.00000000E+00  1.80000000E+01  0.00000000E+00
  7.00000000E+00  1.70000000E+01  0.00000000E+00
  7.00000000E+00  1.60000000E+01  0.00000000E+00
  7.00000000E+00  1.50000000E+01  0.00000000E+00
  7.00000000E+00  1.40000000E+01  0.00000000E+00
  7.00000000E+00  1.30000000E+01  0.00000000E+00
  7.00000000E+00  1.20000000E+01  0.00000000E+00
  7.00000000E+00  1.10000000E+01  0.00000000E+00
  7.00000000E+00  1.00000000E+01  0.00000000E+00
  7.00000000E+00  9.00000000E+00  0.00000000E+00
  7.00000000E+00  8.00000000E+00  0.00000000E+00
  7.00000000E+00  7.00000000E+00  0.00000000E+00
  7.00000000E+00  6.00000000E+00  0.00000000E+00
  7.00000000E+00  5.00000000E+00  0.00000000E+00
  7.00000000E+00  4.00000000E+00  0.00000000E+00
  7.00000000E+00  3.00000000E+00  0.00000000E+00
  7.00000000E+00  2.00000000E+00  0.00000000E+00
  7.00000000E+00  1.00000000E+00  0.00000000E+00
  7.00000000E+00 -2.66453526E-15  0.00000000E+00
  8.00000000E+00  2.40000000E+01  0.00000000E+00
  8.00000000E+00  2.30000000E+01  0.00000000E+00
  8.00000000E+00  2.20000000E+01  0.00000000E+00
  8.00000000E+00  2.10000000E+01  0.00000000E+00
  8.00000000E+00  2.00000000E+01  0.00000000E+00
  8.00000000E+00  1.90000000E+01  0.00000000E+00
  8.00000000E+00  1.80000000E+01  0.00000000E+00
  8.00000000E+00  1.70000000E+01  0.00000000E+00
  8.00000000E+00  1.60000000E+01  0.00000000E+00
  8.00000000E+00  1.50000000E+01  0.00000000E+00
  8.00000000E+00  1.40000000E+01  0.00000000E+00
  8.00000000E+00  1.30000000E+01  0.00000000E+00
  8.00000000E+00  1.20000000E+01  0.00000000E+00
  8.00000000E+00  1.10000000E+01  0.00000000E+00
  8.00000000E+00  1.00000000E+01  0.00000000E+00
  8.00000000E+00  9.00000000E+00  0.00000000E+00
  8.00000000E+00  8.00000000E+00  0.00000000E+00
  8.00000000E+00  7.00000000E+00  0.00000000E+00
  8.00000000E+00  6.00000000E+00  0.00000000E+00
  8.00000000E+00  5.00000000E+00  0.00000000E+00
  8.00000000E+00  4.00000000E+00  0.00000000E+00
  8.00000000E+00  3.00000000E+00  0.00000000E+00
  8.00000000E+00  2.00000000E+00  0.00000000E+00
  8.00000000E+00  1.00000000E+00  0.00000000E+00
  8.00000000E+00 -2.66453526E-15  0.00000000E+00
  9.00000000E+00  2.40000000E+01  0.00000000E+00
  9.00000000E+00  2.30000000E+01  0.00000000E+00
  9.00000000E+00  2.20000000E+01  0.00000000E+00
  9.00000000E+00  2.10000000E+01  0.00000000E+00
  9.00000000E+00  2.00000000E+01  0.00000000E+00
  9.00000000E+00  1.90000000E+01  0.00000000E+00
  9.00000000E+00  1.80000000E+01  0.00000000E+00
  9.00000000E+00  1.70000000E+01  0.00000000E+00
  9.00000000E+00  1.60000000E+01  0.00000000E+00
  9.00000000E+00  1.50000000E+01  0.00000000E+00
  9.00000000E+00  1.40000000E+01  0.00000000E+00
  9.00000000E+00  1.30000000E+01  0.00000000E+00
  9.00000000E+00  1.20000000E+01  0.00000000E+00
  9.00000000E+00  1.10000000E+01  0.00000000E+00
  9.00000000E+00  1.00000000E+01  0.00000000E+00
  9.00000000E+00  9.00000000E+00  0.00000000E+00
  9.00000000E+00  8.00000000E+00  0.00000000E+00
  9.00000000E+00  7.00000000E+00  0.00000000E+00
  9.00000000E+00  6.00000000E+00  0.00000000E+00
  9.00000000E+00  5.00000000E+00  0.00000000E+00
  9.00000000E+00  4.00000000E+00  0.00000000E+00
  9.00000000E+00  3.00000000E+00  0.00000000E+00
  9.00000000E+00  2.00000000E+00  0.00000000E+00
  9.00000000E+00  1.00000000E+00  0.00000000E+00
  9.00000000E+00 -2.66453526E-15  0.00000000E+00
  1.00000000E+01  2.40000000E+01  0.00000000E+00
  1.00000000E+01  2.30000000E+01  0.00000000E+00
  1.00000000E+01  2.20000000E+01  0.00000000E+00
  1.00000000E+01  2.10000000E+01  0.00000000E+00
  1.00000000E+01  2.00000000E+01  0.00000000E+00
  1.00000000E+01  1.90000000E+01  0.00000000E+00
  1.00000000E+01  1.80000000E+01  0.00000000E+00
  1.00000000E+01  1.70000000E+01  0.00000000E+00
  1.00000000E+01  1.60000000E+01  0.00000000E+00
  1.00000000E+01  1.50000000E+01  0.00000000E+00
  1.00000000E+01  1.40000000E+01  0.00000000E+00
  1.00000000E+01  1.30000000E+01  0.00000000E+00
  1.00000000E+01  1.20000000E+01  0.00000000E+00
  1.00000000E+01  1.10000000E+01  0.00000000E+00
  1.00000000E+01  1.00000000E+01  0.00000000E+00
  1.00000000E+01  9.00000000E+00  0.00000000E+00
  1.00000000E+01  8.00000000E+00  0.00000000E+00
  1.00000000E+01  7.00000000E+00  0.00000000E+00
  1.00000000E+01  6.00000000E+00  0.00000000E+00
  1.00000000E+01  5.00000000E+00  0.00000000E+00
  1.00000000E+01  4.00000000E+00  0.00000000E+00
  1.00000000E+01  3.00000000E+00  0.00000000E+00
  1.00000000E+01  2.00000000E+00  0.00000000E+00
  1.00000000E+01  1.00000000E+00  0.00000000E+00
  1.00000000E+01 -2.66453526E-15  0.00000000E+00
  1.10000000E+01  2.40000000E+01  0.00000000E+00
  1.10000000E+01  2.30000000E+01  0.00000000E+00
  1.10000000E+01  2.20000000E+01  0.00000000E+00
  1.10000000E+01  2.10000000E+01  0.00000000E+00
  1.10000000E+01  2.00000000E+01  0.00000000E+00
  1.10000000E+01  1.90000000E+01  0.00000000E+00
  1.10000000E+01  1.80000000E+01  0.00000000E+00
  1.10000000E+01  1.70000000E+01  0.00000000E+00
  1.10000000E+01  1.60000000E+01  0.00000000E+00
  1.10000000E+01  1.50000000E+01  0.00000000E+00
  1.10000000E+01  1.40000000E+01  0.00000000E+00
  1.10000000E+01  1.30000000E+01  0.00000000E+00
  1.10000000E+01  1.20000000E+01  0.00000000E+00
  1.10000000E+01  1.10000000E+01  0.00000000E+00
  1.10000000E+01  1.00000000E+01  0.00000000E+00
  1.10000000E+01  9.00000000E+00  0.00000000E+00
  1.10000000E+01  8.00000000E+00  0.00000000E+00
  1.10000000E+01  7.00000000E+00  0.00000000E+00
  1.10000000E+01  6.00000000E+00  0.00000000E+00
  1.10000000E+01  5.00000000E+00  0.00000000E+00
  1.10000000E+01  4.00000000E+00  0.00000000E+00
  1.10000000E+01  3.00000000E+00  0.00000000E+00
  1.10000000E+01  2.00000000E+00  0.00000000E+00
  1.10000000E+01  1.00000000E+00  0.00000000E+00
  1.10000000E+01 -2.66453526E-15  0.00000000E+00
  1.20000000E+01  2.40000000E+01  0.00000000E+00
  1.20000000E+01  2.30000000E+01  0.00000000E+00
  1.20000000E+01  2.20000000E+01  0.00000000E+00
  1.20000000E+01  2.10000000E+01  0.00000000E+00
  1.20000000E+01  2.00000000E+01  0.00000000E+00
  1.20000000E+01  1.90000000E+01  0.00000000E+00
  1.20000000E+01  1.80000000E+01  0.00000000E+00
  1.20000000E+01  1.70000000E+01  0.00000000E+00
  1.20000000E+01  1.60000000E+01  0.00000000E+00
  1.20000000E+01  1.50000000E+01  0.00000000E+00
  1.20000000E+01  1.40000000E+01  0.00000000E+00
  1.20000000E+01  1.30000000E+01  0.00000000E+00
  1.20000000E+01  1.20000000E+01  0.00000000E+00
  1.20000000E+01  1.10000000E+01  0.00000000E+00
  1.20000000E+01  1.00000000E+01  0.00000000E+00
  1.20000000E+01  9.00000000E+00  0.00000000E+00
  1.20000000E+01  8.00000000E+00  0.00000000E+00
  1.20000000E+01  7.00000000E+00  0.00000000E+00
  1.20000000E+01  6.00000000E+00  0.00000000E+00
  1.20000000E+01  5.00000000E+00  0.00000000E+00
  1.20000000E+01  4.00000000E+00  0.00000000E+00
  1.20000000E+01  3.00000000E+00  0.00000000E+00
  1.20000000E+01  2.00000000E+00  0.00000000E+00
  1.20000000E+01  1.00000000E+00  0.00000000E+00
  1.20000000E+01 -2.66453526E-15  0.00000000E+00
  1.30000000E+01  2.40000000E+01  0.00000000E+00
  1.30000000E+01  2.30000000E+01  0.00000000E+00
  1.30000000E+01  2.20000000E+01  0.00000000E+00
  1.30000000E+01  2.10000000E+01  0.00000000E+00
  1.30000000E+01  2.00000000E+01  0.00000000E+00
  1.30000000E+01  1.90000000E+01  0.00000000E+00
  1.30000000E+01  1.80000000E+01  0.00000000E+00
  1.30000000E+01  1.70000000E+01  0.00000000E+00
  1.30000000E+01  1.60000000E+01  0.00000000E+00
  1.30000000E+01  1.50000000E+01  0.00000000E+00
  1.30000000E+01  1.40000000E+01  0.00000000E+00
  1.30000000E+01  1.30000000E+01  0.00000000E+00
  1.30000000E+01  1.20000000E+01  0.00000000E+00
  1.30000000E+01  1.10000000E+01  0.00000000E+00
  1.30000000E+01  1.00000000E+01  0.00000000E+00
  1.30000000E+01  9.00000000E+00  0.00000000E+00
  1.30000000E+01  8.00000000E+00  0.00000000E+00
  1.30000000E+01  7.00000000E+00  0.00000000E+00
  1.30000000E+01  6.00000000E+00  0.00000000E+00
  1.30000000E+01  5.00000000E+00  0.00000000E+00
  1.30000000E+01  4.00000000E+00  0.00000000E+00
  1.30000000E+01  3.00000000E+00  0.00000000E+00
  1.30000000E+01  2.00000000E+00  0.00000000E+00
  1.30000000E+01  1.00000000E+00  0.00000000E+00
  1.30000000E+01 -2.66453526E-15  0.00000000E+00
  1.40000000E+01  2.40000000E+01  0.00000000E+00
  1.40000000E+01  2.30000000E+01  0.00000000E+00
  1.40000000E+01  2.20000000E+01  0.00000000E+00
  1.40000000E+01  2.10000000E+01  0.00000000E+00
  1.40000000E+01  2.00000000E+01  0.00000000E+00
  1.40000000E+01  1.90000000E+01  0.00000000E+00
  1.40000000E+01  1.80000000E+01  0.00000000E+00
  1.40000000E+01  1.70000000E+01  0.00000000E+00
  1.40000000E+01  1.60000000E+01  0.00000000E+00
  1.40000000E+01  1.50000000E+01  0.00000000E+00
  1.40000000E+01  1.40000000E+01  0.00000000E+00
  1.40000000E+01  1.30000000E+01  0.00000000E+00
  1.40000000E+01  1.20000000E+01  0.00000000E+00
  1.40000000E+01  1.10000000E+01  0.00000000E+00
  1.40000000E+01  1.00000000E+01  0.00000000E+00
  1.40000000E+01  9.00000000E+00  0.00000000E+00
  1.40000000E+01  8.00000000E+00  0.00000000E+00
  1.40000000E+01  7.00000000E+00  0.00000000E+00
  1.40000000E+01  6.00000000E+00  0.00000000E+00
  1.40000000E+01  5.00000000E+00  0.00000000E+00
  1.40000000E+01  4.00000000E+00  0.00000000E+00
  1.40000000E+01  3.00000000E+00  0.00000000E+00
  1.40000000E+01  2.00000000E+00  0.00000000E+00
  1.40000000E+01  1.00000000E+00  0.00000000E+00
  1.40000000E+01 -2.66453526E-15  0.00000000E+00
  1.50000000E+01  2.40000000E+01  0.00000000E+00
  1.50000000E+01  2.30000000E+01  0.00000000E+00
  1.50000000E+01  2.20000000E+01  0.00000000E+00
  1.50000000E+01  2.10000000E+01  0.00000000E+00
  1.50000000E+01  2.00000000E+01  0.00000000E+00
  1.50000000E+01  1.90000000E+01  0.00000000E+00
  1.50000000E+01  1.80000000E+01  0.00000000E+00
  1.50000000E+01  1.70000000E+01  0.00000000E+00
  1.50000000E+01  1.60000000E+01  0.00000000E+00
  1.50000000E+01  1.50000000E+01  0.00000000E+00
  1.50000000E+01  1.40000000E+01  0.00000000E+00
  1.50000000E+01  1.30000000E+01  0.00000000E+00
  1.50000000E+01  1.20000000E+01  0.00000000E+00
  1.50000000E+01  1.10000000E+01  0.00000000E+00
  1.50000000E+01  1.00000000E+01  0.00000000E+00
  1.50000000E+01  9.00000000E+00  0.00000000E+00
  1.50000000E+01  8.00000000E+00  0.00000000E+00
  1.50000000E+01  7.00000000E+00  0.00000000E+00
  1.50000000E+01  6.00000000E+00  0.00000000E+00
  1.50000000E+01  5.00000000E+00  0.00000000E+00
  1.50000000E+01  4.00000000E+00  0.00000000E+00
  1.50000000E+01  3.00000000E+00  0.00000000E+00
  1.50000000E+01  2.00000000E+00  0.00000000E+00
  1.50000000E+01  1.00000000E+00  0.00000000E+00
  1.50000000E+01 -2.66453526E-15  0.00000000E+00
  1.60000000E+01  2.40000000E+01  0.00000000E+00
  1.60000000E+01  2.30000000E+01  0.00000000E+00
  1.60000000E+01  2.20000000E+01  0.00000000E+00
  1.60000000E+01  2.10000000E+01  0.00000000E+00
  1.60000000E+01  2.00000000E+01  0.00000000E+00
  1.60000000E+01  1.90000000E+01  0.00000000E+00
  1.60000000E+01  1.80000000E+01  0.00000000E+00
  1.60000000E+01  1.70000000E+01  0.00000000E+00
  1.60000000E+01  1.60000000E+01  0.00000000E+00
  1.60000000E+01  1.50000000E+01  0.00000000E+00
  1.60000000E+01  1.40000000E+01  0.00000000E+00
  1.60000000E+01  1.30000000E+01  0.00000000E+00
  1.60000000E+01  1.20000000E+01  0.00000000E+00
  1.60000000E+01  1.10000000E+01  0.00000000E+00
  1.60000000E+01  1.00000000E+01  0.00000000E+00
  1.60000000E+01  9.00000000E+00  0.00000000E+00
  1.60000000E+01  8.00000000E+00  0.00000000E+00
  1.60000000E+01  7.00000000E+00  0.00000000E+00
  1.60000000E+01  6.00000000E+00  0.00000000E+00
  1.60000000E+01  5.00000000E+00  0.00000000E+00
  1.60000000E+01  4.00000000E+00  0.00000000E+00
  1.60000000E+01  3.00000000E+00  0.00000000E+00
  1.60000000E+01  2.00000000E+00  0.00000000E+00
  1.60000000E+01  1.00000000E+00  0.00000000E+00
  1.60000000E+01 -2.66453526E-15  0.00000000E+00
  1.70000000E+01  2.40000000E+01  0.00000000E+00
  1.70000000E+01  2.30000000E+01  0.00000000E+00
  1.70000000E+01  2.20000000E+01  0.00000000E+00
  1.70000000E+01  2.10000000E+01  0.00000000E+00
  1.70000000E+01  2.00000000E+01  0.00000000E+00
  1.70000000E+01  1.90000000E+01  0.00000000E+00
  1.70000000E+01  1.80000000E+01  0.00000000E+00
  1.70000000E+01  1.70000000E+01  0.00000000E+00
  1.70000000E+01  1.60000000E+01  0.00000000E+00
  1.70000000E+01  1.50000000E+01  0.00000000E+00
  1.70000000E+01  1.40000000E+01  0.00000000E+00
  1.70000000E+01  1.30000000E+01  0.00000000E+00
  1.70000000E+01  1.20000000E+01  0.00000000E+00
  1.70000000E+01  1.10000000E+01  0.00000000E+00
  1.70000000E+01  1.00000000E+01  0.00000000E+00
  1.70000000E+01  9.00000000E+00  0.00000000E+00
  1.70000000E+01  8.00000000E+00  0.00000000E+00
  1.70000000E+01  7.00000000E+00  0.00000000E+00
  1.70000000E+01  6.00000000E+00  0.00000000E+00
  1.70000000E+01  5.00000000E+00  0.00000000E+00
  1.70000000E+01  4.00000000E+00  0.00000000E+00
  1.70000000E+01  3.00000000E+00  0.00000000E+00
  1.70000000E+01  2.00000000E+00  0.00000000E+00
  1.70000000E+01  1.00000000E+00  0.00000000E+00
  1.70000000E+01 -2.66453526E-15  0.00000000E+00
  1.80000000E+01  2.40000000E+01  0.00000000E+00
  1.80000000E+01  2.30000000E+01  0.00000000E+00
  1.80000000E+01  2.20000000E+01  0.00000000E+00
  1.80000000E+01  2.10000000E+01  0.00000000E+00
  1.80000000E+01  2.00000000E+01  0.00000000E+00
  1.80000000E+01  1.90000000E+01  0.00000000E+00
  1.80000000E+01  1.80000000E+01  0.00000000E+00
  1.80000000E+01  1.70000000E+01  0.00000000E+00
  1.80000000E+01  1.60000000E+01  0.00000000E+00
  1.80000000E+01  1.50000000E+01  0.00000000E+00
  1.80000000E+01  1.40000000E+01  0.00000000E+00
  1.80000000E+01  1.30000000E+01  0.00000000E+00
  1.80000000E+01  1.20000000E+01  0.00000000E+00
  1.80000000E+01  1.10000000E+01  0.00000000E+00
  1.80000000E+01  1.00000000E+01  0.00000000E+00
  1.80000000E+01  9.00000000E+00  0.00000000E+00
  1.80000000E+01  8.00000000E+00  0.00000000E+00
  1.80000000E+01  7.00000000E+00  0.00000000E+00
  1.80000000E+01  6.00000000E+00  0.00000000E+00
  1.80000000E+01  5.00000000E+00  0.00000000E+00
  1.80000000E+01  4.00000000E+00  0.00000000E+00
  1.80000000E+01  3.00000000E+00  0.00000000E+00
  1.80000000E+01  2.00000000E+00  0.00000000E+00
  1.80000000E+01  1.00000000E+00  0.00000000E+00
  1.80000000E+01 -2.66453526E-15  0.00000000E+00
  1.90000000E+01  2.40000000E+01  0.00000000E+00
  1.90000000E+01  2.30000000E+01  0.00000000E+00
  1.90000000E+01  2.20000000E+01  0.00000000E+00
  1.90000000E+01  2.10000000E+01  0.00000000E+00
  1.90000000E+01  2.00000000E+01  0.00000000E+00
  1.90000000E+01  1.90000000E+01  0.00000000E+00
  1.90000000E+01  1.80000000E+01  0.00000000E+00
  1.90000000E+01  1.70000000E+01  0.00000000E+00
  1.90000000E+01  1.60000000E+01  0.00000000E+00
  1.90000000E+01  1.50000000E+01  0.00000000E+00
  1.90000000E+01  1.40000000E+01  0.00000000E+00
  1.90000000E+01  1.30000000E+01  0.00000000E+00
  1.90000000E+01  1.20000000E+01  0.00000000E+00
  1.90000000E+01  1.10000000E+01  0.00000000E+00
  1.90000000E+01  1.00000000E+01  0.00000000E+00
  1.90000000E+01  9.00000000E+00  0.00000000E+00
  1.90000000E+01  8.00000000E+00  0.00000000E+00
  1.90000000E+01  7.00000000E+00  0.00000000E+00
  1.90000000E+01  6.00000000E+00  0.00000000E+00
  1.90000000E+01  5.00000000E+00  0.00000000E+00
  1.90000000E+01  4.00000000E+00  0.00000000E+00
  1.90000000E+01  3.00000000E+00  0.00000000E+00
  1.90000000E+01  2.00000000E+00  0.00000000E+00
  1.90000000E+01  1.00000000E+00  0.00000000E+00
  1.90000000E+01 -2.66453526E-15  0.00000000E+00
  2.00000000E+01  2.40000000E+01  0.00000000E+00
  2.00000000E+01  2.30000000E+01  0.00000000E+00
  2.00000000E+01  2.20000000E+01  0.00000000E+00
  2.00000000E+01  2.10000000E+01  0.00000000E+00
  2.00000000E+01  2.00000000E+01  0.00000000E+00
  2.00000000E+01  1.90000000E+01  0.00000000E+00
  2.00000000E+01  1.80000000E+01  0.00000000E+00
  2.00000000E+01  1.70000000E+01  0.00000000E+00
  2.00000000E+01  1.60000000E+01  0.00000000E+00
  2.00000000E+01  1.50000000E+01  0.00000000E+00
  2.00000000E+01  1.40000000E+01  0.00000000E+00
  2.00000000E+01  1.30000000E+01  0.00000000E+00
  2.00000000E+01  1.20000000E+01  0.00000000E+00
  2.00000000E+01  1.10000000E+01  0.00000000E+00
  2.00000000E+01  1.00000000E+01  0.00000000E+00
  2.00000000E+01  9.00000000E+00  0.00000000E+00
  2.00000000E+01  8.00000000E+00  0.00000000E+00
  2.00000000E+01  7.00000000E+00  0.00000000E+00
  2.00000000E+01  6.00000000E+00  0.00000000E+00
  2.00000000E+01  5.00000000E+00  0.00000000E+00
  2.00000000E+01  4.00000000E+00  0.00000000E+00
  2.00000000E+01  3.00000000E+00  0.00000000E+00
  2.00000000E+01  2.00000000E+00  0.00000000E+00
  2.00000000E+01  1.00000000E+00  0.00000000E+00
  2.00000000E+01 -2.66453526E-15  0.00000000E+00
  2.10000000E+01  2.40000000E+01  0.00000000E+00
  2.10000000E+01  2.30000000E+01  0.00000000E+00
  2.10000000E+01  2.20000000E+01  0.00000000E+00
  2.10000000E+01  2.10000000E+01  0.00000000E+00
  2.10000000E+01  2.00000000E+01  0.00000000E+00
  2.10000000E+01  1.90000000E+01  0.00000000E+00
  2.10000000E+01  1.80000000E+01  0.00000000E+00
  2.10000000E+01  1.70000000E+01  0.00000000E+00
  2.10000000E+01  1.60000000E+01  0.00000000E+00
  2.10000000E+01  1.50000000E+01  0.00000000E+00
  2.10000000E+01  1.40000000E+01  0.00000000E+00
  2.10000000E+01  1.30000000E+01  0.00000000E+00
  2.10000000E+01  1.20000000E+01  0.00000000E+00
  2.10000000E+01  1.10000000E+01  0.00000000E+00
  2.10000000E+01  1.00000000E+01  0.00000000E+00
  2.10000000E+01  9.00000000E+00  0.00000000E+00
  2.10000000E+01  8.00000000E+00  0.00000000E+00
  2.10000000E+01  7.00000000E+00  0.00000000E+00
  2.10000000E+01  6.00000000E+00  0.00000000E+00
  2.10000000E+01  5.00000000E+00  0.00000000E+00
  2.10000000E+01  4.00000000E+00  0.00000000E+00
  2.10000000E+01  3.00000000E+00  0.00000000E+00
  2.10000000E+01  2.00000000E+00  0.00000000E+00
  2.10000000E+01  1.00000000E+00  0.00000000E+00
  2.10000000E+01 -2.66453526E-15  0.00000000E+00
  2.20000000E+01  2.40000000E+01  0.00000000E+00
  2.20000000E+01  2.30000000E+01  0.00000000E+00
  2.20000000E+01  2.20000000E+01  0.00000000E+00
  2.20000000E+01  2.10000000E+01  0.00000000E+00
  2.20000000E+01  2.00000000E+01  0.00000000E+00
  2.20000000E+01  1.90000000E+01  0.00000000E+00
  2.20000000E+01  1.80000000E+01  0.00000000E+00
  2.20000000E+01  1.70000000E+01  0.00000000E+00
  2.20000000E+01  1.60000000E+01  0.00000000E+00
  2.20000000E+01  1.50000000E+01  0.00000000E+00
  2.20000000E+01  1.40000000E+01  0.00000000E+00
  2.20000000E+01  1.30000000E+01  0.00000000E+00
  2.20000000E+01  1.20000000E+01  0.00000000E+00
  2.20000000E+01  1.10000000E+01  0.00000000E+00
  2.20000000E+01  1.00000000E+01  0.00000000E+00
  2.20000000E+01  9.00000000E+00  0.00000000E+00
  2.20000000E+01  8.00000000E+00  0.00000000E+00
  2.20000000E+01  7.00000000E+00  0.00000000E+00
  2.20000000E+01  6.00000000E+00  0.00000000E+00
  2.20000000E+01  5.00000000E+00  0.00000000E+00
  2.20000000E+01  4.00000000E+00  0.00000000E+00
  2.20000000E+01  3.00000000E+00  0.00000000E+00
  2.20000000E+01  2.00000000E+00  0.00000000E+00
  2.20000000E+01  1.00000000E+00  0.00000000E+00
  2.20000000E+01 -2.66453526E-15  0.00000000E+00
  2.30000000E+01  2.40000000E+01  0.00000000E+00
  2.30000000E+01  2.30000000E+01  0.00000000E+00
  2.30000000E+01  2.20000000E+01  0.00000000E+00
  2.30000000E+01  2.10000000E+01  0.00000000E+00
  2.30000000E+01  2.00000000E+01  0.00000000E+00
  2.30000000E+01  1.90000000E+01  0.00000000E+00
  2.30000000E+01  1.80000000E+01  0.00000000E+00
  2.30000000E+01  1.70000000E+01  0.00000000E+00
  2.30000000E+01  1.60000000E+01  0.00000000E+00
  2.30000000E+01  1.50000000E+01  0.00000000E+00
  2.30000000E+01  1.40000000E+01  0.00000000E+00
  2.30000000E+01  1.30000000E+01  0.00000000E+00
  2.30000000E+01  1.20000000E+01  0.00000000E+00
  2.30000000E+01  1.10000000E+01  0.00000000E+00
  2.30000000E+01  1.00000000E+01  0.00000000E+00
  2.30000000E+01  9.00000000E+00  0.00000000E+00
  2.30000000E+01  8.00000000E+00  0.00000000E+00
  2.30000000E+01  7.00000000E+00  0.00000000E+00
  2.30000000E+01  6.00000000E+00  0.00000000E+00
  2.30000000E+01  5.00000000E+00  0.00000000E+00
  2.30000000E+01  4.00000000E+00  0.00000000E+00
  2.30000000E+01  3.00000000E+00  0.00000000E+00
  2.30000000E+01  2.00000000E+00  0.00000000E+00
  2.30000000E+01  1.00000000E+00  0.00000000E+00
  2.30000000E+01 -2.66453526E-15  0.00000000E+00
  2.40000000E+01  2.40000000E+01  0.00000000E+00
  2.40000000E+01  2.30000000E+01  0.00000000E+00
  2.40000000E+01  2.20000000E+01  0.00000000E+00
  2.40000000E+01  2.10000000E+01  0.00000000E+00
  2.40000000E+01  2.00000000E+01  0.00000000E+00
  2.40000000E+01  1.90000000E+01  0.00000000E+00
  2.40000000E+01  1.80000000E+01  0.00000000E+00
  2.40000000E+01  1.70000000E+01  0.00000000E+00
  2.40000000E+01  1.60000000E+01  0.00000000E+00
  2.40000000E+01  1.50000000E+01  0.00000000E+00
  2.40000000E+01  1.40000000E+01  0.00000000E+00
  2.40000000E+01  1.30000000E+01  0.00000000E+00
  2.40000000E+01  1.20000000E+01  0.00000000E+00
  2.40000000E+01  1.10000000E+01  0.00000000E+00
  2.40000000E+01  1.00000000E+01  0.00000000E+00
  2.40000000E+01  9.00000000E+00  0.00000000E+00
  2.40000000E+01  8.00000000E+00  0.00000000E+00
  2.40000000E+01  7.00000000E+00  0.00000000E+00
  2.40000000E+01  6.00000000E+00  0.00000000E+00
  2.40000000E+01  5.00000000E+00  0.00000000E+00
  2.40000000E+01  4.00000000E+00  0.00000000E+00
  2.40000000E+01  3.00000000E+00  0.00000000E+00
  2.40000000E+01  2.00000000E+00  0.00000000E+00
  2.40000000E+01  1.00000000E+00  0.00000000E+00
  2.40000000E+01 -2.66453526E-15  0.00000000E+00
  2.50000000E+01  2.40000000E+01  0.00000000E+00
  2.50000000E+01  2.30000000E+01  0.00000000E+00
  2.50000000E+01  2.20000000E+01  0.00000000E+00
  2.50000000E+01  2.10000000E+01  0.00000000E+00
  2.50000000E+01  2.00000000E+01  0.00000000E+00
  2.50000000E+01  1.90000000E+01  0.00000000E+00
  2.50000000E+01  1.80000000E+01  0.00000000E+00
  2.50000000E+01  1.70000000E+01  0.00000000E+00
  2.50000000E+01  1.60000000E+01  0.00000000E+00
  2.50000000E+01  1.50000000E+01  0.00000000E+00
  2.50000000E+01  1.40000000E+01  0.00000000E+00
  2.50000000E+01  1.30000000E+01  0.00000000E+00
  2.50000000E+01  1.20000000E+01  0.00000000E+00
  2.50000000E+01  1.10000000E+01  0.00000000E+00
  2.50000000E+01  1.00000000E+01  0.00000000E+00
  2.50000000E+01  9.00000000E+00  0.00000000E+00
  2.50000000E+01  8.00000000E+00  0.00000000E+00
  2.50000000E+01  7.00000000E+00  0.00000000E+00
  2.50000000E+01  6.00000000E+00  0.00000000E+00
  2.50000000E+01  5.00000000E+00  0.00000000E+00
  2.50000000E+01  4.00000000E+00  0.00000000E+00
  2.50000000E+01  3.00000000E+00  0.00000000E+00
  2.50000000E+01  2.00000000E+00  0.00000000E+00
  2.50000000E+01  1.00000000E+00  0.00000000E+00
  2.50000000E+01 -2.66453526E-15  0.00000000E+00
  2.60000000E+01  2.40000000E+01  0.00000000E+00
  2.60000000E+01  2.30000000E+01  0.00000000E+00
  2.60000000E+01  2.20000000E+01  0.00000000E+00
  2.60000000E+01  2.10000000E+01  0.00000000E+00
  2.60000000E+01  2.00000000E+01  0.00000000E+00
  2.60000000E+01  1.90000000E+01  0.00000000E+00
  2.60000000E+01  1.80000000E+01  0.00000000E+00
  2.60000000E+01  1.70000000E+01  0.00000000E+00
  2.60000000E+01  1.60000000E+01  0.00000000E+00
  2.60000000E+01  1.50000000E+01  0.00000000E+00
  2.60000000E+01  1.40000000E+01  0.00000000E+00
  2.60000000E+01  1.30000000E+01  0.00000000E+00
  2.60000000E+01  1.20000000E+01  0.00000000E+00
  2.60000000E+01  1.10000000E+01  0.00000000E+00
  2.60000000E+01  1.00000000E+01  0.00000000E+00
  2.60000000E+01  9.00000000E+00  0.00000000E+00
  2.60000000E+01  8.00000000E+00  0.00000000E+00
  2.60000000E+01  7.00000000E+00  0.00000000E+00
  2.60000000E+01  6.00000000E+00  0.00000000E+00
  2.60000000E+01  5.00000000E+00  0.00000000E+00
  2.60000000E+01  4.00000000E+00  0.00000000E+00
  2.60000000E+01  3.00000000E+00  0.00000000E+00
  2.60000000E+01  2.00000000E+00  0.00000000E+00
  2.60000000E+01  1.00000000E+00  0.00000000E+00
  2.60000000E+01 -2.66453526E-15  0.00000000E+00
  2.70000000E+01  2.40000000E+01  0.00000000E+00
  2.70000000E+01  2.30000000E+01  0.00000000E+00
  2.70000000E+01  2.20000000E+01  0.00000000E+00
  2.70000000E+01  2.10000000E+01  0.00000000E+00
  2.70000000E+01  2.00000000E+01  0.00000000E+00
  2.70000000E+01  1.90000000E+01  0.00000000E+00
  2.70000000E+01  1.80000000E+01  0.00000000E+00
  2.70000000E+01  1.70000000E+01  0.00000000E+00
  2.70000000E+01  1.60000000E+01  0.00000000E+00
  2.70000000E+01  1.50000000E+01  0.00000000E+00
  2.70000000E+01  1.40000000E+01  0.00000000E+00
  2.70000000E+01  1.30000000E+01  0.00000000E+00
  2.70000000E+01  1.20000000E+01  0.00000000E+00
  2.70000000E+01  1.10000000E+01  0.00000000E+00
  2.70000000E+01  1.00000000E+01  0.00000000E+00
  2.70000000E+01  9.00000000E+00  0.00000000E+00
  2.70000000E+01  8.00000000E+00  0.00000000E+00
  2.70000000E+01  7.00000000E+00  0.00000000E+00
  2.70000000E+01  6.00000000E+00  0.00000000E+00
  2.70000000E+01  5.00000000E+00  0.00000000E+00
  2.70000000E+01  4.00000000E+00  0.00000000E+00
  2.70000000E+01  3.00000000E+00  0.00000000E+00
  2.70000000E+01  2.00000000E+00  0.00000000E+00
  2.70000000E+01  1.00000000E+00  0.00000000E+00
  2.70000000E+01 -2.66453526E-15  0.00000000E+00
  2.80000000E+01  2.40000000E+01  0.00000000E+00
  2.80000000E+01  2.30000000E+01  0.00000000E+00
  2.80000000E+01  2.20000000E+01  0.00000000E+00
  2.80000000E+01  2.10000000E+01  0.00000000E+00
  2.80000000E+01  2.00000000E+01  0.00000000E+00
  2.80000000E+01  1.90000000E+01  0.00000000E+00
  2.80000000E+01  1.80000000E+01  0.00000000E+00
  2.80000000E+01  1.70000000E+01  0.00000000E+00
  2.80000000E+01  1.60000000E+01  0.00000000E+00
  2.80000000E+01  1.50000000E+01  0.00000000E+00
  2.80000000E+01  1.40000000E+01  0.00000000E+00
  2.80000000E+01  1.30000000E+01  0.00000000E+00
  2.80000000E+01  1.20000000E+01  0.00000000E+00
  2.80000000E+01  1.10000000E+01  0.00000000E+00
  2.80000000E+01  1.00000000E+01  0.00000000E+00
  2.80000000E+01  9.00000000E+00  0.00000000E+00
  2.80000000E+01  8.00000000E+00  0.00000000E+00
  2.80000000E+01  7.00000000E+00  0.00000000E+00
  2.80000000E+01  6.00000000E+00  0.00000000E+00
  2.80000000E+01  5.00000000E+00  0.00000000E+00
  2.80000000E+01  4.00000000E+00  0.00000000E+00
  2.80000000E+01  3.00000000E+00  0.00000000E+00
  2.80000000E+01  2.00000000E+00  0.00000000E+00
  2.80000000E+01  1.00000000E+00  0.00000000E+00
  2.80000000E+01 -2.66453526E-15  0.00000000E+00
  2.90000000E+01  2.40000000E+01  0.00000000E+00
  2.90000000E+01  2.30000000E+01  0.00000000E+00
  2.90000000E+01  2.20000000E+01  0.00000000E+00
  2.90000000E+01  2.10000000E+01  0.00000000E+00
  2.90000000E+01  2.00000000E+01  0.00000000E+00
  2.90000000E+01  1.90000000E+01  0.00000000E+00
  2.90000000E+01  1.80000000E+01  0.00000000E+00
  2.90000000E+01  1.70000000E+01  0.00000000E+00
  2.90000000E+01  1.60000000E+01  0.00000000E+00
  2.90000000E+01  1.50000000E+01  0.00000000E+00
  2.90000000E+01  1.40000000E+01  0.00000000E+00
  2.90000000E+01  1.30000000E+01  0.00000000E+00
  2.90000000E+01  1.20000000E+01  0.00000000E+00
  2.90000000E+01  1.10000000E+01  0.00000000E+00
  2.90000000E+01  1.00000000E+01  0.00000000E+00
  2.90000000E+01  9.00000000E+00  0.00000000E+00
  2.90000000E+01  8.00000000E+00  0.00000000E+00
  2.90000000E+01  7.00000000E+00  0.00000000E+00
  2.90000000E+01  6.00000000E+00  0.00000000E+00
  2.90000000E+01  5.00000000E+00  0.00000000E+00
  2.90000000E+01  4.00000000E+00  0.00000000E+00
  2.90000000E+01  3.00000000E+00  0.00000000E+00
  2.90000000E+01  2.00000000E+00  0.00000000E+00
  2.90000000E+01  1.00000000E+00  0.00000000E+00
  2.90000000E+01 -2.66453526E-15  0.00000000E+00
  3.00000000E+01  2.40000000E+01  0.00000000E+00
  3.00000000E+01  2.30000000E+01  0.00000000E+00
  3.00000000E+01  2.20000000E+01  0.00000000E+00
  3.00000000E+01  2.10000000E+01  0.00000000E+00
  3.00000000E+01  2.00000000E+01  0.00000000E+00
  3.00000000E+01  1.90000000E+01  0.00000000E+00
  3.00000000E+01  1.80000000E+01  0.00000000E+00
  3.00000000E+01  1.70000000E+01  0.00000000E+00
  3.00000000E+01  1.60000000E+01  0.00000000E+00
  3.00000000E+01  1.50000000E+01  0.00000000E+00
  3.00000000E+01  1.40000000E+01  0.00000000E+00
  3.00000000E+01  1.30000000E+01  0.00000000E+00
  3.00000000E+01  1.20000000E+01  0.00000000E+00
  3.00000000E+01  1.10000000E+01  0.00000000E+00
  3.00000000E+01  1.00000000E+01  0.00000000E+00
  3.00000000E+01  9.00000000E+00  0.00000000E+00
  3.00000000E+01  8.00000000E+00  0.00000000E+00
  3.00000000E+01  7.00000000E+00  0.00000000E+00
  3.00000000E+01  6.00000000E+00  0.00000000E+00
  3.00000000E+01  5.00000000E+00  0.00000000E+00
  3.00000000E+01  4.00000000E+00  0.00000000E+00
  3.00000000E+01  3.00000000E+00  0.00000000E+00
  3.00000000E+01  2.00000000E+00  0.00000000E+00
  3.00000000E+01  1.00000000E+00  0.00000000E+00
  3.00000000E+01 -2.66453526E-15  0.00000000E+00
  3.10000000E+01  2.40000000E+01  0.00000000E+00
  3.10000000E+01  2.30000000E+01  0.00000000E+00
  3.10000000E+01  2.20000000E+01  0.00000000E+00
  3.10000000E+01  2.10000000E+01  0.00000000E+00
  3.10000000E+01  2.00000000E+01  0.00000000E+00
  3.10000000E+01  1.90000000E+01  0.00000000E+00
  3.10000000E+01  1.80000000E+01  0.00000000E+00
  3.10000000E+01  1.70000000E+01  0.00000000E+00
  3.10000000E+01  1.60000000E+01  0.00000000E+00
  3.10000000E+01  1.50000000E+01  0.00000000E+00
  3.10000000E+01  1.40000000E+01  0.00000000E+00
  3.10000000E+01  1.30000000E+01  0.00000000E+00
  3.10000000E+01  1.20000000E+01  0.00000000E+00
  3.10000000E+01  1.10000000E+01  0.00000000E+00
  3.10000000E+01  1.00000000E+01  0.00000000E+00
  3.10000000E+01  9.00000000E+00  0.00000000E+00
  3.10000000E+01  8.00000000E+00  0.00000000E+00
  3.10000000E+01  7.00000000E+00  0.00000000E+00
  3.10000000E+01  6.00000000E+00  0.00000000E+00
  3.10000000E+01  5.00000000E+00  0.00000000E+00
  3.10000000E+01  4.00000000E+00  0.00000000E+00
  3.10000000E+01  3.00000000E+00  0.00000000E+00
  3.10000000E+01  2.00000000E+00  0.00000000E+00
  3.10000000E+01  1.00000000E+00  0.00000000E+00
  3.10000000E+01 -2.66453526E-15  0.00000000E+00
  3.20000000E+01  2.40000000E+01  0.00000000E+00
  3.20000000E+01  2.30000000E+01  0.00000000E+00
  3.20000000E+01  2.20000000E+01  0.00000000E+00
  3.20000000E+01  2.10000000E+01  0.00000000E+00
  3.20000000E+01  2.00000000E+01  0.00000000E+00
  3.20000000E+01  1.90000000E+01  0.00000000E+00
  3.20000000E+01  1.80000000E+01  0.00000000E+00
  3.20000000E+01  1.70000000E+01  0.00000000E+00
  3.20000000E+01  1.60000000E+01  0.00000000E+00
  3.20000000E+01  1.50000000E+01  0.00000000E+00
  3.20000000E+01  1.40000000E+01  0.00000000E+00
  3.20000000E+01  1.30000000E+01  0.00000000E+00
  3.20000000E+01  1.20000000E+01  0.00000000E+00
  3.20000000E+01  1.10000000E+01  0.00000000E+00
  3.20000000E+01  1.00000000E+01  0.00000000E+00
  3.20000000E+01  9.00000000E+00  0.00000000E+00
  3.20000000E+01  8.00000000E+00  0.00000000E+00
  3.20000000E+01  7.00000000E+00  0.00000000E+00
  3.20000000E+01  6.00000000E+00  0.00000000E+00
  3.20000000E+01  5.00000000E+00  0.00000000E+00
  3.20000000E+01  4.00000000E+00  0.00000000E+00
  3.20000000E+01  3.00000000E+00  0.00000000E+00
  3.20000000E+01  2.00000000E+00  0.00000000E+00
  3.20000000E+01  1.00000000E+00  0.00000000E+00
  3.20000000E+01 -2.66453526E-15  0.00000000E+00
  3.30000000E+01  2.40000000E+01  0.00000000E+00
  3.30000000E+01  2.30000000E+01  0.00000000E+00
  3.30000000E+01  2.20000000E+01  0.00000000E+00
  3.30000000E+01  2.10000000E+01  0.00000000E+00
  3.30000000E+01  2.00000000E+01  0.00000000E+00
  3.30000000E+01  1.90000000E+01  0.00000000E+00
  3.30000000E+01  1.80000000E+01  0.00000000E+00
  3.30000000E+01  1.70000000E+01  0.00000000E+00
  3.30000000E+01  1.60000000E+01  0.00000000E+00
  3.30000000E+01  1.50000000E+01  0.00000000E+00
  3.30000000E+01  1.40000000E+01  0.00000000E+00
  3.30000000E+01  1.30000000E+01  0.00000000E+00
  3.30000000E+01  1.20000000E+01  0.00000000E+00
  3.30000000E+01  1.10000000E+01  0.00000000E+00
  3.30000000E+01  1.00000000E+01  0.00000000E+00
  3.30000000E+01  9.00000000E+00  0.00000000E+00
  3.30000000E+01  8.00000000E+00  0.00000000E+00
  3.30000000E+01  7.00000000E+00  0.00000000E+00
  3.30000000E+01  6.00000000E+00  0.00000000E+00
  3.30000000E+01  5.00000000E+00  0.00000000E+00
  3.30000000E+01  4.00000000E+00  0.00000000E+00
  3.30000000E+01  3.00000000E+00  0.00000000E+00
  3.30000000E+01  2.00000000E+00  0.00000000E+00
  3.30000000E+01  1.00000000E+00  0.00000000E+00
  3.30000000E+01 -2.66453526E-15  0.00000000E+00
  3.40000000E+01  2.40000000E+01  0.00000000E+00
  3.40000000E+01  2.30000000E+01  0.00000000E+00
  3.40000000E+01  2.20000000E+01  0.00000000E+00
  3.40000000E+01  2.10000000E+01  0.00000000E+00
  3.40000000E+01  2.00000000E+01  0.00000000E+00
  3.40000000E+01  1.90000000E+01  0.00000000E+00
  3.40000000E+01  1.80000000E+01  0.00000000E+00
  3.40000000E+01  1.70000000E+01  0.00000000E+00
  3.40000000E+01  1.60000000E+01  0.00000000E+00
  3.40000000E+01  1.50000000E+01  0.00000000E+00
  3.40000000E+01  1.40000000E+01  0.00000000E+00
  3.40000000E+01  1.30000000E+01  0.00000000E+00
  3.40000000E+01  1.20000000E+01  0.00000000E+00
  3.40000000E+01  1.10000000E+01  0.00000000E+00
  3.40000000E+01  1.00000000E+01  0.00000000E+00
  3.40000000E+01  9.00000000E+00  0.00000000E+00
  3.40000000E+01  8.00000000E+00  0.00000000E+00
  3.40000000E+01  7.00000000E+00  0.00000000E+00
  3.40000000E+01  6.00000000E+00  0.00000000E+00
  3.40000000E+01  5.00000000E+00  0.00000000E+00
  3.40000000E+01  4.00000000E+00  0.00000000E+00
  3.40000000E+01  3.00000000E+00  0.00000000E+00
  3.40000000E+01  2.00000000E+00  0.00000000E+00
  3.40000000E+01  1.00000000E+00  0.00000000E+00
  3.40000000E+01 -2.66453526E-15  0.00000000E+00
  3.50000000E+01  2.40000000E+01  0.00000000E+00
  3.50000000E+01  2.30000000E+01  0.00000000E+00
  3.50000000E+01  2.20000000E+01  0.00000000E+00
  3.50000000E+01  2.10000000E+01  0.00000000E+00
  3.50000000E+01  2.00000000E+01  0.00000000E+00
  3.50000000E+01  1.90000000E+01  0.00000000E+00
  3.50000000E+01  1.80000000E+01  0.00000000E+00
  3.50000000E+01  1.70000000E+01  0.00000000E+00
  3.50000000E+01  1.60000000E+01  0.00000000E+00
  3.50000000E+01  1.50000000E+01  0.00000000E+00
  3.50000000E+01  1.40000000E+01  0.00000000E+00
  3.50000000E+01  1.30000000E+01  0.00000000E+00
  3.50000000E+01  1.20000000E+01  0.00000000E+00
  3.50000000E+01  1.10000000E+01  0.00000000E+00
  3.50000000E+01  1.00000000E+01  0.00000000E+00
  3.50000000E+01  9.00000000E+00  0.00000000E+00
  3.50000000E+01  8.00000000E+00  0.00000000E+00
  3.50000000E+01  7.00000000E+00  0.00000000E+00
  3.50000000E+01  6.00000000E+00  0.00000000E+00
  3.50000000E+01  5.00000000E+00  0.00000000E+00
  3.50000000E+01  4.00000000E+00  0.00000000E+00
  3.50000000E+01  3.00000000E+00  0.00000000E+00
  3.50000000E+01  2.00000000E+00  0.00000000E+00
  3.50000000E+01  1.00000000E+00  0.00000000E+00
  3.50000000E+01 -2.66453526E-15  0.00000000E+00
  3.60000000E+01  2.40000000E+01  0.00000000E+00
  3.60000000E+01  2.30000000E+01  0.00000000E+00
  3.60000000E+01  2.20000000E+01  0.00000000E+00
  3.60000000E+01  2.10000000E+01  0.00000000E+00
  3.60000000E+01  2.00000000E+01  0.00000000E+00
  3.60000000E+01  1.90000000E+01  0.00000000E+00
  3.60000000E+01  1.80000000E+01  0.00000000E+00
  3.60000000E+01  1.70000000E+01  0.00000000E+00
  3.60000000E+01  1.60000000E+01  0.00000000E+00
  3.60000000E+01  1.50000000E+01  0.00000000E+00
  3.60000000E+01  1.40000000E+01  0.00000000E+00
  3.60000000E+01  1.30000000E+01  0.00000000E+00
  3.60000000E+01  1.20000000E+01  0.00000000E+00
  3.60000000E+01  1.10000000E+01  0.00000000E+00
  3.60000000E+01  1.00000000E+01  0.00000000E+00
  3.60000000E+01  9.00000000E+00  0.00000000E+00
  3.60000000E+01  8.00000000E+00  0.00000000E+00
  3.60000000E+01  7.00000000E+00  0.00000000E+00
  3.60000000E+01  6.00000000E+00  0.00000000E+00
  3.60000000E+01  5.00000000E+00  0.00000000E+00
  3.60000000E+01  4.00000000E+00  0.00000000E+00
  3.60000000E+01  3.00000000E+00  0.00000000E+00
  3.60000000E+01  2.00000000E+00  0.00000000E+00
  3.60000000E+01  1.00000000E+00  0.00000000E+00
  3.60000000E+01 -2.66453526E-15  0.00000000E+00
  3.70000000E+01  2.40000000E+01  0.00000000E+00
  3.70000000E+01  2.30000000E+01  0.00000000E+00
  3.70000000E+01  2.20000000E+01  0.00000000E+00
  3.70000000E+01  2.10000000E+01  0.00000000E+00
  3.70000000E+01  2.00000000E+01  0.00000000E+00
  3.70000000E+01  1.90000000E+01  0.00000000E+00
  3.70000000E+01  1.80000000E+01  0.00000000E+00
  3.70000000E+01  1.70000000E+01  0.00000000E+00
  3.70000000E+01  1.60000000E+01  0.00000000E+00
  3.70000000E+01  1.50000000E+01  0.00000000E+00
  3.70000000E+01  1.40000000E+01  0.00000000E+00
  3.70000000E+01  1.30000000E+01  0.00000000E+00
  3.70000000E+01  1.20000000E+01  0.00000000E+00
  3.70000000E+01  1.10000000E+01  0.00000000E+00
  3.70000000E+01  1.00000000E+01  0.00000000E+00
  3.70000000E+01  9.00000000E+00  0.00000000E+00
  3.70000000E+01  8.00000000E+00  0.00000000E+00
  3.70000000E+01  7.00000000E+00  0.00000000E+00
  3.70000000E+01  6.00000000E+00  0.00000000E+00
  3.70000000E+01  5.00000000E+00  0.00000000E+00
  3.70000000E+01  4.00000000E+00  0.00000000E+00
  3.70000000E+01  3.00000000E+00  0.00000000E+00
  3.70000000E+01  2.00000000E+00  0.00000000E+00
  3.70000000E+01  1.00000000E+00  0.00000000E+00
  3.70000000E+01 -2.66453526E-15  0.00000000E+00
  3.80000000E+01  2.40000000E+01  0.00000000E+00
  3.80000000E+01  2.30000000E+01  0.00000000E+00
  3.80000000E+01  2.20000000E+01  0.00000000E+00
  3.80000000E+01  2.10000000E+01  0.00000000E+00
  3.80000000E+01  2.00000000E+01  0.00000000E+00
  3.80000000E+01  1.90000000E+01  0.00000000E+00
  3.80000000E+01  1.80000000E+01  0.00000000E+00
  3.80000000E+01  1.70000000E+01  0.00000000E+00
  3.80000000E+01  1.60000000E+01  0.00000000E+00
  3.80000000E+01  1.50000000E+01  0.00000000E+00
  3.80000000E+01  1.40000000E+01  0.00000000E+00
  3.80000000E+01  1.30000000E+01  0.00000000E+00
  3.80000000E+01  1.20000000E+01  0.00000000E+00
  3.80000000E+01  1.10000000E+01  0.00000000E+00
  3.80000000E+01  1.00000000E+01  0.00000000E+00
  3.80000000E+01  9.00000000E+00  0.00000000E+00
  3.80000000E+01  8.00000000E+00  0.00000000E+00
  3.80000000E+01  7.00000000E+00  0.00000000E+00
  3.80000000E+01  6.00000000E+00  0.00000000E+00
  3.80000000E+01  5.00000000E+00  0.00000000E+00
  3.80000000E+01  4.00000000E+00  0.00000000E+00
  3.80000000E+01  3.00000000E+00  0.00000000E+00
  3.80000000E+01  2.00000000E+00  0.00000000E+00
  3.80000000E+01  1.00000000E+00  0.00000000E+00
  3.80000000E+01 -2.66453526E-15  0.00000000E+00
  3.90000000E+01  2.40000000E+01  0.00000000E+00
  3.90000000E+01  2.30000000E+01  0.00000000E+00
  3.90000000E+01  2.20000000E+01  0.00000000E+00
  3.90000000E+01  2.10000000E+01  0.00000000E+00
  3.90000000E+01  2.00000000E+01  0.00000000E+00
  3.90000000E+01  1.90000000E+01  0.00000000E+00
  3.90000000E+01  1.80000000E+01  0.00000000E+00
  3.90000000E+01  1.70000000E+01  0.00000000E+00
  3.90000000E+01  1.60000000E+01  0.00000000E+00
  3.90000000E+01  1.50000000E+01  0.00000000E+00
  3.90000000E+01  1.40000000E+01  0.00000000E+00
  3.90000000E+01  1.30000000E+01  0.00000000E+00
  3.90000000E+01  1.20000000E+01  0.00000000E+00
  3.90000000E+01  1.10000000E+01  0.00000000E+00
  3.90000000E+01  1.00000000E+01  0.00000000E+00
  3.90000000E+01  9.00000000E+00  0.00000000E+00
  3.90000000E+01  8.00000000E+00  0.00000000E+00
  3.90000000E+01  7.00000000E+00  0.00000000E+00
  3.90000000E+01  6.00000000E+00  0.00000000E+00
  3.90000000E+01  5.00000000E+00  0.00000000E+00
  3.90000000E+01  4.00000000E+00  0.00000000E+00
  3.90000000E+01  3.00000000E+00  0.00000000E+00
  3.90000000E+01  2.00000000E+00  0.00000000E+00
  3.90000000E+01  1.00000000E+00  0.00000000E+00
  3.90000000E+01 -2.66453526E-15  0.00000000E+00
  4.00000000E+01  2.40000000E+01  0.00000000E+00
  4.00000000E+01  2.30000000E+01  0.00000000E+00
  4.00000000E+01  2.20000000E+01  0.00000000E+00
  4.00000000E+01  2.10000000E+01  0.00000000E+00
  4.00000000E+01  2.00000000E+01  0.00000000E+00
  4.00000000E+01  1.90000000E+01  0.00000000E+00
  4.00000000E+01  1.80000000E+01  0.00000000E+00
  4.00000000E+01  1.70000000E+01  0.00000000E+00
  4.00000000E+01  1.60000000E+01  0.00000000E+00
  4.00000000E+01  1.50000000E+01  0.00000000E+00
  4.00000000E+01  1.40000000E+01  0.00000000E+00
  4.00000000E+01  1.30000000E+01  0.00000000E+00
  4.00000000E+01  1.20000000E+01  0.00000000E+00
  4.00000000E+01  1.10000000E+01  0.00000000E+00
  4.00000000E+01  1.00000000E+01  0.00000000E+00
  4.00000000E+01  9.00000000E+00  0.00000000E+00
  4.00000000E+01  8.00000000E+00  0.00000000E+00
  4.00000000E+01  7.00000000E+00  0.00000000E+00
  4.00000000E+01  6.00000000E+00  0.00000000E+00
  4.00000000E+01  5.00000000E+00  0.00000000E+00
  4.00000000E+01  4.00000000E+00  0.00000000E+00
  4.00000000E+01  3.00000000E+00  0.00000000E+00
  4.00000000E+01  2.00000000E+00  0.00000000E+00
  4.00000000E+01  1.00000000E+00  0.00000000E+00
  4.00000000E+01 -2.66453526E-15  0.00000000E+00
  4.10000000E+01  2.40000000E+01  0.00000000E+00
  4.10000000E+01  2.30000000E+01  0.00000000E+00
  4.10000000E+01  2.20000000E+01  0.00000000E+00
  4.10000000E+01  2.10000000E+01  0.00000000E+00
  4.10000000E+01  2.00000000E+01  0.00000000E+00
  4.10000000E+01  1.90000000E+01  0.00000000E+00
  4.10000000E+01  1.80000000E+01  0.00000000E+00
  4.10000000E+01  1.70000000E+01  0.00000000E+00
  4.10000000E+01  1.60000000E+01  0.00000000E+00
  4.10000000E+01  1.50000000E+01  0.00000000E+00
  4.10000000E+01  1.40000000E+01  0.00000000E+00
  4.10000000E+01  1.30000000E+01  0.00000000E+00
  4.10000000E+01  1.20000000E+01  0.00000000E+00
  4.10000000E+01  1.10000000E+01  0.00000000E+00
  4.10000000E+01  1.00000000E+01  0.00000000E+00
  4.10000000E+01  9.00000000E+00  0.00000000E+00
  4.10000000E+01  8.00000000E+00  0.00000000E+00
  4.10000000E+01  7.00000000E+00  0.00000000E+00
  4.10000000E+01  6.00000000E+00  0.00000000E+00
  4.10000000E+01  5.00000000E+00  0.00000000E+00
  4.10000000E+01  4.00000000E+00  0.00000000E+00
  4.10000000E+01  3.00000000E+00  0.00000000E+00
  4.10000000E+01  2.00000000E+00  0.00000000E+00
  4.10000000E+01  1.00000000E+00  0.00000000E+00
  4.10000000E+01 -2.66453526E-15  0.00000000E+00
  4.20000000E+01  2.40000000E+01  0.00000000E+00
  4.20000000E+01  2.30000000E+01  0.00000000E+00
  4.20000000E+01  2.20000000E+01  0.00000000E+00
  4.20000000E+01  2.10000000E+01  0.00000000E+00
  4.20000000E+01  2.00000000E+01  0.00000000E+00
  4.20000000E+01  1.90000000E+01  0.00000000E+00
  4.20000000E+01  1.80000000E+01  0.00000000E+00
  4.20000000E+01  1.70000000E+01  0.00000000E+00
  4.20000000E+01  1.60000000E+01  0.00000000E+00
  4.20000000E+01  1.50000000E+01  0.00000000E+00
  4.20000000E+01  1.40000000E+01  0.00000000E+00
  4.20000000E+01  1.30000000E+01  0.00000000E+00
  4.20000000E+01  1.20000000E+01  0.00000000E+00
  4.20000000E+01  1.10000000E+01  0.00000000E+00
  4.20000000E+01  1.00000000E+01  0.00000000E+00
  4.20000000E+01  9.00000000E+00  0.00000000E+00
  4.20000000E+01  8.00000000E+00  0.00000000E+00
  4.20000000E+01  7.00000000E+00  0.00000000E+00
  4.20000000E+01  6.00000000E+00  0.00000000E+00
  4.20000000E+01  5.00000000E+00  0.00000000E+00
  4.20000000E+01  4.00000000E+00  0.00000000E+00
  4.20000000E+01  3.00000000E+00  0.00000000E+00
  4.20000000E+01  2.00000000E+00  0.00000000E+00
  4.20000000E+01  1.00000000E+00  0.00000000E+00
  4.20000000E+01 -2.66453526E-15  0.00000000E+00
  4.30000000E+01  2.40000000E+01  0.00000000E+00
  4.30000000E+01  2.30000000E+01  0.00000000E+00
  4.30000000E+01  2.20000000E+01  0.00000000E+00
  4.30000000E+01  2.10000000E+01  0.00000000E+00
  4.30000000E+01  2.00000000E+01  0.00000000E+00
  4.30000000E+01  1.90000000E+01  0.00000000E+00
  4.30000000E+01  1.80000000E+01  0.00000000E+00
  4.30000000E+01  1.70000000E+01  0.00000000E+00
  4.30000000E+01  1.60000000E+01  0.00000000E+00
  4.30000000E+01  1.50000000E+01  0.00000000E+00
  4.30000000E+01  1.40000000E+01  0.00000000E+00
  4.30000000E+01  1.30000000E+01  0.00000000E+00
  4.30000000E+01  1.20000000E+01  0.00000000E+00
  4.30000000E+01  1.10000000E+01  0.00000000E+00
  4.30000000E+01  1.00000000E+01  0.00000000E+00
  4.30000000E+01  9.00000000E+00  0.00000000E+00
  4.30000000E+01  8.00000000E+00  0.00000000E+00
  4.30000000E+01  7.00000000E+00  0.00000000E+00
  4.30000000E+01  6.00000000E+00  0.00000000E+00
  4.30000000E+01  5.00000000E+00  0.00000000E+00
  4.30000000E+01  4.00000000E+00  0.00000000E+00
  4.30000000E+01  3.00000000E+00  0.00000000E+00
  4.30000000E+01  2.00000000E+00  0.00000000E+00
  4.30000000E+01  1.00000000E+00  0.00000000E+00
  4.30000000E+01 -2.66453526E-15  0.00000000E+00
  4.40000000E+01  2.40000000E+01  0.00000000E+00
  4.40000000E+01  2.30000000E+01  0.00000000E+00
  4.40000000E+01  2.20000000E+01  0.00000000E+00
  4.40000000E+01  2.10000000E+01  0.00000000E+00
  4.40000000E+01  2.00000000E+01  0.00000000E+00
  4.40000000E+01  1.90000000E+01  0.00000000E+00
  4.40000000E+01  1.80000000E+01  0.00000000E+00
  4.40000000E+01  1.70000000E+01  0.00000000E+00
  4.40000000E+01  1.60000000E+01  0.00000000E+00
  4.40000000E+01  1.50000000E+01  0.00000000E+00
  4.40000000E+01  1.40000000E+01  0.00000000E+00
  4.40000000E+01  1.30000000E+01  0.00000000E+00
  4.40000000E+01  1.20000000E+01  0.00000000E+00
  4.40000000E+01  1.10000000E+01  0.00000000E+00
  4.40000000E+01  1.00000000E+01  0.00000000E+00
  4.40000000E+01  9.00000000E+00  0.00000000E+00
  4.40000000E+01  8.00000000E+00  0.00000000E+00
  4.40000000E+01  7.00000000E+00  0.00000000E+00
  4.40000000E+01  6.00000000E+00  0.00000000E+00
  4.40000000E+01  5.00000000E+00  0.00000000E+00
  4.40000000E+01  4.00000000E+00  0.00000000E+00
  4.40000000E+01  3.00000000E+00  0.00000000E+00
  4.40000000E+01  2.00000000E+00  0.00000000E+00
  4.40000000E+01  1.00000000E+00  0.00000000E+00
  4.40000000E+01 -2.66453526E-15  0.00000000E+00
  4.50000000E+01  2.40000000E+01  0.00000000E+00
  4.50000000E+01  2.30000000E+01  0.00000000E+00
  4.50000000E+01  2.20000000E+01  0.00000000E+00
  4.50000000E+01  2.10000000E+01  0.00000000E+00
  4.50000000E+01  2.00000000E+01  0.00000000E+00
  4.50000000E+01  1.90000000E+01  0.00000000E+00
  4.50000000E+01  1.80000000E+01  0.00000000E+00
  4.50000000E+01  1.70000000E+01  0.00000000E+00
  4.50000000E+01  1.60000000E+01  0.00000000E+00
  4.50000000E+01  1.50000000E+01  0.00000000E+00
  4.50000000E+01  1.40000000E+01  0.00000000E+00
  4.50000000E+01  1.30000000E+01  0.00000000E+00
  4.50000000E+01  1.20000000E+01  0.00000000E+00
  4.50000000E+01  1.10000000E+01  0.00000000E+00
  4.50000000E+01  1.00000000E+01  0.00000000E+00
  4.50000000E+01  9.00000000E+00  0.00000000E+00
  4.50000000E+01  8.00000000E+00  0.00000000E+00
  4.50000000E+01  7.00000000E+00  0.00000000E+00
  4.50000000E+01  6.00000000E+00  0.00000000E+00
  4.50000000E+01  5.00000000E+00  0.00000000E+00
  4.50000000E+01  4.00000000E+00  0.00000000E+00
  4.50000000E+01  3.00000000E+00  0.00000000E+00
  4.50000000E+01  2.00000000E+00  0.00000000E+00
  4.50000000E+01  1.00000000E+00  0.00000000E+00
  4.50000000E+01 -2.66453526E-15  0.00000000E+00
  4.60000000E+01  2.40000000E+01  0.00000000E+00
  4.60000000E+01  2.30000000E+01  0.00000000E+00
  4.60000000E+01  2.20000000E+01  0.00000000E+00
  4.60000000E+01  2.10000000E+01  0.00000000E+00
  4.60000000E+01  2.00000000E+01  0.00000000E+00
  4.60000000E+01  1.90000000E+01  0.00000000E+00
  4.60000000E+01  1.80000000E+01  0.00000000E+00
  4.60000000E+01  1.70000000E+01  0.00000000E+00
  4.60000000E+01  1.60000000E+01  0.00000000E+00
  4.60000000E+01  1.50000000E+01  0.00000000E+00
  4.60000000E+01  1.40000000E+01  0.00000000E+00
  4.60000000E+01  1.30000000E+01  0.00000000E+00
  4.60000000E+01  1.20000000E+01  0.00000000E+00
  4.60000000E+01  1.10000000E+01  0.00000000E+00
  4.60000000E+01  1.00000000E+01  0.00000000E+00
  4.60000000E+01  9.00000000E+00  0.00000000E+00
  4.60000000E+01  8.00000000E+00  0.00000000E+00
  4.60000000E+01  7.00000000E+00  0.00000000E+00
  4.60000000E+01  6.00000000E+00  0.00000000E+00
  4.60000000E+01  5.00000000E+00  0.00000000E+00
  4.60000000E+01  4.00000000E+00  0.00000000E+00
  4.60000000E+01  3.00000000E+00  0.00000000E+00
  4.60000000E+01  2.00000000E+00  0.00000000E+00
  4.60000000E+01  1.00000000E+00  0.00000000E+00
  4.60000000E+01 -2.66453526E-15  0.00000000E+00
  4.70000000E+01  2.40000000E+01  0.00000000E+00
  4.70000000E+01  2.30000000E+01  0.00000000E+00
  4.70000000E+01  2.20000000E+01  0.00000000E+00
  4.70000000E+01  2.10000000E+01  0.00000000E+00
  4.70000000E+01  2.00000000E+01  0.00000000E+00
  4.70000000E+01  1.90000000E+01  0.00000000E+00
  4.70000000E+01  1.80000000E+01  0.00000000E+00
  4.70000000E+01  1.70000000E+01  0.00000000E+00
  4.70000000E+01  1.60000000E+01  0.00000000E+00
  4.70000000E+01  1.50000000E+01  0.00000000E+00
  4.70000000E+01  1.40000000E+01  0.00000000E+00
  4.70000000E+01  1.30000000E+01  0.00000000E+00
  4.70000000E+01  1.20000000E+01  0.00000000E+00
  4.70000000E+01  1.10000000E+01  0.00000000E+00
  4.70000000E+01  1.00000000E+01  0.00000000E+00
  4.70000000E+01  9.00000000E+00  0.00000000E+00
  4.70000000E+01  8.00000000E+00  0.00000000E+00
  4.70000000E+01  7.00000000E+00  0.00000000E+00
  4.70000000E+01  6.00000000E+00  0.00000000E+00
  4.70000000E+01  5.00000000E+00  0.00000000E+00
  4.70000000E+01  4.00000000E+00  0.00000000E+00
  4.70000000E+01  3.00000000E+00  0.00000000E+00
  4.70000000E+01  2.00000000E+00  0.00000000E+00
  4.70000000E+01  1.00000000E+00  0.00000000E+00
  4.70000000E+01 -2.66453526E-15  0.00000000E+00
  4.80000000E+01  2.40000000E+01  0.00000000E+00
  4.80000000E+01  2.30000000E+01  0.00000000E+00
  4.80000000E+01  2.20000000E+01  0.00000000E+00
  4.80000000E+01  2.10000000E+01  0.00000000E+00
  4.80000000E+01  2.00000000E+01  0.00000000E+00
  4.80000000E+01  1.90000000E+01  0.00000000E+00
  4.80000000E+01  1.80000000E+01  0.00000000E+00
  4.80000000E+01  1.70000000E+01  0.00000000E+00
  4.80000000E+01  1.60000000E+01  0.00000000E+00
  4.80000000E+01  1.50000000E+01  0.00000000E+00
  4.80000000E+01  1.40000000E+01  0.00000000E+00
  4.80000000E+01  1.30000000E+01  0.00000000E+00
  4.80000000E+01  1.20000000E+01  0.00000000E+00
  4.80000000E+01  1.10000000E+01  0.00000000E+00
  4.80000000E+01  1.00000000E+01  0.00000000E+00
  4.80000000E+01  9.00000000E+00  0.00000000E+00
  4.80000000E+01  8.00000000E+00  0.00000000E+00
  4.80000000E+01  7.00000000E+00  0.00000000E+00
  4.80000000E+01  6.00000000E+00  0.00000000E+00
  4.80000000E+01  5.00000000E+00  0.00000000E+00
  4.80000000E+01  4.00000000E+00  0.00000000E+00
  4.80000000E+01  3.00000000E+00  0.00000000E+00
  4.80000000E+01  2.00000000E+00  0.00000000E+00
  4.80000000E+01  1.00000000E+00  0.00000000E+00
  4.80000000E+01 -2.66453526E-15  0.00000000E+00
CELLS      1152      5760
         4           0           1          26          25
         4           1           2          27          26
         4           2           3          28          27
         4           3           4          29          28
         4           4           5          30          29
         4           5           6          31          30
         4           6           7          32          31
         4           7           8          33          32
         4           8           9          34          33
         4           9          10          35          34
         4          10          11          36          35
         4          11          12          37          36
         4          12          13          38          37
         4          13          14          39          38
         4          14          15          40          39
         4          15          16          41          40
         4          16          17          42          41
         4          17          18          43          42
         4          18          19          44          43
         4          19          20          45          44
         4          20          21          46          45
         4          21          22          47          46
         4          22          23          48          47
         4          23          24          49          48
         4          25          26          51          50
         4          26          27          52          51
         4          27          28          53          52
         4          28          29          54          53
         4          29          30          55          54
         4          30          31          56          55
         4          31          32          57          56
         4          32          33          58          57
         4          33          34          59          58
         4          34          35          60          59
         4          35          36          61          60
         4          36          37          62          61
         4          37          38          63          62
         4          38          39          64          63
         4          39          40          65          64
         4          40          41          66          65
         4          41          42          67          66
         4          42          43          68          67
         4          43          44          69          68
         4          44          45          70          69
         4          45          46          71          70
         4          46          47          72          71
         4          47          48          73          72
         4          48          49          74          73
         4          50          51          76          75
         4          51          52          77          76
         4          52          53          78          77
         4          53          54          79          78
         4          54          55          80          79
         4          55          56          81          80
         4          56          57          82          81
         4          57          58          83          82
         4          58          59          84          83
         4          59          60          85          84
         4          60          61          86          85
         4          61          62          87          86
         4          62          63          88          87
         4          63          64          89          88
         4          64          65          90          89
         4          65          66          91          90
         4          66          67          92          91
         4          67          68          93          92
         4          68          69          94          93
         4          69          70          95          94
         4          70          71          96          95
         4          71          72          97          96
         4          72          73          98          97
         4          73          74          99          98
         4          75          76         101         100
         4          76          77         102         101
         4          77          78         103         102
         4          78          79         104         103
         4          79          80         105         104
         4          80          81         106         105
         4          81          82         107         106
         4          82          83         108         107
         4          83          84         109         108
         4          84          85         110         109
         4          85          86         111         110
         4          86          87         112         111
         4          87          88         113         112
         4          88          89         114         113
         4          89          90         115         114
         4          90          91         116         115
         4          91          92         117         116
         4          92          93         118         117
         4          93          94         119         118
         4          94          95         120         119
         4          95          96         121         120
         4          96          97         122         121
         4          97          98         123         122
         4          98          99         124         123
         4         100         101         126         125
         4         101         102         127         126
         4         102         103         128         127
         4         103         104         129         128
         4         104         105         130         129
         4         105         106         131         130
         4         106         107         132         131
         4         107         108         133         132
         4         108         109         134         133
         4         109         110         135         134
         4         110         111         136         135
         4         111         112         137         136
         4         112         113         138         137
         4         113         114         139         138
         4         114         115         140         139
         4         115         116         141         140
         4         116         117         142         141
         4         117         118         143         142
         4         118         119         144         143
         4         119         120         145         144
         4         120         121         146         145
         4         121         122         147         146
         4         122         123         148         147
         4         123         124         149         148
         4         125         126         151         150
         4         126         127         152         151
         4         127         128         153         152
         4         128         129         154         153
         4         129         130         155         154
         4         130         131         156         155
         4         131         132         157         156
         4         132         133         158         157
         4         133         134         159         158
         4         134         135         160         159
         4         135         136         161         160
         4         136         137         162         161
         4         137         138         163         162
         4         138         139         164         163
         4         139         140         165         164
         4         140         141         166         165
         4         141         142         167         166
         4         142         143         168         167
         4         143         144         169         168
         4         144         145         170         169
         4         145         146         171         170
         4         146         147         172         171
         4         147         148         173         172
         4         148         149         174         173
         4         150         151         176         175
         4         151         152         177         176
         4         152         153         178         177
         4         153         154         179         178
         4         154         155         180         179
         4         155         156         181         180
         4         156         157         182         181
         4         157         158         183         182
         4         158         159         184         183
         4         159         160         185         184
         4         160         161         186         185
         4         161         162         187         186
         4         162         163         188         187
         4         163         164         189         188
         4         164         165         190         189
         4         165         166         191         190
         4         166         167         192         191
         4         167         168         193         192
         4         168         169         194         193
         4         169         170         195         194
         4         170         171         196         195
         4         171         172         197         196
         4         172         173         198         197
         4         173         174         199         198
         4         175         176         201         200
         4         176         177         202         201
         4         177         178         203         202
         4         178         179         204         203
         4         179         180         205         204
         4         180         181         206         205
         4         181         182         207         206
         4         182         183         208         207
         4         183         184         209         208
         4         184         185         210         209
         4         185         186         211         210
         4         186         187         212         211
         4         187         188         213         212
         4         188         189         214         213
         4         189         190         215         214
         4         190         191         216         215
         4         191         192         217         216
         4         192         193         218         217
         4         193         194         219         218
         4         194         195         220         219
         4         195         196         221         220
         4         196         197         222         221
         4         197         198         223         222
         4         198         199         224         223
         4         200         201         226         225
         4         201         202         227         226
         4         202         203         228         227
         4         203         204         229         228
         4         204         205         230         229
         4         205         206         231         230
         4         206         207         232         231
         4         207         208         233         232
         4         208         209         234         233
         4         209         210         235         234
         4         210         211         236         235
         4         211         212         237         236
         4         212         213         238         237
         4         213         214         239         238
         4         214         215         240         239
         4         215         216         241         240
         4         216         217         242         241
         4         217         218         243         242
         4         218         219         244         243
         4         219         220         245         244
         4         220         221         246         245
         4         221         222         247         246
         4         222         223         248         247
         4         223         224         249         248
         4         225         226         251         250
         4         226         227         252         251
         4         227         228         253         252
         4         228         229         254         253
         4         229         230         255         254
         4         230         231         256         255
         4         231         232         257         256
         4         232         233         258         257
         4         233         234         259         258
         4         234         235         260         259
         4         235         236         261         260
         4         236         237         262         261
         4         237         238         263         262
         4         238         239         264         263
         4         239         240         265         264
         4         240         241         266         265
         4         241         242         267         266
         4         242         243         268         267
         4         243         244         269         268
         4         244         245         270         269
         4         245         246         271         270
         4         246         247         272         271
         4         247         248         273         272
         4         248         249         274         273
         4         250         251         276         275
         4         251         252         277         276
         4         252         253         278         277
         4         253         254         279         278
         4         254         255         280         279
         4         255         256         281         280
         4         256         257         282         281
         4         257         258         283         282
         4         258         259         284         283
         4         259         260         285         284
         4         260         261         286         285
         4         261         262         287         286
         4         262         263         288         287
         4         263         264         289         288
         4         264         265         290         289
         4         265         266         291         290
         4         266         267         292         291
         4         267         268         293         292
         4         268         269         294         293
         4         269         270         295         294
         4         270         271         296         295
         4         271         272         297         296
         4         272         273         298         297
         4         273         274         299         298
         4         275         276         301         300
         4         276         277         302         301
         4         277         278         303         302
         4         278         279         304         303
         4         279         280         305         304
         4         280         281         306         305
         4         281         282         307         306
         4         282         283         308         307
         4         283         284         309         308
         4         284         285         310         309
         4         285         286         311         310
         4         286         287         312         311
         4         287         288         313         312
         4         288         289         314         313
         4         289         290         315         314
         4         290         291         316         315
         4         291         292         317         316
         4         292         293         318         317
         4         293         294         319         318
         4         294         295         320         319
         4         295         296         321         320
         4         296         297         322         321
         4         297         298         323         322
         4         298         299         324         323
         4         300         301         326         325
         4         301         302         327         326
         4         302         303         328         327
         4         303         304         329         328
         4         304         305         330         329
         4         305         306         331         330
         4         306         307         332         331
         4         307         308         333         332
         4         308         309         334         333
         4         309         310         335         334
         4         310         311         336         335
         4         311         312         337         336
         4         312         313         338         337
         4         313         314         339         338
         4         314         315         340         339
         4         315         316         341         340
         4         316         317         342         341
         4         317         318         343         342
         4         318         319         344         343
         4         319         320         345         344
         4         320         321         346         345
         4         321         322         347         346
         4         322         323         348         347
         4         323         324         349         348
         4         325         326         351         350
         4         326         327         352         351
         4         327         328         353         352
         4         328         329         354         353
         4         329         330         355         354
         4         330         331         356         355
         4         331         332         357         356
         4         332         333         358         357
         4         333         334         359         358
         4         334         335         360         359
         4         335         336         361         360
         4         336         337         362         361
         4         337         338         363         362
         4         338         339         364         363
         4         339         340         365         364
         4         340         341         366         365
         4         341         342         367         366
         4         342         343         368         367
         4         343         344         369         368
         4         344         345         370         369
         4         345         346         371         370
         4         346         347         372         371
         4         347         348         373         372
         4         348         349         374         373
         4         350         351         376         375
         4         351         352         377         376
         4         352         353         378         377
         4         353         354         379         378
         4         354         355         380         379
         4         355         356         381         380
         4         356         357         382         381
         4         357         358         383         382
         4         358         359         384         383
         4         359         360         385         384
         4         360         361         386         385
         4         361         362         387         386
         4         362         363         388         387
         4         363         364         389         388
         4         364         365         390         389
         4         365         366         391         390
         4         366         367         392         391
         4         367         368         393         392
         4         368         369         394         393
         4         369         370         395         394
         4         370         371         396         395
         4         371         372         397         396
         4         372         373         398         397
         4         373         374         399         398
         4         375         376         401         400
         4         376         377         402         401
         4         377         378         403         402
         4         378         379         404         403
         4         379         380         405         404
         4         380         381         406         405
         4         381         382         407         406
         4         382         383         408         407
         4         383         384         409         408
         4         384         385         410         409
         4         385         386         411         410
         4         386         387         412         411
         4         387         388         413         412
         4         388         389         414         413
         4         389         390         415         414
         4         390         391         416         415
         4         391         392         417         416
         4         392         393         418         417
         4         393         394         419         418
         4         394         395         420         419
         4         395         396         421         420
         4         396         397         422         421
         4         397         398         423         422
         4         398         399         424         423
         4         400         401         426         425
         4         401         402         427         426
         4         402         403         428         427
         4         403         404         429         428
         4         404         405         430         429
         4         405         406         431         430
         4         406         407         432         431
         4         407         408         433         432
         4         408         409         434         433
         4         409         410         435         434
         4         410         411         436         435
         4         411         412         437         436
         4         412         413         438         437
         4         413         414         439         438
         4         414         415         440         439
         4         415         416         441         440
         4         416         417         442         441
         4         417         418         443         442
         4         418         419         444         443
         4         419         420         445         444
         4         420         421         446         445
         4         421         422         447         446
         4         422         423         448         447
         4         423         424         449         448
         4         425         426         451         450
         4         426         427         452         451
         4         427         428         453         452
         4         428         429         454         453
         4         429         430         455         454
         4         430         431         456         455
         4         431         432         457         456
         4         432         433         458         457
         4         433         434         459         458
         4         434         435         460         459
         4         435         436         461         460
         4         436         437         462         461
         4         437         438         463         462
         4         438         439         464         463
         4         439         440         465         464
         4         440         441         466         465
         4         441         442         467         466
         4         442         443         468         467
         4         443         444         469         468
         4         444         445         470         469
         4         445         446         471         470
         4         446         447         472         471
         4         447         448         473         472
         4         448         449         474         473
         4         450         451         476         475
         4         451         452         477         476
         4         452         453         478         477
         4         453         454         479         478
         4         454         455         480         479
         4         455         456         481         480
         4         456         457         482         481
         4         457         458         483         482
         4         458         459         484         483
         4         459         460         485         484
         4         460         461         486         485
         4         461         462         487         486
         4         462         463         488         487
         4         463         464         489         488
         4         464         465         490         489
         4         465         466         491         490
         4         466         467         492         491
         4         467         468         493         492
         4         468         469         494         493
         4         469         470         495         494
         4         470         471         496         495
         4         471         472         497         496
         4         472         473         498         497
         4         473         474         499         498
         4         475         476         501         500
         4         476         477         502         501
         4         477         478         503         502
         4         478         479         504         503
         4         479         480         505         504
         4         480         481         506         505
         4         481         482         507         506
         4         482         483         508         507
         4         483         484         509         508
         4         484         485         510         509
         4         485         486         511         510
         4         486         487         512         511
         4         487         488         513         512
         4         488         489         514         513
         4         489         490         515         514
         4         490         491         516         515
         4         491         492         517         516
         4         492         493         518         517
         4         493         494         519         518
         4         494         495         520         519
         4         495         496         521         520
         4         496         497         522         521
         4         497         498         523         522
         4         498         499         524         523
         4         500         501         526         525
         4         501         502         527         526
         4         502         503         528         527
         4         503         504         529         528
         4         504         505         530         529
         4         505         506         531         530
         4         506         507         532         531
         4         507         508         533         532
         4         508         509         534         533
         4         509         510         535         534
         4         510         511         536         535
         4         511         512         537         536
         4         512         513         538         537
         4         513         514         539         538
         4         514         515         540         539
         4         515         516         541         540
         4         516         517         542         541
         4         517         518         543         542
         4         518         519         544         543
         4         519         520         545         544
         4         520         521         546         545
         4         521         522         547         546
         4         522         523         548         547
         4         523         524         549         548
         4         525         526         551         550
         4         526         527         552         551
         4         527         528         553         552
         4         528         529         554         553
         4         529         530         555         554
         4         530         531         556         555
         4         531         532         557         556
         4         532         533         558         557
         4         533         534         559         558
         4         534         535         560         559
         4         535         536         561         560
         4         536         537         562         561
         4         537         538         563         562
         4         538         539         564         563
         4         539         540         565         564
         4         540         541         566         565
         4         541         542         567         566
         4         542         543         568         567
         4         543         544         569         568
         4         544         545         570         569
         4         545         546         571         570
         4         546         547         572         571
         4         547         548         573         572
         4         548         549         574         573
         4         550         551         576         575
         4         551         552         577         576
         4         552         553         578         577
         4         553         554         579         578
         4         554         555         580         579
         4         555         556         581         580
         4         556         557         582         581
         4         557         558         583         582
         4         558         559         584         583
         4         559         560         585         584
         4         560         561         586         585
         4         561         562         587         586
         4         562         563         588         587
         4         563         564         589         588
         4         564         565         590         589
         4         565         566         591         590
         4         566         567         592         591
         4         567         568         593         592
         4         568         569         594         593
         4         569         570         595         594
         4         570         571         596         595
         4         571         572         597         596
         4         572         573         598         597
         4         573         574         599         598
         4         575         576         601         600
         4         576         577         602         601
         4         577         578         603         602
         4         578         579         604         603
         4         579         580         605         604
         4         580         581         606         605
         4         581         582         607         606
         4         582         583         608         607
         4         583         584         609         608
         4         584         585         610         609
         4         585         586         611         610
         4         586         587         612         611
         4         587         588         613         612
         4         588         589         614         613
         4         589         590         615         614
         4         590         591         616         615
         4         591         592         617         616
         4         592         593         618         617
         4         593         594         619         618
         4         594         595         620         619
         4         595         596         621         620
         4         596         597         622         621
         4         597         598         623         622
         4         598         599         624         623
         4         600         601         626         625
         4         601         602         627         626
         4         602         603         628         627
         4         603         604         629         628
         4         604         605         630         629
         4         605         606         631         630
         4         606         607         632         631
         4         607         608         633         632
         4         608         609         634         633
         4         609         610         635         634
         4         610         611         636         635
         4         611         612         637         636
         4         612         613         638         637
         4         613         614         639         638
         4         614         615         640         639
         4         615         616         641         640
         4         616         617         642         641
         4         617         618         643         642
         4         618         619         644         643
         4         619         620         645         644
         4         620         621         646         645
         4         621         622         647         646
         4         622         623         648         647
         4         623         624         649         648
         4         625         626         651         650
         4         626         627         652         651
         4         627         628         653         652
         4         628         629         654         653
         4         629         630         655         654
         4         630         631         656         655
         4         631         632         657         656
         4         632         633         658         657
         4         633         634         659         658
         4         634         635         660         659
         4         635         636         661         660
         4         636         637         662         661
         4         637         638         663         662
         4         638         639         664         663
         4         639         640         665         664
         4         640         641         666         665
         4         641         642         667         666
         4         642         643         668         667
         4         643         644         669         668
         4         644         645         670         669
         4         645         646         671         670
         4         646         647         672         671
         4         647         648         673         672
         4         648         649         674         673
         4         650         651         676         675
         4         651         652         677         676
         4         652         653         678         677
         4         653         654         679         678
         4         654         655         680         679
         4         655         656         681         680
         4         656         657         682         681
         4         657         658         683         682
         4         658         659         684         683
         4         659         660         685         684
         4         660         661         686         685
         4         661         662         687         686
         4         662         663         688         687
         4         663         664         689         688
         4         664         665         690         689
         4         665         666         691         690
         4         666         667         692         691
         4         667         668         693         692
         4         668         669         694         693
         4         669         670         695         694
         4         670         671         696         695
         4         671         672         697         696
         4         672         673         698         697
         4         673         674         699         698
         4         675         676         701         700
         4         676         677         702         701
         4         677         678         703         702
         4         678         679         704         703
         4         679         680         705         704
         4         680         681         706         705
         4         681         682         707         706
         4         682         683         708         707
         4         683         684         709         708
         4         684         685         710         709
         4         685         686         711         710
         4         686         687         712         711
         4         687         688         713         712
         4         688         689         714         713
         4         689         690         715         714
         4         690         691         716         715
         4         691         692         717         716
         4         692         693         718         717
         4         693         694         719         718
         4         694         695         720         719
         4         695         696         721         720
         4         696         697         722         721
         4         697         698         723         722
         4         698         699         724         723
         4         700         701         726         725
         4         701         702         727         726
         4         702         703         728         727
         4         703         704         729         728
         4         704         705         730         729
         4         705         706         731         730
         4         706         707         732         731
         4         707         708         733         732
         4         708         709         734         733
         4         709         710         735         734
         4         710         711         736         735
         4         711         712         737         736
         4         712         713         738         737
         4         713         714         739         738
         4         714         715         740         739
         4         715         716         741         740
         4         716         717         742         741
         4         717         718         743         742
         4         718         719         744         743
         4         719         720         745         744
         4         720         721         746         745
         4         721         722         747         746
         4         722         723         748         747
         4         723         724         749         748
         4         725         726         751         750
         4         726         727         752         751
         4         727         728         753         752
         4         728         729         754         753
         4         729         730         755         754
         4         730         731         756         755
         4         731         732         757         756
         4         732         733         758         757
         4         733         734         759         758
         4         734         735         760         759
         4         735         736         761         760
         4         736         737         762         761
         4         737         738         763         762
         4         738         739         764         763
         4         739         740         765         764
         4         740         741         766         765
         4         741         742         767         766
         4         742         743         768         767
         4         743         744         769         768
         4         744         745         770         769
         4         745         746         771         770
         4         746         747         772         771
         4         747         748         773         772
         4         748         749         774         773
         4         750         751         776         775
         4         751         752         777         776
         4         752         753         778         777
         4         753         754         779         778
         4         754         755         780         779
         4         755         756         781         780
         4         756         757         782         781
         4         757         758         783         782
         4         758         759         784         783
         4         759         760         785         784
         4         760         761         786         785
         4         761         762         787         786
         4         762         763         788         787
         4         763         764         789         788
         4         764         765         790         789
         4         765         766         791         790
         4         766         767         792         791
         4         767         768         793         792
         4         768         769         794         793
         4         769         770         795         794
         4         770         771         796         795
         4         771         772         797         796
         4         772         773         798         797
         4         773         774         799         798
         4         775         776         801         800
         4         776         777         802         801
         4         777         778         803         802
         4         778         779         804         803
         4         779         780         805         804
         4         780         781         806         805
         4         781         782         807         806
         4         782         783         808         807
         4         783         784         809         808
         4         784         785         810         809
         4         785         786         811         810
         4         786         787         812         811
         4         787         788         813         812
         4         788         789         814         813
         4         789         790         815         814
         4         790         791         816         815
         4         791         792         817         816
         4         792         793         818         817
         4         793         794         819         818
         4         794         795         820         819
         4         795         796         821         820
         4         796         797         822         821
         4         797         798         823         822
         4         798         799         824         823
         4         800         801         826         825
         4         801         802         827         826
         4         802         803         828         827
         4         803         804         829         828
         4         804         805         830         829
         4         805         806         831         830
         4         806         807         832         831
         4         807         808         833         832
         4         808         809         834         833
         4         809         810         835         834
         4         810         811         836         835
         4         811         812         837         836
         4         812         813         838         837
         4         813         814         839         838
         4         814         815         840         839
         4         815         816         841         840
         4         816         817         842         841
         4         817         818         843         842
         4         818         819         844         843
         4         819         820         845         844
         4         820         821         846         845
         4         821         822         847         846
         4         822         823         848         847
         4         823         824         849         848
         4         825         826         851         850
         4         826         827         852         851
         4         827         828         853         852
         4         828         829         854         853
         4         829         830         855         854
         4         830         831         856         855
         4         831         832         857         856
         4         832         833         858         857
         4         833         834         859         858
         4         834         835         860         859
         4         835         836         861         860
         4         836         837         862         861
         4         837         838         863         862
         4         838         839         864         863
         4         839         840         865         864
         4         840         841         866         865
         4         841         842         867         866
         4         842         843         868         867
         4         843         844         869         868
         4         844         845         870         869
         4         845         846         871         870
         4         846         847         872         871
         4         847         848         873         872
         4         848         849         874         873
         4         850         851         876         875
         4         851         852         877         876
         4         852         853         878         877
         4         853         854         879         878
         4         854         855         880         879
         4         855         856         881         880
         4         856         857         882         881
         4         857         858         883         882
         4         858         859         884         883
         4         859         860         885         884
         4         860         861         886         885
         4         861         862         887         886
         4         862         863         888         887
         4         863         864         889         888
         4         864         865         890         889
         4         865         866         891         890
         4         866         867         892         891
         4         867         868         893         892
         4         868         869         894         893
         4         869         870         895         894
         4         870         871         896         895
         4         871         872         897         896
         4         872         873         898         897
         4         873         874         899         898
         4         875         876         901         900
         4         876         877         902         901
         4         877         878         903         902
         4         878         879         904         903
         4         879         880         905         904
         4         880         881         906         905
         4         881         882         907         906
         4         882         883         908         907
         4         883         884         909         908
         4         884         885         910         909
         4         885         886         911         910
         4         886         887         912         911
         4         887         888         913         912
         4         888         889         914         913
         4         889         890         915         914
         4         890         891         916         915
         4         891         892         917         916
         4         892         893         918         917
         4         893         894         919         918
         4         894         895         920         919
         4         895         896         921         920
         4         896         897         922         921
         4         897         898         923         922
         4         898         899         924         923
         4         900         901         926         925
         4         901         902         927         926
         4         902         903         928         927
         4         903         904         929         928
         4         904         905         930         929
         4         905         906         931         930
         4         906         907         932         931
         4         907         908         933         932
         4         908         909         934         933
         4         909         910         935         934
         4         910         911         936         935
         4         911         912         937         936
         4         912         913         938         937
         4         913         914         939         938
         4         914         915         940         939
         4         915         916         941         940
         4         916         917         942         941
         4         917         918         943         942
         4         918         919         944         943
         4         919         920         945         944
         4         920         921         946         945
         4         921         922         947         946
         4         922         923         948         947
         4         923         924         949         948
         4         925         926         951         950
         4         926         927         952         951
         4         927         928         953         952
         4         928         929         954         953
         4         929         930         955         954
         4         930         931         956         955
         4         931         932         957         956
         4         932         933         958         957
         4         933         934         959         958
         4         934         935         960         959
         4         935         936         961         960
         4         936         937         962         961
         4         937         938         963         962
         4         938         939         964         963
         4         939         940         965         964
         4         940         941         966         965
         4         941         942         967         966
         4         942         943         968         967
         4         943         944         969         968
         4         944         945         970         969
         4         945         946         971         970
         4         946         947         972         971
         4         947         948         973         972
         4         948         949         974         973
         4         950         951         976         975
         4         951         952         977         976
         4         952         953         978         977
         4         953         954         979         978
         4         954         955         980         979
         4         955         956         981         980
         4         956         957         982         981
         4         957         958         983         982
         4         958         959         984         983
         4         959         960         985         984
         4         960         961         986         985
         4         961         962         987         986
         4         962         963         988         987
         4         963         964         989         988
         4         964         965         990         989
         4         965         966         991         990
         4         966         967         992         991
         4         967         968         993         992
         4         968         969         994         993
         4         969         970         995         994
         4         970         971         996         995
         4         971         972         997         996
         4         972         973         998         997
         4         973         974         999         998
         4         975         976        1001        1000
         4         976         977        1002        1001
         4         977         978        1003        1002
         4         978         979        1004        1003
         4         979         980        1005        1004
         4         980         981        1006        1005
         4         981         982        1007        1006
         4         982         983        1008        1007
         4         983         984        1009        1008
         4         984         985        1010        1009
         4         985         986        1011        1010
         4         986         987        1012        1011
         4         987         988        1013        1012
         4         988         989        1014        1013
         4         989         990        1015        1014
         4         990         991        1016        1015
         4         991         992        1017        1016
         4         992         993        1018        1017
         4         993         994        1019        1018
         4         994         995        1020        1019
         4         995         996        1021        1020
         4         996         997        1022        1021
         4         997         998        1023        1022
         4         998         999        1024        1023
         4        1000        1001        1026        1025
         4        1001        1002        1027        1026
         4        1002        1003        1028        1027
         4        1003        1004        1029        1028
         4        1004        1005        1030        1029
         4        1005        1006        1031        1030
         4        1006        1007        1032        1031
         4        1007        1008        1033        1032
         4        1008        1009        1034        1033
         4        1009        1010        1035        1034
         4        1010        1011        1036        1035
         4        1011        1012        1037        1036
         4        1012        1013        1038        1037
         4        1013        1014        1039        1038
         4        1014        1015        1040        1039
         4        1015        1016        1041        1040
         4        1016        1017        1042        1041
         4        1017        1018        1043        1042
         4        1018        1019        1044        1043
         4        1019        1020        1045        1044
         4        1020        1021        1046        1045
         4        1021        1022        1047        1046
         4        1022        1023        1048        1047
         4        1023        1024        1049        1048
         4        1025        1026        1051        1050
         4        1026        1027        1052        1051
         4        1027        1028        1053        1052
         4        1028        1029        1054        1053
         4        1029        1030        1055        1054
         4        1030        1031        1056        1055
         4        1031        1032        1057        1056
         4        1032        1033        1058        1057
         4        1033        1034        1059        1058
         4        1034        1035        1060        1059
         4        1035        1036        1061        1060
         4        1036        1037        1062        1061
         4        1037        1038        1063        1062
         4        1038        1039        1064        1063
         4        1039        1040        1065        1064
         4        1040        1041        1066        1065
         4        1041        1042        1067        1066
         4        1042        1043        1068        1067
         4        1043        1044        1069        1068
         4        1044        1045        1070        1069
         4        1045        1046        1071        1070
         4        1046        1047        1072        1071
         4        1047        1048        1073        1072
         4        1048        1049        1074        1073
         4        1050        1051        1076        1075
         4        1051        1052        1077        1076
         4        1052        1053        1078        1077
         4        1053        1054        1079        1078
         4        1054        1055        1080        1079
         4        1055        1056        1081        1080
         4        1056        1057        1082        1081
         4        1057        1058        1083        1082
         4        1058        1059        1084        1083
         4        1059        1060        1085        1084
         4        1060        1061        1086        1085
         4        1061        1062        1087        1086
         4        1062        1063        1088        1087
         4        1063        1064        1089        1088
         4        1064        1065        1090        1089
         4        1065        1066        1091        1090
         4        1066        1067        1092        1091
         4        1067        1068        1093        1092
         4        1068        1069        1094        1093
         4        1069        1070        1095        1094
         4        1070        1071        1096        1095
         4        1071        1072        1097        1096
         4        1072        1073        1098        1097
         4        1073        1074        1099        1098
         4        1075        1076        1101        1100
         4        1076        1077        1102        1101
         4        1077        1078        1103        1102
         4        1078        1079        1104        1103
         4        1079        1080        1105        1104
         4        1080        1081        1106        1105
         4        1081        1082        1107        1106
         4        1082        1083        1108        1107
         4        1083        1084        1109        1108
         4        1084        1085        1110        1109
         4        1085        1086        1111        1110
         4        1086        1087        1112        1111
         4        1087        1088        1113        1112
         4        1088        1089        1114        1113
         4        1089        1090        1115        1114
         4        1090        1091        1116        1115
         4        1091        1092        1117        1116
         4        1092        1093        1118        1117
         4        1093        1094        1119        1118
         4        1094        1095        1120        1119
         4        1095        1096        1121        1120
         4        1096        1097        1122        1121
         4        1097        1098        1123        1122
         4        1098        1099        1124        1123
         4        1100        1101        1126        1125
         4        1101        1102        1127        1126
         4        1102        1103        1128        1127
         4        1103        1104        1129        1128
         4        1104        1105        1130        1129
         4        1105        1106        1131        1130
         4        1106        1107        1132        1131
         4        1107        1108        1133        1132
         4        1108        1109        1134        1133
         4        1109        1110        1135        1134
         4        1110        1111        1136        1135
         4        1111        1112        1137        1136
         4        1112        1113        1138        1137
         4        1113        1114        1139        1138
         4        1114        1115        1140        1139
         4        1115        1116        1141        1140
         4        1116        1117        1142        1141
         4        1117        1118        1143        1142
         4        1118        1119        1144        1143
         4        1119        1120        1145        1144
         4        1120        1121        1146        1145
         4        1121        1122        1147        1146
         4        1122        1123        1148        1147
         4        1123        1124        1149        1148
         4        1125        1126        1151        1150
         4        1126        1127        1152        1151
         4        1127        1128        1153        1152
         4        1128        1129        1154        1153
         4        1129        1130        1155        1154
         4        1130        1131        1156        1155
         4        1131        1132        1157        1156
         4        1132        1133        1158        1157
         4        1133        1134        1159        1158
         4        1134        1135        1160        1159
         4        1135        1136        1161        1160
         4        1136        1137        1162        1161
         4        1137        1138        1163        1162
         4        1138        1139        1164        1163
         4        1139        1140        1165        1164
         4        1140        1141        1166        1165
         4        1141        1142        1167        1166
         4        1142        1143        1168        1167
         4        1143        1144        1169        1168
         4        1144        1145        1170        1169
         4        1145        1146        1171        1170
         4        1146        1147        1172        1171
         4        1147        1148        1173        1172
         4        1148        1149        1174        1173
         4        1150        1151        1176        1175
         4        1151        1152        1177        1176
         4        1152        1153        1178        1177
         4        1153        1154        1179        1178
         4        1154        1155        1180        1179
         4        1155        1156        1181        1180
         4        1156        1157        1182        1181
         4        1157        1158        1183        1182
         4        1158        1159        1184        1183
         4        1159        1160        1185        1184
         4        1160        1161        1186        1185
         4        1161        1162        1187        1186
         4        1162        1163        1188        1187
         4        1163        1164        1189        1188
         4        1164        1165        1190        1189
         4        1165        1166        1191        1190
         4        1166        1167        1192        1191
         4        1167        1168        1193        1192
         4        1168        1169        1194        1193
         4        1169        1170        1195        1194
         4        1170        1171        1196        1195
         4        1171        1172        1197        1196
         4        1172        1173        1198        1197
         4        1173        1174        1199        1198
         4        1175        1176        1201        1200
         4        1176        1177        1202        1201
         4        1177        1178        1203        1202
         4        1178        1179        1204        1203
         4        1179        1180        1205        1204
         4        1180        1181        1206        1205
         4        1181        1182        1207        1206
         4        1182        1183        1208        1207
         4        1183        1184        1209        1208
         4        1184        1185        1210        1209
         4        1185        1186        1211        1210
         4        1186        1187        1212        1211
         4        1187        1188        1213        1212
         4        1188        1189        1214        1213
         4        1189        1190        1215        1214
         4        1190        1191        1216        1215
         4        1191        1192        1217        1216
         4        1192        1193        1218        1217
         4        1193        1194        1219        1218
         4        1194        1195        1220        1219
         4        1195        1196        1221        1220
         4        1196        1197        1222        1221
         4        1197        1198        1223        1222
         4        1198        1199        1224        1223
CELL_TYPES       1152
9
9
9
9
9
9
9
9
9
9
9
9
9
9
9
9
9
9
9
9
9
9
9
9
9
9
9
9
9
9
9
9
9
9
9
9
9
9
9
9
9
9
9
9
9
9
9
9
9
9
9
9
9
9
9
9
9
9
9
9
9
9
9
9
9
9
9
9
9
9
9
9
9
9
9
9
9
9
9
9
9
9
9
9
9
9
9
9
9
9
9
9
9
9
9
9
9
9
9
9
9
9
9
9
9
9
9
9
9
9
9
9
9
9
9
9
9
9
9
9
9
9
9
9
9
9
9
9
9
9
9
9
9
9
9
9
9
9
9
9
9
9
9
9
9
9
9
9
9
9
9
9
9
9
9
9
9
9
9
9
9
9
9
9
9
9
9
9
9
9
9
9
9
9
9
9
9
9
9
9
9
9
9
9
9
9
9
9
9
9
9
9
9
9
9
9
9
9
9
9
9
9
9
9
9
9
9
9
9
9
9
9
9
9
9
9
9
9
9
9
9
9
9
9
9
9
9
9
9
9
9
9
9
9
9
9
9
9
9
9
9
9
9
9
9
9
9
9
9
9
9
9
9
9
9
9
9
9
9
9
9
9
9
9
9
9
9
9
9
9
9
9
9
9
9
9
9
9
9
9
9
9
9
9
9
9
9
9
9
9
9
9
9
9
9
9
9
9
9
9
9
9
9
9
9
9
9
9
9
9
9
9
9
9
9
9
9
9
9
9
9
9
9
9
9
9
9
9
9
9
9
9
9
9
9
9
9
9
9
9
9
9
9
9
9
9
9
9
9
9
9
9
9
9
9
9
9
9
9
9
9
9
9
9
9
9
9
9
9
9
9
9
9
9
9
9
9
9
9
9
9
9
9
9
9
9
9
9
9
9
9
9
9
9
9
9
9
9
9
9
9
9
9
9
9
9
9
9
9
9
9
9
9
9
9
9
9
9
9
9
9
9
9
9
9
9
9
9
9
9
9
9
9
9
9
9
9
9
9
9
9
9
9
9
9
9
9
9
9
9
9
9
9
9
9
9
9
9
9
9
9
9
9
9
9
9
9
9
9
9
9
9
9
9
9
9
9
9
9
9
9
9
9
9
9
9
9
9
9
9
9
9
9
9
9
9
9
9
9
9
9
9
9
9
9
9
9
9
9
9
9
9
9
9
9
9
9
9
9
9
9
9
9
9
9
9
9
9
9
9
9
9
9
9
9
9
9
9
9
9
9
9
9
9
9
9
9
9
9
9
9
9
9
9
9
9
9
9
9
9
9
9
9
9
9
9
9
9
9
9
9
9
9
9
9
9
9
9
9
9
9
9
9
9
9
9
9
9
9
9
9
9
9
9
9
9
9
9
9
9
9
9
9
9
9
9
9
9
9
9
9
9
9
9
9
9
9
9
9
9
9
9
9
9
9
9
9
9
9
9
9
9
9
9
9
9
9
9
9
9
9
9
9
9
9
9
9
9
9
9
9
9
9
9
9
9
9
9
9
9
9
9
9
9
9
9
9
9
9
9
9
9
9
9
9
9
9
9
9
9
9
9
9
9
9
9
9
9
9
9
9
9
9
9
9
9
9
9
9
9
9
9
9
9
9
9
9
9
9
9
9
9
9
9
9
9
9
9
9
9
9
9
9
9
9
9
9
9
9
9
9
9
9
9
9
9
9
9
9
9
9
9
9
9
9
9
9
9
9
9
9
9
9
9
9
9
9
9
9
9
9
9
9
9
9
9
9
9
9
9
9
9
9
9
9
9
9
9
9
9
9
9
9
9
9
9
9
9
9
9
9
9
9
9
9
9
9
9
9
9
9
9
9
9
9
9
9
9
9
9
9
9
9
9
9
9
9
9
9
9
9
9
9
9
9
9
9
9
9
9
9
9
9
9
9
9
9
9
9
9
9
9
9
9
9
9
9
9
9
9
9
9
9
9
9
9
9
9
9
9
9
9
9
9
9
9
9
9
9
9
9
9
9
9
9
9
9
9
9
9
9
9
9
9
9
9
9
9
9
9
9
9
9
9
9
9
9
9
9
9
9
9
9
9
9
9
9
9
9
9
9
9
9
9
9
9
9
9
9
9
9
9
9
9
9
9
9
9
9
9
9
9
9
9
9
9
9
9
9
9
9
9
9
9
9
9
9
9
9
9
9
9
9
9
9
9
9
9
9
9
9
9
9
9
9
9
9
9
9
9
9
9
9
9
9
9
9
9
9
9
9
9
9
9
9
9
9
9
9
9
9
9
9
9
9
9
9
9
9
9
9
9
9
9
9
9
9
9
9
9
9
9
9
9
9
9
9
9
9
9
9
9
9
9
9
9
9
9
9
9
9
9
9
9
9
9
9
9
9
9
9
9
9
9
9
9
9
9
9
9
9
9
9
9
9
9
9
9
9
9
9
9
9
9
9
9
9
9
9
9
9
9
9
9
9
9
9
9
9
9
9
9
9
9
9
9
9
9
9
9
9
9
9
9
9
9
9
9
9
9
9
9
9
9
9
9
9
9
9
9
9
9
9
9
9
9
9
9
9
9
9
9
9
9
9
9
9
9
9
9
9
9
9
9
9
9
9
9
9
9
9
9
9
9
9
9
9
9
9
9
9
9
POINT_DATA      1225
SCALARS p double 
LOOKUP_TABLE default
  2.466764994845887E-015
 -2.418446340591013E-015
 -1.215546502247489E-014
 -2.695787013822487E-014
 -3.142468927122924E-014
 -2.618288878353879E-014
 -2.732123891099450E-014
 -2.633433195753441E-014
 -2.038316675233030E-014
 -1.317971706696560E-014
 -8.376242721160418E-015
 -1.062050018100993E-014
 -1.479089981895461E-014
 -1.643583162715135E-014
 -1.584398534068403E-014
 -1.571620297957668E-014
 -1.956147370783932E-014
 -2.592887290513611E-014
 -3.086521725800073E-014
 -3.220161849039514E-014
 -3.364243254071233E-014
 -3.443027112139348E-014
 -3.475315658248273E-014
 -3.512195348563408E-014
 -3.522937102835432E-014
 -5.983668009997622E-015
 -5.149665328980503E-015
 -1.327426963917239E-014
 -2.678813592176198E-014
 -2.843635529418362E-014
 -2.773817058236397E-014
 -2.985622594249243E-014
 -2.603386739057218E-014
 -2.108430448397873E-014
 -1.441041855091564E-014
 -9.931149944298708E-015
 -1.187357814812977E-014
 -1.429129269766780E-014
 -1.386578460145816E-014
 -1.483623898157157E-014
 -1.550504056475073E-014
 -1.893511911901209E-014
 -2.552176019366531E-014
 -3.071149921538164E-014
 -3.225321299806613E-014
 -3.309759778793088E-014
 -3.409606779279604E-014
 -3.469307851423316E-014
 -3.515132086153469E-014
 -3.538720222466553E-014
 -1.221356748947364E-014
 -7.278965304727325E-015
 -8.970958173388590E-015
 -2.142005749230736E-014
 -2.334528983627263E-014
 -2.416874619346529E-014
 -2.924963133833908E-014
 -2.739240851329582E-014
 -2.277480427144130E-014
 -1.640763610516121E-014
 -1.234351213189682E-014
 -1.223783798797445E-014
 -1.189895290659883E-014
 -1.170752972060818E-014
 -1.123447357524169E-014
 -1.505312693966007E-014
 -1.939863781005380E-014
 -2.535791165823384E-014
 -3.011739694757032E-014
 -3.140251170422246E-014
 -3.191748965627409E-014
 -3.355480631230680E-014
 -3.474299519476414E-014
 -3.545171871062144E-014
 -3.584885422706852E-014
  0.000000000000000E+000
 -5.782989182755777E-015
 -7.725912418358333E-015
 -1.510615347986582E-014
 -2.518502453547160E-014
 -2.417671998452874E-014
 -2.305378305350618E-014
 -2.478829091005681E-014
 -2.506196168376905E-014
 -1.870149919242790E-014
 -1.366462773626569E-014
 -1.265329019293126E-014
 -1.035287211083178E-014
 -1.032586484295548E-014
 -1.211457045211832E-014
 -1.536091479580698E-014
 -1.982493599161255E-014
 -2.520170365926556E-014
 -2.885202055236384E-014
 -3.037176026952386E-014
 -3.148725439683366E-014
 -3.336183987626654E-014
 -3.462495002047064E-014
 -3.555190415059813E-014
 -3.574285211568345E-014
  0.000000000000000E+000
 -4.581046897409339E-015
 -1.169208007344687E-014
 -1.524666304198080E-014
 -1.862554183602161E-014
 -1.857700516662153E-014
 -1.995569189871626E-014
 -2.295554112406449E-014
 -2.338784752871339E-014
 -1.668238341053721E-014
 -1.470492081146285E-014
 -1.429977622926501E-014
 -1.217726234184260E-014
 -1.290408120802057E-014
 -1.408432075320129E-014
 -1.497738842966640E-014
 -1.962379450634919E-014
 -2.497179330202616E-014
 -2.787936253073890E-014
 -2.986453225063976E-014
 -3.202932738843349E-014
 -3.346665031193318E-014
 -3.457253949068601E-014
 -3.544460733467157E-014
 -3.573509215221309E-014
  0.000000000000000E+000
 -6.862414104441392E-015
 -1.378144682374924E-014
 -1.181964997470628E-014
 -1.321492083356552E-014
 -1.662824589369108E-014
 -1.877879617061756E-014
 -2.199071514439881E-014
 -2.135721130559542E-014
 -1.687393230301658E-014
 -1.497395903415842E-014
 -1.511281477734190E-014
 -1.456125655720718E-014
 -1.624551021771159E-014
 -1.707155407046175E-014
 -1.666515099573368E-014
 -2.068766954143978E-014
 -2.480193138104731E-014
 -2.777762561123592E-014
 -3.043761907750507E-014
 -3.278536599252627E-014
 -3.403365617340136E-014
 -3.463797780381563E-014
 -3.518897192769131E-014
 -3.566730814405970E-014
  0.000000000000000E+000
 -7.119226493391579E-015
 -1.133939899030669E-014
 -1.190773293671538E-014
 -1.294152175071120E-014
 -1.819633309468842E-014
 -1.865503235244926E-014
 -1.938240474650465E-014
 -2.195814595033250E-014
 -1.989189963817487E-014
 -1.644238897014879E-014
 -1.689545389733890E-014
 -1.714423191627362E-014
 -1.777965475195564E-014
 -2.018149126489620E-014
 -2.029303953499132E-014
 -2.225175181071020E-014
 -2.547878731108102E-014
 -2.857354818756783E-014
 -3.157864327772515E-014
 -3.327494860261628E-014
 -3.424073014943711E-014
 -3.520397474467282E-014
 -3.526890794474509E-014
 -3.523226980029876E-014
  0.000000000000000E+000
 -5.182950573424515E-015
 -9.413965397246486E-015
 -1.241434959049296E-014
 -1.499365455068334E-014
 -1.736838955550650E-014
 -1.865776224075031E-014
 -1.940659231959442E-014
 -2.213501847895638E-014
 -1.904614051904251E-014
 -1.906904488591726E-014
 -1.976269142353889E-014
 -1.907815528436619E-014
 -1.929414194154358E-014
 -2.262798629323847E-014
 -2.458379649908877E-014
 -2.623818738301657E-014
 -2.631127956037250E-014
 -2.884645389977020E-014
 -3.151671700593858E-014
 -3.324868339667481E-014
 -3.475238840536171E-014
 -3.523523748857682E-014
 -3.519835761389489E-014
 -3.521035406652057E-014
  0.000000000000000E+000
 -5.104760336138566E-015
 -8.277665454084655E-015
 -1.145328068245340E-014
 -1.427836207522523E-014
 -1.746513405685095E-014
 -2.025433717462418E-014
 -1.976956140789385E-014
 -2.109622043516448E-014
 -2.174681221352691E-014
 -2.156307484082090E-014
 -2.169416761943109E-014
 -2.059566313078154E-014
 -2.194158554207958E-014
 -2.410028978491649E-014
 -2.646592865458034E-014
 -2.842372682751385E-014
 -2.847303956374071E-014
 -2.974222576239617E-014
 -3.158532996840239E-014
 -3.306706480284689E-014
 -3.420588680395718E-014
 -3.465149129954826E-014
 -3.481368752132347E-014
 -3.498574011402582E-014
  0.000000000000000E+000
 -3.634591839648974E-015
 -6.441039749699316E-015
 -9.722867967156787E-015
 -1.170554158387160E-014
 -1.549657822009021E-014
 -1.963984776024566E-014
 -2.125781662436909E-014
 -2.074192978660039E-014
 -2.200238637963749E-014
 -2.166249592921671E-014
 -2.183640583150075E-014
 -2.188480077346362E-014
 -2.259747089852187E-014
 -2.533316843459817E-014
 -2.724918181061771E-014
 -2.907172128992678E-014
 -2.974136809221161E-014
 -3.033531119633654E-014
 -3.187675279451979E-014
 -3.271357958230091E-014
 -3.333801778772884E-014
 -3.382357561816579E-014
 -3.417877240752439E-014
 -3.442652721429675E-014
  0.000000000000000E+000
 -2.405628709311970E-015
 -5.308269822250383E-015
 -9.029193461290310E-015
 -1.118399273474023E-014
 -1.361249617988324E-014
 -1.881731050635802E-014
 -2.160500969783189E-014
 -2.184146747325914E-014
 -2.116305465130078E-014
 -2.128595184197141E-014
 -2.235567615604742E-014
 -2.302214610172832E-014
 -2.457042368267733E-014
 -2.536083670281015E-014
 -2.535817722567095E-014
 -2.797633511027880E-014
 -3.019384217811450E-014
 -3.092651947472038E-014
 -3.158996321945724E-014
 -3.175085802718803E-014
 -3.256171138247081E-014
 -3.315960525620688E-014
 -3.352405475379751E-014
 -3.372722377746144E-014
  0.000000000000000E+000
 -3.581621887389304E-015
 -6.189202930595455E-015
 -7.886833872874548E-015
 -1.088187057999660E-014
 -1.601810025625847E-014
 -1.989117995800122E-014
 -2.280316705763001E-014
 -2.254338326216041E-014
 -2.123937876933208E-014
 -2.239347120366200E-014
 -2.418769797623661E-014
 -2.500763798484935E-014
 -2.570783921600162E-014
 -2.605820559419488E-014
 -2.642845622080498E-014
 -2.760760118414105E-014
 -2.933570273581044E-014
 -3.095854708027703E-014
 -3.126114497264052E-014
 -3.105849623512461E-014
 -3.203699587259937E-014
 -3.282467369835660E-014
 -3.325032258860233E-014
 -3.321710350685569E-014
  0.000000000000000E+000
 -3.182006260288483E-015
 -5.354962842666205E-015
 -7.699857104030314E-015
 -1.123197198058376E-014
 -1.571146735323586E-014
 -1.921853622202571E-014
 -2.239925269052958E-014
 -2.320539093728479E-014
 -2.262539252291642E-014
 -2.391410557633066E-014
 -2.551570649847709E-014
 -2.552214276226901E-014
 -2.497953430106189E-014
 -2.640637919156505E-014
 -2.826138651629108E-014
 -2.870565775185265E-014
 -2.960633472074067E-014
 -3.046912804069596E-014
 -3.077865730264256E-014
 -3.135166078069694E-014
 -3.188035253618902E-014
 -3.265309027734961E-014
 -3.292583903193936E-014
 -3.302040099509963E-014
  0.000000000000000E+000
 -2.178406352547924E-015
 -4.790012301938630E-015
 -7.154284179299613E-015
 -1.083338258173599E-014
 -1.458262073126790E-014
 -1.816805651874369E-014
 -2.108252188185914E-014
 -2.268175614878934E-014
 -2.464825756033045E-014
 -2.544526081404304E-014
 -2.584888720132961E-014
 -2.526327455520332E-014
 -2.583385618273226E-014
 -2.741335153319200E-014
 -2.884434124106874E-014
 -3.001639109842561E-014
 -3.085025749378408E-014
 -3.088662270912661E-014
 -3.115323438972121E-014
 -3.205868479239577E-014
 -3.195823269367165E-014
 -3.232083720988767E-014
 -3.259592923640625E-014
 -3.273187065136991E-014
  0.000000000000000E+000
 -2.150216289609265E-015
 -5.258315264074212E-015
 -7.263394524765032E-015
 -1.038918300810143E-014
 -1.455990142084649E-014
 -1.757112732137930E-014
 -1.968400534619431E-014
 -2.196927519189645E-014
 -2.419624866677575E-014
 -2.570839302980340E-014
 -2.570529775818541E-014
 -2.642203898194000E-014
 -2.822290219157830E-014
 -2.892429450093248E-014
 -2.979388226956966E-014
 -3.046608244345882E-014
 -3.140209112014377E-014
 -3.199199461527430E-014
 -3.179225242175924E-014
 -3.192860367661981E-014
 -3.207573083767837E-014
 -3.204838484348210E-014
 -3.232595304379418E-014
 -3.243002097389430E-014
  0.000000000000000E+000
 -2.132902505558964E-015
 -5.122978684406140E-015
 -8.223517162624827E-015
 -1.038587243535313E-014
 -1.387649060061086E-014
 -1.718178982762190E-014
 -1.874350229146741E-014
 -2.109786639880570E-014
 -2.300513036456574E-014
 -2.502373957036375E-014
 -2.595504312915359E-014
 -2.743379809661279E-014
 -2.819752176218262E-014
 -2.953821723148613E-014
 -3.006849864322691E-014
 -3.095844825018632E-014
 -3.193996054800451E-014
 -3.222179495339735E-014
 -3.229596881307329E-014
 -3.182916310659017E-014
 -3.206417710254613E-014
 -3.226629850266465E-014
 -3.221098123233852E-014
 -3.221090423360903E-014
  0.000000000000000E+000
 -2.486658789084245E-015
 -5.625351425318503E-015
 -8.289255219388882E-015
 -1.082278379491035E-014
 -1.322172920225662E-014
 -1.621497643686588E-014
 -1.857748392988429E-014
 -2.063862376245035E-014
 -2.259278957744056E-014
 -2.439967391169901E-014
 -2.646147156413175E-014
 -2.782333604847787E-014
 -2.812423881251081E-014
 -2.886032643928582E-014
 -3.018888543082234E-014
 -3.129605990839357E-014
 -3.213430039284564E-014
 -3.264024991791659E-014
 -3.300670448850873E-014
 -3.261308193496751E-014
 -3.221946765007497E-014
 -3.215777920029626E-014
 -3.205563442183240E-014
 -3.197231750912290E-014
  0.000000000000000E+000
 -2.657475236823874E-015
 -5.764507143510765E-015
 -8.453692694340907E-015
 -1.070887425111981E-014
 -1.345439821347820E-014
 -1.604101555535825E-014
 -1.840149665596276E-014
 -2.037382577575850E-014
 -2.225453608715666E-014
 -2.393784173841844E-014
 -2.573109907993503E-014
 -2.716568018567059E-014
 -2.856189625832946E-014
 -2.862092474263787E-014
 -3.045432546131610E-014
 -3.175192172356194E-014
 -3.223268157628263E-014
 -3.236601811642652E-014
 -3.278147499805381E-014
 -3.229119623769779E-014
 -3.177745249392959E-014
 -3.162514592557168E-014
 -3.169957555720343E-014
 -3.165185164940627E-014
  0.000000000000000E+000
 -2.825777553367194E-015
 -5.797271408065887E-015
 -8.550688713644638E-015
 -1.079566304813318E-014
 -1.372088888643047E-014
 -1.616930641191838E-014
 -1.753439060766717E-014
 -1.945640545520579E-014
 -2.117602529349321E-014
 -2.273952206460441E-014
 -2.430538984067512E-014
 -2.614506333943051E-014
 -2.788687828072754E-014
 -2.964479046691622E-014
 -3.088573272299912E-014
 -3.174181481974281E-014
 -3.202577785338409E-014
 -3.182885283005476E-014
 -3.158191229500685E-014
 -3.131716850017127E-014
 -3.121319591866968E-014
 -3.134912576209253E-014
 -3.123309960634038E-014
 -3.122401816235260E-014
  0.000000000000000E+000
 -3.058336773743752E-015
 -5.873571577390788E-015
 -8.464172823588987E-015
 -1.098128606777684E-014
 -1.336576208743800E-014
 -1.564910545625040E-014
 -1.744529353583730E-014
 -1.880756197805134E-014
 -2.034488888508123E-014
 -2.218207606524856E-014
 -2.409673737843268E-014
 -2.568734881116922E-014
 -2.703740573939305E-014
 -2.916183582201727E-014
 -2.983469728107821E-014
 -3.069488011407790E-014
 -3.151678759939436E-014
 -3.092551996205417E-014
 -3.091417138350158E-014
 -3.112763495967592E-014
 -3.119116462752977E-014
 -3.088705124880050E-014
 -3.069538596692681E-014
 -3.065165552790590E-014
  0.000000000000000E+000
 -2.863368980309250E-015
 -5.593462501146057E-015
 -8.271189685500982E-015
 -1.075552585526152E-014
 -1.291272675366875E-014
 -1.486472118661717E-014
 -1.700505303319658E-014
 -1.870696754714684E-014
 -2.036899976165758E-014
 -2.228108645858620E-014
 -2.439406114017172E-014
 -2.576864101623206E-014
 -2.744269947209801E-014
 -2.867450202545430E-014
 -2.920499898732787E-014
 -2.979128715291330E-014
 -2.985345946423430E-014
 -2.947327843250007E-014
 -2.948257421870550E-014
 -3.007986640477491E-014
 -3.030436364078389E-014
 -3.001154630600303E-014
 -2.996258292960828E-014
 -2.998996790681770E-014
  0.000000000000000E+000
 -2.671033590111161E-015
 -5.382484528577967E-015
 -8.017681554604465E-015
 -1.038970265059669E-014
 -1.266060703444948E-014
 -1.434014495655527E-014
 -1.609280905276912E-014
 -1.825629360027122E-014
 -2.044527632336170E-014
 -2.272391106667818E-014
 -2.429377720564169E-014
 -2.618296643135454E-014
 -2.787831846023387E-014
 -2.896389789533992E-014
 -2.956522376984052E-014
 -2.931745719069581E-014
 -2.873441384753363E-014
 -2.841537813669286E-014
 -2.837870484764825E-014
 -2.881670641820949E-014
 -2.907562024344969E-014
 -2.900957429013604E-014
 -2.913233956226708E-014
 -2.920183298635177E-014
  0.000000000000000E+000
 -2.608202864057008E-015
 -5.144352756053145E-015
 -7.622466194587491E-015
 -1.009022352793858E-014
 -1.224696359337063E-014
 -1.412098317475005E-014
 -1.590813499078812E-014
 -1.775825889198179E-014
 -2.013566059168172E-014
 -2.228606377654889E-014
 -2.433304854102434E-014
 -2.552213562652162E-014
 -2.701035668816831E-014
 -2.848377534537998E-014
 -2.935363532242777E-014
 -2.909909174034790E-014
 -2.831641125135934E-014
 -2.786509585699435E-014
 -2.785354920054426E-014
 -2.785209613138959E-014
 -2.800697793031165E-014
 -2.813069110857515E-014
 -2.833157268808047E-014
 -2.833383643216739E-014
  0.000000000000000E+000
 -2.502802220837239E-015
 -4.916954202102509E-015
 -7.140344198675478E-015
 -9.435560432304393E-015
 -1.170411799261702E-014
 -1.391085756331907E-014
 -1.551172183066750E-014
 -1.744912701948101E-014
 -1.925597283182335E-014
 -2.112420911561190E-014
 -2.320924524388406E-014
 -2.451962059153266E-014
 -2.553796338720476E-014
 -2.685913450068662E-014
 -2.815873838576855E-014
 -2.823171685879124E-014
 -2.769464808496321E-014
 -2.751159103295613E-014
 -2.748959436429951E-014
 -2.708296448987134E-014
 -2.687273437427577E-014
 -2.706935603921839E-014
 -2.734183132284104E-014
 -2.743032940570282E-014
  0.000000000000000E+000
 -2.397687697604935E-015
 -4.721259612836460E-015
 -6.846542948110103E-015
 -8.950092079797252E-015
 -1.109091206279527E-014
 -1.295586268192589E-014
 -1.470251108331545E-014
 -1.677781925799880E-014
 -1.851064873518459E-014
 -1.989584507312033E-014
 -2.157890068509828E-014
 -2.324126896722957E-014
 -2.420631381392612E-014
 -2.513517570787713E-014
 -2.616751536520897E-014
 -2.685392408276099E-014
 -2.681749597725314E-014
 -2.676771223736131E-014
 -2.681335717686476E-014
 -2.645515957711808E-014
 -2.595337184080658E-014
 -2.598747051474147E-014
 -2.626447443217551E-014
 -2.642382964673429E-014
  0.000000000000000E+000
 -2.351973328918006E-015
 -4.578998863332144E-015
 -6.706150824152899E-015
 -8.640209483716048E-015
 -1.061355615552626E-014
 -1.237017808129384E-014
 -1.398849574006393E-014
 -1.578539961839135E-014
 -1.770994692400229E-014
 -1.897604485861922E-014
 -2.015489571386102E-014
 -2.154810711112116E-014
 -2.274481810788602E-014
 -2.389913948220011E-014
 -2.494410520988852E-014
 -2.589549114417648E-014
 -2.611136035847519E-014
 -2.635685685164634E-014
 -2.590983050688184E-014
 -2.566795260497161E-014
 -2.549947343011852E-014
 -2.541746502283710E-014
 -2.553669199250077E-014
 -2.557958670944403E-014
  0.000000000000000E+000
 -2.260000442647562E-015
 -4.357051539976488E-015
 -6.464197415088377E-015
 -8.478664820070595E-015
 -1.034138208683093E-014
 -1.196023435604388E-014
 -1.362447922063645E-014
 -1.517789824424459E-014
 -1.670974360628070E-014
 -1.820168721444768E-014
 -1.934123455158595E-014
 -2.091730839050126E-014
 -2.205249120311253E-014
 -2.304741751634729E-014
 -2.440647713323532E-014
 -2.538368654184921E-014
 -2.568290082072135E-014
 -2.579536771311690E-014
 -2.542805028962854E-014
 -2.513133601450234E-014
 -2.502282774840864E-014
 -2.496455926703122E-014
 -2.494465439715796E-014
 -2.492979174832344E-014
  0.000000000000000E+000
 -2.113378936510090E-015
 -4.096579606196304E-015
 -6.217806246980940E-015
 -8.241784785806129E-015
 -9.866870614233873E-015
 -1.168661376461372E-014
 -1.349066440017609E-014
 -1.485953121396439E-014
 -1.611669871722989E-014
 -1.745690794091214E-014
 -1.888681098397679E-014
 -2.039317401650667E-014
 -2.187016182246263E-014
 -2.296630422146162E-014
 -2.382934779420945E-014
 -2.441119994107149E-014
 -2.480742799252349E-014
 -2.513292453882706E-014
 -2.484772779893510E-014
 -2.449252550834113E-014
 -2.438313722732257E-014
 -2.438318420298620E-014
 -2.436481497820901E-014
 -2.433740294944091E-014
  0.000000000000000E+000
 -1.967825042923700E-015
 -3.825752278866777E-015
 -5.965161297263919E-015
 -7.935293147415055E-015
 -9.497699986812932E-015
 -1.120635473084523E-014
 -1.306578431795228E-014
 -1.428634464178809E-014
 -1.557217184773093E-014
 -1.719956389242842E-014
 -1.859994455217361E-014
 -1.987876183123298E-014
 -2.132990089722212E-014
 -2.243986229156678E-014
 -2.321857068672074E-014
 -2.368036720202466E-014
 -2.421561011698304E-014
 -2.434950930936209E-014
 -2.411271681217689E-014
 -2.392444292817813E-014
 -2.375848807624677E-014
 -2.385014035665148E-014
 -2.380788176558662E-014
 -2.378189983758164E-014
  0.000000000000000E+000
 -2.002583285704109E-015
 -3.828536297758520E-015
 -5.790869016416854E-015
 -7.667319112037235E-015
 -9.291341256071757E-015
 -1.097255384571743E-014
 -1.261266944117910E-014
 -1.397789330418022E-014
 -1.526747681321690E-014
 -1.693371667159586E-014
 -1.832646353728415E-014
 -1.943979415510060E-014
 -2.058924103925745E-014
 -2.162067223308867E-014
 -2.279920657018915E-014
 -2.353298631151637E-014
 -2.383692571022239E-014
 -2.379993534984673E-014
 -2.370929319746736E-014
 -2.365368067114644E-014
 -2.339849281057611E-014
 -2.329261992778698E-014
 -2.331012813340044E-014
 -2.332853403574596E-014
  0.000000000000000E+000
 -1.975765907007605E-015
 -3.970289444329053E-015
 -5.754244076467710E-015
 -7.506304436437259E-015
 -9.199759686972040E-015
 -1.085501155919536E-014
 -1.241628328381844E-014
 -1.385900155159978E-014
 -1.526780219891321E-014
 -1.672160717134748E-014
 -1.785798544036707E-014
 -1.897291997328682E-014
 -2.016864554507800E-014
 -2.113236622519221E-014
 -2.230262373406308E-014
 -2.296281428264612E-014
 -2.325722162772379E-014
 -2.324938652896170E-014
 -2.340021202736261E-014
 -2.325676938878094E-014
 -2.305795569277735E-014
 -2.295106993962004E-014
 -2.299182866240379E-014
 -2.298808137678256E-014
  0.000000000000000E+000
 -1.848979285483263E-015
 -3.803454584286807E-015
 -5.552519435445826E-015
 -7.230785218914914E-015
 -9.004892646047434E-015
 -1.069079622109980E-014
 -1.222932734044251E-014
 -1.386045988531202E-014
 -1.532622141338525E-014
 -1.639558609166692E-014
 -1.753147946051410E-014
 -1.874051198885312E-014
 -1.996488062249618E-014
 -2.115971838121389E-014
 -2.174526855553026E-014
 -2.224807276395847E-014
 -2.254343308316477E-014
 -2.281136872616260E-014
 -2.292146905126012E-014
 -2.269448524148838E-014
 -2.264405709055263E-014
 -2.268236147157483E-014
 -2.263948057191645E-014
 -2.261119309109949E-014
  0.000000000000000E+000
 -1.760471574249073E-015
 -3.704107119332311E-015
 -5.606905013274692E-015
 -7.285226156742816E-015
 -8.871428178739318E-015
 -1.043284894075997E-014
 -1.198828531079230E-014
 -1.338935551813590E-014
 -1.505383171289461E-014
 -1.629799612068120E-014
 -1.725253531675790E-014
 -1.867048028338979E-014
 -2.013181368345502E-014
 -2.095976348848851E-014
 -2.132126357081744E-014
 -2.157024875445784E-014
 -2.209856872938769E-014
 -2.213038588850435E-014
 -2.221246255924948E-014
 -2.227525543590723E-014
 -2.231350231561874E-014
 -2.227489990088633E-014
 -2.222478427193159E-014
 -2.218366578268823E-014
  0.000000000000000E+000
 -1.851333182959516E-015
 -3.658751079398304E-015
 -5.609021915726617E-015
 -7.332773726133833E-015
 -8.811649934789569E-015
 -1.017884007794988E-014
 -1.166829396656429E-014
 -1.306685513087881E-014
 -1.485122188359905E-014
 -1.626602939367948E-014
 -1.724070401513694E-014
 -1.871715409516328E-014
 -1.999788956525892E-014
 -2.053893762646021E-014
 -2.086081469167118E-014
 -2.109928575301237E-014
 -2.141097652140009E-014
 -2.142063658736521E-014
 -2.157058043396694E-014
 -2.175146529469735E-014
 -2.177491617240266E-014
 -2.174530232302761E-014
 -2.175637206148307E-014
 -2.174138726186615E-014
  0.000000000000000E+000
 -1.911427883936680E-015
 -3.700293273367394E-015
 -5.537833665945927E-015
 -7.204632145175550E-015
 -8.634396112615594E-015
 -1.007158702144189E-014
 -1.150453549188778E-014
 -1.300487267387343E-014
 -1.442027979214650E-014
 -1.584001100675071E-014
 -1.718666081297882E-014
 -1.827133523517006E-014
 -1.926477979620374E-014
 -1.990438968849625E-014
 -2.044018493164871E-014
 -2.078997395604963E-014
 -2.084974888807399E-014
 -2.099621574715977E-014
 -2.106594082595573E-014
 -2.123291051076880E-014
 -2.129507239389838E-014
 -2.130215625588777E-014
 -2.128899655446738E-014
 -2.128844151650008E-014
  0.000000000000000E+000
 -1.938043296808720E-015
 -3.765158855427369E-015
 -5.527015463884296E-015
 -7.196942789559472E-015
 -8.619027538762861E-015
 -9.991282591497909E-015
 -1.133614291512020E-014
 -1.261193205736839E-014
 -1.400254503255229E-014
 -1.527729089228965E-014
 -1.651349839927622E-014
 -1.752308025901050E-014
 -1.832472433969339E-014
 -1.906752316732366E-014
 -1.976815688505258E-014
 -2.017343450996823E-014
 -2.040892000611625E-014
 -2.048542866066300E-014
 -2.060699922264357E-014
 -2.080480513364308E-014
 -2.090679682705125E-014
 -2.086756511278467E-014
 -2.082991255835244E-014
 -2.082388099640305E-014
  0.000000000000000E+000
 -1.877016520725799E-015
 -3.750529205187598E-015
 -5.547447364748892E-015
 -7.070950051262032E-015
 -8.577845465151156E-015
 -9.726814567906638E-015
 -1.102293696310186E-014
 -1.223561397776527E-014
 -1.353868712215326E-014
 -1.472272714027740E-014
 -1.569696899588888E-014
 -1.661614443857280E-014
 -1.743165275596582E-014
 -1.820183353921550E-014
 -1.884922549502096E-014
 -1.944411370974597E-014
 -1.976798874407099E-014
 -2.004149337964975E-014
 -2.016120448314265E-014
 -2.026602664109878E-014
 -2.036436822082780E-014
 -2.035109799064188E-014
 -2.034365849020368E-014
 -2.034722724067469E-014
  0.000000000000000E+000
 -1.720084214915559E-015
 -3.708270589387187E-015
 -5.377425381244266E-015
 -6.799984458210736E-015
 -8.137982529401800E-015
 -9.269315398700116E-015
 -1.058020677549171E-014
 -1.173419440599755E-014
 -1.293380232556156E-014
 -1.414307708158663E-014
 -1.501194828560550E-014
 -1.586399395060660E-014
 -1.662211596419732E-014
 -1.734297992778187E-014
 -1.801860263908836E-014
 -1.861920229340152E-014
 -1.918924537394653E-014
 -1.955314498255511E-014
 -1.969166974740837E-014
 -1.975302405029659E-014
 -1.979885018677334E-014
 -1.984097401544378E-014
 -1.986883627706474E-014
 -1.988826869731846E-014
  0.000000000000000E+000
 -1.708918591983535E-015
 -3.555975830401689E-015
 -5.050137198812701E-015
 -6.393667233155287E-015
 -7.589547217755173E-015
 -8.837155711675000E-015
 -1.013740702032475E-014
 -1.125083007301794E-014
 -1.248474359979086E-014
 -1.377165994262714E-014
 -1.463558341753381E-014
 -1.534320722060196E-014
 -1.610012337019169E-014
 -1.678165256830721E-014
 -1.740422709214656E-014
 -1.810124394284408E-014
 -1.863767006458709E-014
 -1.888727778330454E-014
 -1.911562027905809E-014
 -1.923005874515658E-014
 -1.933241451262786E-014
 -1.940441119085812E-014
 -1.943783614614271E-014
 -1.945052378129693E-014
  0.000000000000000E+000
 -1.621397378923062E-015
 -3.309313383588013E-015
 -4.818925289162953E-015
 -6.041857826778087E-015
 -7.229861732828679E-015
 -8.525793106042100E-015
 -9.755319184910124E-015
 -1.094426377878097E-014
 -1.214638524436763E-014
 -1.327439699657796E-014
 -1.415265734745275E-014
 -1.488819175761520E-014
 -1.563711275114823E-014
 -1.631491679790665E-014
 -1.692700455561784E-014
 -1.760419372602835E-014
 -1.798453900309493E-014
 -1.826586272075519E-014
 -1.848205520705717E-014
 -1.866234083570824E-014
 -1.887360265660067E-014
 -1.895189527669783E-014
 -1.900170457834021E-014
 -1.901039275732264E-014
  0.000000000000000E+000
 -1.503645456700049E-015
 -3.114127068832497E-015
 -4.577995836063879E-015
 -5.854726646175565E-015
 -6.978736969546940E-015
 -8.127898252499252E-015
 -9.406437419832252E-015
 -1.067451301288009E-014
 -1.177608537564831E-014
 -1.273463191946433E-014
 -1.357896723559665E-014
 -1.432311049832501E-014
 -1.508381443496726E-014
 -1.576482299501318E-014
 -1.638565647848771E-014
 -1.690628306521750E-014
 -1.737802659329939E-014
 -1.770698819302663E-014
 -1.795104395572480E-014
 -1.816994301443905E-014
 -1.834731896539037E-014
 -1.847187848616925E-014
 -1.855340476094333E-014
 -1.857705674844130E-014
  0.000000000000000E+000
 -1.316090220461565E-015
 -2.755089129452942E-015
 -4.202028122544661E-015
 -5.547916258563750E-015
 -6.795468264598092E-015
 -7.985763261306715E-015
 -9.100693013043077E-015
 -1.023819996278843E-014
 -1.131935269407383E-014
 -1.227702624100359E-014
 -1.310036780064187E-014
 -1.385488100821407E-014
 -1.467803953863920E-014
 -1.534669491178092E-014
 -1.587928777379699E-014
 -1.638152436055649E-014
 -1.687125596397507E-014
 -1.721682916841553E-014
 -1.749215628658419E-014
 -1.772612841793957E-014
 -1.788946179909718E-014
 -1.805120100175495E-014
 -1.814639468777427E-014
 -1.816466288080849E-014
  0.000000000000000E+000
 -1.208281892028249E-015
 -2.448066844083073E-015
 -3.900019920368080E-015
 -5.236837760905844E-015
 -6.548306913721349E-015
 -7.784476222905625E-015
 -8.753143110175493E-015
 -9.805966589284025E-015
 -1.088371857919628E-014
 -1.182273500393682E-014
 -1.266801518668007E-014
 -1.345877058934947E-014
 -1.422883119018036E-014
 -1.491222286565398E-014
 -1.546203336776426E-014
 -1.601296205725509E-014
 -1.646652737771687E-014
 -1.679235901513021E-014
 -1.707009552227960E-014
 -1.730269890715602E-014
 -1.749654734177252E-014
 -1.765958248341161E-014
 -1.775417314007021E-014
 -1.777659165157113E-014
  0.000000000000000E+000
 -1.239046389571735E-015
 -2.461043245938675E-015
 -3.733181124809757E-015
 -5.042379119811540E-015
 -6.376704267578072E-015
 -7.482257918077796E-015
 -8.481720175280411E-015
 -9.562043813775137E-015
 -1.053250035618632E-014
 -1.145561965091504E-014
 -1.232140421782225E-014
 -1.310977795230532E-014
 -1.381296038643433E-014
 -1.447362007254520E-014
 -1.508302096544036E-014
 -1.563273523315872E-014
 -1.608426701129181E-014
 -1.642574406450213E-014
 -1.671830208716132E-014
 -1.694955142489955E-014
 -1.717479526833995E-014
 -1.731664985480937E-014
 -1.740925696086510E-014
 -1.744424131474093E-014
  0.000000000000000E+000
 -1.226501902799968E-015
 -2.536631013735070E-015
 -3.832572904072495E-015
 -4.980485192241550E-015
 -6.248180618545981E-015
 -7.333091613142504E-015
 -8.308775578106135E-015
 -9.317949147083458E-015
 -1.031341802036537E-014
 -1.122406922793459E-014
 -1.201911100098422E-014
 -1.283030078246031E-014
 -1.354453648359847E-014
 -1.421151830581294E-014
 -1.482324214989009E-014
 -1.532765064147296E-014
 -1.577204222129950E-014
 -1.615540157314998E-014
 -1.643935475663222E-014
 -1.668066120330577E-014
 -1.689587270508575E-014
 -1.705907822280949E-014
 -1.714740852979548E-014
 -1.717474531824964E-014
  0.000000000000000E+000
 -1.318722984111715E-015
 -2.466641556955576E-015
 -3.765093548626171E-015
 -4.987163022419224E-015
 -6.104370324678599E-015
 -7.252756840672385E-015
 -8.199462417655803E-015
 -9.100922506333804E-015
 -1.009560843620821E-014
 -1.103116957399412E-014
 -1.185786779174093E-014
 -1.260062258251806E-014
 -1.332455932458773E-014
 -1.401455491646532E-014
 -1.460222780330202E-014
 -1.507296133231404E-014
 -1.552742430068406E-014
 -1.592064145044407E-014
 -1.621605773182486E-014
 -1.648232467947082E-014
 -1.670051585903615E-014
 -1.685459942241640E-014
 -1.694731490046444E-014
 -1.697558571025610E-014
  0.000000000000000E+000
 -1.292394222795816E-015
 -2.474878197329189E-015
 -3.727673774844691E-015
 -5.022506010757225E-015
 -6.067184384466484E-015
 -7.073994326256647E-015
 -8.115783018420705E-015
 -8.980978741330566E-015
 -9.887608116121692E-015
 -1.087918481572792E-014
 -1.170499158505032E-014
 -1.246072794686335E-014
 -1.320016430017715E-014
 -1.385606670883160E-014
 -1.441625839010828E-014
 -1.491397738312051E-014
 -1.534291800532005E-014
 -1.573324545339537E-014
 -1.606118905857020E-014
 -1.632136893076284E-014
 -1.654732335688503E-014
 -1.671086324164900E-014
 -1.680569049376979E-014
 -1.683616410955412E-014
  0.000000000000000E+000
 -1.235870421810045E-015
 -2.488063555260079E-015
 -3.697007752710124E-015
 -5.005293208083952E-015
 -6.023000008980251E-015
 -6.938014250262398E-015
 -7.992852787914509E-015
 -8.868672768500421E-015
 -9.780156992280186E-015
 -1.074637806742422E-014
 -1.157716913379493E-014
 -1.236228064215670E-014
 -1.311500417365923E-014
 -1.376553466990882E-014
 -1.432182171185473E-014
 -1.484971942709426E-014
 -1.528259983164602E-014
 -1.564797078931346E-014
 -1.598426999686373E-014
 -1.624783639162048E-014
 -1.646050733159243E-014
 -1.661874279460787E-014
 -1.671802528124456E-014
 -1.675105158683327E-014
  0.000000000000000E+000
 -1.202256675486067E-015
 -2.489949839606111E-015
 -3.705250742058617E-015
 -5.001515791664371E-015
 -5.986792354573693E-015
 -6.888650408821678E-015
 -7.936883321587821E-015
 -8.821560531579439E-015
 -9.722978500209951E-015
 -1.066081776454733E-014
 -1.152833559544610E-014
 -1.232242573780418E-014
 -1.306113637221497E-014
 -1.373580045195522E-014
 -1.430531189358092E-014
 -1.481420662341557E-014
 -1.526943515027886E-014
 -1.563082808264921E-014
 -1.596869564023947E-014
 -1.623709926889397E-014
 -1.643465829226738E-014
 -1.658973593455325E-014
 -1.669117195274910E-014
 -1.672195745545030E-014
VECTORS u double 
    0.00000E+00        -0.44284E+00         0.00000E+00
    0.00000E+00        -0.41111E+00         0.00000E+00
    0.00000E+00        -0.37476E+00         0.00000E+00
    0.00000E+00        -0.33829E+00         0.00000E+00
    0.00000E+00        -0.30468E+00         0.00000E+00
    0.00000E+00        -0.27453E+00         0.00000E+00
    0.00000E+00        -0.24761E+00         0.00000E+00
    0.00000E+00        -0.22347E+00         0.00000E+00
    0.00000E+00        -0.20167E+00         0.00000E+00
    0.00000E+00        -0.18182E+00         0.00000E+00
    0.00000E+00        -0.16360E+00         0.00000E+00
    0.00000E+00        -0.14678E+00         0.00000E+00
    0.00000E+00        -0.13114E+00         0.00000E+00
    0.00000E+00        -0.11653E+00         0.00000E+00
    0.00000E+00        -0.10280E+00         0.00000E+00
    0.00000E+00        -0.89854E-01         0.00000E+00
    0.00000E+00        -0.77604E-01         0.00000E+00
    0.00000E+00        -0.65984E-01         0.00000E+00
    0.00000E+00        -0.54944E-01         0.00000E+00
    0.00000E+00        -0.44448E-01         0.00000E+00
    0.00000E+00        -0.34478E-01         0.00000E+00
    0.00000E+00        -0.25027E-01         0.00000E+00
    0.00000E+00        -0.16108E-01         0.00000E+00
    0.00000E+00        -0.77481E-02         0.00000E+00
    0.00000E+00         0.00000E+00         0.00000E+00
   -0.21284E-01        -0.43286E+00         0.00000E+00
   -0.30059E-02        -0.40120E+00         0.00000E+00
    0.73113E-02        -0.36508E+00         0.00000E+00
    0.11124E-01        -0.33026E+00         0.00000E+00
    0.12053E-01        -0.29840E+00         0.00000E+00
    0.11842E-01        -0.26967E+00         0.00000E+00
    0.11208E-01        -0.24383E+00         0.00000E+00
    0.10446E-01        -0.22050E+00         0.00000E+00
    0.96761E-02        -0.19930E+00         0.00000E+00
    0.89440E-02        -0.17990E+00         0.00000E+00
    0.82633E-02        -0.16205E+00         0.00000E+00
    0.76338E-02        -0.14551E+00         0.00000E+00
    0.70499E-02        -0.13010E+00         0.00000E+00
    0.65036E-02        -0.11566E+00         0.00000E+00
    0.59857E-02        -0.10209E+00         0.00000E+00
    0.54872E-02        -0.89266E-01         0.00000E+00
    0.49985E-02        -0.77123E-01         0.00000E+00
    0.45097E-02        -0.65596E-01         0.00000E+00
    0.40103E-02        -0.54636E-01         0.00000E+00
    0.34887E-02        -0.44210E-01         0.00000E+00
    0.29320E-02        -0.34302E-01         0.00000E+00
    0.23249E-02        -0.24905E-01         0.00000E+00
    0.16493E-02        -0.16033E-01         0.00000E+00
    0.88341E-03        -0.77142E-02         0.00000E+00
    0.00000E+00         0.00000E+00         0.00000E+00
   -0.41304E-01        -0.40152E+00         0.00000E+00
   -0.30221E-02        -0.36799E+00         0.00000E+00
    0.13731E-01        -0.33617E+00         0.00000E+00
    0.20227E-01        -0.30727E+00         0.00000E+00
    0.22177E-01        -0.28055E+00         0.00000E+00
    0.22109E-01        -0.25583E+00         0.00000E+00
    0.21190E-01        -0.23299E+00         0.00000E+00
    0.19949E-01        -0.21191E+00         0.00000E+00
    0.18624E-01        -0.19242E+00         0.00000E+00
    0.17319E-01        -0.17434E+00         0.00000E+00
    0.16077E-01        -0.15751E+00         0.00000E+00
    0.14908E-01        -0.14178E+00         0.00000E+00
    0.13808E-01        -0.12702E+00         0.00000E+00
    0.12768E-01        -0.11312E+00         0.00000E+00
    0.11773E-01        -0.99981E-01         0.00000E+00
    0.10809E-01        -0.87532E-01         0.00000E+00
    0.98576E-02        -0.75705E-01         0.00000E+00
    0.89018E-02        -0.64448E-01         0.00000E+00
    0.79216E-02        -0.53724E-01         0.00000E+00
    0.68949E-02        -0.43505E-01         0.00000E+00
    0.57966E-02        -0.33778E-01         0.00000E+00
    0.45972E-02        -0.24543E-01         0.00000E+00
    0.32615E-02        -0.15811E-01         0.00000E+00
    0.17468E-02        -0.76136E-02         0.00000E+00
    0.00000E+00         0.00000E+00         0.00000E+00
   -0.54951E-01        -0.32517E+00         0.00000E+00
   -0.39592E-02        -0.30932E+00         0.00000E+00
    0.16257E-01        -0.29181E+00         0.00000E+00
    0.25318E-01        -0.27318E+00         0.00000E+00
    0.28839E-01        -0.25406E+00         0.00000E+00
    0.29600E-01        -0.23504E+00         0.00000E+00
    0.28999E-01        -0.21650E+00         0.00000E+00
    0.27757E-01        -0.19870E+00         0.00000E+00
    0.26244E-01        -0.18172E+00         0.00000E+00
    0.24646E-01        -0.16561E+00         0.00000E+00
    0.23053E-01        -0.15033E+00         0.00000E+00
    0.21505E-01        -0.13585E+00         0.00000E+00
    0.20014E-01        -0.12210E+00         0.00000E+00
    0.18576E-01        -0.10903E+00         0.00000E+00
    0.17181E-01        -0.96595E-01         0.00000E+00
    0.15811E-01        -0.84735E-01         0.00000E+00
    0.14447E-01        -0.73411E-01         0.00000E+00
    0.13066E-01        -0.62590E-01         0.00000E+00
    0.11641E-01        -0.52245E-01         0.00000E+00
    0.10140E-01        -0.42360E-01         0.00000E+00
    0.85299E-02        -0.32928E-01         0.00000E+00
    0.67671E-02        -0.23953E-01         0.00000E+00
    0.48014E-02        -0.15450E-01         0.00000E+00
    0.25711E-02        -0.74496E-02         0.00000E+00
    0.00000E+00         0.00000E+00         0.00000E+00
   -0.58338E-01        -0.24437E+00         0.00000E+00
   -0.11222E-01        -0.24615E+00         0.00000E+00
    0.13215E-01        -0.24287E+00         0.00000E+00
    0.25557E-01        -0.23451E+00         0.00000E+00
    0.31467E-01        -0.22317E+00         0.00000E+00
    0.33803E-01        -0.21016E+00         0.00000E+00
    0.34163E-01        -0.19633E+00         0.00000E+00
    0.33447E-01        -0.18222E+00         0.00000E+00
    0.32164E-01        -0.16818E+00         0.00000E+00
    0.30600E-01        -0.15442E+00         0.00000E+00
    0.28913E-01        -0.14104E+00         0.00000E+00
    0.27187E-01        -0.12810E+00         0.00000E+00
    0.25462E-01        -0.11563E+00         0.00000E+00
    0.23752E-01        -0.10363E+00         0.00000E+00
    0.22057E-01        -0.92096E-01         0.00000E+00
    0.20365E-01        -0.81004E-01         0.00000E+00
    0.18656E-01        -0.70342E-01         0.00000E+00
    0.16906E-01        -0.60096E-01         0.00000E+00
    0.15085E-01        -0.50256E-01         0.00000E+00
    0.13156E-01        -0.40817E-01         0.00000E+00
    0.11075E-01        -0.31780E-01         0.00000E+00
    0.87895E-02        -0.23155E-01         0.00000E+00
    0.62370E-02        -0.14961E-01         0.00000E+00
    0.33392E-02        -0.72273E-02         0.00000E+00
    0.00000E+00         0.00000E+00         0.00000E+00
   -0.55389E-01        -0.19936E+00         0.00000E+00
   -0.18901E-01        -0.19914E+00         0.00000E+00
    0.69198E-02        -0.19992E+00         0.00000E+00
    0.22187E-01        -0.19758E+00         0.00000E+00
    0.30676E-01        -0.19202E+00         0.00000E+00
    0.34982E-01        -0.18406E+00         0.00000E+00
    0.36739E-01        -0.17451E+00         0.00000E+00
    0.36960E-01        -0.16397E+00         0.00000E+00
    0.36267E-01        -0.15289E+00         0.00000E+00
    0.35041E-01        -0.14157E+00         0.00000E+00
    0.33510E-01        -0.13023E+00         0.00000E+00
    0.31811E-01        -0.11900E+00         0.00000E+00
    0.30019E-01        -0.10797E+00         0.00000E+00
    0.28175E-01        -0.97189E-01         0.00000E+00
    0.26292E-01        -0.86694E-01         0.00000E+00
    0.24370E-01        -0.76502E-01         0.00000E+00
    0.22395E-01        -0.66623E-01         0.00000E+00
    0.20344E-01        -0.57065E-01         0.00000E+00
    0.18187E-01        -0.47832E-01         0.00000E+00
    0.15883E-01        -0.38932E-01         0.00000E+00
    0.13382E-01        -0.30375E-01         0.00000E+00
    0.10627E-01        -0.22177E-01         0.00000E+00
    0.75414E-02        -0.14359E-01         0.00000E+00
    0.40366E-02        -0.69534E-02         0.00000E+00
    0.00000E+00         0.00000E+00         0.00000E+00
   -0.51224E-01        -0.16553E+00         0.00000E+00
   -0.22397E-01        -0.16504E+00         0.00000E+00
    0.10354E-02        -0.16576E+00         0.00000E+00
    0.17423E-01        -0.16562E+00         0.00000E+00
    0.27812E-01        -0.16335E+00         0.00000E+00
    0.33938E-01        -0.15893E+00         0.00000E+00
    0.37186E-01        -0.15275E+00         0.00000E+00
    0.38540E-01        -0.14525E+00         0.00000E+00
    0.38664E-01        -0.13685E+00         0.00000E+00
    0.37997E-01        -0.12786E+00         0.00000E+00
    0.36825E-01        -0.11853E+00         0.00000E+00
    0.35331E-01        -0.10902E+00         0.00000E+00
    0.33626E-01        -0.99482E-01         0.00000E+00
    0.31777E-01        -0.89993E-01         0.00000E+00
    0.29819E-01        -0.80620E-01         0.00000E+00
    0.27762E-01        -0.71411E-01         0.00000E+00
    0.25604E-01        -0.62398E-01         0.00000E+00
    0.23325E-01        -0.53606E-01         0.00000E+00
    0.20896E-01        -0.45056E-01         0.00000E+00
    0.18277E-01        -0.36767E-01         0.00000E+00
    0.15416E-01        -0.28757E-01         0.00000E+00
    0.12249E-01        -0.21048E-01         0.00000E+00
    0.86936E-02        -0.13664E-01         0.00000E+00
    0.46518E-02        -0.66358E-02         0.00000E+00
    0.00000E+00         0.00000E+00         0.00000E+00
   -0.47086E-01        -0.13903E+00         0.00000E+00
   -0.23567E-01        -0.13820E+00         0.00000E+00
   -0.30188E-02        -0.13861E+00         0.00000E+00
    0.12905E-01        -0.13898E+00         0.00000E+00
    0.24179E-01        -0.13826E+00         0.00000E+00
    0.31604E-01        -0.13599E+00         0.00000E+00
    0.36140E-01        -0.13219E+00         0.00000E+00
    0.38604E-01        -0.12708E+00         0.00000E+00
    0.39616E-01        -0.12092E+00         0.00000E+00
    0.39625E-01        -0.11398E+00         0.00000E+00
    0.38944E-01        -0.10648E+00         0.00000E+00
    0.37784E-01        -0.98624E-01         0.00000E+00
    0.36289E-01        -0.90538E-01         0.00000E+00
    0.34548E-01        -0.82338E-01         0.00000E+00
    0.32613E-01        -0.74111E-01         0.00000E+00
    0.30512E-01        -0.65919E-01         0.00000E+00
    0.28249E-01        -0.57815E-01         0.00000E+00
    0.25814E-01        -0.49838E-01         0.00000E+00
    0.23181E-01        -0.42021E-01         0.00000E+00
    0.20310E-01        -0.34391E-01         0.00000E+00
    0.17151E-01        -0.26977E-01         0.00000E+00
    0.13635E-01        -0.19802E-01         0.00000E+00
    0.96786E-02        -0.12894E-01         0.00000E+00
    0.51768E-02        -0.62831E-02         0.00000E+00
    0.00000E+00         0.00000E+00         0.00000E+00
   -0.43048E-01        -0.11735E+00         0.00000E+00
   -0.23429E-01        -0.11636E+00         0.00000E+00
   -0.55475E-02        -0.11644E+00         0.00000E+00
    0.92659E-02        -0.11683E+00         0.00000E+00
    0.20608E-01        -0.11675E+00         0.00000E+00
    0.28739E-01        -0.11569E+00         0.00000E+00
    0.34208E-01        -0.11345E+00         0.00000E+00
    0.37608E-01        -0.11007E+00         0.00000E+00
    0.39453E-01        -0.10567E+00         0.00000E+00
    0.40154E-01        -0.10044E+00         0.00000E+00
    0.40019E-01        -0.94560E-01         0.00000E+00
    0.39271E-01        -0.88186E-01         0.00000E+00
    0.38069E-01        -0.81459E-01         0.00000E+00
    0.36519E-01        -0.74494E-01         0.00000E+00
    0.34690E-01        -0.67385E-01         0.00000E+00
    0.32620E-01        -0.60206E-01         0.00000E+00
    0.30325E-01        -0.53019E-01         0.00000E+00
    0.27800E-01        -0.45875E-01         0.00000E+00
    0.25027E-01        -0.38814E-01         0.00000E+00
    0.21967E-01        -0.31873E-01         0.00000E+00
    0.18572E-01        -0.25083E-01         0.00000E+00
    0.14774E-01        -0.18473E-01         0.00000E+00
    0.10488E-01        -0.12071E-01         0.00000E+00
    0.56072E-02        -0.59043E-02         0.00000E+00
    0.00000E+00         0.00000E+00         0.00000E+00
   -0.39149E-01        -0.99243E-01         0.00000E+00
   -0.22533E-01        -0.98163E-01         0.00000E+00
   -0.69596E-02        -0.98003E-01         0.00000E+00
    0.65394E-02        -0.98273E-01         0.00000E+00
    0.17476E-01        -0.98416E-01         0.00000E+00
    0.25828E-01        -0.97987E-01         0.00000E+00
    0.31861E-01        -0.96730E-01         0.00000E+00
    0.35955E-01        -0.94553E-01         0.00000E+00
    0.38498E-01        -0.91488E-01         0.00000E+00
    0.39833E-01        -0.87629E-01         0.00000E+00
    0.40237E-01        -0.83097E-01         0.00000E+00
    0.39926E-01        -0.78019E-01         0.00000E+00
    0.39061E-01        -0.72515E-01         0.00000E+00
    0.37757E-01        -0.66690E-01         0.00000E+00
    0.36092E-01        -0.60637E-01         0.00000E+00
    0.34114E-01        -0.54433E-01         0.00000E+00
    0.31846E-01        -0.48144E-01         0.00000E+00
    0.29292E-01        -0.41825E-01         0.00000E+00
    0.26436E-01        -0.35523E-01         0.00000E+00
    0.23248E-01        -0.29277E-01         0.00000E+00
    0.19679E-01        -0.23124E-01         0.00000E+00
    0.15664E-01        -0.17093E-01         0.00000E+00
    0.11120E-01        -0.11213E-01         0.00000E+00
    0.59420E-02        -0.55082E-02         0.00000E+00
    0.00000E+00         0.00000E+00         0.00000E+00
   -0.35403E-01        -0.83900E-01         0.00000E+00
   -0.21184E-01        -0.82784E-01         0.00000E+00
   -0.75853E-02        -0.82452E-01         0.00000E+00
    0.45937E-02        -0.82580E-01         0.00000E+00
    0.14881E-01        -0.82771E-01         0.00000E+00
    0.23124E-01        -0.82663E-01         0.00000E+00
    0.29410E-01        -0.82000E-01         0.00000E+00
    0.33956E-01        -0.80643E-01         0.00000E+00
    0.37029E-01        -0.78553E-01         0.00000E+00
    0.38894E-01        -0.75757E-01         0.00000E+00
    0.39786E-01        -0.72326E-01         0.00000E+00
    0.39896E-01        -0.68346E-01         0.00000E+00
    0.39379E-01        -0.63912E-01         0.00000E+00
    0.38347E-01        -0.59112E-01         0.00000E+00
    0.36882E-01        -0.54031E-01         0.00000E+00
    0.35039E-01        -0.48740E-01         0.00000E+00
    0.32845E-01        -0.43306E-01         0.00000E+00
    0.30311E-01        -0.37784E-01         0.00000E+00
    0.27426E-01        -0.32223E-01         0.00000E+00
    0.24163E-01        -0.26664E-01         0.00000E+00
    0.20478E-01        -0.21144E-01         0.00000E+00
    0.16309E-01        -0.15694E-01         0.00000E+00
    0.11578E-01        -0.10340E-01         0.00000E+00
    0.61829E-02        -0.51031E-02         0.00000E+00
    0.00000E+00         0.00000E+00         0.00000E+00
   -0.31820E-01        -0.70783E-01         0.00000E+00
   -0.19569E-01        -0.69662E-01         0.00000E+00
   -0.76614E-02        -0.69215E-01         0.00000E+00
    0.32703E-02        -0.69218E-01         0.00000E+00
    0.12802E-01        -0.69383E-01         0.00000E+00
    0.20732E-01        -0.69428E-01         0.00000E+00
    0.27038E-01        -0.69121E-01         0.00000E+00
    0.31824E-01        -0.68312E-01         0.00000E+00
    0.35260E-01        -0.66923E-01         0.00000E+00
    0.37537E-01        -0.64939E-01         0.00000E+00
    0.38838E-01        -0.62386E-01         0.00000E+00
    0.39328E-01        -0.59316E-01         0.00000E+00
    0.39141E-01        -0.55797E-01         0.00000E+00
    0.38384E-01        -0.51899E-01         0.00000E+00
    0.37137E-01        -0.47691E-01         0.00000E+00
    0.35455E-01        -0.43239E-01         0.00000E+00
    0.33369E-01        -0.38601E-01         0.00000E+00
    0.30894E-01        -0.33833E-01         0.00000E+00
    0.28022E-01        -0.28981E-01         0.00000E+00
    0.24732E-01        -0.24085E-01         0.00000E+00
    0.20984E-01        -0.19183E-01         0.00000E+00
    0.16722E-01        -0.14302E-01         0.00000E+00
    0.11870E-01        -0.94673E-02         0.00000E+00
    0.63346E-02        -0.46966E-02         0.00000E+00
    0.00000E+00         0.00000E+00         0.00000E+00
   -0.28408E-01        -0.59503E-01         0.00000E+00
   -0.17804E-01        -0.58400E-01         0.00000E+00
   -0.73563E-02        -0.57878E-01         0.00000E+00
    0.24275E-02        -0.57781E-01         0.00000E+00
    0.11176E-01        -0.57898E-01         0.00000E+00
    0.18672E-01        -0.58006E-01         0.00000E+00
    0.24837E-01        -0.57910E-01         0.00000E+00
    0.29697E-01        -0.57465E-01         0.00000E+00
    0.33348E-01        -0.56576E-01         0.00000E+00
    0.35917E-01        -0.55203E-01         0.00000E+00
    0.37541E-01        -0.53342E-01         0.00000E+00
    0.38351E-01        -0.51016E-01         0.00000E+00
    0.38460E-01        -0.48267E-01         0.00000E+00
    0.37964E-01        -0.45147E-01         0.00000E+00
    0.36935E-01        -0.41711E-01         0.00000E+00
    0.35427E-01        -0.38013E-01         0.00000E+00
    0.33471E-01        -0.34106E-01         0.00000E+00
    0.31083E-01        -0.30037E-01         0.00000E+00
    0.28261E-01        -0.25851E-01         0.00000E+00
    0.24985E-01        -0.21585E-01         0.00000E+00
    0.21221E-01        -0.17272E-01         0.00000E+00
    0.16918E-01        -0.12941E-01         0.00000E+00
    0.12008E-01        -0.86105E-02         0.00000E+00
    0.64034E-02        -0.42953E-02         0.00000E+00
    0.00000E+00         0.00000E+00         0.00000E+00
   -0.25176E-01        -0.49768E-01         0.00000E+00
   -0.15971E-01        -0.48697E-01         0.00000E+00
   -0.67908E-02        -0.48132E-01         0.00000E+00
    0.19494E-02        -0.47961E-01         0.00000E+00
    0.99269E-02        -0.48026E-01         0.00000E+00
    0.16928E-01        -0.48153E-01         0.00000E+00
    0.22845E-01        -0.48180E-01         0.00000E+00
    0.27654E-01        -0.47975E-01         0.00000E+00
    0.31397E-01        -0.47444E-01         0.00000E+00
    0.34151E-01        -0.46528E-01         0.00000E+00
    0.36012E-01        -0.45206E-01         0.00000E+00
    0.37078E-01        -0.43481E-01         0.00000E+00
    0.37440E-01        -0.41373E-01         0.00000E+00
    0.37178E-01        -0.38917E-01         0.00000E+00
    0.36356E-01        -0.36153E-01         0.00000E+00
    0.35022E-01        -0.33124E-01         0.00000E+00
    0.33207E-01        -0.29875E-01         0.00000E+00
    0.30927E-01        -0.26445E-01         0.00000E+00
    0.28181E-01        -0.22875E-01         0.00000E+00
    0.24954E-01        -0.19197E-01         0.00000E+00
    0.21215E-01        -0.15440E-01         0.00000E+00
    0.16919E-01        -0.11630E-01         0.00000E+00
    0.12006E-01        -0.77814E-02         0.00000E+00
    0.63972E-02        -0.39049E-02         0.00000E+00
    0.00000E+00         0.00000E+00         0.00000E+00
   -0.22127E-01        -0.41350E-01         0.00000E+00
   -0.14125E-01        -0.40321E-01         0.00000E+00
   -0.60531E-02        -0.39736E-01         0.00000E+00
    0.17434E-02        -0.39513E-01         0.00000E+00
    0.89835E-02        -0.39532E-01         0.00000E+00
    0.15465E-01        -0.39657E-01         0.00000E+00
    0.21067E-01        -0.39755E-01         0.00000E+00
    0.25737E-01        -0.39711E-01         0.00000E+00
    0.29477E-01        -0.39433E-01         0.00000E+00
    0.32325E-01        -0.38860E-01         0.00000E+00
    0.34343E-01        -0.37957E-01         0.00000E+00
    0.35600E-01        -0.36713E-01         0.00000E+00
    0.36167E-01        -0.35133E-01         0.00000E+00
    0.36107E-01        -0.33237E-01         0.00000E+00
    0.35473E-01        -0.31052E-01         0.00000E+00
    0.34307E-01        -0.28610E-01         0.00000E+00
    0.32636E-01        -0.25945E-01         0.00000E+00
    0.30475E-01        -0.23092E-01         0.00000E+00
    0.27826E-01        -0.20083E-01         0.00000E+00
    0.24674E-01        -0.16946E-01         0.00000E+00
    0.20995E-01        -0.13706E-01         0.00000E+00
    0.16748E-01        -0.10383E-01         0.00000E+00
    0.11881E-01        -0.69893E-02         0.00000E+00
    0.63251E-02        -0.35298E-02         0.00000E+00
    0.00000E+00         0.00000E+00         0.00000E+00
   -0.19266E-01        -0.34064E-01         0.00000E+00
   -0.12307E-01        -0.33085E-01         0.00000E+00
   -0.52082E-02        -0.32499E-01         0.00000E+00
    0.17369E-02        -0.32242E-01         0.00000E+00
    0.82833E-02        -0.32224E-01         0.00000E+00
    0.14244E-01        -0.32339E-01         0.00000E+00
    0.19494E-01        -0.32477E-01         0.00000E+00
    0.23963E-01        -0.32539E-01         0.00000E+00
    0.27626E-01        -0.32443E-01         0.00000E+00
    0.30494E-01        -0.32126E-01         0.00000E+00
    0.32601E-01        -0.31549E-01         0.00000E+00
    0.33991E-01        -0.30689E-01         0.00000E+00
    0.34716E-01        -0.29541E-01         0.00000E+00
    0.34822E-01        -0.28113E-01         0.00000E+00
    0.34352E-01        -0.26422E-01         0.00000E+00
    0.33341E-01        -0.24488E-01         0.00000E+00
    0.31811E-01        -0.22339E-01         0.00000E+00
    0.29776E-01        -0.19999E-01         0.00000E+00
    0.27237E-01        -0.17496E-01         0.00000E+00
    0.24182E-01        -0.14851E-01         0.00000E+00
    0.20591E-01        -0.12084E-01         0.00000E+00
    0.16428E-01        -0.92118E-02         0.00000E+00
    0.11649E-01        -0.62412E-02         0.00000E+00
    0.61963E-02        -0.31736E-02         0.00000E+00
    0.00000E+00         0.00000E+00         0.00000E+00
   -0.16594E-01        -0.27761E-01         0.00000E+00
   -0.10544E-01        -0.26838E-01         0.00000E+00
   -0.43052E-02        -0.26262E-01         0.00000E+00
    0.18725E-02        -0.25987E-01         0.00000E+00
    0.77733E-02        -0.25943E-01         0.00000E+00
    0.13226E-01        -0.26045E-01         0.00000E+00
    0.18106E-01        -0.26206E-01         0.00000E+00
    0.22333E-01        -0.26340E-01         0.00000E+00
    0.25868E-01        -0.26374E-01         0.00000E+00
    0.28698E-01        -0.26249E-01         0.00000E+00
    0.30836E-01        -0.25923E-01         0.00000E+00
    0.32308E-01        -0.25369E-01         0.00000E+00
    0.33146E-01        -0.24574E-01         0.00000E+00
    0.33384E-01        -0.23535E-01         0.00000E+00
    0.33053E-01        -0.22261E-01         0.00000E+00
    0.32181E-01        -0.20765E-01         0.00000E+00
    0.30785E-01        -0.19063E-01         0.00000E+00
    0.28877E-01        -0.17177E-01         0.00000E+00
    0.26456E-01        -0.15123E-01         0.00000E+00
    0.23514E-01        -0.12921E-01         0.00000E+00
    0.20033E-01        -0.10584E-01         0.00000E+00
    0.15985E-01        -0.81228E-02         0.00000E+00
    0.11329E-01        -0.55421E-02         0.00000E+00
    0.60201E-02        -0.28386E-02         0.00000E+00
    0.00000E+00         0.00000E+00         0.00000E+00
   -0.14112E-01        -0.22315E-01         0.00000E+00
   -0.88590E-02        -0.21452E-01         0.00000E+00
   -0.33807E-02        -0.20896E-01         0.00000E+00
    0.21054E-02        -0.20614E-01         0.00000E+00
    0.74093E-02        -0.20552E-01         0.00000E+00
    0.12374E-01        -0.20644E-01         0.00000E+00
    0.16880E-01        -0.20817E-01         0.00000E+00
    0.20844E-01        -0.21000E-01         0.00000E+00
    0.24212E-01        -0.21128E-01         0.00000E+00
    0.26960E-01        -0.21148E-01         0.00000E+00
    0.29084E-01        -0.21017E-01         0.00000E+00
    0.30593E-01        -0.20706E-01         0.00000E+00
    0.31505E-01        -0.20196E-01         0.00000E+00
    0.31842E-01        -0.19479E-01         0.00000E+00
    0.31626E-01        -0.18555E-01         0.00000E+00
    0.30875E-01        -0.17431E-01         0.00000E+00
    0.29603E-01        -0.16117E-01         0.00000E+00
    0.27819E-01        -0.14625E-01         0.00000E+00
    0.25522E-01        -0.12969E-01         0.00000E+00
    0.22705E-01        -0.11160E-01         0.00000E+00
    0.19352E-01        -0.92086E-02         0.00000E+00
    0.15440E-01        -0.71200E-02         0.00000E+00
    0.10937E-01        -0.48947E-02         0.00000E+00
    0.58056E-02        -0.25265E-02         0.00000E+00
    0.00000E+00         0.00000E+00         0.00000E+00
   -0.11819E-01        -0.17619E-01         0.00000E+00
   -0.72657E-02        -0.16817E-01         0.00000E+00
   -0.24628E-02        -0.16289E-01         0.00000E+00
    0.24004E-02        -0.16009E-01         0.00000E+00
    0.71550E-02        -0.15938E-01         0.00000E+00
    0.11658E-01        -0.16022E-01         0.00000E+00
    0.15795E-01        -0.16202E-01         0.00000E+00
    0.19482E-01        -0.16419E-01         0.00000E+00
    0.22660E-01        -0.16616E-01         0.00000E+00
    0.25295E-01        -0.16744E-01         0.00000E+00
    0.27368E-01        -0.16764E-01         0.00000E+00
    0.28878E-01        -0.16645E-01         0.00000E+00
    0.29831E-01        -0.16365E-01         0.00000E+00
    0.30238E-01        -0.15913E-01         0.00000E+00
    0.30112E-01        -0.15282E-01         0.00000E+00
    0.29465E-01        -0.14473E-01         0.00000E+00
    0.28307E-01        -0.13490E-01         0.00000E+00
    0.26642E-01        -0.12340E-01         0.00000E+00
    0.24470E-01        -0.11030E-01         0.00000E+00
    0.21784E-01        -0.95686E-02         0.00000E+00
    0.18572E-01        -0.79593E-02         0.00000E+00
    0.14815E-01        -0.62043E-02         0.00000E+00
    0.10488E-01        -0.43004E-02         0.00000E+00
    0.55613E-02        -0.22380E-02         0.00000E+00
    0.00000E+00         0.00000E+00         0.00000E+00
   -0.97112E-02        -0.13580E-01         0.00000E+00
   -0.57750E-02        -0.12841E-01         0.00000E+00
   -0.15722E-02        -0.12345E-01         0.00000E+00
    0.27299E-02        -0.12076E-01         0.00000E+00
    0.69807E-02        -0.12002E-01         0.00000E+00
    0.11050E-01        -0.12081E-01         0.00000E+00
    0.14830E-01        -0.12266E-01         0.00000E+00
    0.18238E-01        -0.12506E-01         0.00000E+00
    0.21211E-01        -0.12753E-01         0.00000E+00
    0.23708E-01        -0.12963E-01         0.00000E+00
    0.25704E-01        -0.13100E-01         0.00000E+00
    0.27187E-01        -0.13132E-01         0.00000E+00
    0.28152E-01        -0.13038E-01         0.00000E+00
    0.28604E-01        -0.12801E-01         0.00000E+00
    0.28547E-01        -0.12412E-01         0.00000E+00
    0.27987E-01        -0.11868E-01         0.00000E+00
    0.26931E-01        -0.11166E-01         0.00000E+00
    0.25380E-01        -0.10309E-01         0.00000E+00
    0.23332E-01        -0.93002E-02         0.00000E+00
    0.20782E-01        -0.81414E-02         0.00000E+00
    0.17721E-01        -0.68337E-02         0.00000E+00
    0.14132E-01        -0.53750E-02         0.00000E+00
    0.99974E-02        -0.37589E-02         0.00000E+00
    0.52950E-02        -0.19735E-02         0.00000E+00
    0.00000E+00         0.00000E+00         0.00000E+00
   -0.77863E-02        -0.10119E-01         0.00000E+00
   -0.43937E-02        -0.94424E-02         0.00000E+00
   -0.72487E-03        -0.89834E-02         0.00000E+00
    0.30722E-02        -0.87299E-02         0.00000E+00
    0.68625E-02        -0.86584E-02         0.00000E+00
    0.10527E-01        -0.87360E-02         0.00000E+00
    0.13966E-01        -0.89237E-02         0.00000E+00
    0.17097E-01        -0.91800E-02         0.00000E+00
    0.19858E-01        -0.94636E-02         0.00000E+00
    0.22204E-01        -0.97358E-02         0.00000E+00
    0.24103E-01        -0.99621E-02         0.00000E+00
    0.25535E-01        -0.10114E-01         0.00000E+00
    0.26491E-01        -0.10167E-01         0.00000E+00
    0.26966E-01        -0.10105E-01         0.00000E+00
    0.26959E-01        -0.99162E-02         0.00000E+00
    0.26472E-01        -0.95914E-02         0.00000E+00
    0.25506E-01        -0.91265E-02         0.00000E+00
    0.24062E-01        -0.85191E-02         0.00000E+00
    0.22136E-01        -0.77679E-02         0.00000E+00
    0.19724E-01        -0.68714E-02         0.00000E+00
    0.16818E-01        -0.58270E-02         0.00000E+00
    0.13407E-01        -0.46291E-02         0.00000E+00
    0.94774E-02        -0.32690E-02         0.00000E+00
    0.50137E-02        -0.17326E-02         0.00000E+00
    0.00000E+00         0.00000E+00         0.00000E+00
   -0.60394E-02        -0.71648E-02         0.00000E+00
   -0.31261E-02        -0.65507E-02         0.00000E+00
    0.67904E-04        -0.61304E-02         0.00000E+00
    0.34107E-02        -0.58967E-02         0.00000E+00
    0.67809E-02        -0.58321E-02         0.00000E+00
    0.10070E-01        -0.59108E-02         0.00000E+00
    0.13185E-01        -0.61015E-02         0.00000E+00
    0.16047E-01        -0.63695E-02         0.00000E+00
    0.18595E-01        -0.66796E-02         0.00000E+00
    0.20781E-01        -0.69976E-02         0.00000E+00
    0.22569E-01        -0.72924E-02         0.00000E+00
    0.23935E-01        -0.75368E-02         0.00000E+00
    0.24863E-01        -0.77078E-02         0.00000E+00
    0.25344E-01        -0.77870E-02         0.00000E+00
    0.25372E-01        -0.77603E-02         0.00000E+00
    0.24944E-01        -0.76172E-02         0.00000E+00
    0.24058E-01        -0.73499E-02         0.00000E+00
    0.22713E-01        -0.69526E-02         0.00000E+00
    0.20906E-01        -0.64208E-02         0.00000E+00
    0.18632E-01        -0.57494E-02         0.00000E+00
    0.15885E-01        -0.49328E-02         0.00000E+00
    0.12657E-01        -0.39630E-02         0.00000E+00
    0.89395E-02        -0.28287E-02         0.00000E+00
    0.47234E-02        -0.15146E-02         0.00000E+00
    0.00000E+00         0.00000E+00         0.00000E+00
   -0.44649E-02        -0.46558E-02         0.00000E+00
   -0.19739E-02        -0.41030E-02         0.00000E+00
    0.79790E-03        -0.37228E-02         0.00000E+00
    0.37325E-02        -0.35117E-02         0.00000E+00
    0.67206E-02        -0.34573E-02         0.00000E+00
    0.96631E-02        -0.35396E-02         0.00000E+00
    0.12473E-01        -0.37333E-02         0.00000E+00
    0.15078E-01        -0.40096E-02         0.00000E+00
    0.17415E-01        -0.43386E-02         0.00000E+00
    0.19437E-01        -0.46903E-02         0.00000E+00
    0.21105E-01        -0.50369E-02         0.00000E+00
    0.22393E-01        -0.53528E-02         0.00000E+00
    0.23281E-01        -0.56159E-02         0.00000E+00
    0.23754E-01        -0.58075E-02         0.00000E+00
    0.23803E-01        -0.59122E-02         0.00000E+00
    0.23422E-01        -0.59176E-02         0.00000E+00
    0.22608E-01        -0.58136E-02         0.00000E+00
    0.21355E-01        -0.55918E-02         0.00000E+00
    0.19662E-01        -0.52447E-02         0.00000E+00
    0.17524E-01        -0.47649E-02         0.00000E+00
    0.14936E-01        -0.41440E-02         0.00000E+00
    0.11894E-01        -0.33718E-02         0.00000E+00
    0.83934E-02        -0.24354E-02         0.00000E+00
    0.44294E-02        -0.13185E-02         0.00000E+00
    0.00000E+00         0.00000E+00         0.00000E+00
   -0.30566E-02        -0.25370E-02         0.00000E+00
   -0.93711E-03        -0.20439E-02         0.00000E+00
    0.14596E-02        -0.17043E-02         0.00000E+00
    0.40280E-02        -0.15179E-02         0.00000E+00
    0.66691E-02        -0.14761E-02         0.00000E+00
    0.92928E-02        -0.15638E-02         0.00000E+00
    0.11819E-01        -0.17606E-02         0.00000E+00
    0.14177E-01        -0.20428E-02         0.00000E+00
    0.16310E-01        -0.23849E-02         0.00000E+00
    0.18168E-01        -0.27609E-02         0.00000E+00
    0.19713E-01        -0.31457E-02         0.00000E+00
    0.20915E-01        -0.35159E-02         0.00000E+00
    0.21752E-01        -0.38502E-02         0.00000E+00
    0.22206E-01        -0.41302E-02         0.00000E+00
    0.22266E-01        -0.43398E-02         0.00000E+00
    0.21924E-01        -0.44652E-02         0.00000E+00
    0.21171E-01        -0.44947E-02         0.00000E+00
    0.20005E-01        -0.44179E-02         0.00000E+00
    0.18421E-01        -0.42252E-02         0.00000E+00
    0.16416E-01        -0.39068E-02         0.00000E+00
    0.13987E-01        -0.34525E-02         0.00000E+00
    0.11131E-01        -0.28503E-02         0.00000E+00
    0.78473E-02        -0.20861E-02         0.00000E+00
    0.41360E-02        -0.11430E-02         0.00000E+00
    0.00000E+00         0.00000E+00         0.00000E+00
   -0.18076E-02        -0.75965E-03         0.00000E+00
   -0.14395E-04        -0.32416E-03         0.00000E+00
    0.20497E-02        -0.25143E-04         0.00000E+00
    0.42900E-02         0.13547E-03         0.00000E+00
    0.66171E-02         0.16291E-03         0.00000E+00
    0.89486E-02         0.68523E-04         0.00000E+00
    0.11210E-01        -0.13159E-03         0.00000E+00
    0.13337E-01        -0.41786E-03         0.00000E+00
    0.15273E-01        -0.76864E-03         0.00000E+00
    0.16970E-01        -0.11614E-02         0.00000E+00
    0.18390E-01        -0.15736E-02         0.00000E+00
    0.19502E-01        -0.19839E-02         0.00000E+00
    0.20282E-01        -0.23723E-02         0.00000E+00
    0.20710E-01        -0.27206E-02         0.00000E+00
    0.20773E-01        -0.30126E-02         0.00000E+00
    0.20460E-01        -0.32337E-02         0.00000E+00
    0.19763E-01        -0.33711E-02         0.00000E+00
    0.18677E-01        -0.34127E-02         0.00000E+00
    0.17198E-01        -0.33473E-02         0.00000E+00
    0.15322E-01        -0.31637E-02         0.00000E+00
    0.13048E-01        -0.28499E-02         0.00000E+00
    0.10377E-01        -0.23929E-02         0.00000E+00
    0.73080E-02        -0.17776E-02         0.00000E+00
    0.38468E-02        -0.98676E-03         0.00000E+00
    0.00000E+00         0.00000E+00         0.00000E+00
   -0.71049E-03         0.71978E-03         0.00000E+00
    0.79686E-03         0.10999E-02         0.00000E+00
    0.25666E-02         0.13591E-02         0.00000E+00
    0.45135E-02         0.14933E-02         0.00000E+00
    0.65569E-02         0.15054E-02         0.00000E+00
    0.86217E-02         0.14033E-02         0.00000E+00
    0.10639E-01         0.11998E-02         0.00000E+00
    0.12549E-01         0.91090E-03         0.00000E+00
    0.14298E-01         0.55495E-03         0.00000E+00
    0.15839E-01         0.15150E-03         0.00000E+00
    0.17136E-01        -0.27950E-03         0.00000E+00
    0.18156E-01        -0.71846E-03         0.00000E+00
    0.18875E-01        -0.11467E-02         0.00000E+00
    0.19271E-01        -0.15466E-02         0.00000E+00
    0.19331E-01        -0.19020E-02         0.00000E+00
    0.19041E-01        -0.21981E-02         0.00000E+00
    0.18393E-01        -0.24212E-02         0.00000E+00
    0.17382E-01        -0.25582E-02         0.00000E+00
    0.16002E-01        -0.25968E-02         0.00000E+00
    0.14251E-01        -0.25244E-02         0.00000E+00
    0.12130E-01        -0.23281E-02         0.00000E+00
    0.96381E-02        -0.19940E-02         0.00000E+00
    0.67809E-02        -0.15065E-02         0.00000E+00
    0.35646E-02        -0.84843E-03         0.00000E+00
    0.00000E+00         0.00000E+00         0.00000E+00
    0.24253E-03         0.19401E-02         0.00000E+00
    0.15002E-02         0.22674E-02         0.00000E+00
    0.30099E-02         0.24877E-02         0.00000E+00
    0.46952E-02         0.25956E-02         0.00000E+00
    0.64831E-02         0.25916E-02         0.00000E+00
    0.83051E-02         0.24813E-02         0.00000E+00
    0.10098E-01         0.22744E-02         0.00000E+00
    0.11806E-01         0.19841E-02         0.00000E+00
    0.13378E-01         0.16258E-02         0.00000E+00
    0.14771E-01         0.12164E-02         0.00000E+00
    0.15947E-01         0.77367E-03         0.00000E+00
    0.16876E-01         0.31547E-03         0.00000E+00
    0.17532E-01        -0.14080E-03         0.00000E+00
    0.17893E-01        -0.57840E-03         0.00000E+00
    0.17944E-01        -0.98145E-03         0.00000E+00
    0.17673E-01        -0.13350E-02         0.00000E+00
    0.17070E-01        -0.16249E-02         0.00000E+00
    0.16127E-01        -0.18375E-02         0.00000E+00
    0.14842E-01        -0.19597E-02         0.00000E+00
    0.13212E-01        -0.19780E-02         0.00000E+00
    0.11238E-01        -0.18790E-02         0.00000E+00
    0.89217E-02        -0.16480E-02         0.00000E+00
    0.62700E-02        -0.12696E-02         0.00000E+00
    0.32917E-02        -0.72650E-03         0.00000E+00
    0.00000E+00         0.00000E+00         0.00000E+00
    0.10595E-02         0.29358E-02         0.00000E+00
    0.20997E-02         0.32131E-02         0.00000E+00
    0.33805E-02         0.33960E-02         0.00000E+00
    0.48331E-02         0.34779E-02         0.00000E+00
    0.63914E-02         0.34577E-02         0.00000E+00
    0.79933E-02         0.33388E-02         0.00000E+00
    0.95809E-02         0.31286E-02         0.00000E+00
    0.11102E-01         0.28378E-02         0.00000E+00
    0.12509E-01         0.24793E-02         0.00000E+00
    0.13761E-01         0.20679E-02         0.00000E+00
    0.14821E-01         0.16192E-02         0.00000E+00
    0.15661E-01         0.11494E-02         0.00000E+00
    0.16253E-01         0.67465E-03         0.00000E+00
    0.16578E-01         0.21091E-03         0.00000E+00
    0.16618E-01        -0.22648E-03         0.00000E+00
    0.16362E-01        -0.62268E-03         0.00000E+00
    0.15798E-01        -0.96339E-03         0.00000E+00
    0.14920E-01        -0.12347E-02         0.00000E+00
    0.13725E-01        -0.14229E-02         0.00000E+00
    0.12211E-01        -0.15143E-02         0.00000E+00
    0.10378E-01        -0.14948E-02         0.00000E+00
    0.82318E-02        -0.13497E-02         0.00000E+00
    0.57787E-02        -0.10635E-02         0.00000E+00
    0.30297E-02        -0.61955E-03         0.00000E+00
    0.00000E+00         0.00000E+00         0.00000E+00
    0.17485E-02         0.37379E-02         0.00000E+00
    0.26004E-02         0.39680E-02         0.00000E+00
    0.36802E-02         0.41151E-02         0.00000E+00
    0.49263E-02         0.41717E-02         0.00000E+00
    0.62791E-02         0.41354E-02         0.00000E+00
    0.76820E-02         0.40079E-02         0.00000E+00
    0.90821E-02         0.37946E-02         0.00000E+00
    0.10431E-01         0.35041E-02         0.00000E+00
    0.11684E-01         0.31473E-02         0.00000E+00
    0.12804E-01         0.27369E-02         0.00000E+00
    0.13755E-01         0.22867E-02         0.00000E+00
    0.14508E-01         0.18115E-02         0.00000E+00
    0.15039E-01         0.13262E-02         0.00000E+00
    0.15326E-01         0.84584E-03         0.00000E+00
    0.15354E-01         0.38514E-03         0.00000E+00
    0.15109E-01        -0.41362E-04         0.00000E+00
    0.14582E-01        -0.41943E-03         0.00000E+00
    0.13765E-01        -0.73509E-03         0.00000E+00
    0.12655E-01        -0.97444E-03         0.00000E+00
    0.11251E-01        -0.11236E-02         0.00000E+00
    0.95550E-02        -0.11682E-02         0.00000E+00
    0.75716E-02        -0.10939E-02         0.00000E+00
    0.53091E-02        -0.88516E-03         0.00000E+00
    0.27797E-02        -0.52615E-03         0.00000E+00
    0.00000E+00         0.00000E+00         0.00000E+00
    0.23178E-02         0.43739E-02         0.00000E+00
    0.30072E-02         0.45597E-02         0.00000E+00
    0.39113E-02         0.46727E-02         0.00000E+00
    0.49749E-02         0.47050E-02         0.00000E+00
    0.61443E-02         0.46530E-02         0.00000E+00
    0.73680E-02         0.45170E-02         0.00000E+00
    0.85978E-02         0.43009E-02         0.00000E+00
    0.97889E-02         0.40114E-02         0.00000E+00
    0.10901E-01         0.36577E-02         0.00000E+00
    0.11897E-01         0.32507E-02         0.00000E+00
    0.12744E-01         0.28028E-02         0.00000E+00
    0.13416E-01         0.23272E-02         0.00000E+00
    0.13887E-01         0.18377E-02         0.00000E+00
    0.14138E-01         0.13484E-02         0.00000E+00
    0.14152E-01         0.87350E-03         0.00000E+00
    0.13917E-01         0.42695E-03         0.00000E+00
    0.13423E-01         0.22777E-04         0.00000E+00
    0.12664E-01        -0.32515E-03         0.00000E+00
    0.11635E-01        -0.60298E-03         0.00000E+00
    0.10336E-01        -0.79680E-03         0.00000E+00
    0.87706E-02        -0.89252E-03         0.00000E+00
    0.69430E-02        -0.87573E-03         0.00000E+00
    0.48627E-02        -0.73164E-03         0.00000E+00
    0.25426E-02        -0.44497E-03         0.00000E+00
    0.00000E+00         0.00000E+00         0.00000E+00
    0.27756E-02         0.48681E-02         0.00000E+00
    0.33256E-02         0.50126E-02         0.00000E+00
    0.40768E-02         0.50936E-02         0.00000E+00
    0.49796E-02         0.51027E-02         0.00000E+00
    0.59858E-02         0.50355E-02         0.00000E+00
    0.70487E-02         0.48914E-02         0.00000E+00
    0.81245E-02         0.46727E-02         0.00000E+00
    0.91719E-02         0.43848E-02         0.00000E+00
    0.10153E-01         0.40353E-02         0.00000E+00
    0.11035E-01         0.36337E-02         0.00000E+00
    0.11786E-01         0.31909E-02         0.00000E+00
    0.12381E-01         0.27189E-02         0.00000E+00
    0.12795E-01         0.22304E-02         0.00000E+00
    0.13011E-01         0.17385E-02         0.00000E+00
    0.13012E-01         0.12567E-02         0.00000E+00
    0.12786E-01         0.79847E-03         0.00000E+00
    0.12323E-01         0.37751E-03         0.00000E+00
    0.11618E-01         0.73726E-05         0.00000E+00
    0.10666E-01        -0.29831E-03         0.00000E+00
    0.94682E-02        -0.52584E-03         0.00000E+00
    0.80266E-02        -0.66136E-03         0.00000E+00
    0.63474E-02        -0.69088E-03         0.00000E+00
    0.44403E-02        -0.60015E-03         0.00000E+00
    0.23186E-02        -0.37473E-03         0.00000E+00
    0.00000E+00         0.00000E+00         0.00000E+00
    0.31301E-02         0.52426E-02         0.00000E+00
    0.35613E-02         0.53486E-02         0.00000E+00
    0.41799E-02         0.53995E-02         0.00000E+00
    0.49417E-02         0.53867E-02         0.00000E+00
    0.58033E-02         0.53051E-02         0.00000E+00
    0.67225E-02         0.51532E-02         0.00000E+00
    0.76594E-02         0.49323E-02         0.00000E+00
    0.85765E-02         0.46465E-02         0.00000E+00
    0.94391E-02         0.43021E-02         0.00000E+00
    0.10216E-01         0.39074E-02         0.00000E+00
    0.10878E-01         0.34719E-02         0.00000E+00
    0.11401E-01         0.30065E-02         0.00000E+00
    0.11762E-01         0.25230E-02         0.00000E+00
    0.11945E-01         0.20335E-02         0.00000E+00
    0.11933E-01         0.15507E-02         0.00000E+00
    0.11715E-01         0.10877E-02         0.00000E+00
    0.11282E-01         0.65761E-03         0.00000E+00
    0.10628E-01         0.27353E-03         0.00000E+00
    0.97494E-02        -0.51184E-04         0.00000E+00
    0.86468E-02        -0.30319E-03         0.00000E+00
    0.73233E-02        -0.46903E-03         0.00000E+00
    0.57851E-02        -0.53521E-03         0.00000E+00
    0.40421E-02        -0.48814E-03         0.00000E+00
    0.21079E-02        -0.31424E-03         0.00000E+00
    0.00000E+00         0.00000E+00         0.00000E+00
    0.33891E-02         0.55164E-02         0.00000E+00
    0.37199E-02         0.55869E-02         0.00000E+00
    0.42243E-02         0.56099E-02         0.00000E+00
    0.48630E-02         0.55765E-02         0.00000E+00
    0.55969E-02         0.54813E-02         0.00000E+00
    0.63881E-02         0.53221E-02         0.00000E+00
    0.72005E-02         0.50993E-02         0.00000E+00
    0.79998E-02         0.48160E-02         0.00000E+00
    0.87543E-02         0.44774E-02         0.00000E+00
    0.94348E-02         0.40906E-02         0.00000E+00
    0.10015E-01         0.36641E-02         0.00000E+00
    0.10472E-01         0.32077E-02         0.00000E+00
    0.10785E-01         0.27322E-02         0.00000E+00
    0.10937E-01         0.22490E-02         0.00000E+00
    0.10913E-01         0.17701E-02         0.00000E+00
    0.10703E-01         0.13077E-02         0.00000E+00
    0.10298E-01         0.87454E-03         0.00000E+00
    0.96928E-02         0.48326E-03         0.00000E+00
    0.88840E-02         0.14675E-03         0.00000E+00
    0.78721E-02        -0.12209E-03         0.00000E+00
    0.66607E-02        -0.31031E-03         0.00000E+00
    0.52560E-02        -0.40498E-03         0.00000E+00
    0.36680E-02        -0.39324E-03         0.00000E+00
    0.19102E-02        -0.26238E-03         0.00000E+00
    0.00000E+00         0.00000E+00         0.00000E+00
    0.35603E-02         0.57067E-02         0.00000E+00
    0.38070E-02         0.57447E-02         0.00000E+00
    0.42137E-02         0.57417E-02         0.00000E+00
    0.47453E-02         0.56891E-02         0.00000E+00
    0.53670E-02         0.55812E-02         0.00000E+00
    0.60448E-02         0.54152E-02         0.00000E+00
    0.67460E-02         0.51908E-02         0.00000E+00
    0.74394E-02         0.49104E-02         0.00000E+00
    0.80961E-02         0.45780E-02         0.00000E+00
    0.86893E-02         0.41999E-02         0.00000E+00
    0.91949E-02         0.37836E-02         0.00000E+00
    0.95913E-02         0.33380E-02         0.00000E+00
    0.98596E-02         0.28729E-02         0.00000E+00
    0.99836E-02         0.23989E-02         0.00000E+00
    0.99501E-02         0.19274E-02         0.00000E+00
    0.97483E-02         0.14699E-02         0.00000E+00
    0.93705E-02         0.10385E-02         0.00000E+00
    0.88114E-02         0.64540E-03         0.00000E+00
    0.80687E-02         0.30294E-03         0.00000E+00
    0.71430E-02         0.23513E-04         0.00000E+00
    0.60377E-02        -0.18050E-03         0.00000E+00
    0.47593E-02        -0.29681E-03         0.00000E+00
    0.33175E-02        -0.31330E-03         0.00000E+00
    0.17254E-02        -0.21815E-03         0.00000E+00
    0.00000E+00         0.00000E+00         0.00000E+00
    0.36514E-02         0.58287E-02         0.00000E+00
    0.38283E-02         0.58367E-02         0.00000E+00
    0.41519E-02         0.58100E-02         0.00000E+00
    0.45910E-02         0.57397E-02         0.00000E+00
    0.51147E-02         0.56200E-02         0.00000E+00
    0.56923E-02         0.54477E-02         0.00000E+00
    0.62944E-02         0.52221E-02         0.00000E+00
    0.68930E-02         0.49446E-02         0.00000E+00
    0.74617E-02         0.46188E-02         0.00000E+00
    0.79761E-02         0.42499E-02         0.00000E+00
    0.84141E-02         0.38445E-02         0.00000E+00
    0.87557E-02         0.34108E-02         0.00000E+00
    0.89835E-02         0.29577E-02         0.00000E+00
    0.90826E-02         0.24952E-02         0.00000E+00
    0.90405E-02         0.20337E-02         0.00000E+00
    0.88474E-02         0.15844E-02         0.00000E+00
    0.84959E-02         0.11585E-02         0.00000E+00
    0.79814E-02         0.76780E-03         0.00000E+00
    0.73019E-02         0.42404E-03         0.00000E+00
    0.64580E-02         0.13905E-03         0.00000E+00
    0.54532E-02        -0.75391E-04         0.00000E+00
    0.42939E-02        -0.20765E-03         0.00000E+00
    0.29895E-02        -0.24637E-03         0.00000E+00
    0.15529E-02        -0.18060E-03         0.00000E+00
    0.00000E+00         0.00000E+00         0.00000E+00
    0.36693E-02         0.58955E-02         0.00000E+00
    0.37894E-02         0.58764E-02         0.00000E+00
    0.40429E-02         0.58278E-02         0.00000E+00
    0.44026E-02         0.57412E-02         0.00000E+00
    0.48408E-02         0.56107E-02         0.00000E+00
    0.53303E-02         0.54327E-02         0.00000E+00
    0.58448E-02         0.52062E-02         0.00000E+00
    0.63589E-02         0.49319E-02         0.00000E+00
    0.68488E-02         0.46128E-02         0.00000E+00
    0.72924E-02         0.42532E-02         0.00000E+00
    0.76695E-02         0.38593E-02         0.00000E+00
    0.79618E-02         0.34381E-02         0.00000E+00
    0.81533E-02         0.29982E-02         0.00000E+00
    0.82304E-02         0.25485E-02         0.00000E+00
    0.81815E-02         0.20990E-02         0.00000E+00
    0.79976E-02         0.16600E-02         0.00000E+00
    0.76720E-02         0.12425E-02         0.00000E+00
    0.72004E-02         0.85737E-03         0.00000E+00
    0.65811E-02         0.51590E-03         0.00000E+00
    0.58149E-02         0.22932E-03         0.00000E+00
    0.49052E-02         0.87852E-05         0.00000E+00
    0.38583E-02        -0.13475E-03         0.00000E+00
    0.26832E-02        -0.19068E-03         0.00000E+00
    0.13920E-02        -0.14890E-03         0.00000E+00
    0.00000E+00         0.00000E+00         0.00000E+00
    0.36212E-02         0.59189E-02         0.00000E+00
    0.36955E-02         0.58751E-02         0.00000E+00
    0.38906E-02         0.58067E-02         0.00000E+00
    0.41825E-02         0.57052E-02         0.00000E+00
    0.45468E-02         0.55648E-02         0.00000E+00
    0.49592E-02         0.53818E-02         0.00000E+00
    0.53963E-02         0.51545E-02         0.00000E+00
    0.58354E-02         0.48835E-02         0.00000E+00
    0.62551E-02         0.45710E-02         0.00000E+00
    0.66354E-02         0.42209E-02         0.00000E+00
    0.69579E-02         0.38384E-02         0.00000E+00
    0.72062E-02         0.34302E-02         0.00000E+00
    0.73656E-02         0.30039E-02         0.00000E+00
    0.74237E-02         0.25680E-02         0.00000E+00
    0.73699E-02         0.21316E-02         0.00000E+00
    0.71960E-02         0.17047E-02         0.00000E+00
    0.68958E-02         0.12974E-02         0.00000E+00
    0.64656E-02         0.92020E-03         0.00000E+00
    0.59039E-02         0.58371E-03         0.00000E+00
    0.52115E-02         0.29858E-03         0.00000E+00
    0.43919E-02         0.75358E-04         0.00000E+00
    0.34509E-02        -0.75686E-04         0.00000E+00
    0.23972E-02        -0.14467E-03         0.00000E+00
    0.12421E-02        -0.12229E-03         0.00000E+00
    0.00000E+00         0.00000E+00         0.00000E+00
    0.35135E-02         0.59089E-02         0.00000E+00
    0.35519E-02         0.58430E-02         0.00000E+00
    0.36988E-02         0.57566E-02         0.00000E+00
    0.39333E-02         0.56418E-02         0.00000E+00
    0.42339E-02         0.54924E-02         0.00000E+00
    0.45793E-02         0.53048E-02         0.00000E+00
    0.49484E-02         0.50771E-02         0.00000E+00
    0.53212E-02         0.48094E-02         0.00000E+00
    0.56785E-02         0.45034E-02         0.00000E+00
    0.60025E-02         0.41625E-02         0.00000E+00
    0.62765E-02         0.37914E-02         0.00000E+00
    0.64857E-02         0.33960E-02         0.00000E+00
    0.66170E-02         0.29835E-02         0.00000E+00
    0.66590E-02         0.25617E-02         0.00000E+00
    0.66021E-02         0.21391E-02         0.00000E+00
    0.64390E-02         0.17252E-02         0.00000E+00
    0.61640E-02         0.13293E-02         0.00000E+00
    0.57739E-02         0.96160E-03         0.00000E+00
    0.52673E-02         0.63199E-03         0.00000E+00
    0.46452E-02         0.35057E-03         0.00000E+00
    0.39108E-02         0.12727E-03         0.00000E+00
    0.30698E-02        -0.28290E-04         0.00000E+00
    0.21301E-02        -0.10692E-03         0.00000E+00
    0.11024E-02        -0.10007E-03         0.00000E+00
    0.00000E+00         0.00000E+00         0.00000E+00
    0.33527E-02         0.58743E-02         0.00000E+00
    0.33636E-02         0.57887E-02         0.00000E+00
    0.34714E-02         0.56863E-02         0.00000E+00
    0.36577E-02         0.55594E-02         0.00000E+00
    0.39038E-02         0.54020E-02         0.00000E+00
    0.41909E-02         0.52104E-02         0.00000E+00
    0.45006E-02         0.49824E-02         0.00000E+00
    0.48150E-02         0.47179E-02         0.00000E+00
    0.51172E-02         0.44182E-02         0.00000E+00
    0.53912E-02         0.40861E-02         0.00000E+00
    0.56223E-02         0.37260E-02         0.00000E+00
    0.57972E-02         0.33432E-02         0.00000E+00
    0.59040E-02         0.29443E-02         0.00000E+00
    0.59326E-02         0.25365E-02         0.00000E+00
    0.58746E-02         0.21279E-02         0.00000E+00
    0.57230E-02         0.17272E-02         0.00000E+00
    0.54731E-02         0.13435E-02         0.00000E+00
    0.51218E-02         0.98619E-03         0.00000E+00
    0.46682E-02         0.66470E-03         0.00000E+00
    0.41131E-02         0.38855E-03         0.00000E+00
    0.34596E-02         0.16710E-03         0.00000E+00
    0.27129E-02         0.93388E-05         0.00000E+00
    0.18806E-02        -0.76191E-04         0.00000E+00
    0.97222E-03        -0.81634E-04         0.00000E+00
    0.00000E+00         0.00000E+00         0.00000E+00
    0.31445E-02         0.58230E-02         0.00000E+00
    0.31354E-02         0.57199E-02         0.00000E+00
    0.32120E-02         0.56032E-02         0.00000E+00
    0.33582E-02         0.54655E-02         0.00000E+00
    0.35579E-02         0.53010E-02         0.00000E+00
    0.37948E-02         0.51059E-02         0.00000E+00
    0.40526E-02         0.48778E-02         0.00000E+00
    0.43158E-02         0.46164E-02         0.00000E+00
    0.45693E-02         0.43226E-02         0.00000E+00
    0.47992E-02         0.39990E-02         0.00000E+00
    0.49925E-02         0.36493E-02         0.00000E+00
    0.51373E-02         0.32785E-02         0.00000E+00
    0.52232E-02         0.28925E-02         0.00000E+00
    0.52412E-02         0.24983E-02         0.00000E+00
    0.51835E-02         0.21034E-02         0.00000E+00
    0.50444E-02         0.17160E-02         0.00000E+00
    0.48195E-02         0.13445E-02         0.00000E+00
    0.45061E-02         0.99794E-03         0.00000E+00
    0.41033E-02         0.68524E-03         0.00000E+00
    0.36122E-02         0.41536E-03         0.00000E+00
    0.30356E-02         0.19709E-03         0.00000E+00
    0.23783E-02         0.38866E-04         0.00000E+00
    0.16470E-02        -0.51390E-04         0.00000E+00
    0.85058E-03        -0.66454E-04         0.00000E+00
    0.00000E+00         0.00000E+00         0.00000E+00
    0.28948E-02         0.57613E-02         0.00000E+00
    0.28721E-02         0.56429E-02         0.00000E+00
    0.29242E-02         0.55137E-02         0.00000E+00
    0.30375E-02         0.53666E-02         0.00000E+00
    0.31979E-02         0.51958E-02         0.00000E+00
    0.33915E-02         0.49976E-02         0.00000E+00
    0.36042E-02         0.47695E-02         0.00000E+00
    0.38224E-02         0.45110E-02         0.00000E+00
    0.40333E-02         0.42227E-02         0.00000E+00
    0.42244E-02         0.39069E-02         0.00000E+00
    0.43845E-02         0.35669E-02         0.00000E+00
    0.45032E-02         0.32073E-02         0.00000E+00
    0.45713E-02         0.28337E-02         0.00000E+00
    0.45809E-02         0.24523E-02         0.00000E+00
    0.45254E-02         0.20704E-02         0.00000E+00
    0.43995E-02         0.16957E-02         0.00000E+00
    0.41995E-02         0.13362E-02         0.00000E+00
    0.39230E-02         0.10003E-02         0.00000E+00
    0.35694E-02         0.69657E-03         0.00000E+00
    0.31397E-02         0.43345E-03         0.00000E+00
    0.26363E-02         0.21920E-03         0.00000E+00
    0.20637E-02         0.61740E-04         0.00000E+00
    0.14278E-02        -0.31562E-04         0.00000E+00
    0.73667E-03        -0.54052E-04         0.00000E+00
    0.00000E+00         0.00000E+00         0.00000E+00
    0.26089E-02         0.56950E-02         0.00000E+00
    0.25781E-02         0.55633E-02         0.00000E+00
    0.26116E-02         0.54232E-02         0.00000E+00
    0.26980E-02         0.52679E-02         0.00000E+00
    0.28254E-02         0.50917E-02         0.00000E+00
    0.29818E-02         0.48908E-02         0.00000E+00
    0.31553E-02         0.46629E-02         0.00000E+00
    0.33342E-02         0.44070E-02         0.00000E+00
    0.35075E-02         0.41238E-02         0.00000E+00
    0.36645E-02         0.38151E-02         0.00000E+00
    0.37955E-02         0.34839E-02         0.00000E+00
    0.38916E-02         0.31346E-02         0.00000E+00
    0.39448E-02         0.27722E-02         0.00000E+00
    0.39483E-02         0.24027E-02         0.00000E+00
    0.38964E-02         0.20329E-02         0.00000E+00
    0.37845E-02         0.16700E-02         0.00000E+00
    0.36093E-02         0.13218E-02         0.00000E+00
    0.33690E-02         0.99618E-03         0.00000E+00
    0.30631E-02         0.70120E-03         0.00000E+00
    0.26922E-02         0.44490E-03         0.00000E+00
    0.22589E-02         0.23509E-03         0.00000E+00
    0.17668E-02         0.79206E-04         0.00000E+00
    0.12214E-02        -0.15879E-04         0.00000E+00
    0.62964E-03        -0.44019E-04         0.00000E+00
    0.00000E+00         0.00000E+00         0.00000E+00
    0.22919E-02         0.56287E-02         0.00000E+00
    0.22575E-02         0.54857E-02         0.00000E+00
    0.22775E-02         0.53363E-02         0.00000E+00
    0.23422E-02         0.51739E-02         0.00000E+00
    0.24419E-02         0.49931E-02         0.00000E+00
    0.25664E-02         0.47901E-02         0.00000E+00
    0.27058E-02         0.45623E-02         0.00000E+00
    0.28503E-02         0.43089E-02         0.00000E+00
    0.29905E-02         0.40301E-02         0.00000E+00
    0.31176E-02         0.37277E-02         0.00000E+00
    0.32231E-02         0.34044E-02         0.00000E+00
    0.32997E-02         0.30642E-02         0.00000E+00
    0.33405E-02         0.27118E-02         0.00000E+00
    0.33398E-02         0.23531E-02         0.00000E+00
    0.32928E-02         0.19942E-02         0.00000E+00
    0.31955E-02         0.16421E-02         0.00000E+00
    0.30453E-02         0.13042E-02         0.00000E+00
    0.28406E-02         0.98803E-03         0.00000E+00
    0.25808E-02         0.70125E-03         0.00000E+00
    0.22668E-02         0.45150E-03         0.00000E+00
    0.19006E-02         0.24619E-03         0.00000E+00
    0.14856E-02         0.92328E-04         0.00000E+00
    0.10262E-02        -0.36370E-05         0.00000E+00
    0.52860E-03        -0.36002E-04         0.00000E+00
    0.00000E+00         0.00000E+00         0.00000E+00
    0.19489E-02         0.55663E-02         0.00000E+00
    0.19147E-02         0.54139E-02         0.00000E+00
    0.19252E-02         0.52568E-02         0.00000E+00
    0.19727E-02         0.50886E-02         0.00000E+00
    0.20491E-02         0.49039E-02         0.00000E+00
    0.21462E-02         0.46990E-02         0.00000E+00
    0.22558E-02         0.44714E-02         0.00000E+00
    0.23700E-02         0.42201E-02         0.00000E+00
    0.24810E-02         0.39452E-02         0.00000E+00
    0.25815E-02         0.36483E-02         0.00000E+00
    0.26648E-02         0.33318E-02         0.00000E+00
    0.27245E-02         0.29995E-02         0.00000E+00
    0.27551E-02         0.26559E-02         0.00000E+00
    0.27520E-02         0.23064E-02         0.00000E+00
    0.27109E-02         0.19570E-02         0.00000E+00
    0.26289E-02         0.16145E-02         0.00000E+00
    0.25037E-02         0.12857E-02         0.00000E+00
    0.23339E-02         0.97789E-03         0.00000E+00
    0.21192E-02         0.69848E-03         0.00000E+00
    0.18603E-02         0.45473E-03         0.00000E+00
    0.15588E-02         0.25368E-03         0.00000E+00
    0.12177E-02         0.10200E-03         0.00000E+00
    0.84062E-03         0.57596E-05         0.00000E+00
    0.43270E-03        -0.29702E-04         0.00000E+00
    0.00000E+00         0.00000E+00         0.00000E+00
    0.15843E-02         0.55111E-02         0.00000E+00
    0.15534E-02         0.53511E-02         0.00000E+00
    0.15579E-02         0.51878E-02         0.00000E+00
    0.15917E-02         0.50148E-02         0.00000E+00
    0.16485E-02         0.48270E-02         0.00000E+00
    0.17219E-02         0.46206E-02         0.00000E+00
    0.18053E-02         0.43933E-02         0.00000E+00
    0.18926E-02         0.41437E-02         0.00000E+00
    0.19776E-02         0.38720E-02         0.00000E+00
    0.20545E-02         0.35796E-02         0.00000E+00
    0.21180E-02         0.32688E-02         0.00000E+00
    0.21631E-02         0.29431E-02         0.00000E+00
    0.21854E-02         0.26068E-02         0.00000E+00
    0.21812E-02         0.22651E-02         0.00000E+00
    0.21472E-02         0.19238E-02         0.00000E+00
    0.20809E-02         0.15892E-02         0.00000E+00
    0.19807E-02         0.12681E-02         0.00000E+00
    0.18454E-02         0.96744E-03         0.00000E+00
    0.16748E-02         0.69434E-03         0.00000E+00
    0.14694E-02         0.45579E-03         0.00000E+00
    0.12307E-02         0.25853E-03         0.00000E+00
    0.96084E-03         0.10894E-03         0.00000E+00
    0.66297E-03         0.12801E-04         0.00000E+00
    0.34106E-03        -0.24875E-04         0.00000E+00
    0.00000E+00         0.00000E+00         0.00000E+00
    0.12029E-02         0.54656E-02         0.00000E+00
    0.11777E-02         0.52998E-02         0.00000E+00
    0.11787E-02         0.51316E-02         0.00000E+00
    0.12017E-02         0.49550E-02         0.00000E+00
    0.12418E-02         0.47648E-02         0.00000E+00
    0.12943E-02         0.45573E-02         0.00000E+00
    0.13544E-02         0.43301E-02         0.00000E+00
    0.14175E-02         0.40820E-02         0.00000E+00
    0.14790E-02         0.38129E-02         0.00000E+00
    0.15347E-02         0.35240E-02         0.00000E+00
    0.15805E-02         0.32177E-02         0.00000E+00
    0.16127E-02         0.28972E-02         0.00000E+00
    0.16282E-02         0.25666E-02         0.00000E+00
    0.16240E-02         0.22311E-02         0.00000E+00
    0.15978E-02         0.18961E-02         0.00000E+00
    0.15477E-02         0.15679E-02         0.00000E+00
    0.14725E-02         0.12529E-02         0.00000E+00
    0.13714E-02         0.95799E-03         0.00000E+00
    0.12441E-02         0.68997E-03         0.00000E+00
    0.10911E-02         0.45564E-03         0.00000E+00
    0.91347E-03         0.26153E-03         0.00000E+00
    0.71289E-03         0.11376E-03         0.00000E+00
    0.49167E-03         0.17881E-04         0.00000E+00
    0.25282E-03        -0.21321E-04         0.00000E+00
    0.00000E+00         0.00000E+00         0.00000E+00
    0.80884E-03         0.54318E-02         0.00000E+00
    0.79107E-03         0.52618E-02         0.00000E+00
    0.79072E-03         0.50902E-02         0.00000E+00
    0.80485E-03         0.49110E-02         0.00000E+00
    0.83039E-03         0.47191E-02         0.00000E+00
    0.86420E-03         0.45109E-02         0.00000E+00
    0.90313E-03         0.42838E-02         0.00000E+00
    0.94408E-03         0.40367E-02         0.00000E+00
    0.98404E-03         0.37694E-02         0.00000E+00
    0.10202E-02         0.34831E-02         0.00000E+00
    0.10498E-02         0.31800E-02         0.00000E+00
    0.10706E-02         0.28632E-02         0.00000E+00
    0.10803E-02         0.25369E-02         0.00000E+00
    0.10770E-02         0.22058E-02         0.00000E+00
    0.10592E-02         0.18754E-02         0.00000E+00
    0.10257E-02         0.15518E-02         0.00000E+00
    0.97550E-03         0.12413E-02         0.00000E+00
    0.90820E-03         0.95054E-03         0.00000E+00
    0.82367E-03         0.68625E-03         0.00000E+00
    0.72218E-03         0.45503E-03         0.00000E+00
    0.60444E-03         0.26325E-03         0.00000E+00
    0.47157E-03         0.11688E-03         0.00000E+00
    0.32514E-03         0.21298E-04         0.00000E+00
    0.16714E-03        -0.18889E-04         0.00000E+00
    0.00000E+00         0.00000E+00         0.00000E+00
    0.40649E-03         0.54110E-02         0.00000E+00
    0.39732E-03         0.52385E-02         0.00000E+00
    0.39682E-03         0.50649E-02         0.00000E+00
    0.40355E-03         0.48841E-02         0.00000E+00
    0.41596E-03         0.46912E-02         0.00000E+00
    0.43251E-03         0.44825E-02         0.00000E+00
    0.45163E-03         0.42555E-02         0.00000E+00
    0.47176E-03         0.40090E-02         0.00000E+00
    0.49143E-03         0.37428E-02         0.00000E+00
    0.50921E-03         0.34581E-02         0.00000E+00
    0.52378E-03         0.31569E-02         0.00000E+00
    0.53394E-03         0.28424E-02         0.00000E+00
    0.53859E-03         0.25186E-02         0.00000E+00
    0.53681E-03         0.21902E-02         0.00000E+00
    0.52781E-03         0.18626E-02         0.00000E+00
    0.51099E-03         0.15418E-02         0.00000E+00
    0.48590E-03         0.12340E-02         0.00000E+00
    0.45229E-03         0.94579E-03         0.00000E+00
    0.41012E-03         0.68377E-03         0.00000E+00
    0.35953E-03         0.45446E-03         0.00000E+00
    0.30086E-03         0.26412E-03         0.00000E+00
    0.23468E-03         0.11863E-03         0.00000E+00
    0.16178E-03         0.23264E-04         0.00000E+00
    0.83145E-04        -0.17472E-04         0.00000E+00
    0.00000E+00         0.00000E+00         0.00000E+00
    0.00000E+00         0.54039E-02         0.00000E+00
    0.00000E+00         0.52306E-02         0.00000E+00
    0.00000E+00         0.50564E-02         0.00000E+00
    0.00000E+00         0.48751E-02         0.00000E+00
    0.00000E+00         0.46818E-02         0.00000E+00
    0.00000E+00         0.44730E-02         0.00000E+00
    0.00000E+00         0.42460E-02         0.00000E+00
    0.00000E+00         0.39997E-02         0.00000E+00
    0.00000E+00         0.37339E-02         0.00000E+00
    0.00000E+00         0.34497E-02         0.00000E+00
    0.00000E+00         0.31492E-02         0.00000E+00
    0.00000E+00         0.28354E-02         0.00000E+00
    0.00000E+00         0.25124E-02         0.00000E+00
    0.00000E+00         0.21849E-02         0.00000E+00
    0.00000E+00         0.18583E-02         0.00000E+00
    0.00000E+00         0.15384E-02         0.00000E+00
    0.00000E+00         0.12315E-02         0.00000E+00
    0.00000E+00         0.94417E-03         0.00000E+00
    0.00000E+00         0.68291E-03         0.00000E+00
    0.00000E+00         0.45423E-03         0.00000E+00
    0.00000E+00         0.26439E-03         0.00000E+00
    0.00000E+00         0.11920E-03         0.00000E+00
    0.00000E+00         0.23906E-04         0.00000E+00
    0.00000E+00        -0.17007E-04         0.00000E+00
    0.00000E+00         0.00000E+00         0.00000E+00
CELL_DATA       1152
VECTORS vDarcy double 
    0.55908E-19        -0.20256E-19         0.00000E+00
    0.19250E-19        -0.89308E-19         0.00000E+00
    0.47454E-20        -0.14158E-18         0.00000E+00
   -0.15790E-19        -0.30575E-19         0.00000E+00
   -0.71653E-20         0.29700E-19         0.00000E+00
    0.20451E-19        -0.16282E-19         0.00000E+00
    0.11173E-19         0.24046E-19         0.00000E+00
    0.20034E-20         0.54504E-19         0.00000E+00
    0.96592E-20         0.69387E-19         0.00000E+00
    0.13928E-19         0.46414E-19         0.00000E+00
    0.14040E-19        -0.20933E-19         0.00000E+00
    0.37674E-20        -0.32941E-19         0.00000E+00
   -0.15348E-19        -0.60971E-20         0.00000E+00
   -0.17889E-19        -0.18930E-20         0.00000E+00
   -0.60945E-20        -0.27051E-20         0.00000E+00
   -0.41876E-20        -0.36377E-19         0.00000E+00
   -0.51673E-20        -0.64770E-19         0.00000E+00
   -0.28042E-20        -0.50630E-19         0.00000E+00
   -0.51062E-21        -0.14391E-19         0.00000E+00
   -0.24662E-20        -0.11426E-19         0.00000E+00
   -0.43952E-20        -0.89315E-20         0.00000E+00
   -0.19714E-20        -0.45995E-20         0.00000E+00
   -0.15355E-21        -0.41352E-20         0.00000E+00
    0.93599E-21        -0.17165E-20         0.00000E+00
    0.41796E-19         0.28843E-19         0.00000E+00
   -0.10870E-19        -0.49083E-19         0.00000E+00
   -0.48357E-19        -0.12981E-18         0.00000E+00
   -0.52296E-19        -0.17867E-19         0.00000E+00
   -0.43302E-19        -0.62636E-21         0.00000E+00
   -0.20880E-19        -0.35995E-19         0.00000E+00
    0.37597E-20         0.28398E-19         0.00000E+00
    0.15245E-19         0.47836E-19         0.00000E+00
    0.18439E-19         0.65205E-19         0.00000E+00
    0.22048E-19         0.42717E-19         0.00000E+00
    0.13883E-19        -0.91838E-20         0.00000E+00
   -0.10140E-19        -0.10394E-19         0.00000E+00
   -0.22753E-19         0.30847E-20         0.00000E+00
   -0.28800E-19        -0.24870E-20         0.00000E+00
   -0.20268E-19        -0.22437E-19         0.00000E+00
    0.58025E-22        -0.38878E-19         0.00000E+00
    0.14984E-20        -0.62730E-19         0.00000E+00
   -0.37898E-20        -0.49746E-19         0.00000E+00
   -0.72240E-20        -0.14134E-19         0.00000E+00
   -0.10154E-19        -0.67968E-20         0.00000E+00
   -0.86068E-20        -0.13179E-19         0.00000E+00
   -0.24567E-20        -0.89260E-20         0.00000E+00
    0.17516E-20        -0.58348E-20         0.00000E+00
    0.38102E-20        -0.31651E-20         0.00000E+00
   -0.68548E-19        -0.42419E-20         0.00000E+00
   -0.13705E-19        -0.18175E-19         0.00000E+00
   -0.37795E-19        -0.99147E-19         0.00000E+00
   -0.22371E-19        -0.60021E-19         0.00000E+00
    0.92385E-20         0.92424E-21         0.00000E+00
   -0.30939E-19        -0.19790E-19         0.00000E+00
   -0.44000E-19         0.61357E-21         0.00000E+00
   -0.15848E-20         0.21720E-19         0.00000E+00
    0.22905E-19         0.63638E-19         0.00000E+00
    0.18075E-19         0.45505E-19         0.00000E+00
    0.86828E-20         0.55851E-20         0.00000E+00
   -0.56531E-20         0.13197E-19         0.00000E+00
   -0.14639E-19         0.10922E-20         0.00000E+00
   -0.25078E-20        -0.65782E-20         0.00000E+00
    0.59394E-20        -0.35325E-19         0.00000E+00
    0.36704E-20        -0.44048E-19         0.00000E+00
    0.13505E-20        -0.56680E-19         0.00000E+00
   -0.71079E-20        -0.42049E-19         0.00000E+00
   -0.11481E-19        -0.14024E-19         0.00000E+00
   -0.73049E-20        -0.81524E-20         0.00000E+00
   -0.31160E-20        -0.17560E-19         0.00000E+00
   -0.15551E-20        -0.12256E-19         0.00000E+00
   -0.89299E-22        -0.81784E-20         0.00000E+00
   -0.29083E-22        -0.29404E-20         0.00000E+00
   -0.60097E-20        -0.51820E-19         0.00000E+00
    0.13821E-19        -0.45270E-19         0.00000E+00
    0.20533E-19        -0.54674E-19         0.00000E+00
   -0.32095E-19        -0.67289E-19         0.00000E+00
   -0.60796E-19         0.52842E-20         0.00000E+00
   -0.43489E-19        -0.12787E-20         0.00000E+00
   -0.24654E-19        -0.23672E-19         0.00000E+00
   -0.17534E-19        -0.35299E-20         0.00000E+00
   -0.18466E-19         0.65330E-19         0.00000E+00
   -0.48941E-20         0.35072E-19         0.00000E+00
    0.13434E-19         0.70824E-20         0.00000E+00
    0.17354E-19         0.22115E-19         0.00000E+00
    0.22013E-19        -0.34991E-20         0.00000E+00
    0.22740E-19        -0.14845E-19         0.00000E+00
    0.79311E-20        -0.20697E-19         0.00000E+00
   -0.29233E-20        -0.45552E-19         0.00000E+00
   -0.21553E-20        -0.53624E-19         0.00000E+00
   -0.60128E-20        -0.32789E-19         0.00000E+00
   -0.73994E-20        -0.17525E-19         0.00000E+00
    0.17422E-21        -0.16401E-19         0.00000E+00
    0.32344E-20        -0.16560E-19         0.00000E+00
    0.26200E-21        -0.11845E-19         0.00000E+00
   -0.79854E-21        -0.89951E-20         0.00000E+00
   -0.57528E-21        -0.24072E-20         0.00000E+00
    0.11407E-19        -0.57217E-19         0.00000E+00
    0.21854E-19        -0.70150E-19         0.00000E+00
   -0.66882E-20        -0.79639E-20         0.00000E+00
   -0.44188E-19        -0.23871E-19         0.00000E+00
   -0.36797E-19        -0.16824E-19         0.00000E+00
   -0.15628E-19        -0.17646E-19         0.00000E+00
   -0.10709E-19        -0.31059E-19         0.00000E+00
   -0.14977E-19         0.10060E-20         0.00000E+00
   -0.91954E-20         0.55944E-19         0.00000E+00
    0.23029E-20         0.19387E-19         0.00000E+00
    0.54104E-20         0.13314E-20         0.00000E+00
    0.15985E-19         0.13370E-19         0.00000E+00
    0.28627E-19        -0.12055E-19         0.00000E+00
    0.31643E-19        -0.10031E-19         0.00000E+00
    0.23375E-19        -0.24333E-20         0.00000E+00
    0.13758E-19        -0.43345E-19         0.00000E+00
    0.44701E-20        -0.47311E-19         0.00000E+00
   -0.13580E-20        -0.29416E-19         0.00000E+00
    0.23567E-20        -0.23226E-19         0.00000E+00
    0.66456E-20        -0.22563E-19         0.00000E+00
    0.66152E-20        -0.13428E-19         0.00000E+00
    0.31622E-20        -0.85511E-20         0.00000E+00
   -0.95099E-21        -0.71153E-20         0.00000E+00
   -0.16171E-20        -0.38441E-20         0.00000E+00
    0.12841E-20        -0.69908E-19         0.00000E+00
   -0.10926E-19        -0.55696E-19         0.00000E+00
   -0.11770E-19         0.69673E-20         0.00000E+00
   -0.92658E-21        -0.12145E-19         0.00000E+00
    0.64734E-20        -0.43341E-19         0.00000E+00
    0.72216E-20        -0.13046E-19         0.00000E+00
   -0.13660E-19        -0.19696E-19         0.00000E+00
   -0.10037E-19        -0.97112E-20         0.00000E+00
    0.18095E-19         0.32748E-19         0.00000E+00
    0.22432E-19         0.26747E-19         0.00000E+00
    0.16255E-19        -0.29596E-20         0.00000E+00
    0.21828E-19         0.15139E-20         0.00000E+00
    0.20586E-19        -0.11598E-19         0.00000E+00
    0.23220E-19        -0.16139E-19         0.00000E+00
    0.33689E-19         0.14743E-20         0.00000E+00
    0.25960E-19        -0.29906E-19         0.00000E+00
    0.11205E-19        -0.36706E-19         0.00000E+00
    0.73639E-20        -0.30352E-19         0.00000E+00
    0.96847E-20        -0.28325E-19         0.00000E+00
    0.81530E-20        -0.20220E-19         0.00000E+00
    0.34833E-20        -0.11070E-19         0.00000E+00
    0.38654E-20        -0.78378E-20         0.00000E+00
    0.32297E-20        -0.30796E-20         0.00000E+00
   -0.17755E-20        -0.22085E-20         0.00000E+00
   -0.96814E-20        -0.61511E-19         0.00000E+00
   -0.19309E-19        -0.42256E-19         0.00000E+00
   -0.70941E-20        -0.17844E-19         0.00000E+00
    0.12794E-19        -0.18065E-19         0.00000E+00
    0.61209E-20        -0.38148E-19         0.00000E+00
   -0.41261E-20        -0.87404E-20         0.00000E+00
    0.13459E-21        -0.73810E-20         0.00000E+00
    0.10053E-20        -0.26521E-19         0.00000E+00
   -0.33444E-20         0.25776E-19         0.00000E+00
    0.89045E-20         0.17133E-19         0.00000E+00
    0.27469E-19        -0.57336E-20         0.00000E+00
    0.24006E-19         0.21788E-20         0.00000E+00
    0.17242E-19        -0.42570E-20         0.00000E+00
    0.19805E-19        -0.28678E-19         0.00000E+00
    0.33686E-19        -0.10337E-19         0.00000E+00
    0.41386E-19        -0.18066E-19         0.00000E+00
    0.24095E-19        -0.16501E-19         0.00000E+00
    0.55270E-20        -0.28150E-19         0.00000E+00
    0.10549E-20        -0.28377E-19         0.00000E+00
   -0.44096E-21        -0.17141E-19         0.00000E+00
    0.24270E-20        -0.12347E-19         0.00000E+00
    0.27146E-20        -0.72305E-20         0.00000E+00
   -0.19644E-21        -0.14027E-21         0.00000E+00
   -0.46233E-21         0.12321E-21         0.00000E+00
   -0.39095E-21        -0.51439E-19         0.00000E+00
   -0.60725E-20        -0.37020E-19         0.00000E+00
   -0.10487E-19        -0.30880E-19         0.00000E+00
   -0.83818E-20        -0.27022E-19         0.00000E+00
   -0.30927E-20        -0.27808E-19         0.00000E+00
    0.84666E-20        -0.20393E-19         0.00000E+00
    0.97977E-20        -0.13203E-20         0.00000E+00
   -0.33791E-20        -0.20275E-19         0.00000E+00
    0.83094E-20         0.12191E-19         0.00000E+00
    0.25974E-19         0.80417E-21         0.00000E+00
    0.22128E-19        -0.41237E-20         0.00000E+00
    0.17245E-19         0.89152E-20         0.00000E+00
    0.20825E-19        -0.78095E-20         0.00000E+00
    0.20599E-19        -0.27463E-19         0.00000E+00
    0.16772E-19        -0.21607E-19         0.00000E+00
    0.20338E-19        -0.18061E-19         0.00000E+00
    0.21736E-19        -0.61202E-21         0.00000E+00
    0.15288E-19        -0.19022E-19         0.00000E+00
    0.48219E-20        -0.22567E-19         0.00000E+00
   -0.56503E-21        -0.16069E-19         0.00000E+00
   -0.36406E-20        -0.13213E-19         0.00000E+00
   -0.56512E-20        -0.46423E-20         0.00000E+00
   -0.48421E-20        -0.62658E-21         0.00000E+00
   -0.30464E-20        -0.92025E-21         0.00000E+00
   -0.73508E-20        -0.43697E-19         0.00000E+00
   -0.16534E-19        -0.29897E-19         0.00000E+00
   -0.17835E-19        -0.32287E-19         0.00000E+00
   -0.21516E-19        -0.24039E-19         0.00000E+00
   -0.22707E-19        -0.34889E-19         0.00000E+00
   -0.12915E-19        -0.34662E-19         0.00000E+00
    0.43688E-20        -0.56660E-20         0.00000E+00
    0.56698E-20        -0.40539E-20         0.00000E+00
   -0.49358E-21        -0.95552E-20         0.00000E+00
    0.17750E-20         0.26181E-20         0.00000E+00
    0.12083E-20        -0.15250E-20         0.00000E+00
    0.71569E-20         0.52505E-20         0.00000E+00
    0.97251E-20        -0.10293E-19         0.00000E+00
    0.94438E-20        -0.24472E-19         0.00000E+00
    0.10081E-19        -0.21408E-19         0.00000E+00
    0.71562E-20        -0.18902E-19         0.00000E+00
    0.95816E-20        -0.35948E-20         0.00000E+00
    0.93071E-20        -0.93156E-20         0.00000E+00
    0.44225E-20        -0.16923E-19         0.00000E+00
   -0.31031E-21        -0.11593E-19         0.00000E+00
   -0.61068E-20        -0.88163E-20         0.00000E+00
   -0.84789E-20        -0.46558E-20         0.00000E+00
   -0.73142E-20        -0.25870E-20         0.00000E+00
   -0.59706E-20        -0.20990E-20         0.00000E+00
   -0.61448E-20        -0.30201E-19         0.00000E+00
   -0.11809E-19        -0.28545E-19         0.00000E+00
   -0.91322E-20        -0.35014E-19         0.00000E+00
   -0.60761E-20        -0.20687E-19         0.00000E+00
   -0.12028E-19        -0.31098E-19         0.00000E+00
   -0.13533E-19        -0.46740E-19         0.00000E+00
   -0.23767E-20        -0.22028E-19         0.00000E+00
    0.72337E-20         0.13971E-20         0.00000E+00
    0.13010E-20        -0.29102E-20         0.00000E+00
   -0.60794E-20         0.10850E-20         0.00000E+00
    0.71363E-21        -0.62182E-20         0.00000E+00
    0.82831E-20        -0.35743E-20         0.00000E+00
    0.15551E-19        -0.11305E-19         0.00000E+00
    0.10003E-19        -0.17631E-19         0.00000E+00
   -0.93167E-20        -0.95668E-20         0.00000E+00
   -0.14932E-19        -0.22203E-19         0.00000E+00
   -0.32146E-20        -0.14436E-19         0.00000E+00
    0.52184E-20        -0.66331E-20         0.00000E+00
    0.15221E-20        -0.11024E-19         0.00000E+00
   -0.62476E-20        -0.49886E-20         0.00000E+00
   -0.86951E-20        -0.71765E-20         0.00000E+00
   -0.72014E-20        -0.54173E-20         0.00000E+00
   -0.65934E-20        -0.35982E-20         0.00000E+00
   -0.67701E-20        -0.22546E-20         0.00000E+00
    0.58800E-20        -0.29936E-19         0.00000E+00
    0.10285E-19        -0.27551E-19         0.00000E+00
   -0.13071E-20        -0.27093E-19         0.00000E+00
   -0.72224E-20        -0.25749E-19         0.00000E+00
    0.10517E-19        -0.37824E-19         0.00000E+00
    0.17397E-19        -0.45389E-19         0.00000E+00
    0.11360E-19        -0.28498E-19         0.00000E+00
    0.95004E-20         0.11663E-21         0.00000E+00
    0.38912E-20         0.99121E-20         0.00000E+00
    0.59192E-20        -0.63849E-20         0.00000E+00
    0.14698E-19        -0.14320E-19         0.00000E+00
    0.19088E-19        -0.74320E-20         0.00000E+00
    0.15615E-19        -0.11242E-19         0.00000E+00
    0.91739E-20        -0.57039E-20         0.00000E+00
    0.88382E-20        -0.18380E-20         0.00000E+00
    0.35077E-20        -0.18987E-19         0.00000E+00
   -0.61344E-20        -0.19728E-19         0.00000E+00
   -0.41306E-20        -0.11778E-19         0.00000E+00
   -0.14840E-20        -0.48302E-20         0.00000E+00
   -0.51059E-20         0.20877E-21         0.00000E+00
   -0.60854E-20        -0.89468E-20         0.00000E+00
   -0.42982E-20        -0.69279E-20         0.00000E+00
   -0.30433E-20        -0.39505E-20         0.00000E+00
   -0.39193E-20        -0.84975E-21         0.00000E+00
   -0.19981E-20        -0.33818E-19         0.00000E+00
   -0.61693E-20        -0.23903E-19         0.00000E+00
   -0.51061E-20        -0.20213E-19         0.00000E+00
    0.81562E-21        -0.32636E-19         0.00000E+00
    0.21734E-21        -0.48079E-19         0.00000E+00
   -0.48964E-20        -0.36901E-19         0.00000E+00
   -0.53828E-20        -0.30464E-19         0.00000E+00
    0.12905E-20        -0.27318E-20         0.00000E+00
    0.10240E-19         0.94200E-20         0.00000E+00
    0.14533E-19        -0.12214E-19         0.00000E+00
    0.14243E-19        -0.16979E-19         0.00000E+00
    0.92126E-20        -0.41319E-20         0.00000E+00
   -0.10690E-20        -0.78796E-21         0.00000E+00
   -0.19007E-20        -0.88861E-20         0.00000E+00
    0.10906E-19        -0.11126E-19         0.00000E+00
    0.14655E-19        -0.81171E-20         0.00000E+00
    0.68434E-20        -0.13144E-19         0.00000E+00
   -0.10939E-20        -0.12428E-19         0.00000E+00
   -0.48595E-20        -0.30606E-20         0.00000E+00
   -0.94662E-21        -0.18518E-20         0.00000E+00
    0.68261E-21        -0.75360E-20         0.00000E+00
   -0.16411E-20        -0.78021E-20         0.00000E+00
   -0.24803E-20        -0.34920E-20         0.00000E+00
   -0.26059E-20        -0.30671E-21         0.00000E+00
   -0.50180E-20        -0.26802E-19         0.00000E+00
   -0.78428E-20        -0.23923E-19         0.00000E+00
   -0.55526E-20        -0.23546E-19         0.00000E+00
   -0.47208E-20        -0.36056E-19         0.00000E+00
   -0.76372E-20        -0.41144E-19         0.00000E+00
   -0.10897E-19        -0.35463E-19         0.00000E+00
   -0.11836E-19        -0.30476E-19         0.00000E+00
   -0.92018E-20        -0.12027E-19         0.00000E+00
    0.74962E-20        -0.69325E-20         0.00000E+00
    0.17770E-19        -0.10429E-19         0.00000E+00
    0.93217E-20        -0.10026E-19         0.00000E+00
    0.37156E-21         0.28959E-20         0.00000E+00
    0.29773E-20        -0.13987E-21         0.00000E+00
    0.93065E-20        -0.15032E-19         0.00000E+00
    0.79496E-20        -0.16430E-19         0.00000E+00
    0.94684E-20        -0.80816E-20         0.00000E+00
    0.12773E-19        -0.86727E-20         0.00000E+00
    0.83071E-20        -0.44958E-20         0.00000E+00
    0.39604E-20        -0.28807E-20         0.00000E+00
    0.54080E-20        -0.73923E-20         0.00000E+00
    0.39245E-20        -0.21412E-20         0.00000E+00
   -0.12719E-20        -0.56767E-20         0.00000E+00
   -0.33108E-20        -0.27392E-20         0.00000E+00
   -0.30922E-20        -0.11525E-20         0.00000E+00
   -0.14095E-21        -0.21643E-19         0.00000E+00
    0.22006E-20        -0.28599E-19         0.00000E+00
    0.28871E-20        -0.21847E-19         0.00000E+00
   -0.16754E-20        -0.34024E-19         0.00000E+00
   -0.23346E-20        -0.39600E-19         0.00000E+00
   -0.30982E-20        -0.32983E-19         0.00000E+00
   -0.99772E-20        -0.25137E-19         0.00000E+00
   -0.10555E-19        -0.19423E-19         0.00000E+00
   -0.58224E-20        -0.20967E-19         0.00000E+00
   -0.94438E-21        -0.11546E-19         0.00000E+00
    0.59771E-21        -0.20027E-20         0.00000E+00
    0.50759E-20        -0.65564E-21         0.00000E+00
    0.17739E-19        -0.11857E-19         0.00000E+00
    0.19500E-19        -0.11404E-19         0.00000E+00
    0.12302E-19        -0.11503E-19         0.00000E+00
    0.69962E-20        -0.92213E-20         0.00000E+00
    0.50076E-20        -0.88494E-20         0.00000E+00
    0.82860E-20        -0.31313E-20         0.00000E+00
    0.87219E-20        -0.33435E-21         0.00000E+00
    0.25447E-20        -0.52090E-20         0.00000E+00
   -0.62915E-22        -0.23338E-21         0.00000E+00
   -0.77477E-21        -0.16763E-20         0.00000E+00
   -0.27121E-20        -0.27633E-20         0.00000E+00
   -0.28591E-20        -0.12000E-20         0.00000E+00
   -0.86569E-22        -0.21416E-19         0.00000E+00
   -0.76325E-21        -0.30491E-19         0.00000E+00
    0.41239E-20        -0.25528E-19         0.00000E+00
    0.47841E-20        -0.26441E-19         0.00000E+00
   -0.34336E-20        -0.38307E-19         0.00000E+00
   -0.53637E-20        -0.31583E-19         0.00000E+00
   -0.66492E-20        -0.18373E-19         0.00000E+00
   -0.90596E-20        -0.23198E-19         0.00000E+00
   -0.10313E-19        -0.20671E-19         0.00000E+00
   -0.93789E-20        -0.17654E-19         0.00000E+00
   -0.21745E-20        -0.46410E-20         0.00000E+00
    0.63075E-20        -0.10977E-19         0.00000E+00
    0.49319E-20        -0.12823E-19         0.00000E+00
    0.29427E-20        -0.10210E-19         0.00000E+00
    0.44427E-20        -0.69993E-20         0.00000E+00
    0.38349E-20        -0.78107E-20         0.00000E+00
    0.51512E-20        -0.95876E-20         0.00000E+00
    0.38383E-20        -0.43587E-20         0.00000E+00
    0.36676E-20         0.62784E-21         0.00000E+00
    0.20214E-20         0.16523E-20         0.00000E+00
   -0.55497E-21        -0.19107E-20         0.00000E+00
    0.10318E-20        -0.87388E-21         0.00000E+00
    0.51471E-21        -0.11113E-20         0.00000E+00
   -0.16704E-20        -0.51995E-21         0.00000E+00
    0.17688E-20        -0.23098E-19         0.00000E+00
    0.42806E-20        -0.30644E-19         0.00000E+00
    0.28406E-20        -0.28822E-19         0.00000E+00
    0.25132E-20        -0.23479E-19         0.00000E+00
   -0.10893E-20        -0.29448E-19         0.00000E+00
   -0.81079E-20        -0.31493E-19         0.00000E+00
   -0.56642E-20        -0.19621E-19         0.00000E+00
   -0.31263E-20        -0.22078E-19         0.00000E+00
   -0.43579E-20        -0.19307E-19         0.00000E+00
   -0.51820E-20        -0.19127E-19         0.00000E+00
   -0.58819E-21        -0.14966E-19         0.00000E+00
    0.44798E-20        -0.14203E-19         0.00000E+00
    0.15813E-20        -0.53231E-20         0.00000E+00
   -0.37559E-20        -0.10384E-19         0.00000E+00
   -0.27875E-20        -0.92942E-20         0.00000E+00
    0.22900E-20        -0.99856E-20         0.00000E+00
    0.26598E-20        -0.90988E-20         0.00000E+00
    0.30640E-20        -0.39389E-20         0.00000E+00
    0.56460E-20        -0.22031E-20         0.00000E+00
    0.74733E-20         0.43021E-20         0.00000E+00
    0.46960E-20         0.79300E-21         0.00000E+00
    0.23386E-21        -0.70216E-21         0.00000E+00
   -0.13193E-20         0.78731E-21         0.00000E+00
   -0.19697E-20         0.41697E-21         0.00000E+00
    0.85408E-21        -0.25721E-19         0.00000E+00
    0.15499E-20        -0.31229E-19         0.00000E+00
    0.15180E-20        -0.26765E-19         0.00000E+00
    0.25264E-21        -0.23944E-19         0.00000E+00
    0.59380E-21        -0.25722E-19         0.00000E+00
    0.29354E-21        -0.27899E-19         0.00000E+00
   -0.17497E-20        -0.23615E-19         0.00000E+00
   -0.22039E-20        -0.20167E-19         0.00000E+00
   -0.30153E-20        -0.19174E-19         0.00000E+00
   -0.40004E-20        -0.17451E-19         0.00000E+00
   -0.59610E-20        -0.19275E-19         0.00000E+00
   -0.69401E-20        -0.13982E-19         0.00000E+00
   -0.11000E-20        -0.84856E-20         0.00000E+00
    0.99128E-21        -0.39756E-20         0.00000E+00
    0.13019E-21        -0.15810E-19         0.00000E+00
    0.36065E-20        -0.12024E-19         0.00000E+00
    0.27712E-20        -0.65950E-20         0.00000E+00
   -0.87925E-21        -0.31964E-20         0.00000E+00
   -0.24973E-20        -0.39096E-20         0.00000E+00
   -0.27356E-20         0.44195E-20         0.00000E+00
   -0.38195E-20         0.45368E-20         0.00000E+00
   -0.48732E-20         0.10700E-20         0.00000E+00
   -0.44435E-20         0.13858E-21         0.00000E+00
   -0.33826E-20         0.65520E-21         0.00000E+00
    0.84151E-21        -0.27416E-19         0.00000E+00
    0.10053E-20        -0.30393E-19         0.00000E+00
    0.64880E-21        -0.27213E-19         0.00000E+00
    0.91892E-21        -0.22501E-19         0.00000E+00
    0.17664E-20        -0.28354E-19         0.00000E+00
    0.19739E-20        -0.25175E-19         0.00000E+00
   -0.36941E-20        -0.18628E-19         0.00000E+00
   -0.89226E-20        -0.19472E-19         0.00000E+00
   -0.99797E-20        -0.18002E-19         0.00000E+00
   -0.11384E-19        -0.16234E-19         0.00000E+00
   -0.13120E-19        -0.16796E-19         0.00000E+00
   -0.12232E-19        -0.16371E-19         0.00000E+00
   -0.84782E-20        -0.15690E-19         0.00000E+00
    0.17442E-20        -0.90847E-20         0.00000E+00
    0.72764E-20        -0.15372E-19         0.00000E+00
    0.21065E-20        -0.10768E-19         0.00000E+00
   -0.10851E-20        -0.38236E-20         0.00000E+00
   -0.37203E-20         0.31794E-21         0.00000E+00
   -0.86836E-20        -0.84258E-21         0.00000E+00
   -0.10868E-19         0.37751E-20         0.00000E+00
   -0.76914E-20         0.30886E-20         0.00000E+00
   -0.42014E-20         0.81884E-22         0.00000E+00
   -0.37125E-20         0.20798E-21         0.00000E+00
   -0.44715E-20         0.28403E-21         0.00000E+00
    0.11628E-20        -0.29421E-19         0.00000E+00
    0.15443E-20        -0.28934E-19         0.00000E+00
   -0.51079E-22        -0.26720E-19         0.00000E+00
    0.49554E-21        -0.23810E-19         0.00000E+00
   -0.84752E-21        -0.26549E-19         0.00000E+00
   -0.43766E-20        -0.23659E-19         0.00000E+00
   -0.30465E-20        -0.15806E-19         0.00000E+00
   -0.36897E-20        -0.16421E-19         0.00000E+00
   -0.73999E-20        -0.16285E-19         0.00000E+00
   -0.69429E-20        -0.17003E-19         0.00000E+00
   -0.38305E-20        -0.17403E-19         0.00000E+00
   -0.33318E-20        -0.17151E-19         0.00000E+00
   -0.65359E-20        -0.15459E-19         0.00000E+00
   -0.66621E-20        -0.19412E-19         0.00000E+00
   -0.76700E-20        -0.95690E-20         0.00000E+00
   -0.10490E-19        -0.85813E-20         0.00000E+00
   -0.77796E-20        -0.55294E-20         0.00000E+00
   -0.70616E-20         0.39410E-20         0.00000E+00
   -0.78554E-20         0.12914E-20         0.00000E+00
   -0.42864E-20         0.25640E-21         0.00000E+00
   -0.10578E-20         0.20221E-21         0.00000E+00
   -0.24205E-20         0.84092E-21         0.00000E+00
   -0.49989E-20         0.15385E-20         0.00000E+00
   -0.55504E-20         0.26406E-21         0.00000E+00
   -0.97484E-21        -0.29609E-19         0.00000E+00
   -0.23754E-20        -0.27727E-19         0.00000E+00
   -0.23655E-20        -0.26342E-19         0.00000E+00
   -0.20937E-20        -0.25007E-19         0.00000E+00
   -0.33940E-20        -0.22708E-19         0.00000E+00
   -0.61871E-20        -0.21177E-19         0.00000E+00
   -0.61231E-20        -0.19683E-19         0.00000E+00
   -0.27042E-20        -0.15321E-19         0.00000E+00
   -0.38242E-21        -0.15997E-19         0.00000E+00
    0.61561E-21        -0.18746E-19         0.00000E+00
    0.19817E-20        -0.20138E-19         0.00000E+00
    0.18931E-20        -0.14826E-19         0.00000E+00
    0.24329E-20        -0.15121E-19         0.00000E+00
   -0.41020E-21        -0.16781E-19         0.00000E+00
   -0.55852E-20        -0.60168E-20         0.00000E+00
   -0.76665E-20        -0.72324E-20         0.00000E+00
   -0.12835E-19        -0.44204E-20         0.00000E+00
   -0.15578E-19         0.48572E-20         0.00000E+00
   -0.14419E-19         0.10264E-22         0.00000E+00
   -0.12397E-19        -0.40538E-20         0.00000E+00
   -0.96728E-20        -0.14401E-20         0.00000E+00
   -0.88115E-20         0.29847E-20         0.00000E+00
   -0.80415E-20         0.12031E-20         0.00000E+00
   -0.69725E-20         0.81727E-22         0.00000E+00
   -0.96168E-21        -0.27672E-19         0.00000E+00
   -0.20166E-20        -0.27208E-19         0.00000E+00
   -0.23224E-20        -0.26565E-19         0.00000E+00
   -0.30967E-20        -0.24282E-19         0.00000E+00
   -0.30897E-20        -0.22141E-19         0.00000E+00
   -0.38835E-20        -0.18158E-19         0.00000E+00
   -0.71841E-20        -0.19465E-19         0.00000E+00
   -0.68146E-20        -0.19327E-19         0.00000E+00
   -0.18720E-20        -0.19255E-19         0.00000E+00
    0.25955E-20        -0.20954E-19         0.00000E+00
    0.17127E-20        -0.18414E-19         0.00000E+00
    0.15702E-20        -0.16319E-19         0.00000E+00
    0.42497E-20        -0.16847E-19         0.00000E+00
    0.36251E-20        -0.11587E-19         0.00000E+00
    0.32481E-20        -0.56591E-20         0.00000E+00
   -0.56803E-21        -0.16926E-20         0.00000E+00
   -0.79644E-20         0.26044E-20         0.00000E+00
   -0.10885E-19         0.34961E-20         0.00000E+00
   -0.10809E-19         0.13689E-21         0.00000E+00
   -0.11835E-19        -0.51765E-20         0.00000E+00
   -0.12460E-19        -0.24171E-20         0.00000E+00
   -0.11154E-19         0.17943E-20         0.00000E+00
   -0.91611E-20        -0.36901E-21         0.00000E+00
   -0.80919E-20        -0.48439E-21         0.00000E+00
   -0.31415E-21        -0.26396E-19         0.00000E+00
   -0.15048E-20        -0.26238E-19         0.00000E+00
   -0.31667E-20        -0.25567E-19         0.00000E+00
   -0.34735E-20        -0.24199E-19         0.00000E+00
   -0.35656E-20        -0.22138E-19         0.00000E+00
   -0.31640E-20        -0.17768E-19         0.00000E+00
   -0.20192E-20        -0.17699E-19         0.00000E+00
   -0.34135E-20        -0.20068E-19         0.00000E+00
   -0.40383E-20        -0.22832E-19         0.00000E+00
   -0.37373E-20        -0.22145E-19         0.00000E+00
   -0.19929E-20        -0.18084E-19         0.00000E+00
   -0.31078E-20        -0.15391E-19         0.00000E+00
   -0.76440E-20        -0.15918E-19         0.00000E+00
   -0.67404E-20        -0.12795E-19         0.00000E+00
   -0.34586E-20        -0.73559E-20         0.00000E+00
   -0.21498E-20         0.25116E-20         0.00000E+00
   -0.31818E-20         0.68286E-20         0.00000E+00
   -0.48414E-20         0.38518E-20         0.00000E+00
   -0.53772E-20         0.24110E-21         0.00000E+00
   -0.74488E-20        -0.21827E-20         0.00000E+00
   -0.10166E-19        -0.20690E-20         0.00000E+00
   -0.97376E-20        -0.28834E-21         0.00000E+00
   -0.83983E-20        -0.16182E-20         0.00000E+00
   -0.83438E-20        -0.35879E-21         0.00000E+00
   -0.52700E-21        -0.25555E-19         0.00000E+00
   -0.16640E-20        -0.24752E-19         0.00000E+00
   -0.35476E-20        -0.23508E-19         0.00000E+00
   -0.56839E-20        -0.23815E-19         0.00000E+00
   -0.59875E-20        -0.22126E-19         0.00000E+00
   -0.37649E-20        -0.20404E-19         0.00000E+00
   -0.30327E-20        -0.16940E-19         0.00000E+00
   -0.35277E-20        -0.18938E-19         0.00000E+00
   -0.59441E-20        -0.20921E-19         0.00000E+00
   -0.10208E-19        -0.20093E-19         0.00000E+00
   -0.11428E-19        -0.20660E-19         0.00000E+00
   -0.10632E-19        -0.12497E-19         0.00000E+00
   -0.12375E-19        -0.12533E-19         0.00000E+00
   -0.15485E-19        -0.13973E-19         0.00000E+00
   -0.14098E-19        -0.10847E-19         0.00000E+00
   -0.10311E-19         0.90783E-21         0.00000E+00
   -0.74457E-20         0.65987E-20         0.00000E+00
   -0.48763E-20         0.31719E-20         0.00000E+00
   -0.35873E-20         0.16772E-21         0.00000E+00
   -0.56654E-20         0.20404E-20         0.00000E+00
   -0.95169E-20         0.27674E-21         0.00000E+00
   -0.10978E-19        -0.16017E-20         0.00000E+00
   -0.10255E-19        -0.23668E-20         0.00000E+00
   -0.94662E-20        -0.45381E-21         0.00000E+00
   -0.52557E-21        -0.24502E-19         0.00000E+00
   -0.15040E-20        -0.23689E-19         0.00000E+00
   -0.24475E-20        -0.21743E-19         0.00000E+00
   -0.38963E-20        -0.21994E-19         0.00000E+00
   -0.54934E-20        -0.22047E-19         0.00000E+00
   -0.78410E-20        -0.20358E-19         0.00000E+00
   -0.88210E-20        -0.16738E-19         0.00000E+00
   -0.74026E-20        -0.20064E-19         0.00000E+00
   -0.70832E-20        -0.17698E-19         0.00000E+00
   -0.98684E-20        -0.16267E-19         0.00000E+00
   -0.14294E-19        -0.18840E-19         0.00000E+00
   -0.14543E-19        -0.14864E-19         0.00000E+00
   -0.13050E-19        -0.99169E-20         0.00000E+00
   -0.15278E-19        -0.11250E-19         0.00000E+00
   -0.18576E-19        -0.11660E-19         0.00000E+00
   -0.16845E-19        -0.37969E-20         0.00000E+00
   -0.11275E-19         0.28675E-20         0.00000E+00
   -0.81052E-20         0.11642E-20         0.00000E+00
   -0.71006E-20        -0.11824E-21         0.00000E+00
   -0.65202E-20         0.38241E-20         0.00000E+00
   -0.77358E-20         0.35601E-20         0.00000E+00
   -0.10006E-19        -0.11536E-20         0.00000E+00
   -0.10796E-19        -0.27474E-20         0.00000E+00
   -0.10419E-19        -0.12393E-20         0.00000E+00
   -0.22857E-21        -0.23748E-19         0.00000E+00
   -0.93988E-21        -0.22753E-19         0.00000E+00
   -0.14133E-20        -0.21262E-19         0.00000E+00
   -0.22514E-20        -0.20188E-19         0.00000E+00
   -0.39362E-20        -0.20571E-19         0.00000E+00
   -0.53152E-20        -0.18108E-19         0.00000E+00
   -0.64985E-20        -0.16825E-19         0.00000E+00
   -0.85322E-20        -0.19361E-19         0.00000E+00
   -0.89656E-20        -0.18287E-19         0.00000E+00
   -0.86025E-20        -0.13256E-19         0.00000E+00
   -0.11719E-19        -0.14310E-19         0.00000E+00
   -0.15586E-19        -0.15278E-19         0.00000E+00
   -0.15773E-19        -0.10809E-19         0.00000E+00
   -0.13488E-19        -0.10416E-19         0.00000E+00
   -0.12297E-19        -0.10387E-19         0.00000E+00
   -0.10909E-19        -0.81890E-20         0.00000E+00
   -0.83228E-20        -0.89721E-21         0.00000E+00
   -0.55850E-20        -0.97856E-21         0.00000E+00
   -0.65719E-20         0.20069E-20         0.00000E+00
   -0.84537E-20         0.30004E-20         0.00000E+00
   -0.62055E-20         0.33513E-20         0.00000E+00
   -0.51195E-20         0.23955E-21         0.00000E+00
   -0.64889E-20        -0.19812E-20         0.00000E+00
   -0.78601E-20        -0.10112E-20         0.00000E+00
   -0.45986E-21        -0.23060E-19         0.00000E+00
   -0.15696E-20        -0.21620E-19         0.00000E+00
   -0.23195E-20        -0.21171E-19         0.00000E+00
   -0.20175E-20        -0.19743E-19         0.00000E+00
   -0.21686E-20        -0.19180E-19         0.00000E+00
   -0.34106E-20        -0.16877E-19         0.00000E+00
   -0.38698E-20        -0.16413E-19         0.00000E+00
   -0.48576E-20        -0.16752E-19         0.00000E+00
   -0.80385E-20        -0.17282E-19         0.00000E+00
   -0.88728E-20        -0.13790E-19         0.00000E+00
   -0.79401E-20        -0.11592E-19         0.00000E+00
   -0.72223E-20        -0.14846E-19         0.00000E+00
   -0.66156E-20        -0.11659E-19         0.00000E+00
   -0.77202E-20        -0.10746E-19         0.00000E+00
   -0.69468E-20        -0.12020E-19         0.00000E+00
   -0.52472E-20        -0.96430E-20         0.00000E+00
   -0.47013E-20        -0.25754E-20         0.00000E+00
   -0.49497E-20        -0.17898E-20         0.00000E+00
   -0.52163E-20         0.40717E-20         0.00000E+00
   -0.50920E-20         0.26930E-20         0.00000E+00
   -0.50663E-20         0.13849E-20         0.00000E+00
   -0.46478E-20         0.70138E-21         0.00000E+00
   -0.52247E-20        -0.49661E-21         0.00000E+00
   -0.62092E-20        -0.14016E-21         0.00000E+00
   -0.73311E-21        -0.21867E-19         0.00000E+00
   -0.20355E-20        -0.20401E-19         0.00000E+00
   -0.25343E-20        -0.21142E-19         0.00000E+00
   -0.24164E-20        -0.20192E-19         0.00000E+00
   -0.35570E-20        -0.17439E-19         0.00000E+00
   -0.37407E-20        -0.17193E-19         0.00000E+00
   -0.20372E-20        -0.17341E-19         0.00000E+00
   -0.22609E-20        -0.14611E-19         0.00000E+00
   -0.45571E-20        -0.13945E-19         0.00000E+00
   -0.66891E-20        -0.14161E-19         0.00000E+00
   -0.59960E-20        -0.12847E-19         0.00000E+00
   -0.48928E-20        -0.15412E-19         0.00000E+00
   -0.35323E-20        -0.13061E-19         0.00000E+00
   -0.13172E-20        -0.10455E-19         0.00000E+00
   -0.32912E-20        -0.11111E-19         0.00000E+00
   -0.77481E-20        -0.77953E-20         0.00000E+00
   -0.92398E-20        -0.34772E-20         0.00000E+00
   -0.76896E-20        -0.21898E-20         0.00000E+00
   -0.62138E-20         0.32626E-20         0.00000E+00
   -0.60957E-20         0.32596E-20         0.00000E+00
   -0.63925E-20         0.10895E-20         0.00000E+00
   -0.61053E-20         0.29111E-21         0.00000E+00
   -0.58061E-20         0.19137E-21         0.00000E+00
   -0.58611E-20         0.21137E-21         0.00000E+00
   -0.72777E-21        -0.20406E-19         0.00000E+00
   -0.20819E-20        -0.19206E-19         0.00000E+00
   -0.26174E-20        -0.21303E-19         0.00000E+00
   -0.27957E-20        -0.19971E-19         0.00000E+00
   -0.33783E-20        -0.15937E-19         0.00000E+00
   -0.42471E-20        -0.17642E-19         0.00000E+00
   -0.45257E-20        -0.18317E-19         0.00000E+00
   -0.49903E-20        -0.12947E-19         0.00000E+00
   -0.55886E-20        -0.12715E-19         0.00000E+00
   -0.40094E-20        -0.14838E-19         0.00000E+00
   -0.27211E-20        -0.14151E-19         0.00000E+00
   -0.40064E-20        -0.13926E-19         0.00000E+00
   -0.52734E-20        -0.14641E-19         0.00000E+00
   -0.53335E-20        -0.11031E-19         0.00000E+00
   -0.56861E-20        -0.82088E-20         0.00000E+00
   -0.67080E-20        -0.52182E-20         0.00000E+00
   -0.66133E-20        -0.46574E-20         0.00000E+00
   -0.68762E-20        -0.22970E-20         0.00000E+00
   -0.75921E-20         0.26099E-20         0.00000E+00
   -0.65155E-20         0.27174E-20         0.00000E+00
   -0.59637E-20         0.13767E-20         0.00000E+00
   -0.57885E-20        -0.45850E-21         0.00000E+00
   -0.54499E-20         0.30314E-21         0.00000E+00
   -0.55622E-20         0.26697E-21         0.00000E+00
    0.17379E-21        -0.19852E-19         0.00000E+00
    0.18771E-21        -0.18419E-19         0.00000E+00
   -0.85754E-21        -0.20509E-19         0.00000E+00
   -0.22113E-20        -0.19233E-19         0.00000E+00
   -0.23717E-20        -0.15932E-19         0.00000E+00
   -0.22008E-20        -0.16949E-19         0.00000E+00
   -0.34346E-20        -0.17498E-19         0.00000E+00
   -0.38078E-20        -0.12929E-19         0.00000E+00
   -0.30657E-20        -0.12877E-19         0.00000E+00
   -0.28527E-20        -0.16468E-19         0.00000E+00
   -0.26966E-20        -0.13966E-19         0.00000E+00
   -0.35622E-20        -0.11961E-19         0.00000E+00
   -0.58981E-20        -0.13003E-19         0.00000E+00
   -0.77992E-20        -0.10707E-19         0.00000E+00
   -0.61928E-20        -0.97862E-20         0.00000E+00
   -0.28337E-20        -0.59779E-20         0.00000E+00
   -0.26303E-20        -0.41959E-20         0.00000E+00
   -0.46413E-20        -0.48454E-21         0.00000E+00
   -0.47650E-20         0.16372E-20         0.00000E+00
   -0.33709E-20         0.12194E-20         0.00000E+00
   -0.31538E-20         0.21057E-20         0.00000E+00
   -0.45876E-20         0.71103E-22         0.00000E+00
   -0.52764E-20         0.12375E-21         0.00000E+00
   -0.47556E-20         0.37880E-22         0.00000E+00
   -0.13409E-21        -0.19892E-19         0.00000E+00
    0.57468E-21        -0.19102E-19         0.00000E+00
    0.52564E-21        -0.18731E-19         0.00000E+00
   -0.98820E-21        -0.18143E-19         0.00000E+00
   -0.12630E-20        -0.16587E-19         0.00000E+00
   -0.10456E-20        -0.16682E-19         0.00000E+00
   -0.15696E-20        -0.16007E-19         0.00000E+00
   -0.15764E-20        -0.14040E-19         0.00000E+00
   -0.59283E-21        -0.13492E-19         0.00000E+00
   -0.10589E-20        -0.15600E-19         0.00000E+00
   -0.34029E-20        -0.12646E-19         0.00000E+00
   -0.46768E-20        -0.11141E-19         0.00000E+00
   -0.44373E-20        -0.11726E-19         0.00000E+00
   -0.45445E-20        -0.99758E-20         0.00000E+00
   -0.49244E-20        -0.11744E-19         0.00000E+00
   -0.53338E-20        -0.69699E-20         0.00000E+00
   -0.57494E-20        -0.29917E-20         0.00000E+00
   -0.56513E-20         0.22413E-21         0.00000E+00
   -0.42981E-20        -0.30092E-21         0.00000E+00
   -0.35300E-20         0.99528E-21         0.00000E+00
   -0.36872E-20         0.22700E-20         0.00000E+00
   -0.34104E-20         0.10638E-20         0.00000E+00
   -0.32992E-20        -0.29133E-21         0.00000E+00
   -0.32938E-20        -0.73293E-22         0.00000E+00
   -0.63393E-21        -0.19124E-19         0.00000E+00
   -0.14681E-20        -0.19745E-19         0.00000E+00
   -0.18428E-20        -0.17665E-19         0.00000E+00
   -0.23862E-20        -0.17152E-19         0.00000E+00
   -0.23519E-20        -0.17338E-19         0.00000E+00
   -0.17954E-20        -0.16706E-19         0.00000E+00
   -0.17559E-20        -0.15499E-19         0.00000E+00
   -0.92749E-21        -0.15369E-19         0.00000E+00
    0.29939E-21        -0.14373E-19         0.00000E+00
   -0.13380E-20        -0.12616E-19         0.00000E+00
   -0.32626E-20        -0.11361E-19         0.00000E+00
   -0.27946E-20        -0.11620E-19         0.00000E+00
   -0.21809E-20        -0.12100E-19         0.00000E+00
   -0.88206E-21        -0.10793E-19         0.00000E+00
   -0.26500E-20        -0.87790E-20         0.00000E+00
   -0.63605E-20        -0.58150E-20         0.00000E+00
   -0.71427E-20        -0.29488E-20         0.00000E+00
   -0.57590E-20        -0.13005E-20         0.00000E+00
   -0.45838E-20        -0.13046E-20         0.00000E+00
   -0.52051E-20         0.18521E-20         0.00000E+00
   -0.48809E-20         0.12462E-20         0.00000E+00
   -0.34130E-20         0.34291E-21         0.00000E+00
   -0.31053E-20         0.10611E-22         0.00000E+00
   -0.36462E-20         0.16017E-21         0.00000E+00
   -0.44254E-21        -0.18047E-19         0.00000E+00
   -0.93928E-21        -0.19491E-19         0.00000E+00
   -0.22481E-21        -0.18259E-19         0.00000E+00
    0.54413E-21        -0.16783E-19         0.00000E+00
   -0.39512E-21        -0.16802E-19         0.00000E+00
   -0.19571E-20        -0.16237E-19         0.00000E+00
   -0.24949E-20        -0.15470E-19         0.00000E+00
   -0.35607E-20        -0.15161E-19         0.00000E+00
   -0.37175E-20        -0.15651E-19         0.00000E+00
   -0.18499E-20        -0.11568E-19         0.00000E+00
   -0.18827E-20        -0.10452E-19         0.00000E+00
   -0.17449E-20        -0.13135E-19         0.00000E+00
    0.48451E-21        -0.13429E-19         0.00000E+00
   -0.16511E-21        -0.10114E-19         0.00000E+00
   -0.31198E-20        -0.47353E-20         0.00000E+00
   -0.55091E-20        -0.37589E-20         0.00000E+00
   -0.56134E-20        -0.41184E-20         0.00000E+00
   -0.56292E-20        -0.14988E-20         0.00000E+00
   -0.69499E-20        -0.96088E-21         0.00000E+00
   -0.56412E-20         0.82095E-21         0.00000E+00
   -0.37489E-20         0.60906E-22         0.00000E+00
   -0.36901E-20         0.14902E-23         0.00000E+00
   -0.41108E-20         0.46498E-21         0.00000E+00
   -0.42111E-20         0.34703E-21         0.00000E+00
    0.45431E-21        -0.18059E-19         0.00000E+00
    0.22753E-21        -0.18755E-19         0.00000E+00
   -0.21620E-21        -0.19265E-19         0.00000E+00
    0.24832E-21        -0.17010E-19         0.00000E+00
   -0.61153E-22        -0.15325E-19         0.00000E+00
   -0.15689E-20        -0.14643E-19         0.00000E+00
   -0.28700E-20        -0.15224E-19         0.00000E+00
   -0.32125E-20        -0.13998E-19         0.00000E+00
   -0.26256E-20        -0.17244E-19         0.00000E+00
   -0.11729E-20        -0.13295E-19         0.00000E+00
   -0.21899E-21        -0.96461E-20         0.00000E+00
    0.17421E-21        -0.14472E-19         0.00000E+00
   -0.43625E-21        -0.13710E-19         0.00000E+00
   -0.27737E-20        -0.68450E-20         0.00000E+00
   -0.44064E-20        -0.34169E-20         0.00000E+00
   -0.46571E-20        -0.24373E-20         0.00000E+00
   -0.57928E-20        -0.42001E-20         0.00000E+00
   -0.69867E-20        -0.20739E-21         0.00000E+00
   -0.67582E-20        -0.11601E-20         0.00000E+00
   -0.58284E-20        -0.12184E-20         0.00000E+00
   -0.53119E-20        -0.30849E-21         0.00000E+00
   -0.53409E-20         0.34108E-21         0.00000E+00
   -0.49900E-20         0.19523E-21         0.00000E+00
   -0.45535E-20         0.28052E-21         0.00000E+00
    0.30047E-21        -0.18814E-19         0.00000E+00
    0.50818E-21        -0.17981E-19         0.00000E+00
   -0.14823E-21        -0.18939E-19         0.00000E+00
   -0.99665E-21        -0.16953E-19         0.00000E+00
   -0.15270E-20        -0.14543E-19         0.00000E+00
   -0.14225E-20        -0.14022E-19         0.00000E+00
   -0.13551E-20        -0.14612E-19         0.00000E+00
   -0.11287E-20        -0.14494E-19         0.00000E+00
   -0.24646E-20        -0.15999E-19         0.00000E+00
   -0.42848E-20        -0.14173E-19         0.00000E+00
   -0.24003E-20        -0.11607E-19         0.00000E+00
   -0.24993E-20        -0.12806E-19         0.00000E+00
   -0.58946E-20        -0.11371E-19         0.00000E+00
   -0.68383E-20        -0.59033E-20         0.00000E+00
   -0.52759E-20        -0.42884E-20         0.00000E+00
   -0.36497E-20        -0.29413E-20         0.00000E+00
   -0.43527E-20        -0.18573E-20         0.00000E+00
   -0.49282E-20        -0.78063E-21         0.00000E+00
   -0.46453E-20        -0.10983E-20         0.00000E+00
   -0.51160E-20        -0.17393E-20         0.00000E+00
   -0.49920E-20        -0.42806E-21         0.00000E+00
   -0.46149E-20         0.11265E-21         0.00000E+00
   -0.45526E-20         0.10450E-22         0.00000E+00
   -0.46016E-20         0.77699E-22         0.00000E+00
    0.13308E-21        -0.19247E-19         0.00000E+00
    0.45740E-21        -0.18080E-19         0.00000E+00
    0.27024E-21        -0.17997E-19         0.00000E+00
   -0.92538E-22        -0.16684E-19         0.00000E+00
   -0.11529E-21        -0.14259E-19         0.00000E+00
   -0.47837E-21        -0.14047E-19         0.00000E+00
   -0.12435E-20        -0.13889E-19         0.00000E+00
   -0.28067E-20        -0.13881E-19         0.00000E+00
   -0.40534E-20        -0.14030E-19         0.00000E+00
   -0.49023E-20        -0.13472E-19         0.00000E+00
   -0.61794E-20        -0.12914E-19         0.00000E+00
   -0.71071E-20        -0.10471E-19         0.00000E+00
   -0.84416E-20        -0.89754E-20         0.00000E+00
   -0.88846E-20        -0.69120E-20         0.00000E+00
   -0.75445E-20        -0.61821E-20         0.00000E+00
   -0.64428E-20        -0.37753E-20         0.00000E+00
   -0.52868E-20        -0.14763E-20         0.00000E+00
   -0.47581E-20        -0.11149E-20         0.00000E+00
   -0.48486E-20        -0.95648E-21         0.00000E+00
   -0.44352E-20        -0.18239E-20         0.00000E+00
   -0.40819E-20        -0.82077E-21         0.00000E+00
   -0.41143E-20         0.16074E-21         0.00000E+00
   -0.44684E-20         0.25406E-21         0.00000E+00
   -0.46182E-20         0.32933E-22         0.00000E+00
   -0.30513E-21        -0.19075E-19         0.00000E+00
   -0.37828E-21        -0.18503E-19         0.00000E+00
    0.29011E-22        -0.17794E-19         0.00000E+00
   -0.52780E-21        -0.15967E-19         0.00000E+00
   -0.83587E-21        -0.14645E-19         0.00000E+00
   -0.15283E-20        -0.12606E-19         0.00000E+00
   -0.28884E-20        -0.13205E-19         0.00000E+00
   -0.34476E-20        -0.12442E-19         0.00000E+00
   -0.42009E-20        -0.13468E-19         0.00000E+00
   -0.50921E-20        -0.12294E-19         0.00000E+00
   -0.68555E-20        -0.11052E-19         0.00000E+00
   -0.86173E-20        -0.96438E-20         0.00000E+00
   -0.90000E-20        -0.80858E-20         0.00000E+00
   -0.87938E-20        -0.75649E-20         0.00000E+00
   -0.89231E-20        -0.67401E-20         0.00000E+00
   -0.82413E-20        -0.50008E-20         0.00000E+00
   -0.68513E-20        -0.27968E-20         0.00000E+00
   -0.54243E-20        -0.17501E-20         0.00000E+00
   -0.44487E-20        -0.12064E-20         0.00000E+00
   -0.49229E-20        -0.15131E-20         0.00000E+00
   -0.54060E-20        -0.10017E-20         0.00000E+00
   -0.52945E-20         0.26251E-21         0.00000E+00
   -0.50136E-20         0.22546E-21         0.00000E+00
   -0.48145E-20         0.12314E-22         0.00000E+00
   -0.78466E-21        -0.17986E-19         0.00000E+00
   -0.99595E-21        -0.19308E-19         0.00000E+00
   -0.10614E-20        -0.17330E-19         0.00000E+00
   -0.22049E-20        -0.14730E-19         0.00000E+00
   -0.35541E-20        -0.14224E-19         0.00000E+00
   -0.44868E-20        -0.11402E-19         0.00000E+00
   -0.45011E-20        -0.13035E-19         0.00000E+00
   -0.47207E-20        -0.11833E-19         0.00000E+00
   -0.55315E-20        -0.12513E-19         0.00000E+00
   -0.59227E-20        -0.11967E-19         0.00000E+00
   -0.63234E-20        -0.92156E-20         0.00000E+00
   -0.71859E-20        -0.88561E-20         0.00000E+00
   -0.78084E-20        -0.78682E-20         0.00000E+00
   -0.83420E-20        -0.74552E-20         0.00000E+00
   -0.84474E-20        -0.66151E-20         0.00000E+00
   -0.82777E-20        -0.59774E-20         0.00000E+00
   -0.70183E-20        -0.44696E-20         0.00000E+00
   -0.53355E-20        -0.31870E-20         0.00000E+00
   -0.47894E-20        -0.12912E-20         0.00000E+00
   -0.49127E-20        -0.83088E-21         0.00000E+00
   -0.53926E-20        -0.72084E-21         0.00000E+00
   -0.53782E-20        -0.14427E-21         0.00000E+00
   -0.49247E-20        -0.10211E-21         0.00000E+00
   -0.46689E-20        -0.11501E-21         0.00000E+00
   -0.55828E-22        -0.17145E-19         0.00000E+00
   -0.81730E-21        -0.19176E-19         0.00000E+00
   -0.23979E-20        -0.15817E-19         0.00000E+00
   -0.36680E-20        -0.13830E-19         0.00000E+00
   -0.47738E-20        -0.12669E-19         0.00000E+00
   -0.49030E-20        -0.11895E-19         0.00000E+00
   -0.43748E-20        -0.13056E-19         0.00000E+00
   -0.46308E-20        -0.11337E-19         0.00000E+00
   -0.46621E-20        -0.12168E-19         0.00000E+00
   -0.41024E-20        -0.12481E-19         0.00000E+00
   -0.37389E-20        -0.86640E-20         0.00000E+00
   -0.44858E-20        -0.77983E-20         0.00000E+00
   -0.52139E-20        -0.75752E-20         0.00000E+00
   -0.54166E-20        -0.70120E-20         0.00000E+00
   -0.58785E-20        -0.64910E-20         0.00000E+00
   -0.56617E-20        -0.64881E-20         0.00000E+00
   -0.53477E-20        -0.55323E-20         0.00000E+00
   -0.60872E-20        -0.30675E-20         0.00000E+00
   -0.62096E-20        -0.18343E-20         0.00000E+00
   -0.54951E-20        -0.87896E-21         0.00000E+00
   -0.49470E-20        -0.74091E-21         0.00000E+00
   -0.45150E-20        -0.57060E-21         0.00000E+00
   -0.43378E-20        -0.30644E-21         0.00000E+00
   -0.43437E-20        -0.16060E-21         0.00000E+00
   -0.43761E-21        -0.16652E-19         0.00000E+00
   -0.16709E-20        -0.17675E-19         0.00000E+00
   -0.23894E-20        -0.15019E-19         0.00000E+00
   -0.29151E-20        -0.12832E-19         0.00000E+00
   -0.35575E-20        -0.11919E-19         0.00000E+00
   -0.33552E-20        -0.12718E-19         0.00000E+00
   -0.34673E-20        -0.12649E-19         0.00000E+00
   -0.34433E-20        -0.11512E-19         0.00000E+00
   -0.32246E-20        -0.12180E-19         0.00000E+00
   -0.41781E-20        -0.12075E-19         0.00000E+00
   -0.49009E-20        -0.87109E-20         0.00000E+00
   -0.46897E-20        -0.72158E-20         0.00000E+00
   -0.45901E-20        -0.75292E-20         0.00000E+00
   -0.46487E-20        -0.67967E-20         0.00000E+00
   -0.47198E-20        -0.61733E-20         0.00000E+00
   -0.48714E-20        -0.68710E-20         0.00000E+00
   -0.57509E-20        -0.45839E-20         0.00000E+00
   -0.63727E-20        -0.26547E-20         0.00000E+00
   -0.62749E-20        -0.22227E-20         0.00000E+00
   -0.60064E-20        -0.14736E-20         0.00000E+00
   -0.51326E-20        -0.15681E-20         0.00000E+00
   -0.45566E-20        -0.75145E-21         0.00000E+00
   -0.44432E-20        -0.41617E-21         0.00000E+00
   -0.43813E-20        -0.10688E-21         0.00000E+00
   -0.58876E-21        -0.15625E-19         0.00000E+00
   -0.15647E-20        -0.16492E-19         0.00000E+00
   -0.21806E-20        -0.14867E-19         0.00000E+00
   -0.21403E-20        -0.12498E-19         0.00000E+00
   -0.21913E-20        -0.11560E-19         0.00000E+00
   -0.32451E-20        -0.12225E-19         0.00000E+00
   -0.37339E-20        -0.12540E-19         0.00000E+00
   -0.30932E-20        -0.12285E-19         0.00000E+00
   -0.32003E-20        -0.11518E-19         0.00000E+00
   -0.45503E-20        -0.10433E-19         0.00000E+00
   -0.55673E-20        -0.86130E-20         0.00000E+00
   -0.56939E-20        -0.73984E-20         0.00000E+00
   -0.55919E-20        -0.75481E-20         0.00000E+00
   -0.55170E-20        -0.67941E-20         0.00000E+00
   -0.54572E-20        -0.61646E-20         0.00000E+00
   -0.61963E-20        -0.59891E-20         0.00000E+00
   -0.65221E-20        -0.42604E-20         0.00000E+00
   -0.58269E-20        -0.30514E-20         0.00000E+00
   -0.54494E-20        -0.23012E-20         0.00000E+00
   -0.51170E-20        -0.19959E-20         0.00000E+00
   -0.50934E-20        -0.19432E-20         0.00000E+00
   -0.50315E-20        -0.10143E-20         0.00000E+00
   -0.46416E-20        -0.65668E-21         0.00000E+00
   -0.44082E-20        -0.16170E-21         0.00000E+00
   -0.93778E-21        -0.14099E-19         0.00000E+00
   -0.27330E-20        -0.15247E-19         0.00000E+00
   -0.36750E-20        -0.14554E-19         0.00000E+00
   -0.34139E-20        -0.13113E-19         0.00000E+00
   -0.24504E-20        -0.11858E-19         0.00000E+00
   -0.16270E-20        -0.11697E-19         0.00000E+00
   -0.22394E-20        -0.11967E-19         0.00000E+00
   -0.37103E-20        -0.12028E-19         0.00000E+00
   -0.44652E-20        -0.10914E-19         0.00000E+00
   -0.45717E-20        -0.95811E-20         0.00000E+00
   -0.46810E-20        -0.83384E-20         0.00000E+00
   -0.47341E-20        -0.74933E-20         0.00000E+00
   -0.43700E-20        -0.79193E-20         0.00000E+00
   -0.41195E-20        -0.67483E-20         0.00000E+00
   -0.46225E-20        -0.57671E-20         0.00000E+00
   -0.51556E-20        -0.51143E-20         0.00000E+00
   -0.51576E-20        -0.48074E-20         0.00000E+00
   -0.49846E-20        -0.33727E-20         0.00000E+00
   -0.47452E-20        -0.25969E-20         0.00000E+00
   -0.45135E-20        -0.22644E-20         0.00000E+00
   -0.45084E-20        -0.17035E-20         0.00000E+00
   -0.43927E-20        -0.14315E-20         0.00000E+00
   -0.41384E-20        -0.88360E-21         0.00000E+00
   -0.40970E-20        -0.20960E-21         0.00000E+00
   -0.53904E-21        -0.12622E-19         0.00000E+00
   -0.20742E-20        -0.13394E-19         0.00000E+00
   -0.30452E-20        -0.14494E-19         0.00000E+00
   -0.30654E-20        -0.13414E-19         0.00000E+00
   -0.27912E-20        -0.12795E-19         0.00000E+00
   -0.22422E-20        -0.12132E-19         0.00000E+00
   -0.27442E-20        -0.10418E-19         0.00000E+00
   -0.38989E-20        -0.10952E-19         0.00000E+00
   -0.43393E-20        -0.10795E-19         0.00000E+00
   -0.44496E-20        -0.94834E-20         0.00000E+00
   -0.44332E-20        -0.83431E-20         0.00000E+00
   -0.41423E-20        -0.77263E-20         0.00000E+00
   -0.42266E-20        -0.79661E-20         0.00000E+00
   -0.44184E-20        -0.67602E-20         0.00000E+00
   -0.42586E-20        -0.54120E-20         0.00000E+00
   -0.39291E-20        -0.52658E-20         0.00000E+00
   -0.38665E-20        -0.47165E-20         0.00000E+00
   -0.41460E-20        -0.33570E-20         0.00000E+00
   -0.42327E-20        -0.27653E-20         0.00000E+00
   -0.42275E-20        -0.23329E-20         0.00000E+00
   -0.40817E-20        -0.17859E-20         0.00000E+00
   -0.39227E-20        -0.16239E-20         0.00000E+00
   -0.39192E-20        -0.94892E-21         0.00000E+00
   -0.39015E-20        -0.20343E-21         0.00000E+00
    0.15382E-21        -0.12237E-19         0.00000E+00
    0.21870E-21        -0.12309E-19         0.00000E+00
   -0.76931E-21        -0.13620E-19         0.00000E+00
   -0.18065E-20        -0.13230E-19         0.00000E+00
   -0.18303E-20        -0.13229E-19         0.00000E+00
   -0.23691E-20        -0.11709E-19         0.00000E+00
   -0.28682E-20        -0.98406E-20         0.00000E+00
   -0.25767E-20        -0.10666E-19         0.00000E+00
   -0.29757E-20        -0.10241E-19         0.00000E+00
   -0.35917E-20        -0.93107E-20         0.00000E+00
   -0.35686E-20        -0.85553E-20         0.00000E+00
   -0.34780E-20        -0.78956E-20         0.00000E+00
   -0.38243E-20        -0.73662E-20         0.00000E+00
   -0.42724E-20        -0.67203E-20         0.00000E+00
   -0.40881E-20        -0.57961E-20         0.00000E+00
   -0.37962E-20        -0.55032E-20         0.00000E+00
   -0.38124E-20        -0.45255E-20         0.00000E+00
   -0.37444E-20        -0.33365E-20         0.00000E+00
   -0.35920E-20        -0.28515E-20         0.00000E+00
   -0.35247E-20        -0.23193E-20         0.00000E+00
   -0.33745E-20        -0.20955E-20         0.00000E+00
   -0.33234E-20        -0.15244E-20         0.00000E+00
   -0.34392E-20        -0.93599E-21         0.00000E+00
   -0.33863E-20        -0.28701E-21         0.00000E+00
   -0.62722E-22        -0.12328E-19         0.00000E+00
    0.31522E-21        -0.12661E-19         0.00000E+00
    0.87490E-21        -0.12840E-19         0.00000E+00
    0.18749E-21        -0.12286E-19         0.00000E+00
   -0.95209E-21        -0.13010E-19         0.00000E+00
   -0.13884E-20        -0.10952E-19         0.00000E+00
   -0.16106E-20        -0.98757E-20         0.00000E+00
   -0.20852E-20        -0.10447E-19         0.00000E+00
   -0.23159E-20        -0.98296E-20         0.00000E+00
   -0.22532E-20        -0.91689E-20         0.00000E+00
   -0.26692E-20        -0.83041E-20         0.00000E+00
   -0.29089E-20        -0.79978E-20         0.00000E+00
   -0.27395E-20        -0.70871E-20         0.00000E+00
   -0.26526E-20        -0.66382E-20         0.00000E+00
   -0.26094E-20        -0.61056E-20         0.00000E+00
   -0.28243E-20        -0.52706E-20         0.00000E+00
   -0.30865E-20        -0.44796E-20         0.00000E+00
   -0.29128E-20        -0.36242E-20         0.00000E+00
   -0.27464E-20        -0.28826E-20         0.00000E+00
   -0.27392E-20        -0.23628E-20         0.00000E+00
   -0.27391E-20        -0.22023E-20         0.00000E+00
   -0.26825E-20        -0.15253E-20         0.00000E+00
   -0.25971E-20        -0.90469E-21         0.00000E+00
   -0.26567E-20        -0.31161E-21         0.00000E+00
    0.46111E-21        -0.12726E-19         0.00000E+00
    0.11116E-21        -0.12290E-19         0.00000E+00
   -0.68734E-21        -0.12972E-19         0.00000E+00
   -0.30401E-21        -0.11850E-19         0.00000E+00
   -0.68566E-21        -0.11925E-19         0.00000E+00
   -0.11207E-20        -0.11166E-19         0.00000E+00
   -0.94824E-21        -0.96119E-20         0.00000E+00
   -0.16317E-20        -0.95532E-20         0.00000E+00
   -0.21742E-20        -0.99508E-20         0.00000E+00
   -0.20535E-20        -0.92311E-20         0.00000E+00
   -0.17707E-20        -0.81087E-20         0.00000E+00
   -0.19546E-20        -0.77697E-20         0.00000E+00
   -0.22483E-20        -0.71909E-20         0.00000E+00
   -0.20847E-20        -0.67849E-20         0.00000E+00
   -0.20899E-20        -0.59970E-20         0.00000E+00
   -0.23785E-20        -0.48757E-20         0.00000E+00
   -0.24965E-20        -0.44943E-20         0.00000E+00
   -0.23969E-20        -0.38829E-20         0.00000E+00
   -0.22903E-20        -0.28968E-20         0.00000E+00
   -0.21082E-20        -0.25379E-20         0.00000E+00
   -0.19685E-20        -0.21670E-20         0.00000E+00
   -0.19992E-20        -0.15864E-20         0.00000E+00
   -0.20229E-20        -0.90523E-21         0.00000E+00
   -0.19963E-20        -0.27804E-21         0.00000E+00
   -0.13164E-21        -0.13056E-19         0.00000E+00
   -0.90461E-22        -0.11652E-19         0.00000E+00
   -0.14592E-21        -0.12756E-19         0.00000E+00
   -0.10384E-22        -0.12585E-19         0.00000E+00
   -0.92148E-23        -0.10809E-19         0.00000E+00
   -0.10797E-20        -0.10776E-19         0.00000E+00
   -0.13122E-20        -0.99425E-20         0.00000E+00
   -0.10181E-20        -0.88333E-20         0.00000E+00
   -0.16397E-20        -0.95066E-20         0.00000E+00
   -0.17999E-20        -0.96357E-20         0.00000E+00
   -0.15243E-20        -0.82625E-20         0.00000E+00
   -0.14639E-20        -0.74925E-20         0.00000E+00
   -0.13214E-20        -0.73169E-20         0.00000E+00
   -0.14144E-20        -0.67295E-20         0.00000E+00
   -0.17223E-20        -0.57393E-20         0.00000E+00
   -0.17248E-20        -0.48423E-20         0.00000E+00
   -0.17175E-20        -0.44170E-20         0.00000E+00
   -0.18595E-20        -0.39177E-20         0.00000E+00
   -0.17113E-20        -0.31168E-20         0.00000E+00
   -0.15791E-20        -0.26322E-20         0.00000E+00
   -0.15707E-20        -0.22207E-20         0.00000E+00
   -0.14846E-20        -0.15881E-20         0.00000E+00
   -0.14268E-20        -0.93771E-21         0.00000E+00
   -0.14052E-20        -0.29372E-21         0.00000E+00
   -0.28262E-21        -0.12641E-19         0.00000E+00
   -0.21669E-21        -0.12173E-19         0.00000E+00
   -0.87403E-22        -0.12309E-19         0.00000E+00
   -0.23939E-21        -0.13016E-19         0.00000E+00
   -0.30699E-21        -0.10312E-19         0.00000E+00
   -0.90082E-21        -0.96091E-20         0.00000E+00
   -0.12946E-20        -0.10483E-19         0.00000E+00
   -0.11762E-20        -0.87051E-20         0.00000E+00
   -0.10988E-20        -0.90906E-20         0.00000E+00
   -0.12013E-20        -0.97890E-20         0.00000E+00
   -0.13031E-20        -0.82830E-20         0.00000E+00
   -0.11313E-20        -0.77042E-20         0.00000E+00
   -0.91804E-21        -0.74608E-20         0.00000E+00
   -0.87846E-21        -0.65322E-20         0.00000E+00
   -0.92484E-21        -0.55824E-20         0.00000E+00
   -0.79347E-21        -0.51281E-20         0.00000E+00
   -0.62288E-21        -0.43091E-20         0.00000E+00
   -0.72796E-21        -0.37785E-20         0.00000E+00
   -0.81097E-21        -0.33212E-20         0.00000E+00
   -0.75226E-21        -0.26187E-20         0.00000E+00
   -0.80174E-21        -0.21931E-20         0.00000E+00
   -0.89468E-21        -0.16089E-20         0.00000E+00
   -0.89893E-21        -0.97055E-21         0.00000E+00
   -0.86389E-21        -0.31750E-21         0.00000E+00
   -0.16807E-21        -0.12191E-19         0.00000E+00
   -0.15864E-21        -0.12699E-19         0.00000E+00
    0.50646E-22        -0.12121E-19         0.00000E+00
    0.22328E-22        -0.13023E-19         0.00000E+00
   -0.19993E-21        -0.10015E-19         0.00000E+00
   -0.42786E-21        -0.90844E-20         0.00000E+00
   -0.52667E-21        -0.10515E-19         0.00000E+00
   -0.51541E-21        -0.88025E-20         0.00000E+00
   -0.52145E-21        -0.90645E-20         0.00000E+00
   -0.71369E-21        -0.95203E-20         0.00000E+00
   -0.67197E-21        -0.84915E-20         0.00000E+00
   -0.44344E-21        -0.78960E-20         0.00000E+00
   -0.46861E-21        -0.74572E-20         0.00000E+00
   -0.41801E-21        -0.66260E-20         0.00000E+00
   -0.23122E-21        -0.56290E-20         0.00000E+00
   -0.26011E-21        -0.51840E-20         0.00000E+00
   -0.24339E-21        -0.44405E-20         0.00000E+00
   -0.15154E-21        -0.36338E-20         0.00000E+00
   -0.16359E-21        -0.33708E-20         0.00000E+00
   -0.13156E-21        -0.26599E-20         0.00000E+00
   -0.18293E-21        -0.20511E-20         0.00000E+00
   -0.27428E-21        -0.15666E-20         0.00000E+00
   -0.27930E-21        -0.10036E-20         0.00000E+00
   -0.27974E-21        -0.31906E-21         0.00000E+00
POINT_DATA       1225
VECTORS vDarcyNodal double 
    0.84504E-19        -0.48852E-19         0.00000E+00
    0.27312E-19        -0.73111E-19         0.00000E+00
    0.11188E-19        -0.12270E-18         0.00000E+00
   -0.16973E-20        -0.96346E-19         0.00000E+00
   -0.29883E-19         0.38749E-20         0.00000E+00
    0.15553E-19         0.20517E-19         0.00000E+00
    0.25350E-19        -0.75722E-21         0.00000E+00
   -0.30046E-20         0.34690E-19         0.00000E+00
    0.70114E-20         0.65773E-19         0.00000E+00
    0.12307E-19         0.60035E-19         0.00000E+00
    0.15549E-19         0.12796E-19         0.00000E+00
    0.12531E-19        -0.32073E-19         0.00000E+00
   -0.49961E-20        -0.29077E-19         0.00000E+00
   -0.25700E-19        -0.52654E-20         0.00000E+00
   -0.10077E-19         0.35981E-20         0.00000E+00
   -0.21116E-20        -0.18587E-19         0.00000E+00
   -0.62635E-20        -0.51063E-19         0.00000E+00
   -0.40711E-20        -0.56519E-19         0.00000E+00
   -0.15372E-20        -0.31364E-19         0.00000E+00
    0.51595E-21        -0.13886E-19         0.00000E+00
   -0.54483E-20        -0.11143E-19         0.00000E+00
   -0.33420E-20        -0.55536E-20         0.00000E+00
   -0.60078E-21        -0.34584E-20         0.00000E+00
    0.29367E-21        -0.23811E-20         0.00000E+00
    0.15783E-20        -0.10742E-20         0.00000E+00
    0.73402E-19         0.83400E-20         0.00000E+00
    0.24303E-19        -0.36453E-19         0.00000E+00
   -0.15923E-19        -0.10819E-18         0.00000E+00
   -0.27689E-19        -0.75810E-19         0.00000E+00
   -0.40397E-19        -0.47502E-20         0.00000E+00
   -0.10071E-19        -0.70994E-20         0.00000E+00
    0.96420E-20         0.85215E-20         0.00000E+00
    0.52904E-20         0.43860E-19         0.00000E+00
    0.11958E-19         0.58117E-19         0.00000E+00
    0.16140E-19         0.55766E-19         0.00000E+00
    0.19836E-19         0.12684E-19         0.00000E+00
    0.80867E-20        -0.21801E-19         0.00000E+00
   -0.14460E-19        -0.99610E-20         0.00000E+00
   -0.23642E-19        -0.27247E-20         0.00000E+00
   -0.23048E-19        -0.81963E-20         0.00000E+00
   -0.33154E-20        -0.20494E-19         0.00000E+00
   -0.81418E-21        -0.50084E-19         0.00000E+00
   -0.28548E-20        -0.58882E-19         0.00000E+00
   -0.37391E-20        -0.33657E-19         0.00000E+00
   -0.39955E-20        -0.11930E-19         0.00000E+00
   -0.86247E-20        -0.92143E-20         0.00000E+00
   -0.43773E-20        -0.79774E-20         0.00000E+00
   -0.50807E-22        -0.52763E-20         0.00000E+00
    0.16488E-20        -0.34706E-20         0.00000E+00
    0.30974E-20        -0.23588E-20         0.00000E+00
   -0.29918E-19         0.49346E-19         0.00000E+00
    0.31666E-20         0.16213E-19         0.00000E+00
   -0.27742E-19        -0.70705E-19         0.00000E+00
   -0.58410E-19        -0.71872E-19         0.00000E+00
   -0.16257E-19        -0.13743E-19         0.00000E+00
   -0.17807E-19        -0.29522E-19         0.00000E+00
   -0.34012E-19        -0.16118E-19         0.00000E+00
   -0.62279E-20         0.32374E-19         0.00000E+00
    0.19888E-19         0.54924E-19         0.00000E+00
    0.21455E-19         0.52156E-19         0.00000E+00
    0.18667E-19         0.20849E-19         0.00000E+00
    0.38986E-20         0.22228E-20         0.00000E+00
   -0.19692E-19         0.26515E-20         0.00000E+00
   -0.17700E-19         0.33224E-20         0.00000E+00
   -0.13608E-19        -0.16728E-19         0.00000E+00
   -0.72063E-21        -0.40821E-19         0.00000E+00
    0.44491E-20        -0.51524E-19         0.00000E+00
   -0.16003E-20        -0.53594E-19         0.00000E+00
   -0.92974E-20        -0.30223E-19         0.00000E+00
   -0.94073E-20        -0.90005E-20         0.00000E+00
   -0.80517E-20        -0.10761E-19         0.00000E+00
   -0.36711E-20        -0.14128E-19         0.00000E+00
   -0.34064E-21        -0.94846E-20         0.00000E+00
    0.20029E-20        -0.55293E-20         0.00000E+00
    0.17782E-20        -0.39714E-20         0.00000E+00
   -0.61068E-19        -0.57830E-19         0.00000E+00
   -0.13490E-19        -0.38630E-19         0.00000E+00
    0.13606E-19        -0.46616E-19         0.00000E+00
   -0.30867E-19        -0.87296E-19         0.00000E+00
   -0.23599E-19        -0.45353E-19         0.00000E+00
   -0.27959E-19         0.10656E-19         0.00000E+00
   -0.46470E-19        -0.30579E-20         0.00000E+00
   -0.22184E-19        -0.10041E-19         0.00000E+00
    0.30652E-20         0.30434E-19         0.00000E+00
    0.13737E-20         0.56987E-19         0.00000E+00
    0.11807E-19         0.30241E-19         0.00000E+00
    0.10310E-19         0.16559E-19         0.00000E+00
    0.13915E-20         0.11637E-19         0.00000E+00
    0.59828E-20        -0.88085E-20         0.00000E+00
    0.14249E-19        -0.25175E-19         0.00000E+00
   -0.37869E-21        -0.38552E-19         0.00000E+00
    0.11258E-20        -0.49204E-19         0.00000E+00
   -0.19306E-20        -0.45135E-19         0.00000E+00
   -0.11190E-19        -0.25850E-19         0.00000E+00
   -0.76899E-20        -0.13176E-19         0.00000E+00
    0.55919E-21        -0.14950E-19         0.00000E+00
   -0.44078E-21        -0.15688E-19         0.00000E+00
   -0.85228E-21        -0.10950E-19         0.00000E+00
   -0.35557E-22        -0.55895E-20         0.00000E+00
   -0.56881E-21        -0.19095E-20         0.00000E+00
    0.00000E+00        -0.45810E-19         0.00000E+00
    0.53971E-20        -0.58460E-19         0.00000E+00
    0.30278E-19        -0.53328E-19         0.00000E+00
   -0.16433E-19        -0.34667E-19         0.00000E+00
   -0.59851E-19        -0.16652E-19         0.00000E+00
   -0.37742E-19        -0.66508E-20         0.00000E+00
   -0.21375E-19        -0.21893E-19         0.00000E+00
   -0.13988E-19        -0.17161E-19         0.00000E+00
   -0.18524E-19         0.31366E-19         0.00000E+00
   -0.91378E-20         0.43415E-19         0.00000E+00
    0.65467E-20         0.11913E-19         0.00000E+00
    0.12298E-19         0.12638E-19         0.00000E+00
    0.21042E-19         0.69785E-20         0.00000E+00
    0.29598E-19        -0.95353E-20         0.00000E+00
    0.24785E-19        -0.10367E-19         0.00000E+00
    0.65212E-20        -0.27697E-19         0.00000E+00
    0.43137E-20        -0.49972E-19         0.00000E+00
   -0.19989E-20        -0.41278E-19         0.00000E+00
   -0.53720E-20        -0.24464E-19         0.00000E+00
    0.32929E-21        -0.20750E-19         0.00000E+00
    0.64906E-20        -0.18011E-19         0.00000E+00
    0.33591E-20        -0.12716E-19         0.00000E+00
    0.65139E-22        -0.98898E-20         0.00000E+00
   -0.18147E-20        -0.58128E-20         0.00000E+00
   -0.37772E-21        -0.29048E-20         0.00000E+00
    0.00000E+00        -0.68624E-19         0.00000E+00
    0.12691E-19        -0.68907E-19         0.00000E+00
   -0.17634E-20        -0.24786E-19         0.00000E+00
   -0.16695E-19         0.28326E-20         0.00000E+00
   -0.28420E-19        -0.24043E-19         0.00000E+00
   -0.19034E-20        -0.27819E-19         0.00000E+00
   -0.65033E-20        -0.26812E-19         0.00000E+00
   -0.17866E-19        -0.12892E-19         0.00000E+00
   -0.71485E-20         0.25584E-19         0.00000E+00
    0.16048E-19         0.31916E-19         0.00000E+00
    0.86873E-20         0.88056E-20         0.00000E+00
    0.12978E-19         0.20635E-20         0.00000E+00
    0.24835E-19        -0.56635E-20         0.00000E+00
    0.24378E-19        -0.12551E-19         0.00000E+00
    0.30486E-19        -0.20982E-20         0.00000E+00
    0.26578E-19        -0.18081E-19         0.00000E+00
    0.13140E-19        -0.40684E-19         0.00000E+00
    0.25350E-20        -0.35450E-19         0.00000E+00
    0.34709E-20        -0.28178E-19         0.00000E+00
    0.85706E-20        -0.25039E-19         0.00000E+00
    0.62281E-20        -0.17980E-19         0.00000E+00
    0.38704E-20        -0.92631E-20         0.00000E+00
    0.31572E-20        -0.57766E-20         0.00000E+00
   -0.87850E-21        -0.51467E-20         0.00000E+00
   -0.25141E-20        -0.47834E-20         0.00000E+00
   -0.12646E-33        -0.71192E-19         0.00000E+00
   -0.83973E-20        -0.56697E-19         0.00000E+00
   -0.21837E-19        -0.23943E-19         0.00000E+00
    0.29735E-20        -0.80106E-20         0.00000E+00
    0.88937E-20        -0.31443E-19         0.00000E+00
    0.37007E-20        -0.28568E-19         0.00000E+00
   -0.60517E-21        -0.59304E-20         0.00000E+00
   -0.12921E-19        -0.16516E-19         0.00000E+00
    0.38890E-20        -0.25475E-20         0.00000E+00
    0.10861E-19         0.27579E-19         0.00000E+00
    0.20475E-19         0.14982E-19         0.00000E+00
    0.23249E-19        -0.35092E-20         0.00000E+00
    0.22584E-19        -0.44210E-20         0.00000E+00
    0.15243E-19        -0.15186E-19         0.00000E+00
    0.27782E-19        -0.12567E-19         0.00000E+00
    0.39593E-19        -0.10351E-19         0.00000E+00
    0.27753E-19        -0.25929E-19         0.00000E+00
    0.75467E-20        -0.31609E-19         0.00000E+00
    0.53441E-20        -0.30499E-19         0.00000E+00
    0.53955E-20        -0.23507E-19         0.00000E+00
    0.23166E-20        -0.13310E-19         0.00000E+00
    0.35937E-20        -0.96451E-20         0.00000E+00
    0.29863E-20        -0.51409E-20         0.00000E+00
    0.46928E-22        -0.14148E-21         0.00000E+00
   -0.22848E-20         0.36638E-21         0.00000E+00
    0.00000E+00        -0.51830E-19         0.00000E+00
   -0.10072E-19        -0.47070E-19         0.00000E+00
   -0.15309E-19        -0.36157E-19         0.00000E+00
   -0.22723E-20        -0.27898E-19         0.00000E+00
    0.66842E-20        -0.24770E-19         0.00000E+00
   -0.36560E-20        -0.18321E-19         0.00000E+00
    0.79965E-20        -0.10191E-19         0.00000E+00
    0.19358E-20        -0.17386E-19         0.00000E+00
   -0.43096E-20         0.18023E-20         0.00000E+00
    0.92746E-20         0.15330E-19         0.00000E+00
    0.25603E-19        -0.35828E-20         0.00000E+00
    0.23994E-19        -0.45552E-22         0.00000E+00
    0.17257E-19         0.23427E-20         0.00000E+00
    0.20810E-19        -0.17749E-19         0.00000E+00
    0.19594E-19        -0.26448E-19         0.00000E+00
    0.30864E-19        -0.18051E-19         0.00000E+00
    0.30860E-19        -0.86374E-20         0.00000E+00
    0.14971E-19        -0.13041E-19         0.00000E+00
    0.58434E-20        -0.26027E-19         0.00000E+00
    0.33433E-22        -0.22011E-19         0.00000E+00
   -0.10394E-20        -0.16178E-19         0.00000E+00
   -0.17422E-21        -0.99328E-20         0.00000E+00
   -0.27624E-20        -0.22298E-20         0.00000E+00
   -0.22761E-20         0.12442E-21         0.00000E+00
   -0.12326E-20        -0.11996E-21         0.00000E+00
    0.18136E-33        -0.51048E-19         0.00000E+00
   -0.77418E-20        -0.41388E-19         0.00000E+00
   -0.14865E-19        -0.31743E-19         0.00000E+00
   -0.13457E-19        -0.30003E-19         0.00000E+00
   -0.16441E-19        -0.30059E-19         0.00000E+00
   -0.93591E-20        -0.29880E-19         0.00000E+00
    0.49104E-20        -0.11522E-19         0.00000E+00
    0.92561E-20        -0.42094E-20         0.00000E+00
   -0.69654E-20        -0.98863E-20         0.00000E+00
    0.14781E-19        -0.23343E-20         0.00000E+00
    0.12967E-19         0.26322E-21         0.00000E+00
    0.10369E-19         0.48371E-20         0.00000E+00
    0.14033E-19        -0.12371E-20         0.00000E+00
    0.16517E-19        -0.17523E-19         0.00000E+00
    0.13526E-19        -0.22622E-19         0.00000E+00
    0.13327E-19        -0.21617E-19         0.00000E+00
    0.14168E-19        -0.10036E-19         0.00000E+00
    0.17150E-19        -0.65925E-20         0.00000E+00
    0.74443E-20        -0.15561E-19         0.00000E+00
    0.18002E-20        -0.16624E-19         0.00000E+00
   -0.26755E-20        -0.13103E-19         0.00000E+00
   -0.70719E-20        -0.79221E-20         0.00000E+00
   -0.70583E-20        -0.30390E-20         0.00000E+00
   -0.50979E-20        -0.16712E-20         0.00000E+00
   -0.39191E-20        -0.17205E-20         0.00000E+00
   -0.11760E-48        -0.36346E-19         0.00000E+00
   -0.13496E-19        -0.32205E-19         0.00000E+00
   -0.14847E-19        -0.30441E-19         0.00000E+00
   -0.12120E-19        -0.26323E-19         0.00000E+00
   -0.15472E-19        -0.28869E-19         0.00000E+00
   -0.19263E-19        -0.39672E-19         0.00000E+00
   -0.71851E-20        -0.28806E-19         0.00000E+00
    0.91772E-20        -0.55104E-20         0.00000E+00
    0.37262E-20        -0.37228E-20         0.00000E+00
   -0.29188E-20        -0.46028E-20         0.00000E+00
   -0.13856E-20         0.82990E-21         0.00000E+00
    0.33075E-20        -0.11115E-20         0.00000E+00
    0.12132E-19        -0.38053E-20         0.00000E+00
    0.13144E-19        -0.17242E-19         0.00000E+00
    0.63027E-20        -0.23259E-19         0.00000E+00
   -0.55388E-20        -0.18693E-19         0.00000E+00
   -0.22370E-20        -0.12461E-19         0.00000E+00
    0.86040E-20        -0.63179E-20         0.00000E+00
    0.59215E-20        -0.10677E-19         0.00000E+00
    0.23166E-22        -0.11891E-19         0.00000E+00
   -0.65810E-20        -0.73063E-20         0.00000E+00
   -0.82209E-20        -0.55500E-20         0.00000E+00
   -0.74594E-20        -0.42038E-20         0.00000E+00
   -0.64482E-20        -0.30148E-20         0.00000E+00
   -0.62926E-20        -0.24775E-20         0.00000E+00
   -0.42733E-34        -0.24056E-19         0.00000E+00
   -0.26485E-21        -0.26541E-19         0.00000E+00
   -0.12592E-20        -0.33118E-19         0.00000E+00
   -0.91802E-20        -0.29379E-19         0.00000E+00
   -0.41184E-20        -0.22917E-19         0.00000E+00
    0.26076E-20        -0.38167E-19         0.00000E+00
    0.12567E-20        -0.39963E-19         0.00000E+00
    0.77268E-20        -0.15121E-19         0.00000E+00
    0.90073E-20         0.22098E-20         0.00000E+00
   -0.38150E-20         0.27776E-20         0.00000E+00
    0.36549E-20        -0.59631E-20         0.00000E+00
    0.11756E-19        -0.86810E-20         0.00000E+00
    0.15614E-19        -0.11074E-19         0.00000E+00
    0.15552E-19        -0.11693E-19         0.00000E+00
    0.36252E-20        -0.39388E-20         0.00000E+00
   -0.41036E-20        -0.13077E-19         0.00000E+00
   -0.73206E-20        -0.24178E-19         0.00000E+00
   -0.20283E-20        -0.14751E-19         0.00000E+00
    0.31162E-20        -0.69806E-20         0.00000E+00
   -0.30780E-20        -0.41217E-20         0.00000E+00
   -0.82754E-20        -0.48587E-20         0.00000E+00
   -0.65051E-20        -0.70437E-20         0.00000E+00
   -0.49945E-20        -0.48117E-20         0.00000E+00
   -0.46422E-20        -0.28381E-20         0.00000E+00
   -0.60471E-20        -0.20317E-20         0.00000E+00
    0.00000E+00        -0.35816E-19         0.00000E+00
    0.38819E-20        -0.30946E-19         0.00000E+00
    0.23347E-21        -0.21526E-19         0.00000E+00
   -0.66467E-20        -0.23463E-19         0.00000E+00
    0.23990E-21        -0.40656E-19         0.00000E+00
    0.10495E-19        -0.45047E-19         0.00000E+00
    0.20061E-20        -0.33925E-19         0.00000E+00
    0.39712E-20        -0.13261E-19         0.00000E+00
    0.68196E-20         0.78189E-20         0.00000E+00
    0.73117E-20         0.74956E-21         0.00000E+00
    0.13141E-19        -0.14742E-19         0.00000E+00
    0.15800E-19        -0.13071E-19         0.00000E+00
    0.12500E-19        -0.76007E-20         0.00000E+00
    0.20456E-20        -0.52528E-20         0.00000E+00
    0.52277E-20        -0.36031E-20         0.00000E+00
    0.14516E-19        -0.77470E-20         0.00000E+00
    0.36466E-20        -0.14536E-19         0.00000E+00
   -0.29375E-20        -0.16755E-19         0.00000E+00
   -0.22870E-20        -0.96272E-20         0.00000E+00
   -0.40565E-20        -0.49975E-21         0.00000E+00
   -0.19960E-20        -0.38793E-20         0.00000E+00
   -0.34068E-20        -0.88309E-20         0.00000E+00
   -0.25326E-20        -0.60666E-20         0.00000E+00
   -0.29911E-20        -0.19621E-20         0.00000E+00
   -0.35341E-20         0.33219E-21         0.00000E+00
    0.00000E+00        -0.31820E-19         0.00000E+00
   -0.70161E-20        -0.26775E-19         0.00000E+00
   -0.69960E-20        -0.22589E-19         0.00000E+00
   -0.36627E-20        -0.29385E-19         0.00000E+00
   -0.24244E-21        -0.40058E-19         0.00000E+00
   -0.71774E-20        -0.39933E-19         0.00000E+00
   -0.86156E-20        -0.33439E-19         0.00000E+00
   -0.86032E-20        -0.19934E-19         0.00000E+00
    0.69186E-21        -0.11307E-20         0.00000E+00
    0.17044E-19        -0.35436E-20         0.00000E+00
    0.15259E-19        -0.14452E-19         0.00000E+00
    0.83059E-20        -0.80402E-20         0.00000E+00
    0.12782E-20         0.26809E-20         0.00000E+00
    0.63008E-21        -0.44212E-20         0.00000E+00
    0.67757E-20        -0.16409E-19         0.00000E+00
    0.12079E-19        -0.11496E-19         0.00000E+00
    0.12044E-19        -0.67247E-20         0.00000E+00
    0.75728E-20        -0.88174E-20         0.00000E+00
   -0.35962E-21        -0.58616E-20         0.00000E+00
   -0.53955E-21        -0.44127E-20         0.00000E+00
    0.50009E-20        -0.55085E-20         0.00000E+00
   -0.39382E-21        -0.65071E-20         0.00000E+00
   -0.25192E-20        -0.52274E-20         0.00000E+00
   -0.32720E-20        -0.18366E-20         0.00000E+00
   -0.24262E-20        -0.94562E-21         0.00000E+00
    0.00000E+00        -0.21784E-19         0.00000E+00
   -0.51589E-20        -0.23950E-19         0.00000E+00
   -0.48324E-21        -0.24879E-19         0.00000E+00
   -0.21823E-20        -0.30217E-19         0.00000E+00
   -0.42139E-20        -0.37142E-19         0.00000E+00
   -0.57578E-20        -0.36673E-19         0.00000E+00
   -0.82370E-20        -0.32500E-19         0.00000E+00
   -0.13576E-19        -0.22568E-19         0.00000E+00
   -0.61806E-20        -0.17829E-19         0.00000E+00
    0.78543E-20        -0.13818E-19         0.00000E+00
    0.89714E-20        -0.60031E-20         0.00000E+00
    0.94796E-21         0.90993E-21         0.00000E+00
    0.44995E-20         0.75155E-22         0.00000E+00
    0.16217E-19        -0.10750E-19         0.00000E+00
    0.12590E-19        -0.15052E-19         0.00000E+00
    0.76625E-20        -0.13015E-19         0.00000E+00
    0.88021E-20        -0.10030E-19         0.00000E+00
    0.89788E-20        -0.43512E-20         0.00000E+00
    0.76143E-20        -0.15149E-20         0.00000E+00
    0.50680E-20        -0.58603E-20         0.00000E+00
    0.28847E-20        -0.40250E-20         0.00000E+00
    0.97689E-21        -0.13108E-20         0.00000E+00
   -0.30235E-20        -0.31885E-20         0.00000E+00
   -0.29994E-20        -0.20552E-20         0.00000E+00
   -0.29519E-20        -0.13594E-20         0.00000E+00
    0.00000E+00        -0.21502E-19         0.00000E+00
   -0.22752E-21        -0.26292E-19         0.00000E+00
    0.16648E-20        -0.25566E-19         0.00000E+00
    0.53462E-20        -0.25654E-19         0.00000E+00
   -0.22376E-20        -0.36483E-19         0.00000E+00
   -0.35307E-20        -0.35910E-19         0.00000E+00
   -0.49313E-20        -0.25621E-19         0.00000E+00
   -0.11695E-19        -0.21991E-19         0.00000E+00
   -0.79194E-20        -0.22561E-19         0.00000E+00
   -0.82156E-20        -0.18696E-19         0.00000E+00
   -0.21076E-20        -0.75452E-20         0.00000E+00
    0.53078E-21        -0.35682E-20         0.00000E+00
    0.10853E-19        -0.12588E-19         0.00000E+00
    0.11818E-19        -0.12511E-19         0.00000E+00
    0.10624E-19        -0.78549E-20         0.00000E+00
    0.61208E-20        -0.77089E-20         0.00000E+00
    0.47103E-20        -0.80410E-20         0.00000E+00
    0.54485E-20        -0.76296E-20         0.00000E+00
    0.66759E-20        -0.19508E-20         0.00000E+00
    0.57137E-20         0.31695E-21         0.00000E+00
   -0.11476E-20        -0.14174E-20         0.00000E+00
    0.52972E-21        -0.59891E-21         0.00000E+00
   -0.27269E-21        -0.12511E-20         0.00000E+00
   -0.19247E-20        -0.19082E-20         0.00000E+00
   -0.26048E-20        -0.10407E-20         0.00000E+00
    0.00000E+00        -0.21329E-19         0.00000E+00
    0.16822E-20        -0.25615E-19         0.00000E+00
    0.18352E-20        -0.30453E-19         0.00000E+00
    0.51293E-20        -0.26314E-19         0.00000E+00
    0.21680E-20        -0.28265E-19         0.00000E+00
   -0.66909E-20        -0.33980E-19         0.00000E+00
   -0.67808E-20        -0.24335E-19         0.00000E+00
   -0.55326E-20        -0.19580E-19         0.00000E+00
   -0.66533E-20        -0.21308E-19         0.00000E+00
   -0.80173E-20        -0.19629E-19         0.00000E+00
   -0.65436E-20        -0.14750E-19         0.00000E+00
    0.37809E-20        -0.12050E-19         0.00000E+00
    0.70065E-20        -0.11212E-19         0.00000E+00
   -0.49332E-21        -0.10522E-19         0.00000E+00
   -0.31984E-21        -0.93549E-20         0.00000E+00
    0.19750E-20        -0.71012E-20         0.00000E+00
    0.41499E-20        -0.93573E-20         0.00000E+00
    0.36610E-20        -0.63167E-20         0.00000E+00
    0.32413E-20        -0.17800E-20         0.00000E+00
    0.60723E-20         0.19632E-20         0.00000E+00
    0.34224E-20         0.11590E-20         0.00000E+00
    0.71868E-21        -0.21857E-20         0.00000E+00
    0.54697E-21        -0.73402E-21         0.00000E+00
   -0.13516E-20         0.27697E-21         0.00000E+00
   -0.22885E-20         0.76999E-24         0.00000E+00
    0.00000E+00        -0.24867E-19         0.00000E+00
    0.26229E-20        -0.28127E-19         0.00000E+00
    0.32076E-20        -0.29013E-19         0.00000E+00
    0.11509E-20        -0.25987E-19         0.00000E+00
    0.16150E-20        -0.24662E-19         0.00000E+00
   -0.21105E-20        -0.26961E-19         0.00000E+00
   -0.57039E-20        -0.26779E-19         0.00000E+00
   -0.17100E-20        -0.22118E-19         0.00000E+00
   -0.36202E-20        -0.20077E-19         0.00000E+00
   -0.37530E-20        -0.18805E-19         0.00000E+00
   -0.54295E-20        -0.19343E-19         0.00000E+00
   -0.11197E-20        -0.17118E-19         0.00000E+00
   -0.13406E-20        -0.83138E-20         0.00000E+00
    0.18219E-20        -0.51850E-20         0.00000E+00
   -0.45865E-20        -0.10323E-19         0.00000E+00
    0.19291E-20        -0.12179E-19         0.00000E+00
    0.39674E-20        -0.97271E-20         0.00000E+00
    0.14636E-20        -0.67210E-20         0.00000E+00
    0.72112E-21        -0.43620E-20         0.00000E+00
    0.24275E-20         0.13584E-21         0.00000E+00
    0.23102E-20         0.39362E-20         0.00000E+00
   -0.14336E-20         0.22765E-20         0.00000E+00
   -0.32058E-20         0.81917E-21         0.00000E+00
   -0.25570E-20         0.92731E-21         0.00000E+00
   -0.27953E-20         0.83317E-21         0.00000E+00
    0.00000E+00        -0.26575E-19         0.00000E+00
    0.16956E-20        -0.28823E-19         0.00000E+00
    0.85960E-21        -0.28981E-19         0.00000E+00
    0.13072E-20        -0.24722E-19         0.00000E+00
   -0.13560E-21        -0.25004E-19         0.00000E+00
    0.24958E-20        -0.26661E-19         0.00000E+00
   -0.22835E-21        -0.24735E-19         0.00000E+00
   -0.52155E-20        -0.21664E-19         0.00000E+00
   -0.59111E-20        -0.19265E-19         0.00000E+00
   -0.70838E-20        -0.17820E-19         0.00000E+00
   -0.83008E-20        -0.17383E-19         0.00000E+00
   -0.10780E-19        -0.16139E-19         0.00000E+00
   -0.83914E-20        -0.14154E-19         0.00000E+00
   -0.11868E-20        -0.72762E-20         0.00000E+00
    0.39223E-20        -0.94621E-20         0.00000E+00
    0.34842E-20        -0.15655E-19         0.00000E+00
    0.22288E-20        -0.88918E-20         0.00000E+00
   -0.54261E-21        -0.30705E-20         0.00000E+00
   -0.40570E-20        -0.27440E-20         0.00000E+00
   -0.71240E-20         0.37411E-21         0.00000E+00
   -0.64796E-20         0.50201E-20         0.00000E+00
   -0.50314E-20         0.33303E-20         0.00000E+00
   -0.40433E-20         0.38938E-21         0.00000E+00
   -0.41127E-20        -0.13353E-21         0.00000E+00
   -0.37415E-20         0.47724E-21         0.00000E+00
    0.00000E+00        -0.28258E-19         0.00000E+00
    0.20043E-20        -0.28986E-19         0.00000E+00
    0.54532E-21        -0.28625E-19         0.00000E+00
    0.52401E-22        -0.24992E-19         0.00000E+00
    0.13621E-20        -0.25851E-19         0.00000E+00
   -0.44318E-21        -0.26868E-19         0.00000E+00
   -0.19596E-20        -0.19068E-19         0.00000E+00
   -0.47810E-20        -0.16435E-19         0.00000E+00
   -0.78313E-20        -0.18208E-19         0.00000E+00
   -0.95482E-20        -0.16416E-19         0.00000E+00
   -0.87788E-20        -0.15647E-19         0.00000E+00
   -0.81718E-20        -0.17028E-19         0.00000E+00
   -0.73917E-20        -0.17907E-19         0.00000E+00
   -0.76225E-20        -0.17499E-19         0.00000E+00
    0.27046E-20        -0.14994E-19         0.00000E+00
   -0.30981E-20        -0.10485E-19         0.00000E+00
   -0.52852E-20        -0.57002E-20         0.00000E+00
   -0.35795E-20        -0.43519E-21         0.00000E+00
   -0.72025E-20         0.22193E-20         0.00000E+00
   -0.93365E-20         0.25584E-20         0.00000E+00
   -0.58178E-20         0.18436E-20         0.00000E+00
   -0.29314E-20        -0.15979E-21         0.00000E+00
   -0.36905E-20        -0.99518E-22         0.00000E+00
   -0.50209E-20         0.62554E-21         0.00000E+00
   -0.50010E-20         0.90814E-22         0.00000E+00
    0.00000E+00        -0.30583E-19         0.00000E+00
    0.18796E-21        -0.29368E-19         0.00000E+00
   -0.10190E-20        -0.27029E-19         0.00000E+00
   -0.13975E-20        -0.25539E-19         0.00000E+00
   -0.20069E-21        -0.24508E-19         0.00000E+00
   -0.40408E-20        -0.23339E-19         0.00000E+00
   -0.65229E-20        -0.20398E-19         0.00000E+00
   -0.26467E-20        -0.15792E-19         0.00000E+00
   -0.37472E-20        -0.14498E-19         0.00000E+00
   -0.40351E-20        -0.16873E-19         0.00000E+00
   -0.22922E-20        -0.18759E-19         0.00000E+00
    0.44336E-21        -0.17526E-19         0.00000E+00
   -0.18821E-20        -0.14703E-19         0.00000E+00
   -0.22209E-20        -0.17372E-19         0.00000E+00
   -0.48514E-20        -0.13986E-19         0.00000E+00
   -0.84037E-20        -0.76652E-20         0.00000E+00
   -0.97526E-20        -0.84105E-20         0.00000E+00
   -0.10862E-19        -0.11532E-20         0.00000E+00
   -0.11778E-19         0.30131E-20         0.00000E+00
   -0.10497E-19        -0.10106E-20         0.00000E+00
   -0.61865E-20        -0.13850E-20         0.00000E+00
   -0.45442E-20         0.12029E-20         0.00000E+00
   -0.66879E-20         0.24789E-20         0.00000E+00
   -0.63526E-20         0.11770E-20         0.00000E+00
   -0.61703E-20         0.43730E-21         0.00000E+00
    0.00000E+00        -0.28634E-19         0.00000E+00
   -0.19365E-20        -0.27967E-19         0.00000E+00
   -0.24554E-20        -0.27039E-19         0.00000E+00
   -0.22325E-20        -0.25810E-19         0.00000E+00
   -0.29579E-20        -0.23208E-19         0.00000E+00
   -0.35258E-20        -0.20546E-19         0.00000E+00
   -0.65448E-20        -0.20462E-19         0.00000E+00
   -0.67624E-20        -0.19211E-19         0.00000E+00
   -0.27563E-20        -0.16820E-19         0.00000E+00
    0.50194E-21        -0.17871E-19         0.00000E+00
    0.27092E-20        -0.20125E-19         0.00000E+00
    0.98520E-21        -0.17438E-19         0.00000E+00
    0.24781E-20        -0.15243E-19         0.00000E+00
    0.42046E-20        -0.14529E-19         0.00000E+00
   -0.98969E-21        -0.88115E-20         0.00000E+00
   -0.13474E-20        -0.55839E-20         0.00000E+00
   -0.68871E-20        -0.32423E-20         0.00000E+00
   -0.13912E-19         0.15900E-20         0.00000E+00
   -0.12551E-19         0.18544E-20         0.00000E+00
   -0.12677E-19        -0.30329E-20         0.00000E+00
   -0.11555E-19        -0.41089E-20         0.00000E+00
   -0.10578E-19         0.34160E-21         0.00000E+00
   -0.93874E-20         0.17089E-20         0.00000E+00
   -0.78152E-20         0.10789E-21         0.00000E+00
   -0.72491E-20        -0.27385E-21         0.00000E+00
    0.00000E+00        -0.26710E-19         0.00000E+00
   -0.12758E-20        -0.26912E-19         0.00000E+00
   -0.22455E-20        -0.26733E-19         0.00000E+00
   -0.32436E-20        -0.25036E-19         0.00000E+00
   -0.33265E-20        -0.23215E-19         0.00000E+00
   -0.33288E-20        -0.19752E-19         0.00000E+00
   -0.37187E-20        -0.17161E-19         0.00000E+00
   -0.54846E-20        -0.19581E-19         0.00000E+00
   -0.47435E-20        -0.21762E-19         0.00000E+00
   -0.11667E-20        -0.22338E-19         0.00000E+00
    0.24887E-22        -0.19243E-19         0.00000E+00
   -0.30506E-21        -0.17295E-19         0.00000E+00
   -0.12325E-20        -0.17923E-19         0.00000E+00
   -0.21617E-20        -0.13905E-19         0.00000E+00
   -0.95363E-21        -0.84345E-20         0.00000E+00
    0.74318E-21        -0.17678E-20         0.00000E+00
   -0.34610E-20         0.41540E-20         0.00000E+00
   -0.76852E-20         0.45104E-20         0.00000E+00
   -0.80409E-20         0.17785E-20         0.00000E+00
   -0.81451E-20        -0.20066E-20         0.00000E+00
   -0.11139E-19        -0.34846E-20         0.00000E+00
   -0.11487E-19        -0.96434E-21         0.00000E+00
   -0.94043E-20        -0.28360E-21         0.00000E+00
   -0.81551E-20        -0.96129E-21         0.00000E+00
   -0.82807E-20        -0.69493E-21         0.00000E+00
    0.00000E+00        -0.26082E-19         0.00000E+00
   -0.84116E-21        -0.25722E-19         0.00000E+00
   -0.23277E-20        -0.25071E-19         0.00000E+00
   -0.43867E-20        -0.24729E-19         0.00000E+00
   -0.47707E-20        -0.23122E-19         0.00000E+00
   -0.47824E-20        -0.20154E-19         0.00000E+00
   -0.21464E-20        -0.18306E-19         0.00000E+00
   -0.29054E-20        -0.18186E-19         0.00000E+00
   -0.40358E-20        -0.21138E-19         0.00000E+00
   -0.59465E-20        -0.22639E-19         0.00000E+00
   -0.79985E-20        -0.20987E-19         0.00000E+00
   -0.54227E-20        -0.16180E-19         0.00000E+00
   -0.83167E-20        -0.13387E-19         0.00000E+00
   -0.11702E-19        -0.14808E-19         0.00000E+00
   -0.10524E-19        -0.11716E-19         0.00000E+00
   -0.70324E-20        -0.30766E-20         0.00000E+00
   -0.54287E-20         0.51861E-20         0.00000E+00
   -0.51988E-20         0.61700E-20         0.00000E+00
   -0.45189E-20         0.23143E-20         0.00000E+00
   -0.44456E-20         0.64999E-22         0.00000E+00
   -0.86687E-20        -0.76714E-21         0.00000E+00
   -0.11014E-19        -0.13930E-20         0.00000E+00
   -0.97011E-20        -0.16230E-20         0.00000E+00
   -0.89525E-20        -0.10157E-20         0.00000E+00
   -0.88575E-20        -0.22637E-22         0.00000E+00
    0.00000E+00        -0.25028E-19         0.00000E+00
   -0.10526E-20        -0.24585E-19         0.00000E+00
   -0.21155E-20        -0.23188E-19         0.00000E+00
   -0.38796E-20        -0.22593E-19         0.00000E+00
   -0.57007E-20        -0.22819E-19         0.00000E+00
   -0.57803E-20        -0.22376E-19         0.00000E+00
   -0.58256E-20        -0.19038E-19         0.00000E+00
   -0.60281E-20        -0.17691E-19         0.00000E+00
   -0.49022E-20        -0.18721E-19         0.00000E+00
   -0.81251E-20        -0.18375E-19         0.00000E+00
   -0.11951E-19        -0.19766E-19         0.00000E+00
   -0.13771E-19        -0.16977E-19         0.00000E+00
   -0.11404E-19        -0.11644E-19         0.00000E+00
   -0.14020E-19        -0.11698E-19         0.00000E+00
   -0.16743E-19        -0.13104E-19         0.00000E+00
   -0.15931E-19        -0.68629E-20         0.00000E+00
   -0.11226E-19         0.23205E-20         0.00000E+00
   -0.74946E-20         0.36006E-20         0.00000E+00
   -0.54869E-20         0.10253E-20         0.00000E+00
   -0.52010E-20         0.21431E-20         0.00000E+00
   -0.69847E-20         0.30843E-20         0.00000E+00
   -0.10268E-19         0.68042E-22         0.00000E+00
   -0.10716E-19        -0.23455E-20         0.00000E+00
   -0.10335E-19        -0.18049E-20         0.00000E+00
   -0.95500E-20        -0.88498E-21         0.00000E+00
    0.00000E+00        -0.23977E-19         0.00000E+00
   -0.75414E-21        -0.23606E-19         0.00000E+00
   -0.16898E-20        -0.22244E-19         0.00000E+00
   -0.21710E-20        -0.21144E-19         0.00000E+00
   -0.39768E-20        -0.21222E-19         0.00000E+00
   -0.54528E-20        -0.20029E-19         0.00000E+00
   -0.77034E-20        -0.18058E-19         0.00000E+00
   -0.76161E-20        -0.19110E-19         0.00000E+00
   -0.83186E-20        -0.19041E-19         0.00000E+00
   -0.77301E-20        -0.15590E-19         0.00000E+00
   -0.10741E-19        -0.15341E-19         0.00000E+00
   -0.15272E-19        -0.16727E-19         0.00000E+00
   -0.14858E-19        -0.13137E-19         0.00000E+00
   -0.13966E-19        -0.94695E-20         0.00000E+00
   -0.14800E-19        -0.98060E-20         0.00000E+00
   -0.16073E-19        -0.85937E-20         0.00000E+00
   -0.11681E-19        -0.32499E-20         0.00000E+00
   -0.79164E-20         0.43106E-21         0.00000E+00
   -0.57737E-20         0.20694E-22         0.00000E+00
   -0.78988E-20         0.15628E-20         0.00000E+00
   -0.70751E-20         0.42999E-20         0.00000E+00
   -0.68663E-20         0.23384E-20         0.00000E+00
   -0.82595E-20        -0.15555E-20         0.00000E+00
   -0.90257E-20        -0.21818E-20         0.00000E+00
   -0.92537E-20        -0.15936E-20         0.00000E+00
    0.00000E+00        -0.23520E-19         0.00000E+00
   -0.68844E-21        -0.22895E-19         0.00000E+00
   -0.18210E-20        -0.21771E-19         0.00000E+00
   -0.19117E-20        -0.20306E-19         0.00000E+00
   -0.23571E-20        -0.19537E-19         0.00000E+00
   -0.37476E-20        -0.18650E-19         0.00000E+00
   -0.49781E-20        -0.16875E-19         0.00000E+00
   -0.53902E-20        -0.17076E-19         0.00000E+00
   -0.79996E-20        -0.18607E-19         0.00000E+00
   -0.90045E-20        -0.15953E-19         0.00000E+00
   -0.84708E-20        -0.12225E-19         0.00000E+00
   -0.11188E-19        -0.12860E-19         0.00000E+00
   -0.11620E-19        -0.12950E-19         0.00000E+00
   -0.10769E-19        -0.11755E-19         0.00000E+00
   -0.10439E-19        -0.10996E-19         0.00000E+00
   -0.88052E-20        -0.99818E-20         0.00000E+00
   -0.73512E-20        -0.58363E-20         0.00000E+00
   -0.56730E-20        -0.23068E-20         0.00000E+00
   -0.48617E-20         0.10076E-20         0.00000E+00
   -0.69265E-20         0.34445E-20         0.00000E+00
   -0.66191E-20         0.20518E-20         0.00000E+00
   -0.46527E-20         0.12524E-20         0.00000E+00
   -0.51146E-20        -0.18609E-21         0.00000E+00
   -0.65991E-20        -0.81061E-21         0.00000E+00
   -0.74702E-20        -0.42895E-21         0.00000E+00
    0.00000E+00        -0.22600E-19         0.00000E+00
   -0.11930E-20        -0.21785E-19         0.00000E+00
   -0.24121E-20        -0.21021E-19         0.00000E+00
   -0.24417E-20        -0.20608E-19         0.00000E+00
   -0.19921E-20        -0.19386E-19         0.00000E+00
   -0.37334E-20        -0.17408E-19         0.00000E+00
   -0.34178E-20        -0.16415E-19         0.00000E+00
   -0.24892E-20        -0.16088E-19         0.00000E+00
   -0.46293E-20        -0.15426E-19         0.00000E+00
   -0.79662E-20        -0.15119E-19         0.00000E+00
   -0.75957E-20        -0.13157E-19         0.00000E+00
   -0.63404E-20        -0.13578E-19         0.00000E+00
   -0.57747E-20        -0.13556E-19         0.00000E+00
   -0.43733E-20        -0.10651E-19         0.00000E+00
   -0.46642E-20        -0.11770E-19         0.00000E+00
   -0.55738E-20        -0.11681E-19         0.00000E+00
   -0.74215E-20        -0.63821E-20         0.00000E+00
   -0.65197E-20        -0.20584E-20         0.00000E+00
   -0.61197E-20         0.12743E-20         0.00000E+00
   -0.53105E-20         0.33202E-20         0.00000E+00
   -0.58771E-20         0.20261E-20         0.00000E+00
   -0.55817E-20         0.83388E-21         0.00000E+00
   -0.51714E-20         0.39087E-21         0.00000E+00
   -0.58594E-20         0.17384E-21         0.00000E+00
   -0.62109E-20         0.14863E-21         0.00000E+00
    0.00000E+00        -0.21134E-19         0.00000E+00
   -0.14609E-20        -0.20483E-19         0.00000E+00
   -0.26565E-20        -0.20522E-19         0.00000E+00
   -0.24952E-20        -0.20726E-19         0.00000E+00
   -0.27169E-20        -0.18245E-19         0.00000E+00
   -0.42184E-20        -0.17224E-19         0.00000E+00
   -0.37694E-20        -0.18119E-19         0.00000E+00
   -0.27935E-20        -0.15865E-19         0.00000E+00
   -0.44578E-20        -0.13130E-19         0.00000E+00
   -0.56879E-20        -0.12987E-19         0.00000E+00
   -0.50106E-20        -0.13851E-19         0.00000E+00
   -0.37064E-20        -0.14681E-19         0.00000E+00
   -0.51927E-20        -0.14917E-19         0.00000E+00
   -0.36130E-20        -0.12866E-19         0.00000E+00
   -0.30378E-20        -0.97959E-20         0.00000E+00
   -0.59395E-20        -0.72245E-20         0.00000E+00
   -0.85166E-20        -0.48904E-20         0.00000E+00
   -0.73365E-20        -0.36086E-20         0.00000E+00
   -0.72293E-20        -0.20150E-21         0.00000E+00
   -0.65767E-20         0.32020E-20         0.00000E+00
   -0.60345E-20         0.23230E-20         0.00000E+00
   -0.63217E-20         0.54671E-21         0.00000E+00
   -0.55721E-20         0.91611E-22         0.00000E+00
   -0.56839E-20         0.22891E-21         0.00000E+00
   -0.57395E-20         0.27412E-21         0.00000E+00
    0.00000E+00        -0.19678E-19         0.00000E+00
   -0.55398E-21        -0.19129E-19         0.00000E+00
   -0.13402E-20        -0.19987E-19         0.00000E+00
   -0.21347E-20        -0.20548E-19         0.00000E+00
   -0.28723E-20        -0.17663E-19         0.00000E+00
   -0.28776E-20        -0.16355E-19         0.00000E+00
   -0.35703E-20        -0.17840E-19         0.00000E+00
   -0.43900E-20        -0.15400E-19         0.00000E+00
   -0.44082E-20        -0.12532E-19         0.00000E+00
   -0.42461E-20        -0.14566E-19         0.00000E+00
   -0.26160E-20        -0.15139E-19         0.00000E+00
   -0.28017E-20        -0.13396E-19         0.00000E+00
   -0.47669E-20        -0.13650E-19         0.00000E+00
   -0.64046E-20        -0.12806E-19         0.00000E+00
   -0.67282E-20        -0.94433E-20         0.00000E+00
   -0.51507E-20        -0.62025E-20         0.00000E+00
   -0.43911E-20        -0.49852E-20         0.00000E+00
   -0.48525E-20        -0.33457E-20         0.00000E+00
   -0.66649E-20         0.51447E-21         0.00000E+00
   -0.56922E-20         0.21253E-20         0.00000E+00
   -0.41942E-20         0.17711E-20         0.00000E+00
   -0.49232E-20         0.37151E-21         0.00000E+00
   -0.54528E-20        -0.24697E-21         0.00000E+00
   -0.52734E-20         0.34120E-21         0.00000E+00
   -0.50443E-20         0.25982E-21         0.00000E+00
    0.00000E+00        -0.20026E-19         0.00000E+00
    0.39704E-22        -0.19143E-19         0.00000E+00
    0.72269E-21        -0.18941E-19         0.00000E+00
   -0.10546E-20        -0.19194E-19         0.00000E+00
   -0.21449E-20        -0.17502E-19         0.00000E+00
   -0.14897E-20        -0.16526E-19         0.00000E+00
   -0.17567E-20        -0.16607E-19         0.00000E+00
   -0.32475E-20        -0.15027E-19         0.00000E+00
   -0.21367E-20        -0.13274E-19         0.00000E+00
   -0.15218E-20        -0.14779E-19         0.00000E+00
   -0.23898E-20        -0.15295E-19         0.00000E+00
   -0.37098E-20        -0.12530E-19         0.00000E+00
   -0.45292E-20        -0.11314E-19         0.00000E+00
   -0.58063E-20        -0.10904E-19         0.00000E+00
   -0.65375E-20        -0.11050E-19         0.00000E+00
   -0.45797E-20        -0.95616E-20         0.00000E+00
   -0.35878E-20        -0.51886E-20         0.00000E+00
   -0.47919E-20        -0.13347E-20         0.00000E+00
   -0.55006E-20         0.63816E-21         0.00000E+00
   -0.35625E-20         0.73127E-21         0.00000E+00
   -0.33384E-20         0.15540E-20         0.00000E+00
   -0.35027E-20         0.18053E-20         0.00000E+00
   -0.44954E-20         0.44182E-21         0.00000E+00
   -0.40803E-20        -0.17957E-21         0.00000E+00
   -0.39691E-20        -0.18406E-21         0.00000E+00
    0.00000E+00        -0.19758E-19         0.00000E+00
   -0.76802E-21        -0.19851E-19         0.00000E+00
   -0.12541E-21        -0.18892E-19         0.00000E+00
   -0.11917E-20        -0.17680E-19         0.00000E+00
   -0.21827E-20        -0.17228E-19         0.00000E+00
   -0.14322E-20        -0.16744E-19         0.00000E+00
   -0.14088E-20        -0.16083E-19         0.00000E+00
   -0.19167E-20        -0.15020E-19         0.00000E+00
   -0.58717E-21        -0.14258E-19         0.00000E+00
    0.29372E-21        -0.14313E-19         0.00000E+00
   -0.26907E-20        -0.12951E-19         0.00000E+00
   -0.39749E-20        -0.11257E-19         0.00000E+00
   -0.34964E-20        -0.11553E-19         0.00000E+00
   -0.31218E-20        -0.10797E-19         0.00000E+00
   -0.23048E-20        -0.10670E-19         0.00000E+00
   -0.52697E-20        -0.91522E-20         0.00000E+00
   -0.64246E-20        -0.47730E-20         0.00000E+00
   -0.64675E-20        -0.14329E-20         0.00000E+00
   -0.49428E-20        -0.71495E-21         0.00000E+00
   -0.39391E-20        -0.36914E-22         0.00000E+00
   -0.47960E-20         0.17113E-20         0.00000E+00
   -0.37722E-20         0.15285E-20         0.00000E+00
   -0.30513E-20         0.33064E-21         0.00000E+00
   -0.33532E-20        -0.18506E-21         0.00000E+00
   -0.35867E-20         0.37473E-22         0.00000E+00
    0.00000E+00        -0.18490E-19         0.00000E+00
   -0.10765E-20        -0.19017E-19         0.00000E+00
   -0.13309E-20        -0.18518E-19         0.00000E+00
   -0.73670E-21        -0.17137E-19         0.00000E+00
   -0.11054E-20        -0.17262E-19         0.00000E+00
   -0.16417E-20        -0.17300E-19         0.00000E+00
   -0.21108E-20        -0.16122E-19         0.00000E+00
   -0.21400E-20        -0.15848E-19         0.00000E+00
   -0.23482E-20        -0.15484E-19         0.00000E+00
   -0.10699E-20        -0.12676E-19         0.00000E+00
   -0.21181E-20        -0.11026E-19         0.00000E+00
   -0.30273E-20        -0.11725E-19         0.00000E+00
   -0.15122E-20        -0.12167E-19         0.00000E+00
   -0.18416E-21        -0.12096E-19         0.00000E+00
   -0.86301E-21        -0.89019E-20         0.00000E+00
   -0.49068E-20        -0.54418E-20         0.00000E+00
   -0.69628E-20        -0.39908E-20         0.00000E+00
   -0.57933E-20        -0.28165E-20         0.00000E+00
   -0.55950E-20        -0.18902E-20         0.00000E+00
   -0.59387E-20         0.58442E-21         0.00000E+00
   -0.49076E-20         0.13871E-20         0.00000E+00
   -0.37223E-20         0.60619E-22         0.00000E+00
   -0.33809E-20         0.22883E-22         0.00000E+00
   -0.38352E-20         0.35584E-21         0.00000E+00
   -0.40221E-20         0.28287E-21         0.00000E+00
    0.00000E+00        -0.17605E-19         0.00000E+00
    0.11769E-22        -0.18521E-19         0.00000E+00
   -0.72352E-21        -0.19232E-19         0.00000E+00
    0.28251E-21        -0.17906E-19         0.00000E+00
    0.50994E-21        -0.16323E-19         0.00000E+00
   -0.96621E-21        -0.15738E-19         0.00000E+00
   -0.25598E-20        -0.15584E-19         0.00000E+00
   -0.28052E-20        -0.14783E-19         0.00000E+00
   -0.39680E-20        -0.15328E-19         0.00000E+00
   -0.23750E-20        -0.14543E-19         0.00000E+00
   -0.64778E-21        -0.10994E-19         0.00000E+00
   -0.14539E-20        -0.11862E-19         0.00000E+00
   -0.11679E-21        -0.14396E-19         0.00000E+00
    0.16504E-21        -0.11446E-19         0.00000E+00
   -0.31039E-20        -0.59472E-20         0.00000E+00
   -0.44223E-20        -0.30524E-20         0.00000E+00
   -0.57439E-20        -0.38865E-20         0.00000E+00
   -0.56623E-20        -0.28007E-20         0.00000E+00
   -0.69537E-20        -0.56947E-21         0.00000E+00
   -0.67544E-20        -0.72435E-21         0.00000E+00
   -0.47151E-20        -0.50520E-21         0.00000E+00
   -0.43457E-20         0.17777E-23         0.00000E+00
   -0.46853E-20         0.44359E-21         0.00000E+00
   -0.44155E-20         0.45617E-21         0.00000E+00
   -0.43490E-20         0.41118E-21         0.00000E+00
    0.00000E+00        -0.18513E-19         0.00000E+00
    0.75478E-21        -0.18294E-19         0.00000E+00
   -0.19069E-22        -0.18788E-19         0.00000E+00
   -0.34536E-21        -0.18370E-19         0.00000E+00
   -0.40297E-21        -0.16013E-19         0.00000E+00
   -0.11852E-20        -0.14230E-19         0.00000E+00
   -0.18063E-20        -0.14283E-19         0.00000E+00
   -0.24187E-20        -0.14440E-19         0.00000E+00
   -0.19224E-20        -0.15915E-19         0.00000E+00
   -0.31678E-20        -0.15996E-19         0.00000E+00
   -0.22899E-20        -0.11947E-19         0.00000E+00
   -0.32937E-21        -0.12256E-19         0.00000E+00
   -0.19957E-20        -0.13786E-19         0.00000E+00
   -0.43352E-20        -0.91089E-20         0.00000E+00
   -0.52769E-20        -0.43146E-20         0.00000E+00
   -0.44054E-20        -0.28017E-20         0.00000E+00
   -0.39014E-20        -0.27508E-20         0.00000E+00
   -0.62441E-20        -0.16068E-20         0.00000E+00
   -0.56709E-20        -0.79802E-21         0.00000E+00
   -0.57326E-20        -0.16541E-20         0.00000E+00
   -0.52117E-20        -0.10217E-20         0.00000E+00
   -0.50921E-20         0.30815E-22         0.00000E+00
   -0.48637E-20         0.92721E-22         0.00000E+00
   -0.46789E-20         0.19575E-22         0.00000E+00
   -0.44761E-20         0.14985E-21         0.00000E+00
    0.00000E+00        -0.19114E-19         0.00000E+00
    0.43355E-21        -0.18501E-19         0.00000E+00
    0.53204E-21        -0.18132E-19         0.00000E+00
   -0.41003E-21        -0.17522E-19         0.00000E+00
   -0.67915E-21        -0.15483E-19         0.00000E+00
   -0.96311E-21        -0.14335E-19         0.00000E+00
   -0.93779E-21        -0.14351E-19         0.00000E+00
   -0.16608E-20        -0.14666E-19         0.00000E+00
   -0.22746E-20        -0.14579E-19         0.00000E+00
   -0.42434E-20        -0.14176E-19         0.00000E+00
   -0.49437E-20        -0.13832E-19         0.00000E+00
   -0.36360E-20        -0.12157E-19         0.00000E+00
   -0.59704E-20        -0.10391E-19         0.00000E+00
   -0.83658E-20        -0.81653E-20         0.00000E+00
   -0.73571E-20        -0.58770E-20         0.00000E+00
   -0.54633E-20        -0.44279E-20         0.00000E+00
   -0.46293E-20        -0.20478E-20         0.00000E+00
   -0.50103E-20        -0.10312E-20         0.00000E+00
   -0.46760E-20        -0.10810E-20         0.00000E+00
   -0.48179E-20        -0.11835E-20         0.00000E+00
   -0.47333E-20        -0.11457E-20         0.00000E+00
   -0.43406E-20        -0.34623E-21         0.00000E+00
   -0.43887E-20         0.30379E-22         0.00000E+00
   -0.46323E-20         0.68574E-22         0.00000E+00
   -0.45875E-20         0.55504E-23         0.00000E+00
   -0.34427E-34        -0.19380E-19         0.00000E+00
   -0.17206E-21        -0.18826E-19         0.00000E+00
    0.25118E-21        -0.17945E-19         0.00000E+00
    0.48068E-22        -0.17159E-19         0.00000E+00
   -0.66841E-21        -0.15460E-19         0.00000E+00
   -0.28275E-21        -0.13972E-19         0.00000E+00
   -0.17239E-20        -0.13586E-19         0.00000E+00
   -0.24080E-20        -0.13103E-19         0.00000E+00
   -0.38463E-20        -0.13332E-19         0.00000E+00
   -0.44080E-20        -0.13327E-19         0.00000E+00
   -0.55864E-20        -0.12555E-19         0.00000E+00
   -0.74485E-20        -0.11229E-19         0.00000E+00
   -0.82760E-20        -0.90561E-20         0.00000E+00
   -0.91656E-20        -0.77222E-20         0.00000E+00
   -0.85128E-20        -0.72172E-20         0.00000E+00
   -0.79548E-20        -0.55296E-20         0.00000E+00
   -0.67293E-20        -0.32038E-20         0.00000E+00
   -0.54088E-20        -0.15600E-20         0.00000E+00
   -0.47736E-20        -0.99040E-21         0.00000E+00
   -0.45237E-20        -0.15969E-20         0.00000E+00
   -0.48344E-20        -0.14990E-20         0.00000E+00
   -0.46535E-20        -0.31380E-21         0.00000E+00
   -0.47553E-20         0.38442E-21         0.00000E+00
   -0.47267E-20         0.21842E-21         0.00000E+00
   -0.47061E-20         0.60316E-22         0.00000E+00
   -0.47575E-48        -0.18770E-19         0.00000E+00
   -0.10898E-20        -0.18753E-19         0.00000E+00
   -0.28444E-21        -0.18352E-19         0.00000E+00
   -0.74795E-21        -0.16602E-19         0.00000E+00
   -0.19848E-20        -0.15152E-19         0.00000E+00
   -0.24052E-20        -0.13279E-19         0.00000E+00
   -0.36098E-20        -0.12225E-19         0.00000E+00
   -0.37797E-20        -0.12544E-19         0.00000E+00
   -0.43887E-20        -0.12579E-19         0.00000E+00
   -0.53437E-20        -0.12436E-19         0.00000E+00
   -0.56711E-20        -0.10791E-19         0.00000E+00
   -0.75078E-20        -0.94671E-20         0.00000E+00
   -0.82954E-20        -0.86734E-20         0.00000E+00
   -0.85130E-20        -0.79284E-20         0.00000E+00
   -0.86227E-20        -0.70879E-20         0.00000E+00
   -0.87478E-20        -0.62114E-20         0.00000E+00
   -0.77712E-20        -0.45938E-20         0.00000E+00
   -0.60984E-20        -0.29869E-20         0.00000E+00
   -0.46614E-20        -0.19661E-20         0.00000E+00
   -0.45766E-20        -0.11227E-20         0.00000E+00
   -0.52589E-20        -0.10158E-20         0.00000E+00
   -0.55397E-20        -0.42536E-21         0.00000E+00
   -0.51330E-20         0.10355E-21         0.00000E+00
   -0.48054E-20         0.19354E-22         0.00000E+00
   -0.46781E-20        -0.35688E-22         0.00000E+00
    0.30555E-34        -0.17201E-19         0.00000E+00
   -0.84049E-21        -0.18541E-19         0.00000E+00
   -0.97277E-21        -0.18287E-19         0.00000E+00
   -0.24866E-20        -0.15459E-19         0.00000E+00
   -0.33864E-20        -0.13803E-19         0.00000E+00
   -0.49415E-20        -0.12347E-19         0.00000E+00
   -0.44483E-20        -0.12211E-19         0.00000E+00
   -0.44276E-20        -0.12324E-19         0.00000E+00
   -0.49239E-20        -0.11768E-19         0.00000E+00
   -0.52697E-20        -0.12044E-19         0.00000E+00
   -0.47553E-20        -0.10391E-19         0.00000E+00
   -0.53069E-20        -0.86046E-20         0.00000E+00
   -0.63647E-20        -0.80508E-20         0.00000E+00
   -0.66576E-20        -0.73949E-20         0.00000E+00
   -0.71009E-20        -0.69824E-20         0.00000E+00
   -0.72250E-20        -0.63811E-20         0.00000E+00
   -0.67143E-20        -0.58532E-20         0.00000E+00
   -0.56516E-20        -0.46697E-20         0.00000E+00
   -0.57711E-20        -0.25121E-20         0.00000E+00
   -0.52279E-20        -0.99940E-21         0.00000E+00
   -0.51798E-20        -0.53590E-21         0.00000E+00
   -0.51598E-20        -0.43975E-21         0.00000E+00
   -0.47334E-20        -0.34993E-21         0.00000E+00
   -0.45291E-20        -0.23647E-21         0.00000E+00
   -0.44835E-20        -0.19432E-21         0.00000E+00
    0.00000E+00        -0.17089E-19         0.00000E+00
   -0.49343E-21        -0.17780E-19         0.00000E+00
   -0.19948E-20        -0.16706E-19         0.00000E+00
   -0.27925E-20        -0.14188E-19         0.00000E+00
   -0.37906E-20        -0.12697E-19         0.00000E+00
   -0.45406E-20        -0.12217E-19         0.00000E+00
   -0.37176E-20        -0.12739E-19         0.00000E+00
   -0.41244E-20        -0.12068E-19         0.00000E+00
   -0.39497E-20        -0.11737E-19         0.00000E+00
   -0.39371E-20        -0.12604E-19         0.00000E+00
   -0.43434E-20        -0.10754E-19         0.00000E+00
   -0.42965E-20        -0.78577E-20         0.00000E+00
   -0.48790E-20        -0.73227E-20         0.00000E+00
   -0.49250E-20        -0.71922E-20         0.00000E+00
   -0.51403E-20        -0.65205E-20         0.00000E+00
   -0.54580E-20        -0.65980E-20         0.00000E+00
   -0.50750E-20        -0.61672E-20         0.00000E+00
   -0.60235E-20        -0.39302E-20         0.00000E+00
   -0.64364E-20        -0.23898E-20         0.00000E+00
   -0.60481E-20        -0.17139E-20         0.00000E+00
   -0.54534E-20        -0.10840E-20         0.00000E+00
   -0.46262E-20        -0.87176E-21         0.00000E+00
   -0.44454E-20        -0.52711E-21         0.00000E+00
   -0.43357E-20        -0.23056E-21         0.00000E+00
   -0.43894E-20        -0.12688E-21         0.00000E+00
    0.00000E+00        -0.16214E-19         0.00000E+00
   -0.10264E-20        -0.16547E-19         0.00000E+00
   -0.22092E-20        -0.15988E-19         0.00000E+00
   -0.23607E-20        -0.13663E-19         0.00000E+00
   -0.26947E-20        -0.12055E-19         0.00000E+00
   -0.30541E-20        -0.12420E-19         0.00000E+00
   -0.35463E-20        -0.12627E-19         0.00000E+00
   -0.36548E-20        -0.12092E-19         0.00000E+00
   -0.28816E-20        -0.11955E-19         0.00000E+00
   -0.35433E-20        -0.11651E-19         0.00000E+00
   -0.51851E-20        -0.10031E-19         0.00000E+00
   -0.52831E-20        -0.80690E-20         0.00000E+00
   -0.51005E-20        -0.74223E-20         0.00000E+00
   -0.50815E-20        -0.71336E-20         0.00000E+00
   -0.50841E-20        -0.64495E-20         0.00000E+00
   -0.50929E-20        -0.64464E-20         0.00000E+00
   -0.59748E-20        -0.52877E-20         0.00000E+00
   -0.62982E-20        -0.33083E-20         0.00000E+00
   -0.59014E-20        -0.24876E-20         0.00000E+00
   -0.58229E-20        -0.19824E-20         0.00000E+00
   -0.53006E-20        -0.19577E-20         0.00000E+00
   -0.49255E-20        -0.14478E-20         0.00000E+00
   -0.46627E-20        -0.64051E-21         0.00000E+00
   -0.44222E-20        -0.29249E-21         0.00000E+00
   -0.43673E-20        -0.86882E-22         0.00000E+00
    0.00000E+00        -0.15036E-19         0.00000E+00
   -0.15265E-20        -0.15571E-19         0.00000E+00
   -0.27711E-20        -0.15372E-19         0.00000E+00
   -0.30845E-20        -0.13703E-19         0.00000E+00
   -0.24697E-20        -0.12004E-19         0.00000E+00
   -0.21720E-20        -0.11366E-19         0.00000E+00
   -0.27001E-20        -0.12139E-19         0.00000E+00
   -0.32731E-20        -0.12733E-19         0.00000E+00
   -0.35303E-20        -0.11848E-19         0.00000E+00
   -0.41352E-20        -0.10301E-19         0.00000E+00
   -0.49869E-20        -0.90144E-20         0.00000E+00
   -0.52614E-20        -0.79424E-20         0.00000E+00
   -0.51666E-20        -0.75242E-20         0.00000E+00
   -0.47954E-20        -0.72086E-20         0.00000E+00
   -0.48411E-20        -0.65092E-20         0.00000E+00
   -0.52386E-20        -0.57073E-20         0.00000E+00
   -0.61133E-20        -0.49619E-20         0.00000E+00
   -0.55664E-20        -0.40035E-20         0.00000E+00
   -0.52452E-20        -0.28651E-20         0.00000E+00
   -0.49495E-20        -0.23148E-20         0.00000E+00
   -0.46811E-20        -0.19814E-20         0.00000E+00
   -0.49207E-20        -0.15097E-20         0.00000E+00
   -0.45035E-20        -0.10304E-20         0.00000E+00
   -0.42765E-20        -0.52589E-21         0.00000E+00
   -0.42286E-20        -0.23652E-21         0.00000E+00
    0.00000E+00        -0.13161E-19         0.00000E+00
   -0.14768E-20        -0.13775E-19         0.00000E+00
   -0.33303E-20        -0.14430E-19         0.00000E+00
   -0.33899E-20        -0.13964E-19         0.00000E+00
   -0.30894E-20        -0.12967E-19         0.00000E+00
   -0.21522E-20        -0.12189E-19         0.00000E+00
   -0.17171E-20        -0.11526E-19         0.00000E+00
   -0.32665E-20        -0.11262E-19         0.00000E+00
   -0.43427E-20        -0.11093E-19         0.00000E+00
   -0.44618E-20        -0.10194E-19         0.00000E+00
   -0.45595E-20        -0.89051E-20         0.00000E+00
   -0.45548E-20        -0.78893E-20         0.00000E+00
   -0.43217E-20        -0.78884E-20         0.00000E+00
   -0.42749E-20        -0.74591E-20         0.00000E+00
   -0.42630E-20        -0.60062E-20         0.00000E+00
   -0.46181E-20        -0.51741E-20         0.00000E+00
   -0.44666E-20        -0.49598E-20         0.00000E+00
   -0.45575E-20        -0.41765E-20         0.00000E+00
   -0.45731E-20        -0.31045E-20         0.00000E+00
   -0.44047E-20        -0.25465E-20         0.00000E+00
   -0.43362E-20        -0.19865E-20         0.00000E+00
   -0.42539E-20        -0.16254E-20         0.00000E+00
   -0.40615E-20        -0.12847E-20         0.00000E+00
   -0.39962E-20        -0.56731E-21         0.00000E+00
   -0.40023E-20        -0.18268E-21         0.00000E+00
    0.00000E+00        -0.12083E-19         0.00000E+00
   -0.38522E-21        -0.12240E-19         0.00000E+00
   -0.14702E-20        -0.13459E-19         0.00000E+00
   -0.23442E-20        -0.13944E-19         0.00000E+00
   -0.25277E-20        -0.13241E-19         0.00000E+00
   -0.20938E-20        -0.12738E-19         0.00000E+00
   -0.25175E-20        -0.11024E-19         0.00000E+00
   -0.30949E-20        -0.10107E-19         0.00000E+00
   -0.33808E-20        -0.10653E-19         0.00000E+00
   -0.39343E-20        -0.10084E-19         0.00000E+00
   -0.41070E-20        -0.89215E-20         0.00000E+00
   -0.38948E-20        -0.81802E-20         0.00000E+00
   -0.37255E-20        -0.78041E-20         0.00000E+00
   -0.43254E-20        -0.72673E-20         0.00000E+00
   -0.43654E-20        -0.61660E-20         0.00000E+00
   -0.39813E-20        -0.55037E-20         0.00000E+00
   -0.37439E-20        -0.50225E-20         0.00000E+00
   -0.39349E-20        -0.38970E-20         0.00000E+00
   -0.39554E-20        -0.30178E-20         0.00000E+00
   -0.38693E-20        -0.25517E-20         0.00000E+00
   -0.38829E-20        -0.21323E-20         0.00000E+00
   -0.35733E-20        -0.17844E-20         0.00000E+00
   -0.36728E-20        -0.12881E-20         0.00000E+00
   -0.36857E-20        -0.58505E-21         0.00000E+00
   -0.36021E-20        -0.22419E-21         0.00000E+00
    0.00000E+00        -0.12390E-19         0.00000E+00
    0.91100E-22        -0.12305E-19         0.00000E+00
    0.44282E-21        -0.12471E-19         0.00000E+00
   -0.33724E-21        -0.12907E-19         0.00000E+00
   -0.12818E-20        -0.13218E-19         0.00000E+00
   -0.15006E-20        -0.12199E-19         0.00000E+00
   -0.22569E-20        -0.10525E-19         0.00000E+00
   -0.22218E-20        -0.10399E-19         0.00000E+00
   -0.24401E-20        -0.10254E-19         0.00000E+00
   -0.28515E-20        -0.94679E-20         0.00000E+00
   -0.29933E-20        -0.89445E-20         0.00000E+00
   -0.32445E-20        -0.82708E-20         0.00000E+00
   -0.31423E-20        -0.74578E-20         0.00000E+00
   -0.34215E-20        -0.68192E-20         0.00000E+00
   -0.35035E-20        -0.63503E-20         0.00000E+00
   -0.31940E-20        -0.57956E-20         0.00000E+00
   -0.34266E-20        -0.50062E-20         0.00000E+00
   -0.34724E-20        -0.39650E-20         0.00000E+00
   -0.31848E-20        -0.31702E-20         0.00000E+00
   -0.31537E-20        -0.26190E-20         0.00000E+00
   -0.31102E-20        -0.22825E-20         0.00000E+00
   -0.30034E-20        -0.18355E-20         0.00000E+00
   -0.30025E-20        -0.11723E-20         0.00000E+00
   -0.30338E-20        -0.63796E-21         0.00000E+00
   -0.30092E-20        -0.34984E-21         0.00000E+00
    0.00000E+00        -0.12265E-19         0.00000E+00
    0.39838E-21        -0.12683E-19         0.00000E+00
    0.27992E-22        -0.13030E-19         0.00000E+00
    0.15956E-21        -0.12219E-19         0.00000E+00
   -0.27608E-21        -0.12078E-19         0.00000E+00
   -0.13617E-20        -0.11763E-19         0.00000E+00
   -0.11475E-20        -0.10303E-19         0.00000E+00
   -0.14113E-20        -0.99243E-20         0.00000E+00
   -0.23056E-20        -0.10023E-19         0.00000E+00
   -0.21845E-20        -0.95306E-20         0.00000E+00
   -0.21223E-20        -0.85285E-20         0.00000E+00
   -0.23177E-20        -0.80312E-20         0.00000E+00
   -0.25458E-20        -0.76271E-20         0.00000E+00
   -0.24420E-20        -0.69061E-20         0.00000E+00
   -0.22953E-20        -0.63935E-20         0.00000E+00
   -0.24040E-20        -0.55807E-20         0.00000E+00
   -0.27989E-20        -0.47440E-20         0.00000E+00
   -0.27842E-20        -0.41388E-20         0.00000E+00
   -0.25255E-20        -0.33366E-20         0.00000E+00
   -0.25112E-20        -0.26263E-20         0.00000E+00
   -0.23361E-20        -0.22826E-20         0.00000E+00
   -0.23714E-20        -0.18921E-20         0.00000E+00
   -0.23103E-20        -0.12577E-20         0.00000E+00
   -0.23097E-20        -0.57834E-21         0.00000E+00
   -0.23433E-20        -0.27337E-21         0.00000E+00
    0.00000E+00        -0.13187E-19         0.00000E+00
    0.32946E-21        -0.12333E-19         0.00000E+00
   -0.30876E-21        -0.12232E-19         0.00000E+00
   -0.52450E-21        -0.12603E-19         0.00000E+00
    0.21010E-21        -0.11696E-19         0.00000E+00
   -0.90498E-21        -0.11328E-19         0.00000E+00
   -0.12955E-20        -0.10475E-19         0.00000E+00
   -0.96496E-21        -0.92408E-20         0.00000E+00
   -0.16849E-20        -0.94807E-20         0.00000E+00
   -0.21290E-20        -0.96512E-20         0.00000E+00
   -0.17244E-20        -0.88113E-20         0.00000E+00
   -0.15706E-20        -0.78473E-20         0.00000E+00
   -0.18479E-20        -0.73335E-20         0.00000E+00
   -0.17219E-20        -0.70697E-20         0.00000E+00
   -0.17773E-20        -0.63883E-20         0.00000E+00
   -0.20349E-20        -0.52920E-20         0.00000E+00
   -0.20684E-20        -0.46260E-20         0.00000E+00
   -0.21456E-20        -0.42384E-20         0.00000E+00
   -0.21108E-20        -0.34432E-20         0.00000E+00
   -0.18908E-20        -0.28084E-20         0.00000E+00
   -0.17965E-20        -0.24223E-20         0.00000E+00
   -0.17427E-20        -0.18614E-20         0.00000E+00
   -0.17411E-20        -0.12340E-20         0.00000E+00
   -0.17086E-20        -0.60493E-21         0.00000E+00
   -0.16929E-20        -0.28271E-21         0.00000E+00
    0.00000E+00        -0.12924E-19         0.00000E+00
   -0.41426E-21        -0.12374E-19         0.00000E+00
    0.10711E-21        -0.12176E-19         0.00000E+00
   -0.34043E-21        -0.12738E-19         0.00000E+00
    0.90651E-22        -0.11698E-19         0.00000E+00
   -0.40685E-21        -0.10257E-19         0.00000E+00
   -0.15737E-20        -0.10243E-19         0.00000E+00
   -0.10330E-20        -0.95349E-20         0.00000E+00
   -0.11612E-20        -0.88591E-20         0.00000E+00
   -0.15773E-20        -0.94910E-20         0.00000E+00
   -0.14240E-20        -0.90869E-20         0.00000E+00
   -0.14035E-20        -0.79077E-20         0.00000E+00
   -0.11917E-20        -0.74759E-20         0.00000E+00
   -0.10478E-20        -0.69767E-20         0.00000E+00
   -0.12451E-20        -0.60805E-20         0.00000E+00
   -0.14020E-20        -0.52896E-20         0.00000E+00
   -0.11162E-20        -0.46333E-20         0.00000E+00
   -0.12241E-20        -0.40963E-20         0.00000E+00
   -0.13634E-20        -0.35914E-20         0.00000E+00
   -0.11589E-20        -0.29406E-20         0.00000E+00
   -0.11724E-20        -0.24307E-20         0.00000E+00
   -0.12000E-20        -0.19475E-20         0.00000E+00
   -0.11793E-20        -0.12918E-20         0.00000E+00
   -0.11464E-20        -0.62650E-21         0.00000E+00
   -0.11227E-20        -0.30474E-21         0.00000E+00
    0.00000E+00        -0.12359E-19         0.00000E+00
   -0.45069E-21        -0.12440E-19         0.00000E+00
    0.75358E-22        -0.12306E-19         0.00000E+00
   -0.11212E-21        -0.12586E-19         0.00000E+00
   -0.10495E-21        -0.11630E-19         0.00000E+00
   -0.40196E-21        -0.96636E-20         0.00000E+00
   -0.92672E-21        -0.98493E-20         0.00000E+00
   -0.89450E-21        -0.96533E-20         0.00000E+00
   -0.79709E-21        -0.89365E-20         0.00000E+00
   -0.82315E-21        -0.93885E-20         0.00000E+00
   -0.10918E-20        -0.89851E-20         0.00000E+00
   -0.88328E-21        -0.80795E-20         0.00000E+00
   -0.69151E-21        -0.76892E-20         0.00000E+00
   -0.69514E-21        -0.70163E-20         0.00000E+00
   -0.60133E-21        -0.60341E-20         0.00000E+00
   -0.55473E-21        -0.54209E-20         0.00000E+00
   -0.49885E-21        -0.48039E-20         0.00000E+00
   -0.36741E-21        -0.39913E-20         0.00000E+00
   -0.51209E-21        -0.35084E-20         0.00000E+00
   -0.46247E-21        -0.29993E-20         0.00000E+00
   -0.42135E-21        -0.23812E-20         0.00000E+00
   -0.56333E-21        -0.18545E-20         0.00000E+00
   -0.60564E-21        -0.12876E-20         0.00000E+00
   -0.57259E-21        -0.66154E-21         0.00000E+00
   -0.57103E-21        -0.33026E-21         0.00000E+00
    0.00000E+00        -0.12023E-19         0.00000E+00
   -0.33614E-21        -0.12450E-19         0.00000E+00
    0.18863E-22        -0.12515E-19         0.00000E+00
    0.82430E-22        -0.12558E-19         0.00000E+00
   -0.37774E-22        -0.11408E-19         0.00000E+00
   -0.36208E-21        -0.94357E-20         0.00000E+00
   -0.49364E-21        -0.97505E-20         0.00000E+00
   -0.55969E-21        -0.96646E-20         0.00000E+00
   -0.47112E-21        -0.89305E-20         0.00000E+00
   -0.57178E-21        -0.91963E-20         0.00000E+00
   -0.85560E-21        -0.90268E-20         0.00000E+00
   -0.48834E-21        -0.83080E-20         0.00000E+00
   -0.39855E-21        -0.76640E-20         0.00000E+00
   -0.53868E-21        -0.70669E-20         0.00000E+00
   -0.29734E-21        -0.62209E-20         0.00000E+00
   -0.16510E-21        -0.53920E-20         0.00000E+00
   -0.35513E-21        -0.48206E-20         0.00000E+00
   -0.13165E-21        -0.40831E-20         0.00000E+00
   -0.17143E-21        -0.34963E-20         0.00000E+00
   -0.15574E-21        -0.30314E-20         0.00000E+00
   -0.10737E-21        -0.23298E-20         0.00000E+00
   -0.25849E-21        -0.17632E-20         0.00000E+00
   -0.29007E-21        -0.12826E-20         0.00000E+00
   -0.26853E-21        -0.66111E-21         0.00000E+00
   -0.29094E-21        -0.30786E-21         0.00000E+00
CELL_DATA       1152
TENSORS stressef double 
   -0.69268E+05         0.61812E+03         0.00000E+00
    0.61812E+03        -0.99344E+05         0.00000E+00
    0.00000E+00         0.00000E+00        -0.50584E+05
 
   -0.36011E+05         0.35672E+04         0.00000E+00
    0.35672E+04        -0.95065E+05         0.00000E+00
    0.00000E+00         0.00000E+00        -0.39323E+05
 
   -0.16312E+05         0.53464E+04         0.00000E+00
    0.53464E+04        -0.85331E+05         0.00000E+00
    0.00000E+00         0.00000E+00        -0.30493E+05
 
   -0.65784E+04         0.51471E+04         0.00000E+00
    0.51471E+04        -0.74779E+05         0.00000E+00
    0.00000E+00         0.00000E+00        -0.24407E+05
 
   -0.17946E+04         0.43655E+04         0.00000E+00
    0.43655E+04        -0.65457E+05         0.00000E+00
    0.00000E+00         0.00000E+00        -0.20176E+05
 
    0.59132E+03         0.35678E+04         0.00000E+00
    0.35678E+04        -0.57722E+05         0.00000E+00
    0.00000E+00         0.00000E+00        -0.17139E+05
 
    0.17586E+04         0.28931E+04         0.00000E+00
    0.28931E+04        -0.51418E+05         0.00000E+00
    0.00000E+00         0.00000E+00        -0.14898E+05
 
    0.22749E+04         0.23539E+04         0.00000E+00
    0.23539E+04        -0.46287E+05         0.00000E+00
    0.00000E+00         0.00000E+00        -0.13204E+05
 
    0.24247E+04         0.19294E+04         0.00000E+00
    0.19294E+04        -0.42086E+05         0.00000E+00
    0.00000E+00         0.00000E+00        -0.11899E+05
 
    0.23569E+04         0.15951E+04         0.00000E+00
    0.15951E+04        -0.38622E+05         0.00000E+00
    0.00000E+00         0.00000E+00        -0.10879E+05
 
    0.21519E+04         0.13299E+04         0.00000E+00
    0.13299E+04        -0.35741E+05         0.00000E+00
    0.00000E+00         0.00000E+00        -0.10077E+05
 
    0.18536E+04         0.11176E+04         0.00000E+00
    0.11176E+04        -0.33326E+05         0.00000E+00
    0.00000E+00         0.00000E+00        -0.94416E+04
 
    0.14857E+04         0.94618E+03         0.00000E+00
    0.94618E+03        -0.31286E+05         0.00000E+00
    0.00000E+00         0.00000E+00        -0.89401E+04
 
    0.10595E+04         0.80664E+03         0.00000E+00
    0.80664E+03        -0.29552E+05         0.00000E+00
    0.00000E+00         0.00000E+00        -0.85476E+04
 
    0.57902E+03         0.69240E+03         0.00000E+00
    0.69240E+03        -0.28067E+05         0.00000E+00
    0.00000E+00         0.00000E+00        -0.82463E+04
 
    0.42690E+02         0.59865E+03         0.00000E+00
    0.59865E+03        -0.26787E+05         0.00000E+00
    0.00000E+00         0.00000E+00        -0.80232E+04
 
   -0.55501E+03         0.52194E+03         0.00000E+00
    0.52194E+03        -0.25675E+05         0.00000E+00
    0.00000E+00         0.00000E+00        -0.78690E+04
 
   -0.12232E+04         0.45980E+03         0.00000E+00
    0.45980E+03        -0.24700E+05         0.00000E+00
    0.00000E+00         0.00000E+00        -0.77770E+04
 
   -0.19745E+04         0.41065E+03         0.00000E+00
    0.41065E+03        -0.23836E+05         0.00000E+00
    0.00000E+00         0.00000E+00        -0.77430E+04
 
   -0.28255E+04         0.37360E+03         0.00000E+00
    0.37360E+03        -0.23056E+05         0.00000E+00
    0.00000E+00         0.00000E+00        -0.77645E+04
 
   -0.37968E+04         0.34843E+03         0.00000E+00
    0.34843E+03        -0.22338E+05         0.00000E+00
    0.00000E+00         0.00000E+00        -0.78406E+04
 
   -0.49148E+04         0.33562E+03         0.00000E+00
    0.33562E+03        -0.21658E+05         0.00000E+00
    0.00000E+00         0.00000E+00        -0.79719E+04
 
   -0.62125E+04         0.33637E+03         0.00000E+00
    0.33637E+03        -0.20990E+05         0.00000E+00
    0.00000E+00         0.00000E+00        -0.81608E+04
 
   -0.77313E+04         0.35280E+03         0.00000E+00
    0.35280E+03        -0.20305E+05         0.00000E+00
    0.00000E+00         0.00000E+00        -0.84109E+04
 
   -0.64581E+05         0.30733E+04         0.00000E+00
    0.30733E+04        -0.99316E+05         0.00000E+00
    0.00000E+00         0.00000E+00        -0.49169E+05
 
   -0.30576E+05         0.13481E+05         0.00000E+00
    0.13481E+05        -0.87764E+05         0.00000E+00
    0.00000E+00         0.00000E+00        -0.35502E+05
 
   -0.15864E+05         0.15997E+05         0.00000E+00
    0.15997E+05        -0.76817E+05         0.00000E+00
    0.00000E+00         0.00000E+00        -0.27804E+05
 
   -0.79189E+04         0.14598E+05         0.00000E+00
    0.14598E+05        -0.67775E+05         0.00000E+00
    0.00000E+00         0.00000E+00        -0.22708E+05
 
   -0.33863E+04         0.12296E+05         0.00000E+00
    0.12296E+05        -0.60185E+05         0.00000E+00
    0.00000E+00         0.00000E+00        -0.19071E+05
 
   -0.82163E+03         0.10092E+05         0.00000E+00
    0.10092E+05        -0.53839E+05         0.00000E+00
    0.00000E+00         0.00000E+00        -0.16398E+05
 
    0.60624E+03         0.82403E+04         0.00000E+00
    0.82403E+04        -0.48548E+05         0.00000E+00
    0.00000E+00         0.00000E+00        -0.14383E+05
 
    0.13593E+04         0.67507E+04         0.00000E+00
    0.67507E+04        -0.44137E+05         0.00000E+00
    0.00000E+00         0.00000E+00        -0.12833E+05
 
    0.17006E+04         0.55668E+04         0.00000E+00
    0.55668E+04        -0.40449E+05         0.00000E+00
    0.00000E+00         0.00000E+00        -0.11625E+05
 
    0.17820E+04         0.46256E+04         0.00000E+00
    0.46256E+04        -0.37352E+05         0.00000E+00
    0.00000E+00         0.00000E+00        -0.10671E+05
 
    0.16919E+04         0.38730E+04         0.00000E+00
    0.38730E+04        -0.34739E+05         0.00000E+00
    0.00000E+00         0.00000E+00        -0.99140E+04
 
    0.14824E+04         0.32663E+04         0.00000E+00
    0.32663E+04        -0.32521E+05         0.00000E+00
    0.00000E+00         0.00000E+00        -0.93115E+04
 
    0.11837E+04         0.27735E+04         0.00000E+00
    0.27735E+04        -0.30629E+05         0.00000E+00
    0.00000E+00         0.00000E+00        -0.88336E+04
 
    0.81227E+03         0.23704E+04         0.00000E+00
    0.23704E+04        -0.29007E+05         0.00000E+00
    0.00000E+00         0.00000E+00        -0.84583E+04
 
    0.37585E+03         0.20391E+04         0.00000E+00
    0.20391E+04        -0.27607E+05         0.00000E+00
    0.00000E+00         0.00000E+00        -0.81695E+04
 
   -0.12420E+03         0.17664E+04         0.00000E+00
    0.17664E+04        -0.26394E+05         0.00000E+00
    0.00000E+00         0.00000E+00        -0.79554E+04
 
   -0.69121E+03         0.15426E+04         0.00000E+00
    0.15426E+04        -0.25334E+05         0.00000E+00
    0.00000E+00         0.00000E+00        -0.78075E+04
 
   -0.13325E+04         0.13611E+04         0.00000E+00
    0.13611E+04        -0.24400E+05         0.00000E+00
    0.00000E+00         0.00000E+00        -0.77198E+04
 
   -0.20594E+04         0.12173E+04         0.00000E+00
    0.12173E+04        -0.23568E+05         0.00000E+00
    0.00000E+00         0.00000E+00        -0.76882E+04
 
   -0.28868E+04         0.11089E+04         0.00000E+00
    0.11089E+04        -0.22815E+05         0.00000E+00
    0.00000E+00         0.00000E+00        -0.77105E+04
 
   -0.38343E+04         0.10354E+04         0.00000E+00
    0.10354E+04        -0.22118E+05         0.00000E+00
    0.00000E+00         0.00000E+00        -0.77858E+04
 
   -0.49269E+04         0.99828E+03         0.00000E+00
    0.99828E+03        -0.21457E+05         0.00000E+00
    0.00000E+00         0.00000E+00        -0.79150E+04
 
   -0.61959E+04         0.10012E+04         0.00000E+00
    0.10012E+04        -0.20805E+05         0.00000E+00
    0.00000E+00         0.00000E+00        -0.81002E+04
 
   -0.76807E+04         0.10503E+04         0.00000E+00
    0.10503E+04        -0.20135E+05         0.00000E+00
    0.00000E+00         0.00000E+00        -0.83448E+04
 
   -0.48122E+05         0.17594E+05         0.00000E+00
    0.17594E+05        -0.74889E+05         0.00000E+00
    0.00000E+00         0.00000E+00        -0.36903E+05
 
   -0.26322E+05         0.25407E+05         0.00000E+00
    0.25407E+05        -0.65491E+05         0.00000E+00
    0.00000E+00         0.00000E+00        -0.27544E+05
 
   -0.17169E+05         0.24191E+05         0.00000E+00
    0.24191E+05        -0.59592E+05         0.00000E+00
    0.00000E+00         0.00000E+00        -0.23028E+05
 
   -0.10622E+05         0.21198E+05         0.00000E+00
    0.21198E+05        -0.54922E+05         0.00000E+00
    0.00000E+00         0.00000E+00        -0.19663E+05
 
   -0.61871E+04         0.17918E+05         0.00000E+00
    0.17918E+05        -0.50728E+05         0.00000E+00
    0.00000E+00         0.00000E+00        -0.17074E+05
 
   -0.32687E+04         0.14922E+05         0.00000E+00
    0.14922E+05        -0.46857E+05         0.00000E+00
    0.00000E+00         0.00000E+00        -0.15038E+05
 
   -0.14113E+04         0.12380E+05         0.00000E+00
    0.12380E+05        -0.43337E+05         0.00000E+00
    0.00000E+00         0.00000E+00        -0.13424E+05
 
   -0.26890E+03         0.10288E+05         0.00000E+00
    0.10288E+05        -0.40189E+05         0.00000E+00
    0.00000E+00         0.00000E+00        -0.12137E+05
 
    0.39331E+03         0.85882E+04         0.00000E+00
    0.85882E+04        -0.37409E+05         0.00000E+00
    0.00000E+00         0.00000E+00        -0.11105E+05
 
    0.72979E+03         0.72088E+04         0.00000E+00
    0.72088E+04        -0.34972E+05         0.00000E+00
    0.00000E+00         0.00000E+00        -0.10273E+05
 
    0.84026E+03         0.60866E+04         0.00000E+00
    0.60866E+04        -0.32844E+05         0.00000E+00
    0.00000E+00         0.00000E+00        -0.96011E+04
 
    0.78849E+03         0.51691E+04         0.00000E+00
    0.51691E+04        -0.30989E+05         0.00000E+00
    0.00000E+00         0.00000E+00        -0.90600E+04
 
    0.61470E+03         0.44149E+04         0.00000E+00
    0.44149E+04        -0.29370E+05         0.00000E+00
    0.00000E+00         0.00000E+00        -0.86267E+04
 
    0.34344E+03         0.37919E+04         0.00000E+00
    0.37919E+04        -0.27957E+05         0.00000E+00
    0.00000E+00         0.00000E+00        -0.82840E+04
 
   -0.11429E+02         0.32759E+04         0.00000E+00
    0.32759E+04        -0.26719E+05         0.00000E+00
    0.00000E+00         0.00000E+00        -0.80191E+04
 
   -0.44366E+03         0.28484E+04         0.00000E+00
    0.28484E+04        -0.25631E+05         0.00000E+00
    0.00000E+00         0.00000E+00        -0.78224E+04
 
   -0.95275E+03         0.24959E+04         0.00000E+00
    0.24959E+04        -0.24670E+05         0.00000E+00
    0.00000E+00         0.00000E+00        -0.76868E+04
 
   -0.15430E+04         0.22089E+04         0.00000E+00
    0.22089E+04        -0.23814E+05         0.00000E+00
    0.00000E+00         0.00000E+00        -0.76071E+04
 
   -0.22228E+04         0.19811E+04         0.00000E+00
    0.19811E+04        -0.23044E+05         0.00000E+00
    0.00000E+00         0.00000E+00        -0.75801E+04
 
   -0.30048E+04         0.18094E+04         0.00000E+00
    0.18094E+04        -0.22341E+05         0.00000E+00
    0.00000E+00         0.00000E+00        -0.76039E+04
 
   -0.39062E+04         0.16934E+04         0.00000E+00
    0.16934E+04        -0.21687E+05         0.00000E+00
    0.00000E+00         0.00000E+00        -0.76779E+04
 
   -0.49492E+04         0.16357E+04         0.00000E+00
    0.16357E+04        -0.21060E+05         0.00000E+00
    0.00000E+00         0.00000E+00        -0.78028E+04
 
   -0.61621E+04         0.16424E+04         0.00000E+00
    0.16424E+04        -0.20440E+05         0.00000E+00
    0.00000E+00         0.00000E+00        -0.79807E+04
 
   -0.75807E+04         0.17238E+04         0.00000E+00
    0.17238E+04        -0.19802E+05         0.00000E+00
    0.00000E+00         0.00000E+00        -0.82148E+04
 
   -0.22457E+05         0.17640E+05         0.00000E+00
    0.17640E+05        -0.25090E+05         0.00000E+00
    0.00000E+00         0.00000E+00        -0.14264E+05
 
   -0.25864E+05         0.25944E+05         0.00000E+00
    0.25944E+05        -0.33925E+05         0.00000E+00
    0.00000E+00         0.00000E+00        -0.17937E+05
 
   -0.19351E+05         0.25462E+05         0.00000E+00
    0.25462E+05        -0.37966E+05         0.00000E+00
    0.00000E+00         0.00000E+00        -0.17195E+05
 
   -0.13710E+05         0.23127E+05         0.00000E+00
    0.23127E+05        -0.39342E+05         0.00000E+00
    0.00000E+00         0.00000E+00        -0.15916E+05
 
   -0.92865E+04         0.20259E+05         0.00000E+00
    0.20259E+05        -0.39182E+05         0.00000E+00
    0.00000E+00         0.00000E+00        -0.14540E+05
 
   -0.60619E+04         0.17422E+05         0.00000E+00
    0.17422E+05        -0.38161E+05         0.00000E+00
    0.00000E+00         0.00000E+00        -0.13267E+05
 
   -0.38002E+04         0.14850E+05         0.00000E+00
    0.14850E+05        -0.36697E+05         0.00000E+00
    0.00000E+00         0.00000E+00        -0.12149E+05
 
   -0.22636E+04         0.12620E+05         0.00000E+00
    0.12620E+05        -0.35050E+05         0.00000E+00
    0.00000E+00         0.00000E+00        -0.11194E+05
 
   -0.12555E+04         0.10729E+05         0.00000E+00
    0.10729E+05        -0.33376E+05         0.00000E+00
    0.00000E+00         0.00000E+00        -0.10389E+05
 
   -0.62967E+03         0.91414E+04         0.00000E+00
    0.91414E+04        -0.31762E+05         0.00000E+00
    0.00000E+00         0.00000E+00        -0.97175E+04
 
   -0.28216E+03         0.78138E+04         0.00000E+00
    0.78138E+04        -0.30253E+05         0.00000E+00
    0.00000E+00         0.00000E+00        -0.91606E+04
 
   -0.14109E+03         0.67039E+04         0.00000E+00
    0.67039E+04        -0.28868E+05         0.00000E+00
    0.00000E+00         0.00000E+00        -0.87028E+04
 
   -0.15778E+03         0.57748E+04         0.00000E+00
    0.57748E+04        -0.27611E+05         0.00000E+00
    0.00000E+00         0.00000E+00        -0.83307E+04
 
   -0.30007E+03         0.49961E+04         0.00000E+00
    0.49961E+04        -0.26477E+05         0.00000E+00
    0.00000E+00         0.00000E+00        -0.80331E+04
 
   -0.54769E+03         0.43432E+04         0.00000E+00
    0.43432E+04        -0.25458E+05         0.00000E+00
    0.00000E+00         0.00000E+00        -0.78016E+04
 
   -0.88909E+03         0.37973E+04         0.00000E+00
    0.37973E+04        -0.24541E+05         0.00000E+00
    0.00000E+00         0.00000E+00        -0.76291E+04
 
   -0.13193E+04         0.33438E+04         0.00000E+00
    0.33438E+04        -0.23716E+05         0.00000E+00
    0.00000E+00         0.00000E+00        -0.75106E+04
 
   -0.18389E+04         0.29727E+04         0.00000E+00
    0.29727E+04        -0.22969E+05         0.00000E+00
    0.00000E+00         0.00000E+00        -0.74423E+04
 
   -0.24529E+04         0.26773E+04         0.00000E+00
    0.26773E+04        -0.22286E+05         0.00000E+00
    0.00000E+00         0.00000E+00        -0.74217E+04
 
   -0.31707E+04         0.24546E+04         0.00000E+00
    0.24546E+04        -0.21654E+05         0.00000E+00
    0.00000E+00         0.00000E+00        -0.74475E+04
 
   -0.40062E+04         0.23049E+04         0.00000E+00
    0.23049E+04        -0.21058E+05         0.00000E+00
    0.00000E+00         0.00000E+00        -0.75194E+04
 
   -0.49781E+04         0.22325E+04         0.00000E+00
    0.22325E+04        -0.20482E+05         0.00000E+00
    0.00000E+00         0.00000E+00        -0.76381E+04
 
   -0.61103E+04         0.22459E+04         0.00000E+00
    0.22459E+04        -0.19908E+05         0.00000E+00
    0.00000E+00         0.00000E+00        -0.78055E+04
 
   -0.74335E+04         0.23587E+04         0.00000E+00
    0.23587E+04        -0.19314E+05         0.00000E+00
    0.00000E+00         0.00000E+00        -0.80243E+04
 
   -0.54729E+04         0.32381E+04         0.00000E+00
    0.32381E+04        -0.64123E+03         0.00000E+00
    0.00000E+00         0.00000E+00        -0.18342E+04
 
   -0.20250E+05         0.15274E+05         0.00000E+00
    0.15274E+05        -0.11420E+05         0.00000E+00
    0.00000E+00         0.00000E+00        -0.95010E+04
 
   -0.19185E+05         0.20104E+05         0.00000E+00
    0.20104E+05        -0.19980E+05         0.00000E+00
    0.00000E+00         0.00000E+00        -0.11750E+05
 
   -0.15355E+05         0.20644E+05         0.00000E+00
    0.20644E+05        -0.25158E+05         0.00000E+00
    0.00000E+00         0.00000E+00        -0.12154E+05
 
   -0.11573E+05         0.19462E+05         0.00000E+00
    0.19462E+05        -0.27999E+05         0.00000E+00
    0.00000E+00         0.00000E+00        -0.11872E+05
 
   -0.84367E+04         0.17615E+05         0.00000E+00
    0.17615E+05        -0.29315E+05         0.00000E+00
    0.00000E+00         0.00000E+00        -0.11325E+05
 
   -0.60220E+04         0.15604E+05         0.00000E+00
    0.15604E+05        -0.29664E+05         0.00000E+00
    0.00000E+00         0.00000E+00        -0.10706E+05
 
   -0.42404E+04         0.13665E+05         0.00000E+00
    0.13665E+05        -0.29422E+05         0.00000E+00
    0.00000E+00         0.00000E+00        -0.10099E+05
 
   -0.29697E+04         0.11898E+05         0.00000E+00
    0.11898E+05        -0.28835E+05         0.00000E+00
    0.00000E+00         0.00000E+00        -0.95415E+04
 
   -0.20966E+04         0.10335E+05         0.00000E+00
    0.10335E+05        -0.28064E+05         0.00000E+00
    0.00000E+00         0.00000E+00        -0.90483E+04
 
   -0.15295E+04         0.89743E+04         0.00000E+00
    0.89743E+04        -0.27211E+05         0.00000E+00
    0.00000E+00         0.00000E+00        -0.86221E+04
 
   -0.11988E+04         0.78009E+04         0.00000E+00
    0.78009E+04        -0.26338E+05         0.00000E+00
    0.00000E+00         0.00000E+00        -0.82610E+04
 
   -0.10536E+04         0.67939E+04         0.00000E+00
    0.67939E+04        -0.25482E+05         0.00000E+00
    0.00000E+00         0.00000E+00        -0.79608E+04
 
   -0.10579E+04         0.59329E+04         0.00000E+00
    0.59329E+04        -0.24666E+05         0.00000E+00
    0.00000E+00         0.00000E+00        -0.77171E+04
 
   -0.11870E+04         0.51996E+04         0.00000E+00
    0.51996E+04        -0.23898E+05         0.00000E+00
    0.00000E+00         0.00000E+00        -0.75256E+04
 
   -0.14253E+04         0.45786E+04         0.00000E+00
    0.45786E+04        -0.23183E+05         0.00000E+00
    0.00000E+00         0.00000E+00        -0.73824E+04
 
   -0.17638E+04         0.40579E+04         0.00000E+00
    0.40579E+04        -0.22519E+05         0.00000E+00
    0.00000E+00         0.00000E+00        -0.72847E+04
 
   -0.21994E+04         0.36288E+04         0.00000E+00
    0.36288E+04        -0.21901E+05         0.00000E+00
    0.00000E+00         0.00000E+00        -0.72302E+04
 
   -0.27336E+04         0.32860E+04         0.00000E+00
    0.32860E+04        -0.21324E+05         0.00000E+00
    0.00000E+00         0.00000E+00        -0.72174E+04
 
   -0.33725E+04         0.30277E+04         0.00000E+00
    0.30277E+04        -0.20779E+05         0.00000E+00
    0.00000E+00         0.00000E+00        -0.72455E+04
 
   -0.41261E+04         0.28557E+04         0.00000E+00
    0.28557E+04        -0.20256E+05         0.00000E+00
    0.00000E+00         0.00000E+00        -0.73145E+04
 
   -0.50087E+04         0.27759E+04         0.00000E+00
    0.27759E+04        -0.19742E+05         0.00000E+00
    0.00000E+00         0.00000E+00        -0.74253E+04
 
   -0.60395E+04         0.27991E+04         0.00000E+00
    0.27991E+04        -0.19225E+05         0.00000E+00
    0.00000E+00         0.00000E+00        -0.75793E+04
 
   -0.72424E+04         0.29422E+04         0.00000E+00
    0.29422E+04        -0.18687E+05         0.00000E+00
    0.00000E+00         0.00000E+00        -0.77788E+04
 
    0.48349E+03         0.10065E+04         0.00000E+00
    0.10065E+04        -0.58769E+03         0.00000E+00
    0.00000E+00         0.00000E+00        -0.31258E+02
 
   -0.11757E+05         0.73085E+04         0.00000E+00
    0.73085E+04        -0.33812E+04         0.00000E+00
    0.00000E+00         0.00000E+00        -0.45414E+04
 
   -0.15764E+05         0.13257E+05         0.00000E+00
    0.13257E+05        -0.94797E+04         0.00000E+00
    0.00000E+00         0.00000E+00        -0.75730E+04
 
   -0.14785E+05         0.16060E+05         0.00000E+00
    0.16060E+05        -0.14942E+05         0.00000E+00
    0.00000E+00         0.00000E+00        -0.89181E+04
 
   -0.12401E+05         0.16680E+05         0.00000E+00
    0.16680E+05        -0.18915E+05         0.00000E+00
    0.00000E+00         0.00000E+00        -0.93948E+04
 
   -0.98842E+04         0.16111E+05         0.00000E+00
    0.16111E+05        -0.21533E+05         0.00000E+00
    0.00000E+00         0.00000E+00        -0.94250E+04
 
   -0.76752E+04         0.14962E+05         0.00000E+00
    0.14962E+05        -0.23107E+05         0.00000E+00
    0.00000E+00         0.00000E+00        -0.92346E+04
 
   -0.58872E+04         0.13584E+05         0.00000E+00
    0.13584E+05        -0.23933E+05         0.00000E+00
    0.00000E+00         0.00000E+00        -0.89461E+04
 
   -0.45086E+04         0.12167E+05         0.00000E+00
    0.12167E+05        -0.24245E+05         0.00000E+00
    0.00000E+00         0.00000E+00        -0.86261E+04
 
   -0.34866E+04         0.10813E+05         0.00000E+00
    0.10813E+05        -0.24215E+05         0.00000E+00
    0.00000E+00         0.00000E+00        -0.83105E+04
 
   -0.27606E+04         0.95666E+04         0.00000E+00
    0.95666E+04        -0.23966E+05         0.00000E+00
    0.00000E+00         0.00000E+00        -0.80180E+04
 
   -0.22764E+04         0.84456E+04         0.00000E+00
    0.84456E+04        -0.23584E+05         0.00000E+00
    0.00000E+00         0.00000E+00        -0.77581E+04
 
   -0.19894E+04         0.74521E+04         0.00000E+00
    0.74521E+04        -0.23126E+05         0.00000E+00
    0.00000E+00         0.00000E+00        -0.75347E+04
 
   -0.18654E+04         0.65809E+04         0.00000E+00
    0.65809E+04        -0.22632E+05         0.00000E+00
    0.00000E+00         0.00000E+00        -0.73492E+04
 
   -0.18791E+04         0.58239E+04         0.00000E+00
    0.58239E+04        -0.22126E+05         0.00000E+00
    0.00000E+00         0.00000E+00        -0.72014E+04
 
   -0.20128E+04         0.51728E+04         0.00000E+00
    0.51728E+04        -0.21623E+05         0.00000E+00
    0.00000E+00         0.00000E+00        -0.70906E+04
 
   -0.22551E+04         0.46204E+04         0.00000E+00
    0.46204E+04        -0.21131E+05         0.00000E+00
    0.00000E+00         0.00000E+00        -0.70160E+04
 
   -0.26002E+04         0.41615E+04         0.00000E+00
    0.41615E+04        -0.20656E+05         0.00000E+00
    0.00000E+00         0.00000E+00        -0.69767E+04
 
   -0.30464E+04         0.37935E+04         0.00000E+00
    0.37935E+04        -0.20195E+05         0.00000E+00
    0.00000E+00         0.00000E+00        -0.69724E+04
 
   -0.35962E+04         0.35166E+04         0.00000E+00
    0.35166E+04        -0.19746E+05         0.00000E+00
    0.00000E+00         0.00000E+00        -0.70028E+04
 
   -0.42560E+04         0.33346E+04         0.00000E+00
    0.33346E+04        -0.19305E+05         0.00000E+00
    0.00000E+00         0.00000E+00        -0.70683E+04
 
   -0.50356E+04         0.32555E+04         0.00000E+00
    0.32555E+04        -0.18863E+05         0.00000E+00
    0.00000E+00         0.00000E+00        -0.71695E+04
 
   -0.59484E+04         0.32921E+04         0.00000E+00
    0.32921E+04        -0.18411E+05         0.00000E+00
    0.00000E+00         0.00000E+00        -0.73079E+04
 
   -0.70118E+04         0.34638E+04         0.00000E+00
    0.34638E+04        -0.17938E+05         0.00000E+00
    0.00000E+00         0.00000E+00        -0.74850E+04
 
    0.32281E+04         0.38100E+03         0.00000E+00
    0.38100E+03        -0.78819E+02         0.00000E+00
    0.00000E+00         0.00000E+00         0.94478E+03
 
   -0.63738E+04         0.38495E+04         0.00000E+00
    0.38495E+04        -0.14772E+04         0.00000E+00
    0.00000E+00         0.00000E+00        -0.23553E+04
 
   -0.11415E+05         0.82619E+04         0.00000E+00
    0.82619E+04        -0.46528E+04         0.00000E+00
    0.00000E+00         0.00000E+00        -0.48203E+04
 
   -0.12696E+05         0.11567E+05         0.00000E+00
    0.11567E+05        -0.87216E+04         0.00000E+00
    0.00000E+00         0.00000E+00        -0.64252E+04
 
   -0.11889E+05         0.13263E+05         0.00000E+00
    0.13263E+05        -0.12441E+05         0.00000E+00
    0.00000E+00         0.00000E+00        -0.72991E+04
 
   -0.10311E+05         0.13734E+05         0.00000E+00
    0.13734E+05        -0.15390E+05         0.00000E+00
    0.00000E+00         0.00000E+00        -0.77103E+04
 
   -0.85983E+04         0.13429E+05         0.00000E+00
    0.13429E+05        -0.17543E+05         0.00000E+00
    0.00000E+00         0.00000E+00        -0.78425E+04
 
   -0.70324E+04         0.12684E+05         0.00000E+00
    0.12684E+05        -0.19016E+05         0.00000E+00
    0.00000E+00         0.00000E+00        -0.78145E+04
 
   -0.57149E+04         0.11723E+05         0.00000E+00
    0.11723E+05        -0.19953E+05         0.00000E+00
    0.00000E+00         0.00000E+00        -0.77004E+04
 
   -0.46640E+04         0.10685E+05         0.00000E+00
    0.10685E+05        -0.20490E+05         0.00000E+00
    0.00000E+00         0.00000E+00        -0.75462E+04
 
   -0.38626E+04         0.96526E+04         0.00000E+00
    0.96526E+04        -0.20736E+05         0.00000E+00
    0.00000E+00         0.00000E+00        -0.73796E+04
 
   -0.32815E+04         0.86711E+04         0.00000E+00
    0.86711E+04        -0.20777E+05         0.00000E+00
    0.00000E+00         0.00000E+00        -0.72177E+04
 
   -0.28904E+04         0.77649E+04         0.00000E+00
    0.77649E+04        -0.20677E+05         0.00000E+00
    0.00000E+00         0.00000E+00        -0.70703E+04
 
   -0.26624E+04         0.69449E+04         0.00000E+00
    0.69449E+04        -0.20482E+05         0.00000E+00
    0.00000E+00         0.00000E+00        -0.69433E+04
 
   -0.25754E+04         0.62150E+04         0.00000E+00
    0.62150E+04        -0.20225E+05         0.00000E+00
    0.00000E+00         0.00000E+00        -0.68402E+04
 
   -0.26126E+04         0.55754E+04         0.00000E+00
    0.55754E+04        -0.19930E+05         0.00000E+00
    0.00000E+00         0.00000E+00        -0.67627E+04
 
   -0.27622E+04         0.50252E+04         0.00000E+00
    0.50252E+04        -0.19611E+05         0.00000E+00
    0.00000E+00         0.00000E+00        -0.67120E+04
 
   -0.30164E+04         0.45640E+04         0.00000E+00
    0.45640E+04        -0.19279E+05         0.00000E+00
    0.00000E+00         0.00000E+00        -0.66885E+04
 
   -0.33715E+04         0.41926E+04         0.00000E+00
    0.41926E+04        -0.18938E+05         0.00000E+00
    0.00000E+00         0.00000E+00        -0.66928E+04
 
   -0.38270E+04         0.39142E+04         0.00000E+00
    0.39142E+04        -0.18590E+05         0.00000E+00
    0.00000E+00         0.00000E+00        -0.67252E+04
 
   -0.43857E+04         0.37347E+04         0.00000E+00
    0.37347E+04        -0.18236E+05         0.00000E+00
    0.00000E+00         0.00000E+00        -0.67864E+04
 
   -0.50528E+04         0.36643E+04         0.00000E+00
    0.36643E+04        -0.17870E+05         0.00000E+00
    0.00000E+00         0.00000E+00        -0.68770E+04
 
   -0.58363E+04         0.37176E+04         0.00000E+00
    0.37176E+04        -0.17490E+05         0.00000E+00
    0.00000E+00         0.00000E+00        -0.69979E+04
 
   -0.67464E+04         0.39159E+04         0.00000E+00
    0.39159E+04        -0.17088E+05         0.00000E+00
    0.00000E+00         0.00000E+00        -0.71503E+04
 
    0.45669E+04         0.14594E+03         0.00000E+00
    0.14594E+03        -0.52071E+02         0.00000E+00
    0.00000E+00         0.00000E+00         0.13545E+04
 
   -0.29309E+04         0.21453E+04         0.00000E+00
    0.21453E+04        -0.70813E+03         0.00000E+00
    0.00000E+00         0.00000E+00        -0.10917E+04
 
   -0.78677E+04         0.52211E+04         0.00000E+00
    0.52211E+04        -0.25444E+04         0.00000E+00
    0.00000E+00         0.00000E+00        -0.31236E+04
 
   -0.10168E+05         0.80895E+04         0.00000E+00
    0.80895E+04        -0.52415E+04         0.00000E+00
    0.00000E+00         0.00000E+00        -0.46230E+04
 
   -0.10582E+05         0.10099E+05         0.00000E+00
    0.10099E+05        -0.81899E+04         0.00000E+00
    0.00000E+00         0.00000E+00        -0.56315E+04
 
   -0.99391E+04         0.11170E+05         0.00000E+00
    0.11170E+05        -0.10892E+05         0.00000E+00
    0.00000E+00         0.00000E+00        -0.62492E+04
 
   -0.88464E+04         0.11495E+05         0.00000E+00
    0.11495E+05        -0.13134E+05         0.00000E+00
    0.00000E+00         0.00000E+00        -0.65941E+04
 
   -0.76499E+04         0.11305E+05         0.00000E+00
    0.11305E+05        -0.14878E+05         0.00000E+00
    0.00000E+00         0.00000E+00        -0.67584E+04
 
   -0.65270E+04         0.10795E+05         0.00000E+00
    0.10795E+05        -0.16168E+05         0.00000E+00
    0.00000E+00         0.00000E+00        -0.68086E+04
 
   -0.55561E+04         0.10106E+05         0.00000E+00
    0.10106E+05        -0.17078E+05         0.00000E+00
    0.00000E+00         0.00000E+00        -0.67902E+04
 
   -0.47634E+04         0.93341E+04         0.00000E+00
    0.93341E+04        -0.17684E+05         0.00000E+00
    0.00000E+00         0.00000E+00        -0.67342E+04
 
   -0.41482E+04         0.85438E+04         0.00000E+00
    0.85438E+04        -0.18055E+05         0.00000E+00
    0.00000E+00         0.00000E+00        -0.66611E+04
 
   -0.36987E+04         0.77747E+04         0.00000E+00
    0.77747E+04        -0.18249E+05         0.00000E+00
    0.00000E+00         0.00000E+00        -0.65844E+04
 
   -0.33992E+04         0.70514E+04         0.00000E+00
    0.70514E+04        -0.18311E+05         0.00000E+00
    0.00000E+00         0.00000E+00        -0.65131E+04
 
   -0.32341E+04         0.63885E+04         0.00000E+00
    0.63885E+04        -0.18276E+05         0.00000E+00
    0.00000E+00         0.00000E+00        -0.64530E+04
 
   -0.31899E+04         0.57950E+04         0.00000E+00
    0.57950E+04        -0.18170E+05         0.00000E+00
    0.00000E+00         0.00000E+00        -0.64080E+04
 
   -0.32561E+04         0.52763E+04         0.00000E+00
    0.52763E+04        -0.18013E+05         0.00000E+00
    0.00000E+00         0.00000E+00        -0.63806E+04
 
   -0.34246E+04         0.48372E+04         0.00000E+00
    0.48372E+04        -0.17817E+05         0.00000E+00
    0.00000E+00         0.00000E+00        -0.63726E+04
 
   -0.36904E+04         0.44824E+04         0.00000E+00
    0.44824E+04        -0.17593E+05         0.00000E+00
    0.00000E+00         0.00000E+00        -0.63850E+04
 
   -0.40507E+04         0.42181E+04         0.00000E+00
    0.42181E+04        -0.17346E+05         0.00000E+00
    0.00000E+00         0.00000E+00        -0.64190E+04
 
   -0.45051E+04         0.40527E+04         0.00000E+00
    0.40527E+04        -0.17079E+05         0.00000E+00
    0.00000E+00         0.00000E+00        -0.64751E+04
 
   -0.50549E+04         0.39983E+04         0.00000E+00
    0.39983E+04        -0.16792E+05         0.00000E+00
    0.00000E+00         0.00000E+00        -0.65541E+04
 
   -0.57026E+04         0.40712E+04         0.00000E+00
    0.40712E+04        -0.16486E+05         0.00000E+00
    0.00000E+00         0.00000E+00        -0.66565E+04
 
   -0.64517E+04         0.42934E+04         0.00000E+00
    0.42934E+04        -0.16158E+05         0.00000E+00
    0.00000E+00         0.00000E+00        -0.67828E+04
 
    0.52585E+04         0.27342E+02         0.00000E+00
    0.27342E+02        -0.24802E+02         0.00000E+00
    0.00000E+00         0.00000E+00         0.15701E+04
 
   -0.73847E+03         0.12238E+04         0.00000E+00
    0.12238E+04        -0.40043E+03         0.00000E+00
    0.00000E+00         0.00000E+00        -0.34167E+03
 
   -0.51908E+04         0.33417E+04         0.00000E+00
    0.33417E+04        -0.15001E+04         0.00000E+00
    0.00000E+00         0.00000E+00        -0.20073E+04
 
   -0.78533E+04         0.56212E+04         0.00000E+00
    0.56212E+04        -0.33012E+04         0.00000E+00
    0.00000E+00         0.00000E+00        -0.33463E+04
 
   -0.89950E+04         0.75193E+04         0.00000E+00
    0.75193E+04        -0.54927E+04         0.00000E+00
    0.00000E+00         0.00000E+00        -0.43463E+04
 
   -0.90935E+04         0.88149E+04         0.00000E+00
    0.88149E+04        -0.77363E+04         0.00000E+00
    0.00000E+00         0.00000E+00        -0.50489E+04
 
   -0.85924E+04         0.95157E+04         0.00000E+00
    0.95157E+04        -0.97929E+04         0.00000E+00
    0.00000E+00         0.00000E+00        -0.55156E+04
 
   -0.78144E+04         0.97335E+04         0.00000E+00
    0.97335E+04        -0.11548E+05         0.00000E+00
    0.00000E+00         0.00000E+00        -0.58086E+04
 
   -0.69613E+04         0.96006E+04         0.00000E+00
    0.96006E+04        -0.12971E+05         0.00000E+00
    0.00000E+00         0.00000E+00        -0.59796E+04
 
   -0.61478E+04         0.92343E+04         0.00000E+00
    0.92343E+04        -0.14079E+05         0.00000E+00
    0.00000E+00         0.00000E+00        -0.60681E+04
 
   -0.54322E+04         0.87268E+04         0.00000E+00
    0.87268E+04        -0.14912E+05         0.00000E+00
    0.00000E+00         0.00000E+00        -0.61034E+04
 
   -0.48398E+04         0.81458E+04         0.00000E+00
    0.81458E+04        -0.15515E+05         0.00000E+00
    0.00000E+00         0.00000E+00        -0.61064E+04
 
   -0.43769E+04         0.75393E+04         0.00000E+00
    0.75393E+04        -0.15930E+05         0.00000E+00
    0.00000E+00         0.00000E+00        -0.60921E+04
 
   -0.40404E+04         0.69405E+04         0.00000E+00
    0.69405E+04        -0.16196E+05         0.00000E+00
    0.00000E+00         0.00000E+00        -0.60709E+04
 
   -0.38232E+04         0.63723E+04         0.00000E+00
    0.63723E+04        -0.16345E+05         0.00000E+00
    0.00000E+00         0.00000E+00        -0.60503E+04
 
   -0.37166E+04         0.58502E+04         0.00000E+00
    0.58502E+04        -0.16401E+05         0.00000E+00
    0.00000E+00         0.00000E+00        -0.60354E+04
 
   -0.37127E+04         0.53860E+04         0.00000E+00
    0.53860E+04        -0.16386E+05         0.00000E+00
    0.00000E+00         0.00000E+00        -0.60297E+04
 
   -0.38045E+04         0.49888E+04         0.00000E+00
    0.49888E+04        -0.16315E+05         0.00000E+00
    0.00000E+00         0.00000E+00        -0.60360E+04
 
   -0.39865E+04         0.46672E+04         0.00000E+00
    0.46672E+04        -0.16199E+05         0.00000E+00
    0.00000E+00         0.00000E+00        -0.60558E+04
 
   -0.42546E+04         0.44303E+04         0.00000E+00
    0.44303E+04        -0.16047E+05         0.00000E+00
    0.00000E+00         0.00000E+00        -0.60905E+04
 
   -0.46056E+04         0.42890E+04         0.00000E+00
    0.42890E+04        -0.15865E+05         0.00000E+00
    0.00000E+00         0.00000E+00        -0.61410E+04
 
   -0.50373E+04         0.42568E+04         0.00000E+00
    0.42568E+04        -0.15655E+05         0.00000E+00
    0.00000E+00         0.00000E+00        -0.62078E+04
 
   -0.55475E+04         0.43511E+04         0.00000E+00
    0.43511E+04        -0.15423E+05         0.00000E+00
    0.00000E+00         0.00000E+00        -0.62911E+04
 
   -0.61335E+04         0.45944E+04         0.00000E+00
    0.45944E+04        -0.15170E+05         0.00000E+00
    0.00000E+00         0.00000E+00        -0.63910E+04
 
    0.55916E+04        -0.42965E+02         0.00000E+00
   -0.42965E+02        -0.16511E+02         0.00000E+00
    0.00000E+00         0.00000E+00         0.16725E+04
 
    0.68875E+03         0.67650E+03         0.00000E+00
    0.67650E+03        -0.24594E+03         0.00000E+00
    0.00000E+00         0.00000E+00         0.13285E+03
 
   -0.32320E+04         0.21408E+04         0.00000E+00
    0.21408E+04        -0.94805E+03         0.00000E+00
    0.00000E+00         0.00000E+00        -0.12540E+04
 
   -0.59202E+04         0.38902E+04         0.00000E+00
    0.38902E+04        -0.21706E+04         0.00000E+00
    0.00000E+00         0.00000E+00        -0.24272E+04
 
   -0.74420E+04         0.55283E+04         0.00000E+00
    0.55283E+04        -0.37781E+04         0.00000E+00
    0.00000E+00         0.00000E+00        -0.33660E+04
 
   -0.80466E+04         0.68213E+04         0.00000E+00
    0.68213E+04        -0.55591E+04         0.00000E+00
    0.00000E+00         0.00000E+00        -0.40817E+04
 
   -0.80288E+04         0.76921E+04         0.00000E+00
    0.76921E+04        -0.73233E+04         0.00000E+00
    0.00000E+00         0.00000E+00        -0.46056E+04
 
   -0.76441E+04         0.81648E+04         0.00000E+00
    0.81648E+04        -0.89417E+04         0.00000E+00
    0.00000E+00         0.00000E+00        -0.49758E+04
 
   -0.70811E+04         0.83104E+04         0.00000E+00
    0.83104E+04        -0.10348E+05         0.00000E+00
    0.00000E+00         0.00000E+00        -0.52288E+04
 
   -0.64649E+04         0.82105E+04         0.00000E+00
    0.82105E+04        -0.11522E+05         0.00000E+00
    0.00000E+00         0.00000E+00        -0.53960E+04
 
   -0.58720E+04         0.79400E+04         0.00000E+00
    0.79400E+04        -0.12470E+05         0.00000E+00
    0.00000E+00         0.00000E+00        -0.55025E+04
 
   -0.53456E+04         0.75610E+04         0.00000E+00
    0.75610E+04        -0.13212E+05         0.00000E+00
    0.00000E+00         0.00000E+00        -0.55674E+04
 
   -0.49072E+04         0.71220E+04         0.00000E+00
    0.71220E+04        -0.13778E+05         0.00000E+00
    0.00000E+00         0.00000E+00        -0.56054E+04
 
   -0.45655E+04         0.66594E+04         0.00000E+00
    0.66594E+04        -0.14193E+05         0.00000E+00
    0.00000E+00         0.00000E+00        -0.56274E+04
 
   -0.43215E+04         0.62007E+04         0.00000E+00
    0.62007E+04        -0.14483E+05         0.00000E+00
    0.00000E+00         0.00000E+00        -0.56413E+04
 
   -0.41724E+04         0.57663E+04         0.00000E+00
    0.57663E+04        -0.14671E+05         0.00000E+00
    0.00000E+00         0.00000E+00        -0.56530E+04
 
   -0.41137E+04         0.53722E+04         0.00000E+00
    0.53722E+04        -0.14775E+05         0.00000E+00
    0.00000E+00         0.00000E+00        -0.56667E+04
 
   -0.41402E+04         0.50313E+04         0.00000E+00
    0.50313E+04        -0.14811E+05         0.00000E+00
    0.00000E+00         0.00000E+00        -0.56855E+04
 
   -0.42467E+04         0.47556E+04         0.00000E+00
    0.47556E+04        -0.14792E+05         0.00000E+00
    0.00000E+00         0.00000E+00        -0.57115E+04
 
   -0.44282E+04         0.45566E+04         0.00000E+00
    0.45566E+04        -0.14726E+05         0.00000E+00
    0.00000E+00         0.00000E+00        -0.57462E+04
 
   -0.46799E+04         0.44470E+04         0.00000E+00
    0.44470E+04        -0.14622E+05         0.00000E+00
    0.00000E+00         0.00000E+00        -0.57905E+04
 
   -0.49964E+04         0.44416E+04         0.00000E+00
    0.44416E+04        -0.14487E+05         0.00000E+00
    0.00000E+00         0.00000E+00        -0.58449E+04
 
   -0.53716E+04         0.45583E+04         0.00000E+00
    0.45583E+04        -0.14326E+05         0.00000E+00
    0.00000E+00         0.00000E+00        -0.59091E+04
 
   -0.57975E+04         0.48192E+04         0.00000E+00
    0.48192E+04        -0.14145E+05         0.00000E+00
    0.00000E+00         0.00000E+00        -0.59828E+04
 
    0.57083E+04        -0.88766E+02         0.00000E+00
   -0.88766E+02        -0.11153E+02         0.00000E+00
    0.00000E+00         0.00000E+00         0.17091E+04
 
    0.16225E+04         0.32784E+03         0.00000E+00
    0.32784E+03        -0.16179E+03         0.00000E+00
    0.00000E+00         0.00000E+00         0.43821E+03
 
   -0.18083E+04         0.13418E+04         0.00000E+00
    0.13418E+04        -0.63066E+03         0.00000E+00
    0.00000E+00         0.00000E+00        -0.73169E+03
 
   -0.43736E+04         0.26656E+04         0.00000E+00
    0.26656E+04        -0.14827E+04         0.00000E+00
    0.00000E+00         0.00000E+00        -0.17569E+04
 
   -0.60552E+04         0.40190E+04         0.00000E+00
    0.40190E+04        -0.26645E+04         0.00000E+00
    0.00000E+00         0.00000E+00        -0.26159E+04
 
   -0.69736E+04         0.52009E+04         0.00000E+00
    0.52009E+04        -0.40536E+04         0.00000E+00
    0.00000E+00         0.00000E+00        -0.33082E+04
 
   -0.73123E+04         0.61069E+04         0.00000E+00
    0.61069E+04        -0.55142E+04         0.00000E+00
    0.00000E+00         0.00000E+00        -0.38480E+04
 
   -0.72576E+04         0.67121E+04         0.00000E+00
    0.67121E+04        -0.69341E+04         0.00000E+00
    0.00000E+00         0.00000E+00        -0.42575E+04
 
   -0.69661E+04         0.70409E+04         0.00000E+00
    0.70409E+04        -0.82383E+04         0.00000E+00
    0.00000E+00         0.00000E+00        -0.45613E+04
 
   -0.65555E+04         0.71407E+04         0.00000E+00
    0.71407E+04        -0.93861E+04         0.00000E+00
    0.00000E+00         0.00000E+00        -0.47825E+04
 
   -0.61074E+04         0.70652E+04         0.00000E+00
    0.70652E+04        -0.10363E+05         0.00000E+00
    0.00000E+00         0.00000E+00        -0.49412E+04
 
   -0.56743E+04         0.68649E+04         0.00000E+00
    0.68649E+04        -0.11172E+05         0.00000E+00
    0.00000E+00         0.00000E+00        -0.50539E+04
 
   -0.52882E+04         0.65830E+04         0.00000E+00
    0.65830E+04        -0.11824E+05         0.00000E+00
    0.00000E+00         0.00000E+00        -0.51338E+04
 
   -0.49667E+04         0.62554E+04         0.00000E+00
    0.62554E+04        -0.12337E+05         0.00000E+00
    0.00000E+00         0.00000E+00        -0.51912E+04
 
   -0.47182E+04         0.59105E+04         0.00000E+00
    0.59105E+04        -0.12728E+05         0.00000E+00
    0.00000E+00         0.00000E+00        -0.52340E+04
 
   -0.45453E+04         0.55712E+04         0.00000E+00
    0.55712E+04        -0.13015E+05         0.00000E+00
    0.00000E+00         0.00000E+00        -0.52682E+04
 
   -0.44471E+04         0.52560E+04         0.00000E+00
    0.52560E+04        -0.13214E+05         0.00000E+00
    0.00000E+00         0.00000E+00        -0.52983E+04
 
   -0.44204E+04         0.49806E+04         0.00000E+00
    0.49806E+04        -0.13338E+05         0.00000E+00
    0.00000E+00         0.00000E+00        -0.53276E+04
 
   -0.44612E+04         0.47591E+04         0.00000E+00
    0.47591E+04        -0.13400E+05         0.00000E+00
    0.00000E+00         0.00000E+00        -0.53583E+04
 
   -0.45640E+04         0.46050E+04         0.00000E+00
    0.46050E+04        -0.13410E+05         0.00000E+00
    0.00000E+00         0.00000E+00        -0.53921E+04
 
   -0.47228E+04         0.45324E+04         0.00000E+00
    0.45324E+04        -0.13377E+05         0.00000E+00
    0.00000E+00         0.00000E+00        -0.54299E+04
 
   -0.49301E+04         0.45567E+04         0.00000E+00
    0.45567E+04        -0.13309E+05         0.00000E+00
    0.00000E+00         0.00000E+00        -0.54718E+04
 
   -0.51764E+04         0.46958E+04         0.00000E+00
    0.46958E+04        -0.13215E+05         0.00000E+00
    0.00000E+00         0.00000E+00        -0.55175E+04
 
   -0.54495E+04         0.49708E+04         0.00000E+00
    0.49708E+04        -0.13104E+05         0.00000E+00
    0.00000E+00         0.00000E+00        -0.55662E+04
 
    0.56842E+04        -0.12027E+03         0.00000E+00
   -0.12027E+03        -0.79328E+01         0.00000E+00
    0.00000E+00         0.00000E+00         0.17029E+04
 
    0.22266E+04         0.93866E+02         0.00000E+00
    0.93866E+02        -0.11111E+03         0.00000E+00
    0.00000E+00         0.00000E+00         0.63463E+03
 
   -0.77774E+03         0.79121E+03         0.00000E+00
    0.79121E+03        -0.43617E+03         0.00000E+00
    0.00000E+00         0.00000E+00        -0.36417E+03
 
   -0.31607E+04         0.17849E+04         0.00000E+00
    0.17849E+04        -0.10442E+04         0.00000E+00
    0.00000E+00         0.00000E+00        -0.12615E+04
 
   -0.48738E+04         0.28777E+04         0.00000E+00
    0.28777E+04        -0.19213E+04         0.00000E+00
    0.00000E+00         0.00000E+00        -0.20385E+04
 
   -0.59673E+04         0.39084E+04         0.00000E+00
    0.39084E+04        -0.29991E+04         0.00000E+00
    0.00000E+00         0.00000E+00        -0.26899E+04
 
   -0.65502E+04         0.47736E+04         0.00000E+00
    0.47736E+04        -0.41865E+04         0.00000E+00
    0.00000E+00         0.00000E+00        -0.32210E+04
 
   -0.67513E+04         0.54259E+04         0.00000E+00
    0.54259E+04        -0.53958E+04         0.00000E+00
    0.00000E+00         0.00000E+00        -0.36441E+04
 
   -0.66923E+04         0.58603E+04         0.00000E+00
    0.58603E+04        -0.65578E+04         0.00000E+00
    0.00000E+00         0.00000E+00        -0.39750E+04
 
   -0.64741E+04         0.60976E+04         0.00000E+00
    0.60976E+04        -0.76260E+04         0.00000E+00
    0.00000E+00         0.00000E+00        -0.42300E+04
 
   -0.61739E+04         0.61714E+04         0.00000E+00
    0.61714E+04        -0.85745E+04         0.00000E+00
    0.00000E+00         0.00000E+00        -0.44245E+04
 
   -0.58468E+04         0.61186E+04         0.00000E+00
    0.61186E+04        -0.93931E+04         0.00000E+00
    0.00000E+00         0.00000E+00        -0.45720E+04
 
   -0.55299E+04         0.59749E+04         0.00000E+00
    0.59749E+04        -0.10082E+05         0.00000E+00
    0.00000E+00         0.00000E+00        -0.46836E+04
 
   -0.52468E+04         0.57719E+04         0.00000E+00
    0.57719E+04        -0.10649E+05         0.00000E+00
    0.00000E+00         0.00000E+00        -0.47687E+04
 
   -0.50112E+04         0.55370E+04         0.00000E+00
    0.55370E+04        -0.11104E+05         0.00000E+00
    0.00000E+00         0.00000E+00        -0.48346E+04
 
   -0.48303E+04         0.52930E+04         0.00000E+00
    0.52930E+04        -0.11460E+05         0.00000E+00
    0.00000E+00         0.00000E+00        -0.48870E+04
 
   -0.47064E+04         0.50596E+04         0.00000E+00
    0.50596E+04        -0.11728E+05         0.00000E+00
    0.00000E+00         0.00000E+00        -0.49303E+04
 
   -0.46387E+04         0.48537E+04         0.00000E+00
    0.48537E+04        -0.11921E+05         0.00000E+00
    0.00000E+00         0.00000E+00        -0.49678E+04
 
   -0.46239E+04         0.46908E+04         0.00000E+00
    0.46908E+04        -0.12049E+05         0.00000E+00
    0.00000E+00         0.00000E+00        -0.50019E+04
 
   -0.46571E+04         0.45855E+04         0.00000E+00
    0.45855E+04        -0.12123E+05         0.00000E+00
    0.00000E+00         0.00000E+00        -0.50339E+04
 
   -0.47313E+04         0.45526E+04         0.00000E+00
    0.45526E+04        -0.12151E+05         0.00000E+00
    0.00000E+00         0.00000E+00        -0.50648E+04
 
   -0.48375E+04         0.46078E+04         0.00000E+00
    0.46078E+04        -0.12144E+05         0.00000E+00
    0.00000E+00         0.00000E+00        -0.50946E+04
 
   -0.49639E+04         0.47682E+04         0.00000E+00
    0.47682E+04        -0.12112E+05         0.00000E+00
    0.00000E+00         0.00000E+00        -0.51227E+04
 
   -0.50950E+04         0.50535E+04         0.00000E+00
    0.50535E+04        -0.12065E+05         0.00000E+00
    0.00000E+00         0.00000E+00        -0.51479E+04
 
    0.55641E+04        -0.14254E+03         0.00000E+00
   -0.14254E+03        -0.56653E+01         0.00000E+00
    0.00000E+00         0.00000E+00         0.16675E+04
 
    0.26022E+04        -0.68971E+02         0.00000E+00
   -0.68971E+02        -0.78385E+02         0.00000E+00
    0.00000E+00         0.00000E+00         0.75714E+03
 
   -0.36790E+02         0.40077E+03         0.00000E+00
    0.40077E+03        -0.30986E+03         0.00000E+00
    0.00000E+00         0.00000E+00        -0.10399E+03
 
   -0.22207E+04         0.11409E+04         0.00000E+00
    0.11409E+04        -0.75255E+03         0.00000E+00
    0.00000E+00         0.00000E+00        -0.89198E+03
 
   -0.38936E+04         0.20109E+04         0.00000E+00
    0.20109E+04        -0.14104E+04         0.00000E+00
    0.00000E+00         0.00000E+00        -0.15912E+04
 
   -0.50685E+04         0.28855E+04         0.00000E+00
    0.28855E+04        -0.22472E+04         0.00000E+00
    0.00000E+00         0.00000E+00        -0.21947E+04
 
   -0.58070E+04         0.36727E+04         0.00000E+00
    0.36727E+04        -0.32037E+04         0.00000E+00
    0.00000E+00         0.00000E+00        -0.27032E+04
 
   -0.61949E+04         0.43186E+04         0.00000E+00
    0.43186E+04        -0.42154E+04         0.00000E+00
    0.00000E+00         0.00000E+00        -0.31231E+04
 
   -0.63224E+04         0.48018E+04         0.00000E+00
    0.48018E+04        -0.52243E+04         0.00000E+00
    0.00000E+00         0.00000E+00        -0.34640E+04
 
   -0.62714E+04         0.51251E+04         0.00000E+00
    0.51251E+04        -0.61861E+04         0.00000E+00
    0.00000E+00         0.00000E+00        -0.37373E+04
 
   -0.61096E+04         0.53057E+04         0.00000E+00
    0.53057E+04        -0.70706E+04         0.00000E+00
    0.00000E+00         0.00000E+00        -0.39541E+04
 
   -0.58895E+04         0.53682E+04         0.00000E+00
    0.53682E+04        -0.78605E+04         0.00000E+00
    0.00000E+00         0.00000E+00        -0.41250E+04
 
   -0.56493E+04         0.53395E+04         0.00000E+00
    0.53395E+04        -0.85485E+04         0.00000E+00
    0.00000E+00         0.00000E+00        -0.42593E+04
 
   -0.54154E+04         0.52459E+04         0.00000E+00
    0.52459E+04        -0.91343E+04         0.00000E+00
    0.00000E+00         0.00000E+00        -0.43649E+04
 
   -0.52050E+04         0.51114E+04         0.00000E+00
    0.51114E+04        -0.96224E+04         0.00000E+00
    0.00000E+00         0.00000E+00        -0.44482E+04
 
   -0.50283E+04         0.49578E+04         0.00000E+00
    0.49578E+04        -0.10020E+05         0.00000E+00
    0.00000E+00         0.00000E+00        -0.45145E+04
 
   -0.48905E+04         0.48042E+04         0.00000E+00
    0.48042E+04        -0.10336E+05         0.00000E+00
    0.00000E+00         0.00000E+00        -0.45678E+04
 
   -0.47926E+04         0.46677E+04         0.00000E+00
    0.46677E+04        -0.10578E+05         0.00000E+00
    0.00000E+00         0.00000E+00        -0.46113E+04
 
   -0.47324E+04         0.45643E+04         0.00000E+00
    0.45643E+04        -0.10758E+05         0.00000E+00
    0.00000E+00         0.00000E+00        -0.46471E+04
 
   -0.47055E+04         0.45089E+04         0.00000E+00
    0.45089E+04        -0.10883E+05         0.00000E+00
    0.00000E+00         0.00000E+00        -0.46766E+04
 
   -0.47044E+04         0.45162E+04         0.00000E+00
    0.45162E+04        -0.10964E+05         0.00000E+00
    0.00000E+00         0.00000E+00        -0.47005E+04
 
   -0.47193E+04         0.46017E+04         0.00000E+00
    0.46017E+04        -0.11010E+05         0.00000E+00
    0.00000E+00         0.00000E+00        -0.47188E+04
 
   -0.47367E+04         0.47816E+04         0.00000E+00
    0.47816E+04        -0.11032E+05         0.00000E+00
    0.00000E+00         0.00000E+00        -0.47306E+04
 
   -0.47391E+04         0.50735E+04         0.00000E+00
    0.50735E+04        -0.11042E+05         0.00000E+00
    0.00000E+00         0.00000E+00        -0.47344E+04
 
    0.53767E+04        -0.15836E+03         0.00000E+00
   -0.15836E+03        -0.39766E+01         0.00000E+00
    0.00000E+00         0.00000E+00         0.16118E+04
 
    0.28151E+04        -0.18495E+03         0.00000E+00
   -0.18495E+03        -0.55905E+02         0.00000E+00
    0.00000E+00         0.00000E+00         0.82777E+03
 
    0.48856E+03         0.11804E+03         0.00000E+00
    0.11804E+03        -0.22366E+03         0.00000E+00
    0.00000E+00         0.00000E+00         0.79470E+02
 
   -0.14991E+04         0.66310E+03         0.00000E+00
    0.66310E+03        -0.55078E+03         0.00000E+00
    0.00000E+00         0.00000E+00        -0.61496E+03
 
   -0.30935E+04         0.13485E+04         0.00000E+00
    0.13485E+04        -0.10488E+04         0.00000E+00
    0.00000E+00         0.00000E+00        -0.12427E+04
 
   -0.42888E+04         0.20777E+04         0.00000E+00
    0.20777E+04        -0.17001E+04         0.00000E+00
    0.00000E+00         0.00000E+00        -0.17967E+04
 
   -0.51172E+04         0.27732E+04         0.00000E+00
    0.27732E+04        -0.24673E+04         0.00000E+00
    0.00000E+00         0.00000E+00        -0.22754E+04
 
   -0.56339E+04         0.33820E+04         0.00000E+00
    0.33820E+04        -0.33043E+04         0.00000E+00
    0.00000E+00         0.00000E+00        -0.26814E+04
 
   -0.59035E+04         0.38758E+04         0.00000E+00
    0.38758E+04        -0.41654E+04         0.00000E+00
    0.00000E+00         0.00000E+00        -0.30207E+04
 
   -0.59900E+04         0.42459E+04         0.00000E+00
    0.42459E+04        -0.50117E+04         0.00000E+00
    0.00000E+00         0.00000E+00        -0.33005E+04
 
   -0.59498E+04         0.44978E+04         0.00000E+00
    0.44978E+04        -0.58135E+04         0.00000E+00
    0.00000E+00         0.00000E+00        -0.35290E+04
 
   -0.58298E+04         0.46457E+04         0.00000E+00
    0.46457E+04        -0.65506E+04         0.00000E+00
    0.00000E+00         0.00000E+00        -0.37141E+04
 
   -0.56663E+04         0.47085E+04         0.00000E+00
    0.47085E+04        -0.72112E+04         0.00000E+00
    0.00000E+00         0.00000E+00        -0.38632E+04
 
   -0.54862E+04         0.47065E+04         0.00000E+00
    0.47065E+04        -0.77899E+04         0.00000E+00
    0.00000E+00         0.00000E+00        -0.39828E+04
 
   -0.53082E+04         0.46600E+04         0.00000E+00
    0.46600E+04        -0.82864E+04         0.00000E+00
    0.00000E+00         0.00000E+00        -0.40784E+04
 
   -0.51446E+04         0.45883E+04         0.00000E+00
    0.45883E+04        -0.87038E+04         0.00000E+00
    0.00000E+00         0.00000E+00        -0.41545E+04
 
   -0.50020E+04         0.45090E+04         0.00000E+00
    0.45090E+04        -0.90474E+04         0.00000E+00
    0.00000E+00         0.00000E+00        -0.42148E+04
 
   -0.48832E+04         0.44387E+04         0.00000E+00
    0.44387E+04        -0.93238E+04         0.00000E+00
    0.00000E+00         0.00000E+00        -0.42621E+04
 
   -0.47870E+04         0.43927E+04         0.00000E+00
    0.43927E+04        -0.95406E+04         0.00000E+00
    0.00000E+00         0.00000E+00        -0.42983E+04
 
   -0.47093E+04         0.43856E+04         0.00000E+00
    0.43856E+04        -0.97061E+04         0.00000E+00
    0.00000E+00         0.00000E+00        -0.43246E+04
 
   -0.46428E+04         0.44320E+04         0.00000E+00
    0.44320E+04        -0.98293E+04         0.00000E+00
    0.00000E+00         0.00000E+00        -0.43416E+04
 
   -0.45770E+04         0.45461E+04         0.00000E+00
    0.45461E+04        -0.99199E+04         0.00000E+00
    0.00000E+00         0.00000E+00        -0.43491E+04
 
   -0.44978E+04         0.47427E+04         0.00000E+00
    0.47427E+04        -0.99891E+04         0.00000E+00
    0.00000E+00         0.00000E+00        -0.43460E+04
 
   -0.43864E+04         0.50375E+04         0.00000E+00
    0.50375E+04        -0.10050E+05         0.00000E+00
    0.00000E+00         0.00000E+00        -0.43309E+04
 
    0.51414E+04        -0.16939E+03         0.00000E+00
   -0.16939E+03        -0.26433E+01         0.00000E+00
    0.00000E+00         0.00000E+00         0.15416E+04
 
    0.29098E+04        -0.26846E+03         0.00000E+00
   -0.26846E+03        -0.39662E+02         0.00000E+00
    0.00000E+00         0.00000E+00         0.86105E+03
 
    0.85162E+03        -0.89490E+02         0.00000E+00
   -0.89490E+02        -0.16226E+03         0.00000E+00
    0.00000E+00         0.00000E+00         0.20681E+03
 
   -0.95074E+03         0.30481E+03         0.00000E+00
    0.30481E+03        -0.40624E+03         0.00000E+00
    0.00000E+00         0.00000E+00        -0.40709E+03
 
   -0.24480E+04         0.83950E+03         0.00000E+00
    0.83950E+03        -0.78576E+03         0.00000E+00
    0.00000E+00         0.00000E+00        -0.97012E+03
 
   -0.36252E+04         0.14401E+04         0.00000E+00
    0.14401E+04        -0.12939E+04         0.00000E+00
    0.00000E+00         0.00000E+00        -0.14757E+04
 
   -0.44964E+04         0.20427E+04         0.00000E+00
    0.20427E+04        -0.19078E+04         0.00000E+00
    0.00000E+00         0.00000E+00        -0.19212E+04
 
   -0.50958E+04         0.25993E+04         0.00000E+00
    0.25993E+04        -0.25951E+04         0.00000E+00
    0.00000E+00         0.00000E+00        -0.23073E+04
 
   -0.54686E+04         0.30794E+04         0.00000E+00
    0.30794E+04        -0.33212E+04         0.00000E+00
    0.00000E+00         0.00000E+00        -0.26369E+04
 
   -0.56629E+04         0.34682E+04         0.00000E+00
    0.34682E+04        -0.40537E+04         0.00000E+00
    0.00000E+00         0.00000E+00        -0.29150E+04
 
   -0.57243E+04         0.37633E+04         0.00000E+00
    0.37633E+04        -0.47657E+04         0.00000E+00
    0.00000E+00         0.00000E+00        -0.31470E+04
 
   -0.56928E+04         0.39711E+04         0.00000E+00
    0.39711E+04        -0.54368E+04         0.00000E+00
    0.00000E+00         0.00000E+00        -0.33389E+04
 
   -0.56010E+04         0.41036E+04         0.00000E+00
    0.41036E+04        -0.60532E+04         0.00000E+00
    0.00000E+00         0.00000E+00        -0.34963E+04
 
   -0.54746E+04         0.41757E+04         0.00000E+00
    0.41757E+04        -0.66065E+04         0.00000E+00
    0.00000E+00         0.00000E+00        -0.36243E+04
 
   -0.53323E+04         0.42034E+04         0.00000E+00
    0.42034E+04        -0.70932E+04         0.00000E+00
    0.00000E+00         0.00000E+00        -0.37276E+04
 
   -0.51869E+04         0.42031E+04         0.00000E+00
    0.42031E+04        -0.75131E+04         0.00000E+00
    0.00000E+00         0.00000E+00        -0.38100E+04
 
   -0.50465E+04         0.41905E+04         0.00000E+00
    0.41905E+04        -0.78688E+04         0.00000E+00
    0.00000E+00         0.00000E+00        -0.38746E+04
 
   -0.49143E+04         0.41807E+04         0.00000E+00
    0.41807E+04        -0.81647E+04         0.00000E+00
    0.00000E+00         0.00000E+00        -0.39237E+04
 
   -0.47903E+04         0.41880E+04         0.00000E+00
    0.41880E+04        -0.84066E+04         0.00000E+00
    0.00000E+00         0.00000E+00        -0.39591E+04
 
   -0.46707E+04         0.42261E+04         0.00000E+00
    0.42261E+04        -0.86017E+04         0.00000E+00
    0.00000E+00         0.00000E+00        -0.39817E+04
 
   -0.45486E+04         0.43085E+04         0.00000E+00
    0.43085E+04        -0.87581E+04         0.00000E+00
    0.00000E+00         0.00000E+00        -0.39920E+04
 
   -0.44132E+04         0.44484E+04         0.00000E+00
    0.44484E+04        -0.88852E+04         0.00000E+00
    0.00000E+00         0.00000E+00        -0.39895E+04
 
   -0.42503E+04         0.46588E+04         0.00000E+00
    0.46588E+04        -0.89942E+04         0.00000E+00
    0.00000E+00         0.00000E+00        -0.39734E+04
 
   -0.40408E+04         0.49529E+04         0.00000E+00
    0.49529E+04        -0.90981E+04         0.00000E+00
    0.00000E+00         0.00000E+00        -0.39417E+04
 
    0.48721E+04        -0.17668E+03         0.00000E+00
   -0.17668E+03        -0.15516E+01         0.00000E+00
    0.00000E+00         0.00000E+00         0.14612E+04
 
    0.29174E+04        -0.32847E+03         0.00000E+00
   -0.32847E+03        -0.27430E+02         0.00000E+00
    0.00000E+00         0.00000E+00         0.86698E+03
 
    0.10913E+04        -0.24271E+03         0.00000E+00
   -0.24271E+03        -0.11691E+03         0.00000E+00
    0.00000E+00         0.00000E+00         0.29232E+03
 
   -0.53974E+03         0.34477E+02         0.00000E+00
    0.34477E+02        -0.29946E+03         0.00000E+00
    0.00000E+00         0.00000E+00        -0.25176E+03
 
   -0.19323E+04         0.44692E+03         0.00000E+00
    0.44692E+03        -0.58957E+03         0.00000E+00
    0.00000E+00         0.00000E+00        -0.75657E+03
 
   -0.30676E+04         0.93684E+03         0.00000E+00
    0.93684E+03        -0.98645E+03         0.00000E+00
    0.00000E+00         0.00000E+00        -0.12162E+04
 
   -0.39488E+04         0.14520E+04         0.00000E+00
    0.14520E+04        -0.14765E+04         0.00000E+00
    0.00000E+00         0.00000E+00        -0.16276E+04
 
   -0.45958E+04         0.19506E+04         0.00000E+00
    0.19506E+04        -0.20378E+04         0.00000E+00
    0.00000E+00         0.00000E+00        -0.19901E+04
 
   -0.50392E+04         0.24029E+04         0.00000E+00
    0.24029E+04        -0.26445E+04         0.00000E+00
    0.00000E+00         0.00000E+00        -0.23051E+04
 
   -0.53145E+04         0.27914E+04         0.00000E+00
    0.27914E+04        -0.32706E+04         0.00000E+00
    0.00000E+00         0.00000E+00        -0.25755E+04
 
   -0.54572E+04         0.31087E+04         0.00000E+00
    0.31087E+04        -0.38930E+04         0.00000E+00
    0.00000E+00         0.00000E+00        -0.28051E+04
 
   -0.55004E+04         0.33558E+04         0.00000E+00
    0.33558E+04        -0.44927E+04         0.00000E+00
    0.00000E+00         0.00000E+00        -0.29979E+04
 
   -0.54723E+04         0.35391E+04         0.00000E+00
    0.35391E+04        -0.50555E+04         0.00000E+00
    0.00000E+00         0.00000E+00        -0.31583E+04
 
   -0.53961E+04         0.36688E+04         0.00000E+00
    0.36688E+04        -0.55717E+04         0.00000E+00
    0.00000E+00         0.00000E+00        -0.32903E+04
 
   -0.52894E+04         0.37571E+04         0.00000E+00
    0.37571E+04        -0.60357E+04         0.00000E+00
    0.00000E+00         0.00000E+00        -0.33975E+04
 
   -0.51650E+04         0.38171E+04         0.00000E+00
    0.38171E+04        -0.64452E+04         0.00000E+00
    0.00000E+00         0.00000E+00        -0.34831E+04
 
   -0.50310E+04         0.38623E+04         0.00000E+00
    0.38623E+04        -0.68006E+04         0.00000E+00
    0.00000E+00         0.00000E+00        -0.35495E+04
 
   -0.48915E+04         0.39060E+04         0.00000E+00
    0.39060E+04        -0.71044E+04         0.00000E+00
    0.00000E+00         0.00000E+00        -0.35988E+04
 
   -0.47468E+04         0.39609E+04         0.00000E+00
    0.39609E+04        -0.73610E+04         0.00000E+00
    0.00000E+00         0.00000E+00        -0.36323E+04
 
   -0.45935E+04         0.40397E+04         0.00000E+00
    0.40397E+04        -0.75763E+04         0.00000E+00
    0.00000E+00         0.00000E+00        -0.36510E+04
 
   -0.44251E+04         0.41542E+04         0.00000E+00
    0.41542E+04        -0.77576E+04         0.00000E+00
    0.00000E+00         0.00000E+00        -0.36548E+04
 
   -0.42312E+04         0.43163E+04         0.00000E+00
    0.43163E+04        -0.79137E+04         0.00000E+00
    0.00000E+00         0.00000E+00        -0.36435E+04
 
   -0.39976E+04         0.45371E+04         0.00000E+00
    0.45371E+04        -0.80552E+04         0.00000E+00
    0.00000E+00         0.00000E+00        -0.36159E+04
 
   -0.37057E+04         0.48274E+04         0.00000E+00
    0.48274E+04        -0.81949E+04         0.00000E+00
    0.00000E+00         0.00000E+00        -0.35702E+04
 
    0.45794E+04        -0.18096E+03         0.00000E+00
   -0.18096E+03        -0.63613E+00         0.00000E+00
    0.00000E+00         0.00000E+00         0.13736E+04
 
    0.28602E+04        -0.37088E+03         0.00000E+00
   -0.37088E+03        -0.17915E+02         0.00000E+00
    0.00000E+00         0.00000E+00         0.85270E+03
 
    0.12365E+04        -0.35554E+03         0.00000E+00
   -0.35554E+03        -0.82386E+02         0.00000E+00
    0.00000E+00         0.00000E+00         0.34625E+03
 
   -0.23766E+03        -0.16968E+03         0.00000E+00
   -0.16968E+03        -0.21847E+03         0.00000E+00
    0.00000E+00         0.00000E+00        -0.13684E+03
 
   -0.15245E+04         0.14390E+03         0.00000E+00
    0.14390E+03        -0.43999E+03         0.00000E+00
    0.00000E+00         0.00000E+00        -0.58934E+03
 
   -0.26038E+04         0.54001E+03         0.00000E+00
    0.54001E+03        -0.74952E+03         0.00000E+00
    0.00000E+00         0.00000E+00        -0.10060E+04
 
   -0.34725E+04         0.97622E+03         0.00000E+00
    0.97622E+03        -0.11397E+04         0.00000E+00
    0.00000E+00         0.00000E+00        -0.13837E+04
 
   -0.41408E+04         0.14166E+04         0.00000E+00
    0.14166E+04        -0.15957E+04         0.00000E+00
    0.00000E+00         0.00000E+00        -0.17210E+04
 
   -0.46288E+04         0.18339E+04         0.00000E+00
    0.18339E+04        -0.20987E+04         0.00000E+00
    0.00000E+00         0.00000E+00        -0.20183E+04
 
   -0.49617E+04         0.22098E+04         0.00000E+00
    0.22098E+04        -0.26285E+04         0.00000E+00
    0.00000E+00         0.00000E+00        -0.22771E+04
 
   -0.51669E+04         0.25343E+04         0.00000E+00
    0.25343E+04        -0.31658E+04         0.00000E+00
    0.00000E+00         0.00000E+00        -0.24998E+04
 
   -0.52706E+04         0.28046E+04         0.00000E+00
    0.28046E+04        -0.36938E+04         0.00000E+00
    0.00000E+00         0.00000E+00        -0.26893E+04
 
   -0.52966E+04         0.30230E+04         0.00000E+00
    0.30230E+04        -0.41990E+04         0.00000E+00
    0.00000E+00         0.00000E+00        -0.28487E+04
 
   -0.52650E+04         0.31958E+04         0.00000E+00
    0.31958E+04        -0.46715E+04         0.00000E+00
    0.00000E+00         0.00000E+00        -0.29809E+04
 
   -0.51918E+04         0.33318E+04         0.00000E+00
    0.33318E+04        -0.51045E+04         0.00000E+00
    0.00000E+00         0.00000E+00        -0.30889E+04
 
   -0.50888E+04         0.34411E+04         0.00000E+00
    0.34411E+04        -0.54945E+04         0.00000E+00
    0.00000E+00         0.00000E+00        -0.31750E+04
 
   -0.49640E+04         0.35349E+04         0.00000E+00
    0.35349E+04        -0.58402E+04         0.00000E+00
    0.00000E+00         0.00000E+00        -0.32413E+04
 
   -0.48215E+04         0.36243E+04         0.00000E+00
    0.36243E+04        -0.61430E+04         0.00000E+00
    0.00000E+00         0.00000E+00        -0.32893E+04
 
   -0.46618E+04         0.37205E+04         0.00000E+00
    0.37205E+04        -0.64058E+04         0.00000E+00
    0.00000E+00         0.00000E+00        -0.33203E+04
 
   -0.44822E+04         0.38345E+04         0.00000E+00
    0.38345E+04        -0.66334E+04         0.00000E+00
    0.00000E+00         0.00000E+00        -0.33347E+04
 
   -0.42763E+04         0.39766E+04         0.00000E+00
    0.39766E+04        -0.68322E+04         0.00000E+00
    0.00000E+00         0.00000E+00        -0.33326E+04
 
   -0.40344E+04         0.41569E+04         0.00000E+00
    0.41569E+04        -0.70103E+04         0.00000E+00
    0.00000E+00         0.00000E+00        -0.33134E+04
 
   -0.37428E+04         0.43847E+04         0.00000E+00
    0.43847E+04        -0.71775E+04         0.00000E+00
    0.00000E+00         0.00000E+00        -0.32761E+04
 
   -0.33839E+04         0.46684E+04         0.00000E+00
    0.46684E+04        -0.73459E+04         0.00000E+00
    0.00000E+00         0.00000E+00        -0.32189E+04
 
    0.42713E+04        -0.18275E+03         0.00000E+00
   -0.18275E+03         0.14148E+00         0.00000E+00
    0.00000E+00         0.00000E+00         0.12814E+04
 
    0.27552E+04        -0.39971E+03         0.00000E+00
   -0.39971E+03        -0.10335E+02         0.00000E+00
    0.00000E+00         0.00000E+00         0.82345E+03
 
    0.13092E+04        -0.43760E+03         0.00000E+00
   -0.43760E+03        -0.55472E+02         0.00000E+00
    0.00000E+00         0.00000E+00         0.37611E+03
 
   -0.22012E+02        -0.32311E+03         0.00000E+00
   -0.32311E+03        -0.15570E+03         0.00000E+00
    0.00000E+00         0.00000E+00        -0.53314E+02
 
   -0.12054E+04        -0.89323E+02         0.00000E+00
   -0.89323E+02        -0.32379E+03         0.00000E+00
    0.00000E+00         0.00000E+00        -0.45876E+03
 
   -0.22212E+04         0.22808E+03         0.00000E+00
    0.22808E+03        -0.56412E+03         0.00000E+00
    0.00000E+00         0.00000E+00        -0.83558E+03
 
   -0.30623E+04         0.59459E+03         0.00000E+00
    0.59459E+03        -0.87330E+03         0.00000E+00
    0.00000E+00         0.00000E+00        -0.11807E+04
 
   -0.37327E+04         0.97979E+03         0.00000E+00
    0.97979E+03        -0.12418E+04         0.00000E+00
    0.00000E+00         0.00000E+00        -0.14923E+04
 
   -0.42448E+04         0.13592E+04         0.00000E+00
    0.13592E+04        -0.16559E+04         0.00000E+00
    0.00000E+00         0.00000E+00        -0.17702E+04
 
   -0.46161E+04         0.17152E+04         0.00000E+00
    0.17152E+04        -0.21003E+04         0.00000E+00
    0.00000E+00         0.00000E+00        -0.20149E+04
 
   -0.48668E+04         0.20364E+04         0.00000E+00
    0.20364E+04        -0.25592E+04         0.00000E+00
    0.00000E+00         0.00000E+00        -0.22278E+04
 
   -0.50176E+04         0.23178E+04         0.00000E+00
    0.23178E+04        -0.30184E+04         0.00000E+00
    0.00000E+00         0.00000E+00        -0.24108E+04
 
   -0.50878E+04         0.25586E+04         0.00000E+00
    0.25586E+04        -0.34657E+04         0.00000E+00
    0.00000E+00         0.00000E+00        -0.25660E+04
 
   -0.50942E+04         0.27623E+04         0.00000E+00
    0.27623E+04        -0.38915E+04         0.00000E+00
    0.00000E+00         0.00000E+00        -0.26957E+04
 
   -0.50508E+04         0.29345E+04         0.00000E+00
    0.29345E+04        -0.42889E+04         0.00000E+00
    0.00000E+00         0.00000E+00        -0.28019E+04
 
   -0.49683E+04         0.30829E+04         0.00000E+00
    0.30829E+04        -0.46534E+04         0.00000E+00
    0.00000E+00         0.00000E+00        -0.28865E+04
 
   -0.48538E+04         0.32162E+04         0.00000E+00
    0.32162E+04        -0.49831E+04         0.00000E+00
    0.00000E+00         0.00000E+00        -0.29511E+04
 
   -0.47113E+04         0.33435E+04         0.00000E+00
    0.33435E+04        -0.52781E+04         0.00000E+00
    0.00000E+00         0.00000E+00        -0.29968E+04
 
   -0.45416E+04         0.34742E+04         0.00000E+00
    0.34742E+04        -0.55404E+04         0.00000E+00
    0.00000E+00         0.00000E+00        -0.30246E+04
 
   -0.43420E+04         0.36176E+04         0.00000E+00
    0.36176E+04        -0.57738E+04         0.00000E+00
    0.00000E+00         0.00000E+00        -0.30347E+04
 
   -0.41067E+04         0.37823E+04         0.00000E+00
    0.37823E+04        -0.59838E+04         0.00000E+00
    0.00000E+00         0.00000E+00        -0.30271E+04
 
   -0.38266E+04         0.39767E+04         0.00000E+00
    0.39767E+04        -0.61775E+04         0.00000E+00
    0.00000E+00         0.00000E+00        -0.30012E+04
 
   -0.34891E+04         0.42082E+04         0.00000E+00
    0.42082E+04        -0.63642E+04         0.00000E+00
    0.00000E+00         0.00000E+00        -0.29560E+04
 
   -0.30776E+04         0.44828E+04         0.00000E+00
    0.44828E+04        -0.65547E+04         0.00000E+00
    0.00000E+00         0.00000E+00        -0.28897E+04
 
    0.39544E+04        -0.18246E+03         0.00000E+00
   -0.18246E+03         0.80479E+00         0.00000E+00
    0.00000E+00         0.00000E+00         0.11866E+04
 
    0.26149E+04        -0.41783E+03         0.00000E+00
   -0.41783E+03        -0.41974E+01         0.00000E+00
    0.00000E+00         0.00000E+00         0.78322E+03
 
    0.13260E+04        -0.49573E+03         0.00000E+00
   -0.49573E+03        -0.34114E+02         0.00000E+00
    0.00000E+00         0.00000E+00         0.38757E+03
 
    0.12502E+03        -0.43697E+03         0.00000E+00
   -0.43697E+03        -0.10623E+03         0.00000E+00
    0.00000E+00         0.00000E+00         0.56367E+01
 
   -0.95923E+03        -0.26749E+03         0.00000E+00
   -0.26749E+03        -0.23215E+03         0.00000E+00
    0.00000E+00         0.00000E+00        -0.35742E+03
 
   -0.19078E+04        -0.15700E+02         0.00000E+00
   -0.15700E+02        -0.41717E+03         0.00000E+00
    0.00000E+00         0.00000E+00        -0.69749E+03
 
   -0.27116E+04         0.29026E+03         0.00000E+00
    0.29026E+03        -0.66047E+03         0.00000E+00
    0.00000E+00         0.00000E+00        -0.10116E+04
 
   -0.33703E+04         0.62478E+03         0.00000E+00
    0.62478E+03        -0.95616E+03         0.00000E+00
    0.00000E+00         0.00000E+00        -0.12979E+04
 
   -0.38908E+04         0.96633E+03         0.00000E+00
    0.96633E+03        -0.12947E+04         0.00000E+00
    0.00000E+00         0.00000E+00        -0.15556E+04
 
   -0.42847E+04         0.12984E+04         0.00000E+00
    0.12984E+04        -0.16643E+04         0.00000E+00
    0.00000E+00         0.00000E+00        -0.17847E+04
 
   -0.45667E+04         0.16095E+04         0.00000E+00
    0.16095E+04        -0.20527E+04         0.00000E+00
    0.00000E+00         0.00000E+00        -0.19858E+04
 
   -0.47524E+04         0.18930E+04         0.00000E+00
    0.18930E+04        -0.24479E+04         0.00000E+00
    0.00000E+00         0.00000E+00        -0.21601E+04
 
   -0.48571E+04         0.21465E+04         0.00000E+00
    0.21465E+04        -0.28393E+04         0.00000E+00
    0.00000E+00         0.00000E+00        -0.23089E+04
 
   -0.48947E+04         0.23707E+04         0.00000E+00
    0.23707E+04        -0.32182E+04         0.00000E+00
    0.00000E+00         0.00000E+00        -0.24339E+04
 
   -0.48768E+04         0.25693E+04         0.00000E+00
    0.25693E+04        -0.35779E+04         0.00000E+00
    0.00000E+00         0.00000E+00        -0.25364E+04
 
   -0.48127E+04         0.27475E+04         0.00000E+00
    0.27475E+04        -0.39137E+04         0.00000E+00
    0.00000E+00         0.00000E+00        -0.26179E+04
 
   -0.47087E+04         0.29117E+04         0.00000E+00
    0.29117E+04        -0.42231E+04         0.00000E+00
    0.00000E+00         0.00000E+00        -0.26795E+04
 
   -0.45684E+04         0.30694E+04         0.00000E+00
    0.30694E+04        -0.45055E+04         0.00000E+00
    0.00000E+00         0.00000E+00        -0.27222E+04
 
   -0.43924E+04         0.32279E+04         0.00000E+00
    0.32279E+04        -0.47622E+04         0.00000E+00
    0.00000E+00         0.00000E+00        -0.27464E+04
 
   -0.41782E+04         0.33948E+04         0.00000E+00
    0.33948E+04        -0.49961E+04         0.00000E+00
    0.00000E+00         0.00000E+00        -0.27523E+04
 
   -0.39208E+04         0.35772E+04         0.00000E+00
    0.35772E+04        -0.52119E+04         0.00000E+00
    0.00000E+00         0.00000E+00        -0.27398E+04
 
   -0.36116E+04         0.37817E+04         0.00000E+00
    0.37817E+04        -0.54160E+04         0.00000E+00
    0.00000E+00         0.00000E+00        -0.27083E+04
 
   -0.32390E+04         0.40136E+04         0.00000E+00
    0.40136E+04        -0.56164E+04         0.00000E+00
    0.00000E+00         0.00000E+00        -0.26566E+04
 
   -0.27882E+04         0.42772E+04         0.00000E+00
    0.42772E+04        -0.58231E+04         0.00000E+00
    0.00000E+00         0.00000E+00        -0.25834E+04
 
    0.36337E+04        -0.18041E+03         0.00000E+00
   -0.18041E+03         0.13691E+01         0.00000E+00
    0.00000E+00         0.00000E+00         0.10905E+04
 
    0.24494E+04        -0.42739E+03         0.00000E+00
   -0.42739E+03         0.81650E+00         0.00000E+00
    0.00000E+00         0.00000E+00         0.73506E+03
 
    0.13001E+04        -0.53497E+03         0.00000E+00
   -0.53497E+03        -0.16960E+02         0.00000E+00
    0.00000E+00         0.00000E+00         0.38495E+03
 
    0.21766E+03        -0.51957E+03         0.00000E+00
   -0.51957E+03        -0.66745E+02         0.00000E+00
    0.00000E+00         0.00000E+00         0.45275E+02
 
   -0.77268E+03        -0.40179E+03         0.00000E+00
   -0.40179E+03        -0.15905E+03         0.00000E+00
    0.00000E+00         0.00000E+00        -0.27952E+03
 
   -0.16531E+04        -0.20442E+03         0.00000E+00
   -0.20442E+03        -0.29952E+03         0.00000E+00
    0.00000E+00         0.00000E+00        -0.58579E+03
 
   -0.24135E+04         0.49506E+02         0.00000E+00
    0.49506E+02        -0.48902E+03         0.00000E+00
    0.00000E+00         0.00000E+00        -0.87076E+03
 
   -0.30508E+04         0.33846E+03         0.00000E+00
    0.33846E+03        -0.72424E+03         0.00000E+00
    0.00000E+00         0.00000E+00        -0.11325E+04
 
   -0.35679E+04         0.64372E+03         0.00000E+00
    0.64372E+03        -0.99862E+03         0.00000E+00
    0.00000E+00         0.00000E+00        -0.13699E+04
 
   -0.39719E+04         0.95022E+03         0.00000E+00
    0.95022E+03        -0.13035E+04         0.00000E+00
    0.00000E+00         0.00000E+00        -0.15826E+04
 
   -0.42732E+04         0.12468E+04         0.00000E+00
    0.12468E+04        -0.16293E+04         0.00000E+00
    0.00000E+00         0.00000E+00        -0.17707E+04
 
   -0.44832E+04         0.15262E+04         0.00000E+00
    0.15262E+04        -0.19662E+04         0.00000E+00
    0.00000E+00         0.00000E+00        -0.19348E+04
 
   -0.46136E+04         0.17847E+04         0.00000E+00
    0.17847E+04        -0.23054E+04         0.00000E+00
    0.00000E+00         0.00000E+00        -0.20757E+04
 
   -0.46756E+04         0.20213E+04         0.00000E+00
    0.20213E+04        -0.26390E+04         0.00000E+00
    0.00000E+00         0.00000E+00        -0.21944E+04
 
   -0.46787E+04         0.22379E+04         0.00000E+00
    0.22379E+04        -0.29608E+04         0.00000E+00
    0.00000E+00         0.00000E+00        -0.22919E+04
 
   -0.46305E+04         0.24376E+04         0.00000E+00
    0.24376E+04        -0.32664E+04         0.00000E+00
    0.00000E+00         0.00000E+00        -0.23691E+04
 
   -0.45365E+04         0.26252E+04         0.00000E+00
    0.26252E+04        -0.35531E+04         0.00000E+00
    0.00000E+00         0.00000E+00        -0.24269E+04
 
   -0.43996E+04         0.28061E+04         0.00000E+00
    0.28061E+04        -0.38198E+04         0.00000E+00
    0.00000E+00         0.00000E+00        -0.24658E+04
 
   -0.42202E+04         0.29861E+04         0.00000E+00
    0.29861E+04        -0.40672E+04         0.00000E+00
    0.00000E+00         0.00000E+00        -0.24862E+04
 
   -0.39963E+04         0.31710E+04         0.00000E+00
    0.31710E+04        -0.42975E+04         0.00000E+00
    0.00000E+00         0.00000E+00        -0.24882E+04
 
   -0.37230E+04         0.33663E+04         0.00000E+00
    0.33663E+04        -0.45149E+04         0.00000E+00
    0.00000E+00         0.00000E+00        -0.24714E+04
 
   -0.33927E+04         0.35769E+04         0.00000E+00
    0.35769E+04        -0.47246E+04         0.00000E+00
    0.00000E+00         0.00000E+00        -0.24352E+04
 
   -0.29951E+04         0.38065E+04         0.00000E+00
    0.38065E+04        -0.49338E+04         0.00000E+00
    0.00000E+00         0.00000E+00        -0.23787E+04
 
   -0.25169E+04         0.40576E+04         0.00000E+00
    0.40576E+04        -0.51514E+04         0.00000E+00
    0.00000E+00         0.00000E+00        -0.23005E+04
 
    0.33135E+04        -0.17690E+03         0.00000E+00
   -0.17690E+03         0.18453E+01         0.00000E+00
    0.00000E+00         0.00000E+00         0.99460E+03
 
    0.22663E+04        -0.43004E+03         0.00000E+00
   -0.43004E+03         0.49241E+01         0.00000E+00
    0.00000E+00         0.00000E+00         0.68137E+03
 
    0.12418E+04        -0.55911E+03         0.00000E+00
   -0.55911E+03        -0.30894E+01         0.00000E+00
    0.00000E+00         0.00000E+00         0.37162E+03
 
    0.26735E+03        -0.57722E+03         0.00000E+00
   -0.57722E+03        -0.34987E+02         0.00000E+00
    0.00000E+00         0.00000E+00         0.69708E+02
 
   -0.63472E+03        -0.50085E+03         0.00000E+00
   -0.50085E+03        -0.10027E+03         0.00000E+00
    0.00000E+00         0.00000E+00        -0.22049E+03
 
   -0.14478E+04        -0.34842E+03         0.00000E+00
   -0.34842E+03        -0.20465E+03         0.00000E+00
    0.00000E+00         0.00000E+00        -0.49574E+03
 
   -0.21614E+04        -0.13888E+03         0.00000E+00
   -0.13888E+03        -0.35008E+03         0.00000E+00
    0.00000E+00         0.00000E+00        -0.75344E+03
 
   -0.27706E+04         0.10970E+03         0.00000E+00
    0.10970E+03        -0.53505E+03         0.00000E+00
    0.00000E+00         0.00000E+00        -0.99169E+03
 
   -0.32755E+04         0.38113E+03         0.00000E+00
    0.38113E+03        -0.75526E+03         0.00000E+00
    0.00000E+00         0.00000E+00        -0.12092E+04
 
   -0.36800E+04         0.66190E+03         0.00000E+00
    0.66190E+03        -0.10045E+04         0.00000E+00
    0.00000E+00         0.00000E+00        -0.14053E+04
 
   -0.39907E+04         0.94147E+03         0.00000E+00
    0.94147E+03        -0.12753E+04         0.00000E+00
    0.00000E+00         0.00000E+00        -0.15798E+04
 
   -0.42160E+04         0.12124E+04         0.00000E+00
    0.12124E+04        -0.15600E+04         0.00000E+00
    0.00000E+00         0.00000E+00        -0.17328E+04
 
   -0.43644E+04         0.14702E+04         0.00000E+00
    0.14702E+04        -0.18512E+04         0.00000E+00
    0.00000E+00         0.00000E+00        -0.18647E+04
 
   -0.44447E+04         0.17127E+04         0.00000E+00
    0.17127E+04        -0.21422E+04         0.00000E+00
    0.00000E+00         0.00000E+00        -0.19761E+04
 
   -0.44642E+04         0.19403E+04         0.00000E+00
    0.19403E+04        -0.24275E+04         0.00000E+00
    0.00000E+00         0.00000E+00        -0.20675E+04
 
   -0.44293E+04         0.21546E+04         0.00000E+00
    0.21546E+04        -0.27029E+04         0.00000E+00
    0.00000E+00         0.00000E+00        -0.21396E+04
 
   -0.43441E+04         0.23587E+04         0.00000E+00
    0.23587E+04        -0.29657E+04         0.00000E+00
    0.00000E+00         0.00000E+00        -0.21930E+04
 
   -0.42113E+04         0.25564E+04         0.00000E+00
    0.25564E+04        -0.32148E+04         0.00000E+00
    0.00000E+00         0.00000E+00        -0.22278E+04
 
   -0.40310E+04         0.27520E+04         0.00000E+00
    0.27520E+04        -0.34504E+04         0.00000E+00
    0.00000E+00         0.00000E+00        -0.22444E+04
 
   -0.38011E+04         0.29497E+04         0.00000E+00
    0.29497E+04        -0.36742E+04         0.00000E+00
    0.00000E+00         0.00000E+00        -0.22426E+04
 
   -0.35175E+04         0.31535E+04         0.00000E+00
    0.31535E+04        -0.38895E+04         0.00000E+00
    0.00000E+00         0.00000E+00        -0.22221E+04
 
   -0.31733E+04         0.33667E+04         0.00000E+00
    0.33667E+04        -0.41011E+04         0.00000E+00
    0.00000E+00         0.00000E+00        -0.21823E+04
 
   -0.27594E+04         0.35916E+04         0.00000E+00
    0.35916E+04        -0.43150E+04         0.00000E+00
    0.00000E+00         0.00000E+00        -0.21223E+04
 
   -0.22642E+04         0.38289E+04         0.00000E+00
    0.38289E+04        -0.45388E+04         0.00000E+00
    0.00000E+00         0.00000E+00        -0.20409E+04
 
    0.29973E+04        -0.17217E+03         0.00000E+00
   -0.17217E+03         0.22415E+01         0.00000E+00
    0.00000E+00         0.00000E+00         0.89987E+03
 
    0.20719E+04        -0.42709E+03         0.00000E+00
   -0.42709E+03         0.82788E+01         0.00000E+00
    0.00000E+00         0.00000E+00         0.62406E+03
 
    0.11593E+04        -0.57112E+03         0.00000E+00
   -0.57112E+03         0.81422E+01         0.00000E+00
    0.00000E+00         0.00000E+00         0.35024E+03
 
    0.28331E+03        -0.61481E+03         0.00000E+00
   -0.61481E+03        -0.93509E+01         0.00000E+00
    0.00000E+00         0.00000E+00         0.82186E+02
 
   -0.53620E+03        -0.57142E+03         0.00000E+00
   -0.57142E+03        -0.52802E+02         0.00000E+00
    0.00000E+00         0.00000E+00        -0.17670E+03
 
   -0.12838E+04        -0.45597E+03         0.00000E+00
   -0.45597E+03        -0.12785E+03         0.00000E+00
    0.00000E+00         0.00000E+00        -0.42350E+03
 
   -0.19490E+04        -0.28405E+03         0.00000E+00
   -0.28405E+03        -0.23709E+03         0.00000E+00
    0.00000E+00         0.00000E+00        -0.65583E+03
 
   -0.25257E+04        -0.70892E+02         0.00000E+00
   -0.70892E+02        -0.38029E+03         0.00000E+00
    0.00000E+00         0.00000E+00        -0.87181E+03
 
   -0.30121E+04         0.16958E+03         0.00000E+00
    0.16958E+03        -0.55488E+03         0.00000E+00
    0.00000E+00         0.00000E+00        -0.10701E+04
 
   -0.34096E+04         0.42536E+03         0.00000E+00
    0.42536E+03        -0.75646E+03         0.00000E+00
    0.00000E+00         0.00000E+00        -0.12498E+04
 
   -0.37221E+04         0.68669E+03         0.00000E+00
    0.68669E+03        -0.97951E+03         0.00000E+00
    0.00000E+00         0.00000E+00        -0.14105E+04
 
   -0.39551E+04         0.94628E+03         0.00000E+00
    0.94628E+03        -0.12180E+04         0.00000E+00
    0.00000E+00         0.00000E+00        -0.15519E+04
 
   -0.41149E+04         0.11992E+04         0.00000E+00
    0.11992E+04        -0.14659E+04         0.00000E+00
    0.00000E+00         0.00000E+00        -0.16742E+04
 
   -0.42078E+04         0.14425E+04         0.00000E+00
    0.14425E+04        -0.17176E+04         0.00000E+00
    0.00000E+00         0.00000E+00        -0.17776E+04
 
   -0.42397E+04         0.16755E+04         0.00000E+00
    0.16755E+04        -0.19684E+04         0.00000E+00
    0.00000E+00         0.00000E+00        -0.18624E+04
 
   -0.42152E+04         0.18985E+04         0.00000E+00
    0.18985E+04        -0.22146E+04         0.00000E+00
    0.00000E+00         0.00000E+00        -0.19289E+04
 
   -0.41379E+04         0.21132E+04         0.00000E+00
    0.21132E+04        -0.24536E+04         0.00000E+00
    0.00000E+00         0.00000E+00        -0.19774E+04
 
   -0.40094E+04         0.23222E+04         0.00000E+00
    0.23222E+04        -0.26842E+04         0.00000E+00
    0.00000E+00         0.00000E+00        -0.20081E+04
 
   -0.38299E+04         0.25281E+04         0.00000E+00
    0.25281E+04        -0.29063E+04         0.00000E+00
    0.00000E+00         0.00000E+00        -0.20209E+04
 
   -0.35974E+04         0.27339E+04         0.00000E+00
    0.27339E+04        -0.31214E+04         0.00000E+00
    0.00000E+00         0.00000E+00        -0.20156E+04
 
   -0.33081E+04         0.29422E+04         0.00000E+00
    0.29422E+04        -0.33321E+04         0.00000E+00
    0.00000E+00         0.00000E+00        -0.19920E+04
 
   -0.29561E+04         0.31549E+04         0.00000E+00
    0.31549E+04        -0.35423E+04         0.00000E+00
    0.00000E+00         0.00000E+00        -0.19495E+04
 
   -0.25335E+04         0.33729E+04         0.00000E+00
    0.33729E+04        -0.37573E+04         0.00000E+00
    0.00000E+00         0.00000E+00        -0.18872E+04
 
   -0.20303E+04         0.35958E+04         0.00000E+00
    0.35958E+04        -0.39834E+04         0.00000E+00
    0.00000E+00         0.00000E+00        -0.18041E+04
 
    0.26880E+04        -0.16644E+03         0.00000E+00
   -0.16644E+03         0.25647E+01         0.00000E+00
    0.00000E+00         0.00000E+00         0.80716E+03
 
    0.18712E+04        -0.41960E+03         0.00000E+00
   -0.41960E+03         0.10994E+02         0.00000E+00
    0.00000E+00         0.00000E+00         0.56465E+03
 
    0.10592E+04        -0.57336E+03         0.00000E+00
   -0.57336E+03         0.17205E+02         0.00000E+00
    0.00000E+00         0.00000E+00         0.32293E+03
 
    0.27303E+03        -0.63621E+03         0.00000E+00
   -0.63621E+03         0.11327E+02         0.00000E+00
    0.00000E+00         0.00000E+00         0.85308E+02
 
   -0.46955E+03        -0.61891E+03         0.00000E+00
   -0.61891E+03        -0.14456E+02         0.00000E+00
    0.00000E+00         0.00000E+00        -0.14520E+03
 
   -0.11543E+04        -0.53371E+03         0.00000E+00
   -0.53371E+03        -0.65595E+02         0.00000E+00
    0.00000E+00         0.00000E+00        -0.36596E+03
 
   -0.17708E+04        -0.39355E+03         0.00000E+00
   -0.39355E+03        -0.14509E+03         0.00000E+00
    0.00000E+00         0.00000E+00        -0.57476E+03
 
   -0.23124E+04        -0.21123E+03         0.00000E+00
   -0.21123E+03        -0.25363E+03         0.00000E+00
    0.00000E+00         0.00000E+00        -0.76980E+03
 
   -0.27758E+04         0.12645E+01         0.00000E+00
    0.12645E+01        -0.38988E+03         0.00000E+00
    0.00000E+00         0.00000E+00        -0.94970E+03
 
   -0.31607E+04         0.23333E+03         0.00000E+00
    0.23333E+03        -0.55091E+03         0.00000E+00
    0.00000E+00         0.00000E+00        -0.11135E+04
 
   -0.34688E+04         0.47609E+03         0.00000E+00
    0.47609E+03        -0.73271E+03         0.00000E+00
    0.00000E+00         0.00000E+00        -0.12604E+04
 
   -0.37035E+04         0.72252E+03         0.00000E+00
    0.72252E+03        -0.93065E+03         0.00000E+00
    0.00000E+00         0.00000E+00        -0.13903E+04
 
   -0.38691E+04         0.96753E+03         0.00000E+00
    0.96753E+03        -0.11400E+04         0.00000E+00
    0.00000E+00         0.00000E+00        -0.15027E+04
 
   -0.39700E+04         0.12078E+04         0.00000E+00
    0.12078E+04        -0.13561E+04         0.00000E+00
    0.00000E+00         0.00000E+00        -0.15978E+04
 
   -0.40104E+04         0.14416E+04         0.00000E+00
    0.14416E+04        -0.15750E+04         0.00000E+00
    0.00000E+00         0.00000E+00        -0.16756E+04
 
   -0.39939E+04         0.16684E+04         0.00000E+00
    0.16684E+04        -0.17935E+04         0.00000E+00
    0.00000E+00         0.00000E+00        -0.17362E+04
 
   -0.39230E+04         0.18888E+04         0.00000E+00
    0.18888E+04        -0.20094E+04         0.00000E+00
    0.00000E+00         0.00000E+00        -0.17797E+04
 
   -0.37989E+04         0.21041E+04         0.00000E+00
    0.21041E+04        -0.22213E+04         0.00000E+00
    0.00000E+00         0.00000E+00        -0.18061E+04
 
   -0.36216E+04         0.23158E+04         0.00000E+00
    0.23158E+04        -0.24292E+04         0.00000E+00
    0.00000E+00         0.00000E+00        -0.18152E+04
 
   -0.33891E+04         0.25256E+04         0.00000E+00
    0.25256E+04        -0.26341E+04         0.00000E+00
    0.00000E+00         0.00000E+00        -0.18069E+04
 
   -0.30981E+04         0.27349E+04         0.00000E+00
    0.27349E+04        -0.28381E+04         0.00000E+00
    0.00000E+00         0.00000E+00        -0.17808E+04
 
   -0.27435E+04         0.29444E+04         0.00000E+00
    0.29444E+04        -0.30445E+04         0.00000E+00
    0.00000E+00         0.00000E+00        -0.17364E+04
 
   -0.23186E+04         0.31539E+04         0.00000E+00
    0.31539E+04        -0.32576E+04         0.00000E+00
    0.00000E+00         0.00000E+00        -0.16729E+04
 
   -0.18150E+04         0.33619E+04         0.00000E+00
    0.33619E+04        -0.34827E+04         0.00000E+00
    0.00000E+00         0.00000E+00        -0.15893E+04
 
    0.23877E+04        -0.15989E+03         0.00000E+00
   -0.15989E+03         0.28210E+01         0.00000E+00
    0.00000E+00         0.00000E+00         0.71716E+03
 
    0.16681E+04        -0.40846E+03         0.00000E+00
   -0.40846E+03         0.13158E+02         0.00000E+00
    0.00000E+00         0.00000E+00         0.50437E+03
 
    0.94685E+03        -0.56773E+03         0.00000E+00
   -0.56773E+03         0.24453E+02         0.00000E+00
    0.00000E+00         0.00000E+00         0.29139E+03
 
    0.24264E+03        -0.64455E+03         0.00000E+00
   -0.64455E+03         0.27920E+02         0.00000E+00
    0.00000E+00         0.00000E+00         0.81167E+02
 
   -0.42847E+03        -0.64765E+03         0.00000E+00
   -0.64765E+03         0.16430E+02         0.00000E+00
    0.00000E+00         0.00000E+00        -0.12361E+03
 
   -0.10533E+04        -0.58708E+03         0.00000E+00
   -0.58708E+03        -0.15238E+02         0.00000E+00
    0.00000E+00         0.00000E+00        -0.32056E+03
 
   -0.16218E+04        -0.47360E+03         0.00000E+00
   -0.47360E+03        -0.70316E+02         0.00000E+00
    0.00000E+00         0.00000E+00        -0.50763E+03
 
   -0.21268E+04        -0.31800E+03         0.00000E+00
   -0.31800E+03        -0.15012E+03         0.00000E+00
    0.00000E+00         0.00000E+00        -0.68309E+03
 
   -0.25643E+04        -0.13057E+03         0.00000E+00
   -0.13057E+03        -0.25424E+03         0.00000E+00
    0.00000E+00         0.00000E+00        -0.84558E+03
 
   -0.29325E+04         0.79361E+02         0.00000E+00
    0.79361E+02        -0.38092E+03         0.00000E+00
    0.00000E+00         0.00000E+00        -0.99403E+03
 
   -0.32316E+04         0.30376E+03         0.00000E+00
    0.30376E+03        -0.52732E+03         0.00000E+00
    0.00000E+00         0.00000E+00        -0.11277E+04
 
   -0.34632E+04         0.53602E+03         0.00000E+00
    0.53602E+03        -0.69001E+03         0.00000E+00
    0.00000E+00         0.00000E+00        -0.12460E+04
 
   -0.36300E+04         0.77108E+03         0.00000E+00
    0.77108E+03        -0.86529E+03         0.00000E+00
    0.00000E+00         0.00000E+00        -0.13486E+04
 
   -0.37348E+04         0.10053E+04         0.00000E+00
    0.10053E+04        -0.10495E+04         0.00000E+00
    0.00000E+00         0.00000E+00        -0.14353E+04
 
   -0.37806E+04         0.12364E+04         0.00000E+00
    0.12364E+04        -0.12394E+04         0.00000E+00
    0.00000E+00         0.00000E+00        -0.15060E+04
 
   -0.37698E+04         0.14630E+04         0.00000E+00
    0.14630E+04        -0.14323E+04         0.00000E+00
    0.00000E+00         0.00000E+00        -0.15606E+04
 
   -0.37041E+04         0.16850E+04         0.00000E+00
    0.16850E+04        -0.16261E+04         0.00000E+00
    0.00000E+00         0.00000E+00        -0.15991E+04
 
   -0.35844E+04         0.19025E+04         0.00000E+00
    0.19025E+04        -0.18198E+04         0.00000E+00
    0.00000E+00         0.00000E+00        -0.16212E+04
 
   -0.34101E+04         0.21161E+04         0.00000E+00
    0.21161E+04        -0.20131E+04         0.00000E+00
    0.00000E+00         0.00000E+00        -0.16270E+04
 
   -0.31798E+04         0.23264E+04         0.00000E+00
    0.23264E+04        -0.22069E+04         0.00000E+00
    0.00000E+00         0.00000E+00        -0.16160E+04
 
   -0.28904E+04         0.25337E+04         0.00000E+00
    0.25337E+04        -0.24027E+04         0.00000E+00
    0.00000E+00         0.00000E+00        -0.15879E+04
 
   -0.25376E+04         0.27378E+04         0.00000E+00
    0.27378E+04        -0.26033E+04         0.00000E+00
    0.00000E+00         0.00000E+00        -0.15423E+04
 
   -0.21157E+04         0.29375E+04         0.00000E+00
    0.29375E+04        -0.28123E+04         0.00000E+00
    0.00000E+00         0.00000E+00        -0.14784E+04
 
   -0.16180E+04         0.31304E+04         0.00000E+00
    0.31304E+04        -0.30338E+04         0.00000E+00
    0.00000E+00         0.00000E+00        -0.13955E+04
 
    0.20984E+04        -0.15272E+03         0.00000E+00
   -0.15272E+03         0.30163E+01         0.00000E+00
    0.00000E+00         0.00000E+00         0.63043E+03
 
    0.14658E+04        -0.39444E+03         0.00000E+00
   -0.39444E+03         0.14843E+02         0.00000E+00
    0.00000E+00         0.00000E+00         0.44419E+03
 
    0.82649E+03        -0.55582E+03         0.00000E+00
   -0.55582E+03         0.30164E+02         0.00000E+00
    0.00000E+00         0.00000E+00         0.25700E+03
 
    0.19711E+03        -0.64238E+03         0.00000E+00
   -0.64238E+03         0.41102E+02         0.00000E+00
    0.00000E+00         0.00000E+00         0.71464E+02
 
   -0.40776E+03        -0.66119E+03         0.00000E+00
   -0.66119E+03         0.41131E+02         0.00000E+00
    0.00000E+00         0.00000E+00        -0.10999E+03
 
   -0.97590E+03        -0.62055E+03         0.00000E+00
   -0.62055E+03         0.25281E+02         0.00000E+00
    0.00000E+00         0.00000E+00        -0.28518E+03
 
   -0.14976E+04        -0.52940E+03         0.00000E+00
   -0.52940E+03        -0.97911E+01         0.00000E+00
    0.00000E+00         0.00000E+00        -0.45222E+03
 
   -0.19658E+04        -0.39685E+03         0.00000E+00
   -0.39685E+03        -0.65834E+02         0.00000E+00
    0.00000E+00         0.00000E+00        -0.60948E+03
 
   -0.23755E+04        -0.23174E+03         0.00000E+00
   -0.23174E+03        -0.14315E+03         0.00000E+00
    0.00000E+00         0.00000E+00        -0.75560E+03
 
   -0.27241E+04        -0.42255E+02         0.00000E+00
   -0.42255E+02        -0.24084E+03         0.00000E+00
    0.00000E+00         0.00000E+00        -0.88949E+03
 
   -0.30107E+04         0.16437E+03         0.00000E+00
    0.16437E+03        -0.35704E+03         0.00000E+00
    0.00000E+00         0.00000E+00        -0.10103E+04
 
   -0.32355E+04         0.38201E+03         0.00000E+00
    0.38201E+03        -0.48931E+03         0.00000E+00
    0.00000E+00         0.00000E+00        -0.11174E+04
 
   -0.33998E+04         0.60572E+03         0.00000E+00
    0.60572E+03        -0.63484E+03         0.00000E+00
    0.00000E+00         0.00000E+00        -0.12104E+04
 
   -0.35052E+04         0.83172E+03         0.00000E+00
    0.83172E+03        -0.79080E+03         0.00000E+00
    0.00000E+00         0.00000E+00        -0.12888E+04
 
   -0.35536E+04         0.10573E+04         0.00000E+00
    0.10573E+04        -0.95458E+03         0.00000E+00
    0.00000E+00         0.00000E+00        -0.13525E+04
 
   -0.35465E+04         0.12807E+04         0.00000E+00
    0.12807E+04        -0.11239E+04         0.00000E+00
    0.00000E+00         0.00000E+00        -0.14011E+04
 
   -0.34850E+04         0.15008E+04         0.00000E+00
    0.15008E+04        -0.12972E+04         0.00000E+00
    0.00000E+00         0.00000E+00        -0.14347E+04
 
   -0.33693E+04         0.17171E+04         0.00000E+00
    0.17171E+04        -0.14734E+04         0.00000E+00
    0.00000E+00         0.00000E+00        -0.14528E+04
 
   -0.31990E+04         0.19293E+04         0.00000E+00
    0.19293E+04        -0.16523E+04         0.00000E+00
    0.00000E+00         0.00000E+00        -0.14554E+04
 
   -0.29726E+04         0.21371E+04         0.00000E+00
    0.21371E+04        -0.18345E+04         0.00000E+00
    0.00000E+00         0.00000E+00        -0.14421E+04
 
   -0.26874E+04         0.23400E+04         0.00000E+00
    0.23400E+04        -0.20212E+04         0.00000E+00
    0.00000E+00         0.00000E+00        -0.14126E+04
 
   -0.23399E+04         0.25368E+04         0.00000E+00
    0.25368E+04        -0.22146E+04         0.00000E+00
    0.00000E+00         0.00000E+00        -0.13663E+04
 
   -0.19254E+04         0.27258E+04         0.00000E+00
    0.27258E+04        -0.24174E+04         0.00000E+00
    0.00000E+00         0.00000E+00        -0.13029E+04
 
   -0.14386E+04         0.29037E+04         0.00000E+00
    0.29037E+04        -0.26332E+04         0.00000E+00
    0.00000E+00         0.00000E+00        -0.12216E+04
 
    0.18215E+04        -0.14507E+03         0.00000E+00
   -0.14507E+03         0.31565E+01         0.00000E+00
    0.00000E+00         0.00000E+00         0.54739E+03
 
    0.12669E+04        -0.37817E+03         0.00000E+00
   -0.37817E+03         0.16110E+02         0.00000E+00
    0.00000E+00         0.00000E+00         0.38491E+03
 
    0.70161E+03        -0.53895E+03         0.00000E+00
   -0.53895E+03         0.34563E+02         0.00000E+00
    0.00000E+00         0.00000E+00         0.22085E+03
 
    0.14053E+03        -0.63180E+03         0.00000E+00
   -0.63180E+03         0.51410E+02         0.00000E+00
    0.00000E+00         0.00000E+00         0.57582E+02
 
   -0.40307E+03        -0.66249E+03         0.00000E+00
   -0.66249E+03         0.60658E+02         0.00000E+00
    0.00000E+00         0.00000E+00        -0.10272E+03
 
   -0.91785E+03        -0.63783E+03         0.00000E+00
   -0.63783E+03         0.57592E+02         0.00000E+00
    0.00000E+00         0.00000E+00        -0.25808E+03
 
   -0.13946E+04        -0.56528E+03         0.00000E+00
   -0.56528E+03         0.38840E+02         0.00000E+00
    0.00000E+00         0.00000E+00        -0.40672E+03
 
   -0.18260E+04        -0.45255E+03         0.00000E+00
   -0.45255E+03         0.23566E+01         0.00000E+00
    0.00000E+00         0.00000E+00        -0.54710E+03
 
   -0.22071E+04        -0.30724E+03         0.00000E+00
   -0.30724E+03        -0.52678E+02         0.00000E+00
    0.00000E+00         0.00000E+00        -0.67793E+03
 
   -0.25343E+04        -0.13650E+03         0.00000E+00
   -0.13650E+03        -0.12603E+03         0.00000E+00
    0.00000E+00         0.00000E+00        -0.79811E+03
 
   -0.28059E+04         0.53171E+02         0.00000E+00
    0.53171E+02        -0.21663E+03         0.00000E+00
    0.00000E+00         0.00000E+00        -0.90675E+03
 
   -0.30210E+04         0.25612E+03         0.00000E+00
    0.25612E+03        -0.32280E+03         0.00000E+00
    0.00000E+00         0.00000E+00        -0.10032E+04
 
   -0.31800E+04         0.46762E+03         0.00000E+00
    0.46762E+03        -0.44252E+03         0.00000E+00
    0.00000E+00         0.00000E+00        -0.10868E+04
 
   -0.32834E+04         0.68385E+03         0.00000E+00
    0.68385E+03        -0.57366E+03         0.00000E+00
    0.00000E+00         0.00000E+00        -0.11571E+04
 
   -0.33322E+04         0.90185E+03         0.00000E+00
    0.90185E+03        -0.71417E+03         0.00000E+00
    0.00000E+00         0.00000E+00        -0.12139E+04
 
   -0.33271E+04         0.11194E+04         0.00000E+00
    0.11194E+04        -0.86227E+03         0.00000E+00
    0.00000E+00         0.00000E+00        -0.12568E+04
 
   -0.32687E+04         0.13350E+04         0.00000E+00
    0.13350E+04        -0.10166E+04         0.00000E+00
    0.00000E+00         0.00000E+00        -0.12856E+04
 
   -0.31569E+04         0.15473E+04         0.00000E+00
    0.15473E+04        -0.11763E+04         0.00000E+00
    0.00000E+00         0.00000E+00        -0.13000E+04
 
   -0.29910E+04         0.17554E+04         0.00000E+00
    0.17554E+04        -0.13412E+04         0.00000E+00
    0.00000E+00         0.00000E+00        -0.12997E+04
 
   -0.27698E+04         0.19583E+04         0.00000E+00
    0.19583E+04        -0.15116E+04         0.00000E+00
    0.00000E+00         0.00000E+00        -0.12844E+04
 
   -0.24910E+04         0.21548E+04         0.00000E+00
    0.21548E+04        -0.16885E+04         0.00000E+00
    0.00000E+00         0.00000E+00        -0.12538E+04
 
   -0.21516E+04         0.23430E+04         0.00000E+00
    0.23430E+04        -0.18737E+04         0.00000E+00
    0.00000E+00         0.00000E+00        -0.12076E+04
 
   -0.17480E+04         0.25206E+04         0.00000E+00
    0.25206E+04        -0.20691E+04         0.00000E+00
    0.00000E+00         0.00000E+00        -0.11451E+04
 
   -0.12760E+04         0.26839E+04         0.00000E+00
    0.26839E+04        -0.22775E+04         0.00000E+00
    0.00000E+00         0.00000E+00        -0.10661E+04
 
    0.15580E+04        -0.13709E+03         0.00000E+00
   -0.13709E+03         0.32472E+01         0.00000E+00
    0.00000E+00         0.00000E+00         0.46837E+03
 
    0.10735E+04        -0.36020E+03         0.00000E+00
   -0.36020E+03         0.17012E+02         0.00000E+00
    0.00000E+00         0.00000E+00         0.32714E+03
 
    0.57503E+03        -0.51821E+03         0.00000E+00
   -0.51821E+03         0.37838E+02         0.00000E+00
    0.00000E+00         0.00000E+00         0.18386E+03
 
    0.76234E+02        -0.61458E+03         0.00000E+00
   -0.61458E+03         0.59283E+02         0.00000E+00
    0.00000E+00         0.00000E+00         0.40655E+02
 
   -0.41082E+03        -0.65397E+03         0.00000E+00
   -0.65397E+03         0.75830E+02         0.00000E+00
    0.00000E+00         0.00000E+00        -0.10050E+03
 
   -0.87562E+03        -0.64200E+03         0.00000E+00
   -0.64200E+03         0.83016E+02         0.00000E+00
    0.00000E+00         0.00000E+00        -0.23778E+03
 
   -0.13093E+04        -0.58489E+03         0.00000E+00
   -0.58489E+03         0.77492E+02         0.00000E+00
    0.00000E+00         0.00000E+00        -0.36956E+03
 
   -0.17050E+04        -0.48916E+03         0.00000E+00
   -0.48916E+03         0.57024E+02         0.00000E+00
    0.00000E+00         0.00000E+00        -0.49438E+03
 
   -0.20571E+04        -0.36135E+03         0.00000E+00
   -0.36135E+03         0.20413E+02         0.00000E+00
    0.00000E+00         0.00000E+00        -0.61099E+03
 
   -0.23618E+04        -0.20772E+03         0.00000E+00
   -0.20772E+03        -0.32624E+02         0.00000E+00
    0.00000E+00         0.00000E+00        -0.71832E+03
 
   -0.26166E+04        -0.34073E+02         0.00000E+00
   -0.34073E+02        -0.10162E+03         0.00000E+00
    0.00000E+00         0.00000E+00        -0.81547E+03
 
   -0.28201E+04         0.15440E+03         0.00000E+00
    0.15440E+03        -0.18556E+03         0.00000E+00
    0.00000E+00         0.00000E+00        -0.90170E+03
 
   -0.29716E+04         0.35322E+03         0.00000E+00
    0.35322E+03        -0.28305E+03         0.00000E+00
    0.00000E+00         0.00000E+00        -0.97639E+03
 
   -0.30709E+04         0.55861E+03         0.00000E+00
    0.55861E+03        -0.39255E+03         0.00000E+00
    0.00000E+00         0.00000E+00        -0.10390E+04
 
   -0.31183E+04         0.76748E+03         0.00000E+00
    0.76748E+03        -0.51251E+03         0.00000E+00
    0.00000E+00         0.00000E+00        -0.10892E+04
 
   -0.31139E+04         0.97734E+03         0.00000E+00
    0.97734E+03        -0.64156E+03         0.00000E+00
    0.00000E+00         0.00000E+00        -0.11266E+04
 
   -0.30577E+04         0.11862E+04         0.00000E+00
    0.11862E+04        -0.77863E+03         0.00000E+00
    0.00000E+00         0.00000E+00        -0.11509E+04
 
   -0.29495E+04         0.13923E+04         0.00000E+00
    0.13923E+04        -0.92301E+03         0.00000E+00
    0.00000E+00         0.00000E+00        -0.11618E+04
 
   -0.27885E+04         0.15942E+04         0.00000E+00
    0.15942E+04        -0.10745E+04         0.00000E+00
    0.00000E+00         0.00000E+00        -0.11589E+04
 
   -0.25735E+04         0.17903E+04         0.00000E+00
    0.17903E+04        -0.12332E+04         0.00000E+00
    0.00000E+00         0.00000E+00        -0.11420E+04
 
   -0.23027E+04         0.19788E+04         0.00000E+00
    0.19788E+04        -0.14001E+04         0.00000E+00
    0.00000E+00         0.00000E+00        -0.11108E+04
 
   -0.19736E+04         0.21574E+04         0.00000E+00
    0.21574E+04        -0.15762E+04         0.00000E+00
    0.00000E+00         0.00000E+00        -0.10650E+04
 
   -0.15835E+04         0.23232E+04         0.00000E+00
    0.23232E+04        -0.17633E+04         0.00000E+00
    0.00000E+00         0.00000E+00        -0.10040E+04
 
   -0.11293E+04         0.24724E+04         0.00000E+00
    0.24724E+04        -0.19631E+04         0.00000E+00
    0.00000E+00         0.00000E+00        -0.92772E+03
 
    0.13087E+04        -0.12891E+03         0.00000E+00
   -0.12891E+03         0.32940E+01         0.00000E+00
    0.00000E+00         0.00000E+00         0.39360E+03
 
    0.88699E+03        -0.34102E+03         0.00000E+00
   -0.34102E+03         0.17598E+02         0.00000E+00
    0.00000E+00         0.00000E+00         0.27138E+03
 
    0.44898E+03        -0.49455E+03         0.00000E+00
   -0.49455E+03         0.40151E+02         0.00000E+00
    0.00000E+00         0.00000E+00         0.14674E+03
 
    0.69425E+01        -0.59219E+03         0.00000E+00
   -0.59219E+03         0.65091E+02         0.00000E+00
    0.00000E+00         0.00000E+00         0.21610E+02
 
   -0.42804E+03        -0.63769E+03         0.00000E+00
   -0.63769E+03         0.87326E+02         0.00000E+00
    0.00000E+00         0.00000E+00        -0.10221E+03
 
   -0.84618E+03        -0.63565E+03         0.00000E+00
   -0.63565E+03         0.10264E+03         0.00000E+00
    0.00000E+00         0.00000E+00        -0.22306E+03
 
   -0.12392E+04        -0.59129E+03         0.00000E+00
   -0.59129E+03         0.10775E+03         0.00000E+00
    0.00000E+00         0.00000E+00        -0.33942E+03
 
   -0.16001E+04        -0.51011E+03         0.00000E+00
   -0.51011E+03         0.10030E+03         0.00000E+00
    0.00000E+00         0.00000E+00        -0.44994E+03
 
   -0.19235E+04        -0.39775E+03         0.00000E+00
   -0.39775E+03         0.78821E+02         0.00000E+00
    0.00000E+00         0.00000E+00        -0.55341E+03
 
   -0.22053E+04        -0.25967E+03         0.00000E+00
   -0.25967E+03         0.42640E+02         0.00000E+00
    0.00000E+00         0.00000E+00        -0.64878E+03
 
   -0.24423E+04        -0.10107E+03         0.00000E+00
   -0.10107E+03        -0.82569E+01         0.00000E+00
    0.00000E+00         0.00000E+00        -0.73518E+03
 
   -0.26327E+04         0.73320E+02         0.00000E+00
    0.73320E+02        -0.73368E+02         0.00000E+00
    0.00000E+00         0.00000E+00        -0.81183E+03
 
   -0.27751E+04         0.25929E+03         0.00000E+00
    0.25929E+03        -0.15183E+03         0.00000E+00
    0.00000E+00         0.00000E+00        -0.87809E+03
 
   -0.28689E+04         0.45316E+03         0.00000E+00
    0.45316E+03        -0.24260E+03         0.00000E+00
    0.00000E+00         0.00000E+00        -0.93343E+03
 
   -0.29134E+04         0.65179E+03         0.00000E+00
    0.65179E+03        -0.34455E+03         0.00000E+00
    0.00000E+00         0.00000E+00        -0.97739E+03
 
   -0.29086E+04         0.85250E+03         0.00000E+00
    0.85250E+03        -0.45667E+03         0.00000E+00
    0.00000E+00         0.00000E+00        -0.10096E+04
 
   -0.28540E+04         0.10530E+04         0.00000E+00
    0.10530E+04        -0.57812E+03         0.00000E+00
    0.00000E+00         0.00000E+00        -0.10296E+04
 
   -0.27491E+04         0.12512E+04         0.00000E+00
    0.12512E+04        -0.70834E+03         0.00000E+00
    0.00000E+00         0.00000E+00        -0.10372E+04
 
   -0.25933E+04         0.14452E+04         0.00000E+00
    0.14452E+04        -0.84712E+03         0.00000E+00
    0.00000E+00         0.00000E+00        -0.10321E+04
 
   -0.23852E+04         0.16330E+04         0.00000E+00
    0.16330E+04        -0.99460E+03         0.00000E+00
    0.00000E+00         0.00000E+00        -0.10140E+04
 
   -0.21236E+04         0.18124E+04         0.00000E+00
    0.18124E+04        -0.11513E+04         0.00000E+00
    0.00000E+00         0.00000E+00        -0.98247E+03
 
   -0.18065E+04         0.19807E+04         0.00000E+00
    0.19807E+04        -0.13181E+04         0.00000E+00
    0.00000E+00         0.00000E+00        -0.93737E+03
 
   -0.14319E+04         0.21347E+04         0.00000E+00
    0.21347E+04        -0.14960E+04         0.00000E+00
    0.00000E+00         0.00000E+00        -0.87836E+03
 
   -0.99744E+03         0.22703E+04         0.00000E+00
    0.22703E+04        -0.16865E+04         0.00000E+00
    0.00000E+00         0.00000E+00        -0.80518E+03
 
    0.10741E+04        -0.12063E+03         0.00000E+00
   -0.12063E+03         0.33025E+01         0.00000E+00
    0.00000E+00         0.00000E+00         0.32322E+03
 
    0.70871E+03        -0.32103E+03         0.00000E+00
   -0.32103E+03         0.17911E+02         0.00000E+00
    0.00000E+00         0.00000E+00         0.21799E+03
 
    0.32525E+03        -0.46876E+03         0.00000E+00
   -0.46876E+03         0.41643E+02         0.00000E+00
    0.00000E+00         0.00000E+00         0.11007E+03
 
   -0.65136E+02        -0.56586E+03         0.00000E+00
   -0.56586E+03         0.69149E+02         0.00000E+00
    0.00000E+00         0.00000E+00         0.12039E+01
 
   -0.45226E+03        -0.61534E+03         0.00000E+00
   -0.61534E+03         0.95721E+02         0.00000E+00
    0.00000E+00         0.00000E+00        -0.10696E+03
 
   -0.82704E+03        -0.62096E+03         0.00000E+00
   -0.62096E+03         0.11738E+03         0.00000E+00
    0.00000E+00         0.00000E+00        -0.21290E+03
 
   -0.11816E+04        -0.58706E+03         0.00000E+00
   -0.58706E+03         0.13094E+03         0.00000E+00
    0.00000E+00         0.00000E+00        -0.31520E+03
 
   -0.15093E+04        -0.51832E+03         0.00000E+00
   -0.51832E+03         0.13397E+03         0.00000E+00
    0.00000E+00         0.00000E+00        -0.41261E+03
 
   -0.18047E+04        -0.41957E+03         0.00000E+00
   -0.41957E+03         0.12483E+03         0.00000E+00
    0.00000E+00         0.00000E+00        -0.50397E+03
 
   -0.20635E+04        -0.29562E+03         0.00000E+00
   -0.29562E+03         0.10253E+03         0.00000E+00
    0.00000E+00         0.00000E+00        -0.58828E+03
 
   -0.22823E+04        -0.15108E+03         0.00000E+00
   -0.15108E+03         0.66706E+02         0.00000E+00
    0.00000E+00         0.00000E+00        -0.66467E+03
 
   -0.24587E+04         0.97455E+01         0.00000E+00
    0.97455E+01         0.17433E+02         0.00000E+00
    0.00000E+00         0.00000E+00        -0.73238E+03
 
   -0.25910E+04         0.18291E+03         0.00000E+00
    0.18291E+03        -0.44852E+02         0.00000E+00
    0.00000E+00         0.00000E+00        -0.79076E+03
 
   -0.26780E+04         0.36488E+03         0.00000E+00
    0.36488E+03        -0.11950E+03         0.00000E+00
    0.00000E+00         0.00000E+00        -0.83924E+03
 
   -0.27187E+04         0.55253E+03         0.00000E+00
    0.55253E+03        -0.20577E+03         0.00000E+00
    0.00000E+00         0.00000E+00        -0.87734E+03
 
   -0.27126E+04         0.74307E+03         0.00000E+00
    0.74307E+03        -0.30293E+03         0.00000E+00
    0.00000E+00         0.00000E+00        -0.90466E+03
 
   -0.26590E+04         0.93401E+03         0.00000E+00
    0.93401E+03        -0.41037E+03         0.00000E+00
    0.00000E+00         0.00000E+00        -0.92081E+03
 
   -0.25573E+04         0.11230E+04         0.00000E+00
    0.11230E+04        -0.52765E+03         0.00000E+00
    0.00000E+00         0.00000E+00        -0.92549E+03
 
   -0.24067E+04         0.13079E+04         0.00000E+00
    0.13079E+04        -0.65458E+03         0.00000E+00
    0.00000E+00         0.00000E+00        -0.91838E+03
 
   -0.22062E+04         0.14863E+04         0.00000E+00
    0.14863E+04        -0.79121E+03         0.00000E+00
    0.00000E+00         0.00000E+00        -0.89921E+03
 
   -0.19546E+04         0.16557E+04         0.00000E+00
    0.16557E+04        -0.93785E+03         0.00000E+00
    0.00000E+00         0.00000E+00        -0.86772E+03
 
   -0.16506E+04         0.18132E+04         0.00000E+00
    0.18132E+04        -0.10951E+04         0.00000E+00
    0.00000E+00         0.00000E+00        -0.82368E+03
 
   -0.12927E+04         0.19555E+04         0.00000E+00
    0.19555E+04        -0.12635E+04         0.00000E+00
    0.00000E+00         0.00000E+00        -0.76687E+03
 
   -0.87951E+03         0.20783E+04         0.00000E+00
    0.20783E+04        -0.14441E+04         0.00000E+00
    0.00000E+00         0.00000E+00        -0.69708E+03
 
    0.85446E+03        -0.11235E+03         0.00000E+00
   -0.11235E+03         0.32781E+01         0.00000E+00
    0.00000E+00         0.00000E+00         0.25732E+03
 
    0.53950E+03        -0.30057E+03         0.00000E+00
   -0.30057E+03         0.17992E+02         0.00000E+00
    0.00000E+00         0.00000E+00         0.16725E+03
 
    0.20522E+03        -0.44150E+03         0.00000E+00
   -0.44150E+03         0.42441E+02         0.00000E+00
    0.00000E+00         0.00000E+00         0.74299E+02
 
   -0.13822E+03        -0.53665E+03         0.00000E+00
   -0.53665E+03         0.71731E+02         0.00000E+00
    0.00000E+00         0.00000E+00        -0.19945E+02
 
   -0.48146E+03        -0.58837E+03         0.00000E+00
   -0.58837E+03         0.10151E+03         0.00000E+00
    0.00000E+00         0.00000E+00        -0.11399E+03
 
   -0.81608E+03        -0.59975E+03         0.00000E+00
   -0.59975E+03         0.12802E+03         0.00000E+00
    0.00000E+00         0.00000E+00        -0.20642E+03
 
   -0.11347E+04        -0.57439E+03         0.00000E+00
   -0.57439E+03         0.14818E+03         0.00000E+00
    0.00000E+00         0.00000E+00        -0.29594E+03
 
   -0.14308E+04        -0.51626E+03         0.00000E+00
   -0.51626E+03         0.15956E+03         0.00000E+00
    0.00000E+00         0.00000E+00        -0.38137E+03
 
   -0.16991E+04        -0.42952E+03         0.00000E+00
   -0.42952E+03         0.16037E+03         0.00000E+00
    0.00000E+00         0.00000E+00        -0.46162E+03
 
   -0.19352E+04        -0.31837E+03         0.00000E+00
   -0.31837E+03         0.14943E+03         0.00000E+00
    0.00000E+00         0.00000E+00        -0.53575E+03
 
   -0.21357E+04        -0.18691E+03         0.00000E+00
   -0.18691E+03         0.12605E+03         0.00000E+00
    0.00000E+00         0.00000E+00        -0.60289E+03
 
   -0.22977E+04        -0.39070E+02         0.00000E+00
   -0.39070E+02         0.90017E+02         0.00000E+00
    0.00000E+00         0.00000E+00        -0.66230E+03
 
   -0.24192E+04         0.12150E+03         0.00000E+00
    0.12150E+03         0.41404E+02         0.00000E+00
    0.00000E+00         0.00000E+00        -0.71334E+03
 
   -0.24987E+04         0.29142E+03         0.00000E+00
    0.29142E+03        -0.19468E+02         0.00000E+00
    0.00000E+00         0.00000E+00        -0.75544E+03
 
   -0.25348E+04         0.46762E+03         0.00000E+00
    0.46762E+03        -0.92159E+02         0.00000E+00
    0.00000E+00         0.00000E+00        -0.78810E+03
 
   -0.25268E+04         0.64730E+03         0.00000E+00
    0.64730E+03        -0.17619E+03         0.00000E+00
    0.00000E+00         0.00000E+00        -0.81091E+03
 
   -0.24738E+04         0.82783E+03         0.00000E+00
    0.82783E+03        -0.27113E+03         0.00000E+00
    0.00000E+00         0.00000E+00        -0.82349E+03
 
   -0.23751E+04         0.10067E+04         0.00000E+00
    0.10067E+04        -0.37666E+03         0.00000E+00
    0.00000E+00         0.00000E+00        -0.82552E+03
 
   -0.22297E+04         0.11816E+04         0.00000E+00
    0.11816E+04        -0.49259E+03         0.00000E+00
    0.00000E+00         0.00000E+00        -0.81670E+03
 
   -0.20370E+04         0.13498E+04         0.00000E+00
    0.13498E+04        -0.61890E+03         0.00000E+00
    0.00000E+00         0.00000E+00        -0.79678E+03
 
   -0.17961E+04         0.15088E+04         0.00000E+00
    0.15088E+04        -0.75575E+03         0.00000E+00
    0.00000E+00         0.00000E+00        -0.76555E+03
 
   -0.15059E+04         0.16553E+04         0.00000E+00
    0.16553E+04        -0.90342E+03         0.00000E+00
    0.00000E+00         0.00000E+00        -0.72279E+03
 
   -0.11656E+04         0.17860E+04         0.00000E+00
    0.17860E+04        -0.10623E+04         0.00000E+00
    0.00000E+00         0.00000E+00        -0.66836E+03
 
   -0.77443E+03         0.18967E+04         0.00000E+00
    0.18967E+04        -0.12327E+04         0.00000E+00
    0.00000E+00         0.00000E+00        -0.60213E+03
 
    0.64986E+03        -0.10415E+03         0.00000E+00
   -0.10415E+03         0.32261E+01         0.00000E+00
    0.00000E+00         0.00000E+00         0.19593E+03
 
    0.37999E+03        -0.27993E+03         0.00000E+00
   -0.27993E+03         0.17878E+02         0.00000E+00
    0.00000E+00         0.00000E+00         0.11936E+03
 
    0.89992E+02        -0.41334E+03         0.00000E+00
   -0.41334E+03         0.42657E+02         0.00000E+00
    0.00000E+00         0.00000E+00         0.39795E+02
 
   -0.21087E+03        -0.50541E+03         0.00000E+00
   -0.50541E+03         0.73081E+02         0.00000E+00
    0.00000E+00         0.00000E+00        -0.41336E+02
 
   -0.51399E+03        -0.55798E+03         0.00000E+00
   -0.55798E+03         0.10511E+03         0.00000E+00
    0.00000E+00         0.00000E+00        -0.12266E+03
 
   -0.81154E+03        -0.57355E+03         0.00000E+00
   -0.57355E+03         0.13523E+03         0.00000E+00
    0.00000E+00         0.00000E+00        -0.20289E+03
 
   -0.10965E+04        -0.55511E+03         0.00000E+00
   -0.55511E+03         0.16046E+03         0.00000E+00
    0.00000E+00         0.00000E+00        -0.28082E+03
 
   -0.13629E+04        -0.50602E+03         0.00000E+00
   -0.50602E+03         0.17838E+03         0.00000E+00
    0.00000E+00         0.00000E+00        -0.35535E+03
 
   -0.16053E+04        -0.42986E+03         0.00000E+00
   -0.42986E+03         0.18713E+03         0.00000E+00
    0.00000E+00         0.00000E+00        -0.42546E+03
 
   -0.18195E+04        -0.33030E+03         0.00000E+00
   -0.33030E+03         0.18537E+03         0.00000E+00
    0.00000E+00         0.00000E+00        -0.49024E+03
 
   -0.20018E+04        -0.21101E+03         0.00000E+00
   -0.21101E+03         0.17221E+03         0.00000E+00
    0.00000E+00         0.00000E+00        -0.54887E+03
 
   -0.21493E+04        -0.75525E+02         0.00000E+00
   -0.75525E+02         0.14715E+03         0.00000E+00
    0.00000E+00         0.00000E+00        -0.60064E+03
 
   -0.22597E+04         0.72761E+02         0.00000E+00
    0.72761E+02         0.11002E+03         0.00000E+00
    0.00000E+00         0.00000E+00        -0.64490E+03
 
   -0.23312E+04         0.23066E+03         0.00000E+00
    0.23066E+03         0.60852E+02         0.00000E+00
    0.00000E+00         0.00000E+00        -0.68109E+03
 
   -0.23623E+04         0.39520E+03         0.00000E+00
    0.39520E+03        -0.14835E+00         0.00000E+00
    0.00000E+00         0.00000E+00        -0.70874E+03
 
   -0.23520E+04         0.56358E+03         0.00000E+00
    0.56358E+03        -0.72716E+02         0.00000E+00
    0.00000E+00         0.00000E+00        -0.72741E+03
 
   -0.22992E+04         0.73314E+03         0.00000E+00
    0.73314E+03        -0.15657E+03         0.00000E+00
    0.00000E+00         0.00000E+00        -0.73674E+03
 
   -0.22032E+04         0.90131E+03         0.00000E+00
    0.90131E+03        -0.25148E+03         0.00000E+00
    0.00000E+00         0.00000E+00        -0.73640E+03
 
   -0.20632E+04         0.10655E+04         0.00000E+00
    0.10655E+04        -0.35727E+03         0.00000E+00
    0.00000E+00         0.00000E+00        -0.72613E+03
 
   -0.18785E+04         0.12231E+04         0.00000E+00
    0.12231E+04        -0.47387E+03         0.00000E+00
    0.00000E+00         0.00000E+00        -0.70570E+03
 
   -0.16484E+04         0.13713E+04         0.00000E+00
    0.13713E+04        -0.60129E+03         0.00000E+00
    0.00000E+00         0.00000E+00        -0.67490E+03
 
   -0.13724E+04         0.15069E+04         0.00000E+00
    0.15069E+04        -0.73958E+03         0.00000E+00
    0.00000E+00         0.00000E+00        -0.63359E+03
 
   -0.10500E+04         0.16263E+04         0.00000E+00
    0.16263E+04        -0.88883E+03         0.00000E+00
    0.00000E+00         0.00000E+00        -0.58166E+03
 
   -0.68115E+03         0.17258E+04         0.00000E+00
    0.17258E+04        -0.10490E+04         0.00000E+00
    0.00000E+00         0.00000E+00        -0.51906E+03
 
    0.46021E+03        -0.96092E+02         0.00000E+00
   -0.96092E+02         0.31513E+01         0.00000E+00
    0.00000E+00         0.00000E+00         0.13901E+03
 
    0.23057E+03        -0.25937E+03         0.00000E+00
   -0.25937E+03         0.17604E+02         0.00000E+00
    0.00000E+00         0.00000E+00         0.74453E+02
 
   -0.19636E+02        -0.38474E+03         0.00000E+00
   -0.38474E+03         0.42394E+02         0.00000E+00
    0.00000E+00         0.00000E+00         0.68272E+01
 
   -0.28196E+03        -0.47287E+03         0.00000E+00
   -0.47287E+03         0.73412E+02         0.00000E+00
    0.00000E+00         0.00000E+00        -0.62563E+02
 
   -0.54848E+03        -0.52517E+03         0.00000E+00
   -0.52517E+03         0.10692E+03         0.00000E+00
    0.00000E+00         0.00000E+00        -0.13247E+03
 
   -0.81193E+03        -0.54364E+03         0.00000E+00
   -0.54364E+03         0.13960E+03         0.00000E+00
    0.00000E+00         0.00000E+00        -0.20170E+03
 
   -0.10658E+04        -0.53075E+03         0.00000E+00
   -0.53075E+03         0.16861E+03         0.00000E+00
    0.00000E+00         0.00000E+00        -0.26915E+03
 
   -0.13042E+04        -0.48935E+03         0.00000E+00
   -0.48935E+03         0.19156E+03         0.00000E+00
    0.00000E+00         0.00000E+00        -0.33378E+03
 
   -0.15221E+04        -0.42252E+03         0.00000E+00
   -0.42252E+03         0.20655E+03         0.00000E+00
    0.00000E+00         0.00000E+00        -0.39466E+03
 
   -0.17152E+04        -0.33348E+03         0.00000E+00
   -0.33348E+03         0.21214E+03         0.00000E+00
    0.00000E+00         0.00000E+00        -0.45091E+03
 
   -0.18798E+04        -0.22547E+03         0.00000E+00
   -0.22547E+03         0.20727E+03         0.00000E+00
    0.00000E+00         0.00000E+00        -0.50176E+03
 
   -0.20129E+04        -0.10170E+03         0.00000E+00
   -0.10170E+03         0.19125E+03         0.00000E+00
    0.00000E+00         0.00000E+00        -0.54651E+03
 
   -0.21122E+04         0.34700E+02         0.00000E+00
    0.34700E+02         0.16369E+03         0.00000E+00
    0.00000E+00         0.00000E+00        -0.58455E+03
 
   -0.21755E+04         0.18074E+03         0.00000E+00
    0.18074E+03         0.12442E+03         0.00000E+00
    0.00000E+00         0.00000E+00        -0.61533E+03
 
   -0.22013E+04         0.33357E+03         0.00000E+00
    0.33357E+03         0.73429E+02         0.00000E+00
    0.00000E+00         0.00000E+00        -0.63837E+03
 
   -0.21884E+04         0.49044E+03         0.00000E+00
    0.49044E+03         0.10827E+02         0.00000E+00
    0.00000E+00         0.00000E+00        -0.65327E+03
 
   -0.21356E+04         0.64870E+03         0.00000E+00
    0.64870E+03        -0.63238E+02         0.00000E+00
    0.00000E+00         0.00000E+00        -0.65966E+03
 
   -0.20422E+04         0.80577E+03         0.00000E+00
    0.80577E+03        -0.14860E+03         0.00000E+00
    0.00000E+00         0.00000E+00        -0.65724E+03
 
   -0.19074E+04         0.95900E+03         0.00000E+00
    0.95900E+03        -0.24510E+03         0.00000E+00
    0.00000E+00         0.00000E+00        -0.64575E+03
 
   -0.17307E+04         0.11057E+04         0.00000E+00
    0.11057E+04        -0.35262E+03         0.00000E+00
    0.00000E+00         0.00000E+00        -0.62498E+03
 
   -0.15116E+04         0.12430E+04         0.00000E+00
    0.12430E+04        -0.47105E+03         0.00000E+00
    0.00000E+00         0.00000E+00        -0.59478E+03
 
   -0.12498E+04         0.13677E+04         0.00000E+00
    0.13677E+04        -0.60026E+03         0.00000E+00
    0.00000E+00         0.00000E+00        -0.55502E+03
 
   -0.94543E+03         0.14765E+04         0.00000E+00
    0.14765E+04        -0.74009E+03         0.00000E+00
    0.00000E+00         0.00000E+00        -0.50566E+03
 
   -0.59869E+03         0.15654E+04         0.00000E+00
    0.15654E+04        -0.89023E+03         0.00000E+00
    0.00000E+00         0.00000E+00        -0.44667E+03
 
    0.28528E+03        -0.88238E+02         0.00000E+00
   -0.88238E+02         0.30586E+01         0.00000E+00
    0.00000E+00         0.00000E+00         0.86500E+02
 
    0.91464E+02        -0.23908E+03         0.00000E+00
   -0.23908E+03         0.17202E+02         0.00000E+00
    0.00000E+00         0.00000E+00         0.32600E+02
 
   -0.12307E+03        -0.35609E+03         0.00000E+00
   -0.35609E+03         0.41744E+02         0.00000E+00
    0.00000E+00         0.00000E+00        -0.24398E+02
 
   -0.35059E+03        -0.43964E+03         0.00000E+00
   -0.43964E+03         0.72916E+02         0.00000E+00
    0.00000E+00         0.00000E+00        -0.83304E+02
 
   -0.58383E+03        -0.49077E+03         0.00000E+00
   -0.49077E+03         0.10725E+03         0.00000E+00
    0.00000E+00         0.00000E+00        -0.14297E+03
 
   -0.81605E+03        -0.51108E+03         0.00000E+00
   -0.51108E+03         0.14164E+03         0.00000E+00
    0.00000E+00         0.00000E+00        -0.20232E+03
 
   -0.10411E+04        -0.50260E+03         0.00000E+00
   -0.50260E+03         0.17336E+03         0.00000E+00
    0.00000E+00         0.00000E+00        -0.26032E+03
 
   -0.12535E+04        -0.46774E+03         0.00000E+00
   -0.46774E+03         0.20008E+03         0.00000E+00
    0.00000E+00         0.00000E+00        -0.31601E+03
 
   -0.14483E+04        -0.40915E+03         0.00000E+00
   -0.40915E+03         0.21990E+03         0.00000E+00
    0.00000E+00         0.00000E+00        -0.36851E+03
 
   -0.16213E+04        -0.32964E+03         0.00000E+00
   -0.32964E+03         0.23128E+03         0.00000E+00
    0.00000E+00         0.00000E+00        -0.41701E+03
 
   -0.17690E+04        -0.23208E+03         0.00000E+00
   -0.23208E+03         0.23307E+03         0.00000E+00
    0.00000E+00         0.00000E+00        -0.46077E+03
 
   -0.18882E+04        -0.11939E+03         0.00000E+00
   -0.11939E+03         0.22443E+03         0.00000E+00
    0.00000E+00         0.00000E+00        -0.49912E+03
 
   -0.19764E+04         0.55698E+01         0.00000E+00
    0.55698E+01         0.20480E+03         0.00000E+00
    0.00000E+00         0.00000E+00        -0.53148E+03
 
   -0.20316E+04         0.14001E+03         0.00000E+00
    0.14001E+03         0.17383E+03         0.00000E+00
    0.00000E+00         0.00000E+00        -0.55732E+03
 
   -0.20520E+04         0.28122E+03         0.00000E+00
    0.28122E+03         0.13138E+03         0.00000E+00
    0.00000E+00         0.00000E+00        -0.57618E+03
 
   -0.20363E+04         0.42654E+03         0.00000E+00
    0.42654E+03         0.77399E+02         0.00000E+00
    0.00000E+00         0.00000E+00        -0.58766E+03
 
   -0.19833E+04         0.57339E+03         0.00000E+00
    0.57339E+03         0.11946E+02         0.00000E+00
    0.00000E+00         0.00000E+00        -0.59141E+03
 
   -0.18923E+04         0.71917E+03         0.00000E+00
    0.71917E+03        -0.64874E+02         0.00000E+00
    0.00000E+00         0.00000E+00        -0.58716E+03
 
   -0.17626E+04         0.86128E+03         0.00000E+00
    0.86128E+03        -0.15292E+03         0.00000E+00
    0.00000E+00         0.00000E+00        -0.57466E+03
 
   -0.15938E+04         0.99700E+03         0.00000E+00
    0.99700E+03        -0.25201E+03         0.00000E+00
    0.00000E+00         0.00000E+00        -0.55373E+03
 
   -0.13855E+04         0.11235E+04         0.00000E+00
    0.11235E+04        -0.36194E+03         0.00000E+00
    0.00000E+00         0.00000E+00        -0.52424E+03
 
   -0.11379E+04         0.12377E+04         0.00000E+00
    0.12377E+04        -0.48245E+03         0.00000E+00
    0.00000E+00         0.00000E+00        -0.48610E+03
 
   -0.85116E+03         0.13362E+04         0.00000E+00
    0.13362E+04        -0.61315E+03         0.00000E+00
    0.00000E+00         0.00000E+00        -0.43929E+03
 
   -0.52605E+03         0.14153E+04         0.00000E+00
    0.14153E+04        -0.75351E+03         0.00000E+00
    0.00000E+00         0.00000E+00        -0.38387E+03
 
    0.12473E+03        -0.80627E+02         0.00000E+00
   -0.80627E+02         0.29523E+01         0.00000E+00
    0.00000E+00         0.00000E+00         0.38305E+02
 
   -0.37270E+02        -0.21921E+03         0.00000E+00
   -0.21921E+03         0.16701E+02         0.00000E+00
    0.00000E+00         0.00000E+00        -0.61708E+01
 
   -0.21990E+03        -0.32768E+03         0.00000E+00
   -0.32768E+03         0.40791E+02         0.00000E+00
    0.00000E+00         0.00000E+00        -0.53733E+02
 
   -0.41610E+03        -0.40619E+03         0.00000E+00
   -0.40619E+03         0.71764E+02         0.00000E+00
    0.00000E+00         0.00000E+00        -0.10330E+03
 
   -0.61917E+03        -0.45546E+03         0.00000E+00
   -0.45546E+03         0.10641E+03         0.00000E+00
    0.00000E+00         0.00000E+00        -0.15383E+03
 
   -0.82287E+03        -0.47674E+03         0.00000E+00
   -0.47674E+03         0.14181E+03         0.00000E+00
    0.00000E+00         0.00000E+00        -0.20432E+03
 
   -0.10214E+04        -0.47172E+03         0.00000E+00
   -0.47172E+03         0.17536E+03         0.00000E+00
    0.00000E+00         0.00000E+00        -0.25383E+03
 
   -0.12097E+04        -0.44242E+03         0.00000E+00
   -0.44242E+03         0.20481E+03         0.00000E+00
    0.00000E+00         0.00000E+00        -0.30146E+03
 
   -0.13829E+04        -0.39111E+03         0.00000E+00
   -0.39111E+03         0.22826E+03         0.00000E+00
    0.00000E+00         0.00000E+00        -0.34640E+03
 
   -0.15371E+04        -0.32024E+03         0.00000E+00
   -0.32024E+03         0.24414E+03         0.00000E+00
    0.00000E+00         0.00000E+00        -0.38788E+03
 
   -0.16686E+04        -0.23238E+03         0.00000E+00
   -0.23238E+03         0.25122E+03         0.00000E+00
    0.00000E+00         0.00000E+00        -0.42521E+03
 
   -0.17744E+04        -0.13014E+03         0.00000E+00
   -0.13014E+03         0.24854E+03         0.00000E+00
    0.00000E+00         0.00000E+00        -0.45776E+03
 
   -0.18520E+04        -0.16136E+02         0.00000E+00
   -0.16136E+02         0.23542E+03         0.00000E+00
    0.00000E+00         0.00000E+00        -0.48496E+03
 
   -0.18991E+04         0.10704E+03         0.00000E+00
    0.10704E+03         0.21140E+03         0.00000E+00
    0.00000E+00         0.00000E+00        -0.50632E+03
 
   -0.19141E+04         0.23683E+03         0.00000E+00
    0.23683E+03         0.17618E+03         0.00000E+00
    0.00000E+00         0.00000E+00        -0.52139E+03
 
   -0.18956E+04         0.37070E+03         0.00000E+00
    0.37070E+03         0.12963E+03         0.00000E+00
    0.00000E+00         0.00000E+00        -0.52979E+03
 
   -0.18424E+04         0.50614E+03         0.00000E+00
    0.50614E+03         0.71720E+02         0.00000E+00
    0.00000E+00         0.00000E+00        -0.53120E+03
 
   -0.17537E+04         0.64064E+03         0.00000E+00
    0.64064E+03         0.25118E+01         0.00000E+00
    0.00000E+00         0.00000E+00        -0.52535E+03
 
   -0.16289E+04         0.77162E+03         0.00000E+00
    0.77162E+03        -0.77856E+02         0.00000E+00
    0.00000E+00         0.00000E+00        -0.51202E+03
 
   -0.14677E+04         0.89645E+03         0.00000E+00
    0.89645E+03        -0.16917E+03         0.00000E+00
    0.00000E+00         0.00000E+00        -0.49106E+03
 
   -0.12700E+04         0.10123E+04         0.00000E+00
    0.10123E+04        -0.27115E+03         0.00000E+00
    0.00000E+00         0.00000E+00        -0.46236E+03
 
   -0.10361E+04         0.11163E+04         0.00000E+00
    0.11163E+04        -0.38339E+03         0.00000E+00
    0.00000E+00         0.00000E+00        -0.42586E+03
 
   -0.76657E+03         0.12051E+04         0.00000E+00
    0.12051E+04        -0.50536E+03         0.00000E+00
    0.00000E+00         0.00000E+00        -0.38158E+03
 
   -0.46233E+03         0.12753E+04         0.00000E+00
    0.12753E+04        -0.63633E+03         0.00000E+00
    0.00000E+00         0.00000E+00        -0.32960E+03
 
   -0.21837E+02        -0.73289E+02         0.00000E+00
   -0.73289E+02         0.28366E+01         0.00000E+00
    0.00000E+00         0.00000E+00        -0.57002E+01
 
   -0.15568E+03        -0.19988E+03         0.00000E+00
   -0.19988E+03         0.16128E+02         0.00000E+00
    0.00000E+00         0.00000E+00        -0.41866E+02
 
   -0.30987E+03        -0.29978E+03         0.00000E+00
   -0.29978E+03         0.39609E+02         0.00000E+00
    0.00000E+00         0.00000E+00        -0.81079E+02
 
   -0.47796E+03        -0.37291E+03         0.00000E+00
   -0.37291E+03         0.70110E+02         0.00000E+00
    0.00000E+00         0.00000E+00        -0.12236E+03
 
   -0.65379E+03        -0.41977E+03         0.00000E+00
   -0.41977E+03         0.10465E+03         0.00000E+00
    0.00000E+00         0.00000E+00        -0.16474E+03
 
   -0.83158E+03        -0.44134E+03         0.00000E+00
   -0.44134E+03         0.14049E+03         0.00000E+00
    0.00000E+00         0.00000E+00        -0.20733E+03
 
   -0.10059E+04        -0.43898E+03         0.00000E+00
   -0.43898E+03         0.17517E+03         0.00000E+00
    0.00000E+00         0.00000E+00        -0.24923E+03
 
   -0.11719E+04        -0.41439E+03         0.00000E+00
   -0.41439E+03         0.20650E+03         0.00000E+00
    0.00000E+00         0.00000E+00        -0.28964E+03
 
   -0.13252E+04        -0.36952E+03         0.00000E+00
   -0.36952E+03         0.23260E+03         0.00000E+00
    0.00000E+00         0.00000E+00        -0.32778E+03
 
   -0.14617E+04        -0.30652E+03         0.00000E+00
   -0.30652E+03         0.25190E+03         0.00000E+00
    0.00000E+00         0.00000E+00        -0.36293E+03
 
   -0.15780E+04        -0.22765E+03         0.00000E+00
   -0.22765E+03         0.26311E+03         0.00000E+00
    0.00000E+00         0.00000E+00        -0.39446E+03
 
   -0.16711E+04        -0.13525E+03         0.00000E+00
   -0.13525E+03         0.26520E+03         0.00000E+00
    0.00000E+00         0.00000E+00        -0.42177E+03
 
   -0.17384E+04        -0.31714E+02         0.00000E+00
   -0.31714E+02         0.25740E+03         0.00000E+00
    0.00000E+00         0.00000E+00        -0.44431E+03
 
   -0.17779E+04         0.80576E+02         0.00000E+00
    0.80576E+02         0.23913E+03         0.00000E+00
    0.00000E+00         0.00000E+00        -0.46162E+03
 
   -0.17876E+04         0.19922E+03         0.00000E+00
    0.19922E+03         0.21002E+03         0.00000E+00
    0.00000E+00         0.00000E+00        -0.47328E+03
 
   -0.17663E+04         0.32183E+03         0.00000E+00
    0.32183E+03         0.16985E+03         0.00000E+00
    0.00000E+00         0.00000E+00        -0.47893E+03
 
   -0.17127E+04         0.44601E+03         0.00000E+00
    0.44601E+03         0.11852E+03         0.00000E+00
    0.00000E+00         0.00000E+00        -0.47827E+03
 
   -0.16262E+04         0.56934E+03         0.00000E+00
    0.56934E+03         0.56065E+02         0.00000E+00
    0.00000E+00         0.00000E+00        -0.47104E+03
 
   -0.15061E+04         0.68933E+03         0.00000E+00
    0.68933E+03        -0.17377E+02         0.00000E+00
    0.00000E+00         0.00000E+00        -0.45705E+03
 
   -0.13523E+04         0.80344E+03         0.00000E+00
    0.80344E+03        -0.10157E+03         0.00000E+00
    0.00000E+00         0.00000E+00        -0.43616E+03
 
   -0.11648E+04         0.90897E+03         0.00000E+00
    0.90897E+03        -0.19614E+03         0.00000E+00
    0.00000E+00         0.00000E+00        -0.40829E+03
 
   -0.94414E+03         0.10031E+04         0.00000E+00
    0.10031E+04        -0.30062E+03         0.00000E+00
    0.00000E+00         0.00000E+00        -0.37343E+03
 
   -0.69100E+03         0.10828E+04         0.00000E+00
    0.10828E+04        -0.41432E+03         0.00000E+00
    0.00000E+00         0.00000E+00        -0.33160E+03
 
   -0.40666E+03         0.11448E+04         0.00000E+00
    0.11448E+04        -0.53638E+03         0.00000E+00
    0.00000E+00         0.00000E+00        -0.28291E+03
 
   -0.15491E+03        -0.66247E+02         0.00000E+00
   -0.66247E+02         0.27151E+01         0.00000E+00
    0.00000E+00         0.00000E+00        -0.45659E+02
 
   -0.26391E+03        -0.18119E+03         0.00000E+00
   -0.18119E+03         0.15506E+02         0.00000E+00
    0.00000E+00         0.00000E+00        -0.74522E+02
 
   -0.39284E+03        -0.27254E+03         0.00000E+00
   -0.27254E+03         0.38268E+02         0.00000E+00
    0.00000E+00         0.00000E+00        -0.10637E+03
 
   -0.53580E+03        -0.34010E+03         0.00000E+00
   -0.34010E+03         0.68088E+02         0.00000E+00
    0.00000E+00         0.00000E+00        -0.14032E+03
 
   -0.68714E+03        -0.38415E+03         0.00000E+00
   -0.38415E+03         0.10220E+03         0.00000E+00
    0.00000E+00         0.00000E+00        -0.17548E+03
 
   -0.84147E+03        -0.40544E+03         0.00000E+00
   -0.40544E+03         0.13805E+03         0.00000E+00
    0.00000E+00         0.00000E+00        -0.21103E+03
 
   -0.99379E+03        -0.40508E+03         0.00000E+00
   -0.40508E+03         0.17328E+03         0.00000E+00
    0.00000E+00         0.00000E+00        -0.24615E+03
 
   -0.11395E+04        -0.38449E+03         0.00000E+00
   -0.38449E+03         0.20580E+03         0.00000E+00
    0.00000E+00         0.00000E+00        -0.28010E+03
 
   -0.12743E+04        -0.34535E+03         0.00000E+00
   -0.34535E+03         0.23376E+03         0.00000E+00
    0.00000E+00         0.00000E+00        -0.31215E+03
 
   -0.13944E+04        -0.28950E+03         0.00000E+00
   -0.28950E+03         0.25559E+03         0.00000E+00
    0.00000E+00         0.00000E+00        -0.34164E+03
 
   -0.14965E+04        -0.21897E+03         0.00000E+00
   -0.21897E+03         0.26998E+03         0.00000E+00
    0.00000E+00         0.00000E+00        -0.36796E+03
 
   -0.15777E+04        -0.13584E+03         0.00000E+00
   -0.13584E+03         0.27584E+03         0.00000E+00
    0.00000E+00         0.00000E+00        -0.39056E+03
 
   -0.16354E+04        -0.42269E+02         0.00000E+00
   -0.42269E+02         0.27233E+03         0.00000E+00
    0.00000E+00         0.00000E+00        -0.40892E+03
 
   -0.16675E+04         0.59541E+02         0.00000E+00
    0.59541E+02         0.25881E+03         0.00000E+00
    0.00000E+00         0.00000E+00        -0.42260E+03
 
   -0.16722E+04         0.16737E+03         0.00000E+00
    0.16737E+03         0.23482E+03         0.00000E+00
    0.00000E+00         0.00000E+00        -0.43121E+03
 
   -0.16481E+04         0.27899E+03         0.00000E+00
    0.27899E+03         0.20010E+03         0.00000E+00
    0.00000E+00         0.00000E+00        -0.43441E+03
 
   -0.15942E+04         0.39213E+03         0.00000E+00
    0.39213E+03         0.15449E+03         0.00000E+00
    0.00000E+00         0.00000E+00        -0.43192E+03
 
   -0.15097E+04         0.50449E+03         0.00000E+00
    0.50449E+03         0.98009E+02         0.00000E+00
    0.00000E+00         0.00000E+00        -0.42350E+03
 
   -0.13941E+04         0.61372E+03         0.00000E+00
    0.61372E+03         0.30787E+02         0.00000E+00
    0.00000E+00         0.00000E+00        -0.40899E+03
 
   -0.12473E+04         0.71737E+03         0.00000E+00
    0.71737E+03        -0.46906E+02         0.00000E+00
    0.00000E+00         0.00000E+00        -0.38826E+03
 
   -0.10695E+04         0.81291E+03         0.00000E+00
    0.81291E+03        -0.13466E+03         0.00000E+00
    0.00000E+00         0.00000E+00        -0.36126E+03
 
   -0.86138E+03         0.89766E+03         0.00000E+00
    0.89766E+03        -0.23189E+03         0.00000E+00
    0.00000E+00         0.00000E+00        -0.32798E+03
 
   -0.62380E+03         0.96880E+03         0.00000E+00
    0.96880E+03        -0.33785E+03         0.00000E+00
    0.00000E+00         0.00000E+00        -0.28849E+03
 
   -0.35822E+03         0.10233E+04         0.00000E+00
    0.10233E+04        -0.45154E+03         0.00000E+00
    0.00000E+00         0.00000E+00        -0.24293E+03
 
   -0.27501E+03        -0.59510E+02         0.00000E+00
   -0.59510E+02         0.25913E+01         0.00000E+00
    0.00000E+00         0.00000E+00        -0.81725E+02
 
   -0.36219E+03        -0.16319E+03         0.00000E+00
   -0.16319E+03         0.14859E+02         0.00000E+00
    0.00000E+00         0.00000E+00        -0.10420E+03
 
   -0.46877E+03        -0.24612E+03         0.00000E+00
   -0.24612E+03         0.36826E+02         0.00000E+00
    0.00000E+00         0.00000E+00        -0.12958E+03
 
   -0.58937E+03        -0.30798E+03         0.00000E+00
   -0.30798E+03         0.65819E+02         0.00000E+00
    0.00000E+00         0.00000E+00        -0.15706E+03
 
   -0.71877E+03        -0.34892E+03         0.00000E+00
   -0.34892E+03         0.99276E+02         0.00000E+00
    0.00000E+00         0.00000E+00        -0.18585E+03
 
   -0.85201E+03        -0.36949E+03         0.00000E+00
   -0.36949E+03         0.13479E+03         0.00000E+00
    0.00000E+00         0.00000E+00        -0.21517E+03
 
   -0.98439E+03        -0.37059E+03         0.00000E+00
   -0.37059E+03         0.17013E+03         0.00000E+00
    0.00000E+00         0.00000E+00        -0.24428E+03
 
   -0.11116E+04        -0.35339E+03         0.00000E+00
   -0.35339E+03         0.20329E+03         0.00000E+00
    0.00000E+00         0.00000E+00        -0.27248E+03
 
   -0.12295E+04        -0.31933E+03         0.00000E+00
   -0.31933E+03         0.23247E+03         0.00000E+00
    0.00000E+00         0.00000E+00        -0.29910E+03
 
   -0.13346E+04        -0.27002E+03         0.00000E+00
   -0.27002E+03         0.25612E+03         0.00000E+00
    0.00000E+00         0.00000E+00        -0.32354E+03
 
   -0.14236E+04        -0.20723E+03         0.00000E+00
   -0.20723E+03         0.27289E+03         0.00000E+00
    0.00000E+00         0.00000E+00        -0.34521E+03
 
   -0.14937E+04        -0.13282E+03         0.00000E+00
   -0.13282E+03         0.28168E+03         0.00000E+00
    0.00000E+00         0.00000E+00        -0.36360E+03
 
   -0.15424E+04        -0.48742E+02         0.00000E+00
   -0.48742E+02         0.28161E+03         0.00000E+00
    0.00000E+00         0.00000E+00        -0.37822E+03
 
   -0.15675E+04         0.43011E+02         0.00000E+00
    0.43011E+02         0.27197E+03         0.00000E+00
    0.00000E+00         0.00000E+00        -0.38867E+03
 
   -0.15675E+04         0.14039E+03         0.00000E+00
    0.14039E+03         0.25227E+03         0.00000E+00
    0.00000E+00         0.00000E+00        -0.39457E+03
 
   -0.15409E+04         0.24134E+03         0.00000E+00
    0.24134E+03         0.22218E+03         0.00000E+00
    0.00000E+00         0.00000E+00        -0.39561E+03
 
   -0.14866E+04         0.34372E+03         0.00000E+00
    0.34372E+03         0.18153E+03         0.00000E+00
    0.00000E+00         0.00000E+00        -0.39151E+03
 
   -0.14039E+04         0.44539E+03         0.00000E+00
    0.44539E+03         0.13030E+03         0.00000E+00
    0.00000E+00         0.00000E+00        -0.38209E+03
 
   -0.12925E+04         0.54414E+03         0.00000E+00
    0.54414E+03         0.68636E+02         0.00000E+00
    0.00000E+00         0.00000E+00        -0.36717E+03
 
   -0.11524E+04         0.63766E+03         0.00000E+00
    0.63766E+03        -0.31745E+01         0.00000E+00
    0.00000E+00         0.00000E+00        -0.34666E+03
 
   -0.98373E+03         0.72359E+03         0.00000E+00
    0.72359E+03        -0.84675E+02         0.00000E+00
    0.00000E+00         0.00000E+00        -0.32052E+03
 
   -0.78736E+03         0.79943E+03         0.00000E+00
    0.79943E+03        -0.17523E+03         0.00000E+00
    0.00000E+00         0.00000E+00        -0.28878E+03
 
   -0.56435E+03         0.86258E+03         0.00000E+00
    0.86258E+03        -0.27399E+03         0.00000E+00
    0.00000E+00         0.00000E+00        -0.25150E+03
 
   -0.31628E+03         0.91029E+03         0.00000E+00
    0.91029E+03        -0.37989E+03         0.00000E+00
    0.00000E+00         0.00000E+00        -0.20885E+03
 
   -0.38266E+03        -0.53082E+02         0.00000E+00
   -0.53082E+02         0.24682E+01         0.00000E+00
    0.00000E+00         0.00000E+00        -0.11406E+03
 
   -0.45077E+03        -0.14591E+03         0.00000E+00
   -0.14591E+03         0.14204E+02         0.00000E+00
    0.00000E+00         0.00000E+00        -0.13097E+03
 
   -0.53768E+03        -0.22058E+03         0.00000E+00
   -0.22058E+03         0.35338E+02         0.00000E+00
    0.00000E+00         0.00000E+00        -0.15070E+03
 
   -0.63848E+03        -0.27671E+03         0.00000E+00
   -0.27671E+03         0.63411E+02         0.00000E+00
    0.00000E+00         0.00000E+00        -0.17252E+03
 
   -0.74837E+03        -0.31433E+03         0.00000E+00
   -0.31433E+03         0.96044E+02         0.00000E+00
    0.00000E+00         0.00000E+00        -0.19570E+03
 
   -0.86273E+03        -0.33383E+03         0.00000E+00
   -0.33383E+03         0.13098E+03         0.00000E+00
    0.00000E+00         0.00000E+00        -0.21953E+03
 
   -0.97719E+03        -0.33593E+03         0.00000E+00
   -0.33593E+03         0.16610E+03         0.00000E+00
    0.00000E+00         0.00000E+00        -0.24333E+03
 
   -0.10876E+04        -0.32161E+03         0.00000E+00
   -0.32161E+03         0.19948E+03         0.00000E+00
    0.00000E+00         0.00000E+00        -0.26645E+03
 
   -0.11903E+04        -0.29209E+03         0.00000E+00
   -0.29209E+03         0.22938E+03         0.00000E+00
    0.00000E+00         0.00000E+00        -0.28827E+03
 
   -0.12817E+04        -0.24876E+03         0.00000E+00
   -0.24876E+03         0.25425E+03         0.00000E+00
    0.00000E+00         0.00000E+00        -0.30822E+03
 
   -0.13587E+04        -0.19317E+03         0.00000E+00
   -0.19317E+03         0.27277E+03         0.00000E+00
    0.00000E+00         0.00000E+00        -0.32577E+03
 
   -0.14185E+04        -0.12698E+03         0.00000E+00
   -0.12698E+03         0.28382E+03         0.00000E+00
    0.00000E+00         0.00000E+00        -0.34042E+03
 
   -0.14589E+04        -0.51922E+02         0.00000E+00
   -0.51922E+02         0.28646E+03         0.00000E+00
    0.00000E+00         0.00000E+00        -0.35173E+03
 
   -0.14777E+04         0.30194E+02         0.00000E+00
    0.30194E+02         0.27998E+03         0.00000E+00
    0.00000E+00         0.00000E+00        -0.35931E+03
 
   -0.14732E+04         0.11751E+03         0.00000E+00
    0.11751E+03         0.26384E+03         0.00000E+00
    0.00000E+00         0.00000E+00        -0.36282E+03
 
   -0.14442E+04         0.20812E+03         0.00000E+00
    0.20812E+03         0.23768E+03         0.00000E+00
    0.00000E+00         0.00000E+00        -0.36195E+03
 
   -0.13895E+04         0.30007E+03         0.00000E+00
    0.30007E+03         0.20129E+03         0.00000E+00
    0.00000E+00         0.00000E+00        -0.35647E+03
 
   -0.13086E+04         0.39137E+03         0.00000E+00
    0.39137E+03         0.15466E+03         0.00000E+00
    0.00000E+00         0.00000E+00        -0.34618E+03
 
   -0.12011E+04         0.47996E+03         0.00000E+00
    0.47996E+03         0.97935E+02         0.00000E+00
    0.00000E+00         0.00000E+00        -0.33096E+03
 
   -0.10671E+04         0.56371E+03         0.00000E+00
    0.56371E+03         0.31414E+02         0.00000E+00
    0.00000E+00         0.00000E+00        -0.31071E+03
 
   -0.90699E+03         0.64044E+03         0.00000E+00
    0.64044E+03        -0.44408E+02         0.00000E+00
    0.00000E+00         0.00000E+00        -0.28542E+03
 
   -0.72156E+03         0.70784E+03         0.00000E+00
    0.70784E+03        -0.12885E+03         0.00000E+00
    0.00000E+00         0.00000E+00        -0.25512E+03
 
   -0.51205E+03         0.76353E+03         0.00000E+00
    0.76353E+03        -0.22100E+03         0.00000E+00
    0.00000E+00         0.00000E+00        -0.21991E+03
 
   -0.28013E+03         0.80503E+03         0.00000E+00
    0.80503E+03        -0.31973E+03         0.00000E+00
    0.00000E+00         0.00000E+00        -0.17996E+03
 
   -0.47843E+03        -0.46960E+02         0.00000E+00
   -0.46960E+02         0.23485E+01         0.00000E+00
    0.00000E+00         0.00000E+00        -0.14282E+03
 
   -0.52995E+03        -0.12935E+03         0.00000E+00
   -0.12935E+03         0.13560E+02         0.00000E+00
    0.00000E+00         0.00000E+00        -0.15492E+03
 
   -0.59966E+03        -0.19597E+03         0.00000E+00
   -0.19597E+03         0.33850E+02         0.00000E+00
    0.00000E+00         0.00000E+00        -0.16974E+03
 
   -0.68304E+03        -0.24639E+03         0.00000E+00
   -0.24639E+03         0.60956E+02         0.00000E+00
    0.00000E+00         0.00000E+00        -0.18663E+03
 
   -0.77568E+03        -0.28054E+03         0.00000E+00
   -0.28054E+03         0.92665E+02         0.00000E+00
    0.00000E+00         0.00000E+00        -0.20490E+03
 
   -0.87328E+03        -0.29870E+03         0.00000E+00
   -0.29870E+03         0.12685E+03         0.00000E+00
    0.00000E+00         0.00000E+00        -0.22393E+03
 
   -0.97175E+03        -0.30143E+03         0.00000E+00
   -0.30143E+03         0.16152E+03         0.00000E+00
    0.00000E+00         0.00000E+00        -0.24307E+03
 
   -0.10672E+04        -0.28956E+03         0.00000E+00
   -0.28956E+03         0.19480E+03         0.00000E+00
    0.00000E+00         0.00000E+00        -0.26173E+03
 
   -0.11561E+04        -0.26410E+03         0.00000E+00
   -0.26410E+03         0.22503E+03         0.00000E+00
    0.00000E+00         0.00000E+00        -0.27932E+03
 
   -0.12351E+04        -0.22627E+03         0.00000E+00
   -0.22627E+03         0.25068E+03         0.00000E+00
    0.00000E+00         0.00000E+00        -0.29533E+03
 
   -0.13012E+04        -0.17740E+03         0.00000E+00
   -0.17740E+03         0.27043E+03         0.00000E+00
    0.00000E+00         0.00000E+00        -0.30924E+03
 
   -0.13518E+04        -0.11895E+03         0.00000E+00
   -0.11895E+03         0.28317E+03         0.00000E+00
    0.00000E+00         0.00000E+00        -0.32060E+03
 
   -0.13846E+04        -0.52472E+02         0.00000E+00
   -0.52472E+02         0.28795E+03         0.00000E+00
    0.00000E+00         0.00000E+00        -0.32899E+03
 
   -0.13975E+04         0.20420E+02         0.00000E+00
    0.20420E+02         0.28401E+03         0.00000E+00
    0.00000E+00         0.00000E+00        -0.33405E+03
 
   -0.13890E+04         0.98046E+02         0.00000E+00
    0.98046E+02         0.27081E+03         0.00000E+00
    0.00000E+00         0.00000E+00        -0.33545E+03
 
   -0.13577E+04         0.17868E+03         0.00000E+00
    0.17868E+03         0.24795E+03         0.00000E+00
    0.00000E+00         0.00000E+00        -0.33293E+03
 
   -0.13027E+04         0.26054E+03         0.00000E+00
    0.26054E+03         0.21522E+03         0.00000E+00
    0.00000E+00         0.00000E+00        -0.32625E+03
 
   -0.12234E+04         0.34181E+03         0.00000E+00
    0.34181E+03         0.17260E+03         0.00000E+00
    0.00000E+00         0.00000E+00        -0.31524E+03
 
   -0.11195E+04         0.42059E+03         0.00000E+00
    0.42059E+03         0.12023E+03         0.00000E+00
    0.00000E+00         0.00000E+00        -0.29979E+03
 
   -0.99119E+03         0.49496E+03         0.00000E+00
    0.49496E+03         0.58423E+02         0.00000E+00
    0.00000E+00         0.00000E+00        -0.27983E+03
 
   -0.83889E+03         0.56289E+03         0.00000E+00
    0.56289E+03        -0.12288E+02         0.00000E+00
    0.00000E+00         0.00000E+00        -0.25535E+03
 
   -0.66350E+03         0.62231E+03         0.00000E+00
    0.62231E+03        -0.91185E+02         0.00000E+00
    0.00000E+00         0.00000E+00        -0.22641E+03
 
   -0.46634E+03         0.67106E+03         0.00000E+00
    0.67106E+03        -0.17733E+03         0.00000E+00
    0.00000E+00         0.00000E+00        -0.19310E+03
 
   -0.24918E+03         0.70691E+03         0.00000E+00
    0.70691E+03        -0.26953E+03         0.00000E+00
    0.00000E+00         0.00000E+00        -0.15561E+03
 
   -0.56284E+03        -0.41131E+02         0.00000E+00
   -0.41131E+02         0.22345E+01         0.00000E+00
    0.00000E+00         0.00000E+00        -0.16818E+03
 
   -0.60005E+03        -0.11352E+03         0.00000E+00
   -0.11352E+03         0.12941E+02         0.00000E+00
    0.00000E+00         0.00000E+00        -0.17613E+03
 
   -0.65482E+03        -0.17231E+03         0.00000E+00
   -0.17231E+03         0.32405E+02         0.00000E+00
    0.00000E+00         0.00000E+00        -0.18673E+03
 
   -0.72301E+03        -0.21706E+03         0.00000E+00
   -0.21706E+03         0.58537E+02         0.00000E+00
    0.00000E+00         0.00000E+00        -0.19934E+03
 
   -0.80052E+03        -0.24765E+03         0.00000E+00
   -0.24765E+03         0.89275E+02         0.00000E+00
    0.00000E+00         0.00000E+00        -0.21337E+03
 
   -0.88336E+03        -0.26426E+03         0.00000E+00
   -0.26426E+03         0.12262E+03         0.00000E+00
    0.00000E+00         0.00000E+00        -0.22822E+03
 
   -0.96770E+03        -0.26733E+03         0.00000E+00
   -0.26733E+03         0.15666E+03         0.00000E+00
    0.00000E+00         0.00000E+00        -0.24331E+03
 
   -0.10499E+04        -0.25754E+03         0.00000E+00
   -0.25754E+03         0.18964E+03         0.00000E+00
    0.00000E+00         0.00000E+00        -0.25808E+03
 
   -0.11265E+04        -0.23574E+03         0.00000E+00
   -0.23574E+03         0.21990E+03         0.00000E+00
    0.00000E+00         0.00000E+00        -0.27199E+03
 
   -0.11944E+04        -0.20297E+03         0.00000E+00
   -0.20297E+03         0.24598E+03         0.00000E+00
    0.00000E+00         0.00000E+00        -0.28454E+03
 
   -0.12508E+04        -0.16038E+03         0.00000E+00
   -0.16038E+03         0.26657E+03         0.00000E+00
    0.00000E+00         0.00000E+00        -0.29527E+03
 
   -0.12931E+04        -0.10925E+03         0.00000E+00
   -0.10925E+03         0.28055E+03         0.00000E+00
    0.00000E+00         0.00000E+00        -0.30376E+03
 
   -0.13190E+04        -0.50941E+02         0.00000E+00
   -0.50941E+02         0.28697E+03         0.00000E+00
    0.00000E+00         0.00000E+00        -0.30960E+03
 
   -0.13266E+04         0.13119E+02         0.00000E+00
    0.13119E+02         0.28508E+03         0.00000E+00
    0.00000E+00         0.00000E+00        -0.31246E+03
 
   -0.13144E+04         0.81431E+02         0.00000E+00
    0.81431E+02         0.27428E+03         0.00000E+00
    0.00000E+00         0.00000E+00        -0.31204E+03
 
   -0.12811E+04         0.15245E+03         0.00000E+00
    0.15245E+03         0.25419E+03         0.00000E+00
    0.00000E+00         0.00000E+00        -0.30808E+03
 
   -0.12258E+04         0.22457E+03         0.00000E+00
    0.22457E+03         0.22458E+03         0.00000E+00
    0.00000E+00         0.00000E+00        -0.30037E+03
 
   -0.11480E+04         0.29615E+03         0.00000E+00
    0.29615E+03         0.18541E+03         0.00000E+00
    0.00000E+00         0.00000E+00        -0.28876E+03
 
   -0.10474E+04         0.36549E+03         0.00000E+00
    0.36549E+03         0.13685E+03         0.00000E+00
    0.00000E+00         0.00000E+00        -0.27315E+03
 
   -0.92418E+03         0.43083E+03         0.00000E+00
    0.43083E+03         0.79217E+02         0.00000E+00
    0.00000E+00         0.00000E+00        -0.25349E+03
 
   -0.77898E+03         0.49038E+03         0.00000E+00
    0.49038E+03         0.13061E+02         0.00000E+00
    0.00000E+00         0.00000E+00        -0.22978E+03
 
   -0.61270E+03         0.54225E+03         0.00000E+00
    0.54225E+03        -0.60873E+02         0.00000E+00
    0.00000E+00         0.00000E+00        -0.20207E+03
 
   -0.42672E+03         0.58453E+03         0.00000E+00
    0.58453E+03        -0.14161E+03         0.00000E+00
    0.00000E+00         0.00000E+00        -0.17050E+03
 
   -0.22286E+03         0.61525E+03         0.00000E+00
    0.61525E+03        -0.22793E+03         0.00000E+00
    0.00000E+00         0.00000E+00        -0.13524E+03
 
   -0.63641E+03        -0.35579E+02         0.00000E+00
   -0.35579E+02         0.21285E+01         0.00000E+00
    0.00000E+00         0.00000E+00        -0.19029E+03
 
   -0.66140E+03        -0.98363E+02         0.00000E+00
   -0.98363E+02         0.12360E+02         0.00000E+00
    0.00000E+00         0.00000E+00        -0.19471E+03
 
   -0.70332E+03        -0.14956E+03         0.00000E+00
   -0.14956E+03         0.31037E+02         0.00000E+00
    0.00000E+00         0.00000E+00        -0.20169E+03
 
   -0.75838E+03        -0.18872E+03         0.00000E+00
   -0.18872E+03         0.56225E+02         0.00000E+00
    0.00000E+00         0.00000E+00        -0.21065E+03
 
   -0.82277E+03        -0.21570E+03         0.00000E+00
   -0.21570E+03         0.85991E+02         0.00000E+00
    0.00000E+00         0.00000E+00        -0.22103E+03
 
   -0.89276E+03        -0.23061E+03         0.00000E+00
   -0.23061E+03         0.11845E+03         0.00000E+00
    0.00000E+00         0.00000E+00        -0.23229E+03
 
   -0.96474E+03        -0.23378E+03         0.00000E+00
   -0.23378E+03         0.15179E+03         0.00000E+00
    0.00000E+00         0.00000E+00        -0.24389E+03
 
   -0.10353E+04        -0.22576E+03         0.00000E+00
   -0.22576E+03         0.18430E+03         0.00000E+00
    0.00000E+00         0.00000E+00        -0.25529E+03
 
   -0.11011E+04        -0.20728E+03         0.00000E+00
   -0.20728E+03         0.21441E+03         0.00000E+00
    0.00000E+00         0.00000E+00        -0.26602E+03
 
   -0.11593E+04        -0.17919E+03         0.00000E+00
   -0.17919E+03         0.24066E+03         0.00000E+00
    0.00000E+00         0.00000E+00        -0.27559E+03
 
   -0.12070E+04        -0.14250E+03         0.00000E+00
   -0.14250E+03         0.26178E+03         0.00000E+00
    0.00000E+00         0.00000E+00        -0.28358E+03
 
   -0.12419E+04        -0.98306E+02         0.00000E+00
   -0.98306E+02         0.27665E+03         0.00000E+00
    0.00000E+00         0.00000E+00        -0.28957E+03
 
   -0.12617E+04        -0.47782E+02         0.00000E+00
   -0.47782E+02         0.28433E+03         0.00000E+00
    0.00000E+00         0.00000E+00        -0.29322E+03
 
   -0.12646E+04         0.78132E+01         0.00000E+00
    0.78132E+01         0.28404E+03         0.00000E+00
    0.00000E+00         0.00000E+00        -0.29418E+03
 
   -0.12491E+04         0.67167E+02         0.00000E+00
    0.67167E+02         0.27521E+03         0.00000E+00
    0.00000E+00         0.00000E+00        -0.29218E+03
 
   -0.12140E+04         0.12891E+03         0.00000E+00
    0.12891E+03         0.25741E+03         0.00000E+00
    0.00000E+00         0.00000E+00        -0.28699E+03
 
   -0.11585E+04         0.19163E+03         0.00000E+00
    0.19163E+03         0.23043E+03         0.00000E+00
    0.00000E+00         0.00000E+00        -0.27842E+03
 
   -0.10819E+04         0.25386E+03         0.00000E+00
    0.25386E+03         0.19423E+03         0.00000E+00
    0.00000E+00         0.00000E+00        -0.26631E+03
 
   -0.98428E+03         0.31410E+03         0.00000E+00
    0.31410E+03         0.14896E+03         0.00000E+00
    0.00000E+00         0.00000E+00        -0.25060E+03
 
   -0.86572E+03         0.37080E+03         0.00000E+00
    0.37080E+03         0.94975E+02         0.00000E+00
    0.00000E+00         0.00000E+00        -0.23122E+03
 
   -0.72686E+03         0.42233E+03         0.00000E+00
    0.42233E+03         0.32827E+02         0.00000E+00
    0.00000E+00         0.00000E+00        -0.20821E+03
 
   -0.56871E+03         0.46708E+03         0.00000E+00
    0.46708E+03        -0.36717E+02         0.00000E+00
    0.00000E+00         0.00000E+00        -0.18163E+03
 
   -0.39270E+03         0.50333E+03         0.00000E+00
    0.50333E+03        -0.11266E+03         0.00000E+00
    0.00000E+00         0.00000E+00        -0.15161E+03
 
   -0.20066E+03         0.52936E+03         0.00000E+00
    0.52936E+03        -0.19377E+03         0.00000E+00
    0.00000E+00         0.00000E+00        -0.11833E+03
 
   -0.69963E+03        -0.30283E+02         0.00000E+00
   -0.30283E+02         0.20321E+01         0.00000E+00
    0.00000E+00         0.00000E+00        -0.20928E+03
 
   -0.71429E+03        -0.83847E+02         0.00000E+00
   -0.83847E+02         0.11829E+02         0.00000E+00
    0.00000E+00         0.00000E+00        -0.21074E+03
 
   -0.74532E+03        -0.12768E+03         0.00000E+00
   -0.12768E+03         0.29779E+02         0.00000E+00
    0.00000E+00         0.00000E+00        -0.21466E+03
 
   -0.78917E+03        -0.16135E+03         0.00000E+00
   -0.16135E+03         0.54078E+02         0.00000E+00
    0.00000E+00         0.00000E+00        -0.22053E+03
 
   -0.84232E+03        -0.18470E+03         0.00000E+00
   -0.18470E+03         0.82915E+02         0.00000E+00
    0.00000E+00         0.00000E+00        -0.22782E+03
 
   -0.90127E+03        -0.19778E+03         0.00000E+00
   -0.19778E+03         0.11450E+03         0.00000E+00
    0.00000E+00         0.00000E+00        -0.23603E+03
 
   -0.96262E+03        -0.20085E+03         0.00000E+00
   -0.20085E+03         0.14710E+03         0.00000E+00
    0.00000E+00         0.00000E+00        -0.24465E+03
 
   -0.10231E+04        -0.19436E+03         0.00000E+00
   -0.19436E+03         0.17908E+03         0.00000E+00
    0.00000E+00         0.00000E+00        -0.25320E+03
 
   -0.10796E+04        -0.17889E+03         0.00000E+00
   -0.17889E+03         0.20890E+03         0.00000E+00
    0.00000E+00         0.00000E+00        -0.26121E+03
 
   -0.11293E+04        -0.15518E+03         0.00000E+00
   -0.15518E+03         0.23515E+03         0.00000E+00
    0.00000E+00         0.00000E+00        -0.26825E+03
 
   -0.11695E+04        -0.12405E+03         0.00000E+00
   -0.12405E+03         0.25657E+03         0.00000E+00
    0.00000E+00         0.00000E+00        -0.27389E+03
 
   -0.11979E+04        -0.86442E+02         0.00000E+00
   -0.86442E+02         0.27206E+03         0.00000E+00
    0.00000E+00         0.00000E+00        -0.27776E+03
 
   -0.12124E+04        -0.43366E+02         0.00000E+00
   -0.43366E+02         0.28068E+03         0.00000E+00
    0.00000E+00         0.00000E+00        -0.27952E+03
 
   -0.12112E+04         0.41009E+01         0.00000E+00
    0.41009E+01         0.28165E+03         0.00000E+00
    0.00000E+00         0.00000E+00        -0.27887E+03
 
   -0.11929E+04         0.54825E+02         0.00000E+00
    0.54825E+02         0.27439E+03         0.00000E+00
    0.00000E+00         0.00000E+00        -0.27554E+03
 
   -0.11562E+04         0.10762E+03         0.00000E+00
    0.10762E+03         0.25848E+03         0.00000E+00
    0.00000E+00         0.00000E+00        -0.26931E+03
 
   -0.11004E+04         0.16126E+03         0.00000E+00
    0.16126E+03         0.23370E+03         0.00000E+00
    0.00000E+00         0.00000E+00        -0.26001E+03
 
   -0.10250E+04         0.21447E+03         0.00000E+00
    0.21447E+03         0.20000E+03         0.00000E+00
    0.00000E+00         0.00000E+00        -0.24750E+03
 
   -0.92993E+03         0.26594E+03         0.00000E+00
    0.26594E+03         0.15755E+03         0.00000E+00
    0.00000E+00         0.00000E+00        -0.23171E+03
 
   -0.81543E+03         0.31432E+03         0.00000E+00
    0.31432E+03         0.10671E+03         0.00000E+00
    0.00000E+00         0.00000E+00        -0.21262E+03
 
   -0.68216E+03         0.35821E+03         0.00000E+00
    0.35821E+03         0.48033E+02         0.00000E+00
    0.00000E+00         0.00000E+00        -0.19024E+03
 
   -0.53115E+03         0.39619E+03         0.00000E+00
    0.39619E+03        -0.17690E+02         0.00000E+00
    0.00000E+00         0.00000E+00        -0.16465E+03
 
   -0.36386E+03         0.42680E+03         0.00000E+00
    0.42680E+03        -0.89452E+02         0.00000E+00
    0.00000E+00         0.00000E+00        -0.13599E+03
 
   -0.18217E+03         0.44856E+03         0.00000E+00
    0.44856E+03        -0.16601E+03         0.00000E+00
    0.00000E+00         0.00000E+00        -0.10446E+03
 
   -0.75294E+03        -0.25216E+02         0.00000E+00
   -0.25216E+02         0.19468E+01         0.00000E+00
    0.00000E+00         0.00000E+00        -0.22530E+03
 
   -0.75903E+03        -0.69909E+02         0.00000E+00
   -0.69909E+02         0.11358E+02         0.00000E+00
    0.00000E+00         0.00000E+00        -0.22430E+03
 
   -0.78096E+03        -0.10659E+03         0.00000E+00
   -0.10659E+03         0.28654E+02         0.00000E+00
    0.00000E+00         0.00000E+00        -0.22569E+03
 
   -0.81543E+03        -0.13487E+03         0.00000E+00
   -0.13487E+03         0.52150E+02         0.00000E+00
    0.00000E+00         0.00000E+00        -0.22898E+03
 
   -0.85914E+03        -0.15458E+03         0.00000E+00
   -0.15458E+03         0.80130E+02         0.00000E+00
    0.00000E+00         0.00000E+00        -0.23370E+03
 
   -0.90878E+03        -0.16576E+03         0.00000E+00
   -0.16576E+03         0.11089E+03         0.00000E+00
    0.00000E+00         0.00000E+00        -0.23937E+03
 
   -0.96113E+03        -0.16858E+03         0.00000E+00
   -0.16858E+03         0.14278E+03         0.00000E+00
    0.00000E+00         0.00000E+00        -0.24551E+03
 
   -0.10131E+04        -0.16341E+03         0.00000E+00
   -0.16341E+03         0.17420E+03         0.00000E+00
    0.00000E+00         0.00000E+00        -0.25166E+03
 
   -0.10617E+04        -0.15071E+03         0.00000E+00
   -0.15071E+03         0.20366E+03         0.00000E+00
    0.00000E+00         0.00000E+00        -0.25740E+03
 
   -0.11041E+04        -0.13109E+03         0.00000E+00
   -0.13109E+03         0.22980E+03         0.00000E+00
    0.00000E+00         0.00000E+00        -0.26230E+03
 
   -0.11380E+04        -0.10524E+03         0.00000E+00
   -0.10524E+03         0.25137E+03         0.00000E+00
    0.00000E+00         0.00000E+00        -0.26598E+03
 
   -0.11609E+04        -0.73921E+02         0.00000E+00
   -0.73921E+02         0.26727E+03         0.00000E+00
    0.00000E+00         0.00000E+00        -0.26807E+03
 
   -0.11708E+04        -0.37992E+02         0.00000E+00
   -0.37992E+02         0.27658E+03         0.00000E+00
    0.00000E+00         0.00000E+00        -0.26826E+03
 
   -0.11661E+04         0.16461E+01         0.00000E+00
    0.16461E+01         0.27852E+03         0.00000E+00
    0.00000E+00         0.00000E+00        -0.26626E+03
 
   -0.11452E+04         0.44037E+02         0.00000E+00
    0.44037E+02         0.27251E+03         0.00000E+00
    0.00000E+00         0.00000E+00        -0.26181E+03
 
   -0.11072E+04         0.88180E+02         0.00000E+00
    0.88180E+02         0.25813E+03         0.00000E+00
    0.00000E+00         0.00000E+00        -0.25472E+03
 
   -0.10512E+04         0.13303E+03         0.00000E+00
    0.13303E+03         0.23515E+03         0.00000E+00
    0.00000E+00         0.00000E+00        -0.24482E+03
 
   -0.97683E+03         0.17752E+03         0.00000E+00
    0.17752E+03         0.20354E+03         0.00000E+00
    0.00000E+00         0.00000E+00        -0.23199E+03
 
   -0.88399E+03         0.22052E+03         0.00000E+00
    0.22052E+03         0.16346E+03         0.00000E+00
    0.00000E+00         0.00000E+00        -0.21616E+03
 
   -0.77299E+03         0.26090E+03         0.00000E+00
    0.26090E+03         0.11527E+03         0.00000E+00
    0.00000E+00         0.00000E+00        -0.19732E+03
 
   -0.64452E+03         0.29746E+03         0.00000E+00
    0.29746E+03         0.59543E+02         0.00000E+00
    0.00000E+00         0.00000E+00        -0.17549E+03
 
   -0.49964E+03         0.32902E+03         0.00000E+00
    0.32902E+03        -0.29216E+01         0.00000E+00
    0.00000E+00         0.00000E+00        -0.15077E+03
 
   -0.33984E+03         0.35433E+03         0.00000E+00
    0.35433E+03        -0.71111E+02         0.00000E+00
    0.00000E+00         0.00000E+00        -0.12329E+03
 
   -0.16701E+03         0.37215E+03         0.00000E+00
    0.37215E+03        -0.14378E+03         0.00000E+00
    0.00000E+00         0.00000E+00        -0.93235E+02
 
   -0.79674E+03        -0.20349E+02         0.00000E+00
   -0.20349E+02         0.18739E+01         0.00000E+00
    0.00000E+00         0.00000E+00        -0.23846E+03
 
   -0.79588E+03        -0.56477E+02         0.00000E+00
   -0.56477E+02         0.10953E+02         0.00000E+00
    0.00000E+00         0.00000E+00        -0.23548E+03
 
   -0.81040E+03        -0.86198E+02         0.00000E+00
   -0.86198E+02         0.27686E+02         0.00000E+00
    0.00000E+00         0.00000E+00        -0.23481E+03
 
   -0.83721E+03        -0.10918E+03         0.00000E+00
   -0.10918E+03         0.50481E+02         0.00000E+00
    0.00000E+00         0.00000E+00        -0.23602E+03
 
   -0.87318E+03        -0.12528E+03         0.00000E+00
   -0.12528E+03         0.77707E+02         0.00000E+00
    0.00000E+00         0.00000E+00        -0.23864E+03
 
   -0.91517E+03        -0.13448E+03         0.00000E+00
   -0.13448E+03         0.10773E+03         0.00000E+00
    0.00000E+00         0.00000E+00        -0.24223E+03
 
   -0.96011E+03        -0.13694E+03         0.00000E+00
   -0.13694E+03         0.13896E+03         0.00000E+00
    0.00000E+00         0.00000E+00        -0.24635E+03
 
   -0.10050E+04        -0.13292E+03         0.00000E+00
   -0.13292E+03         0.16985E+03         0.00000E+00
    0.00000E+00         0.00000E+00        -0.25055E+03
 
   -0.10471E+04        -0.12279E+03         0.00000E+00
   -0.12279E+03         0.19895E+03         0.00000E+00
    0.00000E+00         0.00000E+00        -0.25443E+03
 
   -0.10836E+04        -0.10704E+03         0.00000E+00
   -0.10704E+03         0.22491E+03         0.00000E+00
    0.00000E+00         0.00000E+00        -0.25759E+03
 
   -0.11121E+04        -0.86215E+02         0.00000E+00
   -0.86215E+02         0.24652E+03         0.00000E+00
    0.00000E+00         0.00000E+00        -0.25966E+03
 
   -0.11304E+04        -0.60940E+02         0.00000E+00
   -0.60940E+02         0.26269E+03         0.00000E+00
    0.00000E+00         0.00000E+00        -0.26031E+03
 
   -0.11365E+04        -0.31900E+02         0.00000E+00
   -0.31900E+02         0.27250E+03         0.00000E+00
    0.00000E+00         0.00000E+00        -0.25921E+03
 
   -0.11289E+04         0.16742E+00         0.00000E+00
    0.16742E+00         0.27517E+03         0.00000E+00
    0.00000E+00         0.00000E+00        -0.25611E+03
 
   -0.11060E+04         0.34484E+02         0.00000E+00
    0.34484E+02         0.27013E+03         0.00000E+00
    0.00000E+00         0.00000E+00        -0.25075E+03
 
   -0.10668E+04         0.70232E+02         0.00000E+00
    0.70232E+02         0.25696E+03         0.00000E+00
    0.00000E+00         0.00000E+00        -0.24296E+03
 
   -0.10107E+04         0.10656E+03         0.00000E+00
    0.10656E+03         0.23544E+03         0.00000E+00
    0.00000E+00         0.00000E+00        -0.23257E+03
 
   -0.93714E+03         0.14258E+03         0.00000E+00
    0.14258E+03         0.20552E+03         0.00000E+00
    0.00000E+00         0.00000E+00        -0.21949E+03
 
   -0.84617E+03         0.17738E+03         0.00000E+00
    0.17738E+03         0.16737E+03         0.00000E+00
    0.00000E+00         0.00000E+00        -0.20364E+03
 
   -0.73810E+03         0.21003E+03         0.00000E+00
    0.21003E+03         0.12136E+03         0.00000E+00
    0.00000E+00         0.00000E+00        -0.18502E+03
 
   -0.61364E+03         0.23955E+03         0.00000E+00
    0.23955E+03         0.68080E+02         0.00000E+00
    0.00000E+00         0.00000E+00        -0.16367E+03
 
   -0.47388E+03         0.26496E+03         0.00000E+00
    0.26496E+03         0.83165E+01         0.00000E+00
    0.00000E+00         0.00000E+00        -0.13967E+03
 
   -0.32031E+03         0.28527E+03         0.00000E+00
    0.28527E+03        -0.56906E+02         0.00000E+00
    0.00000E+00         0.00000E+00        -0.11317E+03
 
   -0.15485E+03         0.29946E+03         0.00000E+00
    0.29946E+03        -0.12634E+03         0.00000E+00
    0.00000E+00         0.00000E+00        -0.84355E+02
 
   -0.83135E+03        -0.15649E+02         0.00000E+00
   -0.15649E+02         0.18144E+01         0.00000E+00
    0.00000E+00         0.00000E+00        -0.24886E+03
 
   -0.82507E+03        -0.43471E+02         0.00000E+00
   -0.43471E+02         0.10622E+02         0.00000E+00
    0.00000E+00         0.00000E+00        -0.24433E+03
 
   -0.83377E+03        -0.66404E+02         0.00000E+00
   -0.66404E+02         0.26891E+02         0.00000E+00
    0.00000E+00         0.00000E+00        -0.24206E+03
 
   -0.85455E+03        -0.84182E+02         0.00000E+00
   -0.84182E+02         0.49106E+02         0.00000E+00
    0.00000E+00         0.00000E+00        -0.24163E+03
 
   -0.88442E+03        -0.96672E+02         0.00000E+00
   -0.96672E+02         0.75704E+02         0.00000E+00
    0.00000E+00         0.00000E+00        -0.24261E+03
 
   -0.92037E+03        -0.10387E+03         0.00000E+00
   -0.10387E+03         0.10511E+03         0.00000E+00
    0.00000E+00         0.00000E+00        -0.24458E+03
 
   -0.95944E+03        -0.10586E+03         0.00000E+00
   -0.10586E+03         0.13577E+03         0.00000E+00
    0.00000E+00         0.00000E+00        -0.24710E+03
 
   -0.99877E+03        -0.10286E+03         0.00000E+00
   -0.10286E+03         0.16620E+03         0.00000E+00
    0.00000E+00         0.00000E+00        -0.24977E+03
 
   -0.10356E+04        -0.95151E+02         0.00000E+00
   -0.95151E+02         0.19496E+03         0.00000E+00
    0.00000E+00         0.00000E+00        -0.25219E+03
 
   -0.10673E+04        -0.83085E+02         0.00000E+00
   -0.83085E+02         0.22073E+03         0.00000E+00
    0.00000E+00         0.00000E+00        -0.25398E+03
 
   -0.10916E+04        -0.67090E+02         0.00000E+00
   -0.67090E+02         0.24231E+03         0.00000E+00
    0.00000E+00         0.00000E+00        -0.25479E+03
 
   -0.11063E+04        -0.47647E+02         0.00000E+00
   -0.47647E+02         0.25864E+03         0.00000E+00
    0.00000E+00         0.00000E+00        -0.25429E+03
 
   -0.11094E+04        -0.25285E+02         0.00000E+00
   -0.25285E+02         0.26880E+03         0.00000E+00
    0.00000E+00         0.00000E+00        -0.25219E+03
 
   -0.10994E+04        -0.57127E+00         0.00000E+00
   -0.57127E+00         0.27201E+03         0.00000E+00
    0.00000E+00         0.00000E+00        -0.24822E+03
 
   -0.10749E+04         0.25889E+02         0.00000E+00
    0.25889E+02         0.26771E+03         0.00000E+00
    0.00000E+00         0.00000E+00        -0.24215E+03
 
   -0.10348E+04         0.53459E+02         0.00000E+00
    0.53459E+02         0.25547E+03         0.00000E+00
    0.00000E+00         0.00000E+00        -0.23381E+03
 
   -0.97856E+03         0.81478E+02         0.00000E+00
    0.81478E+02         0.23506E+03         0.00000E+00
    0.00000E+00         0.00000E+00        -0.22305E+03
 
   -0.90570E+03         0.10926E+03         0.00000E+00
    0.10926E+03         0.20647E+03         0.00000E+00
    0.00000E+00         0.00000E+00        -0.20977E+03
 
   -0.81623E+03         0.13608E+03         0.00000E+00
    0.13608E+03         0.16985E+03         0.00000E+00
    0.00000E+00         0.00000E+00        -0.19391E+03
 
   -0.71050E+03         0.16123E+03         0.00000E+00
    0.16123E+03         0.12557E+03         0.00000E+00
    0.00000E+00         0.00000E+00        -0.17548E+03
 
   -0.58925E+03         0.18394E+03         0.00000E+00
    0.18394E+03         0.74228E+02         0.00000E+00
    0.00000E+00         0.00000E+00        -0.15451E+03
 
   -0.45359E+03         0.20345E+03         0.00000E+00
    0.20345E+03         0.16616E+02         0.00000E+00
    0.00000E+00         0.00000E+00        -0.13109E+03
 
   -0.30501E+03         0.21900E+03         0.00000E+00
    0.21900E+03        -0.46240E+02         0.00000E+00
    0.00000E+00         0.00000E+00        -0.10538E+03
 
   -0.14543E+03         0.22978E+03         0.00000E+00
    0.22978E+03        -0.11309E+03         0.00000E+00
    0.00000E+00         0.00000E+00        -0.77556E+02
 
   -0.85707E+03        -0.11082E+02         0.00000E+00
   -0.11082E+02         0.17691E+01         0.00000E+00
    0.00000E+00         0.00000E+00        -0.25659E+03
 
   -0.84678E+03        -0.30804E+02         0.00000E+00
   -0.30804E+02         0.10370E+02         0.00000E+00
    0.00000E+00         0.00000E+00        -0.25092E+03
 
   -0.85119E+03        -0.47085E+02         0.00000E+00
   -0.47085E+02         0.26284E+02         0.00000E+00
    0.00000E+00         0.00000E+00        -0.24747E+03
 
   -0.86751E+03        -0.59727E+02         0.00000E+00
   -0.59727E+02         0.48052E+02         0.00000E+00
    0.00000E+00         0.00000E+00        -0.24584E+03
 
   -0.89285E+03        -0.68633E+02         0.00000E+00
   -0.68633E+02         0.74163E+02         0.00000E+00
    0.00000E+00         0.00000E+00        -0.24561E+03
 
   -0.92431E+03        -0.73788E+02         0.00000E+00
   -0.73788E+02         0.10309E+03         0.00000E+00
    0.00000E+00         0.00000E+00        -0.24637E+03
 
   -0.95902E+03        -0.75260E+02         0.00000E+00
   -0.75260E+02         0.13330E+03         0.00000E+00
    0.00000E+00         0.00000E+00        -0.24772E+03
 
   -0.99419E+03        -0.73184E+02         0.00000E+00
   -0.73184E+02         0.16335E+03         0.00000E+00
    0.00000E+00         0.00000E+00        -0.24925E+03
 
   -0.10271E+04        -0.67761E+02         0.00000E+00
   -0.67761E+02         0.19183E+03         0.00000E+00
    0.00000E+00         0.00000E+00        -0.25059E+03
 
   -0.10553E+04        -0.59241E+02         0.00000E+00
   -0.59241E+02         0.21743E+03         0.00000E+00
    0.00000E+00         0.00000E+00        -0.25137E+03
 
   -0.10765E+04        -0.47925E+02         0.00000E+00
   -0.47925E+02         0.23897E+03         0.00000E+00
    0.00000E+00         0.00000E+00        -0.25124E+03
 
   -0.10884E+04        -0.34153E+02         0.00000E+00
   -0.34153E+02         0.25539E+03         0.00000E+00
    0.00000E+00         0.00000E+00        -0.24990E+03
 
   -0.10893E+04        -0.18300E+02         0.00000E+00
   -0.18300E+02         0.26578E+03         0.00000E+00
    0.00000E+00         0.00000E+00        -0.24704E+03
 
   -0.10775E+04        -0.77051E+00         0.00000E+00
   -0.77051E+00         0.26937E+03         0.00000E+00
    0.00000E+00         0.00000E+00        -0.24243E+03
 
   -0.10517E+04         0.18005E+02         0.00000E+00
    0.18005E+02         0.26559E+03         0.00000E+00
    0.00000E+00         0.00000E+00        -0.23584E+03
 
   -0.10110E+04         0.37572E+02         0.00000E+00
    0.37572E+02         0.25402E+03         0.00000E+00
    0.00000E+00         0.00000E+00        -0.22710E+03
 
   -0.95465E+03         0.57457E+02         0.00000E+00
    0.57457E+02         0.23444E+03         0.00000E+00
    0.00000E+00         0.00000E+00        -0.21606E+03
 
   -0.88230E+03         0.77170E+02         0.00000E+00
    0.77170E+02         0.20682E+03         0.00000E+00
    0.00000E+00         0.00000E+00        -0.20264E+03
 
   -0.79395E+03         0.96201E+02         0.00000E+00
    0.96201E+02         0.17133E+03         0.00000E+00
    0.00000E+00         0.00000E+00        -0.18679E+03
 
   -0.68999E+03         0.11403E+03         0.00000E+00
    0.11403E+03         0.12834E+03         0.00000E+00
    0.00000E+00         0.00000E+00        -0.16849E+03
 
   -0.57116E+03         0.13012E+03         0.00000E+00
    0.13012E+03         0.78446E+02         0.00000E+00
    0.00000E+00         0.00000E+00        -0.14781E+03
 
   -0.43856E+03         0.14392E+03         0.00000E+00
    0.14392E+03         0.22443E+02         0.00000E+00
    0.00000E+00         0.00000E+00        -0.12484E+03
 
   -0.29373E+03         0.15488E+03         0.00000E+00
    0.15488E+03        -0.38643E+02         0.00000E+00
    0.00000E+00         0.00000E+00        -0.99711E+02
 
   -0.13855E+03         0.16246E+03         0.00000E+00
    0.16246E+03        -0.10356E+03         0.00000E+00
    0.00000E+00         0.00000E+00        -0.72633E+02
 
   -0.87409E+03        -0.66105E+01         0.00000E+00
   -0.66105E+01         0.17386E+01         0.00000E+00
    0.00000E+00         0.00000E+00        -0.26171E+03
 
   -0.86117E+03        -0.18383E+02         0.00000E+00
   -0.18383E+02         0.10199E+02         0.00000E+00
    0.00000E+00         0.00000E+00        -0.25529E+03
 
   -0.86276E+03        -0.28111E+02         0.00000E+00
   -0.28111E+02         0.25873E+02         0.00000E+00
    0.00000E+00         0.00000E+00        -0.25107E+03
 
   -0.87612E+03        -0.35674E+02         0.00000E+00
   -0.35674E+02         0.47339E+02         0.00000E+00
    0.00000E+00         0.00000E+00        -0.24864E+03
 
   -0.89847E+03        -0.41010E+02         0.00000E+00
   -0.41010E+02         0.73118E+02         0.00000E+00
    0.00000E+00         0.00000E+00        -0.24761E+03
 
   -0.92696E+03        -0.44109E+02         0.00000E+00
   -0.44109E+02         0.10171E+03         0.00000E+00
    0.00000E+00         0.00000E+00        -0.24757E+03
 
   -0.95878E+03        -0.45010E+02         0.00000E+00
   -0.45010E+02         0.13162E+03         0.00000E+00
    0.00000E+00         0.00000E+00        -0.24815E+03
 
   -0.99119E+03        -0.43791E+02         0.00000E+00
   -0.43791E+02         0.16141E+03         0.00000E+00
    0.00000E+00         0.00000E+00        -0.24893E+03
 
   -0.10216E+04        -0.40571E+02         0.00000E+00
   -0.40571E+02         0.18968E+03         0.00000E+00
    0.00000E+00         0.00000E+00        -0.24956E+03
 
   -0.10474E+04        -0.35498E+02         0.00000E+00
   -0.35498E+02         0.21516E+03         0.00000E+00
    0.00000E+00         0.00000E+00        -0.24967E+03
 
   -0.10664E+04        -0.28752E+02         0.00000E+00
   -0.28752E+02         0.23665E+03         0.00000E+00
    0.00000E+00         0.00000E+00        -0.24893E+03
 
   -0.10765E+04        -0.20535E+02         0.00000E+00
   -0.20535E+02         0.25312E+03         0.00000E+00
    0.00000E+00         0.00000E+00        -0.24702E+03
 
   -0.10759E+04        -0.11072E+02         0.00000E+00
   -0.11072E+02         0.26365E+03         0.00000E+00
    0.00000E+00         0.00000E+00        -0.24367E+03
 
   -0.10629E+04        -0.60350E+00         0.00000E+00
   -0.60350E+00         0.26748E+03         0.00000E+00
    0.00000E+00         0.00000E+00        -0.23864E+03
 
   -0.10364E+04         0.10611E+02         0.00000E+00
    0.10611E+02         0.26403E+03         0.00000E+00
    0.00000E+00         0.00000E+00        -0.23170E+03
 
   -0.99522E+03         0.22301E+02         0.00000E+00
    0.22301E+02         0.25290E+03         0.00000E+00
    0.00000E+00         0.00000E+00        -0.22269E+03
 
   -0.93880E+03         0.34181E+02         0.00000E+00
    0.34181E+02         0.23386E+03         0.00000E+00
    0.00000E+00         0.00000E+00        -0.21148E+03
 
   -0.86678E+03         0.45956E+02         0.00000E+00
    0.45956E+02         0.20689E+03         0.00000E+00
    0.00000E+00         0.00000E+00        -0.19797E+03
 
   -0.77919E+03         0.57322E+02         0.00000E+00
    0.57322E+02         0.17214E+03         0.00000E+00
    0.00000E+00         0.00000E+00        -0.18211E+03
 
   -0.67641E+03         0.67964E+02         0.00000E+00
    0.67964E+02         0.13001E+03         0.00000E+00
    0.00000E+00         0.00000E+00        -0.16392E+03
 
   -0.55918E+03         0.77563E+02         0.00000E+00
    0.77563E+02         0.81073E+02         0.00000E+00
    0.00000E+00         0.00000E+00        -0.14343E+03
 
   -0.42864E+03         0.85790E+02         0.00000E+00
    0.85790E+02         0.26139E+02         0.00000E+00
    0.00000E+00         0.00000E+00        -0.12075E+03
 
   -0.28629E+03         0.92315E+02         0.00000E+00
    0.92315E+02        -0.33769E+02         0.00000E+00
    0.00000E+00         0.00000E+00        -0.96018E+02
 
   -0.13404E+03         0.96807E+02         0.00000E+00
    0.96807E+02        -0.97405E+02         0.00000E+00
    0.00000E+00         0.00000E+00        -0.69435E+02
 
   -0.88257E+03        -0.21970E+01         0.00000E+00
   -0.21970E+01         0.17233E+01         0.00000E+00
    0.00000E+00         0.00000E+00        -0.26425E+03
 
   -0.86835E+03        -0.61111E+01         0.00000E+00
   -0.61111E+01         0.10114E+02         0.00000E+00
    0.00000E+00         0.00000E+00        -0.25747E+03
 
   -0.86852E+03        -0.93468E+01         0.00000E+00
   -0.93468E+01         0.25666E+02         0.00000E+00
    0.00000E+00         0.00000E+00        -0.25286E+03
 
   -0.88042E+03        -0.11864E+02         0.00000E+00
   -0.11864E+02         0.46979E+02         0.00000E+00
    0.00000E+00         0.00000E+00        -0.25003E+03
 
   -0.90128E+03        -0.13641E+02         0.00000E+00
   -0.13641E+02         0.72590E+02         0.00000E+00
    0.00000E+00         0.00000E+00        -0.24861E+03
 
   -0.92829E+03        -0.14675E+02         0.00000E+00
   -0.14675E+02         0.10101E+03         0.00000E+00
    0.00000E+00         0.00000E+00        -0.24818E+03
 
   -0.95867E+03        -0.14979E+02         0.00000E+00
   -0.14979E+02         0.13077E+03         0.00000E+00
    0.00000E+00         0.00000E+00        -0.24837E+03
 
   -0.98970E+03        -0.14577E+02         0.00000E+00
   -0.14577E+02         0.16042E+03         0.00000E+00
    0.00000E+00         0.00000E+00        -0.24878E+03
 
   -0.10188E+04        -0.13509E+02         0.00000E+00
   -0.13509E+02         0.18859E+03         0.00000E+00
    0.00000E+00         0.00000E+00        -0.24906E+03
 
   -0.10434E+04        -0.11825E+02         0.00000E+00
   -0.11825E+02         0.21400E+03         0.00000E+00
    0.00000E+00         0.00000E+00        -0.24883E+03
 
   -0.10614E+04        -0.95832E+01         0.00000E+00
   -0.95832E+01         0.23547E+03         0.00000E+00
    0.00000E+00         0.00000E+00        -0.24778E+03
 
   -0.10706E+04        -0.68520E+01         0.00000E+00
   -0.68520E+01         0.25195E+03         0.00000E+00
    0.00000E+00         0.00000E+00        -0.24560E+03
 
   -0.10692E+04        -0.37055E+01         0.00000E+00
   -0.37055E+01         0.26255E+03         0.00000E+00
    0.00000E+00         0.00000E+00        -0.24201E+03
 
   -0.10557E+04        -0.22432E+00         0.00000E+00
   -0.22432E+00         0.26649E+03         0.00000E+00
    0.00000E+00         0.00000E+00        -0.23676E+03
 
   -0.10287E+04         0.35055E+01         0.00000E+00
    0.35055E+01         0.26321E+03         0.00000E+00
    0.00000E+00         0.00000E+00        -0.22965E+03
 
   -0.98735E+03         0.73935E+01         0.00000E+00
    0.73935E+01         0.25230E+03         0.00000E+00
    0.00000E+00         0.00000E+00        -0.22051E+03
 
   -0.93089E+03         0.11345E+02         0.00000E+00
    0.11345E+02         0.23353E+03         0.00000E+00
    0.00000E+00         0.00000E+00        -0.20921E+03
 
   -0.85905E+03         0.15261E+02         0.00000E+00
    0.15261E+02         0.20687E+03         0.00000E+00
    0.00000E+00         0.00000E+00        -0.19565E+03
 
   -0.77184E+03         0.19041E+02         0.00000E+00
    0.19041E+02         0.17250E+03         0.00000E+00
    0.00000E+00         0.00000E+00        -0.17980E+03
 
   -0.66964E+03         0.22580E+02         0.00000E+00
    0.22580E+02         0.13079E+03         0.00000E+00
    0.00000E+00         0.00000E+00        -0.16166E+03
 
   -0.55322E+03         0.25770E+02         0.00000E+00
    0.25770E+02         0.82331E+02         0.00000E+00
    0.00000E+00         0.00000E+00        -0.14127E+03
 
   -0.42370E+03         0.28503E+02         0.00000E+00
    0.28503E+02         0.27931E+02         0.00000E+00
    0.00000E+00         0.00000E+00        -0.11873E+03
 
   -0.28260E+03         0.30669E+02         0.00000E+00
    0.30669E+02        -0.31389E+02         0.00000E+00
    0.00000E+00         0.00000E+00        -0.94196E+02
 
   -0.13182E+03         0.32158E+02         0.00000E+00
    0.32158E+02        -0.94383E+02         0.00000E+00
    0.00000E+00         0.00000E+00        -0.67860E+02
 
TENSORS stresstot double 
   -0.69268E+05         0.61812E+03         0.00000E+00
    0.61812E+03        -0.99344E+05         0.00000E+00
    0.00000E+00         0.00000E+00        -0.50584E+05
 
   -0.36011E+05         0.35672E+04         0.00000E+00
    0.35672E+04        -0.95065E+05         0.00000E+00
    0.00000E+00         0.00000E+00        -0.39323E+05
 
   -0.16312E+05         0.53464E+04         0.00000E+00
    0.53464E+04        -0.85331E+05         0.00000E+00
    0.00000E+00         0.00000E+00        -0.30493E+05
 
   -0.65784E+04         0.51471E+04         0.00000E+00
    0.51471E+04        -0.74779E+05         0.00000E+00
    0.00000E+00         0.00000E+00        -0.24407E+05
 
   -0.17946E+04         0.43655E+04         0.00000E+00
    0.43655E+04        -0.65457E+05         0.00000E+00
    0.00000E+00         0.00000E+00        -0.20176E+05
 
    0.59132E+03         0.35678E+04         0.00000E+00
    0.35678E+04        -0.57722E+05         0.00000E+00
    0.00000E+00         0.00000E+00        -0.17139E+05
 
    0.17586E+04         0.28931E+04         0.00000E+00
    0.28931E+04        -0.51418E+05         0.00000E+00
    0.00000E+00         0.00000E+00        -0.14898E+05
 
    0.22749E+04         0.23539E+04         0.00000E+00
    0.23539E+04        -0.46287E+05         0.00000E+00
    0.00000E+00         0.00000E+00        -0.13204E+05
 
    0.24247E+04         0.19294E+04         0.00000E+00
    0.19294E+04        -0.42086E+05         0.00000E+00
    0.00000E+00         0.00000E+00        -0.11899E+05
 
    0.23569E+04         0.15951E+04         0.00000E+00
    0.15951E+04        -0.38622E+05         0.00000E+00
    0.00000E+00         0.00000E+00        -0.10879E+05
 
    0.21519E+04         0.13299E+04         0.00000E+00
    0.13299E+04        -0.35741E+05         0.00000E+00
    0.00000E+00         0.00000E+00        -0.10077E+05
 
    0.18536E+04         0.11176E+04         0.00000E+00
    0.11176E+04        -0.33326E+05         0.00000E+00
    0.00000E+00         0.00000E+00        -0.94416E+04
 
    0.14857E+04         0.94618E+03         0.00000E+00
    0.94618E+03        -0.31286E+05         0.00000E+00
    0.00000E+00         0.00000E+00        -0.89401E+04
 
    0.10595E+04         0.80664E+03         0.00000E+00
    0.80664E+03        -0.29552E+05         0.00000E+00
    0.00000E+00         0.00000E+00        -0.85476E+04
 
    0.57902E+03         0.69240E+03         0.00000E+00
    0.69240E+03        -0.28067E+05         0.00000E+00
    0.00000E+00         0.00000E+00        -0.82463E+04
 
    0.42690E+02         0.59865E+03         0.00000E+00
    0.59865E+03        -0.26787E+05         0.00000E+00
    0.00000E+00         0.00000E+00        -0.80232E+04
 
   -0.55501E+03         0.52194E+03         0.00000E+00
    0.52194E+03        -0.25675E+05         0.00000E+00
    0.00000E+00         0.00000E+00        -0.78690E+04
 
   -0.12232E+04         0.45980E+03         0.00000E+00
    0.45980E+03        -0.24700E+05         0.00000E+00
    0.00000E+00         0.00000E+00        -0.77770E+04
 
   -0.19745E+04         0.41065E+03         0.00000E+00
    0.41065E+03        -0.23836E+05         0.00000E+00
    0.00000E+00         0.00000E+00        -0.77430E+04
 
   -0.28255E+04         0.37360E+03         0.00000E+00
    0.37360E+03        -0.23056E+05         0.00000E+00
    0.00000E+00         0.00000E+00        -0.77645E+04
 
   -0.37968E+04         0.34843E+03         0.00000E+00
    0.34843E+03        -0.22338E+05         0.00000E+00
    0.00000E+00         0.00000E+00        -0.78406E+04
 
   -0.49148E+04         0.33562E+03         0.00000E+00
    0.33562E+03        -0.21658E+05         0.00000E+00
    0.00000E+00         0.00000E+00        -0.79719E+04
 
   -0.62125E+04         0.33637E+03         0.00000E+00
    0.33637E+03        -0.20990E+05         0.00000E+00
    0.00000E+00         0.00000E+00        -0.81608E+04
 
   -0.77313E+04         0.35280E+03         0.00000E+00
    0.35280E+03        -0.20305E+05         0.00000E+00
    0.00000E+00         0.00000E+00        -0.84109E+04
 
   -0.64581E+05         0.30733E+04         0.00000E+00
    0.30733E+04        -0.99316E+05         0.00000E+00
    0.00000E+00         0.00000E+00        -0.49169E+05
 
   -0.30576E+05         0.13481E+05         0.00000E+00
    0.13481E+05        -0.87764E+05         0.00000E+00
    0.00000E+00         0.00000E+00        -0.35502E+05
 
   -0.15864E+05         0.15997E+05         0.00000E+00
    0.15997E+05        -0.76817E+05         0.00000E+00
    0.00000E+00         0.00000E+00        -0.27804E+05
 
   -0.79189E+04         0.14598E+05         0.00000E+00
    0.14598E+05        -0.67775E+05         0.00000E+00
    0.00000E+00         0.00000E+00        -0.22708E+05
 
   -0.33863E+04         0.12296E+05         0.00000E+00
    0.12296E+05        -0.60185E+05         0.00000E+00
    0.00000E+00         0.00000E+00        -0.19071E+05
 
   -0.82163E+03         0.10092E+05         0.00000E+00
    0.10092E+05        -0.53839E+05         0.00000E+00
    0.00000E+00         0.00000E+00        -0.16398E+05
 
    0.60624E+03         0.82403E+04         0.00000E+00
    0.82403E+04        -0.48548E+05         0.00000E+00
    0.00000E+00         0.00000E+00        -0.14383E+05
 
    0.13593E+04         0.67507E+04         0.00000E+00
    0.67507E+04        -0.44137E+05         0.00000E+00
    0.00000E+00         0.00000E+00        -0.12833E+05
 
    0.17006E+04         0.55668E+04         0.00000E+00
    0.55668E+04        -0.40449E+05         0.00000E+00
    0.00000E+00         0.00000E+00        -0.11625E+05
 
    0.17820E+04         0.46256E+04         0.00000E+00
    0.46256E+04        -0.37352E+05         0.00000E+00
    0.00000E+00         0.00000E+00        -0.10671E+05
 
    0.16919E+04         0.38730E+04         0.00000E+00
    0.38730E+04        -0.34739E+05         0.00000E+00
    0.00000E+00         0.00000E+00        -0.99140E+04
 
    0.14824E+04         0.32663E+04         0.00000E+00
    0.32663E+04        -0.32521E+05         0.00000E+00
    0.00000E+00         0.00000E+00        -0.93115E+04
 
    0.11837E+04         0.27735E+04         0.00000E+00
    0.27735E+04        -0.30629E+05         0.00000E+00
    0.00000E+00         0.00000E+00        -0.88336E+04
 
    0.81227E+03         0.23704E+04         0.00000E+00
    0.23704E+04        -0.29007E+05         0.00000E+00
    0.00000E+00         0.00000E+00        -0.84583E+04
 
    0.37585E+03         0.20391E+04         0.00000E+00
    0.20391E+04        -0.27607E+05         0.00000E+00
    0.00000E+00         0.00000E+00        -0.81695E+04
 
   -0.12420E+03         0.17664E+04         0.00000E+00
    0.17664E+04        -0.26394E+05         0.00000E+00
    0.00000E+00         0.00000E+00        -0.79554E+04
 
   -0.69121E+03         0.15426E+04         0.00000E+00
    0.15426E+04        -0.25334E+05         0.00000E+00
    0.00000E+00         0.00000E+00        -0.78075E+04
 
   -0.13325E+04         0.13611E+04         0.00000E+00
    0.13611E+04        -0.24400E+05         0.00000E+00
    0.00000E+00         0.00000E+00        -0.77198E+04
 
   -0.20594E+04         0.12173E+04         0.00000E+00
    0.12173E+04        -0.23568E+05         0.00000E+00
    0.00000E+00         0.00000E+00        -0.76882E+04
 
   -0.28868E+04         0.11089E+04         0.00000E+00
    0.11089E+04        -0.22815E+05         0.00000E+00
    0.00000E+00         0.00000E+00        -0.77105E+04
 
   -0.38343E+04         0.10354E+04         0.00000E+00
    0.10354E+04        -0.22118E+05         0.00000E+00
    0.00000E+00         0.00000E+00        -0.77858E+04
 
   -0.49269E+04         0.99828E+03         0.00000E+00
    0.99828E+03        -0.21457E+05         0.00000E+00
    0.00000E+00         0.00000E+00        -0.79150E+04
 
   -0.61959E+04         0.10012E+04         0.00000E+00
    0.10012E+04        -0.20805E+05         0.00000E+00
    0.00000E+00         0.00000E+00        -0.81002E+04
 
   -0.76807E+04         0.10503E+04         0.00000E+00
    0.10503E+04        -0.20135E+05         0.00000E+00
    0.00000E+00         0.00000E+00        -0.83448E+04
 
   -0.48122E+05         0.17594E+05         0.00000E+00
    0.17594E+05        -0.74889E+05         0.00000E+00
    0.00000E+00         0.00000E+00        -0.36903E+05
 
   -0.26322E+05         0.25407E+05         0.00000E+00
    0.25407E+05        -0.65491E+05         0.00000E+00
    0.00000E+00         0.00000E+00        -0.27544E+05
 
   -0.17169E+05         0.24191E+05         0.00000E+00
    0.24191E+05        -0.59592E+05         0.00000E+00
    0.00000E+00         0.00000E+00        -0.23028E+05
 
   -0.10622E+05         0.21198E+05         0.00000E+00
    0.21198E+05        -0.54922E+05         0.00000E+00
    0.00000E+00         0.00000E+00        -0.19663E+05
 
   -0.61871E+04         0.17918E+05         0.00000E+00
    0.17918E+05        -0.50728E+05         0.00000E+00
    0.00000E+00         0.00000E+00        -0.17074E+05
 
   -0.32687E+04         0.14922E+05         0.00000E+00
    0.14922E+05        -0.46857E+05         0.00000E+00
    0.00000E+00         0.00000E+00        -0.15038E+05
 
   -0.14113E+04         0.12380E+05         0.00000E+00
    0.12380E+05        -0.43337E+05         0.00000E+00
    0.00000E+00         0.00000E+00        -0.13424E+05
 
   -0.26890E+03         0.10288E+05         0.00000E+00
    0.10288E+05        -0.40189E+05         0.00000E+00
    0.00000E+00         0.00000E+00        -0.12137E+05
 
    0.39331E+03         0.85882E+04         0.00000E+00
    0.85882E+04        -0.37409E+05         0.00000E+00
    0.00000E+00         0.00000E+00        -0.11105E+05
 
    0.72979E+03         0.72088E+04         0.00000E+00
    0.72088E+04        -0.34972E+05         0.00000E+00
    0.00000E+00         0.00000E+00        -0.10273E+05
 
    0.84026E+03         0.60866E+04         0.00000E+00
    0.60866E+04        -0.32844E+05         0.00000E+00
    0.00000E+00         0.00000E+00        -0.96011E+04
 
    0.78849E+03         0.51691E+04         0.00000E+00
    0.51691E+04        -0.30989E+05         0.00000E+00
    0.00000E+00         0.00000E+00        -0.90600E+04
 
    0.61470E+03         0.44149E+04         0.00000E+00
    0.44149E+04        -0.29370E+05         0.00000E+00
    0.00000E+00         0.00000E+00        -0.86267E+04
 
    0.34344E+03         0.37919E+04         0.00000E+00
    0.37919E+04        -0.27957E+05         0.00000E+00
    0.00000E+00         0.00000E+00        -0.82840E+04
 
   -0.11429E+02         0.32759E+04         0.00000E+00
    0.32759E+04        -0.26719E+05         0.00000E+00
    0.00000E+00         0.00000E+00        -0.80191E+04
 
   -0.44366E+03         0.28484E+04         0.00000E+00
    0.28484E+04        -0.25631E+05         0.00000E+00
    0.00000E+00         0.00000E+00        -0.78224E+04
 
   -0.95275E+03         0.24959E+04         0.00000E+00
    0.24959E+04        -0.24670E+05         0.00000E+00
    0.00000E+00         0.00000E+00        -0.76868E+04
 
   -0.15430E+04         0.22089E+04         0.00000E+00
    0.22089E+04        -0.23814E+05         0.00000E+00
    0.00000E+00         0.00000E+00        -0.76071E+04
 
   -0.22228E+04         0.19811E+04         0.00000E+00
    0.19811E+04        -0.23044E+05         0.00000E+00
    0.00000E+00         0.00000E+00        -0.75801E+04
 
   -0.30048E+04         0.18094E+04         0.00000E+00
    0.18094E+04        -0.22341E+05         0.00000E+00
    0.00000E+00         0.00000E+00        -0.76039E+04
 
   -0.39062E+04         0.16934E+04         0.00000E+00
    0.16934E+04        -0.21687E+05         0.00000E+00
    0.00000E+00         0.00000E+00        -0.76779E+04
 
   -0.49492E+04         0.16357E+04         0.00000E+00
    0.16357E+04        -0.21060E+05         0.00000E+00
    0.00000E+00         0.00000E+00        -0.78028E+04
 
   -0.61621E+04         0.16424E+04         0.00000E+00
    0.16424E+04        -0.20440E+05         0.00000E+00
    0.00000E+00         0.00000E+00        -0.79807E+04
 
   -0.75807E+04         0.17238E+04         0.00000E+00
    0.17238E+04        -0.19802E+05         0.00000E+00
    0.00000E+00         0.00000E+00        -0.82148E+04
 
   -0.22457E+05         0.17640E+05         0.00000E+00
    0.17640E+05        -0.25090E+05         0.00000E+00
    0.00000E+00         0.00000E+00        -0.14264E+05
 
   -0.25864E+05         0.25944E+05         0.00000E+00
    0.25944E+05        -0.33925E+05         0.00000E+00
    0.00000E+00         0.00000E+00        -0.17937E+05
 
   -0.19351E+05         0.25462E+05         0.00000E+00
    0.25462E+05        -0.37966E+05         0.00000E+00
    0.00000E+00         0.00000E+00        -0.17195E+05
 
   -0.13710E+05         0.23127E+05         0.00000E+00
    0.23127E+05        -0.39342E+05         0.00000E+00
    0.00000E+00         0.00000E+00        -0.15916E+05
 
   -0.92865E+04         0.20259E+05         0.00000E+00
    0.20259E+05        -0.39182E+05         0.00000E+00
    0.00000E+00         0.00000E+00        -0.14540E+05
 
   -0.60619E+04         0.17422E+05         0.00000E+00
    0.17422E+05        -0.38161E+05         0.00000E+00
    0.00000E+00         0.00000E+00        -0.13267E+05
 
   -0.38002E+04         0.14850E+05         0.00000E+00
    0.14850E+05        -0.36697E+05         0.00000E+00
    0.00000E+00         0.00000E+00        -0.12149E+05
 
   -0.22636E+04         0.12620E+05         0.00000E+00
    0.12620E+05        -0.35050E+05         0.00000E+00
    0.00000E+00         0.00000E+00        -0.11194E+05
 
   -0.12555E+04         0.10729E+05         0.00000E+00
    0.10729E+05        -0.33376E+05         0.00000E+00
    0.00000E+00         0.00000E+00        -0.10389E+05
 
   -0.62967E+03         0.91414E+04         0.00000E+00
    0.91414E+04        -0.31762E+05         0.00000E+00
    0.00000E+00         0.00000E+00        -0.97175E+04
 
   -0.28216E+03         0.78138E+04         0.00000E+00
    0.78138E+04        -0.30253E+05         0.00000E+00
    0.00000E+00         0.00000E+00        -0.91606E+04
 
   -0.14109E+03         0.67039E+04         0.00000E+00
    0.67039E+04        -0.28868E+05         0.00000E+00
    0.00000E+00         0.00000E+00        -0.87028E+04
 
   -0.15778E+03         0.57748E+04         0.00000E+00
    0.57748E+04        -0.27611E+05         0.00000E+00
    0.00000E+00         0.00000E+00        -0.83307E+04
 
   -0.30007E+03         0.49961E+04         0.00000E+00
    0.49961E+04        -0.26477E+05         0.00000E+00
    0.00000E+00         0.00000E+00        -0.80331E+04
 
   -0.54769E+03         0.43432E+04         0.00000E+00
    0.43432E+04        -0.25458E+05         0.00000E+00
    0.00000E+00         0.00000E+00        -0.78016E+04
 
   -0.88909E+03         0.37973E+04         0.00000E+00
    0.37973E+04        -0.24541E+05         0.00000E+00
    0.00000E+00         0.00000E+00        -0.76291E+04
 
   -0.13193E+04         0.33438E+04         0.00000E+00
    0.33438E+04        -0.23716E+05         0.00000E+00
    0.00000E+00         0.00000E+00        -0.75106E+04
 
   -0.18389E+04         0.29727E+04         0.00000E+00
    0.29727E+04        -0.22969E+05         0.00000E+00
    0.00000E+00         0.00000E+00        -0.74423E+04
 
   -0.24529E+04         0.26773E+04         0.00000E+00
    0.26773E+04        -0.22286E+05         0.00000E+00
    0.00000E+00         0.00000E+00        -0.74217E+04
 
   -0.31707E+04         0.24546E+04         0.00000E+00
    0.24546E+04        -0.21654E+05         0.00000E+00
    0.00000E+00         0.00000E+00        -0.74475E+04
 
   -0.40062E+04         0.23049E+04         0.00000E+00
    0.23049E+04        -0.21058E+05         0.00000E+00
    0.00000E+00         0.00000E+00        -0.75194E+04
 
   -0.49781E+04         0.22325E+04         0.00000E+00
    0.22325E+04        -0.20482E+05         0.00000E+00
    0.00000E+00         0.00000E+00        -0.76381E+04
 
   -0.61103E+04         0.22459E+04         0.00000E+00
    0.22459E+04        -0.19908E+05         0.00000E+00
    0.00000E+00         0.00000E+00        -0.78055E+04
 
   -0.74335E+04         0.23587E+04         0.00000E+00
    0.23587E+04        -0.19314E+05         0.00000E+00
    0.00000E+00         0.00000E+00        -0.80243E+04
 
   -0.54729E+04         0.32381E+04         0.00000E+00
    0.32381E+04        -0.64123E+03         0.00000E+00
    0.00000E+00         0.00000E+00        -0.18342E+04
 
   -0.20250E+05         0.15274E+05         0.00000E+00
    0.15274E+05        -0.11420E+05         0.00000E+00
    0.00000E+00         0.00000E+00        -0.95010E+04
 
   -0.19185E+05         0.20104E+05         0.00000E+00
    0.20104E+05        -0.19980E+05         0.00000E+00
    0.00000E+00         0.00000E+00        -0.11750E+05
 
   -0.15355E+05         0.20644E+05         0.00000E+00
    0.20644E+05        -0.25158E+05         0.00000E+00
    0.00000E+00         0.00000E+00        -0.12154E+05
 
   -0.11573E+05         0.19462E+05         0.00000E+00
    0.19462E+05        -0.27999E+05         0.00000E+00
    0.00000E+00         0.00000E+00        -0.11872E+05
 
   -0.84367E+04         0.17615E+05         0.00000E+00
    0.17615E+05        -0.29315E+05         0.00000E+00
    0.00000E+00         0.00000E+00        -0.11325E+05
 
   -0.60220E+04         0.15604E+05         0.00000E+00
    0.15604E+05        -0.29664E+05         0.00000E+00
    0.00000E+00         0.00000E+00        -0.10706E+05
 
   -0.42404E+04         0.13665E+05         0.00000E+00
    0.13665E+05        -0.29422E+05         0.00000E+00
    0.00000E+00         0.00000E+00        -0.10099E+05
 
   -0.29697E+04         0.11898E+05         0.00000E+00
    0.11898E+05        -0.28835E+05         0.00000E+00
    0.00000E+00         0.00000E+00        -0.95415E+04
 
   -0.20966E+04         0.10335E+05         0.00000E+00
    0.10335E+05        -0.28064E+05         0.00000E+00
    0.00000E+00         0.00000E+00        -0.90483E+04
 
   -0.15295E+04         0.89743E+04         0.00000E+00
    0.89743E+04        -0.27211E+05         0.00000E+00
    0.00000E+00         0.00000E+00        -0.86221E+04
 
   -0.11988E+04         0.78009E+04         0.00000E+00
    0.78009E+04        -0.26338E+05         0.00000E+00
    0.00000E+00         0.00000E+00        -0.82610E+04
 
   -0.10536E+04         0.67939E+04         0.00000E+00
    0.67939E+04        -0.25482E+05         0.00000E+00
    0.00000E+00         0.00000E+00        -0.79608E+04
 
   -0.10579E+04         0.59329E+04         0.00000E+00
    0.59329E+04        -0.24666E+05         0.00000E+00
    0.00000E+00         0.00000E+00        -0.77171E+04
 
   -0.11870E+04         0.51996E+04         0.00000E+00
    0.51996E+04        -0.23898E+05         0.00000E+00
    0.00000E+00         0.00000E+00        -0.75256E+04
 
   -0.14253E+04         0.45786E+04         0.00000E+00
    0.45786E+04        -0.23183E+05         0.00000E+00
    0.00000E+00         0.00000E+00        -0.73824E+04
 
   -0.17638E+04         0.40579E+04         0.00000E+00
    0.40579E+04        -0.22519E+05         0.00000E+00
    0.00000E+00         0.00000E+00        -0.72847E+04
 
   -0.21994E+04         0.36288E+04         0.00000E+00
    0.36288E+04        -0.21901E+05         0.00000E+00
    0.00000E+00         0.00000E+00        -0.72302E+04
 
   -0.27336E+04         0.32860E+04         0.00000E+00
    0.32860E+04        -0.21324E+05         0.00000E+00
    0.00000E+00         0.00000E+00        -0.72174E+04
 
   -0.33725E+04         0.30277E+04         0.00000E+00
    0.30277E+04        -0.20779E+05         0.00000E+00
    0.00000E+00         0.00000E+00        -0.72455E+04
 
   -0.41261E+04         0.28557E+04         0.00000E+00
    0.28557E+04        -0.20256E+05         0.00000E+00
    0.00000E+00         0.00000E+00        -0.73145E+04
 
   -0.50087E+04         0.27759E+04         0.00000E+00
    0.27759E+04        -0.19742E+05         0.00000E+00
    0.00000E+00         0.00000E+00        -0.74253E+04
 
   -0.60395E+04         0.27991E+04         0.00000E+00
    0.27991E+04        -0.19225E+05         0.00000E+00
    0.00000E+00         0.00000E+00        -0.75793E+04
 
   -0.72424E+04         0.29422E+04         0.00000E+00
    0.29422E+04        -0.18687E+05         0.00000E+00
    0.00000E+00         0.00000E+00        -0.77788E+04
 
    0.48349E+03         0.10065E+04         0.00000E+00
    0.10065E+04        -0.58769E+03         0.00000E+00
    0.00000E+00         0.00000E+00        -0.31258E+02
 
   -0.11757E+05         0.73085E+04         0.00000E+00
    0.73085E+04        -0.33812E+04         0.00000E+00
    0.00000E+00         0.00000E+00        -0.45414E+04
 
   -0.15764E+05         0.13257E+05         0.00000E+00
    0.13257E+05        -0.94797E+04         0.00000E+00
    0.00000E+00         0.00000E+00        -0.75730E+04
 
   -0.14785E+05         0.16060E+05         0.00000E+00
    0.16060E+05        -0.14942E+05         0.00000E+00
    0.00000E+00         0.00000E+00        -0.89181E+04
 
   -0.12401E+05         0.16680E+05         0.00000E+00
    0.16680E+05        -0.18915E+05         0.00000E+00
    0.00000E+00         0.00000E+00        -0.93948E+04
 
   -0.98842E+04         0.16111E+05         0.00000E+00
    0.16111E+05        -0.21533E+05         0.00000E+00
    0.00000E+00         0.00000E+00        -0.94250E+04
 
   -0.76752E+04         0.14962E+05         0.00000E+00
    0.14962E+05        -0.23107E+05         0.00000E+00
    0.00000E+00         0.00000E+00        -0.92346E+04
 
   -0.58872E+04         0.13584E+05         0.00000E+00
    0.13584E+05        -0.23933E+05         0.00000E+00
    0.00000E+00         0.00000E+00        -0.89461E+04
 
   -0.45086E+04         0.12167E+05         0.00000E+00
    0.12167E+05        -0.24245E+05         0.00000E+00
    0.00000E+00         0.00000E+00        -0.86261E+04
 
   -0.34866E+04         0.10813E+05         0.00000E+00
    0.10813E+05        -0.24215E+05         0.00000E+00
    0.00000E+00         0.00000E+00        -0.83105E+04
 
   -0.27606E+04         0.95666E+04         0.00000E+00
    0.95666E+04        -0.23966E+05         0.00000E+00
    0.00000E+00         0.00000E+00        -0.80180E+04
 
   -0.22764E+04         0.84456E+04         0.00000E+00
    0.84456E+04        -0.23584E+05         0.00000E+00
    0.00000E+00         0.00000E+00        -0.77581E+04
 
   -0.19894E+04         0.74521E+04         0.00000E+00
    0.74521E+04        -0.23126E+05         0.00000E+00
    0.00000E+00         0.00000E+00        -0.75347E+04
 
   -0.18654E+04         0.65809E+04         0.00000E+00
    0.65809E+04        -0.22632E+05         0.00000E+00
    0.00000E+00         0.00000E+00        -0.73492E+04
 
   -0.18791E+04         0.58239E+04         0.00000E+00
    0.58239E+04        -0.22126E+05         0.00000E+00
    0.00000E+00         0.00000E+00        -0.72014E+04
 
   -0.20128E+04         0.51728E+04         0.00000E+00
    0.51728E+04        -0.21623E+05         0.00000E+00
    0.00000E+00         0.00000E+00        -0.70906E+04
 
   -0.22551E+04         0.46204E+04         0.00000E+00
    0.46204E+04        -0.21131E+05         0.00000E+00
    0.00000E+00         0.00000E+00        -0.70160E+04
 
   -0.26002E+04         0.41615E+04         0.00000E+00
    0.41615E+04        -0.20656E+05         0.00000E+00
    0.00000E+00         0.00000E+00        -0.69767E+04
 
   -0.30464E+04         0.37935E+04         0.00000E+00
    0.37935E+04        -0.20195E+05         0.00000E+00
    0.00000E+00         0.00000E+00        -0.69724E+04
 
   -0.35962E+04         0.35166E+04         0.00000E+00
    0.35166E+04        -0.19746E+05         0.00000E+00
    0.00000E+00         0.00000E+00        -0.70028E+04
 
   -0.42560E+04         0.33346E+04         0.00000E+00
    0.33346E+04        -0.19305E+05         0.00000E+00
    0.00000E+00         0.00000E+00        -0.70683E+04
 
   -0.50356E+04         0.32555E+04         0.00000E+00
    0.32555E+04        -0.18863E+05         0.00000E+00
    0.00000E+00         0.00000E+00        -0.71695E+04
 
   -0.59484E+04         0.32921E+04         0.00000E+00
    0.32921E+04        -0.18411E+05         0.00000E+00
    0.00000E+00         0.00000E+00        -0.73079E+04
 
   -0.70118E+04         0.34638E+04         0.00000E+00
    0.34638E+04        -0.17938E+05         0.00000E+00
    0.00000E+00         0.00000E+00        -0.74850E+04
 
    0.32281E+04         0.38100E+03         0.00000E+00
    0.38100E+03        -0.78819E+02         0.00000E+00
    0.00000E+00         0.00000E+00         0.94478E+03
 
   -0.63738E+04         0.38495E+04         0.00000E+00
    0.38495E+04        -0.14772E+04         0.00000E+00
    0.00000E+00         0.00000E+00        -0.23553E+04
 
   -0.11415E+05         0.82619E+04         0.00000E+00
    0.82619E+04        -0.46528E+04         0.00000E+00
    0.00000E+00         0.00000E+00        -0.48203E+04
 
   -0.12696E+05         0.11567E+05         0.00000E+00
    0.11567E+05        -0.87216E+04         0.00000E+00
    0.00000E+00         0.00000E+00        -0.64252E+04
 
   -0.11889E+05         0.13263E+05         0.00000E+00
    0.13263E+05        -0.12441E+05         0.00000E+00
    0.00000E+00         0.00000E+00        -0.72991E+04
 
   -0.10311E+05         0.13734E+05         0.00000E+00
    0.13734E+05        -0.15390E+05         0.00000E+00
    0.00000E+00         0.00000E+00        -0.77103E+04
 
   -0.85983E+04         0.13429E+05         0.00000E+00
    0.13429E+05        -0.17543E+05         0.00000E+00
    0.00000E+00         0.00000E+00        -0.78425E+04
 
   -0.70324E+04         0.12684E+05         0.00000E+00
    0.12684E+05        -0.19016E+05         0.00000E+00
    0.00000E+00         0.00000E+00        -0.78145E+04
 
   -0.57149E+04         0.11723E+05         0.00000E+00
    0.11723E+05        -0.19953E+05         0.00000E+00
    0.00000E+00         0.00000E+00        -0.77004E+04
 
   -0.46640E+04         0.10685E+05         0.00000E+00
    0.10685E+05        -0.20490E+05         0.00000E+00
    0.00000E+00         0.00000E+00        -0.75462E+04
 
   -0.38626E+04         0.96526E+04         0.00000E+00
    0.96526E+04        -0.20736E+05         0.00000E+00
    0.00000E+00         0.00000E+00        -0.73796E+04
 
   -0.32815E+04         0.86711E+04         0.00000E+00
    0.86711E+04        -0.20777E+05         0.00000E+00
    0.00000E+00         0.00000E+00        -0.72177E+04
 
   -0.28904E+04         0.77649E+04         0.00000E+00
    0.77649E+04        -0.20677E+05         0.00000E+00
    0.00000E+00         0.00000E+00        -0.70703E+04
 
   -0.26624E+04         0.69449E+04         0.00000E+00
    0.69449E+04        -0.20482E+05         0.00000E+00
    0.00000E+00         0.00000E+00        -0.69433E+04
 
   -0.25754E+04         0.62150E+04         0.00000E+00
    0.62150E+04        -0.20225E+05         0.00000E+00
    0.00000E+00         0.00000E+00        -0.68402E+04
 
   -0.26126E+04         0.55754E+04         0.00000E+00
    0.55754E+04        -0.19930E+05         0.00000E+00
    0.00000E+00         0.00000E+00        -0.67627E+04
 
   -0.27622E+04         0.50252E+04         0.00000E+00
    0.50252E+04        -0.19611E+05         0.00000E+00
    0.00000E+00         0.00000E+00        -0.67120E+04
 
   -0.30164E+04         0.45640E+04         0.00000E+00
    0.45640E+04        -0.19279E+05         0.00000E+00
    0.00000E+00         0.00000E+00        -0.66885E+04
 
   -0.33715E+04         0.41926E+04         0.00000E+00
    0.41926E+04        -0.18938E+05         0.00000E+00
    0.00000E+00         0.00000E+00        -0.66928E+04
 
   -0.38270E+04         0.39142E+04         0.00000E+00
    0.39142E+04        -0.18590E+05         0.00000E+00
    0.00000E+00         0.00000E+00        -0.67252E+04
 
   -0.43857E+04         0.37347E+04         0.00000E+00
    0.37347E+04        -0.18236E+05         0.00000E+00
    0.00000E+00         0.00000E+00        -0.67864E+04
 
   -0.50528E+04         0.36643E+04         0.00000E+00
    0.36643E+04        -0.17870E+05         0.00000E+00
    0.00000E+00         0.00000E+00        -0.68770E+04
 
   -0.58363E+04         0.37176E+04         0.00000E+00
    0.37176E+04        -0.17490E+05         0.00000E+00
    0.00000E+00         0.00000E+00        -0.69979E+04
 
   -0.67464E+04         0.39159E+04         0.00000E+00
    0.39159E+04        -0.17088E+05         0.00000E+00
    0.00000E+00         0.00000E+00        -0.71503E+04
 
    0.45669E+04         0.14594E+03         0.00000E+00
    0.14594E+03        -0.52071E+02         0.00000E+00
    0.00000E+00         0.00000E+00         0.13545E+04
 
   -0.29309E+04         0.21453E+04         0.00000E+00
    0.21453E+04        -0.70813E+03         0.00000E+00
    0.00000E+00         0.00000E+00        -0.10917E+04
 
   -0.78677E+04         0.52211E+04         0.00000E+00
    0.52211E+04        -0.25444E+04         0.00000E+00
    0.00000E+00         0.00000E+00        -0.31236E+04
 
   -0.10168E+05         0.80895E+04         0.00000E+00
    0.80895E+04        -0.52415E+04         0.00000E+00
    0.00000E+00         0.00000E+00        -0.46230E+04
 
   -0.10582E+05         0.10099E+05         0.00000E+00
    0.10099E+05        -0.81899E+04         0.00000E+00
    0.00000E+00         0.00000E+00        -0.56315E+04
 
   -0.99391E+04         0.11170E+05         0.00000E+00
    0.11170E+05        -0.10892E+05         0.00000E+00
    0.00000E+00         0.00000E+00        -0.62492E+04
 
   -0.88464E+04         0.11495E+05         0.00000E+00
    0.11495E+05        -0.13134E+05         0.00000E+00
    0.00000E+00         0.00000E+00        -0.65941E+04
 
   -0.76499E+04         0.11305E+05         0.00000E+00
    0.11305E+05        -0.14878E+05         0.00000E+00
    0.00000E+00         0.00000E+00        -0.67584E+04
 
   -0.65270E+04         0.10795E+05         0.00000E+00
    0.10795E+05        -0.16168E+05         0.00000E+00
    0.00000E+00         0.00000E+00        -0.68086E+04
 
   -0.55561E+04         0.10106E+05         0.00000E+00
    0.10106E+05        -0.17078E+05         0.00000E+00
    0.00000E+00         0.00000E+00        -0.67902E+04
 
   -0.47634E+04         0.93341E+04         0.00000E+00
    0.93341E+04        -0.17684E+05         0.00000E+00
    0.00000E+00         0.00000E+00        -0.67342E+04
 
   -0.41482E+04         0.85438E+04         0.00000E+00
    0.85438E+04        -0.18055E+05         0.00000E+00
    0.00000E+00         0.00000E+00        -0.66611E+04
 
   -0.36987E+04         0.77747E+04         0.00000E+00
    0.77747E+04        -0.18249E+05         0.00000E+00
    0.00000E+00         0.00000E+00        -0.65844E+04
 
   -0.33992E+04         0.70514E+04         0.00000E+00
    0.70514E+04        -0.18311E+05         0.00000E+00
    0.00000E+00         0.00000E+00        -0.65131E+04
 
   -0.32341E+04         0.63885E+04         0.00000E+00
    0.63885E+04        -0.18276E+05         0.00000E+00
    0.00000E+00         0.00000E+00        -0.64530E+04
 
   -0.31899E+04         0.57950E+04         0.00000E+00
    0.57950E+04        -0.18170E+05         0.00000E+00
    0.00000E+00         0.00000E+00        -0.64080E+04
 
   -0.32561E+04         0.52763E+04         0.00000E+00
    0.52763E+04        -0.18013E+05         0.00000E+00
    0.00000E+00         0.00000E+00        -0.63806E+04
 
   -0.34246E+04         0.48372E+04         0.00000E+00
    0.48372E+04        -0.17817E+05         0.00000E+00
    0.00000E+00         0.00000E+00        -0.63726E+04
 
   -0.36904E+04         0.44824E+04         0.00000E+00
    0.44824E+04        -0.17593E+05         0.00000E+00
    0.00000E+00         0.00000E+00        -0.63850E+04
 
   -0.40507E+04         0.42181E+04         0.00000E+00
    0.42181E+04        -0.17346E+05         0.00000E+00
    0.00000E+00         0.00000E+00        -0.64190E+04
 
   -0.45051E+04         0.40527E+04         0.00000E+00
    0.40527E+04        -0.17079E+05         0.00000E+00
    0.00000E+00         0.00000E+00        -0.64751E+04
 
   -0.50549E+04         0.39983E+04         0.00000E+00
    0.39983E+04        -0.16792E+05         0.00000E+00
    0.00000E+00         0.00000E+00        -0.65541E+04
 
   -0.57026E+04         0.40712E+04         0.00000E+00
    0.40712E+04        -0.16486E+05         0.00000E+00
    0.00000E+00         0.00000E+00        -0.66565E+04
 
   -0.64517E+04         0.42934E+04         0.00000E+00
    0.42934E+04        -0.16158E+05         0.00000E+00
    0.00000E+00         0.00000E+00        -0.67828E+04
 
    0.52585E+04         0.27342E+02         0.00000E+00
    0.27342E+02        -0.24802E+02         0.00000E+00
    0.00000E+00         0.00000E+00         0.15701E+04
 
   -0.73847E+03         0.12238E+04         0.00000E+00
    0.12238E+04        -0.40043E+03         0.00000E+00
    0.00000E+00         0.00000E+00        -0.34167E+03
 
   -0.51908E+04         0.33417E+04         0.00000E+00
    0.33417E+04        -0.15001E+04         0.00000E+00
    0.00000E+00         0.00000E+00        -0.20073E+04
 
   -0.78533E+04         0.56212E+04         0.00000E+00
    0.56212E+04        -0.33012E+04         0.00000E+00
    0.00000E+00         0.00000E+00        -0.33463E+04
 
   -0.89950E+04         0.75193E+04         0.00000E+00
    0.75193E+04        -0.54927E+04         0.00000E+00
    0.00000E+00         0.00000E+00        -0.43463E+04
 
   -0.90935E+04         0.88149E+04         0.00000E+00
    0.88149E+04        -0.77363E+04         0.00000E+00
    0.00000E+00         0.00000E+00        -0.50489E+04
 
   -0.85924E+04         0.95157E+04         0.00000E+00
    0.95157E+04        -0.97929E+04         0.00000E+00
    0.00000E+00         0.00000E+00        -0.55156E+04
 
   -0.78144E+04         0.97335E+04         0.00000E+00
    0.97335E+04        -0.11548E+05         0.00000E+00
    0.00000E+00         0.00000E+00        -0.58086E+04
 
   -0.69613E+04         0.96006E+04         0.00000E+00
    0.96006E+04        -0.12971E+05         0.00000E+00
    0.00000E+00         0.00000E+00        -0.59796E+04
 
   -0.61478E+04         0.92343E+04         0.00000E+00
    0.92343E+04        -0.14079E+05         0.00000E+00
    0.00000E+00         0.00000E+00        -0.60681E+04
 
   -0.54322E+04         0.87268E+04         0.00000E+00
    0.87268E+04        -0.14912E+05         0.00000E+00
    0.00000E+00         0.00000E+00        -0.61034E+04
 
   -0.48398E+04         0.81458E+04         0.00000E+00
    0.81458E+04        -0.15515E+05         0.00000E+00
    0.00000E+00         0.00000E+00        -0.61064E+04
 
   -0.43769E+04         0.75393E+04         0.00000E+00
    0.75393E+04        -0.15930E+05         0.00000E+00
    0.00000E+00         0.00000E+00        -0.60921E+04
 
   -0.40404E+04         0.69405E+04         0.00000E+00
    0.69405E+04        -0.16196E+05         0.00000E+00
    0.00000E+00         0.00000E+00        -0.60709E+04
 
   -0.38232E+04         0.63723E+04         0.00000E+00
    0.63723E+04        -0.16345E+05         0.00000E+00
    0.00000E+00         0.00000E+00        -0.60503E+04
 
   -0.37166E+04         0.58502E+04         0.00000E+00
    0.58502E+04        -0.16401E+05         0.00000E+00
    0.00000E+00         0.00000E+00        -0.60354E+04
 
   -0.37127E+04         0.53860E+04         0.00000E+00
    0.53860E+04        -0.16386E+05         0.00000E+00
    0.00000E+00         0.00000E+00        -0.60297E+04
 
   -0.38045E+04         0.49888E+04         0.00000E+00
    0.49888E+04        -0.16315E+05         0.00000E+00
    0.00000E+00         0.00000E+00        -0.60360E+04
 
   -0.39865E+04         0.46672E+04         0.00000E+00
    0.46672E+04        -0.16199E+05         0.00000E+00
    0.00000E+00         0.00000E+00        -0.60558E+04
 
   -0.42546E+04         0.44303E+04         0.00000E+00
    0.44303E+04        -0.16047E+05         0.00000E+00
    0.00000E+00         0.00000E+00        -0.60905E+04
 
   -0.46056E+04         0.42890E+04         0.00000E+00
    0.42890E+04        -0.15865E+05         0.00000E+00
    0.00000E+00         0.00000E+00        -0.61410E+04
 
   -0.50373E+04         0.42568E+04         0.00000E+00
    0.42568E+04        -0.15655E+05         0.00000E+00
    0.00000E+00         0.00000E+00        -0.62078E+04
 
   -0.55475E+04         0.43511E+04         0.00000E+00
    0.43511E+04        -0.15423E+05         0.00000E+00
    0.00000E+00         0.00000E+00        -0.62911E+04
 
   -0.61335E+04         0.45944E+04         0.00000E+00
    0.45944E+04        -0.15170E+05         0.00000E+00
    0.00000E+00         0.00000E+00        -0.63910E+04
 
    0.55916E+04        -0.42965E+02         0.00000E+00
   -0.42965E+02        -0.16511E+02         0.00000E+00
    0.00000E+00         0.00000E+00         0.16725E+04
 
    0.68875E+03         0.67650E+03         0.00000E+00
    0.67650E+03        -0.24594E+03         0.00000E+00
    0.00000E+00         0.00000E+00         0.13285E+03
 
   -0.32320E+04         0.21408E+04         0.00000E+00
    0.21408E+04        -0.94805E+03         0.00000E+00
    0.00000E+00         0.00000E+00        -0.12540E+04
 
   -0.59202E+04         0.38902E+04         0.00000E+00
    0.38902E+04        -0.21706E+04         0.00000E+00
    0.00000E+00         0.00000E+00        -0.24272E+04
 
   -0.74420E+04         0.55283E+04         0.00000E+00
    0.55283E+04        -0.37781E+04         0.00000E+00
    0.00000E+00         0.00000E+00        -0.33660E+04
 
   -0.80466E+04         0.68213E+04         0.00000E+00
    0.68213E+04        -0.55591E+04         0.00000E+00
    0.00000E+00         0.00000E+00        -0.40817E+04
 
   -0.80288E+04         0.76921E+04         0.00000E+00
    0.76921E+04        -0.73233E+04         0.00000E+00
    0.00000E+00         0.00000E+00        -0.46056E+04
 
   -0.76441E+04         0.81648E+04         0.00000E+00
    0.81648E+04        -0.89417E+04         0.00000E+00
    0.00000E+00         0.00000E+00        -0.49758E+04
 
   -0.70811E+04         0.83104E+04         0.00000E+00
    0.83104E+04        -0.10348E+05         0.00000E+00
    0.00000E+00         0.00000E+00        -0.52288E+04
 
   -0.64649E+04         0.82105E+04         0.00000E+00
    0.82105E+04        -0.11522E+05         0.00000E+00
    0.00000E+00         0.00000E+00        -0.53960E+04
 
   -0.58720E+04         0.79400E+04         0.00000E+00
    0.79400E+04        -0.12470E+05         0.00000E+00
    0.00000E+00         0.00000E+00        -0.55025E+04
 
   -0.53456E+04         0.75610E+04         0.00000E+00
    0.75610E+04        -0.13212E+05         0.00000E+00
    0.00000E+00         0.00000E+00        -0.55674E+04
 
   -0.49072E+04         0.71220E+04         0.00000E+00
    0.71220E+04        -0.13778E+05         0.00000E+00
    0.00000E+00         0.00000E+00        -0.56054E+04
 
   -0.45655E+04         0.66594E+04         0.00000E+00
    0.66594E+04        -0.14193E+05         0.00000E+00
    0.00000E+00         0.00000E+00        -0.56274E+04
 
   -0.43215E+04         0.62007E+04         0.00000E+00
    0.62007E+04        -0.14483E+05         0.00000E+00
    0.00000E+00         0.00000E+00        -0.56413E+04
 
   -0.41724E+04         0.57663E+04         0.00000E+00
    0.57663E+04        -0.14671E+05         0.00000E+00
    0.00000E+00         0.00000E+00        -0.56530E+04
 
   -0.41137E+04         0.53722E+04         0.00000E+00
    0.53722E+04        -0.14775E+05         0.00000E+00
    0.00000E+00         0.00000E+00        -0.56667E+04
 
   -0.41402E+04         0.50313E+04         0.00000E+00
    0.50313E+04        -0.14811E+05         0.00000E+00
    0.00000E+00         0.00000E+00        -0.56855E+04
 
   -0.42467E+04         0.47556E+04         0.00000E+00
    0.47556E+04        -0.14792E+05         0.00000E+00
    0.00000E+00         0.00000E+00        -0.57115E+04
 
   -0.44282E+04         0.45566E+04         0.00000E+00
    0.45566E+04        -0.14726E+05         0.00000E+00
    0.00000E+00         0.00000E+00        -0.57462E+04
 
   -0.46799E+04         0.44470E+04         0.00000E+00
    0.44470E+04        -0.14622E+05         0.00000E+00
    0.00000E+00         0.00000E+00        -0.57905E+04
 
   -0.49964E+04         0.44416E+04         0.00000E+00
    0.44416E+04        -0.14487E+05         0.00000E+00
    0.00000E+00         0.00000E+00        -0.58449E+04
 
   -0.53716E+04         0.45583E+04         0.00000E+00
    0.45583E+04        -0.14326E+05         0.00000E+00
    0.00000E+00         0.00000E+00        -0.59091E+04
 
   -0.57975E+04         0.48192E+04         0.00000E+00
    0.48192E+04        -0.14145E+05         0.00000E+00
    0.00000E+00         0.00000E+00        -0.59828E+04
 
    0.57083E+04        -0.88766E+02         0.00000E+00
   -0.88766E+02        -0.11153E+02         0.00000E+00
    0.00000E+00         0.00000E+00         0.17091E+04
 
    0.16225E+04         0.32784E+03         0.00000E+00
    0.32784E+03        -0.16179E+03         0.00000E+00
    0.00000E+00         0.00000E+00         0.43821E+03
 
   -0.18083E+04         0.13418E+04         0.00000E+00
    0.13418E+04        -0.63066E+03         0.00000E+00
    0.00000E+00         0.00000E+00        -0.73169E+03
 
   -0.43736E+04         0.26656E+04         0.00000E+00
    0.26656E+04        -0.14827E+04         0.00000E+00
    0.00000E+00         0.00000E+00        -0.17569E+04
 
   -0.60552E+04         0.40190E+04         0.00000E+00
    0.40190E+04        -0.26645E+04         0.00000E+00
    0.00000E+00         0.00000E+00        -0.26159E+04
 
   -0.69736E+04         0.52009E+04         0.00000E+00
    0.52009E+04        -0.40536E+04         0.00000E+00
    0.00000E+00         0.00000E+00        -0.33082E+04
 
   -0.73123E+04         0.61069E+04         0.00000E+00
    0.61069E+04        -0.55142E+04         0.00000E+00
    0.00000E+00         0.00000E+00        -0.38480E+04
 
   -0.72576E+04         0.67121E+04         0.00000E+00
    0.67121E+04        -0.69341E+04         0.00000E+00
    0.00000E+00         0.00000E+00        -0.42575E+04
 
   -0.69661E+04         0.70409E+04         0.00000E+00
    0.70409E+04        -0.82383E+04         0.00000E+00
    0.00000E+00         0.00000E+00        -0.45613E+04
 
   -0.65555E+04         0.71407E+04         0.00000E+00
    0.71407E+04        -0.93861E+04         0.00000E+00
    0.00000E+00         0.00000E+00        -0.47825E+04
 
   -0.61074E+04         0.70652E+04         0.00000E+00
    0.70652E+04        -0.10363E+05         0.00000E+00
    0.00000E+00         0.00000E+00        -0.49412E+04
 
   -0.56743E+04         0.68649E+04         0.00000E+00
    0.68649E+04        -0.11172E+05         0.00000E+00
    0.00000E+00         0.00000E+00        -0.50539E+04
 
   -0.52882E+04         0.65830E+04         0.00000E+00
    0.65830E+04        -0.11824E+05         0.00000E+00
    0.00000E+00         0.00000E+00        -0.51338E+04
 
   -0.49667E+04         0.62554E+04         0.00000E+00
    0.62554E+04        -0.12337E+05         0.00000E+00
    0.00000E+00         0.00000E+00        -0.51912E+04
 
   -0.47182E+04         0.59105E+04         0.00000E+00
    0.59105E+04        -0.12728E+05         0.00000E+00
    0.00000E+00         0.00000E+00        -0.52340E+04
 
   -0.45453E+04         0.55712E+04         0.00000E+00
    0.55712E+04        -0.13015E+05         0.00000E+00
    0.00000E+00         0.00000E+00        -0.52682E+04
 
   -0.44471E+04         0.52560E+04         0.00000E+00
    0.52560E+04        -0.13214E+05         0.00000E+00
    0.00000E+00         0.00000E+00        -0.52983E+04
 
   -0.44204E+04         0.49806E+04         0.00000E+00
    0.49806E+04        -0.13338E+05         0.00000E+00
    0.00000E+00         0.00000E+00        -0.53276E+04
 
   -0.44612E+04         0.47591E+04         0.00000E+00
    0.47591E+04        -0.13400E+05         0.00000E+00
    0.00000E+00         0.00000E+00        -0.53583E+04
 
   -0.45640E+04         0.46050E+04         0.00000E+00
    0.46050E+04        -0.13410E+05         0.00000E+00
    0.00000E+00         0.00000E+00        -0.53921E+04
 
   -0.47228E+04         0.45324E+04         0.00000E+00
    0.45324E+04        -0.13377E+05         0.00000E+00
    0.00000E+00         0.00000E+00        -0.54299E+04
 
   -0.49301E+04         0.45567E+04         0.00000E+00
    0.45567E+04        -0.13309E+05         0.00000E+00
    0.00000E+00         0.00000E+00        -0.54718E+04
 
   -0.51764E+04         0.46958E+04         0.00000E+00
    0.46958E+04        -0.13215E+05         0.00000E+00
    0.00000E+00         0.00000E+00        -0.55175E+04
 
   -0.54495E+04         0.49708E+04         0.00000E+00
    0.49708E+04        -0.13104E+05         0.00000E+00
    0.00000E+00         0.00000E+00        -0.55662E+04
 
    0.56842E+04        -0.12027E+03         0.00000E+00
   -0.12027E+03        -0.79328E+01         0.00000E+00
    0.00000E+00         0.00000E+00         0.17029E+04
 
    0.22266E+04         0.93866E+02         0.00000E+00
    0.93866E+02        -0.11111E+03         0.00000E+00
    0.00000E+00         0.00000E+00         0.63463E+03
 
   -0.77774E+03         0.79121E+03         0.00000E+00
    0.79121E+03        -0.43617E+03         0.00000E+00
    0.00000E+00         0.00000E+00        -0.36417E+03
 
   -0.31607E+04         0.17849E+04         0.00000E+00
    0.17849E+04        -0.10442E+04         0.00000E+00
    0.00000E+00         0.00000E+00        -0.12615E+04
 
   -0.48738E+04         0.28777E+04         0.00000E+00
    0.28777E+04        -0.19213E+04         0.00000E+00
    0.00000E+00         0.00000E+00        -0.20385E+04
 
   -0.59673E+04         0.39084E+04         0.00000E+00
    0.39084E+04        -0.29991E+04         0.00000E+00
    0.00000E+00         0.00000E+00        -0.26899E+04
 
   -0.65502E+04         0.47736E+04         0.00000E+00
    0.47736E+04        -0.41865E+04         0.00000E+00
    0.00000E+00         0.00000E+00        -0.32210E+04
 
   -0.67513E+04         0.54259E+04         0.00000E+00
    0.54259E+04        -0.53958E+04         0.00000E+00
    0.00000E+00         0.00000E+00        -0.36441E+04
 
   -0.66923E+04         0.58603E+04         0.00000E+00
    0.58603E+04        -0.65578E+04         0.00000E+00
    0.00000E+00         0.00000E+00        -0.39750E+04
 
   -0.64741E+04         0.60976E+04         0.00000E+00
    0.60976E+04        -0.76260E+04         0.00000E+00
    0.00000E+00         0.00000E+00        -0.42300E+04
 
   -0.61739E+04         0.61714E+04         0.00000E+00
    0.61714E+04        -0.85745E+04         0.00000E+00
    0.00000E+00         0.00000E+00        -0.44245E+04
 
   -0.58468E+04         0.61186E+04         0.00000E+00
    0.61186E+04        -0.93931E+04         0.00000E+00
    0.00000E+00         0.00000E+00        -0.45720E+04
 
   -0.55299E+04         0.59749E+04         0.00000E+00
    0.59749E+04        -0.10082E+05         0.00000E+00
    0.00000E+00         0.00000E+00        -0.46836E+04
 
   -0.52468E+04         0.57719E+04         0.00000E+00
    0.57719E+04        -0.10649E+05         0.00000E+00
    0.00000E+00         0.00000E+00        -0.47687E+04
 
   -0.50112E+04         0.55370E+04         0.00000E+00
    0.55370E+04        -0.11104E+05         0.00000E+00
    0.00000E+00         0.00000E+00        -0.48346E+04
 
   -0.48303E+04         0.52930E+04         0.00000E+00
    0.52930E+04        -0.11460E+05         0.00000E+00
    0.00000E+00         0.00000E+00        -0.48870E+04
 
   -0.47064E+04         0.50596E+04         0.00000E+00
    0.50596E+04        -0.11728E+05         0.00000E+00
    0.00000E+00         0.00000E+00        -0.49303E+04
 
   -0.46387E+04         0.48537E+04         0.00000E+00
    0.48537E+04        -0.11921E+05         0.00000E+00
    0.00000E+00         0.00000E+00        -0.49678E+04
 
   -0.46239E+04         0.46908E+04         0.00000E+00
    0.46908E+04        -0.12049E+05         0.00000E+00
    0.00000E+00         0.00000E+00        -0.50019E+04
 
   -0.46571E+04         0.45855E+04         0.00000E+00
    0.45855E+04        -0.12123E+05         0.00000E+00
    0.00000E+00         0.00000E+00        -0.50339E+04
 
   -0.47313E+04         0.45526E+04         0.00000E+00
    0.45526E+04        -0.12151E+05         0.00000E+00
    0.00000E+00         0.00000E+00        -0.50648E+04
 
   -0.48375E+04         0.46078E+04         0.00000E+00
    0.46078E+04        -0.12144E+05         0.00000E+00
    0.00000E+00         0.00000E+00        -0.50946E+04
 
   -0.49639E+04         0.47682E+04         0.00000E+00
    0.47682E+04        -0.12112E+05         0.00000E+00
    0.00000E+00         0.00000E+00        -0.51227E+04
 
   -0.50950E+04         0.50535E+04         0.00000E+00
    0.50535E+04        -0.12065E+05         0.00000E+00
    0.00000E+00         0.00000E+00        -0.51479E+04
 
    0.55641E+04        -0.14254E+03         0.00000E+00
   -0.14254E+03        -0.56653E+01         0.00000E+00
    0.00000E+00         0.00000E+00         0.16675E+04
 
    0.26022E+04        -0.68971E+02         0.00000E+00
   -0.68971E+02        -0.78385E+02         0.00000E+00
    0.00000E+00         0.00000E+00         0.75714E+03
 
   -0.36790E+02         0.40077E+03         0.00000E+00
    0.40077E+03        -0.30986E+03         0.00000E+00
    0.00000E+00         0.00000E+00        -0.10399E+03
 
   -0.22207E+04         0.11409E+04         0.00000E+00
    0.11409E+04        -0.75255E+03         0.00000E+00
    0.00000E+00         0.00000E+00        -0.89198E+03
 
   -0.38936E+04         0.20109E+04         0.00000E+00
    0.20109E+04        -0.14104E+04         0.00000E+00
    0.00000E+00         0.00000E+00        -0.15912E+04
 
   -0.50685E+04         0.28855E+04         0.00000E+00
    0.28855E+04        -0.22472E+04         0.00000E+00
    0.00000E+00         0.00000E+00        -0.21947E+04
 
   -0.58070E+04         0.36727E+04         0.00000E+00
    0.36727E+04        -0.32037E+04         0.00000E+00
    0.00000E+00         0.00000E+00        -0.27032E+04
 
   -0.61949E+04         0.43186E+04         0.00000E+00
    0.43186E+04        -0.42154E+04         0.00000E+00
    0.00000E+00         0.00000E+00        -0.31231E+04
 
   -0.63224E+04         0.48018E+04         0.00000E+00
    0.48018E+04        -0.52243E+04         0.00000E+00
    0.00000E+00         0.00000E+00        -0.34640E+04
 
   -0.62714E+04         0.51251E+04         0.00000E+00
    0.51251E+04        -0.61861E+04         0.00000E+00
    0.00000E+00         0.00000E+00        -0.37373E+04
 
   -0.61096E+04         0.53057E+04         0.00000E+00
    0.53057E+04        -0.70706E+04         0.00000E+00
    0.00000E+00         0.00000E+00        -0.39541E+04
 
   -0.58895E+04         0.53682E+04         0.00000E+00
    0.53682E+04        -0.78605E+04         0.00000E+00
    0.00000E+00         0.00000E+00        -0.41250E+04
 
   -0.56493E+04         0.53395E+04         0.00000E+00
    0.53395E+04        -0.85485E+04         0.00000E+00
    0.00000E+00         0.00000E+00        -0.42593E+04
 
   -0.54154E+04         0.52459E+04         0.00000E+00
    0.52459E+04        -0.91343E+04         0.00000E+00
    0.00000E+00         0.00000E+00        -0.43649E+04
 
   -0.52050E+04         0.51114E+04         0.00000E+00
    0.51114E+04        -0.96224E+04         0.00000E+00
    0.00000E+00         0.00000E+00        -0.44482E+04
 
   -0.50283E+04         0.49578E+04         0.00000E+00
    0.49578E+04        -0.10020E+05         0.00000E+00
    0.00000E+00         0.00000E+00        -0.45145E+04
 
   -0.48905E+04         0.48042E+04         0.00000E+00
    0.48042E+04        -0.10336E+05         0.00000E+00
    0.00000E+00         0.00000E+00        -0.45678E+04
 
   -0.47926E+04         0.46677E+04         0.00000E+00
    0.46677E+04        -0.10578E+05         0.00000E+00
    0.00000E+00         0.00000E+00        -0.46113E+04
 
   -0.47324E+04         0.45643E+04         0.00000E+00
    0.45643E+04        -0.10758E+05         0.00000E+00
    0.00000E+00         0.00000E+00        -0.46471E+04
 
   -0.47055E+04         0.45089E+04         0.00000E+00
    0.45089E+04        -0.10883E+05         0.00000E+00
    0.00000E+00         0.00000E+00        -0.46766E+04
 
   -0.47044E+04         0.45162E+04         0.00000E+00
    0.45162E+04        -0.10964E+05         0.00000E+00
    0.00000E+00         0.00000E+00        -0.47005E+04
 
   -0.47193E+04         0.46017E+04         0.00000E+00
    0.46017E+04        -0.11010E+05         0.00000E+00
    0.00000E+00         0.00000E+00        -0.47188E+04
 
   -0.47367E+04         0.47816E+04         0.00000E+00
    0.47816E+04        -0.11032E+05         0.00000E+00
    0.00000E+00         0.00000E+00        -0.47306E+04
 
   -0.47391E+04         0.50735E+04         0.00000E+00
    0.50735E+04        -0.11042E+05         0.00000E+00
    0.00000E+00         0.00000E+00        -0.47344E+04
 
    0.53767E+04        -0.15836E+03         0.00000E+00
   -0.15836E+03        -0.39766E+01         0.00000E+00
    0.00000E+00         0.00000E+00         0.16118E+04
 
    0.28151E+04        -0.18495E+03         0.00000E+00
   -0.18495E+03        -0.55905E+02         0.00000E+00
    0.00000E+00         0.00000E+00         0.82777E+03
 
    0.48856E+03         0.11804E+03         0.00000E+00
    0.11804E+03        -0.22366E+03         0.00000E+00
    0.00000E+00         0.00000E+00         0.79470E+02
 
   -0.14991E+04         0.66310E+03         0.00000E+00
    0.66310E+03        -0.55078E+03         0.00000E+00
    0.00000E+00         0.00000E+00        -0.61496E+03
 
   -0.30935E+04         0.13485E+04         0.00000E+00
    0.13485E+04        -0.10488E+04         0.00000E+00
    0.00000E+00         0.00000E+00        -0.12427E+04
 
   -0.42888E+04         0.20777E+04         0.00000E+00
    0.20777E+04        -0.17001E+04         0.00000E+00
    0.00000E+00         0.00000E+00        -0.17967E+04
 
   -0.51172E+04         0.27732E+04         0.00000E+00
    0.27732E+04        -0.24673E+04         0.00000E+00
    0.00000E+00         0.00000E+00        -0.22754E+04
 
   -0.56339E+04         0.33820E+04         0.00000E+00
    0.33820E+04        -0.33043E+04         0.00000E+00
    0.00000E+00         0.00000E+00        -0.26814E+04
 
   -0.59035E+04         0.38758E+04         0.00000E+00
    0.38758E+04        -0.41654E+04         0.00000E+00
    0.00000E+00         0.00000E+00        -0.30207E+04
 
   -0.59900E+04         0.42459E+04         0.00000E+00
    0.42459E+04        -0.50117E+04         0.00000E+00
    0.00000E+00         0.00000E+00        -0.33005E+04
 
   -0.59498E+04         0.44978E+04         0.00000E+00
    0.44978E+04        -0.58135E+04         0.00000E+00
    0.00000E+00         0.00000E+00        -0.35290E+04
 
   -0.58298E+04         0.46457E+04         0.00000E+00
    0.46457E+04        -0.65506E+04         0.00000E+00
    0.00000E+00         0.00000E+00        -0.37141E+04
 
   -0.56663E+04         0.47085E+04         0.00000E+00
    0.47085E+04        -0.72112E+04         0.00000E+00
    0.00000E+00         0.00000E+00        -0.38632E+04
 
   -0.54862E+04         0.47065E+04         0.00000E+00
    0.47065E+04        -0.77899E+04         0.00000E+00
    0.00000E+00         0.00000E+00        -0.39828E+04
 
   -0.53082E+04         0.46600E+04         0.00000E+00
    0.46600E+04        -0.82864E+04         0.00000E+00
    0.00000E+00         0.00000E+00        -0.40784E+04
 
   -0.51446E+04         0.45883E+04         0.00000E+00
    0.45883E+04        -0.87038E+04         0.00000E+00
    0.00000E+00         0.00000E+00        -0.41545E+04
 
   -0.50020E+04         0.45090E+04         0.00000E+00
    0.45090E+04        -0.90474E+04         0.00000E+00
    0.00000E+00         0.00000E+00        -0.42148E+04
 
   -0.48832E+04         0.44387E+04         0.00000E+00
    0.44387E+04        -0.93238E+04         0.00000E+00
    0.00000E+00         0.00000E+00        -0.42621E+04
 
   -0.47870E+04         0.43927E+04         0.00000E+00
    0.43927E+04        -0.95406E+04         0.00000E+00
    0.00000E+00         0.00000E+00        -0.42983E+04
 
   -0.47093E+04         0.43856E+04         0.00000E+00
    0.43856E+04        -0.97061E+04         0.00000E+00
    0.00000E+00         0.00000E+00        -0.43246E+04
 
   -0.46428E+04         0.44320E+04         0.00000E+00
    0.44320E+04        -0.98293E+04         0.00000E+00
    0.00000E+00         0.00000E+00        -0.43416E+04
 
   -0.45770E+04         0.45461E+04         0.00000E+00
    0.45461E+04        -0.99199E+04         0.00000E+00
    0.00000E+00         0.00000E+00        -0.43491E+04
 
   -0.44978E+04         0.47427E+04         0.00000E+00
    0.47427E+04        -0.99891E+04         0.00000E+00
    0.00000E+00         0.00000E+00        -0.43460E+04
 
   -0.43864E+04         0.50375E+04         0.00000E+00
    0.50375E+04        -0.10050E+05         0.00000E+00
    0.00000E+00         0.00000E+00        -0.43309E+04
 
    0.51414E+04        -0.16939E+03         0.00000E+00
   -0.16939E+03        -0.26433E+01         0.00000E+00
    0.00000E+00         0.00000E+00         0.15416E+04
 
    0.29098E+04        -0.26846E+03         0.00000E+00
   -0.26846E+03        -0.39662E+02         0.00000E+00
    0.00000E+00         0.00000E+00         0.86105E+03
 
    0.85162E+03        -0.89490E+02         0.00000E+00
   -0.89490E+02        -0.16226E+03         0.00000E+00
    0.00000E+00         0.00000E+00         0.20681E+03
 
   -0.95074E+03         0.30481E+03         0.00000E+00
    0.30481E+03        -0.40624E+03         0.00000E+00
    0.00000E+00         0.00000E+00        -0.40709E+03
 
   -0.24480E+04         0.83950E+03         0.00000E+00
    0.83950E+03        -0.78576E+03         0.00000E+00
    0.00000E+00         0.00000E+00        -0.97012E+03
 
   -0.36252E+04         0.14401E+04         0.00000E+00
    0.14401E+04        -0.12939E+04         0.00000E+00
    0.00000E+00         0.00000E+00        -0.14757E+04
 
   -0.44964E+04         0.20427E+04         0.00000E+00
    0.20427E+04        -0.19078E+04         0.00000E+00
    0.00000E+00         0.00000E+00        -0.19212E+04
 
   -0.50958E+04         0.25993E+04         0.00000E+00
    0.25993E+04        -0.25951E+04         0.00000E+00
    0.00000E+00         0.00000E+00        -0.23073E+04
 
   -0.54686E+04         0.30794E+04         0.00000E+00
    0.30794E+04        -0.33212E+04         0.00000E+00
    0.00000E+00         0.00000E+00        -0.26369E+04
 
   -0.56629E+04         0.34682E+04         0.00000E+00
    0.34682E+04        -0.40537E+04         0.00000E+00
    0.00000E+00         0.00000E+00        -0.29150E+04
 
   -0.57243E+04         0.37633E+04         0.00000E+00
    0.37633E+04        -0.47657E+04         0.00000E+00
    0.00000E+00         0.00000E+00        -0.31470E+04
 
   -0.56928E+04         0.39711E+04         0.00000E+00
    0.39711E+04        -0.54368E+04         0.00000E+00
    0.00000E+00         0.00000E+00        -0.33389E+04
 
   -0.56010E+04         0.41036E+04         0.00000E+00
    0.41036E+04        -0.60532E+04         0.00000E+00
    0.00000E+00         0.00000E+00        -0.34963E+04
 
   -0.54746E+04         0.41757E+04         0.00000E+00
    0.41757E+04        -0.66065E+04         0.00000E+00
    0.00000E+00         0.00000E+00        -0.36243E+04
 
   -0.53323E+04         0.42034E+04         0.00000E+00
    0.42034E+04        -0.70932E+04         0.00000E+00
    0.00000E+00         0.00000E+00        -0.37276E+04
 
   -0.51869E+04         0.42031E+04         0.00000E+00
    0.42031E+04        -0.75131E+04         0.00000E+00
    0.00000E+00         0.00000E+00        -0.38100E+04
 
   -0.50465E+04         0.41905E+04         0.00000E+00
    0.41905E+04        -0.78688E+04         0.00000E+00
    0.00000E+00         0.00000E+00        -0.38746E+04
 
   -0.49143E+04         0.41807E+04         0.00000E+00
    0.41807E+04        -0.81647E+04         0.00000E+00
    0.00000E+00         0.00000E+00        -0.39237E+04
 
   -0.47903E+04         0.41880E+04         0.00000E+00
    0.41880E+04        -0.84066E+04         0.00000E+00
    0.00000E+00         0.00000E+00        -0.39591E+04
 
   -0.46707E+04         0.42261E+04         0.00000E+00
    0.42261E+04        -0.86017E+04         0.00000E+00
    0.00000E+00         0.00000E+00        -0.39817E+04
 
   -0.45486E+04         0.43085E+04         0.00000E+00
    0.43085E+04        -0.87581E+04         0.00000E+00
    0.00000E+00         0.00000E+00        -0.39920E+04
 
   -0.44132E+04         0.44484E+04         0.00000E+00
    0.44484E+04        -0.88852E+04         0.00000E+00
    0.00000E+00         0.00000E+00        -0.39895E+04
 
   -0.42503E+04         0.46588E+04         0.00000E+00
    0.46588E+04        -0.89942E+04         0.00000E+00
    0.00000E+00         0.00000E+00        -0.39734E+04
 
   -0.40408E+04         0.49529E+04         0.00000E+00
    0.49529E+04        -0.90981E+04         0.00000E+00
    0.00000E+00         0.00000E+00        -0.39417E+04
 
    0.48721E+04        -0.17668E+03         0.00000E+00
   -0.17668E+03        -0.15516E+01         0.00000E+00
    0.00000E+00         0.00000E+00         0.14612E+04
 
    0.29174E+04        -0.32847E+03         0.00000E+00
   -0.32847E+03        -0.27430E+02         0.00000E+00
    0.00000E+00         0.00000E+00         0.86698E+03
 
    0.10913E+04        -0.24271E+03         0.00000E+00
   -0.24271E+03        -0.11691E+03         0.00000E+00
    0.00000E+00         0.00000E+00         0.29232E+03
 
   -0.53974E+03         0.34477E+02         0.00000E+00
    0.34477E+02        -0.29946E+03         0.00000E+00
    0.00000E+00         0.00000E+00        -0.25176E+03
 
   -0.19323E+04         0.44692E+03         0.00000E+00
    0.44692E+03        -0.58957E+03         0.00000E+00
    0.00000E+00         0.00000E+00        -0.75657E+03
 
   -0.30676E+04         0.93684E+03         0.00000E+00
    0.93684E+03        -0.98645E+03         0.00000E+00
    0.00000E+00         0.00000E+00        -0.12162E+04
 
   -0.39488E+04         0.14520E+04         0.00000E+00
    0.14520E+04        -0.14765E+04         0.00000E+00
    0.00000E+00         0.00000E+00        -0.16276E+04
 
   -0.45958E+04         0.19506E+04         0.00000E+00
    0.19506E+04        -0.20378E+04         0.00000E+00
    0.00000E+00         0.00000E+00        -0.19901E+04
 
   -0.50392E+04         0.24029E+04         0.00000E+00
    0.24029E+04        -0.26445E+04         0.00000E+00
    0.00000E+00         0.00000E+00        -0.23051E+04
 
   -0.53145E+04         0.27914E+04         0.00000E+00
    0.27914E+04        -0.32706E+04         0.00000E+00
    0.00000E+00         0.00000E+00        -0.25755E+04
 
   -0.54572E+04         0.31087E+04         0.00000E+00
    0.31087E+04        -0.38930E+04         0.00000E+00
    0.00000E+00         0.00000E+00        -0.28051E+04
 
   -0.55004E+04         0.33558E+04         0.00000E+00
    0.33558E+04        -0.44927E+04         0.00000E+00
    0.00000E+00         0.00000E+00        -0.29979E+04
 
   -0.54723E+04         0.35391E+04         0.00000E+00
    0.35391E+04        -0.50555E+04         0.00000E+00
    0.00000E+00         0.00000E+00        -0.31583E+04
 
   -0.53961E+04         0.36688E+04         0.00000E+00
    0.36688E+04        -0.55717E+04         0.00000E+00
    0.00000E+00         0.00000E+00        -0.32903E+04
 
   -0.52894E+04         0.37571E+04         0.00000E+00
    0.37571E+04        -0.60357E+04         0.00000E+00
    0.00000E+00         0.00000E+00        -0.33975E+04
 
   -0.51650E+04         0.38171E+04         0.00000E+00
    0.38171E+04        -0.64452E+04         0.00000E+00
    0.00000E+00         0.00000E+00        -0.34831E+04
 
   -0.50310E+04         0.38623E+04         0.00000E+00
    0.38623E+04        -0.68006E+04         0.00000E+00
    0.00000E+00         0.00000E+00        -0.35495E+04
 
   -0.48915E+04         0.39060E+04         0.00000E+00
    0.39060E+04        -0.71044E+04         0.00000E+00
    0.00000E+00         0.00000E+00        -0.35988E+04
 
   -0.47468E+04         0.39609E+04         0.00000E+00
    0.39609E+04        -0.73610E+04         0.00000E+00
    0.00000E+00         0.00000E+00        -0.36323E+04
 
   -0.45935E+04         0.40397E+04         0.00000E+00
    0.40397E+04        -0.75763E+04         0.00000E+00
    0.00000E+00         0.00000E+00        -0.36510E+04
 
   -0.44251E+04         0.41542E+04         0.00000E+00
    0.41542E+04        -0.77576E+04         0.00000E+00
    0.00000E+00         0.00000E+00        -0.36548E+04
 
   -0.42312E+04         0.43163E+04         0.00000E+00
    0.43163E+04        -0.79137E+04         0.00000E+00
    0.00000E+00         0.00000E+00        -0.36435E+04
 
   -0.39976E+04         0.45371E+04         0.00000E+00
    0.45371E+04        -0.80552E+04         0.00000E+00
    0.00000E+00         0.00000E+00        -0.36159E+04
 
   -0.37057E+04         0.48274E+04         0.00000E+00
    0.48274E+04        -0.81949E+04         0.00000E+00
    0.00000E+00         0.00000E+00        -0.35702E+04
 
    0.45794E+04        -0.18096E+03         0.00000E+00
   -0.18096E+03        -0.63613E+00         0.00000E+00
    0.00000E+00         0.00000E+00         0.13736E+04
 
    0.28602E+04        -0.37088E+03         0.00000E+00
   -0.37088E+03        -0.17915E+02         0.00000E+00
    0.00000E+00         0.00000E+00         0.85270E+03
 
    0.12365E+04        -0.35554E+03         0.00000E+00
   -0.35554E+03        -0.82386E+02         0.00000E+00
    0.00000E+00         0.00000E+00         0.34625E+03
 
   -0.23766E+03        -0.16968E+03         0.00000E+00
   -0.16968E+03        -0.21847E+03         0.00000E+00
    0.00000E+00         0.00000E+00        -0.13684E+03
 
   -0.15245E+04         0.14390E+03         0.00000E+00
    0.14390E+03        -0.43999E+03         0.00000E+00
    0.00000E+00         0.00000E+00        -0.58934E+03
 
   -0.26038E+04         0.54001E+03         0.00000E+00
    0.54001E+03        -0.74952E+03         0.00000E+00
    0.00000E+00         0.00000E+00        -0.10060E+04
 
   -0.34725E+04         0.97622E+03         0.00000E+00
    0.97622E+03        -0.11397E+04         0.00000E+00
    0.00000E+00         0.00000E+00        -0.13837E+04
 
   -0.41408E+04         0.14166E+04         0.00000E+00
    0.14166E+04        -0.15957E+04         0.00000E+00
    0.00000E+00         0.00000E+00        -0.17210E+04
 
   -0.46288E+04         0.18339E+04         0.00000E+00
    0.18339E+04        -0.20987E+04         0.00000E+00
    0.00000E+00         0.00000E+00        -0.20183E+04
 
   -0.49617E+04         0.22098E+04         0.00000E+00
    0.22098E+04        -0.26285E+04         0.00000E+00
    0.00000E+00         0.00000E+00        -0.22771E+04
 
   -0.51669E+04         0.25343E+04         0.00000E+00
    0.25343E+04        -0.31658E+04         0.00000E+00
    0.00000E+00         0.00000E+00        -0.24998E+04
 
   -0.52706E+04         0.28046E+04         0.00000E+00
    0.28046E+04        -0.36938E+04         0.00000E+00
    0.00000E+00         0.00000E+00        -0.26893E+04
 
   -0.52966E+04         0.30230E+04         0.00000E+00
    0.30230E+04        -0.41990E+04         0.00000E+00
    0.00000E+00         0.00000E+00        -0.28487E+04
 
   -0.52650E+04         0.31958E+04         0.00000E+00
    0.31958E+04        -0.46715E+04         0.00000E+00
    0.00000E+00         0.00000E+00        -0.29809E+04
 
   -0.51918E+04         0.33318E+04         0.00000E+00
    0.33318E+04        -0.51045E+04         0.00000E+00
    0.00000E+00         0.00000E+00        -0.30889E+04
 
   -0.50888E+04         0.34411E+04         0.00000E+00
    0.34411E+04        -0.54945E+04         0.00000E+00
    0.00000E+00         0.00000E+00        -0.31750E+04
 
   -0.49640E+04         0.35349E+04         0.00000E+00
    0.35349E+04        -0.58402E+04         0.00000E+00
    0.00000E+00         0.00000E+00        -0.32413E+04
 
   -0.48215E+04         0.36243E+04         0.00000E+00
    0.36243E+04        -0.61430E+04         0.00000E+00
    0.00000E+00         0.00000E+00        -0.32893E+04
 
   -0.46618E+04         0.37205E+04         0.00000E+00
    0.37205E+04        -0.64058E+04         0.00000E+00
    0.00000E+00         0.00000E+00        -0.33203E+04
 
   -0.44822E+04         0.38345E+04         0.00000E+00
    0.38345E+04        -0.66334E+04         0.00000E+00
    0.00000E+00         0.00000E+00        -0.33347E+04
 
   -0.42763E+04         0.39766E+04         0.00000E+00
    0.39766E+04        -0.68322E+04         0.00000E+00
    0.00000E+00         0.00000E+00        -0.33326E+04
 
   -0.40344E+04         0.41569E+04         0.00000E+00
    0.41569E+04        -0.70103E+04         0.00000E+00
    0.00000E+00         0.00000E+00        -0.33134E+04
 
   -0.37428E+04         0.43847E+04         0.00000E+00
    0.43847E+04        -0.71775E+04         0.00000E+00
    0.00000E+00         0.00000E+00        -0.32761E+04
 
   -0.33839E+04         0.46684E+04         0.00000E+00
    0.46684E+04        -0.73459E+04         0.00000E+00
    0.00000E+00         0.00000E+00        -0.32189E+04
 
    0.42713E+04        -0.18275E+03         0.00000E+00
   -0.18275E+03         0.14148E+00         0.00000E+00
    0.00000E+00         0.00000E+00         0.12814E+04
 
    0.27552E+04        -0.39971E+03         0.00000E+00
   -0.39971E+03        -0.10335E+02         0.00000E+00
    0.00000E+00         0.00000E+00         0.82345E+03
 
    0.13092E+04        -0.43760E+03         0.00000E+00
   -0.43760E+03        -0.55472E+02         0.00000E+00
    0.00000E+00         0.00000E+00         0.37611E+03
 
   -0.22012E+02        -0.32311E+03         0.00000E+00
   -0.32311E+03        -0.15570E+03         0.00000E+00
    0.00000E+00         0.00000E+00        -0.53314E+02
 
   -0.12054E+04        -0.89323E+02         0.00000E+00
   -0.89323E+02        -0.32379E+03         0.00000E+00
    0.00000E+00         0.00000E+00        -0.45876E+03
 
   -0.22212E+04         0.22808E+03         0.00000E+00
    0.22808E+03        -0.56412E+03         0.00000E+00
    0.00000E+00         0.00000E+00        -0.83558E+03
 
   -0.30623E+04         0.59459E+03         0.00000E+00
    0.59459E+03        -0.87330E+03         0.00000E+00
    0.00000E+00         0.00000E+00        -0.11807E+04
 
   -0.37327E+04         0.97979E+03         0.00000E+00
    0.97979E+03        -0.12418E+04         0.00000E+00
    0.00000E+00         0.00000E+00        -0.14923E+04
 
   -0.42448E+04         0.13592E+04         0.00000E+00
    0.13592E+04        -0.16559E+04         0.00000E+00
    0.00000E+00         0.00000E+00        -0.17702E+04
 
   -0.46161E+04         0.17152E+04         0.00000E+00
    0.17152E+04        -0.21003E+04         0.00000E+00
    0.00000E+00         0.00000E+00        -0.20149E+04
 
   -0.48668E+04         0.20364E+04         0.00000E+00
    0.20364E+04        -0.25592E+04         0.00000E+00
    0.00000E+00         0.00000E+00        -0.22278E+04
 
   -0.50176E+04         0.23178E+04         0.00000E+00
    0.23178E+04        -0.30184E+04         0.00000E+00
    0.00000E+00         0.00000E+00        -0.24108E+04
 
   -0.50878E+04         0.25586E+04         0.00000E+00
    0.25586E+04        -0.34657E+04         0.00000E+00
    0.00000E+00         0.00000E+00        -0.25660E+04
 
   -0.50942E+04         0.27623E+04         0.00000E+00
    0.27623E+04        -0.38915E+04         0.00000E+00
    0.00000E+00         0.00000E+00        -0.26957E+04
 
   -0.50508E+04         0.29345E+04         0.00000E+00
    0.29345E+04        -0.42889E+04         0.00000E+00
    0.00000E+00         0.00000E+00        -0.28019E+04
 
   -0.49683E+04         0.30829E+04         0.00000E+00
    0.30829E+04        -0.46534E+04         0.00000E+00
    0.00000E+00         0.00000E+00        -0.28865E+04
 
   -0.48538E+04         0.32162E+04         0.00000E+00
    0.32162E+04        -0.49831E+04         0.00000E+00
    0.00000E+00         0.00000E+00        -0.29511E+04
 
   -0.47113E+04         0.33435E+04         0.00000E+00
    0.33435E+04        -0.52781E+04         0.00000E+00
    0.00000E+00         0.00000E+00        -0.29968E+04
 
   -0.45416E+04         0.34742E+04         0.00000E+00
    0.34742E+04        -0.55404E+04         0.00000E+00
    0.00000E+00         0.00000E+00        -0.30246E+04
 
   -0.43420E+04         0.36176E+04         0.00000E+00
    0.36176E+04        -0.57738E+04         0.00000E+00
    0.00000E+00         0.00000E+00        -0.30347E+04
 
   -0.41067E+04         0.37823E+04         0.00000E+00
    0.37823E+04        -0.59838E+04         0.00000E+00
    0.00000E+00         0.00000E+00        -0.30271E+04
 
   -0.38266E+04         0.39767E+04         0.00000E+00
    0.39767E+04        -0.61775E+04         0.00000E+00
    0.00000E+00         0.00000E+00        -0.30012E+04
 
   -0.34891E+04         0.42082E+04         0.00000E+00
    0.42082E+04        -0.63642E+04         0.00000E+00
    0.00000E+00         0.00000E+00        -0.29560E+04
 
   -0.30776E+04         0.44828E+04         0.00000E+00
    0.44828E+04        -0.65547E+04         0.00000E+00
    0.00000E+00         0.00000E+00        -0.28897E+04
 
    0.39544E+04        -0.18246E+03         0.00000E+00
   -0.18246E+03         0.80479E+00         0.00000E+00
    0.00000E+00         0.00000E+00         0.11866E+04
 
    0.26149E+04        -0.41783E+03         0.00000E+00
   -0.41783E+03        -0.41974E+01         0.00000E+00
    0.00000E+00         0.00000E+00         0.78322E+03
 
    0.13260E+04        -0.49573E+03         0.00000E+00
   -0.49573E+03        -0.34114E+02         0.00000E+00
    0.00000E+00         0.00000E+00         0.38757E+03
 
    0.12502E+03        -0.43697E+03         0.00000E+00
   -0.43697E+03        -0.10623E+03         0.00000E+00
    0.00000E+00         0.00000E+00         0.56367E+01
 
   -0.95923E+03        -0.26749E+03         0.00000E+00
   -0.26749E+03        -0.23215E+03         0.00000E+00
    0.00000E+00         0.00000E+00        -0.35742E+03
 
   -0.19078E+04        -0.15700E+02         0.00000E+00
   -0.15700E+02        -0.41717E+03         0.00000E+00
    0.00000E+00         0.00000E+00        -0.69749E+03
 
   -0.27116E+04         0.29026E+03         0.00000E+00
    0.29026E+03        -0.66047E+03         0.00000E+00
    0.00000E+00         0.00000E+00        -0.10116E+04
 
   -0.33703E+04         0.62478E+03         0.00000E+00
    0.62478E+03        -0.95616E+03         0.00000E+00
    0.00000E+00         0.00000E+00        -0.12979E+04
 
   -0.38908E+04         0.96633E+03         0.00000E+00
    0.96633E+03        -0.12947E+04         0.00000E+00
    0.00000E+00         0.00000E+00        -0.15556E+04
 
   -0.42847E+04         0.12984E+04         0.00000E+00
    0.12984E+04        -0.16643E+04         0.00000E+00
    0.00000E+00         0.00000E+00        -0.17847E+04
 
   -0.45667E+04         0.16095E+04         0.00000E+00
    0.16095E+04        -0.20527E+04         0.00000E+00
    0.00000E+00         0.00000E+00        -0.19858E+04
 
   -0.47524E+04         0.18930E+04         0.00000E+00
    0.18930E+04        -0.24479E+04         0.00000E+00
    0.00000E+00         0.00000E+00        -0.21601E+04
 
   -0.48571E+04         0.21465E+04         0.00000E+00
    0.21465E+04        -0.28393E+04         0.00000E+00
    0.00000E+00         0.00000E+00        -0.23089E+04
 
   -0.48947E+04         0.23707E+04         0.00000E+00
    0.23707E+04        -0.32182E+04         0.00000E+00
    0.00000E+00         0.00000E+00        -0.24339E+04
 
   -0.48768E+04         0.25693E+04         0.00000E+00
    0.25693E+04        -0.35779E+04         0.00000E+00
    0.00000E+00         0.00000E+00        -0.25364E+04
 
   -0.48127E+04         0.27475E+04         0.00000E+00
    0.27475E+04        -0.39137E+04         0.00000E+00
    0.00000E+00         0.00000E+00        -0.26179E+04
 
   -0.47087E+04         0.29117E+04         0.00000E+00
    0.29117E+04        -0.42231E+04         0.00000E+00
    0.00000E+00         0.00000E+00        -0.26795E+04
 
   -0.45684E+04         0.30694E+04         0.00000E+00
    0.30694E+04        -0.45055E+04         0.00000E+00
    0.00000E+00         0.00000E+00        -0.27222E+04
 
   -0.43924E+04         0.32279E+04         0.00000E+00
    0.32279E+04        -0.47622E+04         0.00000E+00
    0.00000E+00         0.00000E+00        -0.27464E+04
 
   -0.41782E+04         0.33948E+04         0.00000E+00
    0.33948E+04        -0.49961E+04         0.00000E+00
    0.00000E+00         0.00000E+00        -0.27523E+04
 
   -0.39208E+04         0.35772E+04         0.00000E+00
    0.35772E+04        -0.52119E+04         0.00000E+00
    0.00000E+00         0.00000E+00        -0.27398E+04
 
   -0.36116E+04         0.37817E+04         0.00000E+00
    0.37817E+04        -0.54160E+04         0.00000E+00
    0.00000E+00         0.00000E+00        -0.27083E+04
 
   -0.32390E+04         0.40136E+04         0.00000E+00
    0.40136E+04        -0.56164E+04         0.00000E+00
    0.00000E+00         0.00000E+00        -0.26566E+04
 
   -0.27882E+04         0.42772E+04         0.00000E+00
    0.42772E+04        -0.58231E+04         0.00000E+00
    0.00000E+00         0.00000E+00        -0.25834E+04
 
    0.36337E+04        -0.18041E+03         0.00000E+00
   -0.18041E+03         0.13691E+01         0.00000E+00
    0.00000E+00         0.00000E+00         0.10905E+04
 
    0.24494E+04        -0.42739E+03         0.00000E+00
   -0.42739E+03         0.81650E+00         0.00000E+00
    0.00000E+00         0.00000E+00         0.73506E+03
 
    0.13001E+04        -0.53497E+03         0.00000E+00
   -0.53497E+03        -0.16960E+02         0.00000E+00
    0.00000E+00         0.00000E+00         0.38495E+03
 
    0.21766E+03        -0.51957E+03         0.00000E+00
   -0.51957E+03        -0.66745E+02         0.00000E+00
    0.00000E+00         0.00000E+00         0.45275E+02
 
   -0.77268E+03        -0.40179E+03         0.00000E+00
   -0.40179E+03        -0.15905E+03         0.00000E+00
    0.00000E+00         0.00000E+00        -0.27952E+03
 
   -0.16531E+04        -0.20442E+03         0.00000E+00
   -0.20442E+03        -0.29952E+03         0.00000E+00
    0.00000E+00         0.00000E+00        -0.58579E+03
 
   -0.24135E+04         0.49506E+02         0.00000E+00
    0.49506E+02        -0.48902E+03         0.00000E+00
    0.00000E+00         0.00000E+00        -0.87076E+03
 
   -0.30508E+04         0.33846E+03         0.00000E+00
    0.33846E+03        -0.72424E+03         0.00000E+00
    0.00000E+00         0.00000E+00        -0.11325E+04
 
   -0.35679E+04         0.64372E+03         0.00000E+00
    0.64372E+03        -0.99862E+03         0.00000E+00
    0.00000E+00         0.00000E+00        -0.13699E+04
 
   -0.39719E+04         0.95022E+03         0.00000E+00
    0.95022E+03        -0.13035E+04         0.00000E+00
    0.00000E+00         0.00000E+00        -0.15826E+04
 
   -0.42732E+04         0.12468E+04         0.00000E+00
    0.12468E+04        -0.16293E+04         0.00000E+00
    0.00000E+00         0.00000E+00        -0.17707E+04
 
   -0.44832E+04         0.15262E+04         0.00000E+00
    0.15262E+04        -0.19662E+04         0.00000E+00
    0.00000E+00         0.00000E+00        -0.19348E+04
 
   -0.46136E+04         0.17847E+04         0.00000E+00
    0.17847E+04        -0.23054E+04         0.00000E+00
    0.00000E+00         0.00000E+00        -0.20757E+04
 
   -0.46756E+04         0.20213E+04         0.00000E+00
    0.20213E+04        -0.26390E+04         0.00000E+00
    0.00000E+00         0.00000E+00        -0.21944E+04
 
   -0.46787E+04         0.22379E+04         0.00000E+00
    0.22379E+04        -0.29608E+04         0.00000E+00
    0.00000E+00         0.00000E+00        -0.22919E+04
 
   -0.46305E+04         0.24376E+04         0.00000E+00
    0.24376E+04        -0.32664E+04         0.00000E+00
    0.00000E+00         0.00000E+00        -0.23691E+04
 
   -0.45365E+04         0.26252E+04         0.00000E+00
    0.26252E+04        -0.35531E+04         0.00000E+00
    0.00000E+00         0.00000E+00        -0.24269E+04
 
   -0.43996E+04         0.28061E+04         0.00000E+00
    0.28061E+04        -0.38198E+04         0.00000E+00
    0.00000E+00         0.00000E+00        -0.24658E+04
 
   -0.42202E+04         0.29861E+04         0.00000E+00
    0.29861E+04        -0.40672E+04         0.00000E+00
    0.00000E+00         0.00000E+00        -0.24862E+04
 
   -0.39963E+04         0.31710E+04         0.00000E+00
    0.31710E+04        -0.42975E+04         0.00000E+00
    0.00000E+00         0.00000E+00        -0.24882E+04
 
   -0.37230E+04         0.33663E+04         0.00000E+00
    0.33663E+04        -0.45149E+04         0.00000E+00
    0.00000E+00         0.00000E+00        -0.24714E+04
 
   -0.33927E+04         0.35769E+04         0.00000E+00
    0.35769E+04        -0.47246E+04         0.00000E+00
    0.00000E+00         0.00000E+00        -0.24352E+04
 
   -0.29951E+04         0.38065E+04         0.00000E+00
    0.38065E+04        -0.49338E+04         0.00000E+00
    0.00000E+00         0.00000E+00        -0.23787E+04
 
   -0.25169E+04         0.40576E+04         0.00000E+00
    0.40576E+04        -0.51514E+04         0.00000E+00
    0.00000E+00         0.00000E+00        -0.23005E+04
 
    0.33135E+04        -0.17690E+03         0.00000E+00
   -0.17690E+03         0.18453E+01         0.00000E+00
    0.00000E+00         0.00000E+00         0.99460E+03
 
    0.22663E+04        -0.43004E+03         0.00000E+00
   -0.43004E+03         0.49241E+01         0.00000E+00
    0.00000E+00         0.00000E+00         0.68137E+03
 
    0.12418E+04        -0.55911E+03         0.00000E+00
   -0.55911E+03        -0.30894E+01         0.00000E+00
    0.00000E+00         0.00000E+00         0.37162E+03
 
    0.26735E+03        -0.57722E+03         0.00000E+00
   -0.57722E+03        -0.34987E+02         0.00000E+00
    0.00000E+00         0.00000E+00         0.69708E+02
 
   -0.63472E+03        -0.50085E+03         0.00000E+00
   -0.50085E+03        -0.10027E+03         0.00000E+00
    0.00000E+00         0.00000E+00        -0.22049E+03
 
   -0.14478E+04        -0.34842E+03         0.00000E+00
   -0.34842E+03        -0.20465E+03         0.00000E+00
    0.00000E+00         0.00000E+00        -0.49574E+03
 
   -0.21614E+04        -0.13888E+03         0.00000E+00
   -0.13888E+03        -0.35008E+03         0.00000E+00
    0.00000E+00         0.00000E+00        -0.75344E+03
 
   -0.27706E+04         0.10970E+03         0.00000E+00
    0.10970E+03        -0.53505E+03         0.00000E+00
    0.00000E+00         0.00000E+00        -0.99169E+03
 
   -0.32755E+04         0.38113E+03         0.00000E+00
    0.38113E+03        -0.75526E+03         0.00000E+00
    0.00000E+00         0.00000E+00        -0.12092E+04
 
   -0.36800E+04         0.66190E+03         0.00000E+00
    0.66190E+03        -0.10045E+04         0.00000E+00
    0.00000E+00         0.00000E+00        -0.14053E+04
 
   -0.39907E+04         0.94147E+03         0.00000E+00
    0.94147E+03        -0.12753E+04         0.00000E+00
    0.00000E+00         0.00000E+00        -0.15798E+04
 
   -0.42160E+04         0.12124E+04         0.00000E+00
    0.12124E+04        -0.15600E+04         0.00000E+00
    0.00000E+00         0.00000E+00        -0.17328E+04
 
   -0.43644E+04         0.14702E+04         0.00000E+00
    0.14702E+04        -0.18512E+04         0.00000E+00
    0.00000E+00         0.00000E+00        -0.18647E+04
 
   -0.44447E+04         0.17127E+04         0.00000E+00
    0.17127E+04        -0.21422E+04         0.00000E+00
    0.00000E+00         0.00000E+00        -0.19761E+04
 
   -0.44642E+04         0.19403E+04         0.00000E+00
    0.19403E+04        -0.24275E+04         0.00000E+00
    0.00000E+00         0.00000E+00        -0.20675E+04
 
   -0.44293E+04         0.21546E+04         0.00000E+00
    0.21546E+04        -0.27029E+04         0.00000E+00
    0.00000E+00         0.00000E+00        -0.21396E+04
 
   -0.43441E+04         0.23587E+04         0.00000E+00
    0.23587E+04        -0.29657E+04         0.00000E+00
    0.00000E+00         0.00000E+00        -0.21930E+04
 
   -0.42113E+04         0.25564E+04         0.00000E+00
    0.25564E+04        -0.32148E+04         0.00000E+00
    0.00000E+00         0.00000E+00        -0.22278E+04
 
   -0.40310E+04         0.27520E+04         0.00000E+00
    0.27520E+04        -0.34504E+04         0.00000E+00
    0.00000E+00         0.00000E+00        -0.22444E+04
 
   -0.38011E+04         0.29497E+04         0.00000E+00
    0.29497E+04        -0.36742E+04         0.00000E+00
    0.00000E+00         0.00000E+00        -0.22426E+04
 
   -0.35175E+04         0.31535E+04         0.00000E+00
    0.31535E+04        -0.38895E+04         0.00000E+00
    0.00000E+00         0.00000E+00        -0.22221E+04
 
   -0.31733E+04         0.33667E+04         0.00000E+00
    0.33667E+04        -0.41011E+04         0.00000E+00
    0.00000E+00         0.00000E+00        -0.21823E+04
 
   -0.27594E+04         0.35916E+04         0.00000E+00
    0.35916E+04        -0.43150E+04         0.00000E+00
    0.00000E+00         0.00000E+00        -0.21223E+04
 
   -0.22642E+04         0.38289E+04         0.00000E+00
    0.38289E+04        -0.45388E+04         0.00000E+00
    0.00000E+00         0.00000E+00        -0.20409E+04
 
    0.29973E+04        -0.17217E+03         0.00000E+00
   -0.17217E+03         0.22415E+01         0.00000E+00
    0.00000E+00         0.00000E+00         0.89987E+03
 
    0.20719E+04        -0.42709E+03         0.00000E+00
   -0.42709E+03         0.82788E+01         0.00000E+00
    0.00000E+00         0.00000E+00         0.62406E+03
 
    0.11593E+04        -0.57112E+03         0.00000E+00
   -0.57112E+03         0.81422E+01         0.00000E+00
    0.00000E+00         0.00000E+00         0.35024E+03
 
    0.28331E+03        -0.61481E+03         0.00000E+00
   -0.61481E+03        -0.93509E+01         0.00000E+00
    0.00000E+00         0.00000E+00         0.82186E+02
 
   -0.53620E+03        -0.57142E+03         0.00000E+00
   -0.57142E+03        -0.52802E+02         0.00000E+00
    0.00000E+00         0.00000E+00        -0.17670E+03
 
   -0.12838E+04        -0.45597E+03         0.00000E+00
   -0.45597E+03        -0.12785E+03         0.00000E+00
    0.00000E+00         0.00000E+00        -0.42350E+03
 
   -0.19490E+04        -0.28405E+03         0.00000E+00
   -0.28405E+03        -0.23709E+03         0.00000E+00
    0.00000E+00         0.00000E+00        -0.65583E+03
 
   -0.25257E+04        -0.70892E+02         0.00000E+00
   -0.70892E+02        -0.38029E+03         0.00000E+00
    0.00000E+00         0.00000E+00        -0.87181E+03
 
   -0.30121E+04         0.16958E+03         0.00000E+00
    0.16958E+03        -0.55488E+03         0.00000E+00
    0.00000E+00         0.00000E+00        -0.10701E+04
 
   -0.34096E+04         0.42536E+03         0.00000E+00
    0.42536E+03        -0.75646E+03         0.00000E+00
    0.00000E+00         0.00000E+00        -0.12498E+04
 
   -0.37221E+04         0.68669E+03         0.00000E+00
    0.68669E+03        -0.97951E+03         0.00000E+00
    0.00000E+00         0.00000E+00        -0.14105E+04
 
   -0.39551E+04         0.94628E+03         0.00000E+00
    0.94628E+03        -0.12180E+04         0.00000E+00
    0.00000E+00         0.00000E+00        -0.15519E+04
 
   -0.41149E+04         0.11992E+04         0.00000E+00
    0.11992E+04        -0.14659E+04         0.00000E+00
    0.00000E+00         0.00000E+00        -0.16742E+04
 
   -0.42078E+04         0.14425E+04         0.00000E+00
    0.14425E+04        -0.17176E+04         0.00000E+00
    0.00000E+00         0.00000E+00        -0.17776E+04
 
   -0.42397E+04         0.16755E+04         0.00000E+00
    0.16755E+04        -0.19684E+04         0.00000E+00
    0.00000E+00         0.00000E+00        -0.18624E+04
 
   -0.42152E+04         0.18985E+04         0.00000E+00
    0.18985E+04        -0.22146E+04         0.00000E+00
    0.00000E+00         0.00000E+00        -0.19289E+04
 
   -0.41379E+04         0.21132E+04         0.00000E+00
    0.21132E+04        -0.24536E+04         0.00000E+00
    0.00000E+00         0.00000E+00        -0.19774E+04
 
   -0.40094E+04         0.23222E+04         0.00000E+00
    0.23222E+04        -0.26842E+04         0.00000E+00
    0.00000E+00         0.00000E+00        -0.20081E+04
 
   -0.38299E+04         0.25281E+04         0.00000E+00
    0.25281E+04        -0.29063E+04         0.00000E+00
    0.00000E+00         0.00000E+00        -0.20209E+04
 
   -0.35974E+04         0.27339E+04         0.00000E+00
    0.27339E+04        -0.31214E+04         0.00000E+00
    0.00000E+00         0.00000E+00        -0.20156E+04
 
   -0.33081E+04         0.29422E+04         0.00000E+00
    0.29422E+04        -0.33321E+04         0.00000E+00
    0.00000E+00         0.00000E+00        -0.19920E+04
 
   -0.29561E+04         0.31549E+04         0.00000E+00
    0.31549E+04        -0.35423E+04         0.00000E+00
    0.00000E+00         0.00000E+00        -0.19495E+04
 
   -0.25335E+04         0.33729E+04         0.00000E+00
    0.33729E+04        -0.37573E+04         0.00000E+00
    0.00000E+00         0.00000E+00        -0.18872E+04
 
   -0.20303E+04         0.35958E+04         0.00000E+00
    0.35958E+04        -0.39834E+04         0.00000E+00
    0.00000E+00         0.00000E+00        -0.18041E+04
 
    0.26880E+04        -0.16644E+03         0.00000E+00
   -0.16644E+03         0.25647E+01         0.00000E+00
    0.00000E+00         0.00000E+00         0.80716E+03
 
    0.18712E+04        -0.41960E+03         0.00000E+00
   -0.41960E+03         0.10994E+02         0.00000E+00
    0.00000E+00         0.00000E+00         0.56465E+03
 
    0.10592E+04        -0.57336E+03         0.00000E+00
   -0.57336E+03         0.17205E+02         0.00000E+00
    0.00000E+00         0.00000E+00         0.32293E+03
 
    0.27303E+03        -0.63621E+03         0.00000E+00
   -0.63621E+03         0.11327E+02         0.00000E+00
    0.00000E+00         0.00000E+00         0.85308E+02
 
   -0.46955E+03        -0.61891E+03         0.00000E+00
   -0.61891E+03        -0.14456E+02         0.00000E+00
    0.00000E+00         0.00000E+00        -0.14520E+03
 
   -0.11543E+04        -0.53371E+03         0.00000E+00
   -0.53371E+03        -0.65595E+02         0.00000E+00
    0.00000E+00         0.00000E+00        -0.36596E+03
 
   -0.17708E+04        -0.39355E+03         0.00000E+00
   -0.39355E+03        -0.14509E+03         0.00000E+00
    0.00000E+00         0.00000E+00        -0.57476E+03
 
   -0.23124E+04        -0.21123E+03         0.00000E+00
   -0.21123E+03        -0.25363E+03         0.00000E+00
    0.00000E+00         0.00000E+00        -0.76980E+03
 
   -0.27758E+04         0.12645E+01         0.00000E+00
    0.12645E+01        -0.38988E+03         0.00000E+00
    0.00000E+00         0.00000E+00        -0.94970E+03
 
   -0.31607E+04         0.23333E+03         0.00000E+00
    0.23333E+03        -0.55091E+03         0.00000E+00
    0.00000E+00         0.00000E+00        -0.11135E+04
 
   -0.34688E+04         0.47609E+03         0.00000E+00
    0.47609E+03        -0.73271E+03         0.00000E+00
    0.00000E+00         0.00000E+00        -0.12604E+04
 
   -0.37035E+04         0.72252E+03         0.00000E+00
    0.72252E+03        -0.93065E+03         0.00000E+00
    0.00000E+00         0.00000E+00        -0.13903E+04
 
   -0.38691E+04         0.96753E+03         0.00000E+00
    0.96753E+03        -0.11400E+04         0.00000E+00
    0.00000E+00         0.00000E+00        -0.15027E+04
 
   -0.39700E+04         0.12078E+04         0.00000E+00
    0.12078E+04        -0.13561E+04         0.00000E+00
    0.00000E+00         0.00000E+00        -0.15978E+04
 
   -0.40104E+04         0.14416E+04         0.00000E+00
    0.14416E+04        -0.15750E+04         0.00000E+00
    0.00000E+00         0.00000E+00        -0.16756E+04
 
   -0.39939E+04         0.16684E+04         0.00000E+00
    0.16684E+04        -0.17935E+04         0.00000E+00
    0.00000E+00         0.00000E+00        -0.17362E+04
 
   -0.39230E+04         0.18888E+04         0.00000E+00
    0.18888E+04        -0.20094E+04         0.00000E+00
    0.00000E+00         0.00000E+00        -0.17797E+04
 
   -0.37989E+04         0.21041E+04         0.00000E+00
    0.21041E+04        -0.22213E+04         0.00000E+00
    0.00000E+00         0.00000E+00        -0.18061E+04
 
   -0.36216E+04         0.23158E+04         0.00000E+00
    0.23158E+04        -0.24292E+04         0.00000E+00
    0.00000E+00         0.00000E+00        -0.18152E+04
 
   -0.33891E+04         0.25256E+04         0.00000E+00
    0.25256E+04        -0.26341E+04         0.00000E+00
    0.00000E+00         0.00000E+00        -0.18069E+04
 
   -0.30981E+04         0.27349E+04         0.00000E+00
    0.27349E+04        -0.28381E+04         0.00000E+00
    0.00000E+00         0.00000E+00        -0.17808E+04
 
   -0.27435E+04         0.29444E+04         0.00000E+00
    0.29444E+04        -0.30445E+04         0.00000E+00
    0.00000E+00         0.00000E+00        -0.17364E+04
 
   -0.23186E+04         0.31539E+04         0.00000E+00
    0.31539E+04        -0.32576E+04         0.00000E+00
    0.00000E+00         0.00000E+00        -0.16729E+04
 
   -0.18150E+04         0.33619E+04         0.00000E+00
    0.33619E+04        -0.34827E+04         0.00000E+00
    0.00000E+00         0.00000E+00        -0.15893E+04
 
    0.23877E+04        -0.15989E+03         0.00000E+00
   -0.15989E+03         0.28210E+01         0.00000E+00
    0.00000E+00         0.00000E+00         0.71716E+03
 
    0.16681E+04        -0.40846E+03         0.00000E+00
   -0.40846E+03         0.13158E+02         0.00000E+00
    0.00000E+00         0.00000E+00         0.50437E+03
 
    0.94685E+03        -0.56773E+03         0.00000E+00
   -0.56773E+03         0.24453E+02         0.00000E+00
    0.00000E+00         0.00000E+00         0.29139E+03
 
    0.24264E+03        -0.64455E+03         0.00000E+00
   -0.64455E+03         0.27920E+02         0.00000E+00
    0.00000E+00         0.00000E+00         0.81167E+02
 
   -0.42847E+03        -0.64765E+03         0.00000E+00
   -0.64765E+03         0.16430E+02         0.00000E+00
    0.00000E+00         0.00000E+00        -0.12361E+03
 
   -0.10533E+04        -0.58708E+03         0.00000E+00
   -0.58708E+03        -0.15238E+02         0.00000E+00
    0.00000E+00         0.00000E+00        -0.32056E+03
 
   -0.16218E+04        -0.47360E+03         0.00000E+00
   -0.47360E+03        -0.70316E+02         0.00000E+00
    0.00000E+00         0.00000E+00        -0.50763E+03
 
   -0.21268E+04        -0.31800E+03         0.00000E+00
   -0.31800E+03        -0.15012E+03         0.00000E+00
    0.00000E+00         0.00000E+00        -0.68309E+03
 
   -0.25643E+04        -0.13057E+03         0.00000E+00
   -0.13057E+03        -0.25424E+03         0.00000E+00
    0.00000E+00         0.00000E+00        -0.84558E+03
 
   -0.29325E+04         0.79361E+02         0.00000E+00
    0.79361E+02        -0.38092E+03         0.00000E+00
    0.00000E+00         0.00000E+00        -0.99403E+03
 
   -0.32316E+04         0.30376E+03         0.00000E+00
    0.30376E+03        -0.52732E+03         0.00000E+00
    0.00000E+00         0.00000E+00        -0.11277E+04
 
   -0.34632E+04         0.53602E+03         0.00000E+00
    0.53602E+03        -0.69001E+03         0.00000E+00
    0.00000E+00         0.00000E+00        -0.12460E+04
 
   -0.36300E+04         0.77108E+03         0.00000E+00
    0.77108E+03        -0.86529E+03         0.00000E+00
    0.00000E+00         0.00000E+00        -0.13486E+04
 
   -0.37348E+04         0.10053E+04         0.00000E+00
    0.10053E+04        -0.10495E+04         0.00000E+00
    0.00000E+00         0.00000E+00        -0.14353E+04
 
   -0.37806E+04         0.12364E+04         0.00000E+00
    0.12364E+04        -0.12394E+04         0.00000E+00
    0.00000E+00         0.00000E+00        -0.15060E+04
 
   -0.37698E+04         0.14630E+04         0.00000E+00
    0.14630E+04        -0.14323E+04         0.00000E+00
    0.00000E+00         0.00000E+00        -0.15606E+04
 
   -0.37041E+04         0.16850E+04         0.00000E+00
    0.16850E+04        -0.16261E+04         0.00000E+00
    0.00000E+00         0.00000E+00        -0.15991E+04
 
   -0.35844E+04         0.19025E+04         0.00000E+00
    0.19025E+04        -0.18198E+04         0.00000E+00
    0.00000E+00         0.00000E+00        -0.16212E+04
 
   -0.34101E+04         0.21161E+04         0.00000E+00
    0.21161E+04        -0.20131E+04         0.00000E+00
    0.00000E+00         0.00000E+00        -0.16270E+04
 
   -0.31798E+04         0.23264E+04         0.00000E+00
    0.23264E+04        -0.22069E+04         0.00000E+00
    0.00000E+00         0.00000E+00        -0.16160E+04
 
   -0.28904E+04         0.25337E+04         0.00000E+00
    0.25337E+04        -0.24027E+04         0.00000E+00
    0.00000E+00         0.00000E+00        -0.15879E+04
 
   -0.25376E+04         0.27378E+04         0.00000E+00
    0.27378E+04        -0.26033E+04         0.00000E+00
    0.00000E+00         0.00000E+00        -0.15423E+04
 
   -0.21157E+04         0.29375E+04         0.00000E+00
    0.29375E+04        -0.28123E+04         0.00000E+00
    0.00000E+00         0.00000E+00        -0.14784E+04
 
   -0.16180E+04         0.31304E+04         0.00000E+00
    0.31304E+04        -0.30338E+04         0.00000E+00
    0.00000E+00         0.00000E+00        -0.13955E+04
 
    0.20984E+04        -0.15272E+03         0.00000E+00
   -0.15272E+03         0.30163E+01         0.00000E+00
    0.00000E+00         0.00000E+00         0.63043E+03
 
    0.14658E+04        -0.39444E+03         0.00000E+00
   -0.39444E+03         0.14843E+02         0.00000E+00
    0.00000E+00         0.00000E+00         0.44419E+03
 
    0.82649E+03        -0.55582E+03         0.00000E+00
   -0.55582E+03         0.30164E+02         0.00000E+00
    0.00000E+00         0.00000E+00         0.25700E+03
 
    0.19711E+03        -0.64238E+03         0.00000E+00
   -0.64238E+03         0.41102E+02         0.00000E+00
    0.00000E+00         0.00000E+00         0.71464E+02
 
   -0.40776E+03        -0.66119E+03         0.00000E+00
   -0.66119E+03         0.41131E+02         0.00000E+00
    0.00000E+00         0.00000E+00        -0.10999E+03
 
   -0.97590E+03        -0.62055E+03         0.00000E+00
   -0.62055E+03         0.25281E+02         0.00000E+00
    0.00000E+00         0.00000E+00        -0.28518E+03
 
   -0.14976E+04        -0.52940E+03         0.00000E+00
   -0.52940E+03        -0.97911E+01         0.00000E+00
    0.00000E+00         0.00000E+00        -0.45222E+03
 
   -0.19658E+04        -0.39685E+03         0.00000E+00
   -0.39685E+03        -0.65834E+02         0.00000E+00
    0.00000E+00         0.00000E+00        -0.60948E+03
 
   -0.23755E+04        -0.23174E+03         0.00000E+00
   -0.23174E+03        -0.14315E+03         0.00000E+00
    0.00000E+00         0.00000E+00        -0.75560E+03
 
   -0.27241E+04        -0.42255E+02         0.00000E+00
   -0.42255E+02        -0.24084E+03         0.00000E+00
    0.00000E+00         0.00000E+00        -0.88949E+03
 
   -0.30107E+04         0.16437E+03         0.00000E+00
    0.16437E+03        -0.35704E+03         0.00000E+00
    0.00000E+00         0.00000E+00        -0.10103E+04
 
   -0.32355E+04         0.38201E+03         0.00000E+00
    0.38201E+03        -0.48931E+03         0.00000E+00
    0.00000E+00         0.00000E+00        -0.11174E+04
 
   -0.33998E+04         0.60572E+03         0.00000E+00
    0.60572E+03        -0.63484E+03         0.00000E+00
    0.00000E+00         0.00000E+00        -0.12104E+04
 
   -0.35052E+04         0.83172E+03         0.00000E+00
    0.83172E+03        -0.79080E+03         0.00000E+00
    0.00000E+00         0.00000E+00        -0.12888E+04
 
   -0.35536E+04         0.10573E+04         0.00000E+00
    0.10573E+04        -0.95458E+03         0.00000E+00
    0.00000E+00         0.00000E+00        -0.13525E+04
 
   -0.35465E+04         0.12807E+04         0.00000E+00
    0.12807E+04        -0.11239E+04         0.00000E+00
    0.00000E+00         0.00000E+00        -0.14011E+04
 
   -0.34850E+04         0.15008E+04         0.00000E+00
    0.15008E+04        -0.12972E+04         0.00000E+00
    0.00000E+00         0.00000E+00        -0.14347E+04
 
   -0.33693E+04         0.17171E+04         0.00000E+00
    0.17171E+04        -0.14734E+04         0.00000E+00
    0.00000E+00         0.00000E+00        -0.14528E+04
 
   -0.31990E+04         0.19293E+04         0.00000E+00
    0.19293E+04        -0.16523E+04         0.00000E+00
    0.00000E+00         0.00000E+00        -0.14554E+04
 
   -0.29726E+04         0.21371E+04         0.00000E+00
    0.21371E+04        -0.18345E+04         0.00000E+00
    0.00000E+00         0.00000E+00        -0.14421E+04
 
   -0.26874E+04         0.23400E+04         0.00000E+00
    0.23400E+04        -0.20212E+04         0.00000E+00
    0.00000E+00         0.00000E+00        -0.14126E+04
 
   -0.23399E+04         0.25368E+04         0.00000E+00
    0.25368E+04        -0.22146E+04         0.00000E+00
    0.00000E+00         0.00000E+00        -0.13663E+04
 
   -0.19254E+04         0.27258E+04         0.00000E+00
    0.27258E+04        -0.24174E+04         0.00000E+00
    0.00000E+00         0.00000E+00        -0.13029E+04
 
   -0.14386E+04         0.29037E+04         0.00000E+00
    0.29037E+04        -0.26332E+04         0.00000E+00
    0.00000E+00         0.00000E+00        -0.12216E+04
 
    0.18215E+04        -0.14507E+03         0.00000E+00
   -0.14507E+03         0.31565E+01         0.00000E+00
    0.00000E+00         0.00000E+00         0.54739E+03
 
    0.12669E+04        -0.37817E+03         0.00000E+00
   -0.37817E+03         0.16110E+02         0.00000E+00
    0.00000E+00         0.00000E+00         0.38491E+03
 
    0.70161E+03        -0.53895E+03         0.00000E+00
   -0.53895E+03         0.34563E+02         0.00000E+00
    0.00000E+00         0.00000E+00         0.22085E+03
 
    0.14053E+03        -0.63180E+03         0.00000E+00
   -0.63180E+03         0.51410E+02         0.00000E+00
    0.00000E+00         0.00000E+00         0.57582E+02
 
   -0.40307E+03        -0.66249E+03         0.00000E+00
   -0.66249E+03         0.60658E+02         0.00000E+00
    0.00000E+00         0.00000E+00        -0.10272E+03
 
   -0.91785E+03        -0.63783E+03         0.00000E+00
   -0.63783E+03         0.57592E+02         0.00000E+00
    0.00000E+00         0.00000E+00        -0.25808E+03
 
   -0.13946E+04        -0.56528E+03         0.00000E+00
   -0.56528E+03         0.38840E+02         0.00000E+00
    0.00000E+00         0.00000E+00        -0.40672E+03
 
   -0.18260E+04        -0.45255E+03         0.00000E+00
   -0.45255E+03         0.23566E+01         0.00000E+00
    0.00000E+00         0.00000E+00        -0.54710E+03
 
   -0.22071E+04        -0.30724E+03         0.00000E+00
   -0.30724E+03        -0.52678E+02         0.00000E+00
    0.00000E+00         0.00000E+00        -0.67793E+03
 
   -0.25343E+04        -0.13650E+03         0.00000E+00
   -0.13650E+03        -0.12603E+03         0.00000E+00
    0.00000E+00         0.00000E+00        -0.79811E+03
 
   -0.28059E+04         0.53171E+02         0.00000E+00
    0.53171E+02        -0.21663E+03         0.00000E+00
    0.00000E+00         0.00000E+00        -0.90675E+03
 
   -0.30210E+04         0.25612E+03         0.00000E+00
    0.25612E+03        -0.32280E+03         0.00000E+00
    0.00000E+00         0.00000E+00        -0.10032E+04
 
   -0.31800E+04         0.46762E+03         0.00000E+00
    0.46762E+03        -0.44252E+03         0.00000E+00
    0.00000E+00         0.00000E+00        -0.10868E+04
 
   -0.32834E+04         0.68385E+03         0.00000E+00
    0.68385E+03        -0.57366E+03         0.00000E+00
    0.00000E+00         0.00000E+00        -0.11571E+04
 
   -0.33322E+04         0.90185E+03         0.00000E+00
    0.90185E+03        -0.71417E+03         0.00000E+00
    0.00000E+00         0.00000E+00        -0.12139E+04
 
   -0.33271E+04         0.11194E+04         0.00000E+00
    0.11194E+04        -0.86227E+03         0.00000E+00
    0.00000E+00         0.00000E+00        -0.12568E+04
 
   -0.32687E+04         0.13350E+04         0.00000E+00
    0.13350E+04        -0.10166E+04         0.00000E+00
    0.00000E+00         0.00000E+00        -0.12856E+04
 
   -0.31569E+04         0.15473E+04         0.00000E+00
    0.15473E+04        -0.11763E+04         0.00000E+00
    0.00000E+00         0.00000E+00        -0.13000E+04
 
   -0.29910E+04         0.17554E+04         0.00000E+00
    0.17554E+04        -0.13412E+04         0.00000E+00
    0.00000E+00         0.00000E+00        -0.12997E+04
 
   -0.27698E+04         0.19583E+04         0.00000E+00
    0.19583E+04        -0.15116E+04         0.00000E+00
    0.00000E+00         0.00000E+00        -0.12844E+04
 
   -0.24910E+04         0.21548E+04         0.00000E+00
    0.21548E+04        -0.16885E+04         0.00000E+00
    0.00000E+00         0.00000E+00        -0.12538E+04
 
   -0.21516E+04         0.23430E+04         0.00000E+00
    0.23430E+04        -0.18737E+04         0.00000E+00
    0.00000E+00         0.00000E+00        -0.12076E+04
 
   -0.17480E+04         0.25206E+04         0.00000E+00
    0.25206E+04        -0.20691E+04         0.00000E+00
    0.00000E+00         0.00000E+00        -0.11451E+04
 
   -0.12760E+04         0.26839E+04         0.00000E+00
    0.26839E+04        -0.22775E+04         0.00000E+00
    0.00000E+00         0.00000E+00        -0.10661E+04
 
    0.15580E+04        -0.13709E+03         0.00000E+00
   -0.13709E+03         0.32472E+01         0.00000E+00
    0.00000E+00         0.00000E+00         0.46837E+03
 
    0.10735E+04        -0.36020E+03         0.00000E+00
   -0.36020E+03         0.17012E+02         0.00000E+00
    0.00000E+00         0.00000E+00         0.32714E+03
 
    0.57503E+03        -0.51821E+03         0.00000E+00
   -0.51821E+03         0.37838E+02         0.00000E+00
    0.00000E+00         0.00000E+00         0.18386E+03
 
    0.76234E+02        -0.61458E+03         0.00000E+00
   -0.61458E+03         0.59283E+02         0.00000E+00
    0.00000E+00         0.00000E+00         0.40655E+02
 
   -0.41082E+03        -0.65397E+03         0.00000E+00
   -0.65397E+03         0.75830E+02         0.00000E+00
    0.00000E+00         0.00000E+00        -0.10050E+03
 
   -0.87562E+03        -0.64200E+03         0.00000E+00
   -0.64200E+03         0.83016E+02         0.00000E+00
    0.00000E+00         0.00000E+00        -0.23778E+03
 
   -0.13093E+04        -0.58489E+03         0.00000E+00
   -0.58489E+03         0.77492E+02         0.00000E+00
    0.00000E+00         0.00000E+00        -0.36956E+03
 
   -0.17050E+04        -0.48916E+03         0.00000E+00
   -0.48916E+03         0.57024E+02         0.00000E+00
    0.00000E+00         0.00000E+00        -0.49438E+03
 
   -0.20571E+04        -0.36135E+03         0.00000E+00
   -0.36135E+03         0.20413E+02         0.00000E+00
    0.00000E+00         0.00000E+00        -0.61099E+03
 
   -0.23618E+04        -0.20772E+03         0.00000E+00
   -0.20772E+03        -0.32624E+02         0.00000E+00
    0.00000E+00         0.00000E+00        -0.71832E+03
 
   -0.26166E+04        -0.34073E+02         0.00000E+00
   -0.34073E+02        -0.10162E+03         0.00000E+00
    0.00000E+00         0.00000E+00        -0.81547E+03
 
   -0.28201E+04         0.15440E+03         0.00000E+00
    0.15440E+03        -0.18556E+03         0.00000E+00
    0.00000E+00         0.00000E+00        -0.90170E+03
 
   -0.29716E+04         0.35322E+03         0.00000E+00
    0.35322E+03        -0.28305E+03         0.00000E+00
    0.00000E+00         0.00000E+00        -0.97639E+03
 
   -0.30709E+04         0.55861E+03         0.00000E+00
    0.55861E+03        -0.39255E+03         0.00000E+00
    0.00000E+00         0.00000E+00        -0.10390E+04
 
   -0.31183E+04         0.76748E+03         0.00000E+00
    0.76748E+03        -0.51251E+03         0.00000E+00
    0.00000E+00         0.00000E+00        -0.10892E+04
 
   -0.31139E+04         0.97734E+03         0.00000E+00
    0.97734E+03        -0.64156E+03         0.00000E+00
    0.00000E+00         0.00000E+00        -0.11266E+04
 
   -0.30577E+04         0.11862E+04         0.00000E+00
    0.11862E+04        -0.77863E+03         0.00000E+00
    0.00000E+00         0.00000E+00        -0.11509E+04
 
   -0.29495E+04         0.13923E+04         0.00000E+00
    0.13923E+04        -0.92301E+03         0.00000E+00
    0.00000E+00         0.00000E+00        -0.11618E+04
 
   -0.27885E+04         0.15942E+04         0.00000E+00
    0.15942E+04        -0.10745E+04         0.00000E+00
    0.00000E+00         0.00000E+00        -0.11589E+04
 
   -0.25735E+04         0.17903E+04         0.00000E+00
    0.17903E+04        -0.12332E+04         0.00000E+00
    0.00000E+00         0.00000E+00        -0.11420E+04
 
   -0.23027E+04         0.19788E+04         0.00000E+00
    0.19788E+04        -0.14001E+04         0.00000E+00
    0.00000E+00         0.00000E+00        -0.11108E+04
 
   -0.19736E+04         0.21574E+04         0.00000E+00
    0.21574E+04        -0.15762E+04         0.00000E+00
    0.00000E+00         0.00000E+00        -0.10650E+04
 
   -0.15835E+04         0.23232E+04         0.00000E+00
    0.23232E+04        -0.17633E+04         0.00000E+00
    0.00000E+00         0.00000E+00        -0.10040E+04
 
   -0.11293E+04         0.24724E+04         0.00000E+00
    0.24724E+04        -0.19631E+04         0.00000E+00
    0.00000E+00         0.00000E+00        -0.92772E+03
 
    0.13087E+04        -0.12891E+03         0.00000E+00
   -0.12891E+03         0.32940E+01         0.00000E+00
    0.00000E+00         0.00000E+00         0.39360E+03
 
    0.88699E+03        -0.34102E+03         0.00000E+00
   -0.34102E+03         0.17598E+02         0.00000E+00
    0.00000E+00         0.00000E+00         0.27138E+03
 
    0.44898E+03        -0.49455E+03         0.00000E+00
   -0.49455E+03         0.40151E+02         0.00000E+00
    0.00000E+00         0.00000E+00         0.14674E+03
 
    0.69425E+01        -0.59219E+03         0.00000E+00
   -0.59219E+03         0.65091E+02         0.00000E+00
    0.00000E+00         0.00000E+00         0.21610E+02
 
   -0.42804E+03        -0.63769E+03         0.00000E+00
   -0.63769E+03         0.87326E+02         0.00000E+00
    0.00000E+00         0.00000E+00        -0.10221E+03
 
   -0.84618E+03        -0.63565E+03         0.00000E+00
   -0.63565E+03         0.10264E+03         0.00000E+00
    0.00000E+00         0.00000E+00        -0.22306E+03
 
   -0.12392E+04        -0.59129E+03         0.00000E+00
   -0.59129E+03         0.10775E+03         0.00000E+00
    0.00000E+00         0.00000E+00        -0.33942E+03
 
   -0.16001E+04        -0.51011E+03         0.00000E+00
   -0.51011E+03         0.10030E+03         0.00000E+00
    0.00000E+00         0.00000E+00        -0.44994E+03
 
   -0.19235E+04        -0.39775E+03         0.00000E+00
   -0.39775E+03         0.78821E+02         0.00000E+00
    0.00000E+00         0.00000E+00        -0.55341E+03
 
   -0.22053E+04        -0.25967E+03         0.00000E+00
   -0.25967E+03         0.42640E+02         0.00000E+00
    0.00000E+00         0.00000E+00        -0.64878E+03
 
   -0.24423E+04        -0.10107E+03         0.00000E+00
   -0.10107E+03        -0.82569E+01         0.00000E+00
    0.00000E+00         0.00000E+00        -0.73518E+03
 
   -0.26327E+04         0.73320E+02         0.00000E+00
    0.73320E+02        -0.73368E+02         0.00000E+00
    0.00000E+00         0.00000E+00        -0.81183E+03
 
   -0.27751E+04         0.25929E+03         0.00000E+00
    0.25929E+03        -0.15183E+03         0.00000E+00
    0.00000E+00         0.00000E+00        -0.87809E+03
 
   -0.28689E+04         0.45316E+03         0.00000E+00
    0.45316E+03        -0.24260E+03         0.00000E+00
    0.00000E+00         0.00000E+00        -0.93343E+03
 
   -0.29134E+04         0.65179E+03         0.00000E+00
    0.65179E+03        -0.34455E+03         0.00000E+00
    0.00000E+00         0.00000E+00        -0.97739E+03
 
   -0.29086E+04         0.85250E+03         0.00000E+00
    0.85250E+03        -0.45667E+03         0.00000E+00
    0.00000E+00         0.00000E+00        -0.10096E+04
 
   -0.28540E+04         0.10530E+04         0.00000E+00
    0.10530E+04        -0.57812E+03         0.00000E+00
    0.00000E+00         0.00000E+00        -0.10296E+04
 
   -0.27491E+04         0.12512E+04         0.00000E+00
    0.12512E+04        -0.70834E+03         0.00000E+00
    0.00000E+00         0.00000E+00        -0.10372E+04
 
   -0.25933E+04         0.14452E+04         0.00000E+00
    0.14452E+04        -0.84712E+03         0.00000E+00
    0.00000E+00         0.00000E+00        -0.10321E+04
 
   -0.23852E+04         0.16330E+04         0.00000E+00
    0.16330E+04        -0.99460E+03         0.00000E+00
    0.00000E+00         0.00000E+00        -0.10140E+04
 
   -0.21236E+04         0.18124E+04         0.00000E+00
    0.18124E+04        -0.11513E+04         0.00000E+00
    0.00000E+00         0.00000E+00        -0.98247E+03
 
   -0.18065E+04         0.19807E+04         0.00000E+00
    0.19807E+04        -0.13181E+04         0.00000E+00
    0.00000E+00         0.00000E+00        -0.93737E+03
 
   -0.14319E+04         0.21347E+04         0.00000E+00
    0.21347E+04        -0.14960E+04         0.00000E+00
    0.00000E+00         0.00000E+00        -0.87836E+03
 
   -0.99744E+03         0.22703E+04         0.00000E+00
    0.22703E+04        -0.16865E+04         0.00000E+00
    0.00000E+00         0.00000E+00        -0.80518E+03
 
    0.10741E+04        -0.12063E+03         0.00000E+00
   -0.12063E+03         0.33025E+01         0.00000E+00
    0.00000E+00         0.00000E+00         0.32322E+03
 
    0.70871E+03        -0.32103E+03         0.00000E+00
   -0.32103E+03         0.17911E+02         0.00000E+00
    0.00000E+00         0.00000E+00         0.21799E+03
 
    0.32525E+03        -0.46876E+03         0.00000E+00
   -0.46876E+03         0.41643E+02         0.00000E+00
    0.00000E+00         0.00000E+00         0.11007E+03
 
   -0.65136E+02        -0.56586E+03         0.00000E+00
   -0.56586E+03         0.69149E+02         0.00000E+00
    0.00000E+00         0.00000E+00         0.12039E+01
 
   -0.45226E+03        -0.61534E+03         0.00000E+00
   -0.61534E+03         0.95721E+02         0.00000E+00
    0.00000E+00         0.00000E+00        -0.10696E+03
 
   -0.82704E+03        -0.62096E+03         0.00000E+00
   -0.62096E+03         0.11738E+03         0.00000E+00
    0.00000E+00         0.00000E+00        -0.21290E+03
 
   -0.11816E+04        -0.58706E+03         0.00000E+00
   -0.58706E+03         0.13094E+03         0.00000E+00
    0.00000E+00         0.00000E+00        -0.31520E+03
 
   -0.15093E+04        -0.51832E+03         0.00000E+00
   -0.51832E+03         0.13397E+03         0.00000E+00
    0.00000E+00         0.00000E+00        -0.41261E+03
 
   -0.18047E+04        -0.41957E+03         0.00000E+00
   -0.41957E+03         0.12483E+03         0.00000E+00
    0.00000E+00         0.00000E+00        -0.50397E+03
 
   -0.20635E+04        -0.29562E+03         0.00000E+00
   -0.29562E+03         0.10253E+03         0.00000E+00
    0.00000E+00         0.00000E+00        -0.58828E+03
 
   -0.22823E+04        -0.15108E+03         0.00000E+00
   -0.15108E+03         0.66706E+02         0.00000E+00
    0.00000E+00         0.00000E+00        -0.66467E+03
 
   -0.24587E+04         0.97455E+01         0.00000E+00
    0.97455E+01         0.17433E+02         0.00000E+00
    0.00000E+00         0.00000E+00        -0.73238E+03
 
   -0.25910E+04         0.18291E+03         0.00000E+00
    0.18291E+03        -0.44852E+02         0.00000E+00
    0.00000E+00         0.00000E+00        -0.79076E+03
 
   -0.26780E+04         0.36488E+03         0.00000E+00
    0.36488E+03        -0.11950E+03         0.00000E+00
    0.00000E+00         0.00000E+00        -0.83924E+03
 
   -0.27187E+04         0.55253E+03         0.00000E+00
    0.55253E+03        -0.20577E+03         0.00000E+00
    0.00000E+00         0.00000E+00        -0.87734E+03
 
   -0.27126E+04         0.74307E+03         0.00000E+00
    0.74307E+03        -0.30293E+03         0.00000E+00
    0.00000E+00         0.00000E+00        -0.90466E+03
 
   -0.26590E+04         0.93401E+03         0.00000E+00
    0.93401E+03        -0.41037E+03         0.00000E+00
    0.00000E+00         0.00000E+00        -0.92081E+03
 
   -0.25573E+04         0.11230E+04         0.00000E+00
    0.11230E+04        -0.52765E+03         0.00000E+00
    0.00000E+00         0.00000E+00        -0.92549E+03
 
   -0.24067E+04         0.13079E+04         0.00000E+00
    0.13079E+04        -0.65458E+03         0.00000E+00
    0.00000E+00         0.00000E+00        -0.91838E+03
 
   -0.22062E+04         0.14863E+04         0.00000E+00
    0.14863E+04        -0.79121E+03         0.00000E+00
    0.00000E+00         0.00000E+00        -0.89921E+03
 
   -0.19546E+04         0.16557E+04         0.00000E+00
    0.16557E+04        -0.93785E+03         0.00000E+00
    0.00000E+00         0.00000E+00        -0.86772E+03
 
   -0.16506E+04         0.18132E+04         0.00000E+00
    0.18132E+04        -0.10951E+04         0.00000E+00
    0.00000E+00         0.00000E+00        -0.82368E+03
 
   -0.12927E+04         0.19555E+04         0.00000E+00
    0.19555E+04        -0.12635E+04         0.00000E+00
    0.00000E+00         0.00000E+00        -0.76687E+03
 
   -0.87951E+03         0.20783E+04         0.00000E+00
    0.20783E+04        -0.14441E+04         0.00000E+00
    0.00000E+00         0.00000E+00        -0.69708E+03
 
    0.85446E+03        -0.11235E+03         0.00000E+00
   -0.11235E+03         0.32781E+01         0.00000E+00
    0.00000E+00         0.00000E+00         0.25732E+03
 
    0.53950E+03        -0.30057E+03         0.00000E+00
   -0.30057E+03         0.17992E+02         0.00000E+00
    0.00000E+00         0.00000E+00         0.16725E+03
 
    0.20522E+03        -0.44150E+03         0.00000E+00
   -0.44150E+03         0.42441E+02         0.00000E+00
    0.00000E+00         0.00000E+00         0.74299E+02
 
   -0.13822E+03        -0.53665E+03         0.00000E+00
   -0.53665E+03         0.71731E+02         0.00000E+00
    0.00000E+00         0.00000E+00        -0.19945E+02
 
   -0.48146E+03        -0.58837E+03         0.00000E+00
   -0.58837E+03         0.10151E+03         0.00000E+00
    0.00000E+00         0.00000E+00        -0.11399E+03
 
   -0.81608E+03        -0.59975E+03         0.00000E+00
   -0.59975E+03         0.12802E+03         0.00000E+00
    0.00000E+00         0.00000E+00        -0.20642E+03
 
   -0.11347E+04        -0.57439E+03         0.00000E+00
   -0.57439E+03         0.14818E+03         0.00000E+00
    0.00000E+00         0.00000E+00        -0.29594E+03
 
   -0.14308E+04        -0.51626E+03         0.00000E+00
   -0.51626E+03         0.15956E+03         0.00000E+00
    0.00000E+00         0.00000E+00        -0.38137E+03
 
   -0.16991E+04        -0.42952E+03         0.00000E+00
   -0.42952E+03         0.16037E+03         0.00000E+00
    0.00000E+00         0.00000E+00        -0.46162E+03
 
   -0.19352E+04        -0.31837E+03         0.00000E+00
   -0.31837E+03         0.14943E+03         0.00000E+00
    0.00000E+00         0.00000E+00        -0.53575E+03
 
   -0.21357E+04        -0.18691E+03         0.00000E+00
   -0.18691E+03         0.12605E+03         0.00000E+00
    0.00000E+00         0.00000E+00        -0.60289E+03
 
   -0.22977E+04        -0.39070E+02         0.00000E+00
   -0.39070E+02         0.90017E+02         0.00000E+00
    0.00000E+00         0.00000E+00        -0.66230E+03
 
   -0.24192E+04         0.12150E+03         0.00000E+00
    0.12150E+03         0.41404E+02         0.00000E+00
    0.00000E+00         0.00000E+00        -0.71334E+03
 
   -0.24987E+04         0.29142E+03         0.00000E+00
    0.29142E+03        -0.19468E+02         0.00000E+00
    0.00000E+00         0.00000E+00        -0.75544E+03
 
   -0.25348E+04         0.46762E+03         0.00000E+00
    0.46762E+03        -0.92159E+02         0.00000E+00
    0.00000E+00         0.00000E+00        -0.78810E+03
 
   -0.25268E+04         0.64730E+03         0.00000E+00
    0.64730E+03        -0.17619E+03         0.00000E+00
    0.00000E+00         0.00000E+00        -0.81091E+03
 
   -0.24738E+04         0.82783E+03         0.00000E+00
    0.82783E+03        -0.27113E+03         0.00000E+00
    0.00000E+00         0.00000E+00        -0.82349E+03
 
   -0.23751E+04         0.10067E+04         0.00000E+00
    0.10067E+04        -0.37666E+03         0.00000E+00
    0.00000E+00         0.00000E+00        -0.82552E+03
 
   -0.22297E+04         0.11816E+04         0.00000E+00
    0.11816E+04        -0.49259E+03         0.00000E+00
    0.00000E+00         0.00000E+00        -0.81670E+03
 
   -0.20370E+04         0.13498E+04         0.00000E+00
    0.13498E+04        -0.61890E+03         0.00000E+00
    0.00000E+00         0.00000E+00        -0.79678E+03
 
   -0.17961E+04         0.15088E+04         0.00000E+00
    0.15088E+04        -0.75575E+03         0.00000E+00
    0.00000E+00         0.00000E+00        -0.76555E+03
 
   -0.15059E+04         0.16553E+04         0.00000E+00
    0.16553E+04        -0.90342E+03         0.00000E+00
    0.00000E+00         0.00000E+00        -0.72279E+03
 
   -0.11656E+04         0.17860E+04         0.00000E+00
    0.17860E+04        -0.10623E+04         0.00000E+00
    0.00000E+00         0.00000E+00        -0.66836E+03
 
   -0.77443E+03         0.18967E+04         0.00000E+00
    0.18967E+04        -0.12327E+04         0.00000E+00
    0.00000E+00         0.00000E+00        -0.60213E+03
 
    0.64986E+03        -0.10415E+03         0.00000E+00
   -0.10415E+03         0.32261E+01         0.00000E+00
    0.00000E+00         0.00000E+00         0.19593E+03
 
    0.37999E+03        -0.27993E+03         0.00000E+00
   -0.27993E+03         0.17878E+02         0.00000E+00
    0.00000E+00         0.00000E+00         0.11936E+03
 
    0.89992E+02        -0.41334E+03         0.00000E+00
   -0.41334E+03         0.42657E+02         0.00000E+00
    0.00000E+00         0.00000E+00         0.39795E+02
 
   -0.21087E+03        -0.50541E+03         0.00000E+00
   -0.50541E+03         0.73081E+02         0.00000E+00
    0.00000E+00         0.00000E+00        -0.41336E+02
 
   -0.51399E+03        -0.55798E+03         0.00000E+00
   -0.55798E+03         0.10511E+03         0.00000E+00
    0.00000E+00         0.00000E+00        -0.12266E+03
 
   -0.81154E+03        -0.57355E+03         0.00000E+00
   -0.57355E+03         0.13523E+03         0.00000E+00
    0.00000E+00         0.00000E+00        -0.20289E+03
 
   -0.10965E+04        -0.55511E+03         0.00000E+00
   -0.55511E+03         0.16046E+03         0.00000E+00
    0.00000E+00         0.00000E+00        -0.28082E+03
 
   -0.13629E+04        -0.50602E+03         0.00000E+00
   -0.50602E+03         0.17838E+03         0.00000E+00
    0.00000E+00         0.00000E+00        -0.35535E+03
 
   -0.16053E+04        -0.42986E+03         0.00000E+00
   -0.42986E+03         0.18713E+03         0.00000E+00
    0.00000E+00         0.00000E+00        -0.42546E+03
 
   -0.18195E+04        -0.33030E+03         0.00000E+00
   -0.33030E+03         0.18537E+03         0.00000E+00
    0.00000E+00         0.00000E+00        -0.49024E+03
 
   -0.20018E+04        -0.21101E+03         0.00000E+00
   -0.21101E+03         0.17221E+03         0.00000E+00
    0.00000E+00         0.00000E+00        -0.54887E+03
 
   -0.21493E+04        -0.75525E+02         0.00000E+00
   -0.75525E+02         0.14715E+03         0.00000E+00
    0.00000E+00         0.00000E+00        -0.60064E+03
 
   -0.22597E+04         0.72761E+02         0.00000E+00
    0.72761E+02         0.11002E+03         0.00000E+00
    0.00000E+00         0.00000E+00        -0.64490E+03
 
   -0.23312E+04         0.23066E+03         0.00000E+00
    0.23066E+03         0.60852E+02         0.00000E+00
    0.00000E+00         0.00000E+00        -0.68109E+03
 
   -0.23623E+04         0.39520E+03         0.00000E+00
    0.39520E+03        -0.14835E+00         0.00000E+00
    0.00000E+00         0.00000E+00        -0.70874E+03
 
   -0.23520E+04         0.56358E+03         0.00000E+00
    0.56358E+03        -0.72716E+02         0.00000E+00
    0.00000E+00         0.00000E+00        -0.72741E+03
 
   -0.22992E+04         0.73314E+03         0.00000E+00
    0.73314E+03        -0.15657E+03         0.00000E+00
    0.00000E+00         0.00000E+00        -0.73674E+03
 
   -0.22032E+04         0.90131E+03         0.00000E+00
    0.90131E+03        -0.25148E+03         0.00000E+00
    0.00000E+00         0.00000E+00        -0.73640E+03
 
   -0.20632E+04         0.10655E+04         0.00000E+00
    0.10655E+04        -0.35727E+03         0.00000E+00
    0.00000E+00         0.00000E+00        -0.72613E+03
 
   -0.18785E+04         0.12231E+04         0.00000E+00
    0.12231E+04        -0.47387E+03         0.00000E+00
    0.00000E+00         0.00000E+00        -0.70570E+03
 
   -0.16484E+04         0.13713E+04         0.00000E+00
    0.13713E+04        -0.60129E+03         0.00000E+00
    0.00000E+00         0.00000E+00        -0.67490E+03
 
   -0.13724E+04         0.15069E+04         0.00000E+00
    0.15069E+04        -0.73958E+03         0.00000E+00
    0.00000E+00         0.00000E+00        -0.63359E+03
 
   -0.10500E+04         0.16263E+04         0.00000E+00
    0.16263E+04        -0.88883E+03         0.00000E+00
    0.00000E+00         0.00000E+00        -0.58166E+03
 
   -0.68115E+03         0.17258E+04         0.00000E+00
    0.17258E+04        -0.10490E+04         0.00000E+00
    0.00000E+00         0.00000E+00        -0.51906E+03
 
    0.46021E+03        -0.96092E+02         0.00000E+00
   -0.96092E+02         0.31513E+01         0.00000E+00
    0.00000E+00         0.00000E+00         0.13901E+03
 
    0.23057E+03        -0.25937E+03         0.00000E+00
   -0.25937E+03         0.17604E+02         0.00000E+00
    0.00000E+00         0.00000E+00         0.74453E+02
 
   -0.19636E+02        -0.38474E+03         0.00000E+00
   -0.38474E+03         0.42394E+02         0.00000E+00
    0.00000E+00         0.00000E+00         0.68272E+01
 
   -0.28196E+03        -0.47287E+03         0.00000E+00
   -0.47287E+03         0.73412E+02         0.00000E+00
    0.00000E+00         0.00000E+00        -0.62563E+02
 
   -0.54848E+03        -0.52517E+03         0.00000E+00
   -0.52517E+03         0.10692E+03         0.00000E+00
    0.00000E+00         0.00000E+00        -0.13247E+03
 
   -0.81193E+03        -0.54364E+03         0.00000E+00
   -0.54364E+03         0.13960E+03         0.00000E+00
    0.00000E+00         0.00000E+00        -0.20170E+03
 
   -0.10658E+04        -0.53075E+03         0.00000E+00
   -0.53075E+03         0.16861E+03         0.00000E+00
    0.00000E+00         0.00000E+00        -0.26915E+03
 
   -0.13042E+04        -0.48935E+03         0.00000E+00
   -0.48935E+03         0.19156E+03         0.00000E+00
    0.00000E+00         0.00000E+00        -0.33378E+03
 
   -0.15221E+04        -0.42252E+03         0.00000E+00
   -0.42252E+03         0.20655E+03         0.00000E+00
    0.00000E+00         0.00000E+00        -0.39466E+03
 
   -0.17152E+04        -0.33348E+03         0.00000E+00
   -0.33348E+03         0.21214E+03         0.00000E+00
    0.00000E+00         0.00000E+00        -0.45091E+03
 
   -0.18798E+04        -0.22547E+03         0.00000E+00
   -0.22547E+03         0.20727E+03         0.00000E+00
    0.00000E+00         0.00000E+00        -0.50176E+03
 
   -0.20129E+04        -0.10170E+03         0.00000E+00
   -0.10170E+03         0.19125E+03         0.00000E+00
    0.00000E+00         0.00000E+00        -0.54651E+03
 
   -0.21122E+04         0.34700E+02         0.00000E+00
    0.34700E+02         0.16369E+03         0.00000E+00
    0.00000E+00         0.00000E+00        -0.58455E+03
 
   -0.21755E+04         0.18074E+03         0.00000E+00
    0.18074E+03         0.12442E+03         0.00000E+00
    0.00000E+00         0.00000E+00        -0.61533E+03
 
   -0.22013E+04         0.33357E+03         0.00000E+00
    0.33357E+03         0.73429E+02         0.00000E+00
    0.00000E+00         0.00000E+00        -0.63837E+03
 
   -0.21884E+04         0.49044E+03         0.00000E+00
    0.49044E+03         0.10827E+02         0.00000E+00
    0.00000E+00         0.00000E+00        -0.65327E+03
 
   -0.21356E+04         0.64870E+03         0.00000E+00
    0.64870E+03        -0.63238E+02         0.00000E+00
    0.00000E+00         0.00000E+00        -0.65966E+03
 
   -0.20422E+04         0.80577E+03         0.00000E+00
    0.80577E+03        -0.14860E+03         0.00000E+00
    0.00000E+00         0.00000E+00        -0.65724E+03
 
   -0.19074E+04         0.95900E+03         0.00000E+00
    0.95900E+03        -0.24510E+03         0.00000E+00
    0.00000E+00         0.00000E+00        -0.64575E+03
 
   -0.17307E+04         0.11057E+04         0.00000E+00
    0.11057E+04        -0.35262E+03         0.00000E+00
    0.00000E+00         0.00000E+00        -0.62498E+03
 
   -0.15116E+04         0.12430E+04         0.00000E+00
    0.12430E+04        -0.47105E+03         0.00000E+00
    0.00000E+00         0.00000E+00        -0.59478E+03
 
   -0.12498E+04         0.13677E+04         0.00000E+00
    0.13677E+04        -0.60026E+03         0.00000E+00
    0.00000E+00         0.00000E+00        -0.55502E+03
 
   -0.94543E+03         0.14765E+04         0.00000E+00
    0.14765E+04        -0.74009E+03         0.00000E+00
    0.00000E+00         0.00000E+00        -0.50566E+03
 
   -0.59869E+03         0.15654E+04         0.00000E+00
    0.15654E+04        -0.89023E+03         0.00000E+00
    0.00000E+00         0.00000E+00        -0.44667E+03
 
    0.28528E+03        -0.88238E+02         0.00000E+00
   -0.88238E+02         0.30586E+01         0.00000E+00
    0.00000E+00         0.00000E+00         0.86500E+02
 
    0.91464E+02        -0.23908E+03         0.00000E+00
   -0.23908E+03         0.17202E+02         0.00000E+00
    0.00000E+00         0.00000E+00         0.32600E+02
 
   -0.12307E+03        -0.35609E+03         0.00000E+00
   -0.35609E+03         0.41744E+02         0.00000E+00
    0.00000E+00         0.00000E+00        -0.24398E+02
 
   -0.35059E+03        -0.43964E+03         0.00000E+00
   -0.43964E+03         0.72916E+02         0.00000E+00
    0.00000E+00         0.00000E+00        -0.83304E+02
 
   -0.58383E+03        -0.49077E+03         0.00000E+00
   -0.49077E+03         0.10725E+03         0.00000E+00
    0.00000E+00         0.00000E+00        -0.14297E+03
 
   -0.81605E+03        -0.51108E+03         0.00000E+00
   -0.51108E+03         0.14164E+03         0.00000E+00
    0.00000E+00         0.00000E+00        -0.20232E+03
 
   -0.10411E+04        -0.50260E+03         0.00000E+00
   -0.50260E+03         0.17336E+03         0.00000E+00
    0.00000E+00         0.00000E+00        -0.26032E+03
 
   -0.12535E+04        -0.46774E+03         0.00000E+00
   -0.46774E+03         0.20008E+03         0.00000E+00
    0.00000E+00         0.00000E+00        -0.31601E+03
 
   -0.14483E+04        -0.40915E+03         0.00000E+00
   -0.40915E+03         0.21990E+03         0.00000E+00
    0.00000E+00         0.00000E+00        -0.36851E+03
 
   -0.16213E+04        -0.32964E+03         0.00000E+00
   -0.32964E+03         0.23128E+03         0.00000E+00
    0.00000E+00         0.00000E+00        -0.41701E+03
 
   -0.17690E+04        -0.23208E+03         0.00000E+00
   -0.23208E+03         0.23307E+03         0.00000E+00
    0.00000E+00         0.00000E+00        -0.46077E+03
 
   -0.18882E+04        -0.11939E+03         0.00000E+00
   -0.11939E+03         0.22443E+03         0.00000E+00
    0.00000E+00         0.00000E+00        -0.49912E+03
 
   -0.19764E+04         0.55698E+01         0.00000E+00
    0.55698E+01         0.20480E+03         0.00000E+00
    0.00000E+00         0.00000E+00        -0.53148E+03
 
   -0.20316E+04         0.14001E+03         0.00000E+00
    0.14001E+03         0.17383E+03         0.00000E+00
    0.00000E+00         0.00000E+00        -0.55732E+03
 
   -0.20520E+04         0.28122E+03         0.00000E+00
    0.28122E+03         0.13138E+03         0.00000E+00
    0.00000E+00         0.00000E+00        -0.57618E+03
 
   -0.20363E+04         0.42654E+03         0.00000E+00
    0.42654E+03         0.77399E+02         0.00000E+00
    0.00000E+00         0.00000E+00        -0.58766E+03
 
   -0.19833E+04         0.57339E+03         0.00000E+00
    0.57339E+03         0.11946E+02         0.00000E+00
    0.00000E+00         0.00000E+00        -0.59141E+03
 
   -0.18923E+04         0.71917E+03         0.00000E+00
    0.71917E+03        -0.64874E+02         0.00000E+00
    0.00000E+00         0.00000E+00        -0.58716E+03
 
   -0.17626E+04         0.86128E+03         0.00000E+00
    0.86128E+03        -0.15292E+03         0.00000E+00
    0.00000E+00         0.00000E+00        -0.57466E+03
 
   -0.15938E+04         0.99700E+03         0.00000E+00
    0.99700E+03        -0.25201E+03         0.00000E+00
    0.00000E+00         0.00000E+00        -0.55373E+03
 
   -0.13855E+04         0.11235E+04         0.00000E+00
    0.11235E+04        -0.36194E+03         0.00000E+00
    0.00000E+00         0.00000E+00        -0.52424E+03
 
   -0.11379E+04         0.12377E+04         0.00000E+00
    0.12377E+04        -0.48245E+03         0.00000E+00
    0.00000E+00         0.00000E+00        -0.48610E+03
 
   -0.85116E+03         0.13362E+04         0.00000E+00
    0.13362E+04        -0.61315E+03         0.00000E+00
    0.00000E+00         0.00000E+00        -0.43929E+03
 
   -0.52605E+03         0.14153E+04         0.00000E+00
    0.14153E+04        -0.75351E+03         0.00000E+00
    0.00000E+00         0.00000E+00        -0.38387E+03
 
    0.12473E+03        -0.80627E+02         0.00000E+00
   -0.80627E+02         0.29523E+01         0.00000E+00
    0.00000E+00         0.00000E+00         0.38305E+02
 
   -0.37270E+02        -0.21921E+03         0.00000E+00
   -0.21921E+03         0.16701E+02         0.00000E+00
    0.00000E+00         0.00000E+00        -0.61708E+01
 
   -0.21990E+03        -0.32768E+03         0.00000E+00
   -0.32768E+03         0.40791E+02         0.00000E+00
    0.00000E+00         0.00000E+00        -0.53733E+02
 
   -0.41610E+03        -0.40619E+03         0.00000E+00
   -0.40619E+03         0.71764E+02         0.00000E+00
    0.00000E+00         0.00000E+00        -0.10330E+03
 
   -0.61917E+03        -0.45546E+03         0.00000E+00
   -0.45546E+03         0.10641E+03         0.00000E+00
    0.00000E+00         0.00000E+00        -0.15383E+03
 
   -0.82287E+03        -0.47674E+03         0.00000E+00
   -0.47674E+03         0.14181E+03         0.00000E+00
    0.00000E+00         0.00000E+00        -0.20432E+03
 
   -0.10214E+04        -0.47172E+03         0.00000E+00
   -0.47172E+03         0.17536E+03         0.00000E+00
    0.00000E+00         0.00000E+00        -0.25383E+03
 
   -0.12097E+04        -0.44242E+03         0.00000E+00
   -0.44242E+03         0.20481E+03         0.00000E+00
    0.00000E+00         0.00000E+00        -0.30146E+03
 
   -0.13829E+04        -0.39111E+03         0.00000E+00
   -0.39111E+03         0.22826E+03         0.00000E+00
    0.00000E+00         0.00000E+00        -0.34640E+03
 
   -0.15371E+04        -0.32024E+03         0.00000E+00
   -0.32024E+03         0.24414E+03         0.00000E+00
    0.00000E+00         0.00000E+00        -0.38788E+03
 
   -0.16686E+04        -0.23238E+03         0.00000E+00
   -0.23238E+03         0.25122E+03         0.00000E+00
    0.00000E+00         0.00000E+00        -0.42521E+03
 
   -0.17744E+04        -0.13014E+03         0.00000E+00
   -0.13014E+03         0.24854E+03         0.00000E+00
    0.00000E+00         0.00000E+00        -0.45776E+03
 
   -0.18520E+04        -0.16136E+02         0.00000E+00
   -0.16136E+02         0.23542E+03         0.00000E+00
    0.00000E+00         0.00000E+00        -0.48496E+03
 
   -0.18991E+04         0.10704E+03         0.00000E+00
    0.10704E+03         0.21140E+03         0.00000E+00
    0.00000E+00         0.00000E+00        -0.50632E+03
 
   -0.19141E+04         0.23683E+03         0.00000E+00
    0.23683E+03         0.17618E+03         0.00000E+00
    0.00000E+00         0.00000E+00        -0.52139E+03
 
   -0.18956E+04         0.37070E+03         0.00000E+00
    0.37070E+03         0.12963E+03         0.00000E+00
    0.00000E+00         0.00000E+00        -0.52979E+03
 
   -0.18424E+04         0.50614E+03         0.00000E+00
    0.50614E+03         0.71720E+02         0.00000E+00
    0.00000E+00         0.00000E+00        -0.53120E+03
 
   -0.17537E+04         0.64064E+03         0.00000E+00
    0.64064E+03         0.25118E+01         0.00000E+00
    0.00000E+00         0.00000E+00        -0.52535E+03
 
   -0.16289E+04         0.77162E+03         0.00000E+00
    0.77162E+03        -0.77856E+02         0.00000E+00
    0.00000E+00         0.00000E+00        -0.51202E+03
 
   -0.14677E+04         0.89645E+03         0.00000E+00
    0.89645E+03        -0.16917E+03         0.00000E+00
    0.00000E+00         0.00000E+00        -0.49106E+03
 
   -0.12700E+04         0.10123E+04         0.00000E+00
    0.10123E+04        -0.27115E+03         0.00000E+00
    0.00000E+00         0.00000E+00        -0.46236E+03
 
   -0.10361E+04         0.11163E+04         0.00000E+00
    0.11163E+04        -0.38339E+03         0.00000E+00
    0.00000E+00         0.00000E+00        -0.42586E+03
 
   -0.76657E+03         0.12051E+04         0.00000E+00
    0.12051E+04        -0.50536E+03         0.00000E+00
    0.00000E+00         0.00000E+00        -0.38158E+03
 
   -0.46233E+03         0.12753E+04         0.00000E+00
    0.12753E+04        -0.63633E+03         0.00000E+00
    0.00000E+00         0.00000E+00        -0.32960E+03
 
   -0.21837E+02        -0.73289E+02         0.00000E+00
   -0.73289E+02         0.28366E+01         0.00000E+00
    0.00000E+00         0.00000E+00        -0.57002E+01
 
   -0.15568E+03        -0.19988E+03         0.00000E+00
   -0.19988E+03         0.16128E+02         0.00000E+00
    0.00000E+00         0.00000E+00        -0.41866E+02
 
   -0.30987E+03        -0.29978E+03         0.00000E+00
   -0.29978E+03         0.39609E+02         0.00000E+00
    0.00000E+00         0.00000E+00        -0.81079E+02
 
   -0.47796E+03        -0.37291E+03         0.00000E+00
   -0.37291E+03         0.70110E+02         0.00000E+00
    0.00000E+00         0.00000E+00        -0.12236E+03
 
   -0.65379E+03        -0.41977E+03         0.00000E+00
   -0.41977E+03         0.10465E+03         0.00000E+00
    0.00000E+00         0.00000E+00        -0.16474E+03
 
   -0.83158E+03        -0.44134E+03         0.00000E+00
   -0.44134E+03         0.14049E+03         0.00000E+00
    0.00000E+00         0.00000E+00        -0.20733E+03
 
   -0.10059E+04        -0.43898E+03         0.00000E+00
   -0.43898E+03         0.17517E+03         0.00000E+00
    0.00000E+00         0.00000E+00        -0.24923E+03
 
   -0.11719E+04        -0.41439E+03         0.00000E+00
   -0.41439E+03         0.20650E+03         0.00000E+00
    0.00000E+00         0.00000E+00        -0.28964E+03
 
   -0.13252E+04        -0.36952E+03         0.00000E+00
   -0.36952E+03         0.23260E+03         0.00000E+00
    0.00000E+00         0.00000E+00        -0.32778E+03
 
   -0.14617E+04        -0.30652E+03         0.00000E+00
   -0.30652E+03         0.25190E+03         0.00000E+00
    0.00000E+00         0.00000E+00        -0.36293E+03
 
   -0.15780E+04        -0.22765E+03         0.00000E+00
   -0.22765E+03         0.26311E+03         0.00000E+00
    0.00000E+00         0.00000E+00        -0.39446E+03
 
   -0.16711E+04        -0.13525E+03         0.00000E+00
   -0.13525E+03         0.26520E+03         0.00000E+00
    0.00000E+00         0.00000E+00        -0.42177E+03
 
   -0.17384E+04        -0.31714E+02         0.00000E+00
   -0.31714E+02         0.25740E+03         0.00000E+00
    0.00000E+00         0.00000E+00        -0.44431E+03
 
   -0.17779E+04         0.80576E+02         0.00000E+00
    0.80576E+02         0.23913E+03         0.00000E+00
    0.00000E+00         0.00000E+00        -0.46162E+03
 
   -0.17876E+04         0.19922E+03         0.00000E+00
    0.19922E+03         0.21002E+03         0.00000E+00
    0.00000E+00         0.00000E+00        -0.47328E+03
 
   -0.17663E+04         0.32183E+03         0.00000E+00
    0.32183E+03         0.16985E+03         0.00000E+00
    0.00000E+00         0.00000E+00        -0.47893E+03
 
   -0.17127E+04         0.44601E+03         0.00000E+00
    0.44601E+03         0.11852E+03         0.00000E+00
    0.00000E+00         0.00000E+00        -0.47827E+03
 
   -0.16262E+04         0.56934E+03         0.00000E+00
    0.56934E+03         0.56065E+02         0.00000E+00
    0.00000E+00         0.00000E+00        -0.47104E+03
 
   -0.15061E+04         0.68933E+03         0.00000E+00
    0.68933E+03        -0.17377E+02         0.00000E+00
    0.00000E+00         0.00000E+00        -0.45705E+03
 
   -0.13523E+04         0.80344E+03         0.00000E+00
    0.80344E+03        -0.10157E+03         0.00000E+00
    0.00000E+00         0.00000E+00        -0.43616E+03
 
   -0.11648E+04         0.90897E+03         0.00000E+00
    0.90897E+03        -0.19614E+03         0.00000E+00
    0.00000E+00         0.00000E+00        -0.40829E+03
 
   -0.94414E+03         0.10031E+04         0.00000E+00
    0.10031E+04        -0.30062E+03         0.00000E+00
    0.00000E+00         0.00000E+00        -0.37343E+03
 
   -0.69100E+03         0.10828E+04         0.00000E+00
    0.10828E+04        -0.41432E+03         0.00000E+00
    0.00000E+00         0.00000E+00        -0.33160E+03
 
   -0.40666E+03         0.11448E+04         0.00000E+00
    0.11448E+04        -0.53638E+03         0.00000E+00
    0.00000E+00         0.00000E+00        -0.28291E+03
 
   -0.15491E+03        -0.66247E+02         0.00000E+00
   -0.66247E+02         0.27151E+01         0.00000E+00
    0.00000E+00         0.00000E+00        -0.45659E+02
 
   -0.26391E+03        -0.18119E+03         0.00000E+00
   -0.18119E+03         0.15506E+02         0.00000E+00
    0.00000E+00         0.00000E+00        -0.74522E+02
 
   -0.39284E+03        -0.27254E+03         0.00000E+00
   -0.27254E+03         0.38268E+02         0.00000E+00
    0.00000E+00         0.00000E+00        -0.10637E+03
 
   -0.53580E+03        -0.34010E+03         0.00000E+00
   -0.34010E+03         0.68088E+02         0.00000E+00
    0.00000E+00         0.00000E+00        -0.14032E+03
 
   -0.68714E+03        -0.38415E+03         0.00000E+00
   -0.38415E+03         0.10220E+03         0.00000E+00
    0.00000E+00         0.00000E+00        -0.17548E+03
 
   -0.84147E+03        -0.40544E+03         0.00000E+00
   -0.40544E+03         0.13805E+03         0.00000E+00
    0.00000E+00         0.00000E+00        -0.21103E+03
 
   -0.99379E+03        -0.40508E+03         0.00000E+00
   -0.40508E+03         0.17328E+03         0.00000E+00
    0.00000E+00         0.00000E+00        -0.24615E+03
 
   -0.11395E+04        -0.38449E+03         0.00000E+00
   -0.38449E+03         0.20580E+03         0.00000E+00
    0.00000E+00         0.00000E+00        -0.28010E+03
 
   -0.12743E+04        -0.34535E+03         0.00000E+00
   -0.34535E+03         0.23376E+03         0.00000E+00
    0.00000E+00         0.00000E+00        -0.31215E+03
 
   -0.13944E+04        -0.28950E+03         0.00000E+00
   -0.28950E+03         0.25559E+03         0.00000E+00
    0.00000E+00         0.00000E+00        -0.34164E+03
 
   -0.14965E+04        -0.21897E+03         0.00000E+00
   -0.21897E+03         0.26998E+03         0.00000E+00
    0.00000E+00         0.00000E+00        -0.36796E+03
 
   -0.15777E+04        -0.13584E+03         0.00000E+00
   -0.13584E+03         0.27584E+03         0.00000E+00
    0.00000E+00         0.00000E+00        -0.39056E+03
 
   -0.16354E+04        -0.42269E+02         0.00000E+00
   -0.42269E+02         0.27233E+03         0.00000E+00
    0.00000E+00         0.00000E+00        -0.40892E+03
 
   -0.16675E+04         0.59541E+02         0.00000E+00
    0.59541E+02         0.25881E+03         0.00000E+00
    0.00000E+00         0.00000E+00        -0.42260E+03
 
   -0.16722E+04         0.16737E+03         0.00000E+00
    0.16737E+03         0.23482E+03         0.00000E+00
    0.00000E+00         0.00000E+00        -0.43121E+03
 
   -0.16481E+04         0.27899E+03         0.00000E+00
    0.27899E+03         0.20010E+03         0.00000E+00
    0.00000E+00         0.00000E+00        -0.43441E+03
 
   -0.15942E+04         0.39213E+03         0.00000E+00
    0.39213E+03         0.15449E+03         0.00000E+00
    0.00000E+00         0.00000E+00        -0.43192E+03
 
   -0.15097E+04         0.50449E+03         0.00000E+00
    0.50449E+03         0.98009E+02         0.00000E+00
    0.00000E+00         0.00000E+00        -0.42350E+03
 
   -0.13941E+04         0.61372E+03         0.00000E+00
    0.61372E+03         0.30787E+02         0.00000E+00
    0.00000E+00         0.00000E+00        -0.40899E+03
 
   -0.12473E+04         0.71737E+03         0.00000E+00
    0.71737E+03        -0.46906E+02         0.00000E+00
    0.00000E+00         0.00000E+00        -0.38826E+03
 
   -0.10695E+04         0.81291E+03         0.00000E+00
    0.81291E+03        -0.13466E+03         0.00000E+00
    0.00000E+00         0.00000E+00        -0.36126E+03
 
   -0.86138E+03         0.89766E+03         0.00000E+00
    0.89766E+03        -0.23189E+03         0.00000E+00
    0.00000E+00         0.00000E+00        -0.32798E+03
 
   -0.62380E+03         0.96880E+03         0.00000E+00
    0.96880E+03        -0.33785E+03         0.00000E+00
    0.00000E+00         0.00000E+00        -0.28849E+03
 
   -0.35822E+03         0.10233E+04         0.00000E+00
    0.10233E+04        -0.45154E+03         0.00000E+00
    0.00000E+00         0.00000E+00        -0.24293E+03
 
   -0.27501E+03        -0.59510E+02         0.00000E+00
   -0.59510E+02         0.25913E+01         0.00000E+00
    0.00000E+00         0.00000E+00        -0.81725E+02
 
   -0.36219E+03        -0.16319E+03         0.00000E+00
   -0.16319E+03         0.14859E+02         0.00000E+00
    0.00000E+00         0.00000E+00        -0.10420E+03
 
   -0.46877E+03        -0.24612E+03         0.00000E+00
   -0.24612E+03         0.36826E+02         0.00000E+00
    0.00000E+00         0.00000E+00        -0.12958E+03
 
   -0.58937E+03        -0.30798E+03         0.00000E+00
   -0.30798E+03         0.65819E+02         0.00000E+00
    0.00000E+00         0.00000E+00        -0.15706E+03
 
   -0.71877E+03        -0.34892E+03         0.00000E+00
   -0.34892E+03         0.99276E+02         0.00000E+00
    0.00000E+00         0.00000E+00        -0.18585E+03
 
   -0.85201E+03        -0.36949E+03         0.00000E+00
   -0.36949E+03         0.13479E+03         0.00000E+00
    0.00000E+00         0.00000E+00        -0.21517E+03
 
   -0.98439E+03        -0.37059E+03         0.00000E+00
   -0.37059E+03         0.17013E+03         0.00000E+00
    0.00000E+00         0.00000E+00        -0.24428E+03
 
   -0.11116E+04        -0.35339E+03         0.00000E+00
   -0.35339E+03         0.20329E+03         0.00000E+00
    0.00000E+00         0.00000E+00        -0.27248E+03
 
   -0.12295E+04        -0.31933E+03         0.00000E+00
   -0.31933E+03         0.23247E+03         0.00000E+00
    0.00000E+00         0.00000E+00        -0.29910E+03
 
   -0.13346E+04        -0.27002E+03         0.00000E+00
   -0.27002E+03         0.25612E+03         0.00000E+00
    0.00000E+00         0.00000E+00        -0.32354E+03
 
   -0.14236E+04        -0.20723E+03         0.00000E+00
   -0.20723E+03         0.27289E+03         0.00000E+00
    0.00000E+00         0.00000E+00        -0.34521E+03
 
   -0.14937E+04        -0.13282E+03         0.00000E+00
   -0.13282E+03         0.28168E+03         0.00000E+00
    0.00000E+00         0.00000E+00        -0.36360E+03
 
   -0.15424E+04        -0.48742E+02         0.00000E+00
   -0.48742E+02         0.28161E+03         0.00000E+00
    0.00000E+00         0.00000E+00        -0.37822E+03
 
   -0.15675E+04         0.43011E+02         0.00000E+00
    0.43011E+02         0.27197E+03         0.00000E+00
    0.00000E+00         0.00000E+00        -0.38867E+03
 
   -0.15675E+04         0.14039E+03         0.00000E+00
    0.14039E+03         0.25227E+03         0.00000E+00
    0.00000E+00         0.00000E+00        -0.39457E+03
 
   -0.15409E+04         0.24134E+03         0.00000E+00
    0.24134E+03         0.22218E+03         0.00000E+00
    0.00000E+00         0.00000E+00        -0.39561E+03
 
   -0.14866E+04         0.34372E+03         0.00000E+00
    0.34372E+03         0.18153E+03         0.00000E+00
    0.00000E+00         0.00000E+00        -0.39151E+03
 
   -0.14039E+04         0.44539E+03         0.00000E+00
    0.44539E+03         0.13030E+03         0.00000E+00
    0.00000E+00         0.00000E+00        -0.38209E+03
 
   -0.12925E+04         0.54414E+03         0.00000E+00
    0.54414E+03         0.68636E+02         0.00000E+00
    0.00000E+00         0.00000E+00        -0.36717E+03
 
   -0.11524E+04         0.63766E+03         0.00000E+00
    0.63766E+03        -0.31745E+01         0.00000E+00
    0.00000E+00         0.00000E+00        -0.34666E+03
 
   -0.98373E+03         0.72359E+03         0.00000E+00
    0.72359E+03        -0.84675E+02         0.00000E+00
    0.00000E+00         0.00000E+00        -0.32052E+03
 
   -0.78736E+03         0.79943E+03         0.00000E+00
    0.79943E+03        -0.17523E+03         0.00000E+00
    0.00000E+00         0.00000E+00        -0.28878E+03
 
   -0.56435E+03         0.86258E+03         0.00000E+00
    0.86258E+03        -0.27399E+03         0.00000E+00
    0.00000E+00         0.00000E+00        -0.25150E+03
 
   -0.31628E+03         0.91029E+03         0.00000E+00
    0.91029E+03        -0.37989E+03         0.00000E+00
    0.00000E+00         0.00000E+00        -0.20885E+03
 
   -0.38266E+03        -0.53082E+02         0.00000E+00
   -0.53082E+02         0.24682E+01         0.00000E+00
    0.00000E+00         0.00000E+00        -0.11406E+03
 
   -0.45077E+03        -0.14591E+03         0.00000E+00
   -0.14591E+03         0.14204E+02         0.00000E+00
    0.00000E+00         0.00000E+00        -0.13097E+03
 
   -0.53768E+03        -0.22058E+03         0.00000E+00
   -0.22058E+03         0.35338E+02         0.00000E+00
    0.00000E+00         0.00000E+00        -0.15070E+03
 
   -0.63848E+03        -0.27671E+03         0.00000E+00
   -0.27671E+03         0.63411E+02         0.00000E+00
    0.00000E+00         0.00000E+00        -0.17252E+03
 
   -0.74837E+03        -0.31433E+03         0.00000E+00
   -0.31433E+03         0.96044E+02         0.00000E+00
    0.00000E+00         0.00000E+00        -0.19570E+03
 
   -0.86273E+03        -0.33383E+03         0.00000E+00
   -0.33383E+03         0.13098E+03         0.00000E+00
    0.00000E+00         0.00000E+00        -0.21953E+03
 
   -0.97719E+03        -0.33593E+03         0.00000E+00
   -0.33593E+03         0.16610E+03         0.00000E+00
    0.00000E+00         0.00000E+00        -0.24333E+03
 
   -0.10876E+04        -0.32161E+03         0.00000E+00
   -0.32161E+03         0.19948E+03         0.00000E+00
    0.00000E+00         0.00000E+00        -0.26645E+03
 
   -0.11903E+04        -0.29209E+03         0.00000E+00
   -0.29209E+03         0.22938E+03         0.00000E+00
    0.00000E+00         0.00000E+00        -0.28827E+03
 
   -0.12817E+04        -0.24876E+03         0.00000E+00
   -0.24876E+03         0.25425E+03         0.00000E+00
    0.00000E+00         0.00000E+00        -0.30822E+03
 
   -0.13587E+04        -0.19317E+03         0.00000E+00
   -0.19317E+03         0.27277E+03         0.00000E+00
    0.00000E+00         0.00000E+00        -0.32577E+03
 
   -0.14185E+04        -0.12698E+03         0.00000E+00
   -0.12698E+03         0.28382E+03         0.00000E+00
    0.00000E+00         0.00000E+00        -0.34042E+03
 
   -0.14589E+04        -0.51922E+02         0.00000E+00
   -0.51922E+02         0.28646E+03         0.00000E+00
    0.00000E+00         0.00000E+00        -0.35173E+03
 
   -0.14777E+04         0.30194E+02         0.00000E+00
    0.30194E+02         0.27998E+03         0.00000E+00
    0.00000E+00         0.00000E+00        -0.35931E+03
 
   -0.14732E+04         0.11751E+03         0.00000E+00
    0.11751E+03         0.26384E+03         0.00000E+00
    0.00000E+00         0.00000E+00        -0.36282E+03
 
   -0.14442E+04         0.20812E+03         0.00000E+00
    0.20812E+03         0.23768E+03         0.00000E+00
    0.00000E+00         0.00000E+00        -0.36195E+03
 
   -0.13895E+04         0.30007E+03         0.00000E+00
    0.30007E+03         0.20129E+03         0.00000E+00
    0.00000E+00         0.00000E+00        -0.35647E+03
 
   -0.13086E+04         0.39137E+03         0.00000E+00
    0.39137E+03         0.15466E+03         0.00000E+00
    0.00000E+00         0.00000E+00        -0.34618E+03
 
   -0.12011E+04         0.47996E+03         0.00000E+00
    0.47996E+03         0.97935E+02         0.00000E+00
    0.00000E+00         0.00000E+00        -0.33096E+03
 
   -0.10671E+04         0.56371E+03         0.00000E+00
    0.56371E+03         0.31414E+02         0.00000E+00
    0.00000E+00         0.00000E+00        -0.31071E+03
 
   -0.90699E+03         0.64044E+03         0.00000E+00
    0.64044E+03        -0.44408E+02         0.00000E+00
    0.00000E+00         0.00000E+00        -0.28542E+03
 
   -0.72156E+03         0.70784E+03         0.00000E+00
    0.70784E+03        -0.12885E+03         0.00000E+00
    0.00000E+00         0.00000E+00        -0.25512E+03
 
   -0.51205E+03         0.76353E+03         0.00000E+00
    0.76353E+03        -0.22100E+03         0.00000E+00
    0.00000E+00         0.00000E+00        -0.21991E+03
 
   -0.28013E+03         0.80503E+03         0.00000E+00
    0.80503E+03        -0.31973E+03         0.00000E+00
    0.00000E+00         0.00000E+00        -0.17996E+03
 
   -0.47843E+03        -0.46960E+02         0.00000E+00
   -0.46960E+02         0.23485E+01         0.00000E+00
    0.00000E+00         0.00000E+00        -0.14282E+03
 
   -0.52995E+03        -0.12935E+03         0.00000E+00
   -0.12935E+03         0.13560E+02         0.00000E+00
    0.00000E+00         0.00000E+00        -0.15492E+03
 
   -0.59966E+03        -0.19597E+03         0.00000E+00
   -0.19597E+03         0.33850E+02         0.00000E+00
    0.00000E+00         0.00000E+00        -0.16974E+03
 
   -0.68304E+03        -0.24639E+03         0.00000E+00
   -0.24639E+03         0.60956E+02         0.00000E+00
    0.00000E+00         0.00000E+00        -0.18663E+03
 
   -0.77568E+03        -0.28054E+03         0.00000E+00
   -0.28054E+03         0.92665E+02         0.00000E+00
    0.00000E+00         0.00000E+00        -0.20490E+03
 
   -0.87328E+03        -0.29870E+03         0.00000E+00
   -0.29870E+03         0.12685E+03         0.00000E+00
    0.00000E+00         0.00000E+00        -0.22393E+03
 
   -0.97175E+03        -0.30143E+03         0.00000E+00
   -0.30143E+03         0.16152E+03         0.00000E+00
    0.00000E+00         0.00000E+00        -0.24307E+03
 
   -0.10672E+04        -0.28956E+03         0.00000E+00
   -0.28956E+03         0.19480E+03         0.00000E+00
    0.00000E+00         0.00000E+00        -0.26173E+03
 
   -0.11561E+04        -0.26410E+03         0.00000E+00
   -0.26410E+03         0.22503E+03         0.00000E+00
    0.00000E+00         0.00000E+00        -0.27932E+03
 
   -0.12351E+04        -0.22627E+03         0.00000E+00
   -0.22627E+03         0.25068E+03         0.00000E+00
    0.00000E+00         0.00000E+00        -0.29533E+03
 
   -0.13012E+04        -0.17740E+03         0.00000E+00
   -0.17740E+03         0.27043E+03         0.00000E+00
    0.00000E+00         0.00000E+00        -0.30924E+03
 
   -0.13518E+04        -0.11895E+03         0.00000E+00
   -0.11895E+03         0.28317E+03         0.00000E+00
    0.00000E+00         0.00000E+00        -0.32060E+03
 
   -0.13846E+04        -0.52472E+02         0.00000E+00
   -0.52472E+02         0.28795E+03         0.00000E+00
    0.00000E+00         0.00000E+00        -0.32899E+03
 
   -0.13975E+04         0.20420E+02         0.00000E+00
    0.20420E+02         0.28401E+03         0.00000E+00
    0.00000E+00         0.00000E+00        -0.33405E+03
 
   -0.13890E+04         0.98046E+02         0.00000E+00
    0.98046E+02         0.27081E+03         0.00000E+00
    0.00000E+00         0.00000E+00        -0.33545E+03
 
   -0.13577E+04         0.17868E+03         0.00000E+00
    0.17868E+03         0.24795E+03         0.00000E+00
    0.00000E+00         0.00000E+00        -0.33293E+03
 
   -0.13027E+04         0.26054E+03         0.00000E+00
    0.26054E+03         0.21522E+03         0.00000E+00
    0.00000E+00         0.00000E+00        -0.32625E+03
 
   -0.12234E+04         0.34181E+03         0.00000E+00
    0.34181E+03         0.17260E+03         0.00000E+00
    0.00000E+00         0.00000E+00        -0.31524E+03
 
   -0.11195E+04         0.42059E+03         0.00000E+00
    0.42059E+03         0.12023E+03         0.00000E+00
    0.00000E+00         0.00000E+00        -0.29979E+03
 
   -0.99119E+03         0.49496E+03         0.00000E+00
    0.49496E+03         0.58423E+02         0.00000E+00
    0.00000E+00         0.00000E+00        -0.27983E+03
 
   -0.83889E+03         0.56289E+03         0.00000E+00
    0.56289E+03        -0.12288E+02         0.00000E+00
    0.00000E+00         0.00000E+00        -0.25535E+03
 
   -0.66350E+03         0.62231E+03         0.00000E+00
    0.62231E+03        -0.91185E+02         0.00000E+00
    0.00000E+00         0.00000E+00        -0.22641E+03
 
   -0.46634E+03         0.67106E+03         0.00000E+00
    0.67106E+03        -0.17733E+03         0.00000E+00
    0.00000E+00         0.00000E+00        -0.19310E+03
 
   -0.24918E+03         0.70691E+03         0.00000E+00
    0.70691E+03        -0.26953E+03         0.00000E+00
    0.00000E+00         0.00000E+00        -0.15561E+03
 
   -0.56284E+03        -0.41131E+02         0.00000E+00
   -0.41131E+02         0.22345E+01         0.00000E+00
    0.00000E+00         0.00000E+00        -0.16818E+03
 
   -0.60005E+03        -0.11352E+03         0.00000E+00
   -0.11352E+03         0.12941E+02         0.00000E+00
    0.00000E+00         0.00000E+00        -0.17613E+03
 
   -0.65482E+03        -0.17231E+03         0.00000E+00
   -0.17231E+03         0.32405E+02         0.00000E+00
    0.00000E+00         0.00000E+00        -0.18673E+03
 
   -0.72301E+03        -0.21706E+03         0.00000E+00
   -0.21706E+03         0.58537E+02         0.00000E+00
    0.00000E+00         0.00000E+00        -0.19934E+03
 
   -0.80052E+03        -0.24765E+03         0.00000E+00
   -0.24765E+03         0.89275E+02         0.00000E+00
    0.00000E+00         0.00000E+00        -0.21337E+03
 
   -0.88336E+03        -0.26426E+03         0.00000E+00
   -0.26426E+03         0.12262E+03         0.00000E+00
    0.00000E+00         0.00000E+00        -0.22822E+03
 
   -0.96770E+03        -0.26733E+03         0.00000E+00
   -0.26733E+03         0.15666E+03         0.00000E+00
    0.00000E+00         0.00000E+00        -0.24331E+03
 
   -0.10499E+04        -0.25754E+03         0.00000E+00
   -0.25754E+03         0.18964E+03         0.00000E+00
    0.00000E+00         0.00000E+00        -0.25808E+03
 
   -0.11265E+04        -0.23574E+03         0.00000E+00
   -0.23574E+03         0.21990E+03         0.00000E+00
    0.00000E+00         0.00000E+00        -0.27199E+03
 
   -0.11944E+04        -0.20297E+03         0.00000E+00
   -0.20297E+03         0.24598E+03         0.00000E+00
    0.00000E+00         0.00000E+00        -0.28454E+03
 
   -0.12508E+04        -0.16038E+03         0.00000E+00
   -0.16038E+03         0.26657E+03         0.00000E+00
    0.00000E+00         0.00000E+00        -0.29527E+03
 
   -0.12931E+04        -0.10925E+03         0.00000E+00
   -0.10925E+03         0.28055E+03         0.00000E+00
    0.00000E+00         0.00000E+00        -0.30376E+03
 
   -0.13190E+04        -0.50941E+02         0.00000E+00
   -0.50941E+02         0.28697E+03         0.00000E+00
    0.00000E+00         0.00000E+00        -0.30960E+03
 
   -0.13266E+04         0.13119E+02         0.00000E+00
    0.13119E+02         0.28508E+03         0.00000E+00
    0.00000E+00         0.00000E+00        -0.31246E+03
 
   -0.13144E+04         0.81431E+02         0.00000E+00
    0.81431E+02         0.27428E+03         0.00000E+00
    0.00000E+00         0.00000E+00        -0.31204E+03
 
   -0.12811E+04         0.15245E+03         0.00000E+00
    0.15245E+03         0.25419E+03         0.00000E+00
    0.00000E+00         0.00000E+00        -0.30808E+03
 
   -0.12258E+04         0.22457E+03         0.00000E+00
    0.22457E+03         0.22458E+03         0.00000E+00
    0.00000E+00         0.00000E+00        -0.30037E+03
 
   -0.11480E+04         0.29615E+03         0.00000E+00
    0.29615E+03         0.18541E+03         0.00000E+00
    0.00000E+00         0.00000E+00        -0.28876E+03
 
   -0.10474E+04         0.36549E+03         0.00000E+00
    0.36549E+03         0.13685E+03         0.00000E+00
    0.00000E+00         0.00000E+00        -0.27315E+03
 
   -0.92418E+03         0.43083E+03         0.00000E+00
    0.43083E+03         0.79217E+02         0.00000E+00
    0.00000E+00         0.00000E+00        -0.25349E+03
 
   -0.77898E+03         0.49038E+03         0.00000E+00
    0.49038E+03         0.13061E+02         0.00000E+00
    0.00000E+00         0.00000E+00        -0.22978E+03
 
   -0.61270E+03         0.54225E+03         0.00000E+00
    0.54225E+03        -0.60873E+02         0.00000E+00
    0.00000E+00         0.00000E+00        -0.20207E+03
 
   -0.42672E+03         0.58453E+03         0.00000E+00
    0.58453E+03        -0.14161E+03         0.00000E+00
    0.00000E+00         0.00000E+00        -0.17050E+03
 
   -0.22286E+03         0.61525E+03         0.00000E+00
    0.61525E+03        -0.22793E+03         0.00000E+00
    0.00000E+00         0.00000E+00        -0.13524E+03
 
   -0.63641E+03        -0.35579E+02         0.00000E+00
   -0.35579E+02         0.21285E+01         0.00000E+00
    0.00000E+00         0.00000E+00        -0.19029E+03
 
   -0.66140E+03        -0.98363E+02         0.00000E+00
   -0.98363E+02         0.12360E+02         0.00000E+00
    0.00000E+00         0.00000E+00        -0.19471E+03
 
   -0.70332E+03        -0.14956E+03         0.00000E+00
   -0.14956E+03         0.31037E+02         0.00000E+00
    0.00000E+00         0.00000E+00        -0.20169E+03
 
   -0.75838E+03        -0.18872E+03         0.00000E+00
   -0.18872E+03         0.56225E+02         0.00000E+00
    0.00000E+00         0.00000E+00        -0.21065E+03
 
   -0.82277E+03        -0.21570E+03         0.00000E+00
   -0.21570E+03         0.85991E+02         0.00000E+00
    0.00000E+00         0.00000E+00        -0.22103E+03
 
   -0.89276E+03        -0.23061E+03         0.00000E+00
   -0.23061E+03         0.11845E+03         0.00000E+00
    0.00000E+00         0.00000E+00        -0.23229E+03
 
   -0.96474E+03        -0.23378E+03         0.00000E+00
   -0.23378E+03         0.15179E+03         0.00000E+00
    0.00000E+00         0.00000E+00        -0.24389E+03
 
   -0.10353E+04        -0.22576E+03         0.00000E+00
   -0.22576E+03         0.18430E+03         0.00000E+00
    0.00000E+00         0.00000E+00        -0.25529E+03
 
   -0.11011E+04        -0.20728E+03         0.00000E+00
   -0.20728E+03         0.21441E+03         0.00000E+00
    0.00000E+00         0.00000E+00        -0.26602E+03
 
   -0.11593E+04        -0.17919E+03         0.00000E+00
   -0.17919E+03         0.24066E+03         0.00000E+00
    0.00000E+00         0.00000E+00        -0.27559E+03
 
   -0.12070E+04        -0.14250E+03         0.00000E+00
   -0.14250E+03         0.26178E+03         0.00000E+00
    0.00000E+00         0.00000E+00        -0.28358E+03
 
   -0.12419E+04        -0.98306E+02         0.00000E+00
   -0.98306E+02         0.27665E+03         0.00000E+00
    0.00000E+00         0.00000E+00        -0.28957E+03
 
   -0.12617E+04        -0.47782E+02         0.00000E+00
   -0.47782E+02         0.28433E+03         0.00000E+00
    0.00000E+00         0.00000E+00        -0.29322E+03
 
   -0.12646E+04         0.78132E+01         0.00000E+00
    0.78132E+01         0.28404E+03         0.00000E+00
    0.00000E+00         0.00000E+00        -0.29418E+03
 
   -0.12491E+04         0.67167E+02         0.00000E+00
    0.67167E+02         0.27521E+03         0.00000E+00
    0.00000E+00         0.00000E+00        -0.29218E+03
 
   -0.12140E+04         0.12891E+03         0.00000E+00
    0.12891E+03         0.25741E+03         0.00000E+00
    0.00000E+00         0.00000E+00        -0.28699E+03
 
   -0.11585E+04         0.19163E+03         0.00000E+00
    0.19163E+03         0.23043E+03         0.00000E+00
    0.00000E+00         0.00000E+00        -0.27842E+03
 
   -0.10819E+04         0.25386E+03         0.00000E+00
    0.25386E+03         0.19423E+03         0.00000E+00
    0.00000E+00         0.00000E+00        -0.26631E+03
 
   -0.98428E+03         0.31410E+03         0.00000E+00
    0.31410E+03         0.14896E+03         0.00000E+00
    0.00000E+00         0.00000E+00        -0.25060E+03
 
   -0.86572E+03         0.37080E+03         0.00000E+00
    0.37080E+03         0.94975E+02         0.00000E+00
    0.00000E+00         0.00000E+00        -0.23122E+03
 
   -0.72686E+03         0.42233E+03         0.00000E+00
    0.42233E+03         0.32827E+02         0.00000E+00
    0.00000E+00         0.00000E+00        -0.20821E+03
 
   -0.56871E+03         0.46708E+03         0.00000E+00
    0.46708E+03        -0.36717E+02         0.00000E+00
    0.00000E+00         0.00000E+00        -0.18163E+03
 
   -0.39270E+03         0.50333E+03         0.00000E+00
    0.50333E+03        -0.11266E+03         0.00000E+00
    0.00000E+00         0.00000E+00        -0.15161E+03
 
   -0.20066E+03         0.52936E+03         0.00000E+00
    0.52936E+03        -0.19377E+03         0.00000E+00
    0.00000E+00         0.00000E+00        -0.11833E+03
 
   -0.69963E+03        -0.30283E+02         0.00000E+00
   -0.30283E+02         0.20321E+01         0.00000E+00
    0.00000E+00         0.00000E+00        -0.20928E+03
 
   -0.71429E+03        -0.83847E+02         0.00000E+00
   -0.83847E+02         0.11829E+02         0.00000E+00
    0.00000E+00         0.00000E+00        -0.21074E+03
 
   -0.74532E+03        -0.12768E+03         0.00000E+00
   -0.12768E+03         0.29779E+02         0.00000E+00
    0.00000E+00         0.00000E+00        -0.21466E+03
 
   -0.78917E+03        -0.16135E+03         0.00000E+00
   -0.16135E+03         0.54078E+02         0.00000E+00
    0.00000E+00         0.00000E+00        -0.22053E+03
 
   -0.84232E+03        -0.18470E+03         0.00000E+00
   -0.18470E+03         0.82915E+02         0.00000E+00
    0.00000E+00         0.00000E+00        -0.22782E+03
 
   -0.90127E+03        -0.19778E+03         0.00000E+00
   -0.19778E+03         0.11450E+03         0.00000E+00
    0.00000E+00         0.00000E+00        -0.23603E+03
 
   -0.96262E+03        -0.20085E+03         0.00000E+00
   -0.20085E+03         0.14710E+03         0.00000E+00
    0.00000E+00         0.00000E+00        -0.24465E+03
 
   -0.10231E+04        -0.19436E+03         0.00000E+00
   -0.19436E+03         0.17908E+03         0.00000E+00
    0.00000E+00         0.00000E+00        -0.25320E+03
 
   -0.10796E+04        -0.17889E+03         0.00000E+00
   -0.17889E+03         0.20890E+03         0.00000E+00
    0.00000E+00         0.00000E+00        -0.26121E+03
 
   -0.11293E+04        -0.15518E+03         0.00000E+00
   -0.15518E+03         0.23515E+03         0.00000E+00
    0.00000E+00         0.00000E+00        -0.26825E+03
 
   -0.11695E+04        -0.12405E+03         0.00000E+00
   -0.12405E+03         0.25657E+03         0.00000E+00
    0.00000E+00         0.00000E+00        -0.27389E+03
 
   -0.11979E+04        -0.86442E+02         0.00000E+00
   -0.86442E+02         0.27206E+03         0.00000E+00
    0.00000E+00         0.00000E+00        -0.27776E+03
 
   -0.12124E+04        -0.43366E+02         0.00000E+00
   -0.43366E+02         0.28068E+03         0.00000E+00
    0.00000E+00         0.00000E+00        -0.27952E+03
 
   -0.12112E+04         0.41009E+01         0.00000E+00
    0.41009E+01         0.28165E+03         0.00000E+00
    0.00000E+00         0.00000E+00        -0.27887E+03
 
   -0.11929E+04         0.54825E+02         0.00000E+00
    0.54825E+02         0.27439E+03         0.00000E+00
    0.00000E+00         0.00000E+00        -0.27554E+03
 
   -0.11562E+04         0.10762E+03         0.00000E+00
    0.10762E+03         0.25848E+03         0.00000E+00
    0.00000E+00         0.00000E+00        -0.26931E+03
 
   -0.11004E+04         0.16126E+03         0.00000E+00
    0.16126E+03         0.23370E+03         0.00000E+00
    0.00000E+00         0.00000E+00        -0.26001E+03
 
   -0.10250E+04         0.21447E+03         0.00000E+00
    0.21447E+03         0.20000E+03         0.00000E+00
    0.00000E+00         0.00000E+00        -0.24750E+03
 
   -0.92993E+03         0.26594E+03         0.00000E+00
    0.26594E+03         0.15755E+03         0.00000E+00
    0.00000E+00         0.00000E+00        -0.23171E+03
 
   -0.81543E+03         0.31432E+03         0.00000E+00
    0.31432E+03         0.10671E+03         0.00000E+00
    0.00000E+00         0.00000E+00        -0.21262E+03
 
   -0.68216E+03         0.35821E+03         0.00000E+00
    0.35821E+03         0.48033E+02         0.00000E+00
    0.00000E+00         0.00000E+00        -0.19024E+03
 
   -0.53115E+03         0.39619E+03         0.00000E+00
    0.39619E+03        -0.17690E+02         0.00000E+00
    0.00000E+00         0.00000E+00        -0.16465E+03
 
   -0.36386E+03         0.42680E+03         0.00000E+00
    0.42680E+03        -0.89452E+02         0.00000E+00
    0.00000E+00         0.00000E+00        -0.13599E+03
 
   -0.18217E+03         0.44856E+03         0.00000E+00
    0.44856E+03        -0.16601E+03         0.00000E+00
    0.00000E+00         0.00000E+00        -0.10446E+03
 
   -0.75294E+03        -0.25216E+02         0.00000E+00
   -0.25216E+02         0.19468E+01         0.00000E+00
    0.00000E+00         0.00000E+00        -0.22530E+03
 
   -0.75903E+03        -0.69909E+02         0.00000E+00
   -0.69909E+02         0.11358E+02         0.00000E+00
    0.00000E+00         0.00000E+00        -0.22430E+03
 
   -0.78096E+03        -0.10659E+03         0.00000E+00
   -0.10659E+03         0.28654E+02         0.00000E+00
    0.00000E+00         0.00000E+00        -0.22569E+03
 
   -0.81543E+03        -0.13487E+03         0.00000E+00
   -0.13487E+03         0.52150E+02         0.00000E+00
    0.00000E+00         0.00000E+00        -0.22898E+03
 
   -0.85914E+03        -0.15458E+03         0.00000E+00
   -0.15458E+03         0.80130E+02         0.00000E+00
    0.00000E+00         0.00000E+00        -0.23370E+03
 
   -0.90878E+03        -0.16576E+03         0.00000E+00
   -0.16576E+03         0.11089E+03         0.00000E+00
    0.00000E+00         0.00000E+00        -0.23937E+03
 
   -0.96113E+03        -0.16858E+03         0.00000E+00
   -0.16858E+03         0.14278E+03         0.00000E+00
    0.00000E+00         0.00000E+00        -0.24551E+03
 
   -0.10131E+04        -0.16341E+03         0.00000E+00
   -0.16341E+03         0.17420E+03         0.00000E+00
    0.00000E+00         0.00000E+00        -0.25166E+03
 
   -0.10617E+04        -0.15071E+03         0.00000E+00
   -0.15071E+03         0.20366E+03         0.00000E+00
    0.00000E+00         0.00000E+00        -0.25740E+03
 
   -0.11041E+04        -0.13109E+03         0.00000E+00
   -0.13109E+03         0.22980E+03         0.00000E+00
    0.00000E+00         0.00000E+00        -0.26230E+03
 
   -0.11380E+04        -0.10524E+03         0.00000E+00
   -0.10524E+03         0.25137E+03         0.00000E+00
    0.00000E+00         0.00000E+00        -0.26598E+03
 
   -0.11609E+04        -0.73921E+02         0.00000E+00
   -0.73921E+02         0.26727E+03         0.00000E+00
    0.00000E+00         0.00000E+00        -0.26807E+03
 
   -0.11708E+04        -0.37992E+02         0.00000E+00
   -0.37992E+02         0.27658E+03         0.00000E+00
    0.00000E+00         0.00000E+00        -0.26826E+03
 
   -0.11661E+04         0.16461E+01         0.00000E+00
    0.16461E+01         0.27852E+03         0.00000E+00
    0.00000E+00         0.00000E+00        -0.26626E+03
 
   -0.11452E+04         0.44037E+02         0.00000E+00
    0.44037E+02         0.27251E+03         0.00000E+00
    0.00000E+00         0.00000E+00        -0.26181E+03
 
   -0.11072E+04         0.88180E+02         0.00000E+00
    0.88180E+02         0.25813E+03         0.00000E+00
    0.00000E+00         0.00000E+00        -0.25472E+03
 
   -0.10512E+04         0.13303E+03         0.00000E+00
    0.13303E+03         0.23515E+03         0.00000E+00
    0.00000E+00         0.00000E+00        -0.24482E+03
 
   -0.97683E+03         0.17752E+03         0.00000E+00
    0.17752E+03         0.20354E+03         0.00000E+00
    0.00000E+00         0.00000E+00        -0.23199E+03
 
   -0.88399E+03         0.22052E+03         0.00000E+00
    0.22052E+03         0.16346E+03         0.00000E+00
    0.00000E+00         0.00000E+00        -0.21616E+03
 
   -0.77299E+03         0.26090E+03         0.00000E+00
    0.26090E+03         0.11527E+03         0.00000E+00
    0.00000E+00         0.00000E+00        -0.19732E+03
 
   -0.64452E+03         0.29746E+03         0.00000E+00
    0.29746E+03         0.59543E+02         0.00000E+00
    0.00000E+00         0.00000E+00        -0.17549E+03
 
   -0.49964E+03         0.32902E+03         0.00000E+00
    0.32902E+03        -0.29216E+01         0.00000E+00
    0.00000E+00         0.00000E+00        -0.15077E+03
 
   -0.33984E+03         0.35433E+03         0.00000E+00
    0.35433E+03        -0.71111E+02         0.00000E+00
    0.00000E+00         0.00000E+00        -0.12329E+03
 
   -0.16701E+03         0.37215E+03         0.00000E+00
    0.37215E+03        -0.14378E+03         0.00000E+00
    0.00000E+00         0.00000E+00        -0.93235E+02
 
   -0.79674E+03        -0.20349E+02         0.00000E+00
   -0.20349E+02         0.18739E+01         0.00000E+00
    0.00000E+00         0.00000E+00        -0.23846E+03
 
   -0.79588E+03        -0.56477E+02         0.00000E+00
   -0.56477E+02         0.10953E+02         0.00000E+00
    0.00000E+00         0.00000E+00        -0.23548E+03
 
   -0.81040E+03        -0.86198E+02         0.00000E+00
   -0.86198E+02         0.27686E+02         0.00000E+00
    0.00000E+00         0.00000E+00        -0.23481E+03
 
   -0.83721E+03        -0.10918E+03         0.00000E+00
   -0.10918E+03         0.50481E+02         0.00000E+00
    0.00000E+00         0.00000E+00        -0.23602E+03
 
   -0.87318E+03        -0.12528E+03         0.00000E+00
   -0.12528E+03         0.77707E+02         0.00000E+00
    0.00000E+00         0.00000E+00        -0.23864E+03
 
   -0.91517E+03        -0.13448E+03         0.00000E+00
   -0.13448E+03         0.10773E+03         0.00000E+00
    0.00000E+00         0.00000E+00        -0.24223E+03
 
   -0.96011E+03        -0.13694E+03         0.00000E+00
   -0.13694E+03         0.13896E+03         0.00000E+00
    0.00000E+00         0.00000E+00        -0.24635E+03
 
   -0.10050E+04        -0.13292E+03         0.00000E+00
   -0.13292E+03         0.16985E+03         0.00000E+00
    0.00000E+00         0.00000E+00        -0.25055E+03
 
   -0.10471E+04        -0.12279E+03         0.00000E+00
   -0.12279E+03         0.19895E+03         0.00000E+00
    0.00000E+00         0.00000E+00        -0.25443E+03
 
   -0.10836E+04        -0.10704E+03         0.00000E+00
   -0.10704E+03         0.22491E+03         0.00000E+00
    0.00000E+00         0.00000E+00        -0.25759E+03
 
   -0.11121E+04        -0.86215E+02         0.00000E+00
   -0.86215E+02         0.24652E+03         0.00000E+00
    0.00000E+00         0.00000E+00        -0.25966E+03
 
   -0.11304E+04        -0.60940E+02         0.00000E+00
   -0.60940E+02         0.26269E+03         0.00000E+00
    0.00000E+00         0.00000E+00        -0.26031E+03
 
   -0.11365E+04        -0.31900E+02         0.00000E+00
   -0.31900E+02         0.27250E+03         0.00000E+00
    0.00000E+00         0.00000E+00        -0.25921E+03
 
   -0.11289E+04         0.16742E+00         0.00000E+00
    0.16742E+00         0.27517E+03         0.00000E+00
    0.00000E+00         0.00000E+00        -0.25611E+03
 
   -0.11060E+04         0.34484E+02         0.00000E+00
    0.34484E+02         0.27013E+03         0.00000E+00
    0.00000E+00         0.00000E+00        -0.25075E+03
 
   -0.10668E+04         0.70232E+02         0.00000E+00
    0.70232E+02         0.25696E+03         0.00000E+00
    0.00000E+00         0.00000E+00        -0.24296E+03
 
   -0.10107E+04         0.10656E+03         0.00000E+00
    0.10656E+03         0.23544E+03         0.00000E+00
    0.00000E+00         0.00000E+00        -0.23257E+03
 
   -0.93714E+03         0.14258E+03         0.00000E+00
    0.14258E+03         0.20552E+03         0.00000E+00
    0.00000E+00         0.00000E+00        -0.21949E+03
 
   -0.84617E+03         0.17738E+03         0.00000E+00
    0.17738E+03         0.16737E+03         0.00000E+00
    0.00000E+00         0.00000E+00        -0.20364E+03
 
   -0.73810E+03         0.21003E+03         0.00000E+00
    0.21003E+03         0.12136E+03         0.00000E+00
    0.00000E+00         0.00000E+00        -0.18502E+03
 
   -0.61364E+03         0.23955E+03         0.00000E+00
    0.23955E+03         0.68080E+02         0.00000E+00
    0.00000E+00         0.00000E+00        -0.16367E+03
 
   -0.47388E+03         0.26496E+03         0.00000E+00
    0.26496E+03         0.83165E+01         0.00000E+00
    0.00000E+00         0.00000E+00        -0.13967E+03
 
   -0.32031E+03         0.28527E+03         0.00000E+00
    0.28527E+03        -0.56906E+02         0.00000E+00
    0.00000E+00         0.00000E+00        -0.11317E+03
 
   -0.15485E+03         0.29946E+03         0.00000E+00
    0.29946E+03        -0.12634E+03         0.00000E+00
    0.00000E+00         0.00000E+00        -0.84355E+02
 
   -0.83135E+03        -0.15649E+02         0.00000E+00
   -0.15649E+02         0.18144E+01         0.00000E+00
    0.00000E+00         0.00000E+00        -0.24886E+03
 
   -0.82507E+03        -0.43471E+02         0.00000E+00
   -0.43471E+02         0.10622E+02         0.00000E+00
    0.00000E+00         0.00000E+00        -0.24433E+03
 
   -0.83377E+03        -0.66404E+02         0.00000E+00
   -0.66404E+02         0.26891E+02         0.00000E+00
    0.00000E+00         0.00000E+00        -0.24206E+03
 
   -0.85455E+03        -0.84182E+02         0.00000E+00
   -0.84182E+02         0.49106E+02         0.00000E+00
    0.00000E+00         0.00000E+00        -0.24163E+03
 
   -0.88442E+03        -0.96672E+02         0.00000E+00
   -0.96672E+02         0.75704E+02         0.00000E+00
    0.00000E+00         0.00000E+00        -0.24261E+03
 
   -0.92037E+03        -0.10387E+03         0.00000E+00
   -0.10387E+03         0.10511E+03         0.00000E+00
    0.00000E+00         0.00000E+00        -0.24458E+03
 
   -0.95944E+03        -0.10586E+03         0.00000E+00
   -0.10586E+03         0.13577E+03         0.00000E+00
    0.00000E+00         0.00000E+00        -0.24710E+03
 
   -0.99877E+03        -0.10286E+03         0.00000E+00
   -0.10286E+03         0.16620E+03         0.00000E+00
    0.00000E+00         0.00000E+00        -0.24977E+03
 
   -0.10356E+04        -0.95151E+02         0.00000E+00
   -0.95151E+02         0.19496E+03         0.00000E+00
    0.00000E+00         0.00000E+00        -0.25219E+03
 
   -0.10673E+04        -0.83085E+02         0.00000E+00
   -0.83085E+02         0.22073E+03         0.00000E+00
    0.00000E+00         0.00000E+00        -0.25398E+03
 
   -0.10916E+04        -0.67090E+02         0.00000E+00
   -0.67090E+02         0.24231E+03         0.00000E+00
    0.00000E+00         0.00000E+00        -0.25479E+03
 
   -0.11063E+04        -0.47647E+02         0.00000E+00
   -0.47647E+02         0.25864E+03         0.00000E+00
    0.00000E+00         0.00000E+00        -0.25429E+03
 
   -0.11094E+04        -0.25285E+02         0.00000E+00
   -0.25285E+02         0.26880E+03         0.00000E+00
    0.00000E+00         0.00000E+00        -0.25219E+03
 
   -0.10994E+04        -0.57127E+00         0.00000E+00
   -0.57127E+00         0.27201E+03         0.00000E+00
    0.00000E+00         0.00000E+00        -0.24822E+03
 
   -0.10749E+04         0.25889E+02         0.00000E+00
    0.25889E+02         0.26771E+03         0.00000E+00
    0.00000E+00         0.00000E+00        -0.24215E+03
 
   -0.10348E+04         0.53459E+02         0.00000E+00
    0.53459E+02         0.25547E+03         0.00000E+00
    0.00000E+00         0.00000E+00        -0.23381E+03
 
   -0.97856E+03         0.81478E+02         0.00000E+00
    0.81478E+02         0.23506E+03         0.00000E+00
    0.00000E+00         0.00000E+00        -0.22305E+03
 
   -0.90570E+03         0.10926E+03         0.00000E+00
    0.10926E+03         0.20647E+03         0.00000E+00
    0.00000E+00         0.00000E+00        -0.20977E+03
 
   -0.81623E+03         0.13608E+03         0.00000E+00
    0.13608E+03         0.16985E+03         0.00000E+00
    0.00000E+00         0.00000E+00        -0.19391E+03
 
   -0.71050E+03         0.16123E+03         0.00000E+00
    0.16123E+03         0.12557E+03         0.00000E+00
    0.00000E+00         0.00000E+00        -0.17548E+03
 
   -0.58925E+03         0.18394E+03         0.00000E+00
    0.18394E+03         0.74228E+02         0.00000E+00
    0.00000E+00         0.00000E+00        -0.15451E+03
 
   -0.45359E+03         0.20345E+03         0.00000E+00
    0.20345E+03         0.16616E+02         0.00000E+00
    0.00000E+00         0.00000E+00        -0.13109E+03
 
   -0.30501E+03         0.21900E+03         0.00000E+00
    0.21900E+03        -0.46240E+02         0.00000E+00
    0.00000E+00         0.00000E+00        -0.10538E+03
 
   -0.14543E+03         0.22978E+03         0.00000E+00
    0.22978E+03        -0.11309E+03         0.00000E+00
    0.00000E+00         0.00000E+00        -0.77556E+02
 
   -0.85707E+03        -0.11082E+02         0.00000E+00
   -0.11082E+02         0.17691E+01         0.00000E+00
    0.00000E+00         0.00000E+00        -0.25659E+03
 
   -0.84678E+03        -0.30804E+02         0.00000E+00
   -0.30804E+02         0.10370E+02         0.00000E+00
    0.00000E+00         0.00000E+00        -0.25092E+03
 
   -0.85119E+03        -0.47085E+02         0.00000E+00
   -0.47085E+02         0.26284E+02         0.00000E+00
    0.00000E+00         0.00000E+00        -0.24747E+03
 
   -0.86751E+03        -0.59727E+02         0.00000E+00
   -0.59727E+02         0.48052E+02         0.00000E+00
    0.00000E+00         0.00000E+00        -0.24584E+03
 
   -0.89285E+03        -0.68633E+02         0.00000E+00
   -0.68633E+02         0.74163E+02         0.00000E+00
    0.00000E+00         0.00000E+00        -0.24561E+03
 
   -0.92431E+03        -0.73788E+02         0.00000E+00
   -0.73788E+02         0.10309E+03         0.00000E+00
    0.00000E+00         0.00000E+00        -0.24637E+03
 
   -0.95902E+03        -0.75260E+02         0.00000E+00
   -0.75260E+02         0.13330E+03         0.00000E+00
    0.00000E+00         0.00000E+00        -0.24772E+03
 
   -0.99419E+03        -0.73184E+02         0.00000E+00
   -0.73184E+02         0.16335E+03         0.00000E+00
    0.00000E+00         0.00000E+00        -0.24925E+03
 
   -0.10271E+04        -0.67761E+02         0.00000E+00
   -0.67761E+02         0.19183E+03         0.00000E+00
    0.00000E+00         0.00000E+00        -0.25059E+03
 
   -0.10553E+04        -0.59241E+02         0.00000E+00
   -0.59241E+02         0.21743E+03         0.00000E+00
    0.00000E+00         0.00000E+00        -0.25137E+03
 
   -0.10765E+04        -0.47925E+02         0.00000E+00
   -0.47925E+02         0.23897E+03         0.00000E+00
    0.00000E+00         0.00000E+00        -0.25124E+03
 
   -0.10884E+04        -0.34153E+02         0.00000E+00
   -0.34153E+02         0.25539E+03         0.00000E+00
    0.00000E+00         0.00000E+00        -0.24990E+03
 
   -0.10893E+04        -0.18300E+02         0.00000E+00
   -0.18300E+02         0.26578E+03         0.00000E+00
    0.00000E+00         0.00000E+00        -0.24704E+03
 
   -0.10775E+04        -0.77051E+00         0.00000E+00
   -0.77051E+00         0.26937E+03         0.00000E+00
    0.00000E+00         0.00000E+00        -0.24243E+03
 
   -0.10517E+04         0.18005E+02         0.00000E+00
    0.18005E+02         0.26559E+03         0.00000E+00
    0.00000E+00         0.00000E+00        -0.23584E+03
 
   -0.10110E+04         0.37572E+02         0.00000E+00
    0.37572E+02         0.25402E+03         0.00000E+00
    0.00000E+00         0.00000E+00        -0.22710E+03
 
   -0.95465E+03         0.57457E+02         0.00000E+00
    0.57457E+02         0.23444E+03         0.00000E+00
    0.00000E+00         0.00000E+00        -0.21606E+03
 
   -0.88230E+03         0.77170E+02         0.00000E+00
    0.77170E+02         0.20682E+03         0.00000E+00
    0.00000E+00         0.00000E+00        -0.20264E+03
 
   -0.79395E+03         0.96201E+02         0.00000E+00
    0.96201E+02         0.17133E+03         0.00000E+00
    0.00000E+00         0.00000E+00        -0.18679E+03
 
   -0.68999E+03         0.11403E+03         0.00000E+00
    0.11403E+03         0.12834E+03         0.00000E+00
    0.00000E+00         0.00000E+00        -0.16849E+03
 
   -0.57116E+03         0.13012E+03         0.00000E+00
    0.13012E+03         0.78446E+02         0.00000E+00
    0.00000E+00         0.00000E+00        -0.14781E+03
 
   -0.43856E+03         0.14392E+03         0.00000E+00
    0.14392E+03         0.22443E+02         0.00000E+00
    0.00000E+00         0.00000E+00        -0.12484E+03
 
   -0.29373E+03         0.15488E+03         0.00000E+00
    0.15488E+03        -0.38643E+02         0.00000E+00
    0.00000E+00         0.00000E+00        -0.99711E+02
 
   -0.13855E+03         0.16246E+03         0.00000E+00
    0.16246E+03        -0.10356E+03         0.00000E+00
    0.00000E+00         0.00000E+00        -0.72633E+02
 
   -0.87409E+03        -0.66105E+01         0.00000E+00
   -0.66105E+01         0.17386E+01         0.00000E+00
    0.00000E+00         0.00000E+00        -0.26171E+03
 
   -0.86117E+03        -0.18383E+02         0.00000E+00
   -0.18383E+02         0.10199E+02         0.00000E+00
    0.00000E+00         0.00000E+00        -0.25529E+03
 
   -0.86276E+03        -0.28111E+02         0.00000E+00
   -0.28111E+02         0.25873E+02         0.00000E+00
    0.00000E+00         0.00000E+00        -0.25107E+03
 
   -0.87612E+03        -0.35674E+02         0.00000E+00
   -0.35674E+02         0.47339E+02         0.00000E+00
    0.00000E+00         0.00000E+00        -0.24864E+03
 
   -0.89847E+03        -0.41010E+02         0.00000E+00
   -0.41010E+02         0.73118E+02         0.00000E+00
    0.00000E+00         0.00000E+00        -0.24761E+03
 
   -0.92696E+03        -0.44109E+02         0.00000E+00
   -0.44109E+02         0.10171E+03         0.00000E+00
    0.00000E+00         0.00000E+00        -0.24757E+03
 
   -0.95878E+03        -0.45010E+02         0.00000E+00
   -0.45010E+02         0.13162E+03         0.00000E+00
    0.00000E+00         0.00000E+00        -0.24815E+03
 
   -0.99119E+03        -0.43791E+02         0.00000E+00
   -0.43791E+02         0.16141E+03         0.00000E+00
    0.00000E+00         0.00000E+00        -0.24893E+03
 
   -0.10216E+04        -0.40571E+02         0.00000E+00
   -0.40571E+02         0.18968E+03         0.00000E+00
    0.00000E+00         0.00000E+00        -0.24956E+03
 
   -0.10474E+04        -0.35498E+02         0.00000E+00
   -0.35498E+02         0.21516E+03         0.00000E+00
    0.00000E+00         0.00000E+00        -0.24967E+03
 
   -0.10664E+04        -0.28752E+02         0.00000E+00
   -0.28752E+02         0.23665E+03         0.00000E+00
    0.00000E+00         0.00000E+00        -0.24893E+03
 
   -0.10765E+04        -0.20535E+02         0.00000E+00
   -0.20535E+02         0.25312E+03         0.00000E+00
    0.00000E+00         0.00000E+00        -0.24702E+03
 
   -0.10759E+04        -0.11072E+02         0.00000E+00
   -0.11072E+02         0.26365E+03         0.00000E+00
    0.00000E+00         0.00000E+00        -0.24367E+03
 
   -0.10629E+04        -0.60350E+00         0.00000E+00
   -0.60350E+00         0.26748E+03         0.00000E+00
    0.00000E+00         0.00000E+00        -0.23864E+03
 
   -0.10364E+04         0.10611E+02         0.00000E+00
    0.10611E+02         0.26403E+03         0.00000E+00
    0.00000E+00         0.00000E+00        -0.23170E+03
 
   -0.99522E+03         0.22301E+02         0.00000E+00
    0.22301E+02         0.25290E+03         0.00000E+00
    0.00000E+00         0.00000E+00        -0.22269E+03
 
   -0.93880E+03         0.34181E+02         0.00000E+00
    0.34181E+02         0.23386E+03         0.00000E+00
    0.00000E+00         0.00000E+00        -0.21148E+03
 
   -0.86678E+03         0.45956E+02         0.00000E+00
    0.45956E+02         0.20689E+03         0.00000E+00
    0.00000E+00         0.00000E+00        -0.19797E+03
 
   -0.77919E+03         0.57322E+02         0.00000E+00
    0.57322E+02         0.17214E+03         0.00000E+00
    0.00000E+00         0.00000E+00        -0.18211E+03
 
   -0.67641E+03         0.67964E+02         0.00000E+00
    0.67964E+02         0.13001E+03         0.00000E+00
    0.00000E+00         0.00000E+00        -0.16392E+03
 
   -0.55918E+03         0.77563E+02         0.00000E+00
    0.77563E+02         0.81073E+02         0.00000E+00
    0.00000E+00         0.00000E+00        -0.14343E+03
 
   -0.42864E+03         0.85790E+02         0.00000E+00
    0.85790E+02         0.26139E+02         0.00000E+00
    0.00000E+00         0.00000E+00        -0.12075E+03
 
   -0.28629E+03         0.92315E+02         0.00000E+00
    0.92315E+02        -0.33769E+02         0.00000E+00
    0.00000E+00         0.00000E+00        -0.96018E+02
 
   -0.13404E+03         0.96807E+02         0.00000E+00
    0.96807E+02        -0.97405E+02         0.00000E+00
    0.00000E+00         0.00000E+00        -0.69435E+02
 
   -0.88257E+03        -0.21970E+01         0.00000E+00
   -0.21970E+01         0.17233E+01         0.00000E+00
    0.00000E+00         0.00000E+00        -0.26425E+03
 
   -0.86835E+03        -0.61111E+01         0.00000E+00
   -0.61111E+01         0.10114E+02         0.00000E+00
    0.00000E+00         0.00000E+00        -0.25747E+03
 
   -0.86852E+03        -0.93468E+01         0.00000E+00
   -0.93468E+01         0.25666E+02         0.00000E+00
    0.00000E+00         0.00000E+00        -0.25286E+03
 
   -0.88042E+03        -0.11864E+02         0.00000E+00
   -0.11864E+02         0.46979E+02         0.00000E+00
    0.00000E+00         0.00000E+00        -0.25003E+03
 
   -0.90128E+03        -0.13641E+02         0.00000E+00
   -0.13641E+02         0.72590E+02         0.00000E+00
    0.00000E+00         0.00000E+00        -0.24861E+03
 
   -0.92829E+03        -0.14675E+02         0.00000E+00
   -0.14675E+02         0.10101E+03         0.00000E+00
    0.00000E+00         0.00000E+00        -0.24818E+03
 
   -0.95867E+03        -0.14979E+02         0.00000E+00
   -0.14979E+02         0.13077E+03         0.00000E+00
    0.00000E+00         0.00000E+00        -0.24837E+03
 
   -0.98970E+03        -0.14577E+02         0.00000E+00
   -0.14577E+02         0.16042E+03         0.00000E+00
    0.00000E+00         0.00000E+00        -0.24878E+03
 
   -0.10188E+04        -0.13509E+02         0.00000E+00
   -0.13509E+02         0.18859E+03         0.00000E+00
    0.00000E+00         0.00000E+00        -0.24906E+03
 
   -0.10434E+04        -0.11825E+02         0.00000E+00
   -0.11825E+02         0.21400E+03         0.00000E+00
    0.00000E+00         0.00000E+00        -0.24883E+03
 
   -0.10614E+04        -0.95832E+01         0.00000E+00
   -0.95832E+01         0.23547E+03         0.00000E+00
    0.00000E+00         0.00000E+00        -0.24778E+03
 
   -0.10706E+04        -0.68520E+01         0.00000E+00
   -0.68520E+01         0.25195E+03         0.00000E+00
    0.00000E+00         0.00000E+00        -0.24560E+03
 
   -0.10692E+04        -0.37055E+01         0.00000E+00
   -0.37055E+01         0.26255E+03         0.00000E+00
    0.00000E+00         0.00000E+00        -0.24201E+03
 
   -0.10557E+04        -0.22432E+00         0.00000E+00
   -0.22432E+00         0.26649E+03         0.00000E+00
    0.00000E+00         0.00000E+00        -0.23676E+03
 
   -0.10287E+04         0.35055E+01         0.00000E+00
    0.35055E+01         0.26321E+03         0.00000E+00
    0.00000E+00         0.00000E+00        -0.22965E+03
 
   -0.98735E+03         0.73935E+01         0.00000E+00
    0.73935E+01         0.25230E+03         0.00000E+00
    0.00000E+00         0.00000E+00        -0.22051E+03
 
   -0.93089E+03         0.11345E+02         0.00000E+00
    0.11345E+02         0.23353E+03         0.00000E+00
    0.00000E+00         0.00000E+00        -0.20921E+03
 
   -0.85905E+03         0.15261E+02         0.00000E+00
    0.15261E+02         0.20687E+03         0.00000E+00
    0.00000E+00         0.00000E+00        -0.19565E+03
 
   -0.77184E+03         0.19041E+02         0.00000E+00
    0.19041E+02         0.17250E+03         0.00000E+00
    0.00000E+00         0.00000E+00        -0.17980E+03
 
   -0.66964E+03         0.22580E+02         0.00000E+00
    0.22580E+02         0.13079E+03         0.00000E+00
    0.00000E+00         0.00000E+00        -0.16166E+03
 
   -0.55322E+03         0.25770E+02         0.00000E+00
    0.25770E+02         0.82331E+02         0.00000E+00
    0.00000E+00         0.00000E+00        -0.14127E+03
 
   -0.42370E+03         0.28503E+02         0.00000E+00
    0.28503E+02         0.27931E+02         0.00000E+00
    0.00000E+00         0.00000E+00        -0.11873E+03
 
   -0.28260E+03         0.30669E+02         0.00000E+00
    0.30669E+02        -0.31389E+02         0.00000E+00
    0.00000E+00         0.00000E+00        -0.94196E+02
 
   -0.13182E+03         0.32158E+02         0.00000E+00
    0.32158E+02        -0.94383E+02         0.00000E+00
    0.00000E+00         0.00000E+00        -0.67860E+02
 
SCALARS stresss double 
LOOKUP_TABLE default
  -73065.3235689566     
  -56799.6379260709     
  -44044.9589065964     
  -35254.7482806801     
  -29142.5553799973     
  -24756.7235034935     
  -21519.2330533644     
  -19071.7729868367     
  -17186.7471157128     
  -15714.8227268799     
  -14555.1396015016     
  -13637.8276080293     
  -12913.4708648559     
  -12346.5666673646     
  -11911.3567745178     
  -11589.1101419283     
  -11366.3210746727     
  -11233.5027364797     
  -11184.3809430419     
  -11215.3677606787     
  -11325.2405538408     
  -11514.9819494373     
  -11787.7567445692     
  -12149.0173716040     
  -71021.9224136750     
  -51280.4629758976     
  -40161.7113569262     
  -32800.6841652527     
  -27547.6109647607     
  -23686.3837838671     
  -20774.9482303526     
  -18537.0998153021     
  -16791.0211712613     
  -15413.8153677381     
  -14320.2554348733     
  -13450.0089041164     
  -12759.6427783126     
  -12217.5033022009     
  -11800.3611938734     
  -11491.1737067888     
  -11277.5718172706     
  -11150.8314562246     
  -11105.1778757518     
  -11137.3278858109     
  -11246.2101606310     
  -11432.8274144050     
  -11700.2409580698     
  -12053.6711271561     
  -53304.7350831746     
  -39785.4484420192     
  -33263.0880348073     
  -28402.0933308350     
  -24662.9921911420     
  -21721.1487470070     
  -19390.8110690674     
  -17531.7468839692     
  -16040.1043805851     
  -14838.2791813813     
  -13868.2974403656     
  -13086.6888190783     
  -12460.7391512909     
  -11965.7692319342     
  -11583.1773294040     
  -11299.0352774929     
  -11103.0849557915     
  -10988.0260635114     
  -10949.0192142390     
  -10983.3523988958     
  -11090.2362942780     
  -11270.7068030702     
  -11527.6232211563     
  -11865.7587945271     
  -20603.6618314951     
  -25908.4896556783     
  -24837.2352669915     
  -22989.5501110135     
  -21002.9387280023     
  -19163.4472465962     
  -17548.7119907424     
  -16169.0525709760     
  -15006.8077980363     
  -14036.3929434296     
  -13232.0359177578     
  -12570.7527689267     
  -12033.1613335226     
  -11603.4340530010     
  -11268.9423993954     
  -11019.8352819457     
  -10848.6492463640     
  -10749.9852428580     
  -10720.2598882585     
  -10757.5289796289     
  -10861.3783372834     
  -11032.8777030301     
  -11274.5955268844     
  -11590.6752593467     
  -2649.44264166312     
  -13723.6674001356     
  -16971.5723260165     
  -17555.6814988578     
  -17147.9578662886     
  -16358.9081518383     
  -15464.0722428659     
  -14587.1159074991     
  -13782.2195206529     
  -13069.7956428420     
  -12454.2158323148     
  -11932.5534928177     
  -11498.9794767519     
  -11146.9464543253     
  -10870.2494142807     
  -10663.5132805290     
  -10522.3935686709     
  -10443.6394200266     
  -10425.0976072423     
  -10465.6990391819     
  -10565.4498508814     
  -10725.4390287033     
  -10947.8693273572     
  -11236.1156248628     
  -45.1510962031078     
  -6559.80676966545     
  -10938.8167917723     
  -12881.6545929680     
  -13570.2758081985     
  -13613.9216663537     
  -13338.9243996365     
  -12922.2103175818     
  -12459.9697931738     
  -12004.0525821117     
  -11581.6245312323     
  -11206.1307136694     
  -10883.4659230898     
  -10615.4862095480     
  -10402.0179778679     
  -10242.0116826310     
  -10134.2052300821     
  -10077.5059387115     
  -10071.2116731963     
  -10115.1413995737     
  -10209.7162503903     
  -10356.0150020018     
  -10555.8173992783     
  -10811.6419248865     
   1364.68215098986     
  -3402.08628739387     
  -6962.62453642138     
  -9280.89140362085     
  -10543.1652082851     
  -11137.1152142400     
  -11328.0166706123     
  -11287.5456164954     
  -11122.8704108446     
  -10900.0727375885     
  -10659.4941775128     
  -10425.4970622195     
  -10212.5871019080     
  -10029.2376959870     
  -9880.27981993585     
  -9768.39890885362     
  -9695.07556392285     
  -9661.17885622419     
  -9667.34169245551     
  -9714.19849815373     
  -9802.53470446454     
  -9933.37791441670     
  -10108.0476245142     
  -10328.1710573232     
   1956.43672721974     
  -1576.90611534889     
  -4511.91755925418     
  -6677.65036060001     
  -8134.44868228131     
  -9026.66860856374     
  -9524.82398674136     
  -9762.17016195141     
  -9834.59968915232     
  -9808.11793098906     
  -9727.23649073855     
  -9621.60960415688     
  -9510.84311379787     
  -9407.83348709691     
  -9321.04058671534     
  -9256.01923336916     
  -9216.44602377947     
  -9204.80534829899     
  -9222.84534229772     
  -9271.87721048330     
  -9352.96562798759     
  -9467.04003865921     
  -9614.94380984359     
  -9797.42825097925     
   2267.95468545488     
  -493.523878467985     
  -2899.38228696418     
  -4833.59063354251     
  -6278.02204547538     
  -7292.90029928610     
  -7966.95391990383     
  -8390.18204563532     
  -8637.12836087090     
  -8765.02302522836     
  -8816.00047359057     
  -8820.38428884795     
  -8799.70800599261     
  -8769.14482052086     
  -8739.34141947839     
  -8717.75640530766     
  -8709.61740767804     
  -8718.59531119545     
  -8747.27174352094     
  -8797.45527148958     
  -8870.38475713114     
  -8966.84490127879     
  -9087.20828731430     
  -9231.40920521426     
   2415.85239347903     
   191.887612520574     
  -1811.36675324446     
  -3506.02227898160     
  -4862.05802783467     
  -5895.79631864206     
  -6652.53975731954     
  -7187.20036716692     
  -7552.73313440890     
  -7794.28437377200     
  -7948.01058389940     
  -8041.81589761594     
  -8096.75778915735     
  -8128.50140508955     
  -8148.58959119075     
  -8165.46661100101     
  -8185.26630120183     
  -8212.39966853084     
  -8249.98016482253     
  -8300.11977455892     
  -8364.12136917628     
  -8442.58483678258     
  -8535.43699005023     
  -8641.88815531093     
   2468.74266581995     
   632.975181144942     
  -1056.88451940780     
  -2537.72706764581     
  -3778.53479152932     
  -4778.48138906992     
  -5558.15040914586     
  -6149.71784860650     
  -6588.54806021834     
  -6908.06673213324     
  -7137.26279281812     
  -7300.02945182489     
  -7415.42766900843     
  -7498.33342030273     
  -7560.17216179884     
  -7609.60195539271     
  -7653.09119554578     
  -7695.37898130334     
  -7739.82446316057     
  -7788.65746413020     
  -7843.14258639600     
  -7903.66612444460     
  -7969.75096838726     
  -8039.99993603010     
   2459.69726151020     
   916.691598457244     
  -526.029431425267     
  -1822.12592224216     
  -2944.54901721832     
  -3885.46209953258     
  -4652.58708341436     
  -5263.74770115442     
  -5741.67952295988     
  -6110.04798210626     
  -6391.00207978383     
  -6603.96236703160     
  -6765.24685309113     
  -6888.16363992803     
  -6983.32243252766     
  -7059.01585360298     
  -7121.59058735359     
  -7175.77008010195     
  -7224.91369976678     
  -7271.20880724296     
  -7315.79692738920     
  -7358.83608724157     
  -7399.50013060142     
  -7435.91335371728     
   2408.65654808274     
   1093.64347827036     
  -150.213807395744     
  -1288.41935844106     
  -2298.38628749292     
  -3170.12478175806     
  -3904.65297905481     
  -4511.11621137009     
  -5003.57943161697     
  -5398.25089068072     
  -5711.45220897207     
  -5958.36104533668     
  -6152.36681810409     
  -6304.84545033242     
  -6425.18231268708     
  -6520.92113795210     
  -6597.95990866349     
  -6660.74680831172     
  -6712.45034049561     
  -6755.09033153971     
  -6789.62336954475     
  -6815.97934896861     
  -6833.04659785417     
  -6838.60248489260     
   2328.17254572471     
   1195.66841324127     
   114.790534014960     
  -888.275020131301     
  -1794.98573540945     
  -2595.20915741736     
  -3286.62562019085     
  -3873.18835056165     
  -4363.18882787484     
  -4767.37856914490     
  -5097.43060713130     
  -5364.83676103590     
  -5580.21520108763     
  -5752.94017127637     
  -5890.99487426007     
  -6000.96159812778     
  -6088.08477333649     
  -6156.36282702122     
  -6208.64039658893     
  -6246.68335258467     
  -6271.22600584528     
  -6281.98388443861     
  -6277.62749029054     
  -6255.71321329024     
   2226.77884964558     
   1243.74141928741     
   298.720612996670     
  -588.024164502936     
  -1401.29042928046     
  -2131.61939001716     
  -2775.13298963789     
  -3332.72519075913     
  -3808.89575760148     
  -4210.50658372994     
  -4545.66180593243     
  -4822.81831792689     
  -5050.15086895012     
  -5235.14481892762     
  -5384.36632563569     
  -5503.35668399906     
  -5596.60453077763     
  -5667.56004240441     
  -5718.66523038991     
  -5751.38249638953     
  -5766.20947716771     
  -5762.67217719892     
  -5739.29091979745     
  -5693.51522961931     
   2110.57854834577     
   1252.30623081270     
   422.237632947887     
  -363.651519078215     
  -1092.83016366601     
  -1756.77270969112     
  -2350.98455391606     
  -2874.58567015506     
  -3329.60975837135     
  -3720.18644218292     
  -4051.74464702851     
  -4330.32567022771     
  -4562.04545222082     
  -4752.70797451735     
  -4907.54953104977     
  -5031.08431915196     
  -5127.02117315161     
  -5198.22507892897     
  -5246.70246426783     
  -5273.59449315691     
  -5279.16699099728     
  -5262.78903571234     
  -5222.89479894233     
  -5156.92517291522     
   1984.13490636867     
   1231.67306948907     
   500.132874156559     
  -197.653065443536     
  -851.261669993751     
  -1453.12094012975     
  -1998.60709041725     
  -2485.83983426522     
  -2915.26139385910     
  -3289.10002637851     
  -3610.80940400592     
  -3884.55107776871     
  -4114.75870345833     
  -4305.79773520365     
  -4461.71656038935     
  -4586.07503761679     
  -4681.83250569097     
  -4751.27743298090     
  -4795.98306862709     
  -4816.77642309747     
  -4813.71088619327     
  -4786.03545189898     
  -4732.15579995191     
  -4649.58448290252     
   1850.97751256487     
   1189.43241117242     
   543.272687068204     
  -77.0095321544754     
  -662.650098872022     
  -1206.95423461328     
  -1705.41242904865     
  -2155.60880410554     
  -2556.96880219238     
  -2910.40674311775     
  -3217.93296465723     
  -3482.26906969028     
  -3706.50386372787     
  -3893.80665480465     
  -4047.20175616790     
  -4169.39939209395     
  -4262.67352999292     
  -4328.77551387356     
  -4368.87269076744     
  -4383.50260494603     
  -4372.53516788452     
  -4335.13714417315     
  -4269.73518153465     
  -4173.97545675009     
   1713.90649349873     
   1131.31778523586     
   559.821874483011     
   8.14193387250170     
  -516.267344669010     
  -1007.48156781872     
  -1461.21823478252     
  -1874.80447522239     
  -2247.02650228707     
  -2577.89729039440     
  -2868.38124805443     
  -3120.11004250220     
  -3335.11510329972     
  -3515.59255779610     
  -3663.70754642922     
  -3781.43816912114     
  -3870.45499703552     
  -3932.02986822252     
  -3966.96704788457     
  -3975.55023571713     
  -3957.49990925240     
  -3911.93681190082     
  -3837.34887046245     
  -3731.56040932775     
   1575.18184687524     
   1061.75171551882     
   556.034719673575     
   65.3967427126777     
  -403.748120497297     
  -846.137732090336     
  -1257.76038201314     
  -1635.85257833571     
  -1978.80998656924     
  -2286.03358619102     
  -2557.73618011905     
  -2794.73296478861     
  -2998.23540741871     
  -3169.66183759934     
  -3310.47234335251     
  -3422.03067900761     
  -3505.49235347209     
  -3561.71589443971     
  -3591.19327301581     
  -3593.99533672374     
  -3569.72856250719     
  -3517.50029243934     
  -3435.89071637286     
  -3322.93114996744     
   1436.64597783003     
   984.201833769910     
   536.780158002045     
   100.689173803913     
  -318.491754784590     
  -716.065145387648     
  -1088.29852829492     
  -1432.43640574148     
  -1746.64835550376     
  -2029.92664253291     
  -2281.94964536344     
  -2502.92744108964     
  -2693.44374681402     
  -2854.30503038138     
  -2986.40386919006     
  -3090.60022039348     
  -3167.62155593448     
  -3217.98094931725     
  -3241.91114075763     
  -3239.31222367413     
  -3209.71073189898     
  -3152.22842221724     
  -3065.55983455768     
  -2947.95870462630     
   1299.80616122958     
   901.419974682711     
   505.898884962717     
   118.713664438380     
  -255.233579006725     
  -611.726611317600     
  -947.303566431467     
  -1259.27461703932     
  -1545.69253002056     
  -1805.28419889493     
  -2037.35375570195     
  -2241.66850176658     
  -2418.33800600571     
  -2567.69482984374     
  -2690.18300370043     
  -2786.25806427271     
  -2856.30047914114     
  -2900.54279769824     
  -2919.00991442485     
  -2911.47137194977     
  -2877.40458840308     
  -2815.96817964356     
  -2725.98508540183     
  -2605.93593960536     
   1165.89246608331     
   815.607191741833     
   466.451747920972     
   123.222792247990     
  -209.734192069091     
  -528.615003396985     
  -830.212416147753     
  -1111.93521643227     
  -1371.79230431894     
  -1608.34675228025     
  -1820.64673496310     
  -2008.14106426122     
  -2170.58682902091     
  -2307.95564278744     
  -2420.34358516813     
  -2507.88839378147     
  -2570.69606138415     
  -2608.77786431325     
  -2621.99806013297     
  -2610.03204975518     
  -2572.33467039599     
  -2508.11842145160     
  -2416.34177323099     
  -2295.70821944110     
   1035.90037356404     
   728.530802473706     
   420.896315832792     
   117.241717488325     
  -178.551417589524     
  -463.034390084295     
  -733.236398179743     
  -986.682853504647     
  -1221.38764821643     
  -1435.82231346934     
  -1628.86659744098     
  -1799.74580035861     
  -1947.96029295202     
  -2073.21217142964     
  -2175.33317159375     
  -2254.21698174974     
  -2309.75812935482     
  -2341.79879033185     
  -2350.08425126262     
  -2334.22736824800     
  -2293.68220581784     
  -2227.72707964603     
  -2135.45743321449     
  -2015.78931225534     
   910.623686363308     
   641.609723692185     
   371.215094107582     
   103.225138198553     
  -158.870848407902     
  -411.933846835907     
  -653.211500622440     
  -880.354852795571     
  -1091.41553750830     
  -1284.82518084736     
  -1459.35999077379     
  -1614.09423793824     
  -1748.34656059049     
  -1861.62285068033     
  -1953.55901695996     
  -2023.86630698083     
  -2072.28122273479     
  -2098.52147664485     
  -2102.24896603109     
  -2083.04042541347     
  -2040.36625320078     
  -1973.57799125867     
  -1881.90504003355     
  -1764.46138853859     
   790.681164190514     
   555.978438817660     
   319.010608275827     
   83.1741033402697     
  -148.378324852549     
  -372.780247586180     
  -587.481101617908     
  -790.261131165903     
  -979.231565921481     
  -1152.82107130369     
  -1309.75044472014     
  -1448.99814277172     
  -1569.75950241710     
  -1671.40250509702     
  -1753.42269865530     
  -1815.39952225230     
  -1856.95585607939     
  -1877.72220853942     
  -1877.30660748741     
  -1855.27100790472     
  -1811.11487686928     
  -1744.26656433737     
  -1654.08310066961     
  -1539.85915650608     
   676.539005062075     
   472.536291133717     
   265.577406816788     
   58.7244019084956     
  -145.162735611356     
  -343.460031487719     
  -533.803734185158     
  -714.103562395321     
  -882.544720674992     
  -1037.57928748389     
  -1177.90829420778     
  -1302.45631615122     
  -1410.34067271131     
  -1500.83740226106     
  -1573.34607905778     
  -1627.35532811032     
  -1662.41062435667     
  -1678.08568336395     
  -1673.95849953443     
  -1649.59288885830     
  -1604.52625812012     
  -1538.26425135440     
  -1450.28290810278     
  -1340.03898990788     
   568.530478639911     
   391.986499962585     
   211.957720997210     
   31.2145514840491     
  -147.640970456914     
  -322.202631987236     
  -490.280152613120     
  -649.910974343075     
  -799.363441726303     
  -937.131719618020     
  -1061.92333982096     
  -1172.64067331312     
  -1268.35787670171     
  -1348.29496601654     
  -1411.79065099460     
  -1458.27545170702     
  -1487.24645311242     
  -1498.24486588830     
  -1490.83738139675     
  -1464.60215418600     
  -1419.12012732772     
  -1353.97233590914     
  -1268.74377634092     
  -1163.03440155213     
   466.873509848440     
   314.867824189764     
   158.985360790159     
   1.73894763064381     
  -154.499222864797     
  -307.520205069075     
  -455.295290736064     
  -595.986618337225     
  -727.951127576260     
  -849.738057612162     
  -960.080600646914     
  -1057.88264612640     
  -1142.20176993311     
  -1212.22973763152     
  -1267.27181316972     
  -1306.72611453588     
  -1330.06415937565     
  -1336.81361977882     
  -1326.54417623260     
  -1298.85724071991     
  -1253.38021655211     
  -1189.76587994746     
  -1107.69740195213     
  -1006.89947025257     
   371.686692895792     
   241.580839342734     
   107.320997034400     
  -28.8099276422113     
  -164.646486821916     
  -298.159706991206     
  -427.471738219086     
  -550.865548916784     
  -666.789430850431     
  -773.856428397477     
  -870.839120347306     
  -956.660438721301     
  -1030.38139412168     
  -1091.18668812756     
  -1138.36923595126     
  -1171.31460877267     
  -1189.48634996803     
  -1192.41303846592     
  -1179.67787963056     
  -1150.91151006524     
  -1105.78861407574     
  -1044.02886830497     
  -965.402654993525     
  -869.741907282680     
   283.004017946877     
   172.410163461590     
   57.4810213978526     
  -59.7074775539912     
  -177.177246723689     
  -293.064399422033     
  -405.632157694458     
  -513.279865614108     
  -614.547915649247     
  -708.118656126578     
  -792.813587164829     
  -867.587354137929     
  -931.519200859561     
  -983.802645233724     
  -1023.73419013261     
  -1050.70188836891     
  -1064.17455219450     
  -1063.69234504124     
  -1048.85942575824     
  -1019.33924098240     
  -974.852984364768     
  -915.181663934539     
  -840.172139588284     
  -749.747407391925     
   200.788471816215     
   107.543547819300     
   9.86152519427334     
  -90.3691680437906     
  -191.341176097692     
  -291.342609853440     
  -388.768674599633     
  -482.130193883471     
  -570.058880412256     
  -651.309398450302     
  -724.758444629636     
  -789.401232227246     
  -844.345888859700     
  -888.806364954060     
  -922.094500290128     
  -943.611911777843     
  -952.842353046944     
  -949.345161954032     
  -932.750362133394     
  -902.755924499774     
  -859.127627676218     
  -801.701884111010     
  -730.391820466747     
  -645.196814054329     
   124.944602728343     
   47.0884683623899     
  -35.2415076453020     
  -120.327485902521     
  -206.518243466875     
  -292.242124950210     
  -376.017735716489     
  -456.462127276174     
  -532.296363363727     
  -602.348500069770     
  -665.554152657760     
  -720.954945285236     
  -767.695240588546     
  -805.017619950665     
  -832.257631225699     
  -848.838340191003     
  -854.265218220964     
  -848.121875699600     
  -830.067112676017     
  -799.833708798797     
  -757.229316150060     
  -702.139752396001     
  -634.534917415767     
  -554.477472706845     
   55.3300996614250     
  -8.91333421956234     
  -77.6150060768361     
  -149.212639132696     
  -222.198042259681     
  -295.128999377968     
  -366.639285781685     
  -435.446628982855     
  -500.358534033745     
  -560.276002136262     
  -614.195277751271     
  -661.207855760019     
  -700.499060758928     
  -731.345571685413     
  -753.112305175149     
  -765.249090646876     
  -767.287570738675     
  -758.838744800188     
  -739.591543323319     
  -709.312779858598     
  -667.848775886300     
  -615.128894226998     
  -551.171147925735     
  -476.089973362228     
  -8.23358264719800     
  -60.4730441877571     
  -117.114042752718     
  -176.736235610591     
  -237.962464491985     
  -299.469862158601     
  -359.999380579261     
  -418.363609725487     
  -473.452832152488     
  -524.239340608813     
  -569.780127324595     
  -609.218128564779     
  -641.782271930886     
  -666.786623637314     
  -683.628966934477     
  -691.789160671492     
  -690.827629376092     
  -680.384324525646     
  -660.178472516854     
  -630.009389782840     
  -589.758600805904     
  -539.393441205915     
  -478.972265896643     
  -408.651311285798     
  -65.9515290703703     
  -107.643453507514     
  -153.649066878356     
  -202.677372291460     
  -253.471058376679     
  -304.817025108938     
  -355.555559894327     
  -404.588071441970     
  -450.883345962405     
  -493.482352383139     
  -531.501685654425     
  -564.135795411201     
  -590.658197639466     
  -610.421906934037     
  -622.859354829033     
  -627.482074885183     
  -623.880437857664     
  -611.723711014432     
  -590.760695489304     
  -560.821165455827     
  -521.818293792894     
  -473.752201439825     
  -416.714712193798     
  -350.895331453152     
  -118.046575855714     
  -150.508958065872     
  -187.174821407722     
  -226.870708315022     
  -268.448571414423     
  -310.795863895169     
  -352.844460010619     
  -393.578341490697     
  -432.040028677313     
  -467.335782494470     
  -498.639651275852     
  -525.196481616675     
  -546.324051933163     
  -561.414519111038     
  -569.935391039075     
  -571.430250181761     
  -565.519455464234     
  -551.901041883057     
  -530.352019956206     
  -500.730251045987     
  -462.977040387406     
  -417.120547909169     
  -363.280068118908     
  -301.671174847035     
  -164.751401108946     
  -189.176726281998     
  -217.680701684301     
  -249.196197561192     
  -282.674299367277     
  -317.094066534395     
  -351.471264767273     
  -384.866027863537     
  -416.389437867516     
  -445.209048599232     
  -470.553414516630     
  -491.715721885031     
  -508.056650089708     
  -519.006615834619     
  -524.067570633167     
  -522.814531630438     
  -514.897027066147     
  -500.040630618687     
  -478.048743743836     
  -448.804762370042     
  -412.274734438530     
  -368.510578300140     
  -317.653889424395     
  -259.940314792280     
  -206.301461206095     
  -223.768925253605     
  -245.182366121333     
  -269.570230756316     
  -295.972949549566     
  -323.452437635085     
  -351.100685420865     
  -378.047408360694     
  -403.466751327884     
  -426.583070943524     
  -446.675847793048     
  -463.083807655507     
  -475.208354898940     
  -482.516440597654     
  -484.543001598347     
  -480.893113967785     
  -471.244004605317     
  -455.347058202485     
  -433.029943310392     
  -404.198961327463     
  -368.841696148540     
  -327.030010497680     
  -278.923398144311     
  -224.772659902940     
  -242.928735260966     
  -254.415907772697     
  -269.714448214191     
  -287.937992093218     
  -308.206792504931     
  -329.657017246537     
  -351.449229422120     
  -372.776030856233     
  -392.868867553658     
  -411.004018312258     
  -426.507809877207     
  -438.761123200750     
  -447.203274053526     
  -451.335366238652     
  -450.723226061511     
  -445.000031853276     
  -433.868751846913     
  -417.104497412283     
  -394.556886623915     
  -366.152495573575     
  -331.897452089371     
  -291.880199027377     
  -246.274422604069     
  -195.342105992812     
  -274.856235598044     
  -281.250276630390     
  -291.324247655305     
  -304.266876151472     
  -319.268925453560     
  -335.532326755125     
  -352.278571836090     
  -368.756351662338     
  -384.248441981613     
  -398.077854377140     
  -409.613288781485     
  -418.273940035178     
  -423.533725610389     
  -424.925013161432     
  -422.041934345378     
  -414.543374815746     
  -402.155729075604     
  -384.675502824094     
  -361.971834558762     
  -333.988992672876     
  -300.748884411522     
  -262.353589239356     
  -218.987901957328     
  -170.921840936908     
  -302.293239399878     
  -304.401752591680     
  -310.066299775895     
  -318.540841717769     
  -329.077508303254     
  -340.935595174600     
  -353.389884413685     
  -365.738277753045     
  -377.308743926642     
  -387.465595772197     
  -395.615126693425     
  -401.210649191459     
  -403.756989529261     
  -402.814501444594     
  -398.002667550546     
  -389.003359186226     
  -375.563823696288     
  -357.499462279383     
  -334.696451658539     
  -307.114249036505     
  -274.788002380304     
  -237.830867425455     
  -196.436209412270     
  -150.879642094603     
  -325.431195531529     
  -323.992780580251     
  -325.997739207458     
  -330.755602794943     
  -337.570861743218     
  -345.751850669946     
  -354.619009241746     
  -363.512508739649     
  -371.799245554468     
  -378.879214370307     
  -384.191285164639     
  -387.218418644114     
  -387.492363680522     
  -384.597887107275     
  -378.176590376564     
  -367.930368671959     
  -353.624565862098     
  -335.090873045266     
  -312.230009381075     
  -285.014211571063     
  -253.489542992796     
  -217.778015486065     
  -178.079496622263     
  -134.673353559164     
  -344.440261034204     
  -340.134815839154     
  -339.174387102588     
  -340.914575722763     
  -344.703339337252     
  -349.889786649091     
  -355.832388737122     
  -361.906597975656     
  -367.511874844974     
  -372.078132718591     
  -375.071620164199     
  -376.000268859862     
  -374.418542378641     
  -369.931826351340     
  -362.200403466689     
  -350.943057093069     
  -335.940344794253     
  -317.037577566423     
  -294.147532264024     
  -267.252913543121     
  -236.408567979987     
  -201.743437177240     
  -163.462219113433     
  -121.846688292547     
  -359.466423850699     
  -352.925238677056     
  -349.647502564658     
  -349.025516399737     
  -350.441903333830     
  -353.278331066255     
  -356.923683251635     
  -360.781670561930     
  -364.277880592376     
  -366.866274365547     
  -368.035145269786     
  -367.312563446236     
  -364.271334491551     
  -358.533505479461     
  -349.774453387612     
  -337.726590785251     
  -322.182720920969     
  -302.999069075148     
  -280.098009239913     
  -253.470494996746     
  -223.178191119062     
  -189.355288277564     
  -152.209967712247     
  -112.025466394267     
  -370.629171851152     
  -362.444853205502     
  -357.461148855660     
  -355.097794158633     
  -354.763348386570     
  -355.863863066012     
  -357.811023057417     
  -360.029750543320     
  -361.965270090789     
  -363.089640680808     
  -362.907767744383     
  -360.962914470122     
  -356.841736603336     
  -350.178868316810     
  -340.661088216741     
  -328.031093935941     
  -312.090910919724     
  -292.704955875449     
  -269.802767975956     
  -243.381411418901     
  -213.507541584824     
  -180.319114139056     
  -144.026702411637     
  -104.914373777645     
  -378.019672982341     
  -368.755932403273     
  -362.650133988784     
  -359.140259672608     
  -357.652129467249     
  -357.608033782521     
  -358.434854013849     
  -359.571661194334     
  -360.476790098406     
  -360.634393394938     
  -359.560487014069     
  -356.808503521400     
  -351.974374686062     
  -344.701167301954     
  -334.683297428784     
  -321.670347371837     
  -305.470506797424     
  -285.953654346175     
  -263.054089007925     
  -236.772911501196     
  -207.180045190639     
  -174.415874002863     
  -138.692461777551     
  -100.294304011880     
  -381.699437161319     
  -371.900778992494     
  -365.238493805311     
  -361.159673899381     
  -359.098760648197     
  -358.486158769929     
  -358.756346572300     
  -359.355471739128     
  -359.748429629178     
  -359.425428021849     
  -357.908048532464     
  -354.754820263367     
  -349.566325379229     
  -341.989858933037     
  -331.723666195669     
  -318.520779781500     
  -302.192475906317     
  -282.611364130791     
  -259.714117986217     
  -233.503845091377     
  -204.052084982842     
  -171.500411217312     
  -136.061601770457     
  -98.0203288380302     
SCALARS 2waySource double 
LOOKUP_TABLE default
  9.802141117383594E-019
  1.275042258063595E-019
  2.285046835184596E-018
 -3.650163725634732E-018
  3.382329929767797E-019
 -7.011560358952010E-019
  1.174749964765070E-020
  1.924513893558867E-019
 -2.273736754432317E-020
  1.001260406721082E-018
  1.635676703097235E-018
 -1.392036935256679E-018
  5.180620448942711E-019
 -1.023181539494544E-018
  3.350852599331051E-020
  7.281932867415163E-019
  6.375211290317944E-020
 -8.648362014551414E-019
 -3.455205028946380E-019
  4.242850545289094E-020
 -2.955857780762014E-019
 -5.684341886080802E-020
 -1.136868377216159E-020
 -1.136868377216159E-020
 -3.194541536957512E-018
  3.285491007134828E-018
 -1.327687297030323E-018
 -4.329019812880999E-018
  4.857634306776560E-018
 -3.365130396559829E-018
 -1.332147286760116E-018
 -2.955857780762010E-019
 -1.605753329042967E-019
  9.419682835476934E-019
 -3.209319563609077E-019
 -3.626028300628224E-019
 -6.189664387496904E-019
  1.473847716526708E-018
  6.059652854358066E-019
  3.798452636588091E-019
  2.631121963014375E-019
 -2.994482424828172E-019
 -8.593412675068054E-019
  3.083682219423978E-019
 -1.136868377216159E-020
 -1.303317459944282E-019
  2.050737267942812E-020
 -1.727602514473191E-019
  4.133495821446288E-020
  6.919158435800215E-019
  3.476747345844344E-018
 -1.562785901286795E-018
 -2.266332038474691E-018
  1.553428502931836E-018
 -3.232205542456872E-019
 -1.354665944856748E-018
 -1.769433494602907E-018
  8.658711456736911E-019
  1.331592661824971E-019
  9.446356973079600E-019
  7.202496484805969E-019
  3.548779012495912E-019
  1.843476446671665E-019
 -2.021876035863275E-019
 -2.978157729410969E-019
 -3.335542937993019E-019
 -4.805309480665429E-019
  6.419225157417003E-019
 -1.075943784501050E-019
  7.044209749786467E-020
 -1.788527107188301E-019
 -8.567324567664221E-020
  3.325091992399649E-018
 -1.172985713949848E-018
  1.529496084741163E-018
 -1.598903238020489E-018
 -4.872795356811118E-019
  2.302011956313012E-019
  1.337642220708452E-018
 -1.025411534359439E-018
 -5.367768416041761E-019
  1.282212561941683E-018
 -7.578393483282095E-019
 -2.182349865359657E-019
  1.122453463808240E-018
 -3.589004720840092E-019
  1.045700197591179E-018
  7.259632918766209E-019
 -1.136868377216160E-019
 -3.765803245753669E-019
 -1.879913996260967E-019
  2.698021808961230E-019
 -6.092459271511010E-021
  3.715228095224028E-020
 -1.281017511295330E-019
 -1.136868377216159E-020
  2.776430957743009E-018
 -1.921526266942995E-018
  6.168222446608616E-020
  4.567586363036737E-019
  3.881677177952161E-019
  8.484100026300143E-019
 -1.218460449038496E-018
 -2.246320687710520E-018
  4.259175240706289E-019
  1.600535707562209E-018
 -3.441067428006027E-019
  2.060500679929437E-019
  7.625180475056854E-019
 -7.541955933692814E-019
  4.458273714268828E-019
  1.222920438768289E-018
 -3.227831353503152E-019
 -4.629096985950669E-020
  1.865776395320620E-019
  6.880962795614397E-020
 -2.226949762657556E-019
 -7.958078640513121E-020
  1.636215625400526E-019
 -1.250555214937775E-019
 -1.775212540457866E-018
 -4.034281674839357E-019
 -1.110428651693024E-018
  1.964552297719066E-018
  8.627077099981646E-020
 -1.514206333542502E-018
  1.018124024441579E-018
  6.821210263296921E-020
 -1.007731681868077E-018
  5.345468467392838E-019
  7.226983527931800E-019
 -5.590767902531272E-019
  3.128282116721877E-019
 -6.774423271522206E-019
  5.988964849656346E-020
  1.312456148851551E-018
 -1.463791289440662E-019
  1.500228839029959E-019
 -3.363818139873719E-019
 -5.698479487021149E-019
  9.013323540643244E-020
 -1.538853483096119E-019
  3.187605645158973E-020
 -4.019851058799579E-020
 -1.377032347841520E-019
 -3.380616355135308E-019
  1.083938174465926E-018
 -1.234886647863620E-018
  1.208724234808065E-018
 -1.852279220091477E-018
  2.650695894883176E-018
 -1.445236599158558E-018
 -1.191481801212067E-018
  1.563164717162284E-018
 -4.817259987128914E-019
 -5.260056831551889E-019
  1.177066887804153E-018
  2.931370737636204E-019
 -8.698937165081080E-019
 -4.437574829897897E-019
  1.766227158539346E-019
  7.221008274700054E-019
 -4.811284733897167E-019
  2.110489800260246E-020
 -1.613915676751576E-019
 -2.304199050789875E-019
 -2.015900782631533E-019
 -1.664490827281219E-020
 -3.151955737055837E-019
 -1.464378054435632E-018
  1.044246410890197E-018
 -1.823558747999482E-018
  7.508506010719425E-019
 -1.957235486291260E-018
  6.157601026861314E-019
  3.716829159502057E-019
 -5.053225014161083E-020
  2.495135176643811E-019
 -9.736256305515943E-019
  2.391211750908821E-019
  6.851672559654498E-019
 -5.601117344716731E-019
  5.653879589723238E-019
 -6.011264798305297E-019
 -6.375211290317928E-020
  3.185418550682112E-019
 -2.273736754432317E-019
  1.727602514473191E-019
 -4.933719949526227E-020
 -2.326498999438827E-019
 -1.075943784501050E-019
 -5.684341886080800E-020
 -5.575409875092627E-019
  3.647256607708817E-019
  4.619401568354495E-019
  1.724243359598734E-020
  1.163956379766435E-018
 -5.288625048531993E-019
 -1.716452540148713E-019
 -8.341551956499003E-019
 -9.807687366734984E-020
 -1.033296569600474E-018
  4.997846670797385E-019
 -1.328284822353502E-018
  6.459743880860606E-019
 -6.563374291496181E-019
 -3.039082322126078E-019
 -6.616136536502693E-019
 -5.540192752001635E-019
  6.547049596078967E-019
 -3.363818139873723E-019
 -3.516129621661495E-019
 -1.447466594023452E-019
  1.098243733150000E-019
 -4.242850545289090E-020
 -4.019851058799579E-020
 -1.834093672464737E-019
  5.260583976881296E-019
  5.009689926290765E-019
 -2.294542889773339E-019
  1.087829940382488E-018
  8.290683790869945E-019
 -1.401773149487116E-019
 -7.995316722241435E-019
  5.401218339015184E-019
  2.043082437273799E-019
  6.288413092139159E-019
 -3.141619185523211E-019
  7.357288076170014E-019
 -1.705302565824248E-020
 -8.262701604088657E-020
  1.868549519996329E-020
 -6.279157197192126E-019
 -2.432023489451829E-019
 -2.842170943040395E-020
  2.314548492975343E-020
 -4.629096985950686E-020
  0.000000000000000E+000
  0.000000000000000E+000
 -1.441491340791709E-020
  7.180216164446821E-019
 -6.117483620099409E-019
  3.207462111119074E-020
  2.123866125641197E-019
  2.452976132342568E-019
 -3.253118928767973E-019
 -2.652328364424895E-019
 -2.362136016889107E-019
  1.025368633971411E-020
  2.773084002616693E-019
  1.738752488797665E-019
 -1.055244900130117E-020
  7.074086015945175E-020
 -6.612055362648377E-019
  7.803873079347899E-019
  8.142746498035905E-019
  3.257200102622275E-019
 -1.826058204016030E-019
 -3.319218242575818E-019
  1.224352156290649E-021
  1.659609121287907E-019
 -5.379718922505250E-020
 -1.030250339964718E-019
  6.516587299721403E-020
 -9.753401161361975E-019
 -4.091979251324217E-019
 -2.020823431220165E-019
  7.468040912760846E-019
 -5.046420490979502E-019
  7.962081301208141E-020
 -9.807687366735028E-020
 -1.123050989131419E-018
  5.711816555822481E-019
  4.608398101579767E-019
 -7.400579924289349E-020
 -7.722542617361311E-019
 -2.649340737809015E-019
  3.580041840992479E-019
 -5.278275606346535E-019
 -3.015688826238701E-019
  5.146369993830277E-019
 -7.958078640513111E-020
  7.914336750975931E-021
  1.728696061711625E-019
  1.204861770401446E-019
 -5.276224500650578E-021
  9.437451568853608E-021
 -3.826727838468787E-020
  5.895137107587018E-020
  3.683412271189710E-019
  3.770936432886519E-019
  4.955023787761948E-019
 -2.990801517043391E-019
 -1.115115202186425E-019
 -1.956470003224368E-019
 -3.435092174774288E-019
 -2.080613534101531E-020
 -7.441313149673135E-019
  1.441491340791717E-020
 -1.769214785155224E-019
  9.218690282536927E-019
  7.930603970771452E-019
  2.841077395801970E-019
 -2.987626615870067E-022
 -3.170987934642351E-019
 -1.155087152010811E-019
  1.755077184214879E-019
 -1.523622334917347E-019
  1.235324066759002E-019
  7.876455163427100E-020
 -9.511069724549609E-020
 -5.684341886080812E-020
  3.496343779784059E-019
 -3.559509092461073E-019
 -5.165372302166326E-020
  6.046071841181833E-019
 -3.294531066415262E-019
  3.576107174687875E-019
  1.563141424827792E-021
  2.300117876935566E-019
 -4.407405548639782E-019
 -3.867539577011868E-020
 -5.396043617922442E-019
  1.841289352194809E-019
 -3.050232296450543E-019
 -2.648247190570591E-019
 -2.341730147617604E-019
 -1.454535394493630E-019
 -2.297130250319708E-019
  1.347917357242181E-019
 -5.521094931908699E-020
 -5.793696609923840E-021
 -1.674840269466680E-019
  1.106406080858602E-019
  1.288086311765503E-019
 -5.684341886080792E-021
  5.405226259094648E-019
  2.907913802118857E-019
 -3.084419071299496E-019
  1.118845485806858E-019
  3.760975165245426E-019
 -6.714865612855097E-019
 -3.539523117548874E-019
  2.596031719183299E-019
 -2.431076449763113E-019
  8.758982712497881E-020
 -3.136444464430484E-019
  5.562492700650583E-019
 -3.016782373477117E-019
 -2.341730147617603E-019
 -5.899472039961127E-019
  5.357418973856289E-019
  9.124823283887963E-020
 -3.644540090522295E-020
 -2.265574406723716E-019
  1.785539480572434E-019
  2.273736754432324E-020
 -3.105982168072931E-020
  1.441491340791713E-020
 -2.273736754432322E-020
  6.861289464091430E-020
 -9.019059404260637E-020
 -7.279598719643960E-020
 -6.912201183150347E-021
  1.162575846840308E-019
  2.126160471088145E-020
  1.692658778191836E-019
  3.245103088609096E-019
  1.993054060363371E-019
  2.090015936598272E-019
  8.987449935179607E-020
 -5.721872982908538E-019
 -1.094162559295696E-019
  2.489960455551082E-019
 -2.721415304848615E-019
  2.481798107842476E-019
 -2.819870994391460E-019
  1.932676241267479E-019
 -1.177680115759185E-020
 -2.638112250325369E-021
  1.762145984685050E-019
  2.537547979464853E-020
 -1.954976189916431E-019
  0.000000000000000E+000
  1.754512191553601E-021
  1.887929836419857E-019
 -2.130334527007120E-019
 -4.268562264562648E-020
  2.357727830740178E-020
  5.136313566744222E-020
 -1.938524615239318E-019
 -1.995094647290519E-019
 -3.142566225211939E-019
 -2.249396218856229E-019
  4.324474022375144E-020
 -3.679044304154543E-019
 -3.365790732410389E-020
  9.085476620842113E-020
  5.399031244538334E-019
 -1.306305086560159E-019
 -5.806777101709867E-020
 -1.841289352194806E-019
 -2.305292598028309E-019
 -2.804639846212678E-019
 -3.603435336879870E-019
 -1.594603354718500E-019
 -7.237332970117286E-020
  0.000000000000000E+000
  1.004889510925041E-019
  1.297979232704228E-019
 -1.628288241500925E-019
  7.059196953590369E-020
  2.262071726303608E-019
 -2.038747504899698E-019
 -1.448424152481011E-021
 -1.834474310244430E-020
 -4.684846857573063E-020
 -4.324474022375136E-020
 -4.400629763269021E-020
 -1.049562661997798E-019
  2.192953066064912E-019
 -4.412834028252300E-019
  5.623124278266263E-020
 -4.193222434448167E-019
 -1.738752488797667E-019
  1.007950391315767E-019
  1.984344939035548E-019
  5.309030917803521E-020
  1.838301725578938E-019
  1.405854323341423E-019
 -2.121425272644545E-020
 -5.684341886080800E-021
 -1.335546956419384E-019
 -1.485881290909948E-019
  7.006569992740937E-021
 -1.257150495563592E-019
  4.415067563761506E-020
 -3.680137851392945E-019
  1.529470708889189E-019
  1.047795461880253E-019
  4.684846857573045E-020
  1.140949551070461E-019
  3.458339163111971E-019
  5.216804240012234E-019
 -2.517142110193350E-020
  9.880912956634738E-020
 -6.458250067552667E-019
 -9.323414240410914E-020
 -1.759558624138676E-019
 -7.149480481279678E-019
 -4.867034605519552E-020
  3.146793906615959E-020
 -1.456575981420778E-019
 -9.282602501867929E-020
 -1.288086311765512E-019
 -4.242850545289109E-020
  1.244365459765870E-021
 -1.236244293705200E-019
  5.190696504318592E-020
 -1.542353709980004E-019
  4.252040610309314E-022
  1.521645187620138E-019
 -1.717272700577545E-019
 -3.084702512887545E-019
  1.489625638324705E-019
  1.400826109798406E-019
 -1.420138431831481E-019
 -3.301946507469889E-019
  2.652328364424892E-019
  2.644712790335508E-019
  1.662196481834279E-019
  3.724737748690881E-019
 -1.993054060363380E-019
 -2.244221497763493E-019
  1.600178341880733E-019
  1.837208178340511E-020
 -3.747584470959028E-019
 -1.479422703688951E-019
  3.979039320256571E-020
 -1.136868377216163E-020
  9.009320879948189E-021
 -2.893185616219183E-021
 -1.736912034905267E-020
 -3.180829026209198E-020
  3.465897167178046E-020
 -6.536993168992881E-020
  2.433727249939435E-019
  1.260138122179461E-019
 -2.293795983119368E-019
  1.423819339616290E-020
 -1.662596747903779E-019
  1.353092078334917E-019
  1.169674794369079E-021
 -3.488254685850303E-019
 -2.086081270293676E-020
 -2.625947241921642E-019
  2.736099679408160E-019
 -8.934630214551464E-021
  3.956192597988395E-019
  1.280470737676117E-019
  4.471317767970755E-020
 -7.917266901970094E-020
  2.953670686285147E-020
 -1.365335599897820E-020
  4.973799150320710E-020
 -2.306713157561379E-020
  8.805262187233065E-021
 -1.103704020655489E-019
 -9.699271324884430E-020
 -7.286297242223995E-020
  1.497678105371021E-019
  1.053917222661704E-019
  1.805252068675015E-019
 -1.003395697617105E-019
 -2.045069398715905E-019
 -2.522463338835777E-019
 -1.791114467734666E-019
 -3.771925006535130E-019
 -3.737381536323271E-019
 -2.124012633190906E-019
 -1.055244900130122E-020
  3.603728351979268E-021
  1.881407809568903E-019
 -7.216927100845763E-020
 -6.912304137270205E-020
  1.309585728275451E-020
  3.202543778238330E-020
 -2.273736754432322E-020
  1.632881358200186E-020
 -5.134946632696176E-020
 -2.414478367536303E-020
  3.038479293329627E-021
 -1.027326930718611E-019
 -8.370466814063534E-020
 -3.377555474744538E-019
  7.130568425316092E-020
 -8.102921055761217E-020
 -1.479422703688945E-019
 -4.182365475223118E-020
 -3.856369974397525E-019
  1.907788932072145E-019
  6.232370205417357E-020
 -2.172293438273599E-019
 -3.972917559475108E-019
 -3.014888294099679E-020
  1.481463290616083E-019
 -1.482303079334733E-020
  1.167330673573716E-019
  7.008865747435582E-020
  9.641510261568779E-021
 -8.831135792696753E-020
 -7.369238582633511E-020
  2.870045878851611E-020
 -1.317054794815133E-020
  1.758343104712805E-020
  6.836002064982591E-020
  1.977751542600898E-020
 -4.156675004196616E-020
  5.364414520551658E-020
  2.168973539978702E-021
 -8.140266388459601E-020
  1.800697374976361E-019
  0.000000000000000E+000
 -5.149250369476076E-020
 -2.783760457096811E-019
  5.334171985518632E-020
 -1.725708435095760E-020
 -1.176986834590258E-019
 -1.430194858917526E-019
 -8.485701090578234E-020
  1.055244900130129E-020
 -2.551832087954910E-019
  3.943695317905689E-020
  2.127547033426008E-019
  6.318728880947018E-020
 -8.628542175478781E-021
 -1.487038277778329E-020
 -1.478202277190628E-020
 -4.902744876744675E-020
 -1.634196374798386E-020
  1.887333358253475E-020
  5.723420421701492E-020
  4.861763152225569E-021
  1.586004114052959E-019
 -1.046164955167514E-019
 -2.813402593025540E-019
  9.889114560922938E-020
 -9.186040891702583E-021
  3.046229635755541E-021
  9.368961177397575E-020
  5.194797306462663E-020
  1.474868009990277E-019
  1.189157102378307E-019
  8.262701604088666E-020
  5.572842142836052E-020
  1.591068954483410E-019
  2.283939689068074E-020
  6.491446232006310E-020
  6.783132392850039E-020
  4.631098316298209E-020
 -3.585690081929554E-020
 -3.573619880658907E-020
 -6.566601307726435E-021
 -6.097503450316256E-020
  2.154868492432350E-020
 -1.543471616424734E-019
  1.072017617495269E-019
  3.868808369610773E-021
  2.010936008718463E-019
 -2.665450931285934E-021
 -3.252825913668568E-020
  2.825919501398054E-019
  1.171138460618408E-019
  1.091921839333800E-019
  2.506138643418584E-019
 -5.139047434840320E-020
 -2.507432323691767E-019
 -1.599231302192018E-019
 -1.101851387159947E-019
  1.576130821404059E-020
  7.470535391242558E-020
  1.289179859003937E-020
 -2.814296007229222E-020
 -2.509673043653662E-020
 -6.781765458801932E-020
  8.633545501347572E-021
  4.773481565105913E-020
 -1.417021384341494E-019
 -8.211095031104418E-020
  3.548204111288060E-020
 -1.210573450968473E-019
 -5.624491212314287E-020
 -1.043204141294160E-019
 -6.626720108918116E-020
  7.899594900794629E-020
 -1.262998869535429E-019
 -1.709857259522893E-019
 -1.910630051138313E-020
 -2.928529618570032E-020
 -1.513419400281581E-019
 -1.888203223229463E-019
  1.062206449630203E-019
 -1.119323255300621E-019
 -2.733868096077109E-023
  8.153203191191387E-020
 -6.232370205417357E-020
 -2.773484268686183E-020
  2.585828784547533E-020
 -3.257109850249823E-020
  2.837069475722534E-020
  6.739568825079185E-021
 -8.444549262080832E-020
 -1.922956552543037E-020
  3.036477962982098E-020
 -9.164817491694396E-020
 -1.934406814497598E-019
  2.363829963231807E-020
  1.592225941351797E-019
  1.683896031378972E-020
  1.106679467668222E-019
  1.895545410509252E-019
 -2.820818034080171E-019
 -1.064520423366971E-019
  1.406147338440847E-020
 -1.164743313027353E-020
 -4.494653788236512E-021
 -3.590791549247469E-020
  7.150974294587687E-020
  4.567879378136175E-020
  5.674138951445070E-020
 -3.996711321432025E-020
 -4.922784477141980E-021
 -5.196530509384988E-021
  2.349050429227316E-020
  1.732685668347361E-019
 -2.274295138309630E-020
 -3.138537538152562E-020
  8.488184792380824E-020
  8.300596340098472E-020
 -3.149161505837755E-020
  6.935443874637825E-020
 -6.268080476642517E-020
  3.723697826937476E-020
 -1.270614443624825E-019
 -7.275410840564175E-020
  6.167149936907767E-021
 -3.365058194661859E-020
 -5.657003205120056E-021
 -5.394657055584630E-020
 -1.989519660128279E-020
 -1.799130307893559E-020
  1.086620238981166E-019
 -2.156769274995411E-020
  2.651781590805683E-020
  5.405592527968918E-021
  3.812790370563192E-020
 -2.610652654112916E-020
 -3.791292268899331E-020
 -7.362864815406392E-020
 -5.086284444332735E-020
 -7.113738490239572E-020
 -2.362737730839463E-020
  2.111222338008779E-020
 -5.356445121425063E-020
  1.618033477493301E-019
  7.256371905340738E-020
 -1.556462044641599E-019
  1.297879166186847E-019
  1.368660052953244E-019
  1.499975080510165E-020
  6.628087042966141E-020
 -1.804505162021046E-019
 -2.000669634452743E-019
 -1.756024223903589E-019
  5.126110632108484E-020
 -4.501926571878011E-020
 -9.097314616951048E-020
  5.717318289209837E-020
  5.764232160244531E-020
 -1.126665442580402E-020
  4.263256414560630E-021
 -6.755739828494004E-021
 -6.705373374288028E-020
  2.100204726736864E-020
  3.778281860080736E-021
 -5.372658621333926E-020
 -8.224257464767427E-020
 -5.522510936681289E-020
 -1.656684934301990E-019
 -1.944709815650723E-019
  6.303424478993394E-020
 -8.322454136406158E-021
 -6.724648653131576E-020
  9.213915827513752E-020
  5.670672545600469E-021
  2.377767431137394E-020
 -1.319056125162669E-021
  6.757625056260650E-020
 -2.985646424240477E-020
 -6.543095301484594E-020
  3.620033419106686E-020
 -5.677873484714889E-020
 -2.036433531162930E-020
 -2.268635287114452E-020
  2.316574358685118E-020
  6.643483012138367E-020
 -1.398618577053111E-020
  3.272923785551183E-020
  1.124114708921465E-020
  1.230787686504045E-020
 -3.574303347682897E-020
  5.922328576374181E-020
 -6.028043385277034E-020
 -5.181494234856573E-020
 -2.258432352478675E-020
  1.099437346905811E-019
  1.826431657343017E-019
 -1.095392799938932E-019
 -1.848768232879398E-019
  1.729442968365595E-020
 -4.751800329004958E-020
 -1.839942046436577E-020
 -2.880248813487338E-020
  3.503065939669767E-020
  8.971975547249803E-021
 -3.305207520895380E-020
 -4.376123091853409E-020
  1.577131486577811E-020
 -4.092327030598797E-020
  3.088606938579031E-020
 -1.086849682333657E-019
 -2.958192521478729E-020
 -5.014928087013442E-020
  1.482028377679021E-020
 -7.462530069852373E-021
 -3.704842026151095E-020
  2.185815918892341E-019
 -2.059553640240707E-019
  5.812512965327175E-020
  1.999612714101750E-019
 -2.729231011972733E-019
 -1.589165060961065E-019
 -2.054471801212632E-020
  5.863527638505989E-020
  6.282652340847631E-020
 -5.956989111701002E-020
  8.733207248483264E-020
 -4.618527782440653E-020
 -9.183673292480727E-020
 -3.764509565480466E-020
 -7.917999439718596E-021
  6.369377285251467E-021
 -7.155610698901902E-021
 -1.137784430790742E-020
  7.884253915992598E-020
 -5.413516143486199E-020
 -4.993429985349624E-020
 -3.144743505543907E-020
  2.659616926219647E-020
 -3.351621059343158E-020
 -3.488445004740135E-020
 -1.548473017225237E-019
 -9.413507449210490E-020
 -3.008419892733787E-020
 -7.000396015722154E-020
 -1.088287372581332E-019
 -7.444027389479368E-020
 -2.628105598587568E-021
 -7.105061088726721E-020
  1.017196472117902E-019
  5.036017423309023E-020
  3.452417535365265E-020
  5.717318289209858E-020
  4.367287091265694E-020
  2.323201359125937E-020
  4.504660439974142E-022
 -2.863245150179213E-020
 -1.961815591073114E-020
 -3.708622343030243E-020
 -3.179587175307897E-020
 -5.270305502596172E-021
  3.947930183762446E-020
 -5.485800000282386E-020
 -2.772983936099301E-020
  2.702796263984488E-021
  3.522971476354420E-020
  6.659964639472392E-021
 -1.372467839997948E-019
 -1.067717997162496E-019
 -2.029598860922752E-021
 -3.121652838900864E-020
 -8.402076283144670E-020
 -5.420530661048275E-020
 -5.556170806834377E-020
  1.925934453091955E-020
  2.456290771253100E-020
 -6.427861024969983E-020
 -1.810016709553344E-020
 -1.619627357318618E-020
 -4.504660439974103E-022
 -3.022613660773350E-020
 -2.880431947924487E-021
 -3.105664969923169E-021
 -5.608527878698910E-020
 -3.232469115121567E-020
 -1.246474041083470E-019
 -3.633287419988234E-020
  6.566601307726348E-021
  2.797990940101780E-021
 -1.228286986103786E-019
 -7.943506776307990E-021
 -7.238333635290985E-020
 -3.352121391930029E-020
 -1.923566853870136E-020
 -1.169844780345218E-020
 -8.285108803707634E-021
 -1.174536167448685E-019
  3.391566196424986E-020
 -1.662123228059407E-020
  3.343285391342277E-020
 -2.421630235926222E-020
 -1.966746191634956E-021
 -4.249587074080191E-022
 -8.057374118774550E-022
  1.051521167139764E-019
 -7.143688362485098E-021
 -1.031519003608559E-019
 -8.742043249071041E-020
 -3.653784856478345E-020
 -4.910714275871245E-020
  2.915592815838217E-020
 -8.932432601305849E-020
  6.680285515755840E-020
 -5.068310359414082E-020
  1.583599887943727E-020
  3.089493966508404E-020
  2.837069475722519E-020
 -3.603728351979308E-021
  1.131766909898289E-020
 -5.735356559259598E-021
  8.285108803707769E-021
 -4.745331927639070E-020
 -7.942090771535525E-020
 -1.114595241309732E-020
 -1.188883715568699E-020
 -3.527206342211114E-021
  7.270309373246349E-021
  7.222712035187708E-021
  5.014177588133138E-020
 -2.248912884866959E-021
 -1.102411567150413E-019
  6.522530833138245E-020
 -3.234494980831384E-020
  5.110122763130833E-020
  1.461714075626083E-020
 -3.246223448590032E-020
  5.855692303092118E-020
 -1.976265659246720E-020
  5.500787204086312E-021
  8.654049512068207E-021
  7.586319071068556E-020
  2.433700437196922E-020
  6.067488189772046E-020
  6.162682865889445E-020
 -9.077667582348937E-022
 -5.604951944503956E-020
 -6.547928641377229E-021
 -4.034789191878943E-020
  4.317933776482443E-022
  2.271186020773414E-020
  8.894537865296013E-021
 -5.719185555844828E-021
  6.464571961368879E-021
  9.423111909810166E-021
 -6.679785183168889E-020
  4.362344223022613E-020
  5.721052822479666E-020
 -3.190290442530496E-020
  4.436313737572138E-022
  6.153480596427371E-021
  8.981897205999286E-020
 -3.108215703582126E-020
 -7.488573661292238E-020
 -1.063891896674084E-019
 -3.871774442868531E-020
 -8.209319331688051E-020
  9.046666212646504E-021
 -3.002818092829001E-020
 -5.632326547728266E-020
  0.000000000000000E+000
  2.010926194573542E-021
  5.398757857728688E-021
 -1.687630564648786E-020
 -3.881293910480214E-020
 -2.401224366654720E-020
 -9.129107220469163E-021
  3.856811774426915E-020
 -3.898965911655684E-020
 -2.737460322430874E-022
 -9.616967667889579E-020
 -1.134817976144088E-020
  2.389154165384049E-020
  1.730626767976478E-020
 -4.916682344650238E-020
 -5.670404418175179E-020
  1.256203455874865E-021
 -1.754083703493812E-020
  2.233108150326439E-020
  1.542287816813823E-020
 -5.760863895848944E-021
 -7.124100023950188E-021
 -9.104515556065502E-021
 -4.046859393149574E-020
 -7.079920021011568E-021
  3.717595694445837E-021
  1.237164520651399E-020
  1.593619688142349E-020
 -9.799557606973856E-022
  9.918673628931957E-021
 -6.772245991190224E-021
  9.977340503087517E-020
  9.825064943563460E-021
  4.509663765842853E-021
 -3.947930183762471E-020
 -2.851006943628132E-020
  7.360500723494887E-021
  9.884745631353624E-021
  5.830060528131198E-022
 -5.550385872492471E-020
 -2.599766252453152E-020
 -3.038845562203894E-020
  2.603000453136102E-020
  3.397851463353781E-020
 -1.377222666731362E-020
  3.194208110237488E-020
  1.192801383275668E-020
  4.093773264184244E-020
 -6.039613253960846E-021
  2.417212235632393E-021
 -6.966052678545082E-021
 -6.845350665838314E-021
  7.314489376184915E-021
 -7.600073404537042E-021
 -7.589028403802351E-021
  2.972209288921724E-020
  4.395162027076837E-020
  1.196991122946172E-019
 -7.295633575398543E-020
  3.848317507351207E-020
 -7.356668048775963E-020
 -2.726070065064671E-020
  2.974076555556662E-020
  1.163559513416453E-020
 -4.619711582051557E-020
 -5.405592527968939E-021
  2.353627028596046E-020
 -3.360457059930861E-020
 -4.899010343474886E-020
 -2.759046468193714E-020
  1.515596680613540E-020
 -3.949797450397359E-020
 -1.053743902369475E-020
  2.937365619157768E-021
 -1.351398131992237E-021
  1.816301976482113E-020
  7.977434773886356E-021
 -1.434089306108330E-020
 -4.807208467115359E-021
 -2.137230007185066E-020
 -9.713028945468105E-021
  6.842116465155320E-020
  4.805499799555323E-020
  4.311537219643330E-020
 -4.356583824043057E-020
  5.953254578431163E-020
  7.544055405489436E-021
 -1.396261601954815E-020
  6.661795983843772E-021
  1.657021760741525E-020
 -1.725525300658625E-020
  7.428847425895991E-022
  2.514774510971530E-020
  2.311131157855256E-020
  3.666581021267119E-021
 -4.625362452680890E-021
  1.219309385038832E-020
  1.801864175989644E-021
 -5.329070518200771E-022
 -2.785237271807109E-021
 -1.389634601514045E-020
  7.305153043010363E-021
  3.149844972861774E-021
  3.463804269611937E-020
  3.918688313903147E-020
 -6.187323601017598E-020
  1.986968926469349E-020
  2.061757733315192E-020
 -6.982357745672436E-020
  4.597621580582262E-020
 -1.899426451328784E-020
  2.228690150032580E-020
 -2.927162684521986E-020
  4.644035119030019E-021
  2.282572755020021E-020
  0.000000000000000E+000
  0.000000000000000E+000
  2.962872955747140E-021
 -3.994513708186322E-022
  2.009742394962653E-020
 -2.461392238570966E-021
  1.325890795402842E-021
  6.870858002427709E-021
  2.434542503295803E-020
  1.006146564310789E-020
  3.682752024681788E-021
 -1.681162163282893E-021
 -3.390882729400997E-020
  5.050321160088866E-021
  2.417529433782128E-020
 -5.360679987281782E-020
  5.060658158437229E-020
 -4.322240486865892E-020
 -1.699517631482345E-020
  3.191657376578571E-020
 -1.105759240722016E-020
 -3.125704570320444E-020
 -1.718556566705821E-020
  1.261805255779635E-020
 -1.344929730626310E-020
  1.373488133461520E-020
 -2.787604871028929E-020
 -3.933492383269964E-021
 -1.290363658614836E-020
 -1.885488983423205E-020
 -1.903893522347197E-022
  1.928485186750889E-021
 -1.024251866216809E-020
 -3.115001303097788E-021
 -3.888854544238515E-021
  1.314845794668188E-021
 -3.044630496545762E-020
 -3.520371671970890E-021
  2.755995401947893E-020
 -2.800358539323617E-020
 -4.716090057779810E-020
  2.393572165677895E-020
 -6.188690535065668E-020
 -2.643445922804846E-020
  3.222766513072695E-020
  1.473100809872742E-020
 -4.033605392268039E-020
  1.480753010849557E-020
 -3.297640312906603E-022
  2.252330219987047E-021
 -5.405592527968913E-021
  1.660255961424500E-020
  2.254697819208850E-020
  9.255728231230487E-021
 -2.661117923980281E-021
  1.046775168416681E-020
 -3.800036702268501E-021
 -7.802300752880722E-022
 -4.807208467115360E-021
 -2.723177597893738E-021
  4.667308920110224E-020
 -4.601356113852093E-020
  4.622262315710458E-020
 -4.973799150320666E-021
 -8.146417591675787E-020
  4.857698272344954E-020
  2.651781590805673E-021
 -2.612519920747818E-020
  5.643713281974880E-020
 -2.439302237101660E-020
 -1.018216765581463E-020
  5.711680567041588E-022
 -5.164188502555376E-021
 -2.870045878851572E-020
  6.014105917371427E-021
  0.000000000000000E+000
 -1.354449198238040E-020
  1.686263630600756E-020
  9.741037944991896E-021
  6.134807930078204E-021
  7.790462756771658E-021
  3.007052958685749E-021
 -2.415503568072315E-021
 -1.065814103640146E-021
  3.510901275083713E-020
 -2.014343529693637E-020
  2.653148524853704E-020
 -3.647908354917834E-021
 -8.078597518782680E-020
  7.128884293118278E-020
 -2.702796263984444E-021
 -1.189567182592713E-020
  4.810784401310258E-020
 -4.859931807854179E-021
  1.499108479049008E-020
  2.867678279629755E-021
  4.288763751149971E-021
 -8.526512829121217E-021
 -3.051232961624320E-021
  2.842170943040410E-021
 -1.397628536002863E-020
  5.563639873374010E-021
 -2.880431947924461E-021
 -8.916627866765181E-021
 -1.018216765581469E-021
  6.281017279374350E-022
 -2.569340582982999E-021
 -1.873885598811258E-021
SCALARS elementIsPlast double 
LOOKUP_TABLE default
  0.000000000000000E+000
  0.000000000000000E+000
  0.000000000000000E+000
  0.000000000000000E+000
  0.000000000000000E+000
  0.000000000000000E+000
  0.000000000000000E+000
  0.000000000000000E+000
  0.000000000000000E+000
  0.000000000000000E+000
  0.000000000000000E+000
  0.000000000000000E+000
  0.000000000000000E+000
  0.000000000000000E+000
  0.000000000000000E+000
  0.000000000000000E+000
  0.000000000000000E+000
  0.000000000000000E+000
  0.000000000000000E+000
  0.000000000000000E+000
  0.000000000000000E+000
  0.000000000000000E+000
  0.000000000000000E+000
  0.000000000000000E+000
  0.000000000000000E+000
  0.000000000000000E+000
  0.000000000000000E+000
  0.000000000000000E+000
  0.000000000000000E+000
  0.000000000000000E+000
  0.000000000000000E+000
  0.000000000000000E+000
  0.000000000000000E+000
  0.000000000000000E+000
  0.000000000000000E+000
  0.000000000000000E+000
  0.000000000000000E+000
  0.000000000000000E+000
  0.000000000000000E+000
  0.000000000000000E+000
  0.000000000000000E+000
  0.000000000000000E+000
  0.000000000000000E+000
  0.000000000000000E+000
  0.000000000000000E+000
  0.000000000000000E+000
  0.000000000000000E+000
  0.000000000000000E+000
  0.000000000000000E+000
  0.000000000000000E+000
  0.000000000000000E+000
  0.000000000000000E+000
  0.000000000000000E+000
  0.000000000000000E+000
  0.000000000000000E+000
  0.000000000000000E+000
  0.000000000000000E+000
  0.000000000000000E+000
  0.000000000000000E+000
  0.000000000000000E+000
  0.000000000000000E+000
  0.000000000000000E+000
  0.000000000000000E+000
  0.000000000000000E+000
  0.000000000000000E+000
  0.000000000000000E+000
  0.000000000000000E+000
  0.000000000000000E+000
  0.000000000000000E+000
  0.000000000000000E+000
  0.000000000000000E+000
  0.000000000000000E+000
  0.000000000000000E+000
  0.000000000000000E+000
  0.000000000000000E+000
  0.000000000000000E+000
  0.000000000000000E+000
  0.000000000000000E+000
  0.000000000000000E+000
  0.000000000000000E+000
  0.000000000000000E+000
  0.000000000000000E+000
  0.000000000000000E+000
  0.000000000000000E+000
  0.000000000000000E+000
  0.000000000000000E+000
  0.000000000000000E+000
  0.000000000000000E+000
  0.000000000000000E+000
  0.000000000000000E+000
  0.000000000000000E+000
  0.000000000000000E+000
  0.000000000000000E+000
  0.000000000000000E+000
  0.000000000000000E+000
  0.000000000000000E+000
  0.000000000000000E+000
  0.000000000000000E+000
  0.000000000000000E+000
  0.000000000000000E+000
  0.000000000000000E+000
  0.000000000000000E+000
  0.000000000000000E+000
  0.000000000000000E+000
  0.000000000000000E+000
  0.000000000000000E+000
  0.000000000000000E+000
  0.000000000000000E+000
  0.000000000000000E+000
  0.000000000000000E+000
  0.000000000000000E+000
  0.000000000000000E+000
  0.000000000000000E+000
  0.000000000000000E+000
  0.000000000000000E+000
  0.000000000000000E+000
  0.000000000000000E+000
  0.000000000000000E+000
  0.000000000000000E+000
  0.000000000000000E+000
  0.000000000000000E+000
  0.000000000000000E+000
  0.000000000000000E+000
  0.000000000000000E+000
  0.000000000000000E+000
  0.000000000000000E+000
  0.000000000000000E+000
  0.000000000000000E+000
  0.000000000000000E+000
  0.000000000000000E+000
  0.000000000000000E+000
  0.000000000000000E+000
  0.000000000000000E+000
  0.000000000000000E+000
  0.000000000000000E+000
  0.000000000000000E+000
  0.000000000000000E+000
  0.000000000000000E+000
  0.000000000000000E+000
  0.000000000000000E+000
  0.000000000000000E+000
  0.000000000000000E+000
  0.000000000000000E+000
  0.000000000000000E+000
  0.000000000000000E+000
  0.000000000000000E+000
  0.000000000000000E+000
  0.000000000000000E+000
  0.000000000000000E+000
  0.000000000000000E+000
  0.000000000000000E+000
  0.000000000000000E+000
  0.000000000000000E+000
  0.000000000000000E+000
  0.000000000000000E+000
  0.000000000000000E+000
  0.000000000000000E+000
  0.000000000000000E+000
  0.000000000000000E+000
  0.000000000000000E+000
  0.000000000000000E+000
  0.000000000000000E+000
  0.000000000000000E+000
  0.000000000000000E+000
  0.000000000000000E+000
  0.000000000000000E+000
  0.000000000000000E+000
  0.000000000000000E+000
  0.000000000000000E+000
  0.000000000000000E+000
  0.000000000000000E+000
  0.000000000000000E+000
  0.000000000000000E+000
  0.000000000000000E+000
  0.000000000000000E+000
  0.000000000000000E+000
  0.000000000000000E+000
  0.000000000000000E+000
  0.000000000000000E+000
  0.000000000000000E+000
  0.000000000000000E+000
  0.000000000000000E+000
  0.000000000000000E+000
  0.000000000000000E+000
  0.000000000000000E+000
  0.000000000000000E+000
  0.000000000000000E+000
  0.000000000000000E+000
  0.000000000000000E+000
  0.000000000000000E+000
  0.000000000000000E+000
  0.000000000000000E+000
  0.000000000000000E+000
  0.000000000000000E+000
  0.000000000000000E+000
  0.000000000000000E+000
  0.000000000000000E+000
  0.000000000000000E+000
  0.000000000000000E+000
  0.000000000000000E+000
  0.000000000000000E+000
  0.000000000000000E+000
  0.000000000000000E+000
  0.000000000000000E+000
  0.000000000000000E+000
  0.000000000000000E+000
  0.000000000000000E+000
  0.000000000000000E+000
  0.000000000000000E+000
  0.000000000000000E+000
  0.000000000000000E+000
  0.000000000000000E+000
  0.000000000000000E+000
  0.000000000000000E+000
  0.000000000000000E+000
  0.000000000000000E+000
  0.000000000000000E+000
  0.000000000000000E+000
  0.000000000000000E+000
  0.000000000000000E+000
  0.000000000000000E+000
  0.000000000000000E+000
  0.000000000000000E+000
  0.000000000000000E+000
  0.000000000000000E+000
  0.000000000000000E+000
  0.000000000000000E+000
  0.000000000000000E+000
  0.000000000000000E+000
  0.000000000000000E+000
  0.000000000000000E+000
  0.000000000000000E+000
  0.000000000000000E+000
  0.000000000000000E+000
  0.000000000000000E+000
  0.000000000000000E+000
  0.000000000000000E+000
  0.000000000000000E+000
  0.000000000000000E+000
  0.000000000000000E+000
  0.000000000000000E+000
  0.000000000000000E+000
  0.000000000000000E+000
  0.000000000000000E+000
  0.000000000000000E+000
  0.000000000000000E+000
  0.000000000000000E+000
  0.000000000000000E+000
  0.000000000000000E+000
  0.000000000000000E+000
  0.000000000000000E+000
  0.000000000000000E+000
  0.000000000000000E+000
  0.000000000000000E+000
  0.000000000000000E+000
  0.000000000000000E+000
  0.000000000000000E+000
  0.000000000000000E+000
  0.000000000000000E+000
  0.000000000000000E+000
  0.000000000000000E+000
  0.000000000000000E+000
  0.000000000000000E+000
  0.000000000000000E+000
  0.000000000000000E+000
  0.000000000000000E+000
  0.000000000000000E+000
  0.000000000000000E+000
  0.000000000000000E+000
  0.000000000000000E+000
  0.000000000000000E+000
  0.000000000000000E+000
  0.000000000000000E+000
  0.000000000000000E+000
  0.000000000000000E+000
  0.000000000000000E+000
  0.000000000000000E+000
  0.000000000000000E+000
  0.000000000000000E+000
  0.000000000000000E+000
  0.000000000000000E+000
  0.000000000000000E+000
  0.000000000000000E+000
  0.000000000000000E+000
  0.000000000000000E+000
  0.000000000000000E+000
  0.000000000000000E+000
  0.000000000000000E+000
  0.000000000000000E+000
  0.000000000000000E+000
  0.000000000000000E+000
  0.000000000000000E+000
  0.000000000000000E+000
  0.000000000000000E+000
  0.000000000000000E+000
  0.000000000000000E+000
  0.000000000000000E+000
  0.000000000000000E+000
  0.000000000000000E+000
  0.000000000000000E+000
  0.000000000000000E+000
  0.000000000000000E+000
  0.000000000000000E+000
  0.000000000000000E+000
  0.000000000000000E+000
  0.000000000000000E+000
  0.000000000000000E+000
  0.000000000000000E+000
  0.000000000000000E+000
  0.000000000000000E+000
  0.000000000000000E+000
  0.000000000000000E+000
  0.000000000000000E+000
  0.000000000000000E+000
  0.000000000000000E+000
  0.000000000000000E+000
  0.000000000000000E+000
  0.000000000000000E+000
  0.000000000000000E+000
  0.000000000000000E+000
  0.000000000000000E+000
  0.000000000000000E+000
  0.000000000000000E+000
  0.000000000000000E+000
  0.000000000000000E+000
  0.000000000000000E+000
  0.000000000000000E+000
  0.000000000000000E+000
  0.000000000000000E+000
  0.000000000000000E+000
  0.000000000000000E+000
  0.000000000000000E+000
  0.000000000000000E+000
  0.000000000000000E+000
  0.000000000000000E+000
  0.000000000000000E+000
  0.000000000000000E+000
  0.000000000000000E+000
  0.000000000000000E+000
  0.000000000000000E+000
  0.000000000000000E+000
  0.000000000000000E+000
  0.000000000000000E+000
  0.000000000000000E+000
  0.000000000000000E+000
  0.000000000000000E+000
  0.000000000000000E+000
  0.000000000000000E+000
  0.000000000000000E+000
  0.000000000000000E+000
  0.000000000000000E+000
  0.000000000000000E+000
  0.000000000000000E+000
  0.000000000000000E+000
  0.000000000000000E+000
  0.000000000000000E+000
  0.000000000000000E+000
  0.000000000000000E+000
  0.000000000000000E+000
  0.000000000000000E+000
  0.000000000000000E+000
  0.000000000000000E+000
  0.000000000000000E+000
  0.000000000000000E+000
  0.000000000000000E+000
  0.000000000000000E+000
  0.000000000000000E+000
  0.000000000000000E+000
  0.000000000000000E+000
  0.000000000000000E+000
  0.000000000000000E+000
  0.000000000000000E+000
  0.000000000000000E+000
  0.000000000000000E+000
  0.000000000000000E+000
  0.000000000000000E+000
  0.000000000000000E+000
  0.000000000000000E+000
  0.000000000000000E+000
  0.000000000000000E+000
  0.000000000000000E+000
  0.000000000000000E+000
  0.000000000000000E+000
  0.000000000000000E+000
  0.000000000000000E+000
  0.000000000000000E+000
  0.000000000000000E+000
  0.000000000000000E+000
  0.000000000000000E+000
  0.000000000000000E+000
  0.000000000000000E+000
  0.000000000000000E+000
  0.000000000000000E+000
  0.000000000000000E+000
  0.000000000000000E+000
  0.000000000000000E+000
  0.000000000000000E+000
  0.000000000000000E+000
  0.000000000000000E+000
  0.000000000000000E+000
  0.000000000000000E+000
  0.000000000000000E+000
  0.000000000000000E+000
  0.000000000000000E+000
  0.000000000000000E+000
  0.000000000000000E+000
  0.000000000000000E+000
  0.000000000000000E+000
  0.000000000000000E+000
  0.000000000000000E+000
  0.000000000000000E+000
  0.000000000000000E+000
  0.000000000000000E+000
  0.000000000000000E+000
  0.000000000000000E+000
  0.000000000000000E+000
  0.000000000000000E+000
  0.000000000000000E+000
  0.000000000000000E+000
  0.000000000000000E+000
  0.000000000000000E+000
  0.000000000000000E+000
  0.000000000000000E+000
  0.000000000000000E+000
  0.000000000000000E+000
  0.000000000000000E+000
  0.000000000000000E+000
  0.000000000000000E+000
  0.000000000000000E+000
  0.000000000000000E+000
  0.000000000000000E+000
  0.000000000000000E+000
  0.000000000000000E+000
  0.000000000000000E+000
  0.000000000000000E+000
  0.000000000000000E+000
  0.000000000000000E+000
  0.000000000000000E+000
  0.000000000000000E+000
  0.000000000000000E+000
  0.000000000000000E+000
  0.000000000000000E+000
  0.000000000000000E+000
  0.000000000000000E+000
  0.000000000000000E+000
  0.000000000000000E+000
  0.000000000000000E+000
  0.000000000000000E+000
  0.000000000000000E+000
  0.000000000000000E+000
  0.000000000000000E+000
  0.000000000000000E+000
  0.000000000000000E+000
  0.000000000000000E+000
  0.000000000000000E+000
  0.000000000000000E+000
  0.000000000000000E+000
  0.000000000000000E+000
  0.000000000000000E+000
  0.000000000000000E+000
  0.000000000000000E+000
  0.000000000000000E+000
  0.000000000000000E+000
  0.000000000000000E+000
  0.000000000000000E+000
  0.000000000000000E+000
  0.000000000000000E+000
  0.000000000000000E+000
  0.000000000000000E+000
  0.000000000000000E+000
  0.000000000000000E+000
  0.000000000000000E+000
  0.000000000000000E+000
  0.000000000000000E+000
  0.000000000000000E+000
  0.000000000000000E+000
  0.000000000000000E+000
  0.000000000000000E+000
  0.000000000000000E+000
  0.000000000000000E+000
  0.000000000000000E+000
  0.000000000000000E+000
  0.000000000000000E+000
  0.000000000000000E+000
  0.000000000000000E+000
  0.000000000000000E+000
  0.000000000000000E+000
  0.000000000000000E+000
  0.000000000000000E+000
  0.000000000000000E+000
  0.000000000000000E+000
  0.000000000000000E+000
  0.000000000000000E+000
  0.000000000000000E+000
  0.000000000000000E+000
  0.000000000000000E+000
  0.000000000000000E+000
  0.000000000000000E+000
  0.000000000000000E+000
  0.000000000000000E+000
  0.000000000000000E+000
  0.000000000000000E+000
  0.000000000000000E+000
  0.000000000000000E+000
  0.000000000000000E+000
  0.000000000000000E+000
  0.000000000000000E+000
  0.000000000000000E+000
  0.000000000000000E+000
  0.000000000000000E+000
  0.000000000000000E+000
  0.000000000000000E+000
  0.000000000000000E+000
  0.000000000000000E+000
  0.000000000000000E+000
  0.000000000000000E+000
  0.000000000000000E+000
  0.000000000000000E+000
  0.000000000000000E+000
  0.000000000000000E+000
  0.000000000000000E+000
  0.000000000000000E+000
  0.000000000000000E+000
  0.000000000000000E+000
  0.000000000000000E+000
  0.000000000000000E+000
  0.000000000000000E+000
  0.000000000000000E+000
  0.000000000000000E+000
  0.000000000000000E+000
  0.000000000000000E+000
  0.000000000000000E+000
  0.000000000000000E+000
  0.000000000000000E+000
  0.000000000000000E+000
  0.000000000000000E+000
  0.000000000000000E+000
  0.000000000000000E+000
  0.000000000000000E+000
  0.000000000000000E+000
  0.000000000000000E+000
  0.000000000000000E+000
  0.000000000000000E+000
  0.000000000000000E+000
  0.000000000000000E+000
  0.000000000000000E+000
  0.000000000000000E+000
  0.000000000000000E+000
  0.000000000000000E+000
  0.000000000000000E+000
  0.000000000000000E+000
  0.000000000000000E+000
  0.000000000000000E+000
  0.000000000000000E+000
  0.000000000000000E+000
  0.000000000000000E+000
  0.000000000000000E+000
  0.000000000000000E+000
  0.000000000000000E+000
  0.000000000000000E+000
  0.000000000000000E+000
  0.000000000000000E+000
  0.000000000000000E+000
  0.000000000000000E+000
  0.000000000000000E+000
  0.000000000000000E+000
  0.000000000000000E+000
  0.000000000000000E+000
  0.000000000000000E+000
  0.000000000000000E+000
  0.000000000000000E+000
  0.000000000000000E+000
  0.000000000000000E+000
  0.000000000000000E+000
  0.000000000000000E+000
  0.000000000000000E+000
  0.000000000000000E+000
  0.000000000000000E+000
  0.000000000000000E+000
  0.000000000000000E+000
  0.000000000000000E+000
  0.000000000000000E+000
  0.000000000000000E+000
  0.000000000000000E+000
  0.000000000000000E+000
  0.000000000000000E+000
  0.000000000000000E+000
  0.000000000000000E+000
  0.000000000000000E+000
  0.000000000000000E+000
  0.000000000000000E+000
  0.000000000000000E+000
  0.000000000000000E+000
  0.000000000000000E+000
  0.000000000000000E+000
  0.000000000000000E+000
  0.000000000000000E+000
  0.000000000000000E+000
  0.000000000000000E+000
  0.000000000000000E+000
  0.000000000000000E+000
  0.000000000000000E+000
  0.000000000000000E+000
  0.000000000000000E+000
  0.000000000000000E+000
  0.000000000000000E+000
  0.000000000000000E+000
  0.000000000000000E+000
  0.000000000000000E+000
  0.000000000000000E+000
  0.000000000000000E+000
  0.000000000000000E+000
  0.000000000000000E+000
  0.000000000000000E+000
  0.000000000000000E+000
  0.000000000000000E+000
  0.000000000000000E+000
  0.000000000000000E+000
  0.000000000000000E+000
  0.000000000000000E+000
  0.000000000000000E+000
  0.000000000000000E+000
  0.000000000000000E+000
  0.000000000000000E+000
  0.000000000000000E+000
  0.000000000000000E+000
  0.000000000000000E+000
  0.000000000000000E+000
  0.000000000000000E+000
  0.000000000000000E+000
  0.000000000000000E+000
  0.000000000000000E+000
  0.000000000000000E+000
  0.000000000000000E+000
  0.000000000000000E+000
  0.000000000000000E+000
  0.000000000000000E+000
  0.000000000000000E+000
  0.000000000000000E+000
  0.000000000000000E+000
  0.000000000000000E+000
  0.000000000000000E+000
  0.000000000000000E+000
  0.000000000000000E+000
  0.000000000000000E+000
  0.000000000000000E+000
  0.000000000000000E+000
  0.000000000000000E+000
  0.000000000000000E+000
  0.000000000000000E+000
  0.000000000000000E+000
  0.000000000000000E+000
  0.000000000000000E+000
  0.000000000000000E+000
  0.000000000000000E+000
  0.000000000000000E+000
  0.000000000000000E+000
  0.000000000000000E+000
  0.000000000000000E+000
  0.000000000000000E+000
  0.000000000000000E+000
  0.000000000000000E+000
  0.000000000000000E+000
  0.000000000000000E+000
  0.000000000000000E+000
  0.000000000000000E+000
  0.000000000000000E+000
  0.000000000000000E+000
  0.000000000000000E+000
  0.000000000000000E+000
  0.000000000000000E+000
  0.000000000000000E+000
  0.000000000000000E+000
  0.000000000000000E+000
  0.000000000000000E+000
  0.000000000000000E+000
  0.000000000000000E+000
  0.000000000000000E+000
  0.000000000000000E+000
  0.000000000000000E+000
  0.000000000000000E+000
  0.000000000000000E+000
  0.000000000000000E+000
  0.000000000000000E+000
  0.000000000000000E+000
  0.000000000000000E+000
  0.000000000000000E+000
  0.000000000000000E+000
  0.000000000000000E+000
  0.000000000000000E+000
  0.000000000000000E+000
  0.000000000000000E+000
  0.000000000000000E+000
  0.000000000000000E+000
  0.000000000000000E+000
  0.000000000000000E+000
  0.000000000000000E+000
  0.000000000000000E+000
  0.000000000000000E+000
  0.000000000000000E+000
  0.000000000000000E+000
  0.000000000000000E+000
  0.000000000000000E+000
  0.000000000000000E+000
  0.000000000000000E+000
  0.000000000000000E+000
  0.000000000000000E+000
  0.000000000000000E+000
  0.000000000000000E+000
  0.000000000000000E+000
  0.000000000000000E+000
  0.000000000000000E+000
  0.000000000000000E+000
  0.000000000000000E+000
  0.000000000000000E+000
  0.000000000000000E+000
  0.000000000000000E+000
  0.000000000000000E+000
  0.000000000000000E+000
  0.000000000000000E+000
  0.000000000000000E+000
  0.000000000000000E+000
  0.000000000000000E+000
  0.000000000000000E+000
  0.000000000000000E+000
  0.000000000000000E+000
  0.000000000000000E+000
  0.000000000000000E+000
  0.000000000000000E+000
  0.000000000000000E+000
  0.000000000000000E+000
  0.000000000000000E+000
  0.000000000000000E+000
  0.000000000000000E+000
  0.000000000000000E+000
  0.000000000000000E+000
  0.000000000000000E+000
  0.000000000000000E+000
  0.000000000000000E+000
  0.000000000000000E+000
  0.000000000000000E+000
  0.000000000000000E+000
  0.000000000000000E+000
  0.000000000000000E+000
  0.000000000000000E+000
  0.000000000000000E+000
  0.000000000000000E+000
  0.000000000000000E+000
  0.000000000000000E+000
  0.000000000000000E+000
  0.000000000000000E+000
  0.000000000000000E+000
  0.000000000000000E+000
  0.000000000000000E+000
  0.000000000000000E+000
  0.000000000000000E+000
  0.000000000000000E+000
  0.000000000000000E+000
  0.000000000000000E+000
  0.000000000000000E+000
  0.000000000000000E+000
  0.000000000000000E+000
  0.000000000000000E+000
  0.000000000000000E+000
  0.000000000000000E+000
  0.000000000000000E+000
  0.000000000000000E+000
  0.000000000000000E+000
  0.000000000000000E+000
  0.000000000000000E+000
  0.000000000000000E+000
  0.000000000000000E+000
  0.000000000000000E+000
  0.000000000000000E+000
  0.000000000000000E+000
  0.000000000000000E+000
  0.000000000000000E+000
  0.000000000000000E+000
  0.000000000000000E+000
  0.000000000000000E+000
  0.000000000000000E+000
  0.000000000000000E+000
  0.000000000000000E+000
  0.000000000000000E+000
  0.000000000000000E+000
  0.000000000000000E+000
  0.000000000000000E+000
  0.000000000000000E+000
  0.000000000000000E+000
  0.000000000000000E+000
  0.000000000000000E+000
  0.000000000000000E+000
  0.000000000000000E+000
  0.000000000000000E+000
  0.000000000000000E+000
  0.000000000000000E+000
  0.000000000000000E+000
  0.000000000000000E+000
  0.000000000000000E+000
  0.000000000000000E+000
  0.000000000000000E+000
  0.000000000000000E+000
  0.000000000000000E+000
  0.000000000000000E+000
  0.000000000000000E+000
  0.000000000000000E+000
  0.000000000000000E+000
  0.000000000000000E+000
  0.000000000000000E+000
  0.000000000000000E+000
  0.000000000000000E+000
  0.000000000000000E+000
  0.000000000000000E+000
  0.000000000000000E+000
  0.000000000000000E+000
  0.000000000000000E+000
  0.000000000000000E+000
  0.000000000000000E+000
  0.000000000000000E+000
  0.000000000000000E+000
  0.000000000000000E+000
  0.000000000000000E+000
  0.000000000000000E+000
  0.000000000000000E+000
  0.000000000000000E+000
  0.000000000000000E+000
  0.000000000000000E+000
  0.000000000000000E+000
  0.000000000000000E+000
  0.000000000000000E+000
  0.000000000000000E+000
  0.000000000000000E+000
  0.000000000000000E+000
  0.000000000000000E+000
  0.000000000000000E+000
  0.000000000000000E+000
  0.000000000000000E+000
  0.000000000000000E+000
  0.000000000000000E+000
  0.000000000000000E+000
  0.000000000000000E+000
  0.000000000000000E+000
  0.000000000000000E+000
  0.000000000000000E+000
  0.000000000000000E+000
  0.000000000000000E+000
  0.000000000000000E+000
  0.000000000000000E+000
  0.000000000000000E+000
  0.000000000000000E+000
  0.000000000000000E+000
  0.000000000000000E+000
  0.000000000000000E+000
  0.000000000000000E+000
  0.000000000000000E+000
  0.000000000000000E+000
  0.000000000000000E+000
  0.000000000000000E+000
  0.000000000000000E+000
  0.000000000000000E+000
  0.000000000000000E+000
  0.000000000000000E+000
  0.000000000000000E+000
  0.000000000000000E+000
  0.000000000000000E+000
  0.000000000000000E+000
  0.000000000000000E+000
  0.000000000000000E+000
  0.000000000000000E+000
  0.000000000000000E+000
  0.000000000000000E+000
  0.000000000000000E+000
  0.000000000000000E+000
  0.000000000000000E+000
  0.000000000000000E+000
  0.000000000000000E+000
  0.000000000000000E+000
  0.000000000000000E+000
  0.000000000000000E+000
  0.000000000000000E+000
  0.000000000000000E+000
  0.000000000000000E+000
  0.000000000000000E+000
  0.000000000000000E+000
  0.000000000000000E+000
  0.000000000000000E+000
  0.000000000000000E+000
  0.000000000000000E+000
  0.000000000000000E+000
  0.000000000000000E+000
  0.000000000000000E+000
  0.000000000000000E+000
  0.000000000000000E+000
  0.000000000000000E+000
  0.000000000000000E+000
  0.000000000000000E+000
  0.000000000000000E+000
  0.000000000000000E+000
  0.000000000000000E+000
  0.000000000000000E+000
  0.000000000000000E+000
  0.000000000000000E+000
  0.000000000000000E+000
  0.000000000000000E+000
  0.000000000000000E+000
  0.000000000000000E+000
  0.000000000000000E+000
  0.000000000000000E+000
  0.000000000000000E+000
  0.000000000000000E+000
  0.000000000000000E+000
  0.000000000000000E+000
  0.000000000000000E+000
  0.000000000000000E+000
  0.000000000000000E+000
  0.000000000000000E+000
  0.000000000000000E+000
  0.000000000000000E+000
  0.000000000000000E+000
  0.000000000000000E+000
  0.000000000000000E+000
  0.000000000000000E+000
  0.000000000000000E+000
  0.000000000000000E+000
  0.000000000000000E+000
  0.000000000000000E+000
  0.000000000000000E+000
  0.000000000000000E+000
  0.000000000000000E+000
  0.000000000000000E+000
  0.000000000000000E+000
  0.000000000000000E+000
  0.000000000000000E+000
  0.000000000000000E+000
  0.000000000000000E+000
  0.000000000000000E+000
  0.000000000000000E+000
  0.000000000000000E+000
  0.000000000000000E+000
  0.000000000000000E+000
  0.000000000000000E+000
  0.000000000000000E+000
  0.000000000000000E+000
  0.000000000000000E+000
  0.000000000000000E+000
  0.000000000000000E+000
  0.000000000000000E+000
  0.000000000000000E+000
  0.000000000000000E+000
  0.000000000000000E+000
  0.000000000000000E+000
  0.000000000000000E+000
  0.000000000000000E+000
  0.000000000000000E+000
  0.000000000000000E+000
  0.000000000000000E+000
  0.000000000000000E+000
  0.000000000000000E+000
  0.000000000000000E+000
  0.000000000000000E+000
  0.000000000000000E+000
  0.000000000000000E+000
  0.000000000000000E+000
  0.000000000000000E+000
  0.000000000000000E+000
  0.000000000000000E+000
  0.000000000000000E+000
  0.000000000000000E+000
  0.000000000000000E+000
  0.000000000000000E+000
  0.000000000000000E+000
  0.000000000000000E+000
  0.000000000000000E+000
  0.000000000000000E+000
  0.000000000000000E+000
  0.000000000000000E+000
  0.000000000000000E+000
  0.000000000000000E+000
  0.000000000000000E+000
  0.000000000000000E+000
  0.000000000000000E+000
  0.000000000000000E+000
  0.000000000000000E+000
  0.000000000000000E+000
  0.000000000000000E+000
  0.000000000000000E+000
  0.000000000000000E+000
  0.000000000000000E+000
  0.000000000000000E+000
  0.000000000000000E+000
  0.000000000000000E+000
  0.000000000000000E+000
  0.000000000000000E+000
  0.000000000000000E+000
  0.000000000000000E+000
  0.000000000000000E+000
  0.000000000000000E+000
  0.000000000000000E+000
  0.000000000000000E+000
  0.000000000000000E+000
  0.000000000000000E+000
  0.000000000000000E+000
  0.000000000000000E+000
  0.000000000000000E+000
  0.000000000000000E+000
  0.000000000000000E+000
  0.000000000000000E+000
  0.000000000000000E+000
  0.000000000000000E+000
  0.000000000000000E+000
  0.000000000000000E+000
  0.000000000000000E+000
  0.000000000000000E+000
  0.000000000000000E+000
  0.000000000000000E+000
  0.000000000000000E+000
  0.000000000000000E+000
  0.000000000000000E+000
  0.000000000000000E+000
  0.000000000000000E+000
  0.000000000000000E+000
  0.000000000000000E+000
  0.000000000000000E+000
  0.000000000000000E+000
  0.000000000000000E+000
  0.000000000000000E+000
  0.000000000000000E+000
  0.000000000000000E+000
  0.000000000000000E+000
  0.000000000000000E+000
  0.000000000000000E+000
  0.000000000000000E+000
  0.000000000000000E+000
  0.000000000000000E+000
  0.000000000000000E+000
  0.000000000000000E+000
  0.000000000000000E+000
  0.000000000000000E+000
  0.000000000000000E+000
  0.000000000000000E+000
  0.000000000000000E+000
  0.000000000000000E+000
  0.000000000000000E+000
  0.000000000000000E+000
  0.000000000000000E+000
  0.000000000000000E+000
  0.000000000000000E+000
  0.000000000000000E+000
  0.000000000000000E+000
  0.000000000000000E+000
  0.000000000000000E+000
  0.000000000000000E+000
  0.000000000000000E+000
  0.000000000000000E+000
  0.000000000000000E+000
  0.000000000000000E+000
  0.000000000000000E+000
  0.000000000000000E+000
  0.000000000000000E+000
  0.000000000000000E+000
  0.000000000000000E+000
  0.000000000000000E+000
  0.000000000000000E+000
  0.000000000000000E+000
  0.000000000000000E+000
  0.000000000000000E+000
  0.000000000000000E+000
  0.000000000000000E+000
  0.000000000000000E+000
  0.000000000000000E+000
  0.000000000000000E+000
  0.000000000000000E+000
  0.000000000000000E+000
  0.000000000000000E+000
  0.000000000000000E+000
  0.000000000000000E+000
  0.000000000000000E+000
  0.000000000000000E+000
  0.000000000000000E+000
  0.000000000000000E+000
  0.000000000000000E+000
  0.000000000000000E+000
  0.000000000000000E+000
  0.000000000000000E+000
  0.000000000000000E+000
  0.000000000000000E+000
  0.000000000000000E+000
  0.000000000000000E+000
  0.000000000000000E+000
  0.000000000000000E+000
  0.000000000000000E+000
  0.000000000000000E+000
  0.000000000000000E+000
  0.000000000000000E+000
  0.000000000000000E+000
  0.000000000000000E+000
  0.000000000000000E+000
  0.000000000000000E+000
  0.000000000000000E+000
  0.000000000000000E+000
  0.000000000000000E+000
  0.000000000000000E+000
  0.000000000000000E+000
  0.000000000000000E+000
  0.000000000000000E+000
  0.000000000000000E+000
  0.000000000000000E+000
  0.000000000000000E+000
  0.000000000000000E+000
  0.000000000000000E+000
  0.000000000000000E+000
  0.000000000000000E+000
  0.000000000000000E+000
  0.000000000000000E+000
  0.000000000000000E+000
  0.000000000000000E+000
  0.000000000000000E+000
  0.000000000000000E+000
  0.000000000000000E+000
  0.000000000000000E+000
  0.000000000000000E+000
  0.000000000000000E+000
  0.000000000000000E+000
  0.000000000000000E+000
  0.000000000000000E+000
  0.000000000000000E+000
  0.000000000000000E+000
  0.000000000000000E+000
  0.000000000000000E+000
  0.000000000000000E+000
  0.000000000000000E+000
  0.000000000000000E+000
  0.000000000000000E+000
  0.000000000000000E+000
  0.000000000000000E+000
  0.000000000000000E+000
  0.000000000000000E+000
  0.000000000000000E+000
  0.000000000000000E+000
  0.000000000000000E+000
  0.000000000000000E+000
  0.000000000000000E+000
  0.000000000000000E+000
  0.000000000000000E+000
  0.000000000000000E+000
  0.000000000000000E+000
  0.000000000000000E+000
  0.000000000000000E+000
  0.000000000000000E+000
  0.000000000000000E+000
  0.000000000000000E+000
  0.000000000000000E+000
