# vtk DataFile Version 3.0
vtk output
ASCII
DATASET UNSTRUCTURED_GRID
POINTS      1225 double 
  0.00000000E+00  2.40000000E+01  0.00000000E+00
  0.00000000E+00  2.30000000E+01  0.00000000E+00
  0.00000000E+00  2.20000000E+01  0.00000000E+00
  0.00000000E+00  2.10000000E+01  0.00000000E+00
  0.00000000E+00  2.00000000E+01  0.00000000E+00
  0.00000000E+00  1.90000000E+01  0.00000000E+00
  0.00000000E+00  1.80000000E+01  0.00000000E+00
  0.00000000E+00  1.70000000E+01  0.00000000E+00
  0.00000000E+00  1.60000000E+01  0.00000000E+00
  0.00000000E+00  1.50000000E+01  0.00000000E+00
  0.00000000E+00  1.40000000E+01  0.00000000E+00
  0.00000000E+00  1.30000000E+01  0.00000000E+00
  0.00000000E+00  1.20000000E+01  0.00000000E+00
  0.00000000E+00  1.10000000E+01  0.00000000E+00
  0.00000000E+00  1.00000000E+01  0.00000000E+00
  0.00000000E+00  9.00000000E+00  0.00000000E+00
  0.00000000E+00  8.00000000E+00  0.00000000E+00
  0.00000000E+00  7.00000000E+00  0.00000000E+00
  0.00000000E+00  6.00000000E+00  0.00000000E+00
  0.00000000E+00  5.00000000E+00  0.00000000E+00
  0.00000000E+00  4.00000000E+00  0.00000000E+00
  0.00000000E+00  3.00000000E+00  0.00000000E+00
  0.00000000E+00  2.00000000E+00  0.00000000E+00
  0.00000000E+00  1.00000000E+00  0.00000000E+00
  0.00000000E+00 -2.66453526E-15  0.00000000E+00
  1.00000000E+00  2.40000000E+01  0.00000000E+00
  1.00000000E+00  2.30000000E+01  0.00000000E+00
  1.00000000E+00  2.20000000E+01  0.00000000E+00
  1.00000000E+00  2.10000000E+01  0.00000000E+00
  1.00000000E+00  2.00000000E+01  0.00000000E+00
  1.00000000E+00  1.90000000E+01  0.00000000E+00
  1.00000000E+00  1.80000000E+01  0.00000000E+00
  1.00000000E+00  1.70000000E+01  0.00000000E+00
  1.00000000E+00  1.60000000E+01  0.00000000E+00
  1.00000000E+00  1.50000000E+01  0.00000000E+00
  1.00000000E+00  1.40000000E+01  0.00000000E+00
  1.00000000E+00  1.30000000E+01  0.00000000E+00
  1.00000000E+00  1.20000000E+01  0.00000000E+00
  1.00000000E+00  1.10000000E+01  0.00000000E+00
  1.00000000E+00  1.00000000E+01  0.00000000E+00
  1.00000000E+00  9.00000000E+00  0.00000000E+00
  1.00000000E+00  8.00000000E+00  0.00000000E+00
  1.00000000E+00  7.00000000E+00  0.00000000E+00
  1.00000000E+00  6.00000000E+00  0.00000000E+00
  1.00000000E+00  5.00000000E+00  0.00000000E+00
  1.00000000E+00  4.00000000E+00  0.00000000E+00
  1.00000000E+00  3.00000000E+00  0.00000000E+00
  1.00000000E+00  2.00000000E+00  0.00000000E+00
  1.00000000E+00  1.00000000E+00  0.00000000E+00
  1.00000000E+00 -2.66453526E-15  0.00000000E+00
  2.00000000E+00  2.40000000E+01  0.00000000E+00
  2.00000000E+00  2.30000000E+01  0.00000000E+00
  2.00000000E+00  2.20000000E+01  0.00000000E+00
  2.00000000E+00  2.10000000E+01  0.00000000E+00
  2.00000000E+00  2.00000000E+01  0.00000000E+00
  2.00000000E+00  1.90000000E+01  0.00000000E+00
  2.00000000E+00  1.80000000E+01  0.00000000E+00
  2.00000000E+00  1.70000000E+01  0.00000000E+00
  2.00000000E+00  1.60000000E+01  0.00000000E+00
  2.00000000E+00  1.50000000E+01  0.00000000E+00
  2.00000000E+00  1.40000000E+01  0.00000000E+00
  2.00000000E+00  1.30000000E+01  0.00000000E+00
  2.00000000E+00  1.20000000E+01  0.00000000E+00
  2.00000000E+00  1.10000000E+01  0.00000000E+00
  2.00000000E+00  1.00000000E+01  0.00000000E+00
  2.00000000E+00  9.00000000E+00  0.00000000E+00
  2.00000000E+00  8.00000000E+00  0.00000000E+00
  2.00000000E+00  7.00000000E+00  0.00000000E+00
  2.00000000E+00  6.00000000E+00  0.00000000E+00
  2.00000000E+00  5.00000000E+00  0.00000000E+00
  2.00000000E+00  4.00000000E+00  0.00000000E+00
  2.00000000E+00  3.00000000E+00  0.00000000E+00
  2.00000000E+00  2.00000000E+00  0.00000000E+00
  2.00000000E+00  1.00000000E+00  0.00000000E+00
  2.00000000E+00 -2.66453526E-15  0.00000000E+00
  3.00000000E+00  2.40000000E+01  0.00000000E+00
  3.00000000E+00  2.30000000E+01  0.00000000E+00
  3.00000000E+00  2.20000000E+01  0.00000000E+00
  3.00000000E+00  2.10000000E+01  0.00000000E+00
  3.00000000E+00  2.00000000E+01  0.00000000E+00
  3.00000000E+00  1.90000000E+01  0.00000000E+00
  3.00000000E+00  1.80000000E+01  0.00000000E+00
  3.00000000E+00  1.70000000E+01  0.00000000E+00
  3.00000000E+00  1.60000000E+01  0.00000000E+00
  3.00000000E+00  1.50000000E+01  0.00000000E+00
  3.00000000E+00  1.40000000E+01  0.00000000E+00
  3.00000000E+00  1.30000000E+01  0.00000000E+00
  3.00000000E+00  1.20000000E+01  0.00000000E+00
  3.00000000E+00  1.10000000E+01  0.00000000E+00
  3.00000000E+00  1.00000000E+01  0.00000000E+00
  3.00000000E+00  9.00000000E+00  0.00000000E+00
  3.00000000E+00  8.00000000E+00  0.00000000E+00
  3.00000000E+00  7.00000000E+00  0.00000000E+00
  3.00000000E+00  6.00000000E+00  0.00000000E+00
  3.00000000E+00  5.00000000E+00  0.00000000E+00
  3.00000000E+00  4.00000000E+00  0.00000000E+00
  3.00000000E+00  3.00000000E+00  0.00000000E+00
  3.00000000E+00  2.00000000E+00  0.00000000E+00
  3.00000000E+00  1.00000000E+00  0.00000000E+00
  3.00000000E+00 -2.66453526E-15  0.00000000E+00
  4.00000000E+00  2.40000000E+01  0.00000000E+00
  4.00000000E+00  2.30000000E+01  0.00000000E+00
  4.00000000E+00  2.20000000E+01  0.00000000E+00
  4.00000000E+00  2.10000000E+01  0.00000000E+00
  4.00000000E+00  2.00000000E+01  0.00000000E+00
  4.00000000E+00  1.90000000E+01  0.00000000E+00
  4.00000000E+00  1.80000000E+01  0.00000000E+00
  4.00000000E+00  1.70000000E+01  0.00000000E+00
  4.00000000E+00  1.60000000E+01  0.00000000E+00
  4.00000000E+00  1.50000000E+01  0.00000000E+00
  4.00000000E+00  1.40000000E+01  0.00000000E+00
  4.00000000E+00  1.30000000E+01  0.00000000E+00
  4.00000000E+00  1.20000000E+01  0.00000000E+00
  4.00000000E+00  1.10000000E+01  0.00000000E+00
  4.00000000E+00  1.00000000E+01  0.00000000E+00
  4.00000000E+00  9.00000000E+00  0.00000000E+00
  4.00000000E+00  8.00000000E+00  0.00000000E+00
  4.00000000E+00  7.00000000E+00  0.00000000E+00
  4.00000000E+00  6.00000000E+00  0.00000000E+00
  4.00000000E+00  5.00000000E+00  0.00000000E+00
  4.00000000E+00  4.00000000E+00  0.00000000E+00
  4.00000000E+00  3.00000000E+00  0.00000000E+00
  4.00000000E+00  2.00000000E+00  0.00000000E+00
  4.00000000E+00  1.00000000E+00  0.00000000E+00
  4.00000000E+00 -2.66453526E-15  0.00000000E+00
  5.00000000E+00  2.40000000E+01  0.00000000E+00
  5.00000000E+00  2.30000000E+01  0.00000000E+00
  5.00000000E+00  2.20000000E+01  0.00000000E+00
  5.00000000E+00  2.10000000E+01  0.00000000E+00
  5.00000000E+00  2.00000000E+01  0.00000000E+00
  5.00000000E+00  1.90000000E+01  0.00000000E+00
  5.00000000E+00  1.80000000E+01  0.00000000E+00
  5.00000000E+00  1.70000000E+01  0.00000000E+00
  5.00000000E+00  1.60000000E+01  0.00000000E+00
  5.00000000E+00  1.50000000E+01  0.00000000E+00
  5.00000000E+00  1.40000000E+01  0.00000000E+00
  5.00000000E+00  1.30000000E+01  0.00000000E+00
  5.00000000E+00  1.20000000E+01  0.00000000E+00
  5.00000000E+00  1.10000000E+01  0.00000000E+00
  5.00000000E+00  1.00000000E+01  0.00000000E+00
  5.00000000E+00  9.00000000E+00  0.00000000E+00
  5.00000000E+00  8.00000000E+00  0.00000000E+00
  5.00000000E+00  7.00000000E+00  0.00000000E+00
  5.00000000E+00  6.00000000E+00  0.00000000E+00
  5.00000000E+00  5.00000000E+00  0.00000000E+00
  5.00000000E+00  4.00000000E+00  0.00000000E+00
  5.00000000E+00  3.00000000E+00  0.00000000E+00
  5.00000000E+00  2.00000000E+00  0.00000000E+00
  5.00000000E+00  1.00000000E+00  0.00000000E+00
  5.00000000E+00 -2.66453526E-15  0.00000000E+00
  6.00000000E+00  2.40000000E+01  0.00000000E+00
  6.00000000E+00  2.30000000E+01  0.00000000E+00
  6.00000000E+00  2.20000000E+01  0.00000000E+00
  6.00000000E+00  2.10000000E+01  0.00000000E+00
  6.00000000E+00  2.00000000E+01  0.00000000E+00
  6.00000000E+00  1.90000000E+01  0.00000000E+00
  6.00000000E+00  1.80000000E+01  0.00000000E+00
  6.00000000E+00  1.70000000E+01  0.00000000E+00
  6.00000000E+00  1.60000000E+01  0.00000000E+00
  6.00000000E+00  1.50000000E+01  0.00000000E+00
  6.00000000E+00  1.40000000E+01  0.00000000E+00
  6.00000000E+00  1.30000000E+01  0.00000000E+00
  6.00000000E+00  1.20000000E+01  0.00000000E+00
  6.00000000E+00  1.10000000E+01  0.00000000E+00
  6.00000000E+00  1.00000000E+01  0.00000000E+00
  6.00000000E+00  9.00000000E+00  0.00000000E+00
  6.00000000E+00  8.00000000E+00  0.00000000E+00
  6.00000000E+00  7.00000000E+00  0.00000000E+00
  6.00000000E+00  6.00000000E+00  0.00000000E+00
  6.00000000E+00  5.00000000E+00  0.00000000E+00
  6.00000000E+00  4.00000000E+00  0.00000000E+00
  6.00000000E+00  3.00000000E+00  0.00000000E+00
  6.00000000E+00  2.00000000E+00  0.00000000E+00
  6.00000000E+00  1.00000000E+00  0.00000000E+00
  6.00000000E+00 -2.66453526E-15  0.00000000E+00
  7.00000000E+00  2.40000000E+01  0.00000000E+00
  7.00000000E+00  2.30000000E+01  0.00000000E+00
  7.00000000E+00  2.20000000E+01  0.00000000E+00
  7.00000000E+00  2.10000000E+01  0.00000000E+00
  7.00000000E+00  2.00000000E+01  0.00000000E+00
  7.00000000E+00  1.90000000E+01  0.00000000E+00
  7.00000000E+00  1.80000000E+01  0.00000000E+00
  7.00000000E+00  1.70000000E+01  0.00000000E+00
  7.00000000E+00  1.60000000E+01  0.00000000E+00
  7.00000000E+00  1.50000000E+01  0.00000000E+00
  7.00000000E+00  1.40000000E+01  0.00000000E+00
  7.00000000E+00  1.30000000E+01  0.00000000E+00
  7.00000000E+00  1.20000000E+01  0.00000000E+00
  7.00000000E+00  1.10000000E+01  0.00000000E+00
  7.00000000E+00  1.00000000E+01  0.00000000E+00
  7.00000000E+00  9.00000000E+00  0.00000000E+00
  7.00000000E+00  8.00000000E+00  0.00000000E+00
  7.00000000E+00  7.00000000E+00  0.00000000E+00
  7.00000000E+00  6.00000000E+00  0.00000000E+00
  7.00000000E+00  5.00000000E+00  0.00000000E+00
  7.00000000E+00  4.00000000E+00  0.00000000E+00
  7.00000000E+00  3.00000000E+00  0.00000000E+00
  7.00000000E+00  2.00000000E+00  0.00000000E+00
  7.00000000E+00  1.00000000E+00  0.00000000E+00
  7.00000000E+00 -2.66453526E-15  0.00000000E+00
  8.00000000E+00  2.40000000E+01  0.00000000E+00
  8.00000000E+00  2.30000000E+01  0.00000000E+00
  8.00000000E+00  2.20000000E+01  0.00000000E+00
  8.00000000E+00  2.10000000E+01  0.00000000E+00
  8.00000000E+00  2.00000000E+01  0.00000000E+00
  8.00000000E+00  1.90000000E+01  0.00000000E+00
  8.00000000E+00  1.80000000E+01  0.00000000E+00
  8.00000000E+00  1.70000000E+01  0.00000000E+00
  8.00000000E+00  1.60000000E+01  0.00000000E+00
  8.00000000E+00  1.50000000E+01  0.00000000E+00
  8.00000000E+00  1.40000000E+01  0.00000000E+00
  8.00000000E+00  1.30000000E+01  0.00000000E+00
  8.00000000E+00  1.20000000E+01  0.00000000E+00
  8.00000000E+00  1.10000000E+01  0.00000000E+00
  8.00000000E+00  1.00000000E+01  0.00000000E+00
  8.00000000E+00  9.00000000E+00  0.00000000E+00
  8.00000000E+00  8.00000000E+00  0.00000000E+00
  8.00000000E+00  7.00000000E+00  0.00000000E+00
  8.00000000E+00  6.00000000E+00  0.00000000E+00
  8.00000000E+00  5.00000000E+00  0.00000000E+00
  8.00000000E+00  4.00000000E+00  0.00000000E+00
  8.00000000E+00  3.00000000E+00  0.00000000E+00
  8.00000000E+00  2.00000000E+00  0.00000000E+00
  8.00000000E+00  1.00000000E+00  0.00000000E+00
  8.00000000E+00 -2.66453526E-15  0.00000000E+00
  9.00000000E+00  2.40000000E+01  0.00000000E+00
  9.00000000E+00  2.30000000E+01  0.00000000E+00
  9.00000000E+00  2.20000000E+01  0.00000000E+00
  9.00000000E+00  2.10000000E+01  0.00000000E+00
  9.00000000E+00  2.00000000E+01  0.00000000E+00
  9.00000000E+00  1.90000000E+01  0.00000000E+00
  9.00000000E+00  1.80000000E+01  0.00000000E+00
  9.00000000E+00  1.70000000E+01  0.00000000E+00
  9.00000000E+00  1.60000000E+01  0.00000000E+00
  9.00000000E+00  1.50000000E+01  0.00000000E+00
  9.00000000E+00  1.40000000E+01  0.00000000E+00
  9.00000000E+00  1.30000000E+01  0.00000000E+00
  9.00000000E+00  1.20000000E+01  0.00000000E+00
  9.00000000E+00  1.10000000E+01  0.00000000E+00
  9.00000000E+00  1.00000000E+01  0.00000000E+00
  9.00000000E+00  9.00000000E+00  0.00000000E+00
  9.00000000E+00  8.00000000E+00  0.00000000E+00
  9.00000000E+00  7.00000000E+00  0.00000000E+00
  9.00000000E+00  6.00000000E+00  0.00000000E+00
  9.00000000E+00  5.00000000E+00  0.00000000E+00
  9.00000000E+00  4.00000000E+00  0.00000000E+00
  9.00000000E+00  3.00000000E+00  0.00000000E+00
  9.00000000E+00  2.00000000E+00  0.00000000E+00
  9.00000000E+00  1.00000000E+00  0.00000000E+00
  9.00000000E+00 -2.66453526E-15  0.00000000E+00
  1.00000000E+01  2.40000000E+01  0.00000000E+00
  1.00000000E+01  2.30000000E+01  0.00000000E+00
  1.00000000E+01  2.20000000E+01  0.00000000E+00
  1.00000000E+01  2.10000000E+01  0.00000000E+00
  1.00000000E+01  2.00000000E+01  0.00000000E+00
  1.00000000E+01  1.90000000E+01  0.00000000E+00
  1.00000000E+01  1.80000000E+01  0.00000000E+00
  1.00000000E+01  1.70000000E+01  0.00000000E+00
  1.00000000E+01  1.60000000E+01  0.00000000E+00
  1.00000000E+01  1.50000000E+01  0.00000000E+00
  1.00000000E+01  1.40000000E+01  0.00000000E+00
  1.00000000E+01  1.30000000E+01  0.00000000E+00
  1.00000000E+01  1.20000000E+01  0.00000000E+00
  1.00000000E+01  1.10000000E+01  0.00000000E+00
  1.00000000E+01  1.00000000E+01  0.00000000E+00
  1.00000000E+01  9.00000000E+00  0.00000000E+00
  1.00000000E+01  8.00000000E+00  0.00000000E+00
  1.00000000E+01  7.00000000E+00  0.00000000E+00
  1.00000000E+01  6.00000000E+00  0.00000000E+00
  1.00000000E+01  5.00000000E+00  0.00000000E+00
  1.00000000E+01  4.00000000E+00  0.00000000E+00
  1.00000000E+01  3.00000000E+00  0.00000000E+00
  1.00000000E+01  2.00000000E+00  0.00000000E+00
  1.00000000E+01  1.00000000E+00  0.00000000E+00
  1.00000000E+01 -2.66453526E-15  0.00000000E+00
  1.10000000E+01  2.40000000E+01  0.00000000E+00
  1.10000000E+01  2.30000000E+01  0.00000000E+00
  1.10000000E+01  2.20000000E+01  0.00000000E+00
  1.10000000E+01  2.10000000E+01  0.00000000E+00
  1.10000000E+01  2.00000000E+01  0.00000000E+00
  1.10000000E+01  1.90000000E+01  0.00000000E+00
  1.10000000E+01  1.80000000E+01  0.00000000E+00
  1.10000000E+01  1.70000000E+01  0.00000000E+00
  1.10000000E+01  1.60000000E+01  0.00000000E+00
  1.10000000E+01  1.50000000E+01  0.00000000E+00
  1.10000000E+01  1.40000000E+01  0.00000000E+00
  1.10000000E+01  1.30000000E+01  0.00000000E+00
  1.10000000E+01  1.20000000E+01  0.00000000E+00
  1.10000000E+01  1.10000000E+01  0.00000000E+00
  1.10000000E+01  1.00000000E+01  0.00000000E+00
  1.10000000E+01  9.00000000E+00  0.00000000E+00
  1.10000000E+01  8.00000000E+00  0.00000000E+00
  1.10000000E+01  7.00000000E+00  0.00000000E+00
  1.10000000E+01  6.00000000E+00  0.00000000E+00
  1.10000000E+01  5.00000000E+00  0.00000000E+00
  1.10000000E+01  4.00000000E+00  0.00000000E+00
  1.10000000E+01  3.00000000E+00  0.00000000E+00
  1.10000000E+01  2.00000000E+00  0.00000000E+00
  1.10000000E+01  1.00000000E+00  0.00000000E+00
  1.10000000E+01 -2.66453526E-15  0.00000000E+00
  1.20000000E+01  2.40000000E+01  0.00000000E+00
  1.20000000E+01  2.30000000E+01  0.00000000E+00
  1.20000000E+01  2.20000000E+01  0.00000000E+00
  1.20000000E+01  2.10000000E+01  0.00000000E+00
  1.20000000E+01  2.00000000E+01  0.00000000E+00
  1.20000000E+01  1.90000000E+01  0.00000000E+00
  1.20000000E+01  1.80000000E+01  0.00000000E+00
  1.20000000E+01  1.70000000E+01  0.00000000E+00
  1.20000000E+01  1.60000000E+01  0.00000000E+00
  1.20000000E+01  1.50000000E+01  0.00000000E+00
  1.20000000E+01  1.40000000E+01  0.00000000E+00
  1.20000000E+01  1.30000000E+01  0.00000000E+00
  1.20000000E+01  1.20000000E+01  0.00000000E+00
  1.20000000E+01  1.10000000E+01  0.00000000E+00
  1.20000000E+01  1.00000000E+01  0.00000000E+00
  1.20000000E+01  9.00000000E+00  0.00000000E+00
  1.20000000E+01  8.00000000E+00  0.00000000E+00
  1.20000000E+01  7.00000000E+00  0.00000000E+00
  1.20000000E+01  6.00000000E+00  0.00000000E+00
  1.20000000E+01  5.00000000E+00  0.00000000E+00
  1.20000000E+01  4.00000000E+00  0.00000000E+00
  1.20000000E+01  3.00000000E+00  0.00000000E+00
  1.20000000E+01  2.00000000E+00  0.00000000E+00
  1.20000000E+01  1.00000000E+00  0.00000000E+00
  1.20000000E+01 -2.66453526E-15  0.00000000E+00
  1.30000000E+01  2.40000000E+01  0.00000000E+00
  1.30000000E+01  2.30000000E+01  0.00000000E+00
  1.30000000E+01  2.20000000E+01  0.00000000E+00
  1.30000000E+01  2.10000000E+01  0.00000000E+00
  1.30000000E+01  2.00000000E+01  0.00000000E+00
  1.30000000E+01  1.90000000E+01  0.00000000E+00
  1.30000000E+01  1.80000000E+01  0.00000000E+00
  1.30000000E+01  1.70000000E+01  0.00000000E+00
  1.30000000E+01  1.60000000E+01  0.00000000E+00
  1.30000000E+01  1.50000000E+01  0.00000000E+00
  1.30000000E+01  1.40000000E+01  0.00000000E+00
  1.30000000E+01  1.30000000E+01  0.00000000E+00
  1.30000000E+01  1.20000000E+01  0.00000000E+00
  1.30000000E+01  1.10000000E+01  0.00000000E+00
  1.30000000E+01  1.00000000E+01  0.00000000E+00
  1.30000000E+01  9.00000000E+00  0.00000000E+00
  1.30000000E+01  8.00000000E+00  0.00000000E+00
  1.30000000E+01  7.00000000E+00  0.00000000E+00
  1.30000000E+01  6.00000000E+00  0.00000000E+00
  1.30000000E+01  5.00000000E+00  0.00000000E+00
  1.30000000E+01  4.00000000E+00  0.00000000E+00
  1.30000000E+01  3.00000000E+00  0.00000000E+00
  1.30000000E+01  2.00000000E+00  0.00000000E+00
  1.30000000E+01  1.00000000E+00  0.00000000E+00
  1.30000000E+01 -2.66453526E-15  0.00000000E+00
  1.40000000E+01  2.40000000E+01  0.00000000E+00
  1.40000000E+01  2.30000000E+01  0.00000000E+00
  1.40000000E+01  2.20000000E+01  0.00000000E+00
  1.40000000E+01  2.10000000E+01  0.00000000E+00
  1.40000000E+01  2.00000000E+01  0.00000000E+00
  1.40000000E+01  1.90000000E+01  0.00000000E+00
  1.40000000E+01  1.80000000E+01  0.00000000E+00
  1.40000000E+01  1.70000000E+01  0.00000000E+00
  1.40000000E+01  1.60000000E+01  0.00000000E+00
  1.40000000E+01  1.50000000E+01  0.00000000E+00
  1.40000000E+01  1.40000000E+01  0.00000000E+00
  1.40000000E+01  1.30000000E+01  0.00000000E+00
  1.40000000E+01  1.20000000E+01  0.00000000E+00
  1.40000000E+01  1.10000000E+01  0.00000000E+00
  1.40000000E+01  1.00000000E+01  0.00000000E+00
  1.40000000E+01  9.00000000E+00  0.00000000E+00
  1.40000000E+01  8.00000000E+00  0.00000000E+00
  1.40000000E+01  7.00000000E+00  0.00000000E+00
  1.40000000E+01  6.00000000E+00  0.00000000E+00
  1.40000000E+01  5.00000000E+00  0.00000000E+00
  1.40000000E+01  4.00000000E+00  0.00000000E+00
  1.40000000E+01  3.00000000E+00  0.00000000E+00
  1.40000000E+01  2.00000000E+00  0.00000000E+00
  1.40000000E+01  1.00000000E+00  0.00000000E+00
  1.40000000E+01 -2.66453526E-15  0.00000000E+00
  1.50000000E+01  2.40000000E+01  0.00000000E+00
  1.50000000E+01  2.30000000E+01  0.00000000E+00
  1.50000000E+01  2.20000000E+01  0.00000000E+00
  1.50000000E+01  2.10000000E+01  0.00000000E+00
  1.50000000E+01  2.00000000E+01  0.00000000E+00
  1.50000000E+01  1.90000000E+01  0.00000000E+00
  1.50000000E+01  1.80000000E+01  0.00000000E+00
  1.50000000E+01  1.70000000E+01  0.00000000E+00
  1.50000000E+01  1.60000000E+01  0.00000000E+00
  1.50000000E+01  1.50000000E+01  0.00000000E+00
  1.50000000E+01  1.40000000E+01  0.00000000E+00
  1.50000000E+01  1.30000000E+01  0.00000000E+00
  1.50000000E+01  1.20000000E+01  0.00000000E+00
  1.50000000E+01  1.10000000E+01  0.00000000E+00
  1.50000000E+01  1.00000000E+01  0.00000000E+00
  1.50000000E+01  9.00000000E+00  0.00000000E+00
  1.50000000E+01  8.00000000E+00  0.00000000E+00
  1.50000000E+01  7.00000000E+00  0.00000000E+00
  1.50000000E+01  6.00000000E+00  0.00000000E+00
  1.50000000E+01  5.00000000E+00  0.00000000E+00
  1.50000000E+01  4.00000000E+00  0.00000000E+00
  1.50000000E+01  3.00000000E+00  0.00000000E+00
  1.50000000E+01  2.00000000E+00  0.00000000E+00
  1.50000000E+01  1.00000000E+00  0.00000000E+00
  1.50000000E+01 -2.66453526E-15  0.00000000E+00
  1.60000000E+01  2.40000000E+01  0.00000000E+00
  1.60000000E+01  2.30000000E+01  0.00000000E+00
  1.60000000E+01  2.20000000E+01  0.00000000E+00
  1.60000000E+01  2.10000000E+01  0.00000000E+00
  1.60000000E+01  2.00000000E+01  0.00000000E+00
  1.60000000E+01  1.90000000E+01  0.00000000E+00
  1.60000000E+01  1.80000000E+01  0.00000000E+00
  1.60000000E+01  1.70000000E+01  0.00000000E+00
  1.60000000E+01  1.60000000E+01  0.00000000E+00
  1.60000000E+01  1.50000000E+01  0.00000000E+00
  1.60000000E+01  1.40000000E+01  0.00000000E+00
  1.60000000E+01  1.30000000E+01  0.00000000E+00
  1.60000000E+01  1.20000000E+01  0.00000000E+00
  1.60000000E+01  1.10000000E+01  0.00000000E+00
  1.60000000E+01  1.00000000E+01  0.00000000E+00
  1.60000000E+01  9.00000000E+00  0.00000000E+00
  1.60000000E+01  8.00000000E+00  0.00000000E+00
  1.60000000E+01  7.00000000E+00  0.00000000E+00
  1.60000000E+01  6.00000000E+00  0.00000000E+00
  1.60000000E+01  5.00000000E+00  0.00000000E+00
  1.60000000E+01  4.00000000E+00  0.00000000E+00
  1.60000000E+01  3.00000000E+00  0.00000000E+00
  1.60000000E+01  2.00000000E+00  0.00000000E+00
  1.60000000E+01  1.00000000E+00  0.00000000E+00
  1.60000000E+01 -2.66453526E-15  0.00000000E+00
  1.70000000E+01  2.40000000E+01  0.00000000E+00
  1.70000000E+01  2.30000000E+01  0.00000000E+00
  1.70000000E+01  2.20000000E+01  0.00000000E+00
  1.70000000E+01  2.10000000E+01  0.00000000E+00
  1.70000000E+01  2.00000000E+01  0.00000000E+00
  1.70000000E+01  1.90000000E+01  0.00000000E+00
  1.70000000E+01  1.80000000E+01  0.00000000E+00
  1.70000000E+01  1.70000000E+01  0.00000000E+00
  1.70000000E+01  1.60000000E+01  0.00000000E+00
  1.70000000E+01  1.50000000E+01  0.00000000E+00
  1.70000000E+01  1.40000000E+01  0.00000000E+00
  1.70000000E+01  1.30000000E+01  0.00000000E+00
  1.70000000E+01  1.20000000E+01  0.00000000E+00
  1.70000000E+01  1.10000000E+01  0.00000000E+00
  1.70000000E+01  1.00000000E+01  0.00000000E+00
  1.70000000E+01  9.00000000E+00  0.00000000E+00
  1.70000000E+01  8.00000000E+00  0.00000000E+00
  1.70000000E+01  7.00000000E+00  0.00000000E+00
  1.70000000E+01  6.00000000E+00  0.00000000E+00
  1.70000000E+01  5.00000000E+00  0.00000000E+00
  1.70000000E+01  4.00000000E+00  0.00000000E+00
  1.70000000E+01  3.00000000E+00  0.00000000E+00
  1.70000000E+01  2.00000000E+00  0.00000000E+00
  1.70000000E+01  1.00000000E+00  0.00000000E+00
  1.70000000E+01 -2.66453526E-15  0.00000000E+00
  1.80000000E+01  2.40000000E+01  0.00000000E+00
  1.80000000E+01  2.30000000E+01  0.00000000E+00
  1.80000000E+01  2.20000000E+01  0.00000000E+00
  1.80000000E+01  2.10000000E+01  0.00000000E+00
  1.80000000E+01  2.00000000E+01  0.00000000E+00
  1.80000000E+01  1.90000000E+01  0.00000000E+00
  1.80000000E+01  1.80000000E+01  0.00000000E+00
  1.80000000E+01  1.70000000E+01  0.00000000E+00
  1.80000000E+01  1.60000000E+01  0.00000000E+00
  1.80000000E+01  1.50000000E+01  0.00000000E+00
  1.80000000E+01  1.40000000E+01  0.00000000E+00
  1.80000000E+01  1.30000000E+01  0.00000000E+00
  1.80000000E+01  1.20000000E+01  0.00000000E+00
  1.80000000E+01  1.10000000E+01  0.00000000E+00
  1.80000000E+01  1.00000000E+01  0.00000000E+00
  1.80000000E+01  9.00000000E+00  0.00000000E+00
  1.80000000E+01  8.00000000E+00  0.00000000E+00
  1.80000000E+01  7.00000000E+00  0.00000000E+00
  1.80000000E+01  6.00000000E+00  0.00000000E+00
  1.80000000E+01  5.00000000E+00  0.00000000E+00
  1.80000000E+01  4.00000000E+00  0.00000000E+00
  1.80000000E+01  3.00000000E+00  0.00000000E+00
  1.80000000E+01  2.00000000E+00  0.00000000E+00
  1.80000000E+01  1.00000000E+00  0.00000000E+00
  1.80000000E+01 -2.66453526E-15  0.00000000E+00
  1.90000000E+01  2.40000000E+01  0.00000000E+00
  1.90000000E+01  2.30000000E+01  0.00000000E+00
  1.90000000E+01  2.20000000E+01  0.00000000E+00
  1.90000000E+01  2.10000000E+01  0.00000000E+00
  1.90000000E+01  2.00000000E+01  0.00000000E+00
  1.90000000E+01  1.90000000E+01  0.00000000E+00
  1.90000000E+01  1.80000000E+01  0.00000000E+00
  1.90000000E+01  1.70000000E+01  0.00000000E+00
  1.90000000E+01  1.60000000E+01  0.00000000E+00
  1.90000000E+01  1.50000000E+01  0.00000000E+00
  1.90000000E+01  1.40000000E+01  0.00000000E+00
  1.90000000E+01  1.30000000E+01  0.00000000E+00
  1.90000000E+01  1.20000000E+01  0.00000000E+00
  1.90000000E+01  1.10000000E+01  0.00000000E+00
  1.90000000E+01  1.00000000E+01  0.00000000E+00
  1.90000000E+01  9.00000000E+00  0.00000000E+00
  1.90000000E+01  8.00000000E+00  0.00000000E+00
  1.90000000E+01  7.00000000E+00  0.00000000E+00
  1.90000000E+01  6.00000000E+00  0.00000000E+00
  1.90000000E+01  5.00000000E+00  0.00000000E+00
  1.90000000E+01  4.00000000E+00  0.00000000E+00
  1.90000000E+01  3.00000000E+00  0.00000000E+00
  1.90000000E+01  2.00000000E+00  0.00000000E+00
  1.90000000E+01  1.00000000E+00  0.00000000E+00
  1.90000000E+01 -2.66453526E-15  0.00000000E+00
  2.00000000E+01  2.40000000E+01  0.00000000E+00
  2.00000000E+01  2.30000000E+01  0.00000000E+00
  2.00000000E+01  2.20000000E+01  0.00000000E+00
  2.00000000E+01  2.10000000E+01  0.00000000E+00
  2.00000000E+01  2.00000000E+01  0.00000000E+00
  2.00000000E+01  1.90000000E+01  0.00000000E+00
  2.00000000E+01  1.80000000E+01  0.00000000E+00
  2.00000000E+01  1.70000000E+01  0.00000000E+00
  2.00000000E+01  1.60000000E+01  0.00000000E+00
  2.00000000E+01  1.50000000E+01  0.00000000E+00
  2.00000000E+01  1.40000000E+01  0.00000000E+00
  2.00000000E+01  1.30000000E+01  0.00000000E+00
  2.00000000E+01  1.20000000E+01  0.00000000E+00
  2.00000000E+01  1.10000000E+01  0.00000000E+00
  2.00000000E+01  1.00000000E+01  0.00000000E+00
  2.00000000E+01  9.00000000E+00  0.00000000E+00
  2.00000000E+01  8.00000000E+00  0.00000000E+00
  2.00000000E+01  7.00000000E+00  0.00000000E+00
  2.00000000E+01  6.00000000E+00  0.00000000E+00
  2.00000000E+01  5.00000000E+00  0.00000000E+00
  2.00000000E+01  4.00000000E+00  0.00000000E+00
  2.00000000E+01  3.00000000E+00  0.00000000E+00
  2.00000000E+01  2.00000000E+00  0.00000000E+00
  2.00000000E+01  1.00000000E+00  0.00000000E+00
  2.00000000E+01 -2.66453526E-15  0.00000000E+00
  2.10000000E+01  2.40000000E+01  0.00000000E+00
  2.10000000E+01  2.30000000E+01  0.00000000E+00
  2.10000000E+01  2.20000000E+01  0.00000000E+00
  2.10000000E+01  2.10000000E+01  0.00000000E+00
  2.10000000E+01  2.00000000E+01  0.00000000E+00
  2.10000000E+01  1.90000000E+01  0.00000000E+00
  2.10000000E+01  1.80000000E+01  0.00000000E+00
  2.10000000E+01  1.70000000E+01  0.00000000E+00
  2.10000000E+01  1.60000000E+01  0.00000000E+00
  2.10000000E+01  1.50000000E+01  0.00000000E+00
  2.10000000E+01  1.40000000E+01  0.00000000E+00
  2.10000000E+01  1.30000000E+01  0.00000000E+00
  2.10000000E+01  1.20000000E+01  0.00000000E+00
  2.10000000E+01  1.10000000E+01  0.00000000E+00
  2.10000000E+01  1.00000000E+01  0.00000000E+00
  2.10000000E+01  9.00000000E+00  0.00000000E+00
  2.10000000E+01  8.00000000E+00  0.00000000E+00
  2.10000000E+01  7.00000000E+00  0.00000000E+00
  2.10000000E+01  6.00000000E+00  0.00000000E+00
  2.10000000E+01  5.00000000E+00  0.00000000E+00
  2.10000000E+01  4.00000000E+00  0.00000000E+00
  2.10000000E+01  3.00000000E+00  0.00000000E+00
  2.10000000E+01  2.00000000E+00  0.00000000E+00
  2.10000000E+01  1.00000000E+00  0.00000000E+00
  2.10000000E+01 -2.66453526E-15  0.00000000E+00
  2.20000000E+01  2.40000000E+01  0.00000000E+00
  2.20000000E+01  2.30000000E+01  0.00000000E+00
  2.20000000E+01  2.20000000E+01  0.00000000E+00
  2.20000000E+01  2.10000000E+01  0.00000000E+00
  2.20000000E+01  2.00000000E+01  0.00000000E+00
  2.20000000E+01  1.90000000E+01  0.00000000E+00
  2.20000000E+01  1.80000000E+01  0.00000000E+00
  2.20000000E+01  1.70000000E+01  0.00000000E+00
  2.20000000E+01  1.60000000E+01  0.00000000E+00
  2.20000000E+01  1.50000000E+01  0.00000000E+00
  2.20000000E+01  1.40000000E+01  0.00000000E+00
  2.20000000E+01  1.30000000E+01  0.00000000E+00
  2.20000000E+01  1.20000000E+01  0.00000000E+00
  2.20000000E+01  1.10000000E+01  0.00000000E+00
  2.20000000E+01  1.00000000E+01  0.00000000E+00
  2.20000000E+01  9.00000000E+00  0.00000000E+00
  2.20000000E+01  8.00000000E+00  0.00000000E+00
  2.20000000E+01  7.00000000E+00  0.00000000E+00
  2.20000000E+01  6.00000000E+00  0.00000000E+00
  2.20000000E+01  5.00000000E+00  0.00000000E+00
  2.20000000E+01  4.00000000E+00  0.00000000E+00
  2.20000000E+01  3.00000000E+00  0.00000000E+00
  2.20000000E+01  2.00000000E+00  0.00000000E+00
  2.20000000E+01  1.00000000E+00  0.00000000E+00
  2.20000000E+01 -2.66453526E-15  0.00000000E+00
  2.30000000E+01  2.40000000E+01  0.00000000E+00
  2.30000000E+01  2.30000000E+01  0.00000000E+00
  2.30000000E+01  2.20000000E+01  0.00000000E+00
  2.30000000E+01  2.10000000E+01  0.00000000E+00
  2.30000000E+01  2.00000000E+01  0.00000000E+00
  2.30000000E+01  1.90000000E+01  0.00000000E+00
  2.30000000E+01  1.80000000E+01  0.00000000E+00
  2.30000000E+01  1.70000000E+01  0.00000000E+00
  2.30000000E+01  1.60000000E+01  0.00000000E+00
  2.30000000E+01  1.50000000E+01  0.00000000E+00
  2.30000000E+01  1.40000000E+01  0.00000000E+00
  2.30000000E+01  1.30000000E+01  0.00000000E+00
  2.30000000E+01  1.20000000E+01  0.00000000E+00
  2.30000000E+01  1.10000000E+01  0.00000000E+00
  2.30000000E+01  1.00000000E+01  0.00000000E+00
  2.30000000E+01  9.00000000E+00  0.00000000E+00
  2.30000000E+01  8.00000000E+00  0.00000000E+00
  2.30000000E+01  7.00000000E+00  0.00000000E+00
  2.30000000E+01  6.00000000E+00  0.00000000E+00
  2.30000000E+01  5.00000000E+00  0.00000000E+00
  2.30000000E+01  4.00000000E+00  0.00000000E+00
  2.30000000E+01  3.00000000E+00  0.00000000E+00
  2.30000000E+01  2.00000000E+00  0.00000000E+00
  2.30000000E+01  1.00000000E+00  0.00000000E+00
  2.30000000E+01 -2.66453526E-15  0.00000000E+00
  2.40000000E+01  2.40000000E+01  0.00000000E+00
  2.40000000E+01  2.30000000E+01  0.00000000E+00
  2.40000000E+01  2.20000000E+01  0.00000000E+00
  2.40000000E+01  2.10000000E+01  0.00000000E+00
  2.40000000E+01  2.00000000E+01  0.00000000E+00
  2.40000000E+01  1.90000000E+01  0.00000000E+00
  2.40000000E+01  1.80000000E+01  0.00000000E+00
  2.40000000E+01  1.70000000E+01  0.00000000E+00
  2.40000000E+01  1.60000000E+01  0.00000000E+00
  2.40000000E+01  1.50000000E+01  0.00000000E+00
  2.40000000E+01  1.40000000E+01  0.00000000E+00
  2.40000000E+01  1.30000000E+01  0.00000000E+00
  2.40000000E+01  1.20000000E+01  0.00000000E+00
  2.40000000E+01  1.10000000E+01  0.00000000E+00
  2.40000000E+01  1.00000000E+01  0.00000000E+00
  2.40000000E+01  9.00000000E+00  0.00000000E+00
  2.40000000E+01  8.00000000E+00  0.00000000E+00
  2.40000000E+01  7.00000000E+00  0.00000000E+00
  2.40000000E+01  6.00000000E+00  0.00000000E+00
  2.40000000E+01  5.00000000E+00  0.00000000E+00
  2.40000000E+01  4.00000000E+00  0.00000000E+00
  2.40000000E+01  3.00000000E+00  0.00000000E+00
  2.40000000E+01  2.00000000E+00  0.00000000E+00
  2.40000000E+01  1.00000000E+00  0.00000000E+00
  2.40000000E+01 -2.66453526E-15  0.00000000E+00
  2.50000000E+01  2.40000000E+01  0.00000000E+00
  2.50000000E+01  2.30000000E+01  0.00000000E+00
  2.50000000E+01  2.20000000E+01  0.00000000E+00
  2.50000000E+01  2.10000000E+01  0.00000000E+00
  2.50000000E+01  2.00000000E+01  0.00000000E+00
  2.50000000E+01  1.90000000E+01  0.00000000E+00
  2.50000000E+01  1.80000000E+01  0.00000000E+00
  2.50000000E+01  1.70000000E+01  0.00000000E+00
  2.50000000E+01  1.60000000E+01  0.00000000E+00
  2.50000000E+01  1.50000000E+01  0.00000000E+00
  2.50000000E+01  1.40000000E+01  0.00000000E+00
  2.50000000E+01  1.30000000E+01  0.00000000E+00
  2.50000000E+01  1.20000000E+01  0.00000000E+00
  2.50000000E+01  1.10000000E+01  0.00000000E+00
  2.50000000E+01  1.00000000E+01  0.00000000E+00
  2.50000000E+01  9.00000000E+00  0.00000000E+00
  2.50000000E+01  8.00000000E+00  0.00000000E+00
  2.50000000E+01  7.00000000E+00  0.00000000E+00
  2.50000000E+01  6.00000000E+00  0.00000000E+00
  2.50000000E+01  5.00000000E+00  0.00000000E+00
  2.50000000E+01  4.00000000E+00  0.00000000E+00
  2.50000000E+01  3.00000000E+00  0.00000000E+00
  2.50000000E+01  2.00000000E+00  0.00000000E+00
  2.50000000E+01  1.00000000E+00  0.00000000E+00
  2.50000000E+01 -2.66453526E-15  0.00000000E+00
  2.60000000E+01  2.40000000E+01  0.00000000E+00
  2.60000000E+01  2.30000000E+01  0.00000000E+00
  2.60000000E+01  2.20000000E+01  0.00000000E+00
  2.60000000E+01  2.10000000E+01  0.00000000E+00
  2.60000000E+01  2.00000000E+01  0.00000000E+00
  2.60000000E+01  1.90000000E+01  0.00000000E+00
  2.60000000E+01  1.80000000E+01  0.00000000E+00
  2.60000000E+01  1.70000000E+01  0.00000000E+00
  2.60000000E+01  1.60000000E+01  0.00000000E+00
  2.60000000E+01  1.50000000E+01  0.00000000E+00
  2.60000000E+01  1.40000000E+01  0.00000000E+00
  2.60000000E+01  1.30000000E+01  0.00000000E+00
  2.60000000E+01  1.20000000E+01  0.00000000E+00
  2.60000000E+01  1.10000000E+01  0.00000000E+00
  2.60000000E+01  1.00000000E+01  0.00000000E+00
  2.60000000E+01  9.00000000E+00  0.00000000E+00
  2.60000000E+01  8.00000000E+00  0.00000000E+00
  2.60000000E+01  7.00000000E+00  0.00000000E+00
  2.60000000E+01  6.00000000E+00  0.00000000E+00
  2.60000000E+01  5.00000000E+00  0.00000000E+00
  2.60000000E+01  4.00000000E+00  0.00000000E+00
  2.60000000E+01  3.00000000E+00  0.00000000E+00
  2.60000000E+01  2.00000000E+00  0.00000000E+00
  2.60000000E+01  1.00000000E+00  0.00000000E+00
  2.60000000E+01 -2.66453526E-15  0.00000000E+00
  2.70000000E+01  2.40000000E+01  0.00000000E+00
  2.70000000E+01  2.30000000E+01  0.00000000E+00
  2.70000000E+01  2.20000000E+01  0.00000000E+00
  2.70000000E+01  2.10000000E+01  0.00000000E+00
  2.70000000E+01  2.00000000E+01  0.00000000E+00
  2.70000000E+01  1.90000000E+01  0.00000000E+00
  2.70000000E+01  1.80000000E+01  0.00000000E+00
  2.70000000E+01  1.70000000E+01  0.00000000E+00
  2.70000000E+01  1.60000000E+01  0.00000000E+00
  2.70000000E+01  1.50000000E+01  0.00000000E+00
  2.70000000E+01  1.40000000E+01  0.00000000E+00
  2.70000000E+01  1.30000000E+01  0.00000000E+00
  2.70000000E+01  1.20000000E+01  0.00000000E+00
  2.70000000E+01  1.10000000E+01  0.00000000E+00
  2.70000000E+01  1.00000000E+01  0.00000000E+00
  2.70000000E+01  9.00000000E+00  0.00000000E+00
  2.70000000E+01  8.00000000E+00  0.00000000E+00
  2.70000000E+01  7.00000000E+00  0.00000000E+00
  2.70000000E+01  6.00000000E+00  0.00000000E+00
  2.70000000E+01  5.00000000E+00  0.00000000E+00
  2.70000000E+01  4.00000000E+00  0.00000000E+00
  2.70000000E+01  3.00000000E+00  0.00000000E+00
  2.70000000E+01  2.00000000E+00  0.00000000E+00
  2.70000000E+01  1.00000000E+00  0.00000000E+00
  2.70000000E+01 -2.66453526E-15  0.00000000E+00
  2.80000000E+01  2.40000000E+01  0.00000000E+00
  2.80000000E+01  2.30000000E+01  0.00000000E+00
  2.80000000E+01  2.20000000E+01  0.00000000E+00
  2.80000000E+01  2.10000000E+01  0.00000000E+00
  2.80000000E+01  2.00000000E+01  0.00000000E+00
  2.80000000E+01  1.90000000E+01  0.00000000E+00
  2.80000000E+01  1.80000000E+01  0.00000000E+00
  2.80000000E+01  1.70000000E+01  0.00000000E+00
  2.80000000E+01  1.60000000E+01  0.00000000E+00
  2.80000000E+01  1.50000000E+01  0.00000000E+00
  2.80000000E+01  1.40000000E+01  0.00000000E+00
  2.80000000E+01  1.30000000E+01  0.00000000E+00
  2.80000000E+01  1.20000000E+01  0.00000000E+00
  2.80000000E+01  1.10000000E+01  0.00000000E+00
  2.80000000E+01  1.00000000E+01  0.00000000E+00
  2.80000000E+01  9.00000000E+00  0.00000000E+00
  2.80000000E+01  8.00000000E+00  0.00000000E+00
  2.80000000E+01  7.00000000E+00  0.00000000E+00
  2.80000000E+01  6.00000000E+00  0.00000000E+00
  2.80000000E+01  5.00000000E+00  0.00000000E+00
  2.80000000E+01  4.00000000E+00  0.00000000E+00
  2.80000000E+01  3.00000000E+00  0.00000000E+00
  2.80000000E+01  2.00000000E+00  0.00000000E+00
  2.80000000E+01  1.00000000E+00  0.00000000E+00
  2.80000000E+01 -2.66453526E-15  0.00000000E+00
  2.90000000E+01  2.40000000E+01  0.00000000E+00
  2.90000000E+01  2.30000000E+01  0.00000000E+00
  2.90000000E+01  2.20000000E+01  0.00000000E+00
  2.90000000E+01  2.10000000E+01  0.00000000E+00
  2.90000000E+01  2.00000000E+01  0.00000000E+00
  2.90000000E+01  1.90000000E+01  0.00000000E+00
  2.90000000E+01  1.80000000E+01  0.00000000E+00
  2.90000000E+01  1.70000000E+01  0.00000000E+00
  2.90000000E+01  1.60000000E+01  0.00000000E+00
  2.90000000E+01  1.50000000E+01  0.00000000E+00
  2.90000000E+01  1.40000000E+01  0.00000000E+00
  2.90000000E+01  1.30000000E+01  0.00000000E+00
  2.90000000E+01  1.20000000E+01  0.00000000E+00
  2.90000000E+01  1.10000000E+01  0.00000000E+00
  2.90000000E+01  1.00000000E+01  0.00000000E+00
  2.90000000E+01  9.00000000E+00  0.00000000E+00
  2.90000000E+01  8.00000000E+00  0.00000000E+00
  2.90000000E+01  7.00000000E+00  0.00000000E+00
  2.90000000E+01  6.00000000E+00  0.00000000E+00
  2.90000000E+01  5.00000000E+00  0.00000000E+00
  2.90000000E+01  4.00000000E+00  0.00000000E+00
  2.90000000E+01  3.00000000E+00  0.00000000E+00
  2.90000000E+01  2.00000000E+00  0.00000000E+00
  2.90000000E+01  1.00000000E+00  0.00000000E+00
  2.90000000E+01 -2.66453526E-15  0.00000000E+00
  3.00000000E+01  2.40000000E+01  0.00000000E+00
  3.00000000E+01  2.30000000E+01  0.00000000E+00
  3.00000000E+01  2.20000000E+01  0.00000000E+00
  3.00000000E+01  2.10000000E+01  0.00000000E+00
  3.00000000E+01  2.00000000E+01  0.00000000E+00
  3.00000000E+01  1.90000000E+01  0.00000000E+00
  3.00000000E+01  1.80000000E+01  0.00000000E+00
  3.00000000E+01  1.70000000E+01  0.00000000E+00
  3.00000000E+01  1.60000000E+01  0.00000000E+00
  3.00000000E+01  1.50000000E+01  0.00000000E+00
  3.00000000E+01  1.40000000E+01  0.00000000E+00
  3.00000000E+01  1.30000000E+01  0.00000000E+00
  3.00000000E+01  1.20000000E+01  0.00000000E+00
  3.00000000E+01  1.10000000E+01  0.00000000E+00
  3.00000000E+01  1.00000000E+01  0.00000000E+00
  3.00000000E+01  9.00000000E+00  0.00000000E+00
  3.00000000E+01  8.00000000E+00  0.00000000E+00
  3.00000000E+01  7.00000000E+00  0.00000000E+00
  3.00000000E+01  6.00000000E+00  0.00000000E+00
  3.00000000E+01  5.00000000E+00  0.00000000E+00
  3.00000000E+01  4.00000000E+00  0.00000000E+00
  3.00000000E+01  3.00000000E+00  0.00000000E+00
  3.00000000E+01  2.00000000E+00  0.00000000E+00
  3.00000000E+01  1.00000000E+00  0.00000000E+00
  3.00000000E+01 -2.66453526E-15  0.00000000E+00
  3.10000000E+01  2.40000000E+01  0.00000000E+00
  3.10000000E+01  2.30000000E+01  0.00000000E+00
  3.10000000E+01  2.20000000E+01  0.00000000E+00
  3.10000000E+01  2.10000000E+01  0.00000000E+00
  3.10000000E+01  2.00000000E+01  0.00000000E+00
  3.10000000E+01  1.90000000E+01  0.00000000E+00
  3.10000000E+01  1.80000000E+01  0.00000000E+00
  3.10000000E+01  1.70000000E+01  0.00000000E+00
  3.10000000E+01  1.60000000E+01  0.00000000E+00
  3.10000000E+01  1.50000000E+01  0.00000000E+00
  3.10000000E+01  1.40000000E+01  0.00000000E+00
  3.10000000E+01  1.30000000E+01  0.00000000E+00
  3.10000000E+01  1.20000000E+01  0.00000000E+00
  3.10000000E+01  1.10000000E+01  0.00000000E+00
  3.10000000E+01  1.00000000E+01  0.00000000E+00
  3.10000000E+01  9.00000000E+00  0.00000000E+00
  3.10000000E+01  8.00000000E+00  0.00000000E+00
  3.10000000E+01  7.00000000E+00  0.00000000E+00
  3.10000000E+01  6.00000000E+00  0.00000000E+00
  3.10000000E+01  5.00000000E+00  0.00000000E+00
  3.10000000E+01  4.00000000E+00  0.00000000E+00
  3.10000000E+01  3.00000000E+00  0.00000000E+00
  3.10000000E+01  2.00000000E+00  0.00000000E+00
  3.10000000E+01  1.00000000E+00  0.00000000E+00
  3.10000000E+01 -2.66453526E-15  0.00000000E+00
  3.20000000E+01  2.40000000E+01  0.00000000E+00
  3.20000000E+01  2.30000000E+01  0.00000000E+00
  3.20000000E+01  2.20000000E+01  0.00000000E+00
  3.20000000E+01  2.10000000E+01  0.00000000E+00
  3.20000000E+01  2.00000000E+01  0.00000000E+00
  3.20000000E+01  1.90000000E+01  0.00000000E+00
  3.20000000E+01  1.80000000E+01  0.00000000E+00
  3.20000000E+01  1.70000000E+01  0.00000000E+00
  3.20000000E+01  1.60000000E+01  0.00000000E+00
  3.20000000E+01  1.50000000E+01  0.00000000E+00
  3.20000000E+01  1.40000000E+01  0.00000000E+00
  3.20000000E+01  1.30000000E+01  0.00000000E+00
  3.20000000E+01  1.20000000E+01  0.00000000E+00
  3.20000000E+01  1.10000000E+01  0.00000000E+00
  3.20000000E+01  1.00000000E+01  0.00000000E+00
  3.20000000E+01  9.00000000E+00  0.00000000E+00
  3.20000000E+01  8.00000000E+00  0.00000000E+00
  3.20000000E+01  7.00000000E+00  0.00000000E+00
  3.20000000E+01  6.00000000E+00  0.00000000E+00
  3.20000000E+01  5.00000000E+00  0.00000000E+00
  3.20000000E+01  4.00000000E+00  0.00000000E+00
  3.20000000E+01  3.00000000E+00  0.00000000E+00
  3.20000000E+01  2.00000000E+00  0.00000000E+00
  3.20000000E+01  1.00000000E+00  0.00000000E+00
  3.20000000E+01 -2.66453526E-15  0.00000000E+00
  3.30000000E+01  2.40000000E+01  0.00000000E+00
  3.30000000E+01  2.30000000E+01  0.00000000E+00
  3.30000000E+01  2.20000000E+01  0.00000000E+00
  3.30000000E+01  2.10000000E+01  0.00000000E+00
  3.30000000E+01  2.00000000E+01  0.00000000E+00
  3.30000000E+01  1.90000000E+01  0.00000000E+00
  3.30000000E+01  1.80000000E+01  0.00000000E+00
  3.30000000E+01  1.70000000E+01  0.00000000E+00
  3.30000000E+01  1.60000000E+01  0.00000000E+00
  3.30000000E+01  1.50000000E+01  0.00000000E+00
  3.30000000E+01  1.40000000E+01  0.00000000E+00
  3.30000000E+01  1.30000000E+01  0.00000000E+00
  3.30000000E+01  1.20000000E+01  0.00000000E+00
  3.30000000E+01  1.10000000E+01  0.00000000E+00
  3.30000000E+01  1.00000000E+01  0.00000000E+00
  3.30000000E+01  9.00000000E+00  0.00000000E+00
  3.30000000E+01  8.00000000E+00  0.00000000E+00
  3.30000000E+01  7.00000000E+00  0.00000000E+00
  3.30000000E+01  6.00000000E+00  0.00000000E+00
  3.30000000E+01  5.00000000E+00  0.00000000E+00
  3.30000000E+01  4.00000000E+00  0.00000000E+00
  3.30000000E+01  3.00000000E+00  0.00000000E+00
  3.30000000E+01  2.00000000E+00  0.00000000E+00
  3.30000000E+01  1.00000000E+00  0.00000000E+00
  3.30000000E+01 -2.66453526E-15  0.00000000E+00
  3.40000000E+01  2.40000000E+01  0.00000000E+00
  3.40000000E+01  2.30000000E+01  0.00000000E+00
  3.40000000E+01  2.20000000E+01  0.00000000E+00
  3.40000000E+01  2.10000000E+01  0.00000000E+00
  3.40000000E+01  2.00000000E+01  0.00000000E+00
  3.40000000E+01  1.90000000E+01  0.00000000E+00
  3.40000000E+01  1.80000000E+01  0.00000000E+00
  3.40000000E+01  1.70000000E+01  0.00000000E+00
  3.40000000E+01  1.60000000E+01  0.00000000E+00
  3.40000000E+01  1.50000000E+01  0.00000000E+00
  3.40000000E+01  1.40000000E+01  0.00000000E+00
  3.40000000E+01  1.30000000E+01  0.00000000E+00
  3.40000000E+01  1.20000000E+01  0.00000000E+00
  3.40000000E+01  1.10000000E+01  0.00000000E+00
  3.40000000E+01  1.00000000E+01  0.00000000E+00
  3.40000000E+01  9.00000000E+00  0.00000000E+00
  3.40000000E+01  8.00000000E+00  0.00000000E+00
  3.40000000E+01  7.00000000E+00  0.00000000E+00
  3.40000000E+01  6.00000000E+00  0.00000000E+00
  3.40000000E+01  5.00000000E+00  0.00000000E+00
  3.40000000E+01  4.00000000E+00  0.00000000E+00
  3.40000000E+01  3.00000000E+00  0.00000000E+00
  3.40000000E+01  2.00000000E+00  0.00000000E+00
  3.40000000E+01  1.00000000E+00  0.00000000E+00
  3.40000000E+01 -2.66453526E-15  0.00000000E+00
  3.50000000E+01  2.40000000E+01  0.00000000E+00
  3.50000000E+01  2.30000000E+01  0.00000000E+00
  3.50000000E+01  2.20000000E+01  0.00000000E+00
  3.50000000E+01  2.10000000E+01  0.00000000E+00
  3.50000000E+01  2.00000000E+01  0.00000000E+00
  3.50000000E+01  1.90000000E+01  0.00000000E+00
  3.50000000E+01  1.80000000E+01  0.00000000E+00
  3.50000000E+01  1.70000000E+01  0.00000000E+00
  3.50000000E+01  1.60000000E+01  0.00000000E+00
  3.50000000E+01  1.50000000E+01  0.00000000E+00
  3.50000000E+01  1.40000000E+01  0.00000000E+00
  3.50000000E+01  1.30000000E+01  0.00000000E+00
  3.50000000E+01  1.20000000E+01  0.00000000E+00
  3.50000000E+01  1.10000000E+01  0.00000000E+00
  3.50000000E+01  1.00000000E+01  0.00000000E+00
  3.50000000E+01  9.00000000E+00  0.00000000E+00
  3.50000000E+01  8.00000000E+00  0.00000000E+00
  3.50000000E+01  7.00000000E+00  0.00000000E+00
  3.50000000E+01  6.00000000E+00  0.00000000E+00
  3.50000000E+01  5.00000000E+00  0.00000000E+00
  3.50000000E+01  4.00000000E+00  0.00000000E+00
  3.50000000E+01  3.00000000E+00  0.00000000E+00
  3.50000000E+01  2.00000000E+00  0.00000000E+00
  3.50000000E+01  1.00000000E+00  0.00000000E+00
  3.50000000E+01 -2.66453526E-15  0.00000000E+00
  3.60000000E+01  2.40000000E+01  0.00000000E+00
  3.60000000E+01  2.30000000E+01  0.00000000E+00
  3.60000000E+01  2.20000000E+01  0.00000000E+00
  3.60000000E+01  2.10000000E+01  0.00000000E+00
  3.60000000E+01  2.00000000E+01  0.00000000E+00
  3.60000000E+01  1.90000000E+01  0.00000000E+00
  3.60000000E+01  1.80000000E+01  0.00000000E+00
  3.60000000E+01  1.70000000E+01  0.00000000E+00
  3.60000000E+01  1.60000000E+01  0.00000000E+00
  3.60000000E+01  1.50000000E+01  0.00000000E+00
  3.60000000E+01  1.40000000E+01  0.00000000E+00
  3.60000000E+01  1.30000000E+01  0.00000000E+00
  3.60000000E+01  1.20000000E+01  0.00000000E+00
  3.60000000E+01  1.10000000E+01  0.00000000E+00
  3.60000000E+01  1.00000000E+01  0.00000000E+00
  3.60000000E+01  9.00000000E+00  0.00000000E+00
  3.60000000E+01  8.00000000E+00  0.00000000E+00
  3.60000000E+01  7.00000000E+00  0.00000000E+00
  3.60000000E+01  6.00000000E+00  0.00000000E+00
  3.60000000E+01  5.00000000E+00  0.00000000E+00
  3.60000000E+01  4.00000000E+00  0.00000000E+00
  3.60000000E+01  3.00000000E+00  0.00000000E+00
  3.60000000E+01  2.00000000E+00  0.00000000E+00
  3.60000000E+01  1.00000000E+00  0.00000000E+00
  3.60000000E+01 -2.66453526E-15  0.00000000E+00
  3.70000000E+01  2.40000000E+01  0.00000000E+00
  3.70000000E+01  2.30000000E+01  0.00000000E+00
  3.70000000E+01  2.20000000E+01  0.00000000E+00
  3.70000000E+01  2.10000000E+01  0.00000000E+00
  3.70000000E+01  2.00000000E+01  0.00000000E+00
  3.70000000E+01  1.90000000E+01  0.00000000E+00
  3.70000000E+01  1.80000000E+01  0.00000000E+00
  3.70000000E+01  1.70000000E+01  0.00000000E+00
  3.70000000E+01  1.60000000E+01  0.00000000E+00
  3.70000000E+01  1.50000000E+01  0.00000000E+00
  3.70000000E+01  1.40000000E+01  0.00000000E+00
  3.70000000E+01  1.30000000E+01  0.00000000E+00
  3.70000000E+01  1.20000000E+01  0.00000000E+00
  3.70000000E+01  1.10000000E+01  0.00000000E+00
  3.70000000E+01  1.00000000E+01  0.00000000E+00
  3.70000000E+01  9.00000000E+00  0.00000000E+00
  3.70000000E+01  8.00000000E+00  0.00000000E+00
  3.70000000E+01  7.00000000E+00  0.00000000E+00
  3.70000000E+01  6.00000000E+00  0.00000000E+00
  3.70000000E+01  5.00000000E+00  0.00000000E+00
  3.70000000E+01  4.00000000E+00  0.00000000E+00
  3.70000000E+01  3.00000000E+00  0.00000000E+00
  3.70000000E+01  2.00000000E+00  0.00000000E+00
  3.70000000E+01  1.00000000E+00  0.00000000E+00
  3.70000000E+01 -2.66453526E-15  0.00000000E+00
  3.80000000E+01  2.40000000E+01  0.00000000E+00
  3.80000000E+01  2.30000000E+01  0.00000000E+00
  3.80000000E+01  2.20000000E+01  0.00000000E+00
  3.80000000E+01  2.10000000E+01  0.00000000E+00
  3.80000000E+01  2.00000000E+01  0.00000000E+00
  3.80000000E+01  1.90000000E+01  0.00000000E+00
  3.80000000E+01  1.80000000E+01  0.00000000E+00
  3.80000000E+01  1.70000000E+01  0.00000000E+00
  3.80000000E+01  1.60000000E+01  0.00000000E+00
  3.80000000E+01  1.50000000E+01  0.00000000E+00
  3.80000000E+01  1.40000000E+01  0.00000000E+00
  3.80000000E+01  1.30000000E+01  0.00000000E+00
  3.80000000E+01  1.20000000E+01  0.00000000E+00
  3.80000000E+01  1.10000000E+01  0.00000000E+00
  3.80000000E+01  1.00000000E+01  0.00000000E+00
  3.80000000E+01  9.00000000E+00  0.00000000E+00
  3.80000000E+01  8.00000000E+00  0.00000000E+00
  3.80000000E+01  7.00000000E+00  0.00000000E+00
  3.80000000E+01  6.00000000E+00  0.00000000E+00
  3.80000000E+01  5.00000000E+00  0.00000000E+00
  3.80000000E+01  4.00000000E+00  0.00000000E+00
  3.80000000E+01  3.00000000E+00  0.00000000E+00
  3.80000000E+01  2.00000000E+00  0.00000000E+00
  3.80000000E+01  1.00000000E+00  0.00000000E+00
  3.80000000E+01 -2.66453526E-15  0.00000000E+00
  3.90000000E+01  2.40000000E+01  0.00000000E+00
  3.90000000E+01  2.30000000E+01  0.00000000E+00
  3.90000000E+01  2.20000000E+01  0.00000000E+00
  3.90000000E+01  2.10000000E+01  0.00000000E+00
  3.90000000E+01  2.00000000E+01  0.00000000E+00
  3.90000000E+01  1.90000000E+01  0.00000000E+00
  3.90000000E+01  1.80000000E+01  0.00000000E+00
  3.90000000E+01  1.70000000E+01  0.00000000E+00
  3.90000000E+01  1.60000000E+01  0.00000000E+00
  3.90000000E+01  1.50000000E+01  0.00000000E+00
  3.90000000E+01  1.40000000E+01  0.00000000E+00
  3.90000000E+01  1.30000000E+01  0.00000000E+00
  3.90000000E+01  1.20000000E+01  0.00000000E+00
  3.90000000E+01  1.10000000E+01  0.00000000E+00
  3.90000000E+01  1.00000000E+01  0.00000000E+00
  3.90000000E+01  9.00000000E+00  0.00000000E+00
  3.90000000E+01  8.00000000E+00  0.00000000E+00
  3.90000000E+01  7.00000000E+00  0.00000000E+00
  3.90000000E+01  6.00000000E+00  0.00000000E+00
  3.90000000E+01  5.00000000E+00  0.00000000E+00
  3.90000000E+01  4.00000000E+00  0.00000000E+00
  3.90000000E+01  3.00000000E+00  0.00000000E+00
  3.90000000E+01  2.00000000E+00  0.00000000E+00
  3.90000000E+01  1.00000000E+00  0.00000000E+00
  3.90000000E+01 -2.66453526E-15  0.00000000E+00
  4.00000000E+01  2.40000000E+01  0.00000000E+00
  4.00000000E+01  2.30000000E+01  0.00000000E+00
  4.00000000E+01  2.20000000E+01  0.00000000E+00
  4.00000000E+01  2.10000000E+01  0.00000000E+00
  4.00000000E+01  2.00000000E+01  0.00000000E+00
  4.00000000E+01  1.90000000E+01  0.00000000E+00
  4.00000000E+01  1.80000000E+01  0.00000000E+00
  4.00000000E+01  1.70000000E+01  0.00000000E+00
  4.00000000E+01  1.60000000E+01  0.00000000E+00
  4.00000000E+01  1.50000000E+01  0.00000000E+00
  4.00000000E+01  1.40000000E+01  0.00000000E+00
  4.00000000E+01  1.30000000E+01  0.00000000E+00
  4.00000000E+01  1.20000000E+01  0.00000000E+00
  4.00000000E+01  1.10000000E+01  0.00000000E+00
  4.00000000E+01  1.00000000E+01  0.00000000E+00
  4.00000000E+01  9.00000000E+00  0.00000000E+00
  4.00000000E+01  8.00000000E+00  0.00000000E+00
  4.00000000E+01  7.00000000E+00  0.00000000E+00
  4.00000000E+01  6.00000000E+00  0.00000000E+00
  4.00000000E+01  5.00000000E+00  0.00000000E+00
  4.00000000E+01  4.00000000E+00  0.00000000E+00
  4.00000000E+01  3.00000000E+00  0.00000000E+00
  4.00000000E+01  2.00000000E+00  0.00000000E+00
  4.00000000E+01  1.00000000E+00  0.00000000E+00
  4.00000000E+01 -2.66453526E-15  0.00000000E+00
  4.10000000E+01  2.40000000E+01  0.00000000E+00
  4.10000000E+01  2.30000000E+01  0.00000000E+00
  4.10000000E+01  2.20000000E+01  0.00000000E+00
  4.10000000E+01  2.10000000E+01  0.00000000E+00
  4.10000000E+01  2.00000000E+01  0.00000000E+00
  4.10000000E+01  1.90000000E+01  0.00000000E+00
  4.10000000E+01  1.80000000E+01  0.00000000E+00
  4.10000000E+01  1.70000000E+01  0.00000000E+00
  4.10000000E+01  1.60000000E+01  0.00000000E+00
  4.10000000E+01  1.50000000E+01  0.00000000E+00
  4.10000000E+01  1.40000000E+01  0.00000000E+00
  4.10000000E+01  1.30000000E+01  0.00000000E+00
  4.10000000E+01  1.20000000E+01  0.00000000E+00
  4.10000000E+01  1.10000000E+01  0.00000000E+00
  4.10000000E+01  1.00000000E+01  0.00000000E+00
  4.10000000E+01  9.00000000E+00  0.00000000E+00
  4.10000000E+01  8.00000000E+00  0.00000000E+00
  4.10000000E+01  7.00000000E+00  0.00000000E+00
  4.10000000E+01  6.00000000E+00  0.00000000E+00
  4.10000000E+01  5.00000000E+00  0.00000000E+00
  4.10000000E+01  4.00000000E+00  0.00000000E+00
  4.10000000E+01  3.00000000E+00  0.00000000E+00
  4.10000000E+01  2.00000000E+00  0.00000000E+00
  4.10000000E+01  1.00000000E+00  0.00000000E+00
  4.10000000E+01 -2.66453526E-15  0.00000000E+00
  4.20000000E+01  2.40000000E+01  0.00000000E+00
  4.20000000E+01  2.30000000E+01  0.00000000E+00
  4.20000000E+01  2.20000000E+01  0.00000000E+00
  4.20000000E+01  2.10000000E+01  0.00000000E+00
  4.20000000E+01  2.00000000E+01  0.00000000E+00
  4.20000000E+01  1.90000000E+01  0.00000000E+00
  4.20000000E+01  1.80000000E+01  0.00000000E+00
  4.20000000E+01  1.70000000E+01  0.00000000E+00
  4.20000000E+01  1.60000000E+01  0.00000000E+00
  4.20000000E+01  1.50000000E+01  0.00000000E+00
  4.20000000E+01  1.40000000E+01  0.00000000E+00
  4.20000000E+01  1.30000000E+01  0.00000000E+00
  4.20000000E+01  1.20000000E+01  0.00000000E+00
  4.20000000E+01  1.10000000E+01  0.00000000E+00
  4.20000000E+01  1.00000000E+01  0.00000000E+00
  4.20000000E+01  9.00000000E+00  0.00000000E+00
  4.20000000E+01  8.00000000E+00  0.00000000E+00
  4.20000000E+01  7.00000000E+00  0.00000000E+00
  4.20000000E+01  6.00000000E+00  0.00000000E+00
  4.20000000E+01  5.00000000E+00  0.00000000E+00
  4.20000000E+01  4.00000000E+00  0.00000000E+00
  4.20000000E+01  3.00000000E+00  0.00000000E+00
  4.20000000E+01  2.00000000E+00  0.00000000E+00
  4.20000000E+01  1.00000000E+00  0.00000000E+00
  4.20000000E+01 -2.66453526E-15  0.00000000E+00
  4.30000000E+01  2.40000000E+01  0.00000000E+00
  4.30000000E+01  2.30000000E+01  0.00000000E+00
  4.30000000E+01  2.20000000E+01  0.00000000E+00
  4.30000000E+01  2.10000000E+01  0.00000000E+00
  4.30000000E+01  2.00000000E+01  0.00000000E+00
  4.30000000E+01  1.90000000E+01  0.00000000E+00
  4.30000000E+01  1.80000000E+01  0.00000000E+00
  4.30000000E+01  1.70000000E+01  0.00000000E+00
  4.30000000E+01  1.60000000E+01  0.00000000E+00
  4.30000000E+01  1.50000000E+01  0.00000000E+00
  4.30000000E+01  1.40000000E+01  0.00000000E+00
  4.30000000E+01  1.30000000E+01  0.00000000E+00
  4.30000000E+01  1.20000000E+01  0.00000000E+00
  4.30000000E+01  1.10000000E+01  0.00000000E+00
  4.30000000E+01  1.00000000E+01  0.00000000E+00
  4.30000000E+01  9.00000000E+00  0.00000000E+00
  4.30000000E+01  8.00000000E+00  0.00000000E+00
  4.30000000E+01  7.00000000E+00  0.00000000E+00
  4.30000000E+01  6.00000000E+00  0.00000000E+00
  4.30000000E+01  5.00000000E+00  0.00000000E+00
  4.30000000E+01  4.00000000E+00  0.00000000E+00
  4.30000000E+01  3.00000000E+00  0.00000000E+00
  4.30000000E+01  2.00000000E+00  0.00000000E+00
  4.30000000E+01  1.00000000E+00  0.00000000E+00
  4.30000000E+01 -2.66453526E-15  0.00000000E+00
  4.40000000E+01  2.40000000E+01  0.00000000E+00
  4.40000000E+01  2.30000000E+01  0.00000000E+00
  4.40000000E+01  2.20000000E+01  0.00000000E+00
  4.40000000E+01  2.10000000E+01  0.00000000E+00
  4.40000000E+01  2.00000000E+01  0.00000000E+00
  4.40000000E+01  1.90000000E+01  0.00000000E+00
  4.40000000E+01  1.80000000E+01  0.00000000E+00
  4.40000000E+01  1.70000000E+01  0.00000000E+00
  4.40000000E+01  1.60000000E+01  0.00000000E+00
  4.40000000E+01  1.50000000E+01  0.00000000E+00
  4.40000000E+01  1.40000000E+01  0.00000000E+00
  4.40000000E+01  1.30000000E+01  0.00000000E+00
  4.40000000E+01  1.20000000E+01  0.00000000E+00
  4.40000000E+01  1.10000000E+01  0.00000000E+00
  4.40000000E+01  1.00000000E+01  0.00000000E+00
  4.40000000E+01  9.00000000E+00  0.00000000E+00
  4.40000000E+01  8.00000000E+00  0.00000000E+00
  4.40000000E+01  7.00000000E+00  0.00000000E+00
  4.40000000E+01  6.00000000E+00  0.00000000E+00
  4.40000000E+01  5.00000000E+00  0.00000000E+00
  4.40000000E+01  4.00000000E+00  0.00000000E+00
  4.40000000E+01  3.00000000E+00  0.00000000E+00
  4.40000000E+01  2.00000000E+00  0.00000000E+00
  4.40000000E+01  1.00000000E+00  0.00000000E+00
  4.40000000E+01 -2.66453526E-15  0.00000000E+00
  4.50000000E+01  2.40000000E+01  0.00000000E+00
  4.50000000E+01  2.30000000E+01  0.00000000E+00
  4.50000000E+01  2.20000000E+01  0.00000000E+00
  4.50000000E+01  2.10000000E+01  0.00000000E+00
  4.50000000E+01  2.00000000E+01  0.00000000E+00
  4.50000000E+01  1.90000000E+01  0.00000000E+00
  4.50000000E+01  1.80000000E+01  0.00000000E+00
  4.50000000E+01  1.70000000E+01  0.00000000E+00
  4.50000000E+01  1.60000000E+01  0.00000000E+00
  4.50000000E+01  1.50000000E+01  0.00000000E+00
  4.50000000E+01  1.40000000E+01  0.00000000E+00
  4.50000000E+01  1.30000000E+01  0.00000000E+00
  4.50000000E+01  1.20000000E+01  0.00000000E+00
  4.50000000E+01  1.10000000E+01  0.00000000E+00
  4.50000000E+01  1.00000000E+01  0.00000000E+00
  4.50000000E+01  9.00000000E+00  0.00000000E+00
  4.50000000E+01  8.00000000E+00  0.00000000E+00
  4.50000000E+01  7.00000000E+00  0.00000000E+00
  4.50000000E+01  6.00000000E+00  0.00000000E+00
  4.50000000E+01  5.00000000E+00  0.00000000E+00
  4.50000000E+01  4.00000000E+00  0.00000000E+00
  4.50000000E+01  3.00000000E+00  0.00000000E+00
  4.50000000E+01  2.00000000E+00  0.00000000E+00
  4.50000000E+01  1.00000000E+00  0.00000000E+00
  4.50000000E+01 -2.66453526E-15  0.00000000E+00
  4.60000000E+01  2.40000000E+01  0.00000000E+00
  4.60000000E+01  2.30000000E+01  0.00000000E+00
  4.60000000E+01  2.20000000E+01  0.00000000E+00
  4.60000000E+01  2.10000000E+01  0.00000000E+00
  4.60000000E+01  2.00000000E+01  0.00000000E+00
  4.60000000E+01  1.90000000E+01  0.00000000E+00
  4.60000000E+01  1.80000000E+01  0.00000000E+00
  4.60000000E+01  1.70000000E+01  0.00000000E+00
  4.60000000E+01  1.60000000E+01  0.00000000E+00
  4.60000000E+01  1.50000000E+01  0.00000000E+00
  4.60000000E+01  1.40000000E+01  0.00000000E+00
  4.60000000E+01  1.30000000E+01  0.00000000E+00
  4.60000000E+01  1.20000000E+01  0.00000000E+00
  4.60000000E+01  1.10000000E+01  0.00000000E+00
  4.60000000E+01  1.00000000E+01  0.00000000E+00
  4.60000000E+01  9.00000000E+00  0.00000000E+00
  4.60000000E+01  8.00000000E+00  0.00000000E+00
  4.60000000E+01  7.00000000E+00  0.00000000E+00
  4.60000000E+01  6.00000000E+00  0.00000000E+00
  4.60000000E+01  5.00000000E+00  0.00000000E+00
  4.60000000E+01  4.00000000E+00  0.00000000E+00
  4.60000000E+01  3.00000000E+00  0.00000000E+00
  4.60000000E+01  2.00000000E+00  0.00000000E+00
  4.60000000E+01  1.00000000E+00  0.00000000E+00
  4.60000000E+01 -2.66453526E-15  0.00000000E+00
  4.70000000E+01  2.40000000E+01  0.00000000E+00
  4.70000000E+01  2.30000000E+01  0.00000000E+00
  4.70000000E+01  2.20000000E+01  0.00000000E+00
  4.70000000E+01  2.10000000E+01  0.00000000E+00
  4.70000000E+01  2.00000000E+01  0.00000000E+00
  4.70000000E+01  1.90000000E+01  0.00000000E+00
  4.70000000E+01  1.80000000E+01  0.00000000E+00
  4.70000000E+01  1.70000000E+01  0.00000000E+00
  4.70000000E+01  1.60000000E+01  0.00000000E+00
  4.70000000E+01  1.50000000E+01  0.00000000E+00
  4.70000000E+01  1.40000000E+01  0.00000000E+00
  4.70000000E+01  1.30000000E+01  0.00000000E+00
  4.70000000E+01  1.20000000E+01  0.00000000E+00
  4.70000000E+01  1.10000000E+01  0.00000000E+00
  4.70000000E+01  1.00000000E+01  0.00000000E+00
  4.70000000E+01  9.00000000E+00  0.00000000E+00
  4.70000000E+01  8.00000000E+00  0.00000000E+00
  4.70000000E+01  7.00000000E+00  0.00000000E+00
  4.70000000E+01  6.00000000E+00  0.00000000E+00
  4.70000000E+01  5.00000000E+00  0.00000000E+00
  4.70000000E+01  4.00000000E+00  0.00000000E+00
  4.70000000E+01  3.00000000E+00  0.00000000E+00
  4.70000000E+01  2.00000000E+00  0.00000000E+00
  4.70000000E+01  1.00000000E+00  0.00000000E+00
  4.70000000E+01 -2.66453526E-15  0.00000000E+00
  4.80000000E+01  2.40000000E+01  0.00000000E+00
  4.80000000E+01  2.30000000E+01  0.00000000E+00
  4.80000000E+01  2.20000000E+01  0.00000000E+00
  4.80000000E+01  2.10000000E+01  0.00000000E+00
  4.80000000E+01  2.00000000E+01  0.00000000E+00
  4.80000000E+01  1.90000000E+01  0.00000000E+00
  4.80000000E+01  1.80000000E+01  0.00000000E+00
  4.80000000E+01  1.70000000E+01  0.00000000E+00
  4.80000000E+01  1.60000000E+01  0.00000000E+00
  4.80000000E+01  1.50000000E+01  0.00000000E+00
  4.80000000E+01  1.40000000E+01  0.00000000E+00
  4.80000000E+01  1.30000000E+01  0.00000000E+00
  4.80000000E+01  1.20000000E+01  0.00000000E+00
  4.80000000E+01  1.10000000E+01  0.00000000E+00
  4.80000000E+01  1.00000000E+01  0.00000000E+00
  4.80000000E+01  9.00000000E+00  0.00000000E+00
  4.80000000E+01  8.00000000E+00  0.00000000E+00
  4.80000000E+01  7.00000000E+00  0.00000000E+00
  4.80000000E+01  6.00000000E+00  0.00000000E+00
  4.80000000E+01  5.00000000E+00  0.00000000E+00
  4.80000000E+01  4.00000000E+00  0.00000000E+00
  4.80000000E+01  3.00000000E+00  0.00000000E+00
  4.80000000E+01  2.00000000E+00  0.00000000E+00
  4.80000000E+01  1.00000000E+00  0.00000000E+00
  4.80000000E+01 -2.66453526E-15  0.00000000E+00
CELLS      1152      5760
         4           0           1          26          25
         4           1           2          27          26
         4           2           3          28          27
         4           3           4          29          28
         4           4           5          30          29
         4           5           6          31          30
         4           6           7          32          31
         4           7           8          33          32
         4           8           9          34          33
         4           9          10          35          34
         4          10          11          36          35
         4          11          12          37          36
         4          12          13          38          37
         4          13          14          39          38
         4          14          15          40          39
         4          15          16          41          40
         4          16          17          42          41
         4          17          18          43          42
         4          18          19          44          43
         4          19          20          45          44
         4          20          21          46          45
         4          21          22          47          46
         4          22          23          48          47
         4          23          24          49          48
         4          25          26          51          50
         4          26          27          52          51
         4          27          28          53          52
         4          28          29          54          53
         4          29          30          55          54
         4          30          31          56          55
         4          31          32          57          56
         4          32          33          58          57
         4          33          34          59          58
         4          34          35          60          59
         4          35          36          61          60
         4          36          37          62          61
         4          37          38          63          62
         4          38          39          64          63
         4          39          40          65          64
         4          40          41          66          65
         4          41          42          67          66
         4          42          43          68          67
         4          43          44          69          68
         4          44          45          70          69
         4          45          46          71          70
         4          46          47          72          71
         4          47          48          73          72
         4          48          49          74          73
         4          50          51          76          75
         4          51          52          77          76
         4          52          53          78          77
         4          53          54          79          78
         4          54          55          80          79
         4          55          56          81          80
         4          56          57          82          81
         4          57          58          83          82
         4          58          59          84          83
         4          59          60          85          84
         4          60          61          86          85
         4          61          62          87          86
         4          62          63          88          87
         4          63          64          89          88
         4          64          65          90          89
         4          65          66          91          90
         4          66          67          92          91
         4          67          68          93          92
         4          68          69          94          93
         4          69          70          95          94
         4          70          71          96          95
         4          71          72          97          96
         4          72          73          98          97
         4          73          74          99          98
         4          75          76         101         100
         4          76          77         102         101
         4          77          78         103         102
         4          78          79         104         103
         4          79          80         105         104
         4          80          81         106         105
         4          81          82         107         106
         4          82          83         108         107
         4          83          84         109         108
         4          84          85         110         109
         4          85          86         111         110
         4          86          87         112         111
         4          87          88         113         112
         4          88          89         114         113
         4          89          90         115         114
         4          90          91         116         115
         4          91          92         117         116
         4          92          93         118         117
         4          93          94         119         118
         4          94          95         120         119
         4          95          96         121         120
         4          96          97         122         121
         4          97          98         123         122
         4          98          99         124         123
         4         100         101         126         125
         4         101         102         127         126
         4         102         103         128         127
         4         103         104         129         128
         4         104         105         130         129
         4         105         106         131         130
         4         106         107         132         131
         4         107         108         133         132
         4         108         109         134         133
         4         109         110         135         134
         4         110         111         136         135
         4         111         112         137         136
         4         112         113         138         137
         4         113         114         139         138
         4         114         115         140         139
         4         115         116         141         140
         4         116         117         142         141
         4         117         118         143         142
         4         118         119         144         143
         4         119         120         145         144
         4         120         121         146         145
         4         121         122         147         146
         4         122         123         148         147
         4         123         124         149         148
         4         125         126         151         150
         4         126         127         152         151
         4         127         128         153         152
         4         128         129         154         153
         4         129         130         155         154
         4         130         131         156         155
         4         131         132         157         156
         4         132         133         158         157
         4         133         134         159         158
         4         134         135         160         159
         4         135         136         161         160
         4         136         137         162         161
         4         137         138         163         162
         4         138         139         164         163
         4         139         140         165         164
         4         140         141         166         165
         4         141         142         167         166
         4         142         143         168         167
         4         143         144         169         168
         4         144         145         170         169
         4         145         146         171         170
         4         146         147         172         171
         4         147         148         173         172
         4         148         149         174         173
         4         150         151         176         175
         4         151         152         177         176
         4         152         153         178         177
         4         153         154         179         178
         4         154         155         180         179
         4         155         156         181         180
         4         156         157         182         181
         4         157         158         183         182
         4         158         159         184         183
         4         159         160         185         184
         4         160         161         186         185
         4         161         162         187         186
         4         162         163         188         187
         4         163         164         189         188
         4         164         165         190         189
         4         165         166         191         190
         4         166         167         192         191
         4         167         168         193         192
         4         168         169         194         193
         4         169         170         195         194
         4         170         171         196         195
         4         171         172         197         196
         4         172         173         198         197
         4         173         174         199         198
         4         175         176         201         200
         4         176         177         202         201
         4         177         178         203         202
         4         178         179         204         203
         4         179         180         205         204
         4         180         181         206         205
         4         181         182         207         206
         4         182         183         208         207
         4         183         184         209         208
         4         184         185         210         209
         4         185         186         211         210
         4         186         187         212         211
         4         187         188         213         212
         4         188         189         214         213
         4         189         190         215         214
         4         190         191         216         215
         4         191         192         217         216
         4         192         193         218         217
         4         193         194         219         218
         4         194         195         220         219
         4         195         196         221         220
         4         196         197         222         221
         4         197         198         223         222
         4         198         199         224         223
         4         200         201         226         225
         4         201         202         227         226
         4         202         203         228         227
         4         203         204         229         228
         4         204         205         230         229
         4         205         206         231         230
         4         206         207         232         231
         4         207         208         233         232
         4         208         209         234         233
         4         209         210         235         234
         4         210         211         236         235
         4         211         212         237         236
         4         212         213         238         237
         4         213         214         239         238
         4         214         215         240         239
         4         215         216         241         240
         4         216         217         242         241
         4         217         218         243         242
         4         218         219         244         243
         4         219         220         245         244
         4         220         221         246         245
         4         221         222         247         246
         4         222         223         248         247
         4         223         224         249         248
         4         225         226         251         250
         4         226         227         252         251
         4         227         228         253         252
         4         228         229         254         253
         4         229         230         255         254
         4         230         231         256         255
         4         231         232         257         256
         4         232         233         258         257
         4         233         234         259         258
         4         234         235         260         259
         4         235         236         261         260
         4         236         237         262         261
         4         237         238         263         262
         4         238         239         264         263
         4         239         240         265         264
         4         240         241         266         265
         4         241         242         267         266
         4         242         243         268         267
         4         243         244         269         268
         4         244         245         270         269
         4         245         246         271         270
         4         246         247         272         271
         4         247         248         273         272
         4         248         249         274         273
         4         250         251         276         275
         4         251         252         277         276
         4         252         253         278         277
         4         253         254         279         278
         4         254         255         280         279
         4         255         256         281         280
         4         256         257         282         281
         4         257         258         283         282
         4         258         259         284         283
         4         259         260         285         284
         4         260         261         286         285
         4         261         262         287         286
         4         262         263         288         287
         4         263         264         289         288
         4         264         265         290         289
         4         265         266         291         290
         4         266         267         292         291
         4         267         268         293         292
         4         268         269         294         293
         4         269         270         295         294
         4         270         271         296         295
         4         271         272         297         296
         4         272         273         298         297
         4         273         274         299         298
         4         275         276         301         300
         4         276         277         302         301
         4         277         278         303         302
         4         278         279         304         303
         4         279         280         305         304
         4         280         281         306         305
         4         281         282         307         306
         4         282         283         308         307
         4         283         284         309         308
         4         284         285         310         309
         4         285         286         311         310
         4         286         287         312         311
         4         287         288         313         312
         4         288         289         314         313
         4         289         290         315         314
         4         290         291         316         315
         4         291         292         317         316
         4         292         293         318         317
         4         293         294         319         318
         4         294         295         320         319
         4         295         296         321         320
         4         296         297         322         321
         4         297         298         323         322
         4         298         299         324         323
         4         300         301         326         325
         4         301         302         327         326
         4         302         303         328         327
         4         303         304         329         328
         4         304         305         330         329
         4         305         306         331         330
         4         306         307         332         331
         4         307         308         333         332
         4         308         309         334         333
         4         309         310         335         334
         4         310         311         336         335
         4         311         312         337         336
         4         312         313         338         337
         4         313         314         339         338
         4         314         315         340         339
         4         315         316         341         340
         4         316         317         342         341
         4         317         318         343         342
         4         318         319         344         343
         4         319         320         345         344
         4         320         321         346         345
         4         321         322         347         346
         4         322         323         348         347
         4         323         324         349         348
         4         325         326         351         350
         4         326         327         352         351
         4         327         328         353         352
         4         328         329         354         353
         4         329         330         355         354
         4         330         331         356         355
         4         331         332         357         356
         4         332         333         358         357
         4         333         334         359         358
         4         334         335         360         359
         4         335         336         361         360
         4         336         337         362         361
         4         337         338         363         362
         4         338         339         364         363
         4         339         340         365         364
         4         340         341         366         365
         4         341         342         367         366
         4         342         343         368         367
         4         343         344         369         368
         4         344         345         370         369
         4         345         346         371         370
         4         346         347         372         371
         4         347         348         373         372
         4         348         349         374         373
         4         350         351         376         375
         4         351         352         377         376
         4         352         353         378         377
         4         353         354         379         378
         4         354         355         380         379
         4         355         356         381         380
         4         356         357         382         381
         4         357         358         383         382
         4         358         359         384         383
         4         359         360         385         384
         4         360         361         386         385
         4         361         362         387         386
         4         362         363         388         387
         4         363         364         389         388
         4         364         365         390         389
         4         365         366         391         390
         4         366         367         392         391
         4         367         368         393         392
         4         368         369         394         393
         4         369         370         395         394
         4         370         371         396         395
         4         371         372         397         396
         4         372         373         398         397
         4         373         374         399         398
         4         375         376         401         400
         4         376         377         402         401
         4         377         378         403         402
         4         378         379         404         403
         4         379         380         405         404
         4         380         381         406         405
         4         381         382         407         406
         4         382         383         408         407
         4         383         384         409         408
         4         384         385         410         409
         4         385         386         411         410
         4         386         387         412         411
         4         387         388         413         412
         4         388         389         414         413
         4         389         390         415         414
         4         390         391         416         415
         4         391         392         417         416
         4         392         393         418         417
         4         393         394         419         418
         4         394         395         420         419
         4         395         396         421         420
         4         396         397         422         421
         4         397         398         423         422
         4         398         399         424         423
         4         400         401         426         425
         4         401         402         427         426
         4         402         403         428         427
         4         403         404         429         428
         4         404         405         430         429
         4         405         406         431         430
         4         406         407         432         431
         4         407         408         433         432
         4         408         409         434         433
         4         409         410         435         434
         4         410         411         436         435
         4         411         412         437         436
         4         412         413         438         437
         4         413         414         439         438
         4         414         415         440         439
         4         415         416         441         440
         4         416         417         442         441
         4         417         418         443         442
         4         418         419         444         443
         4         419         420         445         444
         4         420         421         446         445
         4         421         422         447         446
         4         422         423         448         447
         4         423         424         449         448
         4         425         426         451         450
         4         426         427         452         451
         4         427         428         453         452
         4         428         429         454         453
         4         429         430         455         454
         4         430         431         456         455
         4         431         432         457         456
         4         432         433         458         457
         4         433         434         459         458
         4         434         435         460         459
         4         435         436         461         460
         4         436         437         462         461
         4         437         438         463         462
         4         438         439         464         463
         4         439         440         465         464
         4         440         441         466         465
         4         441         442         467         466
         4         442         443         468         467
         4         443         444         469         468
         4         444         445         470         469
         4         445         446         471         470
         4         446         447         472         471
         4         447         448         473         472
         4         448         449         474         473
         4         450         451         476         475
         4         451         452         477         476
         4         452         453         478         477
         4         453         454         479         478
         4         454         455         480         479
         4         455         456         481         480
         4         456         457         482         481
         4         457         458         483         482
         4         458         459         484         483
         4         459         460         485         484
         4         460         461         486         485
         4         461         462         487         486
         4         462         463         488         487
         4         463         464         489         488
         4         464         465         490         489
         4         465         466         491         490
         4         466         467         492         491
         4         467         468         493         492
         4         468         469         494         493
         4         469         470         495         494
         4         470         471         496         495
         4         471         472         497         496
         4         472         473         498         497
         4         473         474         499         498
         4         475         476         501         500
         4         476         477         502         501
         4         477         478         503         502
         4         478         479         504         503
         4         479         480         505         504
         4         480         481         506         505
         4         481         482         507         506
         4         482         483         508         507
         4         483         484         509         508
         4         484         485         510         509
         4         485         486         511         510
         4         486         487         512         511
         4         487         488         513         512
         4         488         489         514         513
         4         489         490         515         514
         4         490         491         516         515
         4         491         492         517         516
         4         492         493         518         517
         4         493         494         519         518
         4         494         495         520         519
         4         495         496         521         520
         4         496         497         522         521
         4         497         498         523         522
         4         498         499         524         523
         4         500         501         526         525
         4         501         502         527         526
         4         502         503         528         527
         4         503         504         529         528
         4         504         505         530         529
         4         505         506         531         530
         4         506         507         532         531
         4         507         508         533         532
         4         508         509         534         533
         4         509         510         535         534
         4         510         511         536         535
         4         511         512         537         536
         4         512         513         538         537
         4         513         514         539         538
         4         514         515         540         539
         4         515         516         541         540
         4         516         517         542         541
         4         517         518         543         542
         4         518         519         544         543
         4         519         520         545         544
         4         520         521         546         545
         4         521         522         547         546
         4         522         523         548         547
         4         523         524         549         548
         4         525         526         551         550
         4         526         527         552         551
         4         527         528         553         552
         4         528         529         554         553
         4         529         530         555         554
         4         530         531         556         555
         4         531         532         557         556
         4         532         533         558         557
         4         533         534         559         558
         4         534         535         560         559
         4         535         536         561         560
         4         536         537         562         561
         4         537         538         563         562
         4         538         539         564         563
         4         539         540         565         564
         4         540         541         566         565
         4         541         542         567         566
         4         542         543         568         567
         4         543         544         569         568
         4         544         545         570         569
         4         545         546         571         570
         4         546         547         572         571
         4         547         548         573         572
         4         548         549         574         573
         4         550         551         576         575
         4         551         552         577         576
         4         552         553         578         577
         4         553         554         579         578
         4         554         555         580         579
         4         555         556         581         580
         4         556         557         582         581
         4         557         558         583         582
         4         558         559         584         583
         4         559         560         585         584
         4         560         561         586         585
         4         561         562         587         586
         4         562         563         588         587
         4         563         564         589         588
         4         564         565         590         589
         4         565         566         591         590
         4         566         567         592         591
         4         567         568         593         592
         4         568         569         594         593
         4         569         570         595         594
         4         570         571         596         595
         4         571         572         597         596
         4         572         573         598         597
         4         573         574         599         598
         4         575         576         601         600
         4         576         577         602         601
         4         577         578         603         602
         4         578         579         604         603
         4         579         580         605         604
         4         580         581         606         605
         4         581         582         607         606
         4         582         583         608         607
         4         583         584         609         608
         4         584         585         610         609
         4         585         586         611         610
         4         586         587         612         611
         4         587         588         613         612
         4         588         589         614         613
         4         589         590         615         614
         4         590         591         616         615
         4         591         592         617         616
         4         592         593         618         617
         4         593         594         619         618
         4         594         595         620         619
         4         595         596         621         620
         4         596         597         622         621
         4         597         598         623         622
         4         598         599         624         623
         4         600         601         626         625
         4         601         602         627         626
         4         602         603         628         627
         4         603         604         629         628
         4         604         605         630         629
         4         605         606         631         630
         4         606         607         632         631
         4         607         608         633         632
         4         608         609         634         633
         4         609         610         635         634
         4         610         611         636         635
         4         611         612         637         636
         4         612         613         638         637
         4         613         614         639         638
         4         614         615         640         639
         4         615         616         641         640
         4         616         617         642         641
         4         617         618         643         642
         4         618         619         644         643
         4         619         620         645         644
         4         620         621         646         645
         4         621         622         647         646
         4         622         623         648         647
         4         623         624         649         648
         4         625         626         651         650
         4         626         627         652         651
         4         627         628         653         652
         4         628         629         654         653
         4         629         630         655         654
         4         630         631         656         655
         4         631         632         657         656
         4         632         633         658         657
         4         633         634         659         658
         4         634         635         660         659
         4         635         636         661         660
         4         636         637         662         661
         4         637         638         663         662
         4         638         639         664         663
         4         639         640         665         664
         4         640         641         666         665
         4         641         642         667         666
         4         642         643         668         667
         4         643         644         669         668
         4         644         645         670         669
         4         645         646         671         670
         4         646         647         672         671
         4         647         648         673         672
         4         648         649         674         673
         4         650         651         676         675
         4         651         652         677         676
         4         652         653         678         677
         4         653         654         679         678
         4         654         655         680         679
         4         655         656         681         680
         4         656         657         682         681
         4         657         658         683         682
         4         658         659         684         683
         4         659         660         685         684
         4         660         661         686         685
         4         661         662         687         686
         4         662         663         688         687
         4         663         664         689         688
         4         664         665         690         689
         4         665         666         691         690
         4         666         667         692         691
         4         667         668         693         692
         4         668         669         694         693
         4         669         670         695         694
         4         670         671         696         695
         4         671         672         697         696
         4         672         673         698         697
         4         673         674         699         698
         4         675         676         701         700
         4         676         677         702         701
         4         677         678         703         702
         4         678         679         704         703
         4         679         680         705         704
         4         680         681         706         705
         4         681         682         707         706
         4         682         683         708         707
         4         683         684         709         708
         4         684         685         710         709
         4         685         686         711         710
         4         686         687         712         711
         4         687         688         713         712
         4         688         689         714         713
         4         689         690         715         714
         4         690         691         716         715
         4         691         692         717         716
         4         692         693         718         717
         4         693         694         719         718
         4         694         695         720         719
         4         695         696         721         720
         4         696         697         722         721
         4         697         698         723         722
         4         698         699         724         723
         4         700         701         726         725
         4         701         702         727         726
         4         702         703         728         727
         4         703         704         729         728
         4         704         705         730         729
         4         705         706         731         730
         4         706         707         732         731
         4         707         708         733         732
         4         708         709         734         733
         4         709         710         735         734
         4         710         711         736         735
         4         711         712         737         736
         4         712         713         738         737
         4         713         714         739         738
         4         714         715         740         739
         4         715         716         741         740
         4         716         717         742         741
         4         717         718         743         742
         4         718         719         744         743
         4         719         720         745         744
         4         720         721         746         745
         4         721         722         747         746
         4         722         723         748         747
         4         723         724         749         748
         4         725         726         751         750
         4         726         727         752         751
         4         727         728         753         752
         4         728         729         754         753
         4         729         730         755         754
         4         730         731         756         755
         4         731         732         757         756
         4         732         733         758         757
         4         733         734         759         758
         4         734         735         760         759
         4         735         736         761         760
         4         736         737         762         761
         4         737         738         763         762
         4         738         739         764         763
         4         739         740         765         764
         4         740         741         766         765
         4         741         742         767         766
         4         742         743         768         767
         4         743         744         769         768
         4         744         745         770         769
         4         745         746         771         770
         4         746         747         772         771
         4         747         748         773         772
         4         748         749         774         773
         4         750         751         776         775
         4         751         752         777         776
         4         752         753         778         777
         4         753         754         779         778
         4         754         755         780         779
         4         755         756         781         780
         4         756         757         782         781
         4         757         758         783         782
         4         758         759         784         783
         4         759         760         785         784
         4         760         761         786         785
         4         761         762         787         786
         4         762         763         788         787
         4         763         764         789         788
         4         764         765         790         789
         4         765         766         791         790
         4         766         767         792         791
         4         767         768         793         792
         4         768         769         794         793
         4         769         770         795         794
         4         770         771         796         795
         4         771         772         797         796
         4         772         773         798         797
         4         773         774         799         798
         4         775         776         801         800
         4         776         777         802         801
         4         777         778         803         802
         4         778         779         804         803
         4         779         780         805         804
         4         780         781         806         805
         4         781         782         807         806
         4         782         783         808         807
         4         783         784         809         808
         4         784         785         810         809
         4         785         786         811         810
         4         786         787         812         811
         4         787         788         813         812
         4         788         789         814         813
         4         789         790         815         814
         4         790         791         816         815
         4         791         792         817         816
         4         792         793         818         817
         4         793         794         819         818
         4         794         795         820         819
         4         795         796         821         820
         4         796         797         822         821
         4         797         798         823         822
         4         798         799         824         823
         4         800         801         826         825
         4         801         802         827         826
         4         802         803         828         827
         4         803         804         829         828
         4         804         805         830         829
         4         805         806         831         830
         4         806         807         832         831
         4         807         808         833         832
         4         808         809         834         833
         4         809         810         835         834
         4         810         811         836         835
         4         811         812         837         836
         4         812         813         838         837
         4         813         814         839         838
         4         814         815         840         839
         4         815         816         841         840
         4         816         817         842         841
         4         817         818         843         842
         4         818         819         844         843
         4         819         820         845         844
         4         820         821         846         845
         4         821         822         847         846
         4         822         823         848         847
         4         823         824         849         848
         4         825         826         851         850
         4         826         827         852         851
         4         827         828         853         852
         4         828         829         854         853
         4         829         830         855         854
         4         830         831         856         855
         4         831         832         857         856
         4         832         833         858         857
         4         833         834         859         858
         4         834         835         860         859
         4         835         836         861         860
         4         836         837         862         861
         4         837         838         863         862
         4         838         839         864         863
         4         839         840         865         864
         4         840         841         866         865
         4         841         842         867         866
         4         842         843         868         867
         4         843         844         869         868
         4         844         845         870         869
         4         845         846         871         870
         4         846         847         872         871
         4         847         848         873         872
         4         848         849         874         873
         4         850         851         876         875
         4         851         852         877         876
         4         852         853         878         877
         4         853         854         879         878
         4         854         855         880         879
         4         855         856         881         880
         4         856         857         882         881
         4         857         858         883         882
         4         858         859         884         883
         4         859         860         885         884
         4         860         861         886         885
         4         861         862         887         886
         4         862         863         888         887
         4         863         864         889         888
         4         864         865         890         889
         4         865         866         891         890
         4         866         867         892         891
         4         867         868         893         892
         4         868         869         894         893
         4         869         870         895         894
         4         870         871         896         895
         4         871         872         897         896
         4         872         873         898         897
         4         873         874         899         898
         4         875         876         901         900
         4         876         877         902         901
         4         877         878         903         902
         4         878         879         904         903
         4         879         880         905         904
         4         880         881         906         905
         4         881         882         907         906
         4         882         883         908         907
         4         883         884         909         908
         4         884         885         910         909
         4         885         886         911         910
         4         886         887         912         911
         4         887         888         913         912
         4         888         889         914         913
         4         889         890         915         914
         4         890         891         916         915
         4         891         892         917         916
         4         892         893         918         917
         4         893         894         919         918
         4         894         895         920         919
         4         895         896         921         920
         4         896         897         922         921
         4         897         898         923         922
         4         898         899         924         923
         4         900         901         926         925
         4         901         902         927         926
         4         902         903         928         927
         4         903         904         929         928
         4         904         905         930         929
         4         905         906         931         930
         4         906         907         932         931
         4         907         908         933         932
         4         908         909         934         933
         4         909         910         935         934
         4         910         911         936         935
         4         911         912         937         936
         4         912         913         938         937
         4         913         914         939         938
         4         914         915         940         939
         4         915         916         941         940
         4         916         917         942         941
         4         917         918         943         942
         4         918         919         944         943
         4         919         920         945         944
         4         920         921         946         945
         4         921         922         947         946
         4         922         923         948         947
         4         923         924         949         948
         4         925         926         951         950
         4         926         927         952         951
         4         927         928         953         952
         4         928         929         954         953
         4         929         930         955         954
         4         930         931         956         955
         4         931         932         957         956
         4         932         933         958         957
         4         933         934         959         958
         4         934         935         960         959
         4         935         936         961         960
         4         936         937         962         961
         4         937         938         963         962
         4         938         939         964         963
         4         939         940         965         964
         4         940         941         966         965
         4         941         942         967         966
         4         942         943         968         967
         4         943         944         969         968
         4         944         945         970         969
         4         945         946         971         970
         4         946         947         972         971
         4         947         948         973         972
         4         948         949         974         973
         4         950         951         976         975
         4         951         952         977         976
         4         952         953         978         977
         4         953         954         979         978
         4         954         955         980         979
         4         955         956         981         980
         4         956         957         982         981
         4         957         958         983         982
         4         958         959         984         983
         4         959         960         985         984
         4         960         961         986         985
         4         961         962         987         986
         4         962         963         988         987
         4         963         964         989         988
         4         964         965         990         989
         4         965         966         991         990
         4         966         967         992         991
         4         967         968         993         992
         4         968         969         994         993
         4         969         970         995         994
         4         970         971         996         995
         4         971         972         997         996
         4         972         973         998         997
         4         973         974         999         998
         4         975         976        1001        1000
         4         976         977        1002        1001
         4         977         978        1003        1002
         4         978         979        1004        1003
         4         979         980        1005        1004
         4         980         981        1006        1005
         4         981         982        1007        1006
         4         982         983        1008        1007
         4         983         984        1009        1008
         4         984         985        1010        1009
         4         985         986        1011        1010
         4         986         987        1012        1011
         4         987         988        1013        1012
         4         988         989        1014        1013
         4         989         990        1015        1014
         4         990         991        1016        1015
         4         991         992        1017        1016
         4         992         993        1018        1017
         4         993         994        1019        1018
         4         994         995        1020        1019
         4         995         996        1021        1020
         4         996         997        1022        1021
         4         997         998        1023        1022
         4         998         999        1024        1023
         4        1000        1001        1026        1025
         4        1001        1002        1027        1026
         4        1002        1003        1028        1027
         4        1003        1004        1029        1028
         4        1004        1005        1030        1029
         4        1005        1006        1031        1030
         4        1006        1007        1032        1031
         4        1007        1008        1033        1032
         4        1008        1009        1034        1033
         4        1009        1010        1035        1034
         4        1010        1011        1036        1035
         4        1011        1012        1037        1036
         4        1012        1013        1038        1037
         4        1013        1014        1039        1038
         4        1014        1015        1040        1039
         4        1015        1016        1041        1040
         4        1016        1017        1042        1041
         4        1017        1018        1043        1042
         4        1018        1019        1044        1043
         4        1019        1020        1045        1044
         4        1020        1021        1046        1045
         4        1021        1022        1047        1046
         4        1022        1023        1048        1047
         4        1023        1024        1049        1048
         4        1025        1026        1051        1050
         4        1026        1027        1052        1051
         4        1027        1028        1053        1052
         4        1028        1029        1054        1053
         4        1029        1030        1055        1054
         4        1030        1031        1056        1055
         4        1031        1032        1057        1056
         4        1032        1033        1058        1057
         4        1033        1034        1059        1058
         4        1034        1035        1060        1059
         4        1035        1036        1061        1060
         4        1036        1037        1062        1061
         4        1037        1038        1063        1062
         4        1038        1039        1064        1063
         4        1039        1040        1065        1064
         4        1040        1041        1066        1065
         4        1041        1042        1067        1066
         4        1042        1043        1068        1067
         4        1043        1044        1069        1068
         4        1044        1045        1070        1069
         4        1045        1046        1071        1070
         4        1046        1047        1072        1071
         4        1047        1048        1073        1072
         4        1048        1049        1074        1073
         4        1050        1051        1076        1075
         4        1051        1052        1077        1076
         4        1052        1053        1078        1077
         4        1053        1054        1079        1078
         4        1054        1055        1080        1079
         4        1055        1056        1081        1080
         4        1056        1057        1082        1081
         4        1057        1058        1083        1082
         4        1058        1059        1084        1083
         4        1059        1060        1085        1084
         4        1060        1061        1086        1085
         4        1061        1062        1087        1086
         4        1062        1063        1088        1087
         4        1063        1064        1089        1088
         4        1064        1065        1090        1089
         4        1065        1066        1091        1090
         4        1066        1067        1092        1091
         4        1067        1068        1093        1092
         4        1068        1069        1094        1093
         4        1069        1070        1095        1094
         4        1070        1071        1096        1095
         4        1071        1072        1097        1096
         4        1072        1073        1098        1097
         4        1073        1074        1099        1098
         4        1075        1076        1101        1100
         4        1076        1077        1102        1101
         4        1077        1078        1103        1102
         4        1078        1079        1104        1103
         4        1079        1080        1105        1104
         4        1080        1081        1106        1105
         4        1081        1082        1107        1106
         4        1082        1083        1108        1107
         4        1083        1084        1109        1108
         4        1084        1085        1110        1109
         4        1085        1086        1111        1110
         4        1086        1087        1112        1111
         4        1087        1088        1113        1112
         4        1088        1089        1114        1113
         4        1089        1090        1115        1114
         4        1090        1091        1116        1115
         4        1091        1092        1117        1116
         4        1092        1093        1118        1117
         4        1093        1094        1119        1118
         4        1094        1095        1120        1119
         4        1095        1096        1121        1120
         4        1096        1097        1122        1121
         4        1097        1098        1123        1122
         4        1098        1099        1124        1123
         4        1100        1101        1126        1125
         4        1101        1102        1127        1126
         4        1102        1103        1128        1127
         4        1103        1104        1129        1128
         4        1104        1105        1130        1129
         4        1105        1106        1131        1130
         4        1106        1107        1132        1131
         4        1107        1108        1133        1132
         4        1108        1109        1134        1133
         4        1109        1110        1135        1134
         4        1110        1111        1136        1135
         4        1111        1112        1137        1136
         4        1112        1113        1138        1137
         4        1113        1114        1139        1138
         4        1114        1115        1140        1139
         4        1115        1116        1141        1140
         4        1116        1117        1142        1141
         4        1117        1118        1143        1142
         4        1118        1119        1144        1143
         4        1119        1120        1145        1144
         4        1120        1121        1146        1145
         4        1121        1122        1147        1146
         4        1122        1123        1148        1147
         4        1123        1124        1149        1148
         4        1125        1126        1151        1150
         4        1126        1127        1152        1151
         4        1127        1128        1153        1152
         4        1128        1129        1154        1153
         4        1129        1130        1155        1154
         4        1130        1131        1156        1155
         4        1131        1132        1157        1156
         4        1132        1133        1158        1157
         4        1133        1134        1159        1158
         4        1134        1135        1160        1159
         4        1135        1136        1161        1160
         4        1136        1137        1162        1161
         4        1137        1138        1163        1162
         4        1138        1139        1164        1163
         4        1139        1140        1165        1164
         4        1140        1141        1166        1165
         4        1141        1142        1167        1166
         4        1142        1143        1168        1167
         4        1143        1144        1169        1168
         4        1144        1145        1170        1169
         4        1145        1146        1171        1170
         4        1146        1147        1172        1171
         4        1147        1148        1173        1172
         4        1148        1149        1174        1173
         4        1150        1151        1176        1175
         4        1151        1152        1177        1176
         4        1152        1153        1178        1177
         4        1153        1154        1179        1178
         4        1154        1155        1180        1179
         4        1155        1156        1181        1180
         4        1156        1157        1182        1181
         4        1157        1158        1183        1182
         4        1158        1159        1184        1183
         4        1159        1160        1185        1184
         4        1160        1161        1186        1185
         4        1161        1162        1187        1186
         4        1162        1163        1188        1187
         4        1163        1164        1189        1188
         4        1164        1165        1190        1189
         4        1165        1166        1191        1190
         4        1166        1167        1192        1191
         4        1167        1168        1193        1192
         4        1168        1169        1194        1193
         4        1169        1170        1195        1194
         4        1170        1171        1196        1195
         4        1171        1172        1197        1196
         4        1172        1173        1198        1197
         4        1173        1174        1199        1198
         4        1175        1176        1201        1200
         4        1176        1177        1202        1201
         4        1177        1178        1203        1202
         4        1178        1179        1204        1203
         4        1179        1180        1205        1204
         4        1180        1181        1206        1205
         4        1181        1182        1207        1206
         4        1182        1183        1208        1207
         4        1183        1184        1209        1208
         4        1184        1185        1210        1209
         4        1185        1186        1211        1210
         4        1186        1187        1212        1211
         4        1187        1188        1213        1212
         4        1188        1189        1214        1213
         4        1189        1190        1215        1214
         4        1190        1191        1216        1215
         4        1191        1192        1217        1216
         4        1192        1193        1218        1217
         4        1193        1194        1219        1218
         4        1194        1195        1220        1219
         4        1195        1196        1221        1220
         4        1196        1197        1222        1221
         4        1197        1198        1223        1222
         4        1198        1199        1224        1223
CELL_TYPES       1152
9
9
9
9
9
9
9
9
9
9
9
9
9
9
9
9
9
9
9
9
9
9
9
9
9
9
9
9
9
9
9
9
9
9
9
9
9
9
9
9
9
9
9
9
9
9
9
9
9
9
9
9
9
9
9
9
9
9
9
9
9
9
9
9
9
9
9
9
9
9
9
9
9
9
9
9
9
9
9
9
9
9
9
9
9
9
9
9
9
9
9
9
9
9
9
9
9
9
9
9
9
9
9
9
9
9
9
9
9
9
9
9
9
9
9
9
9
9
9
9
9
9
9
9
9
9
9
9
9
9
9
9
9
9
9
9
9
9
9
9
9
9
9
9
9
9
9
9
9
9
9
9
9
9
9
9
9
9
9
9
9
9
9
9
9
9
9
9
9
9
9
9
9
9
9
9
9
9
9
9
9
9
9
9
9
9
9
9
9
9
9
9
9
9
9
9
9
9
9
9
9
9
9
9
9
9
9
9
9
9
9
9
9
9
9
9
9
9
9
9
9
9
9
9
9
9
9
9
9
9
9
9
9
9
9
9
9
9
9
9
9
9
9
9
9
9
9
9
9
9
9
9
9
9
9
9
9
9
9
9
9
9
9
9
9
9
9
9
9
9
9
9
9
9
9
9
9
9
9
9
9
9
9
9
9
9
9
9
9
9
9
9
9
9
9
9
9
9
9
9
9
9
9
9
9
9
9
9
9
9
9
9
9
9
9
9
9
9
9
9
9
9
9
9
9
9
9
9
9
9
9
9
9
9
9
9
9
9
9
9
9
9
9
9
9
9
9
9
9
9
9
9
9
9
9
9
9
9
9
9
9
9
9
9
9
9
9
9
9
9
9
9
9
9
9
9
9
9
9
9
9
9
9
9
9
9
9
9
9
9
9
9
9
9
9
9
9
9
9
9
9
9
9
9
9
9
9
9
9
9
9
9
9
9
9
9
9
9
9
9
9
9
9
9
9
9
9
9
9
9
9
9
9
9
9
9
9
9
9
9
9
9
9
9
9
9
9
9
9
9
9
9
9
9
9
9
9
9
9
9
9
9
9
9
9
9
9
9
9
9
9
9
9
9
9
9
9
9
9
9
9
9
9
9
9
9
9
9
9
9
9
9
9
9
9
9
9
9
9
9
9
9
9
9
9
9
9
9
9
9
9
9
9
9
9
9
9
9
9
9
9
9
9
9
9
9
9
9
9
9
9
9
9
9
9
9
9
9
9
9
9
9
9
9
9
9
9
9
9
9
9
9
9
9
9
9
9
9
9
9
9
9
9
9
9
9
9
9
9
9
9
9
9
9
9
9
9
9
9
9
9
9
9
9
9
9
9
9
9
9
9
9
9
9
9
9
9
9
9
9
9
9
9
9
9
9
9
9
9
9
9
9
9
9
9
9
9
9
9
9
9
9
9
9
9
9
9
9
9
9
9
9
9
9
9
9
9
9
9
9
9
9
9
9
9
9
9
9
9
9
9
9
9
9
9
9
9
9
9
9
9
9
9
9
9
9
9
9
9
9
9
9
9
9
9
9
9
9
9
9
9
9
9
9
9
9
9
9
9
9
9
9
9
9
9
9
9
9
9
9
9
9
9
9
9
9
9
9
9
9
9
9
9
9
9
9
9
9
9
9
9
9
9
9
9
9
9
9
9
9
9
9
9
9
9
9
9
9
9
9
9
9
9
9
9
9
9
9
9
9
9
9
9
9
9
9
9
9
9
9
9
9
9
9
9
9
9
9
9
9
9
9
9
9
9
9
9
9
9
9
9
9
9
9
9
9
9
9
9
9
9
9
9
9
9
9
9
9
9
9
9
9
9
9
9
9
9
9
9
9
9
9
9
9
9
9
9
9
9
9
9
9
9
9
9
9
9
9
9
9
9
9
9
9
9
9
9
9
9
9
9
9
9
9
9
9
9
9
9
9
9
9
9
9
9
9
9
9
9
9
9
9
9
9
9
9
9
9
9
9
9
9
9
9
9
9
9
9
9
9
9
9
9
9
9
9
9
9
9
9
9
9
9
9
9
9
9
9
9
9
9
9
9
9
9
9
9
9
9
9
9
9
9
9
9
9
9
9
9
9
9
9
9
9
9
9
9
9
9
9
9
9
9
9
9
9
9
9
9
9
9
9
9
9
9
9
9
9
9
9
9
9
9
9
9
9
9
9
9
9
9
9
9
9
9
9
9
9
9
9
9
9
9
9
9
9
9
9
9
9
9
9
9
9
9
9
9
9
9
9
9
9
9
9
9
9
9
9
9
9
9
9
9
9
9
9
9
9
9
9
9
9
9
9
9
9
9
9
9
9
9
9
9
9
9
9
9
9
9
9
9
9
9
9
9
9
9
9
9
9
9
9
9
9
9
9
9
9
9
9
9
9
9
9
9
9
9
9
9
9
9
9
9
9
9
9
9
9
9
9
9
9
9
9
9
9
9
9
9
9
9
9
9
9
9
9
9
9
9
9
9
9
9
9
9
9
9
9
9
9
9
9
9
9
9
9
9
9
9
9
9
9
9
9
9
9
9
9
9
9
9
9
9
9
9
9
9
9
9
9
9
9
9
9
9
9
9
9
9
9
9
9
9
9
9
9
9
9
9
9
9
9
POINT_DATA      1225
SCALARS p double 
LOOKUP_TABLE default
   1.83539873569799     
   1.93589191839413     
   2.21629906403593     
   2.62042099492379     
   3.09459947651469     
   3.60093019547113     
   4.11959377611284     
   4.63863698936066     
   5.15020566307798     
   5.64867135390208     
   6.12970988806664     
   6.58981722062883     
   7.02604367005863     
   7.43584233159802     
   7.81698005835387     
   8.16748409767065     
   8.48560972653391     
   8.76982058433090     
   9.01877683390479     
   9.23132820582376     
   9.40651009640160     
   9.54354155785138     
   9.64182443150409     
   9.70094313852431     
   9.72066481765996     
   1.71606121771376     
   1.83611249987508     
   2.14864372100052     
   2.58461469453217     
   3.07335818706048     
   3.58751979283838     
   4.11056911722391     
   4.63222386017939     
   5.14542459127303     
   5.64495326656957     
   6.12670845677329     
   6.58731313744154     
   7.02389320393410     
   7.43394842777007     
   7.81527544037310     
   8.16592102889521     
   8.48415360393516     
   8.76844581041765     
   9.01746408209108     
   9.23006255933763     
   9.40527974590840     
   9.54233686146725     
   9.64063721089985     
   9.69976612681174     
   9.71949119992829     
   1.33184968851644     
   1.49227108229727     
   1.98058129136968     
   2.48880533668292     
   3.01563533921560     
   3.55026370512750     
   4.08509630389901     
   4.61389397057720     
   5.13162559395547     
   5.63413976231825     
   6.11792633485016     
   6.57995110245839     
   7.01754678649305     
   7.42834236730321     
   7.81021769778111     
   8.16127460849368     
   8.47981875356861     
   8.76434845712567     
   9.01354811674795     
   9.22628455299825     
   9.40160523174984     
   9.53873763781951     
   9.63708931250385     
   9.69624822717531     
   9.71598327743594     
  0.000000000000000E+000
   1.12865210521667     
   1.77014398125461     
   2.36439884692830     
   2.93622311510555     
   3.49686583434868     
   4.04740277941609     
   4.58609879089114     
   5.11029960244649     
   5.61717704844837     
   6.10398733726618     
   6.56815680947148     
   7.00730424623986     
   7.41924164262187     
   7.80196906266860     
   8.15366914727796     
   8.47270297142052     
   8.75760750268672     
   9.00709442376331     
   9.22004996161721     
   9.39553538099733     
   9.53278785632680     
   9.63122149886117     
   9.69042837327482     
   9.71017938703705     
  0.000000000000000E+000
  0.842152975294689     
   1.59369386220900     
   2.24331018553488     
   2.85220561123456     
   3.43670527587547     
   4.00292577833668     
   4.55212727697017     
   5.08351662934482     
   5.59541571634853     
   6.08580227107317     
   6.55256354150559     
   6.99361866282459     
   7.40697929627481     
   7.79078078765382     
   8.14329905679624     
   8.46296050143954     
   8.74834842918257     
   8.99820770937997     
   9.21144844621123     
   9.38714903707078     
   9.52455876753719     
   9.62309999341074     
   9.68236991602783     
   9.70214194132698     
  0.000000000000000E+000
  0.755656738850306     
   1.47511118824146     
   2.14617778733445     
   2.77615722839713     
   3.37775364003150     
   3.95674379425556     
   4.51528154400071     
   5.05347328776399     
   5.57035291775539     
   6.06441680918674     
   6.53391948578214     
   6.97703820080262     
   7.39196640176641     
   7.77696831497311     
   8.13041200961575     
   8.45079034067700     
   8.73673490393069     
   8.98702583173121     
   9.20059900061148     
   9.37655152824216     
   9.51414605138450     
   9.61281406020939     
   9.67215844273430     
   9.69195532472930     
  0.000000000000000E+000
  0.713386644594824     
   1.40874396501664     
   2.07596970170750     
   2.71367625674834     
   3.32482052841971     
   3.91252544227077     
   4.47824177929562     
   5.02210785190169     
   5.54339549258361     
   6.04086301145805     
   6.51299275625850     
   6.95814408056075     
   7.37465070508328     
   7.76088313008386     
   8.11528939108958     
   8.43642238101375     
   8.72295874271570     
   8.97371236117017     
   9.18764428924970     
   9.36387022048880     
   9.50166618697758     
   9.60047289644792     
   9.65989896119471     
   9.67972317161465     
  0.000000000000000E+000
  0.689066390812436     
   1.36718191827904     
   2.02688272476141     
   2.66459281785436     
   3.27959438774436     
   3.87224722559434     
   4.44278273558866     
   4.99087799941571     
   5.51569957218725     
   6.01604697869698     
   6.49049336116732     
   6.93749626002439     
   7.35547851478753     
   7.74288572207489     
   8.09822685455888     
   8.42010321012206     
   8.70722935987290     
   8.95844858318893     
   9.17274443935439     
   9.34924955669966     
   9.48725234308034     
   9.58620207384313     
   9.64571265076120     
   9.66556521755628     
  0.000000000000000E+000
  0.673349244306097     
   1.33904928238604     
   1.99130858165620     
   2.62625526065503     
   3.24171385958733     
   3.83651355222536     
   4.40981462051055     
   4.96071321533571     
   5.48810422534545     
   5.99068745675667     
   6.46702295762916     
   6.91559434678290     
   7.33486494807774     
   7.72332310061530     
   8.07951731628637     
   8.40208316611166     
   8.68976380586794     
   8.94142571523095     
   9.15607083889648     
   9.33284598715614     
   9.47105009827087     
   9.57013977786685     
   9.62973339634478     
   9.64961392922325     
  0.000000000000000E+000
  0.662321997869167     
   1.31872096830559     
   1.96444569625154     
   2.59576539946343     
   3.20996940078335     
   3.80509907440171     
   4.37960723984633     
   4.93209084328800     
   5.46114326610878     
   5.96530246206946     
   6.44305378186764     
   6.89285617801115     
   7.31317487839233     
   7.70251280165027     
   8.05943788402572     
   8.38260576869573     
   8.67077822743358     
   8.92283795883043     
   9.13780040731462     
   9.31482314923665     
   9.45321327399401     
   9.55243307972800     
   9.61210431322877     
   9.63201111202424     
  0.000000000000000E+000
  0.654075756410761     
   1.30321778667257     
   1.94333094463945     
   2.57090074367109     
   3.18304542637961     
   3.77741954914903     
   4.35204781994203     
   4.90516500282362     
   5.43510283042720     
   5.94022981516617     
   6.41893110090780     
   6.86961220830268     
   7.29071434035367     
   7.68073375788784     
   8.03824127607046     
   8.36190008272273     
   8.65048124009482     
   8.90287679677639     
   9.11811067504130     
   9.29534757218281     
   9.43390011101006     
   9.53323444042149     
   9.59297444383557     
   9.61290467067445     
  0.000000000000000E+000
  0.647584100849827     
   1.29084604094585     
   1.92611671961500     
   2.55007827361237     
   3.15982113771350     
   3.75281759644635     
   4.32684444487386     
   4.87989293443376     
   5.41009323764892     
   5.91566462163509     
   6.39489041485481     
   6.84611136322319     
   7.26773037597424     
   7.65822320632029     
   8.01615148917542     
   8.34017604615485     
   8.62906936053944     
   8.88172672079618     
   9.09717586000802     
   9.27458508385844     
   9.41326995168541     
   9.51269859674381     
   9.57249576814199     
   9.59244566154324     
  0.000000000000000E+000
  0.642253106666333     
   1.28058789963215     
   1.91162058518400     
   2.53219222346099     
   3.13941880615454     
   3.73069322843806     
   4.30365283137226     
   4.85613171603499     
   5.38611433092955     
   5.89169996127953     
   6.37108098798070     
   6.82253343348555     
   7.24441654883218     
   7.63517813271155     
   7.99336294804503     
   8.31762240691145     
   8.60672436874769     
   8.85956237924763     
   9.07516399120477     
   9.25269799822304     
   9.39148051896067     
   9.49097992433089     
   9.55082062381051     
   9.57078573295513     
  0.000000000000000E+000
  0.637719367010170     
   1.27180343025315     
   1.89906514952880     
   2.51646935459801     
   3.12117428444428     
   3.71054463160155     
   4.28214179716775     
   4.83370107082289     
   5.36310539264279     
   5.86836260292309     
   6.34758958166164     
   6.79900383626145     
   7.22092143749430     
   7.61175958822325     
   7.97004214089983     
   8.29440669611418     
   8.58361228838494     
   8.83654699116495     
   9.05223501934316     
   9.22984307808475     
   9.36868581746707     
   9.46823031996855     
   9.52809958646577     
   9.54807500630988     
  0.000000000000000E+000
  0.633750610495750     
   1.26407532895012     
   1.88792652106374     
   2.50236451431883     
   3.10459179013742     
   3.69196980901282     
   4.26202075716490     
   4.81241916078400     
   5.34097894602833     
   5.84564055058086     
   6.32446096708819     
   6.77560790131076     
   7.19735799701790     
   7.58809840698061     
   7.94633075917381     
   8.27067660457276     
   8.55988359068456     
   8.81283179025136     
   9.02853978116493     
   9.20617020526582     
   9.34503462966361     
   9.44459760019088     
   9.50447981979353     
   9.52446041163819     
  0.000000000000000E+000
  0.630193200051324     
   1.25712334431984     
   1.87784403765754     
   2.48948946692907     
   3.08930287227201     
   3.67465413229276     
   4.24304727719075     
   4.79212045217112     
   5.31964154011110     
   5.82350241135233     
   6.30171396349190     
   6.75240315407223     
   7.17381240754516     
   7.56430122333179     
   7.92234952270202     
   8.24656218145930     
   8.53567422356711     
   8.78855623403740     
   9.00421964663758     
   9.18182165170625     
   9.32066954299995     
   9.42022437868914     
   9.48010387243819     
   9.50008445915990     
  0.000000000000000E+000
  0.626942746089994     
   1.25075481940449     
   1.86856501579378     
   2.47756509180137     
   3.07503393968198     
   3.65835475030794     
   4.22502534904062     
   4.77266297988580     
   5.29900538063241     
   5.80191002770332     
   6.27935308343405     
   6.72942905808865     
   7.15035168288195     
   7.54045608503746     
   7.89820209537243     
   8.22217838822745     
   8.51110711670717     
   8.76384872563994     
   8.97940667095241     
   9.15693182806827     
   9.29572642288692     
   9.39524736224302     
   9.45510887542234     
   9.47508440509061     
  0.000000000000000E+000
  0.623926848924226     
   1.24483491530056     
   1.85990999702016     
   2.46638918903171     
   3.06158186972536     
   3.64288604951232     
   4.20780001021534     
   4.75392986215715     
   5.27899407286256     
   5.78082614389927     
   6.25737648727956     
   6.70671428301974     
   7.12702978865434     
   7.51663729473621     
   7.87397871514486     
   8.19762767377993     
   8.48629388775647     
   8.73882763242161     
   8.95422408692320     
   9.13162738638353     
   9.27033423847704     
   9.36979699295775     
   9.42962607990344     
   9.44959175545394     
  0.000000000000000E+000
  0.621094543972164     
   1.23926803622252     
   1.85175030941703     
   2.45581457691755     
   3.04879605396115     
   3.62810743110378     
   4.19125103598490     
   4.73582797075663     
   5.25954482145140     
   5.76021866921594     
   6.23578110957552     
   6.68428185450418     
   7.10389231152145     
   7.49290935330666     
   7.84975934127987     
   8.17300235987473     
   8.46133655408056     
   8.71360243326348     
   8.92878699904108     
   9.10602756465841     
   9.24461515064504     
   9.34399736164571     
   9.40378066935404     
   9.42373204506565     
  0.000000000000000E+000
  0.618409616884217     
   1.23398587536559     
   1.84399322270274     
   2.44573399111855     
   3.03656525577587     
   3.61391350118078     
   4.17528691015513     
   4.71828538466325     
   5.24060862757881     
   5.74006273264902     
   6.21456574887298     
   6.66215262846245     
   7.08097986672674     
   7.46933002827902     
   7.82561624946362     
   8.14838672437552     
   8.43632912510222     
   8.68827487385951     
   8.90320317060994     
   9.08024467895716     
   9.21868478062559     
   9.31796632085188     
   9.37769178094771     
   9.39762482860904     
  0.000000000000000E+000
  0.615846238658611     
   1.22893950613305     
   1.83657190276719     
   2.43606951970206     
   3.02480797204381     
   3.60022636691026     
   4.15983952730237     
   4.70124848835662     
   5.22214943812229     
   5.72034137122367     
   6.19373275758507     
   6.64034750994575     
   7.05833048059519     
   7.44595264827998     
   7.80161608608899     
   8.12385874059495     
   8.41135900659676     
   8.66294005129271     
   8.87757382485457     
   9.05438468822476     
   9.19265259041310     
   9.29181573392325     
   9.35147267612875     
   9.37138382503825     
  0.000000000000000E+000
  0.613386037822274     
   1.22409401873034     
   1.82943847040623     
   2.42676509996934     
   3.01346532241303     
   3.58698964239798     
   4.14485972717464     
   4.68467913987813     
   5.20414281271698     
   5.70104541493260     
   6.17328880646622     
   6.61888876888905     
   7.03598117952715     
   7.42282775397976     
   7.77782143667207     
   8.09949147642733     
   8.38650818895025     
   8.63768738248365     
   8.85199440663440     
   9.02854777618324     
   9.16662231984041     
   9.26565180661674     
   9.32523100824132     
   9.34511716371806     
  0.000000000000000E+000
  0.611016088734899     
   1.21942480075400     
   1.82255911122223     
   2.41778110994992     
   3.00249576020052     
   3.57416379551762     
   4.13031361109584     
   4.66855209585721     
   5.18657442996200     
   5.68217293040103     
   6.15324506041722     
   6.59780072774740     
   7.01396898674853     
   7.40000423691105     
   7.75429198170777     
   8.07535418270654     
   8.36185421822302     
   8.61260143559903     
   8.82655527212983     
   9.00282891141126     
   9.14069243857339     
   9.23957545845307     
   9.29906914420389     
   9.31892768927863     
  0.000000000000000E+000
  0.608727499009664     
   1.21491490481431     
   1.81591056795771     
   2.40909041283767     
   2.99187110093908     
   3.56172252902929     
   4.11617953626414     
   4.65285275615548     
   5.16943860575354     
   5.66372844855894     
   6.13361699611715     
   6.57711002567896     
   6.99233148999036     
   7.37753008396820     
   7.73108531593907     
   8.05151311209432     
   8.33747096479039     
   8.58776262019598     
   8.80134228948658     
   8.97731836049197     
   9.11495658310289     
   9.21368270126943     
   9.27308450642401     
   9.29291329101486     
  0.000000000000000E+000
  0.606514397787463     
   1.21055315032454     
   1.80947758176071     
   2.40067542313487     
   2.98157351003651     
   3.54964995365806     
   4.10244567420288     
   4.63757522912536     
   5.15273690954776     
   5.64572211181984     
   6.11442401482227     
   6.55684560652367     
   6.97110710645533     
   7.35545282628493     
   7.70825750118481     
   8.02803211279163     
   8.31342921241469     
   8.56324774233361     
   8.77643734446862     
   8.95210213980776     
   9.08950395873309     
   9.18806500155067     
   9.24736990971431     
   9.26716723102440     
  0.000000000000000E+000
  0.604373197793849     
   1.20633273079006     
   1.80325099595970     
   2.39252590090904     
   2.97159319397583     
   3.53793836646916     
   4.08910802848754     
   4.62272069073171     
   5.13647691465352     
   5.62816881894844     
   6.09568894971862     
   6.53703853376967     
   6.95033513977021     
   7.33381977155077     
   7.68586341326796     
   8.00497303923512     
   8.28979709347806     
   8.53913043673591     
   8.75191875252285     
   8.92726239945334     
   9.06441969446840     
   9.16280961081885     
   9.22201387546673     
   9.24177845269305     
  0.000000000000000E+000
  0.602302047923715     
   1.20225017534992     
   1.79722632972940     
   2.38463727165840     
   2.96192661199639     
   3.52658649256000     
   4.07616882198502     
   4.60829600073331     
   5.12067109138470     
   5.61108741006095     
   6.07743753050675     
   6.51772170322905     
   6.93005569815589     
   7.31267808111653     
   7.66395693304160     
   7.98239601726866     
   8.26664039580485     
   8.51548149076765     
   8.72786158318059     
   8.90287773828213     
   9.03978514472708     
   9.13799985456506     
   9.19710091158702     
   9.21683185738308     
  0.000000000000000E+000
  0.600300420708708     
   1.19830456264668     
   1.79140268997241     
   2.37700933032769     
   2.95257507627593     
   3.51559808266396     
   4.06363517969092     
   4.59431253788178     
   5.10533583778205     
   5.59449991244027     
   6.05969784345683     
   6.49892950088520     
   6.91030952342118     
   7.29207473838335     
   7.64259102154903     
   7.96035959569681     
   8.24402276447201     
   8.49236907561394     
   8.70433790520282     
   8.87902345278195     
   9.01567813621117     
   9.11371537500330     
   9.17271175167438     
   9.19240854221726     
  0.000000000000000E+000
  0.598368796796305     
   1.19449691715670     
   1.78578193002450     
   2.36964522944470     
   2.94354364475224     
   3.50498078551560     
   4.05151804759579     
   4.58078521889985     
   5.09049063603296     
   5.57843085497032     
   6.04249980920843     
   6.48069743706898     
   6.89113776571245     
   7.27205644307201     
   7.62181771066783     
   7.93892081057426     
   8.22200581919663     
   8.46985889946310     
   8.68141696195956     
   8.85577172474935     
   8.99217316132844     
   9.09003232648114     
   9.14892355074684     
   9.16858599574745     
  0.000000000000000E+000
  0.596508420236566     
   1.19082973933173     
   1.78036799084995     
   2.36255067981380     
   2.93484023640864     
   3.49474523357930     
   4.03983130015265     
   4.56773167035723     
   5.07615732033645     
   5.56290665166828     
   6.02587469036535     
   6.46306177689514     
   6.87258172822266     
   7.25266945673964     
   7.60168803338272     
   7.91813518354431     
   8.20064920488915     
   8.44801429625140     
   8.65916528671124     
   8.83319175398438     
   8.96934152158029     
   9.06702352490169     
   9.12581003761280     
   9.14543825118731     
  0.000000000000000E+000
  0.594721106168899     
   1.18730663518588     
   1.77516637884379     
   2.35573331199817     
   2.92647491723895     
   3.48490429555137     
   4.02859099883232     
   4.55517152722336     
   5.06235944182370     
   5.54795505087999     
   6.00985463453322     
   6.44605917928736     
   6.85468259835807     
   7.23395941791700     
   7.58225191205446     
   7.89805667120993     
   8.18001059009670     
   8.42689626201008     
   8.63764676708690     
   8.81134984276818     
   8.94725142555128     
   9.04475855419881     
   9.10344162594709     
   9.12303599893382     
  0.000000000000000E+000
  0.593009087796895     
   1.18393202072803     
   1.77018374711708     
   2.34920216074923     
   2.91845931837730     
   3.47547246014417     
   4.01781477219032     
   4.54312583625640     
   5.04912171712414     
   5.53360464484851     
   5.99447225455707     
   6.42972635185554     
   6.83748117641260     
   7.21597114003664     
   7.56355801853212     
   7.87873757893288     
   8.16014562549783     
   8.40656344928727     
   8.61692266737623     
   8.79030943894946     
   8.92596804677517     
   9.02330383395212     
   9.08188548741355     
   9.10144666146595     
  0.000000000000000E+000
  0.591374893192176     
   1.18071088341444     
   1.76542755608200     
   2.34296724444961     
   2.91080615752675     
   3.46646532399663     
   4.00752129415122     
   4.53161654625639     
   5.03646954862703     
   5.51988443371835     
   5.97976024545198     
   6.41409972557973     
   6.82101760899972     
   7.19874840150701     
   7.54565361648351     
   7.86022844955970     
   8.14110787240435     
   8.38707212862797     
   8.59705161643435     
   8.77013114422888     
   8.90555354697944     
   9.00272265279124     
   9.06120559094152     
   9.08073443454124     
  0.000000000000000E+000
  0.589821245022617     
   1.17764858755946     
   1.76090579549653     
   2.33703921876048     
   2.90352884189330     
   3.45789916283679     
   3.99772984215842     
   4.52066607050731     
   5.02442860607996     
   5.50682343807266     
   5.96575103629450     
   6.39921515114269     
   6.80533113187931     
   7.18233373452568     
   7.52858439368884     
   7.84257793527493     
   8.12294870937970     
   8.36847612474822     
   8.57808956814149     
   8.75087269381391     
   8.88606707015704     
   8.98307517245333     
   9.04146271264200     
   9.06096029904504     
  0.000000000000000E+000
  0.588350978111273     
   1.17475071403379     
   1.75662675468155     
   2.33142908883970     
   2.89664113605805     
   3.44979056977677     
   3.98845992071560     
   4.51029690948525     
   5.01302446070820     
   5.49445035449631     
   5.95247647476612     
   6.38510761744687     
   6.79045982504862     
   7.16676821724652     
   7.51239429007161     
   7.82583265898375     
   8.10571722356535     
   8.35082673385854     
   8.56008974052707     
   8.73258891310830     
   8.86756471267909     
   8.96441840732968     
   9.02271442094927     
   9.04218200799003     
  0.000000000000000E+000
  0.586966971031193     
   1.17202292702333     
   1.75259883092732     
   2.32614796829348     
   2.89015688211197     
   3.44215614823662     
   3.97973093888709     
   4.50053132417782     
   5.00228226444641     
   5.48279324922155     
   5.93996754185956     
   6.37181099208270     
   6.77644038178909     
   7.15209127251423     
   7.49712532577698     
   7.81003707023082     
   8.08946009207404     
   8.33417262757698     
   8.54310253889158     
   8.71533165655528     
   8.85009947431914     
   8.94680618414828     
   9.00501504148132     
   9.02445405310478     
  0.000000000000000E+000
  0.585672088883965     
   1.16947086240134     
   1.74883036852893     
   2.32120687583569     
   2.88408976229801     
   3.43501224975766     
   3.97156193271129     
   4.49139105221358     
   4.99222646811393     
   5.47187928553149     
   5.92825409430962     
   6.35935778309582     
   6.76330789259513     
   7.13834047539542     
   7.48281743252728     
   7.79523329958672     
   8.07422145781527     
   8.31855974801112     
   8.52717546755627     
   8.69914973320958     
   8.83372119465730     
   8.93028908614898     
   8.98841560589359     
   9.00782761525574     
  0.000000000000000E+000
  0.584469135101459     
   1.16710003357723     
   1.74532952268436     
   2.31661656272828     
   2.87845309661379     
   3.42837474909074     
   3.96397132535802     
   4.48289706050802     
   4.98288057343372     
   5.46173448120617     
   5.91736463248758     
   6.34777892120623     
   6.75109564442605     
   7.12555137105197     
   7.46950829068938     
   7.78146101460615     
   8.06004280332080     
   8.30403119786420     
   8.51235303424387     
   8.68408882309130     
   8.81847647890858     
   8.91491438576168     
   8.97296378870470     
   8.99235050266779     
  0.000000000000000E+000
  0.583360810622567     
   1.16491575165870     
   1.74210414382959     
   2.31238736565773     
   2.87325966950879     
   3.42225885058641     
   3.95697671934024     
   4.47506932935556     
   4.97426691470115     
   5.45238349286430     
   5.90732609173646     
   6.33710356157727     
   6.73983493542810     
   7.11375730403122     
   7.45723317390657     
   7.76875727982657     
   8.04696282549857     
   8.29062712881274     
   8.49867665054111     
   8.67019138788751     
   8.80440861679532     
   8.90072596942619     
   8.95870383573477     
   8.97806708058376     
  0.000000000000000E+000
  0.582349679179794     
   1.16292305749478     
   1.73916167899534     
   2.30852908090337     
   2.86852158109934     
   3.41667892118876     
   3.95059471625959     
   4.46792666388712     
   4.96640646667177     
   5.44384942456330     
   5.89816365538299     
   6.32735890425967     
   6.72955490510421     
   7.10298925972622     
   7.44602480271930     
   7.75715642278588     
   8.03501731372878     
   8.27838463089437     
   8.48618453141032     
   8.65749657911980     
   8.79155749767457     
   8.88776425781569     
   8.94567648744317     
   8.96501819565600     
  0.000000000000000E+000
  0.581438137720062     
   1.16112666371978     
   1.73650908753859     
   2.30505085657181     
   2.86425011931910     
   3.41164834633035     
   3.94484076049195     
   4.46148652961446     
   4.95931867587219     
   5.43615365846839     
   5.88990058791714     
   6.31857003250864     
   6.72028237982231     
   7.09327571854195     
   7.43591320828442     
   7.74668990765757     
   8.02423903330023     
   8.26733762521674     
   8.47491159629545     
   8.64604014649008     
   8.77995952474522     
   8.87606612435875     
   8.93391890009767     
   8.95324109801402     
  0.000000000000000E+000
  0.580628391204063     
   1.15953090534013     
   1.73415276918999     
   2.30196110037936     
   2.86045565019545     
   3.40717940580650     
   3.93972900395674     
   4.45576490943152     
   4.95302131306695     
   5.42931570578851     
   5.88255808706879     
   6.31075976826666     
   6.71204173351707     
   7.08464252315632     
   7.42692560706837     
   7.73738621780459     
   8.01465761584647     
   8.25751676193771     
   8.46488937399899     
   8.63585434875069     
   8.76964753080083     
   8.86566481460455     
   8.92346456736389     
   8.94276936361045     
  0.000000000000000E+000
  0.579922431197517     
   1.15813969773040     
   1.73209850281307     
   2.29926740101384     
   2.85714752404602     
   3.40328316732356     
   3.93527218970182     
   4.45077617996908     
   4.94753034505051     
   5.42335307650656     
   5.87615515372635     
   6.30394854420579     
   6.70485476343402     
   7.07711275916624     
   7.41908628721384     
   7.72927074831701     
   8.00629945816243     
   8.24894932515996     
   8.45614591318444     
   8.62696786911556     
   8.76065069766383     
   8.85658986864698     
   8.91434324457664     
   8.93363281912274     
  0.000000000000000E+000
  0.579322017798460     
   1.15695650115626     
   1.73035139462396     
   2.29697646153663     
   2.85433399586453     
   3.39996939590447     
   3.93148155250747     
   4.44653300562600     
   4.94285982429489     
   5.41828116671170     
   5.87070847883230     
   6.29815429182193     
   6.69874058077748     
   7.07070664934165     
   7.41241650714396     
   7.72236570940848     
   7.99918763054964     
   8.24165914612075     
   8.44870570007466     
   8.61940573693338     
   8.75299448113408     
   8.84886704851801     
   8.90658087764838     
   8.92585747137945     
  0.000000000000000E+000
  0.578828664546854     
   1.15598429113925     
   1.72891583489851     
   2.29509404362416     
   2.85202215854208     
   3.39724647772483     
   3.92836673509256     
   4.44304624894816     
   4.93902179528138     
   5.41411316257645     
   5.86623234655562     
   6.29339234516533     
   6.69371551614230     
   7.06544146166297     
   7.40693440686221     
   7.71669004139014     
   7.99334179564142     
   8.23566652582865     
   8.44258958466646     
   8.61318925707660     
   8.74670054300760     
   8.84251827217691     
   8.90019953828334     
   8.91946544299414     
  0.000000000000000E+000
  0.578443626043291     
   1.15522553413330     
   1.72779546241274     
   2.29362492171736     
   2.85021788787042     
   3.39512135726676     
   3.92593571881393     
   4.44032489631104     
   4.93602621659177     
   5.41085996021962     
   5.86273855318274     
   6.28967535987323     
   6.68979303963274     
   7.06133143128308     
   7.40265493231952     
   7.71225934180896     
   7.98877813848966     
   8.23098816809978     
   8.43781471655701     
   8.60833594825917     
   8.74178669146754     
   8.83756155546055     
   8.89521736689949     
   8.91447491562106     
  0.000000000000000E+000
  0.578167888067869     
   1.15468216810767     
   1.72699313603905     
   2.29257284636395     
   2.84892579851716     
   3.39359948693238     
   3.92419476800154     
   4.43837599809584     
   4.93388089803951     
   5.40853010086231     
   5.86023634128981     
   6.28701324724306     
   6.68698369559250     
   7.05838769652779     
   7.39958977314742     
   7.70908580522393     
   7.98550930854624     
   8.22763712376689     
   8.43439449127609     
   8.60485949127470     
   8.73826683091555     
   8.83401096311663     
   8.89164852441283     
   8.91090008199776     
  0.000000000000000E+000
  0.578002160042431     
   1.15435558773171     
   1.72651091306402     
   2.29194051621531     
   2.84814921036222     
   3.39268478846874     
   3.92314838728007     
   4.43720462274477     
   4.93259145229379     
   5.40712972082539     
   5.85873234886234     
   6.28541312314587     
   6.68529505189004     
   7.05661824902538     
   7.39774731399280     
   7.70717817599317     
   7.98354437403844     
   8.22562274667377     
   8.43233850783333     
   8.60276968794441     
   8.73615092209464     
   8.83187656981560     
   8.88950315380564     
   8.90875110770514     
  0.000000000000000E+000
  0.577946869722567     
   1.15424663394047     
   1.72635003391246     
   2.29172955828662     
   2.84789012475092     
   3.39237962573180     
   3.92279929140345     
   4.43681382424634     
   4.93216126059574     
   5.40666251603716     
   5.85823057311756     
   6.28487927163436     
   6.68473166371933     
   7.05602789803529     
   7.39713259963253     
   7.70654171435401     
   7.98288878911663     
   8.22495066191898     
   8.43165253801861     
   8.60207243137456     
   8.73544495315164     
   8.83116443182345     
   8.88878735218204     
   8.90803410335503     
VECTORS u double 
    0.00000E+00        -0.44278E+00         0.00000E+00
    0.00000E+00        -0.41105E+00         0.00000E+00
    0.00000E+00        -0.37471E+00         0.00000E+00
    0.00000E+00        -0.33824E+00         0.00000E+00
    0.00000E+00        -0.30462E+00         0.00000E+00
    0.00000E+00        -0.27448E+00         0.00000E+00
    0.00000E+00        -0.24756E+00         0.00000E+00
    0.00000E+00        -0.22342E+00         0.00000E+00
    0.00000E+00        -0.20162E+00         0.00000E+00
    0.00000E+00        -0.18177E+00         0.00000E+00
    0.00000E+00        -0.16356E+00         0.00000E+00
    0.00000E+00        -0.14674E+00         0.00000E+00
    0.00000E+00        -0.13111E+00         0.00000E+00
    0.00000E+00        -0.11649E+00         0.00000E+00
    0.00000E+00        -0.10277E+00         0.00000E+00
    0.00000E+00        -0.89823E-01         0.00000E+00
    0.00000E+00        -0.77576E-01         0.00000E+00
    0.00000E+00        -0.65959E-01         0.00000E+00
    0.00000E+00        -0.54923E-01         0.00000E+00
    0.00000E+00        -0.44431E-01         0.00000E+00
    0.00000E+00        -0.34464E-01         0.00000E+00
    0.00000E+00        -0.25017E-01         0.00000E+00
    0.00000E+00        -0.16100E-01         0.00000E+00
    0.00000E+00        -0.77445E-02         0.00000E+00
    0.00000E+00         0.00000E+00         0.00000E+00
   -0.21283E-01        -0.43280E+00         0.00000E+00
   -0.30055E-02        -0.40114E+00         0.00000E+00
    0.73116E-02        -0.36503E+00         0.00000E+00
    0.11124E-01        -0.33021E+00         0.00000E+00
    0.12053E-01        -0.29834E+00         0.00000E+00
    0.11842E-01        -0.26962E+00         0.00000E+00
    0.11208E-01        -0.24378E+00         0.00000E+00
    0.10446E-01        -0.22045E+00         0.00000E+00
    0.96762E-02        -0.19925E+00         0.00000E+00
    0.89441E-02        -0.17986E+00         0.00000E+00
    0.82634E-02        -0.16201E+00         0.00000E+00
    0.76339E-02        -0.14547E+00         0.00000E+00
    0.70500E-02        -0.13006E+00         0.00000E+00
    0.65036E-02        -0.11563E+00         0.00000E+00
    0.59858E-02        -0.10205E+00         0.00000E+00
    0.54873E-02        -0.89236E-01         0.00000E+00
    0.49985E-02        -0.77096E-01         0.00000E+00
    0.45097E-02        -0.65571E-01         0.00000E+00
    0.40103E-02        -0.54614E-01         0.00000E+00
    0.34888E-02        -0.44193E-01         0.00000E+00
    0.29320E-02        -0.34287E-01         0.00000E+00
    0.23249E-02        -0.24894E-01         0.00000E+00
    0.16493E-02        -0.16026E-01         0.00000E+00
    0.88342E-03        -0.77106E-02         0.00000E+00
    0.00000E+00         0.00000E+00         0.00000E+00
   -0.41302E-01        -0.40146E+00         0.00000E+00
   -0.30214E-02        -0.36794E+00         0.00000E+00
    0.13732E-01        -0.33611E+00         0.00000E+00
    0.20227E-01        -0.30722E+00         0.00000E+00
    0.22177E-01        -0.28050E+00         0.00000E+00
    0.22109E-01        -0.25577E+00         0.00000E+00
    0.21191E-01        -0.23294E+00         0.00000E+00
    0.19949E-01        -0.21186E+00         0.00000E+00
    0.18624E-01        -0.19237E+00         0.00000E+00
    0.17320E-01        -0.17429E+00         0.00000E+00
    0.16077E-01        -0.15747E+00         0.00000E+00
    0.14908E-01        -0.14174E+00         0.00000E+00
    0.13808E-01        -0.12698E+00         0.00000E+00
    0.12768E-01        -0.11308E+00         0.00000E+00
    0.11773E-01        -0.99948E-01         0.00000E+00
    0.10809E-01        -0.87502E-01         0.00000E+00
    0.98577E-02        -0.75677E-01         0.00000E+00
    0.89019E-02        -0.64424E-01         0.00000E+00
    0.79217E-02        -0.53703E-01         0.00000E+00
    0.68950E-02        -0.43488E-01         0.00000E+00
    0.57967E-02        -0.33764E-01         0.00000E+00
    0.45973E-02        -0.24532E-01         0.00000E+00
    0.32616E-02        -0.15804E-01         0.00000E+00
    0.17468E-02        -0.76100E-02         0.00000E+00
    0.00000E+00         0.00000E+00         0.00000E+00
   -0.54949E-01        -0.32512E+00         0.00000E+00
   -0.39583E-02        -0.30927E+00         0.00000E+00
    0.16257E-01        -0.29176E+00         0.00000E+00
    0.25318E-01        -0.27312E+00         0.00000E+00
    0.28840E-01        -0.25401E+00         0.00000E+00
    0.29601E-01        -0.23498E+00         0.00000E+00
    0.28999E-01        -0.21645E+00         0.00000E+00
    0.27758E-01        -0.19865E+00         0.00000E+00
    0.26245E-01        -0.18168E+00         0.00000E+00
    0.24646E-01        -0.16556E+00         0.00000E+00
    0.23054E-01        -0.15029E+00         0.00000E+00
    0.21505E-01        -0.13581E+00         0.00000E+00
    0.20014E-01        -0.12206E+00         0.00000E+00
    0.18576E-01        -0.10900E+00         0.00000E+00
    0.17181E-01        -0.96562E-01         0.00000E+00
    0.15811E-01        -0.84704E-01         0.00000E+00
    0.14448E-01        -0.73384E-01         0.00000E+00
    0.13066E-01        -0.62565E-01         0.00000E+00
    0.11641E-01        -0.52224E-01         0.00000E+00
    0.10141E-01        -0.42342E-01         0.00000E+00
    0.85300E-02        -0.32914E-01         0.00000E+00
    0.67671E-02        -0.23942E-01         0.00000E+00
    0.48014E-02        -0.15442E-01         0.00000E+00
    0.25712E-02        -0.74460E-02         0.00000E+00
    0.00000E+00         0.00000E+00         0.00000E+00
   -0.58336E-01        -0.24432E+00         0.00000E+00
   -0.11221E-01        -0.24610E+00         0.00000E+00
    0.13216E-01        -0.24282E+00         0.00000E+00
    0.25558E-01        -0.23445E+00         0.00000E+00
    0.31467E-01        -0.22311E+00         0.00000E+00
    0.33803E-01        -0.21011E+00         0.00000E+00
    0.34163E-01        -0.19628E+00         0.00000E+00
    0.33447E-01        -0.18217E+00         0.00000E+00
    0.32164E-01        -0.16814E+00         0.00000E+00
    0.30601E-01        -0.15437E+00         0.00000E+00
    0.28914E-01        -0.14099E+00         0.00000E+00
    0.27188E-01        -0.12806E+00         0.00000E+00
    0.25462E-01        -0.11559E+00         0.00000E+00
    0.23753E-01        -0.10360E+00         0.00000E+00
    0.22057E-01        -0.92063E-01         0.00000E+00
    0.20365E-01        -0.80973E-01         0.00000E+00
    0.18656E-01        -0.70314E-01         0.00000E+00
    0.16906E-01        -0.60072E-01         0.00000E+00
    0.15085E-01        -0.50235E-01         0.00000E+00
    0.13156E-01        -0.40800E-01         0.00000E+00
    0.11075E-01        -0.31766E-01         0.00000E+00
    0.87896E-02        -0.23144E-01         0.00000E+00
    0.62371E-02        -0.14953E-01         0.00000E+00
    0.33393E-02        -0.72237E-02         0.00000E+00
    0.00000E+00         0.00000E+00         0.00000E+00
   -0.55388E-01        -0.19931E+00         0.00000E+00
   -0.18900E-01        -0.19908E+00         0.00000E+00
    0.69208E-02        -0.19986E+00         0.00000E+00
    0.22187E-01        -0.19753E+00         0.00000E+00
    0.30676E-01        -0.19197E+00         0.00000E+00
    0.34983E-01        -0.18401E+00         0.00000E+00
    0.36740E-01        -0.17446E+00         0.00000E+00
    0.36960E-01        -0.16392E+00         0.00000E+00
    0.36267E-01        -0.15284E+00         0.00000E+00
    0.35041E-01        -0.14152E+00         0.00000E+00
    0.33511E-01        -0.13019E+00         0.00000E+00
    0.31811E-01        -0.11896E+00         0.00000E+00
    0.30020E-01        -0.10793E+00         0.00000E+00
    0.28175E-01        -0.97153E-01         0.00000E+00
    0.26292E-01        -0.86660E-01         0.00000E+00
    0.24370E-01        -0.76471E-01         0.00000E+00
    0.22395E-01        -0.66596E-01         0.00000E+00
    0.20345E-01        -0.57040E-01         0.00000E+00
    0.18187E-01        -0.47811E-01         0.00000E+00
    0.15883E-01        -0.38914E-01         0.00000E+00
    0.13383E-01        -0.30361E-01         0.00000E+00
    0.10627E-01        -0.22166E-01         0.00000E+00
    0.75415E-02        -0.14352E-01         0.00000E+00
    0.40366E-02        -0.69498E-02         0.00000E+00
    0.00000E+00         0.00000E+00         0.00000E+00
   -0.51223E-01        -0.16548E+00         0.00000E+00
   -0.22396E-01        -0.16498E+00         0.00000E+00
    0.10365E-02        -0.16571E+00         0.00000E+00
    0.17424E-01        -0.16556E+00         0.00000E+00
    0.27813E-01        -0.16330E+00         0.00000E+00
    0.33939E-01        -0.15888E+00         0.00000E+00
    0.37187E-01        -0.15270E+00         0.00000E+00
    0.38541E-01        -0.14520E+00         0.00000E+00
    0.38664E-01        -0.13680E+00         0.00000E+00
    0.37997E-01        -0.12782E+00         0.00000E+00
    0.36826E-01        -0.11848E+00         0.00000E+00
    0.35331E-01        -0.10898E+00         0.00000E+00
    0.33626E-01        -0.99443E-01         0.00000E+00
    0.31777E-01        -0.89957E-01         0.00000E+00
    0.29819E-01        -0.80587E-01         0.00000E+00
    0.27763E-01        -0.71381E-01         0.00000E+00
    0.25604E-01        -0.62371E-01         0.00000E+00
    0.23325E-01        -0.53582E-01         0.00000E+00
    0.20896E-01        -0.45036E-01         0.00000E+00
    0.18277E-01        -0.36750E-01         0.00000E+00
    0.15417E-01        -0.28743E-01         0.00000E+00
    0.12249E-01        -0.21037E-01         0.00000E+00
    0.86937E-02        -0.13657E-01         0.00000E+00
    0.46518E-02        -0.66322E-02         0.00000E+00
    0.00000E+00         0.00000E+00         0.00000E+00
   -0.47085E-01        -0.13898E+00         0.00000E+00
   -0.23565E-01        -0.13814E+00         0.00000E+00
   -0.30176E-02        -0.13856E+00         0.00000E+00
    0.12906E-01        -0.13892E+00         0.00000E+00
    0.24180E-01        -0.13820E+00         0.00000E+00
    0.31605E-01        -0.13594E+00         0.00000E+00
    0.36141E-01        -0.13214E+00         0.00000E+00
    0.38604E-01        -0.12703E+00         0.00000E+00
    0.39617E-01        -0.12087E+00         0.00000E+00
    0.39626E-01        -0.11393E+00         0.00000E+00
    0.38944E-01        -0.10644E+00         0.00000E+00
    0.37785E-01        -0.98582E-01         0.00000E+00
    0.36289E-01        -0.90499E-01         0.00000E+00
    0.34548E-01        -0.82302E-01         0.00000E+00
    0.32614E-01        -0.74077E-01         0.00000E+00
    0.30512E-01        -0.65889E-01         0.00000E+00
    0.28250E-01        -0.57788E-01         0.00000E+00
    0.25814E-01        -0.49814E-01         0.00000E+00
    0.23181E-01        -0.42000E-01         0.00000E+00
    0.20311E-01        -0.34374E-01         0.00000E+00
    0.17151E-01        -0.26962E-01         0.00000E+00
    0.13635E-01        -0.19791E-01         0.00000E+00
    0.96787E-02        -0.12887E-01         0.00000E+00
    0.51768E-02        -0.62795E-02         0.00000E+00
    0.00000E+00         0.00000E+00         0.00000E+00
   -0.43046E-01        -0.11730E+00         0.00000E+00
   -0.23428E-01        -0.11630E+00         0.00000E+00
   -0.55462E-02        -0.11639E+00         0.00000E+00
    0.92671E-02        -0.11678E+00         0.00000E+00
    0.20609E-01        -0.11670E+00         0.00000E+00
    0.28740E-01        -0.11563E+00         0.00000E+00
    0.34209E-01        -0.11340E+00         0.00000E+00
    0.37608E-01        -0.11002E+00         0.00000E+00
    0.39454E-01        -0.10562E+00         0.00000E+00
    0.40155E-01        -0.10040E+00         0.00000E+00
    0.40020E-01        -0.94517E-01         0.00000E+00
    0.39272E-01        -0.88145E-01         0.00000E+00
    0.38069E-01        -0.81421E-01         0.00000E+00
    0.36520E-01        -0.74458E-01         0.00000E+00
    0.34690E-01        -0.67351E-01         0.00000E+00
    0.32621E-01        -0.60176E-01         0.00000E+00
    0.30325E-01        -0.52992E-01         0.00000E+00
    0.27801E-01        -0.45851E-01         0.00000E+00
    0.25027E-01        -0.38793E-01         0.00000E+00
    0.21968E-01        -0.31855E-01         0.00000E+00
    0.18573E-01        -0.25069E-01         0.00000E+00
    0.14775E-01        -0.18462E-01         0.00000E+00
    0.10488E-01        -0.12064E-01         0.00000E+00
    0.56073E-02        -0.59007E-02         0.00000E+00
    0.00000E+00         0.00000E+00         0.00000E+00
   -0.39147E-01        -0.99189E-01         0.00000E+00
   -0.22531E-01        -0.98109E-01         0.00000E+00
   -0.69583E-02        -0.97949E-01         0.00000E+00
    0.65407E-02        -0.98219E-01         0.00000E+00
    0.17477E-01        -0.98363E-01         0.00000E+00
    0.25829E-01        -0.97936E-01         0.00000E+00
    0.31862E-01        -0.96679E-01         0.00000E+00
    0.35956E-01        -0.94504E-01         0.00000E+00
    0.38499E-01        -0.91441E-01         0.00000E+00
    0.39834E-01        -0.87583E-01         0.00000E+00
    0.40237E-01        -0.83053E-01         0.00000E+00
    0.39926E-01        -0.77978E-01         0.00000E+00
    0.39061E-01        -0.72476E-01         0.00000E+00
    0.37757E-01        -0.66654E-01         0.00000E+00
    0.36092E-01        -0.60604E-01         0.00000E+00
    0.34114E-01        -0.54403E-01         0.00000E+00
    0.31846E-01        -0.48117E-01         0.00000E+00
    0.29292E-01        -0.41801E-01         0.00000E+00
    0.26437E-01        -0.35502E-01         0.00000E+00
    0.23248E-01        -0.29260E-01         0.00000E+00
    0.19679E-01        -0.23110E-01         0.00000E+00
    0.15664E-01        -0.17082E-01         0.00000E+00
    0.11120E-01        -0.11206E-01         0.00000E+00
    0.59421E-02        -0.55046E-02         0.00000E+00
    0.00000E+00         0.00000E+00         0.00000E+00
   -0.35401E-01        -0.83845E-01         0.00000E+00
   -0.21183E-01        -0.82729E-01         0.00000E+00
   -0.75839E-02        -0.82398E-01         0.00000E+00
    0.45950E-02        -0.82526E-01         0.00000E+00
    0.14882E-01        -0.82718E-01         0.00000E+00
    0.23125E-01        -0.82611E-01         0.00000E+00
    0.29411E-01        -0.81950E-01         0.00000E+00
    0.33957E-01        -0.80595E-01         0.00000E+00
    0.37030E-01        -0.78506E-01         0.00000E+00
    0.38895E-01        -0.75712E-01         0.00000E+00
    0.39786E-01        -0.72282E-01         0.00000E+00
    0.39897E-01        -0.68305E-01         0.00000E+00
    0.39379E-01        -0.63873E-01         0.00000E+00
    0.38347E-01        -0.59076E-01         0.00000E+00
    0.36883E-01        -0.53997E-01         0.00000E+00
    0.35039E-01        -0.48710E-01         0.00000E+00
    0.32846E-01        -0.43279E-01         0.00000E+00
    0.30311E-01        -0.37760E-01         0.00000E+00
    0.27426E-01        -0.32202E-01         0.00000E+00
    0.24163E-01        -0.26646E-01         0.00000E+00
    0.20478E-01        -0.21130E-01         0.00000E+00
    0.16310E-01        -0.15683E-01         0.00000E+00
    0.11578E-01        -0.10332E-01         0.00000E+00
    0.61830E-02        -0.50995E-02         0.00000E+00
    0.00000E+00         0.00000E+00         0.00000E+00
   -0.31818E-01        -0.70728E-01         0.00000E+00
   -0.19567E-01        -0.69608E-01         0.00000E+00
   -0.76600E-02        -0.69161E-01         0.00000E+00
    0.32716E-02        -0.69164E-01         0.00000E+00
    0.12804E-01        -0.69331E-01         0.00000E+00
    0.20733E-01        -0.69376E-01         0.00000E+00
    0.27039E-01        -0.69071E-01         0.00000E+00
    0.31825E-01        -0.68263E-01         0.00000E+00
    0.35261E-01        -0.66876E-01         0.00000E+00
    0.37538E-01        -0.64894E-01         0.00000E+00
    0.38839E-01        -0.62342E-01         0.00000E+00
    0.39328E-01        -0.59276E-01         0.00000E+00
    0.39141E-01        -0.55759E-01         0.00000E+00
    0.38385E-01        -0.51863E-01         0.00000E+00
    0.37138E-01        -0.47658E-01         0.00000E+00
    0.35455E-01        -0.43208E-01         0.00000E+00
    0.33370E-01        -0.38574E-01         0.00000E+00
    0.30894E-01        -0.33809E-01         0.00000E+00
    0.28023E-01        -0.28960E-01         0.00000E+00
    0.24733E-01        -0.24068E-01         0.00000E+00
    0.20985E-01        -0.19168E-01         0.00000E+00
    0.16722E-01        -0.14291E-01         0.00000E+00
    0.11870E-01        -0.94602E-02         0.00000E+00
    0.63347E-02        -0.46930E-02         0.00000E+00
    0.00000E+00         0.00000E+00         0.00000E+00
   -0.28407E-01        -0.59449E-01         0.00000E+00
   -0.17803E-01        -0.58346E-01         0.00000E+00
   -0.73548E-02        -0.57824E-01         0.00000E+00
    0.24289E-02        -0.57728E-01         0.00000E+00
    0.11177E-01        -0.57846E-01         0.00000E+00
    0.18673E-01        -0.57955E-01         0.00000E+00
    0.24838E-01        -0.57860E-01         0.00000E+00
    0.29698E-01        -0.57416E-01         0.00000E+00
    0.33349E-01        -0.56529E-01         0.00000E+00
    0.35918E-01        -0.55158E-01         0.00000E+00
    0.37542E-01        -0.53299E-01         0.00000E+00
    0.38352E-01        -0.50975E-01         0.00000E+00
    0.38461E-01        -0.48229E-01         0.00000E+00
    0.37965E-01        -0.45112E-01         0.00000E+00
    0.36936E-01        -0.41678E-01         0.00000E+00
    0.35427E-01        -0.37983E-01         0.00000E+00
    0.33471E-01        -0.34079E-01         0.00000E+00
    0.31084E-01        -0.30013E-01         0.00000E+00
    0.28261E-01        -0.25830E-01         0.00000E+00
    0.24986E-01        -0.21567E-01         0.00000E+00
    0.21222E-01        -0.17258E-01         0.00000E+00
    0.16918E-01        -0.12930E-01         0.00000E+00
    0.12008E-01        -0.86035E-02         0.00000E+00
    0.64035E-02        -0.42918E-02         0.00000E+00
    0.00000E+00         0.00000E+00         0.00000E+00
   -0.25174E-01        -0.49714E-01         0.00000E+00
   -0.15970E-01        -0.48643E-01         0.00000E+00
   -0.67893E-02        -0.48078E-01         0.00000E+00
    0.19508E-02        -0.47908E-01         0.00000E+00
    0.99282E-02        -0.47974E-01         0.00000E+00
    0.16929E-01        -0.48102E-01         0.00000E+00
    0.22846E-01        -0.48130E-01         0.00000E+00
    0.27655E-01        -0.47927E-01         0.00000E+00
    0.31398E-01        -0.47397E-01         0.00000E+00
    0.34152E-01        -0.46483E-01         0.00000E+00
    0.36013E-01        -0.45164E-01         0.00000E+00
    0.37078E-01        -0.43440E-01         0.00000E+00
    0.37440E-01        -0.41335E-01         0.00000E+00
    0.37179E-01        -0.38881E-01         0.00000E+00
    0.36357E-01        -0.36120E-01         0.00000E+00
    0.35023E-01        -0.33094E-01         0.00000E+00
    0.33208E-01        -0.29848E-01         0.00000E+00
    0.30928E-01        -0.26422E-01         0.00000E+00
    0.28182E-01        -0.22854E-01         0.00000E+00
    0.24954E-01        -0.19179E-01         0.00000E+00
    0.21215E-01        -0.15426E-01         0.00000E+00
    0.16920E-01        -0.11619E-01         0.00000E+00
    0.12006E-01        -0.77743E-02         0.00000E+00
    0.63973E-02        -0.39014E-02         0.00000E+00
    0.00000E+00         0.00000E+00         0.00000E+00
   -0.22125E-01        -0.41296E-01         0.00000E+00
   -0.14124E-01        -0.40267E-01         0.00000E+00
   -0.60515E-02        -0.39683E-01         0.00000E+00
    0.17449E-02        -0.39460E-01         0.00000E+00
    0.89848E-02        -0.39480E-01         0.00000E+00
    0.15467E-01        -0.39606E-01         0.00000E+00
    0.21069E-01        -0.39705E-01         0.00000E+00
    0.25738E-01        -0.39662E-01         0.00000E+00
    0.29478E-01        -0.39386E-01         0.00000E+00
    0.32326E-01        -0.38815E-01         0.00000E+00
    0.34343E-01        -0.37914E-01         0.00000E+00
    0.35601E-01        -0.36672E-01         0.00000E+00
    0.36168E-01        -0.35095E-01         0.00000E+00
    0.36107E-01        -0.33201E-01         0.00000E+00
    0.35474E-01        -0.31019E-01         0.00000E+00
    0.34307E-01        -0.28580E-01         0.00000E+00
    0.32637E-01        -0.25918E-01         0.00000E+00
    0.30476E-01        -0.23069E-01         0.00000E+00
    0.27826E-01        -0.20062E-01         0.00000E+00
    0.24675E-01        -0.16929E-01         0.00000E+00
    0.20995E-01        -0.13692E-01         0.00000E+00
    0.16748E-01        -0.10373E-01         0.00000E+00
    0.11881E-01        -0.69822E-02         0.00000E+00
    0.63252E-02        -0.35263E-02         0.00000E+00
    0.00000E+00         0.00000E+00         0.00000E+00
   -0.19264E-01        -0.34010E-01         0.00000E+00
   -0.12305E-01        -0.33032E-01         0.00000E+00
   -0.52066E-02        -0.32445E-01         0.00000E+00
    0.17383E-02        -0.32189E-01         0.00000E+00
    0.82847E-02        -0.32172E-01         0.00000E+00
    0.14246E-01        -0.32288E-01         0.00000E+00
    0.19495E-01        -0.32427E-01         0.00000E+00
    0.23964E-01        -0.32491E-01         0.00000E+00
    0.27627E-01        -0.32397E-01         0.00000E+00
    0.30495E-01        -0.32082E-01         0.00000E+00
    0.32602E-01        -0.31506E-01         0.00000E+00
    0.33992E-01        -0.30648E-01         0.00000E+00
    0.34716E-01        -0.29503E-01         0.00000E+00
    0.34823E-01        -0.28078E-01         0.00000E+00
    0.34353E-01        -0.26389E-01         0.00000E+00
    0.33342E-01        -0.24459E-01         0.00000E+00
    0.31812E-01        -0.22312E-01         0.00000E+00
    0.29777E-01        -0.19976E-01         0.00000E+00
    0.27237E-01        -0.17475E-01         0.00000E+00
    0.24183E-01        -0.14833E-01         0.00000E+00
    0.20591E-01        -0.12071E-01         0.00000E+00
    0.16429E-01        -0.92013E-02         0.00000E+00
    0.11650E-01        -0.62342E-02         0.00000E+00
    0.61964E-02        -0.31700E-02         0.00000E+00
    0.00000E+00         0.00000E+00         0.00000E+00
   -0.16593E-01        -0.27707E-01         0.00000E+00
   -0.10543E-01        -0.26785E-01         0.00000E+00
   -0.43036E-02        -0.26209E-01         0.00000E+00
    0.18740E-02        -0.25934E-01         0.00000E+00
    0.77747E-02        -0.25891E-01         0.00000E+00
    0.13227E-01        -0.25994E-01         0.00000E+00
    0.18107E-01        -0.26156E-01         0.00000E+00
    0.22335E-01        -0.26292E-01         0.00000E+00
    0.25869E-01        -0.26327E-01         0.00000E+00
    0.28699E-01        -0.26205E-01         0.00000E+00
    0.30837E-01        -0.25881E-01         0.00000E+00
    0.32309E-01        -0.25329E-01         0.00000E+00
    0.33147E-01        -0.24536E-01         0.00000E+00
    0.33384E-01        -0.23500E-01         0.00000E+00
    0.33054E-01        -0.22228E-01         0.00000E+00
    0.32182E-01        -0.20735E-01         0.00000E+00
    0.30786E-01        -0.19037E-01         0.00000E+00
    0.28877E-01        -0.17153E-01         0.00000E+00
    0.26456E-01        -0.15103E-01         0.00000E+00
    0.23515E-01        -0.12903E-01         0.00000E+00
    0.20034E-01        -0.10570E-01         0.00000E+00
    0.15985E-01        -0.81124E-02         0.00000E+00
    0.11330E-01        -0.55351E-02         0.00000E+00
    0.60202E-02        -0.28351E-02         0.00000E+00
    0.00000E+00         0.00000E+00         0.00000E+00
   -0.14110E-01        -0.22262E-01         0.00000E+00
   -0.88572E-02        -0.21398E-01         0.00000E+00
   -0.33791E-02        -0.20843E-01         0.00000E+00
    0.21069E-02        -0.20561E-01         0.00000E+00
    0.74107E-02        -0.20500E-01         0.00000E+00
    0.12376E-01        -0.20593E-01         0.00000E+00
    0.16882E-01        -0.20767E-01         0.00000E+00
    0.20845E-01        -0.20952E-01         0.00000E+00
    0.24213E-01        -0.21082E-01         0.00000E+00
    0.26961E-01        -0.21104E-01         0.00000E+00
    0.29085E-01        -0.20975E-01         0.00000E+00
    0.30594E-01        -0.20665E-01         0.00000E+00
    0.31506E-01        -0.20158E-01         0.00000E+00
    0.31843E-01        -0.19443E-01         0.00000E+00
    0.31626E-01        -0.18523E-01         0.00000E+00
    0.30875E-01        -0.17401E-01         0.00000E+00
    0.29604E-01        -0.16090E-01         0.00000E+00
    0.27819E-01        -0.14602E-01         0.00000E+00
    0.25522E-01        -0.12948E-01         0.00000E+00
    0.22705E-01        -0.11143E-01         0.00000E+00
    0.19352E-01        -0.91947E-02         0.00000E+00
    0.15440E-01        -0.71095E-02         0.00000E+00
    0.10937E-01        -0.48878E-02         0.00000E+00
    0.58057E-02        -0.25229E-02         0.00000E+00
    0.00000E+00         0.00000E+00         0.00000E+00
   -0.11817E-01        -0.17565E-01         0.00000E+00
   -0.72640E-02        -0.16763E-01         0.00000E+00
   -0.24611E-02        -0.16236E-01         0.00000E+00
    0.24020E-02        -0.15957E-01         0.00000E+00
    0.71564E-02        -0.15887E-01         0.00000E+00
    0.11659E-01        -0.15971E-01         0.00000E+00
    0.15797E-01        -0.16153E-01         0.00000E+00
    0.19484E-01        -0.16371E-01         0.00000E+00
    0.22662E-01        -0.16569E-01         0.00000E+00
    0.25296E-01        -0.16700E-01         0.00000E+00
    0.27369E-01        -0.16722E-01         0.00000E+00
    0.28879E-01        -0.16605E-01         0.00000E+00
    0.29832E-01        -0.16328E-01         0.00000E+00
    0.30239E-01        -0.15877E-01         0.00000E+00
    0.30113E-01        -0.15249E-01         0.00000E+00
    0.29466E-01        -0.14443E-01         0.00000E+00
    0.28307E-01        -0.13463E-01         0.00000E+00
    0.26643E-01        -0.12316E-01         0.00000E+00
    0.24470E-01        -0.11010E-01         0.00000E+00
    0.21785E-01        -0.95514E-02         0.00000E+00
    0.18573E-01        -0.79455E-02         0.00000E+00
    0.14816E-01        -0.61939E-02         0.00000E+00
    0.10489E-01        -0.42934E-02         0.00000E+00
    0.55614E-02        -0.22346E-02         0.00000E+00
    0.00000E+00         0.00000E+00         0.00000E+00
   -0.97093E-02        -0.13527E-01         0.00000E+00
   -0.57732E-02        -0.12788E-01         0.00000E+00
   -0.15706E-02        -0.12292E-01         0.00000E+00
    0.27314E-02        -0.12024E-01         0.00000E+00
    0.69821E-02        -0.11951E-01         0.00000E+00
    0.11051E-01        -0.12031E-01         0.00000E+00
    0.14831E-01        -0.12216E-01         0.00000E+00
    0.18239E-01        -0.12458E-01         0.00000E+00
    0.21212E-01        -0.12707E-01         0.00000E+00
    0.23709E-01        -0.12919E-01         0.00000E+00
    0.25705E-01        -0.13058E-01         0.00000E+00
    0.27188E-01        -0.13092E-01         0.00000E+00
    0.28153E-01        -0.13000E-01         0.00000E+00
    0.28605E-01        -0.12766E-01         0.00000E+00
    0.28548E-01        -0.12380E-01         0.00000E+00
    0.27988E-01        -0.11838E-01         0.00000E+00
    0.26932E-01        -0.11139E-01         0.00000E+00
    0.25380E-01        -0.10286E-01         0.00000E+00
    0.23333E-01        -0.92798E-02         0.00000E+00
    0.20783E-01        -0.81243E-02         0.00000E+00
    0.17721E-01        -0.68199E-02         0.00000E+00
    0.14132E-01        -0.53646E-02         0.00000E+00
    0.99977E-02        -0.37519E-02         0.00000E+00
    0.52951E-02        -0.19701E-02         0.00000E+00
    0.00000E+00         0.00000E+00         0.00000E+00
   -0.77845E-02        -0.10066E-01         0.00000E+00
   -0.43920E-02        -0.93893E-02         0.00000E+00
   -0.72325E-03        -0.89306E-02         0.00000E+00
    0.30738E-02        -0.86778E-02         0.00000E+00
    0.68639E-02        -0.86070E-02         0.00000E+00
    0.10528E-01        -0.86856E-02         0.00000E+00
    0.13967E-01        -0.88745E-02         0.00000E+00
    0.17098E-01        -0.91323E-02         0.00000E+00
    0.19859E-01        -0.94176E-02         0.00000E+00
    0.22205E-01        -0.96915E-02         0.00000E+00
    0.24104E-01        -0.99199E-02         0.00000E+00
    0.25536E-01        -0.10074E-01         0.00000E+00
    0.26492E-01        -0.10130E-01         0.00000E+00
    0.26967E-01        -0.10070E-01         0.00000E+00
    0.26960E-01        -0.98838E-02         0.00000E+00
    0.26473E-01        -0.95618E-02         0.00000E+00
    0.25507E-01        -0.90999E-02         0.00000E+00
    0.24062E-01        -0.84956E-02         0.00000E+00
    0.22137E-01        -0.77476E-02         0.00000E+00
    0.19725E-01        -0.68544E-02         0.00000E+00
    0.16819E-01        -0.58132E-02         0.00000E+00
    0.13407E-01        -0.46188E-02         0.00000E+00
    0.94776E-02        -0.32621E-02         0.00000E+00
    0.50138E-02        -0.17292E-02         0.00000E+00
    0.00000E+00         0.00000E+00         0.00000E+00
   -0.60376E-02        -0.71117E-02         0.00000E+00
   -0.31244E-02        -0.64977E-02         0.00000E+00
    0.69514E-04        -0.60777E-02         0.00000E+00
    0.34123E-02        -0.58446E-02         0.00000E+00
    0.67823E-02        -0.57808E-02         0.00000E+00
    0.10071E-01        -0.58606E-02         0.00000E+00
    0.13186E-01        -0.60525E-02         0.00000E+00
    0.16048E-01        -0.63220E-02         0.00000E+00
    0.18596E-01        -0.66336E-02         0.00000E+00
    0.20782E-01        -0.69535E-02         0.00000E+00
    0.22570E-01        -0.72503E-02         0.00000E+00
    0.23936E-01        -0.74969E-02         0.00000E+00
    0.24864E-01        -0.76703E-02         0.00000E+00
    0.25345E-01        -0.77520E-02         0.00000E+00
    0.25373E-01        -0.77281E-02         0.00000E+00
    0.24945E-01        -0.75877E-02         0.00000E+00
    0.24059E-01        -0.73234E-02         0.00000E+00
    0.22714E-01        -0.69292E-02         0.00000E+00
    0.20907E-01        -0.64005E-02         0.00000E+00
    0.18632E-01        -0.57324E-02         0.00000E+00
    0.15885E-01        -0.49191E-02         0.00000E+00
    0.12657E-01        -0.39527E-02         0.00000E+00
    0.89397E-02        -0.28218E-02         0.00000E+00
    0.47235E-02        -0.15112E-02         0.00000E+00
    0.00000E+00         0.00000E+00         0.00000E+00
   -0.44631E-02        -0.46028E-02         0.00000E+00
   -0.19722E-02        -0.40501E-02         0.00000E+00
    0.79950E-03        -0.36703E-02         0.00000E+00
    0.37340E-02        -0.34598E-02         0.00000E+00
    0.67220E-02        -0.34062E-02         0.00000E+00
    0.96644E-02        -0.34895E-02         0.00000E+00
    0.12475E-01        -0.36844E-02         0.00000E+00
    0.15079E-01        -0.39622E-02         0.00000E+00
    0.17416E-01        -0.42927E-02         0.00000E+00
    0.19438E-01        -0.46463E-02         0.00000E+00
    0.21106E-01        -0.49949E-02         0.00000E+00
    0.22394E-01        -0.53130E-02         0.00000E+00
    0.23282E-01        -0.55785E-02         0.00000E+00
    0.23754E-01        -0.57726E-02         0.00000E+00
    0.23804E-01        -0.58800E-02         0.00000E+00
    0.23423E-01        -0.58882E-02         0.00000E+00
    0.22608E-01        -0.57871E-02         0.00000E+00
    0.21356E-01        -0.55684E-02         0.00000E+00
    0.19663E-01        -0.52245E-02         0.00000E+00
    0.17524E-01        -0.47479E-02         0.00000E+00
    0.14937E-01        -0.41303E-02         0.00000E+00
    0.11895E-01        -0.33615E-02         0.00000E+00
    0.83936E-02        -0.24285E-02         0.00000E+00
    0.44295E-02        -0.13150E-02         0.00000E+00
    0.00000E+00         0.00000E+00         0.00000E+00
   -0.30548E-02        -0.24842E-02         0.00000E+00
   -0.93542E-03        -0.19911E-02         0.00000E+00
    0.14612E-02        -0.16519E-02         0.00000E+00
    0.40295E-02        -0.14661E-02         0.00000E+00
    0.66706E-02        -0.14251E-02         0.00000E+00
    0.92942E-02        -0.15138E-02         0.00000E+00
    0.11820E-01        -0.17118E-02         0.00000E+00
    0.14178E-01        -0.19955E-02         0.00000E+00
    0.16311E-01        -0.23392E-02         0.00000E+00
    0.18169E-01        -0.27170E-02         0.00000E+00
    0.19714E-01        -0.31038E-02         0.00000E+00
    0.20916E-01        -0.34762E-02         0.00000E+00
    0.21753E-01        -0.38129E-02         0.00000E+00
    0.22207E-01        -0.40954E-02         0.00000E+00
    0.22267E-01        -0.43076E-02         0.00000E+00
    0.21924E-01        -0.44359E-02         0.00000E+00
    0.21172E-01        -0.44683E-02         0.00000E+00
    0.20006E-01        -0.43946E-02         0.00000E+00
    0.18422E-01        -0.42050E-02         0.00000E+00
    0.16417E-01        -0.38898E-02         0.00000E+00
    0.13987E-01        -0.34388E-02         0.00000E+00
    0.11131E-01        -0.28400E-02         0.00000E+00
    0.78476E-02        -0.20793E-02         0.00000E+00
    0.41361E-02        -0.11395E-02         0.00000E+00
    0.00000E+00         0.00000E+00         0.00000E+00
   -0.18059E-02        -0.70692E-03         0.00000E+00
   -0.12732E-04        -0.27155E-03         0.00000E+00
    0.20513E-02         0.27119E-04         0.00000E+00
    0.42915E-02         0.18716E-03         0.00000E+00
    0.66185E-02         0.21381E-03         0.00000E+00
    0.89499E-02         0.11842E-03         0.00000E+00
    0.11212E-01        -0.82915E-04         0.00000E+00
    0.13338E-01        -0.37062E-03         0.00000E+00
    0.15274E-01        -0.72303E-03         0.00000E+00
    0.16971E-01        -0.11176E-02         0.00000E+00
    0.18391E-01        -0.15318E-02         0.00000E+00
    0.19503E-01        -0.19443E-02         0.00000E+00
    0.20283E-01        -0.23351E-02         0.00000E+00
    0.20711E-01        -0.26859E-02         0.00000E+00
    0.20774E-01        -0.29806E-02         0.00000E+00
    0.20461E-01        -0.32045E-02         0.00000E+00
    0.19764E-01        -0.33447E-02         0.00000E+00
    0.18678E-01        -0.33894E-02         0.00000E+00
    0.17198E-01        -0.33272E-02         0.00000E+00
    0.15322E-01        -0.31468E-02         0.00000E+00
    0.13049E-01        -0.28363E-02         0.00000E+00
    0.10377E-01        -0.23826E-02         0.00000E+00
    0.73083E-02        -0.17707E-02         0.00000E+00
    0.38469E-02        -0.98332E-03         0.00000E+00
    0.00000E+00         0.00000E+00         0.00000E+00
   -0.70875E-03         0.77239E-03         0.00000E+00
    0.79849E-03         0.11524E-02         0.00000E+00
    0.25681E-02         0.14112E-02         0.00000E+00
    0.45149E-02         0.15449E-02         0.00000E+00
    0.65583E-02         0.15561E-02         0.00000E+00
    0.86230E-02         0.14531E-02         0.00000E+00
    0.10641E-01         0.12483E-02         0.00000E+00
    0.12550E-01         0.95804E-03         0.00000E+00
    0.14299E-01         0.60045E-03         0.00000E+00
    0.15840E-01         0.19518E-03         0.00000E+00
    0.17137E-01        -0.23783E-03         0.00000E+00
    0.18157E-01        -0.67897E-03         0.00000E+00
    0.18876E-01        -0.11095E-02         0.00000E+00
    0.19272E-01        -0.15119E-02         0.00000E+00
    0.19331E-01        -0.18701E-02         0.00000E+00
    0.19042E-01        -0.21690E-02         0.00000E+00
    0.18394E-01        -0.23949E-02         0.00000E+00
    0.17382E-01        -0.25350E-02         0.00000E+00
    0.16002E-01        -0.25767E-02         0.00000E+00
    0.14252E-01        -0.25075E-02         0.00000E+00
    0.12130E-01        -0.23145E-02         0.00000E+00
    0.96384E-02        -0.19837E-02         0.00000E+00
    0.67811E-02        -0.14997E-02         0.00000E+00
    0.35647E-02        -0.84500E-03         0.00000E+00
    0.00000E+00         0.00000E+00         0.00000E+00
    0.24424E-03         0.19926E-02         0.00000E+00
    0.15018E-02         0.23198E-02         0.00000E+00
    0.30114E-02         0.25398E-02         0.00000E+00
    0.46966E-02         0.26471E-02         0.00000E+00
    0.64844E-02         0.26423E-02         0.00000E+00
    0.83063E-02         0.25310E-02         0.00000E+00
    0.10100E-01         0.23229E-02         0.00000E+00
    0.11807E-01         0.20311E-02         0.00000E+00
    0.13379E-01         0.16712E-02         0.00000E+00
    0.14772E-01         0.12600E-02         0.00000E+00
    0.15948E-01         0.81525E-03         0.00000E+00
    0.16877E-01         0.35487E-03         0.00000E+00
    0.17532E-01        -0.10375E-03         0.00000E+00
    0.17894E-01        -0.54386E-03         0.00000E+00
    0.17945E-01        -0.94956E-03         0.00000E+00
    0.17674E-01        -0.13059E-02         0.00000E+00
    0.17070E-01        -0.15987E-02         0.00000E+00
    0.16128E-01        -0.18144E-02         0.00000E+00
    0.14843E-01        -0.19396E-02         0.00000E+00
    0.13213E-01        -0.19612E-02         0.00000E+00
    0.11238E-01        -0.18654E-02         0.00000E+00
    0.89220E-02        -0.16378E-02         0.00000E+00
    0.62702E-02        -0.12627E-02         0.00000E+00
    0.32918E-02        -0.72308E-03         0.00000E+00
    0.00000E+00         0.00000E+00         0.00000E+00
    0.10611E-02         0.29882E-02         0.00000E+00
    0.21013E-02         0.32654E-02         0.00000E+00
    0.33820E-02         0.34479E-02         0.00000E+00
    0.48345E-02         0.35293E-02         0.00000E+00
    0.63927E-02         0.35082E-02         0.00000E+00
    0.79945E-02         0.33883E-02         0.00000E+00
    0.95821E-02         0.31770E-02         0.00000E+00
    0.11103E-01         0.28847E-02         0.00000E+00
    0.12510E-01         0.25246E-02         0.00000E+00
    0.13762E-01         0.21114E-02         0.00000E+00
    0.14822E-01         0.16607E-02         0.00000E+00
    0.15662E-01         0.11887E-02         0.00000E+00
    0.16254E-01         0.71162E-03         0.00000E+00
    0.16579E-01         0.24537E-03         0.00000E+00
    0.16619E-01        -0.19467E-03         0.00000E+00
    0.16362E-01        -0.59365E-03         0.00000E+00
    0.15798E-01        -0.93727E-03         0.00000E+00
    0.14921E-01        -0.12116E-02         0.00000E+00
    0.13726E-01        -0.14029E-02         0.00000E+00
    0.12211E-01        -0.14975E-02         0.00000E+00
    0.10379E-01        -0.14813E-02         0.00000E+00
    0.82321E-02        -0.13395E-02         0.00000E+00
    0.57789E-02        -0.10567E-02         0.00000E+00
    0.30298E-02        -0.61613E-03         0.00000E+00
    0.00000E+00         0.00000E+00         0.00000E+00
    0.17501E-02         0.37902E-02         0.00000E+00
    0.26019E-02         0.40202E-02         0.00000E+00
    0.36816E-02         0.41669E-02         0.00000E+00
    0.49277E-02         0.42229E-02         0.00000E+00
    0.62804E-02         0.41858E-02         0.00000E+00
    0.76832E-02         0.40573E-02         0.00000E+00
    0.90833E-02         0.38429E-02         0.00000E+00
    0.10432E-01         0.35509E-02         0.00000E+00
    0.11686E-01         0.31925E-02         0.00000E+00
    0.12805E-01         0.27802E-02         0.00000E+00
    0.13756E-01         0.23281E-02         0.00000E+00
    0.14509E-01         0.18507E-02         0.00000E+00
    0.15039E-01         0.13631E-02         0.00000E+00
    0.15327E-01         0.88022E-03         0.00000E+00
    0.15355E-01         0.41688E-03         0.00000E+00
    0.15110E-01        -0.12399E-04         0.00000E+00
    0.14582E-01        -0.39337E-03         0.00000E+00
    0.13765E-01        -0.71204E-03         0.00000E+00
    0.12656E-01        -0.95450E-03         0.00000E+00
    0.11252E-01        -0.11068E-02         0.00000E+00
    0.95554E-02        -0.11548E-02         0.00000E+00
    0.75718E-02        -0.10837E-02         0.00000E+00
    0.53093E-02        -0.87837E-03         0.00000E+00
    0.27798E-02        -0.52275E-03         0.00000E+00
    0.00000E+00         0.00000E+00         0.00000E+00
    0.23194E-02         0.44260E-02         0.00000E+00
    0.30086E-02         0.46117E-02         0.00000E+00
    0.39127E-02         0.47244E-02         0.00000E+00
    0.49762E-02         0.47561E-02         0.00000E+00
    0.61455E-02         0.47033E-02         0.00000E+00
    0.73692E-02         0.45663E-02         0.00000E+00
    0.85989E-02         0.43490E-02         0.00000E+00
    0.97900E-02         0.40581E-02         0.00000E+00
    0.10902E-01         0.37028E-02         0.00000E+00
    0.11898E-01         0.32940E-02         0.00000E+00
    0.12745E-01         0.28441E-02         0.00000E+00
    0.13416E-01         0.23663E-02         0.00000E+00
    0.13888E-01         0.18745E-02         0.00000E+00
    0.14138E-01         0.13828E-02         0.00000E+00
    0.14153E-01         0.90517E-03         0.00000E+00
    0.13918E-01         0.45585E-03         0.00000E+00
    0.13424E-01         0.48779E-04         0.00000E+00
    0.12664E-01        -0.30215E-03         0.00000E+00
    0.11635E-01        -0.58308E-03         0.00000E+00
    0.10337E-01        -0.78009E-03         0.00000E+00
    0.87710E-02        -0.87907E-03         0.00000E+00
    0.69433E-02        -0.86560E-03         0.00000E+00
    0.48629E-02        -0.72486E-03         0.00000E+00
    0.25427E-02        -0.44158E-03         0.00000E+00
    0.00000E+00         0.00000E+00         0.00000E+00
    0.27772E-02         0.49202E-02         0.00000E+00
    0.33270E-02         0.50645E-02         0.00000E+00
    0.40781E-02         0.51452E-02         0.00000E+00
    0.49809E-02         0.51537E-02         0.00000E+00
    0.59870E-02         0.50858E-02         0.00000E+00
    0.70499E-02         0.49406E-02         0.00000E+00
    0.81255E-02         0.47207E-02         0.00000E+00
    0.91730E-02         0.44314E-02         0.00000E+00
    0.10154E-01         0.40803E-02         0.00000E+00
    0.11036E-01         0.36769E-02         0.00000E+00
    0.11787E-01         0.32321E-02         0.00000E+00
    0.12382E-01         0.27579E-02         0.00000E+00
    0.12796E-01         0.22671E-02         0.00000E+00
    0.13012E-01         0.17727E-02         0.00000E+00
    0.13013E-01         0.12883E-02         0.00000E+00
    0.12787E-01         0.82731E-03         0.00000E+00
    0.12324E-01         0.40346E-03         0.00000E+00
    0.11618E-01         0.30318E-04         0.00000E+00
    0.10667E-01        -0.27846E-03         0.00000E+00
    0.94686E-02        -0.50917E-03         0.00000E+00
    0.80269E-02        -0.64795E-03         0.00000E+00
    0.63477E-02        -0.68077E-03         0.00000E+00
    0.44405E-02        -0.59339E-03         0.00000E+00
    0.23187E-02        -0.37134E-03         0.00000E+00
    0.00000E+00         0.00000E+00         0.00000E+00
    0.31315E-02         0.52945E-02         0.00000E+00
    0.35627E-02         0.54005E-02         0.00000E+00
    0.41812E-02         0.54510E-02         0.00000E+00
    0.49430E-02         0.54376E-02         0.00000E+00
    0.58044E-02         0.53553E-02         0.00000E+00
    0.67236E-02         0.52023E-02         0.00000E+00
    0.76605E-02         0.49802E-02         0.00000E+00
    0.85775E-02         0.46930E-02         0.00000E+00
    0.94400E-02         0.43471E-02         0.00000E+00
    0.10216E-01         0.39505E-02         0.00000E+00
    0.10879E-01         0.35130E-02         0.00000E+00
    0.11401E-01         0.30455E-02         0.00000E+00
    0.11763E-01         0.25596E-02         0.00000E+00
    0.11946E-01         0.20676E-02         0.00000E+00
    0.11934E-01         0.15823E-02         0.00000E+00
    0.11716E-01         0.11165E-02         0.00000E+00
    0.11283E-01         0.68350E-03         0.00000E+00
    0.10628E-01         0.29643E-03         0.00000E+00
    0.97499E-02        -0.31378E-04         0.00000E+00
    0.86473E-02        -0.28655E-03         0.00000E+00
    0.73237E-02        -0.45565E-03         0.00000E+00
    0.57854E-02        -0.52512E-03         0.00000E+00
    0.40423E-02        -0.48139E-03         0.00000E+00
    0.21080E-02        -0.31086E-03         0.00000E+00
    0.00000E+00         0.00000E+00         0.00000E+00
    0.33905E-02         0.55683E-02         0.00000E+00
    0.37212E-02         0.56387E-02         0.00000E+00
    0.42256E-02         0.56613E-02         0.00000E+00
    0.48641E-02         0.56273E-02         0.00000E+00
    0.55980E-02         0.55314E-02         0.00000E+00
    0.63892E-02         0.53711E-02         0.00000E+00
    0.72015E-02         0.51471E-02         0.00000E+00
    0.80008E-02         0.48624E-02         0.00000E+00
    0.87552E-02         0.45222E-02         0.00000E+00
    0.94356E-02         0.41336E-02         0.00000E+00
    0.10016E-01         0.37051E-02         0.00000E+00
    0.10473E-01         0.32466E-02         0.00000E+00
    0.10786E-01         0.27688E-02         0.00000E+00
    0.10937E-01         0.22831E-02         0.00000E+00
    0.10914E-01         0.18015E-02         0.00000E+00
    0.10704E-01         0.13364E-02         0.00000E+00
    0.10299E-01         0.90037E-03         0.00000E+00
    0.96933E-02         0.50611E-03         0.00000E+00
    0.88844E-02         0.16651E-03         0.00000E+00
    0.78725E-02        -0.10550E-03         0.00000E+00
    0.66610E-02        -0.29695E-03         0.00000E+00
    0.52563E-02        -0.39492E-03         0.00000E+00
    0.36682E-02        -0.38651E-03         0.00000E+00
    0.19103E-02        -0.25901E-03         0.00000E+00
    0.00000E+00         0.00000E+00         0.00000E+00
    0.35617E-02         0.57585E-02         0.00000E+00
    0.38083E-02         0.57963E-02         0.00000E+00
    0.42149E-02         0.57930E-02         0.00000E+00
    0.47464E-02         0.57399E-02         0.00000E+00
    0.53681E-02         0.56312E-02         0.00000E+00
    0.60458E-02         0.54642E-02         0.00000E+00
    0.67469E-02         0.52386E-02         0.00000E+00
    0.74403E-02         0.49567E-02         0.00000E+00
    0.80969E-02         0.46228E-02         0.00000E+00
    0.86901E-02         0.42428E-02         0.00000E+00
    0.91957E-02         0.38246E-02         0.00000E+00
    0.95920E-02         0.33768E-02         0.00000E+00
    0.98603E-02         0.29094E-02         0.00000E+00
    0.99843E-02         0.24329E-02         0.00000E+00
    0.99507E-02         0.19588E-02         0.00000E+00
    0.97489E-02         0.14985E-02         0.00000E+00
    0.93710E-02         0.10643E-02         0.00000E+00
    0.88118E-02         0.66821E-03         0.00000E+00
    0.80692E-02         0.32267E-03         0.00000E+00
    0.71434E-02         0.40076E-04         0.00000E+00
    0.60380E-02        -0.16717E-03         0.00000E+00
    0.47595E-02        -0.28677E-03         0.00000E+00
    0.33176E-02        -0.30658E-03         0.00000E+00
    0.17255E-02        -0.21478E-03         0.00000E+00
    0.00000E+00         0.00000E+00         0.00000E+00
    0.36526E-02         0.58804E-02         0.00000E+00
    0.38295E-02         0.58883E-02         0.00000E+00
    0.41530E-02         0.58612E-02         0.00000E+00
    0.45921E-02         0.57903E-02         0.00000E+00
    0.51157E-02         0.56698E-02         0.00000E+00
    0.56932E-02         0.54966E-02         0.00000E+00
    0.62953E-02         0.52698E-02         0.00000E+00
    0.68939E-02         0.49909E-02         0.00000E+00
    0.74625E-02         0.46635E-02         0.00000E+00
    0.79769E-02         0.42928E-02         0.00000E+00
    0.84148E-02         0.38854E-02         0.00000E+00
    0.87564E-02         0.34496E-02         0.00000E+00
    0.89842E-02         0.29942E-02         0.00000E+00
    0.90832E-02         0.25292E-02         0.00000E+00
    0.90411E-02         0.20651E-02         0.00000E+00
    0.88479E-02         0.16130E-02         0.00000E+00
    0.84964E-02         0.11842E-02         0.00000E+00
    0.79819E-02         0.79056E-03         0.00000E+00
    0.73023E-02         0.44372E-03         0.00000E+00
    0.64583E-02         0.15558E-03         0.00000E+00
    0.54535E-02        -0.62085E-04         0.00000E+00
    0.42941E-02        -0.19762E-03         0.00000E+00
    0.29897E-02        -0.23966E-03         0.00000E+00
    0.15529E-02        -0.17725E-03         0.00000E+00
    0.00000E+00         0.00000E+00         0.00000E+00
    0.36705E-02         0.59472E-02         0.00000E+00
    0.37905E-02         0.59279E-02         0.00000E+00
    0.40440E-02         0.58789E-02         0.00000E+00
    0.44036E-02         0.57918E-02         0.00000E+00
    0.48417E-02         0.56605E-02         0.00000E+00
    0.53312E-02         0.54815E-02         0.00000E+00
    0.58457E-02         0.52538E-02         0.00000E+00
    0.63597E-02         0.49781E-02         0.00000E+00
    0.68496E-02         0.46573E-02         0.00000E+00
    0.72931E-02         0.42960E-02         0.00000E+00
    0.76702E-02         0.39001E-02         0.00000E+00
    0.79624E-02         0.34768E-02         0.00000E+00
    0.81540E-02         0.30345E-02         0.00000E+00
    0.82310E-02         0.25824E-02         0.00000E+00
    0.81821E-02         0.21303E-02         0.00000E+00
    0.79982E-02         0.16886E-02         0.00000E+00
    0.76725E-02         0.12682E-02         0.00000E+00
    0.72009E-02         0.88009E-03         0.00000E+00
    0.65815E-02         0.53555E-03         0.00000E+00
    0.58152E-02         0.24582E-03         0.00000E+00
    0.49055E-02         0.22067E-04         0.00000E+00
    0.38585E-02        -0.12474E-03         0.00000E+00
    0.26833E-02        -0.18399E-03         0.00000E+00
    0.13921E-02        -0.14555E-03         0.00000E+00
    0.00000E+00         0.00000E+00         0.00000E+00
    0.36223E-02         0.59704E-02         0.00000E+00
    0.36965E-02         0.59265E-02         0.00000E+00
    0.38916E-02         0.58577E-02         0.00000E+00
    0.41834E-02         0.57557E-02         0.00000E+00
    0.45476E-02         0.56145E-02         0.00000E+00
    0.49601E-02         0.54305E-02         0.00000E+00
    0.53971E-02         0.52021E-02         0.00000E+00
    0.58362E-02         0.49297E-02         0.00000E+00
    0.62558E-02         0.46155E-02         0.00000E+00
    0.66361E-02         0.42636E-02         0.00000E+00
    0.69586E-02         0.38792E-02         0.00000E+00
    0.72068E-02         0.34688E-02         0.00000E+00
    0.73662E-02         0.30402E-02         0.00000E+00
    0.74243E-02         0.26018E-02         0.00000E+00
    0.73704E-02         0.21629E-02         0.00000E+00
    0.71965E-02         0.17332E-02         0.00000E+00
    0.68963E-02         0.13231E-02         0.00000E+00
    0.64660E-02         0.94288E-03         0.00000E+00
    0.59043E-02         0.60333E-03         0.00000E+00
    0.52118E-02         0.31506E-03         0.00000E+00
    0.43921E-02         0.88617E-04         0.00000E+00
    0.34511E-02        -0.65696E-04         0.00000E+00
    0.23973E-02        -0.13799E-03         0.00000E+00
    0.12422E-02        -0.11894E-03         0.00000E+00
    0.00000E+00         0.00000E+00         0.00000E+00
    0.35146E-02         0.59603E-02         0.00000E+00
    0.35528E-02         0.58943E-02         0.00000E+00
    0.36998E-02         0.58076E-02         0.00000E+00
    0.39342E-02         0.56922E-02         0.00000E+00
    0.42348E-02         0.55420E-02         0.00000E+00
    0.45800E-02         0.53534E-02         0.00000E+00
    0.49492E-02         0.51245E-02         0.00000E+00
    0.53219E-02         0.48554E-02         0.00000E+00
    0.56792E-02         0.45478E-02         0.00000E+00
    0.60031E-02         0.42051E-02         0.00000E+00
    0.62771E-02         0.38321E-02         0.00000E+00
    0.64863E-02         0.34346E-02         0.00000E+00
    0.66176E-02         0.30198E-02         0.00000E+00
    0.66595E-02         0.25955E-02         0.00000E+00
    0.66026E-02         0.21703E-02         0.00000E+00
    0.64394E-02         0.17536E-02         0.00000E+00
    0.61644E-02         0.13550E-02         0.00000E+00
    0.57743E-02         0.98425E-03         0.00000E+00
    0.52676E-02         0.65158E-03         0.00000E+00
    0.46455E-02         0.36702E-03         0.00000E+00
    0.39110E-02         0.14051E-03         0.00000E+00
    0.30700E-02        -0.18316E-04         0.00000E+00
    0.21302E-02        -0.10025E-03         0.00000E+00
    0.11025E-02        -0.96725E-04         0.00000E+00
    0.00000E+00         0.00000E+00         0.00000E+00
    0.33536E-02         0.59258E-02         0.00000E+00
    0.33645E-02         0.58400E-02         0.00000E+00
    0.34722E-02         0.57373E-02         0.00000E+00
    0.36585E-02         0.56097E-02         0.00000E+00
    0.39046E-02         0.54516E-02         0.00000E+00
    0.41916E-02         0.52589E-02         0.00000E+00
    0.45013E-02         0.50298E-02         0.00000E+00
    0.48157E-02         0.47639E-02         0.00000E+00
    0.51178E-02         0.44626E-02         0.00000E+00
    0.53918E-02         0.41287E-02         0.00000E+00
    0.56228E-02         0.37667E-02         0.00000E+00
    0.57977E-02         0.33818E-02         0.00000E+00
    0.59045E-02         0.29805E-02         0.00000E+00
    0.59331E-02         0.25702E-02         0.00000E+00
    0.58750E-02         0.21591E-02         0.00000E+00
    0.57234E-02         0.17556E-02         0.00000E+00
    0.54735E-02         0.13691E-02         0.00000E+00
    0.51222E-02         0.10088E-02         0.00000E+00
    0.46685E-02         0.68425E-03         0.00000E+00
    0.41133E-02         0.40498E-03         0.00000E+00
    0.34598E-02         0.18031E-03         0.00000E+00
    0.27131E-02         0.19297E-04         0.00000E+00
    0.18807E-02        -0.69532E-04         0.00000E+00
    0.97228E-03        -0.78299E-04         0.00000E+00
    0.00000E+00         0.00000E+00         0.00000E+00
    0.31454E-02         0.58744E-02         0.00000E+00
    0.31363E-02         0.57711E-02         0.00000E+00
    0.32128E-02         0.56541E-02         0.00000E+00
    0.33590E-02         0.55158E-02         0.00000E+00
    0.35586E-02         0.53506E-02         0.00000E+00
    0.37954E-02         0.51544E-02         0.00000E+00
    0.40532E-02         0.49251E-02         0.00000E+00
    0.43163E-02         0.46623E-02         0.00000E+00
    0.45699E-02         0.43669E-02         0.00000E+00
    0.47998E-02         0.40415E-02         0.00000E+00
    0.49930E-02         0.36899E-02         0.00000E+00
    0.51378E-02         0.33169E-02         0.00000E+00
    0.52237E-02         0.29287E-02         0.00000E+00
    0.52416E-02         0.25320E-02         0.00000E+00
    0.51839E-02         0.21345E-02         0.00000E+00
    0.50448E-02         0.17443E-02         0.00000E+00
    0.48198E-02         0.13700E-02         0.00000E+00
    0.45064E-02         0.10205E-02         0.00000E+00
    0.41036E-02         0.70477E-03         0.00000E+00
    0.36125E-02         0.43176E-03         0.00000E+00
    0.30358E-02         0.21029E-03         0.00000E+00
    0.23785E-02         0.48811E-04         0.00000E+00
    0.16471E-02        -0.44740E-04         0.00000E+00
    0.85063E-03        -0.63124E-04         0.00000E+00
    0.00000E+00         0.00000E+00         0.00000E+00
    0.28955E-02         0.58126E-02         0.00000E+00
    0.28728E-02         0.56941E-02         0.00000E+00
    0.29249E-02         0.55645E-02         0.00000E+00
    0.30381E-02         0.54168E-02         0.00000E+00
    0.31986E-02         0.52453E-02         0.00000E+00
    0.33921E-02         0.50460E-02         0.00000E+00
    0.36047E-02         0.48168E-02         0.00000E+00
    0.38230E-02         0.45569E-02         0.00000E+00
    0.40338E-02         0.42670E-02         0.00000E+00
    0.42249E-02         0.39494E-02         0.00000E+00
    0.43849E-02         0.36075E-02         0.00000E+00
    0.45036E-02         0.32457E-02         0.00000E+00
    0.45717E-02         0.28698E-02         0.00000E+00
    0.45813E-02         0.24860E-02         0.00000E+00
    0.45257E-02         0.21015E-02         0.00000E+00
    0.43998E-02         0.17240E-02         0.00000E+00
    0.41998E-02         0.13617E-02         0.00000E+00
    0.39233E-02         0.10229E-02         0.00000E+00
    0.35697E-02         0.71608E-03         0.00000E+00
    0.31399E-02         0.44983E-03         0.00000E+00
    0.26365E-02         0.23238E-03         0.00000E+00
    0.20638E-02         0.71672E-04         0.00000E+00
    0.14279E-02        -0.24920E-04         0.00000E+00
    0.73672E-03        -0.50726E-04         0.00000E+00
    0.00000E+00         0.00000E+00         0.00000E+00
    0.26096E-02         0.57462E-02         0.00000E+00
    0.25787E-02         0.56144E-02         0.00000E+00
    0.26122E-02         0.54740E-02         0.00000E+00
    0.26986E-02         0.53181E-02         0.00000E+00
    0.28259E-02         0.51411E-02         0.00000E+00
    0.29823E-02         0.49392E-02         0.00000E+00
    0.31558E-02         0.47101E-02         0.00000E+00
    0.33347E-02         0.44529E-02         0.00000E+00
    0.35079E-02         0.41680E-02         0.00000E+00
    0.36649E-02         0.38575E-02         0.00000E+00
    0.37959E-02         0.35244E-02         0.00000E+00
    0.38920E-02         0.31729E-02         0.00000E+00
    0.39452E-02         0.28082E-02         0.00000E+00
    0.39487E-02         0.24363E-02         0.00000E+00
    0.38967E-02         0.20639E-02         0.00000E+00
    0.37847E-02         0.16984E-02         0.00000E+00
    0.36096E-02         0.13473E-02         0.00000E+00
    0.33693E-02         0.10187E-02         0.00000E+00
    0.30633E-02         0.72069E-03         0.00000E+00
    0.26924E-02         0.46127E-03         0.00000E+00
    0.22591E-02         0.24826E-03         0.00000E+00
    0.17670E-02         0.89127E-04         0.00000E+00
    0.12215E-02        -0.92449E-05         0.00000E+00
    0.62968E-03        -0.40697E-04         0.00000E+00
    0.00000E+00         0.00000E+00         0.00000E+00
    0.22925E-02         0.56799E-02         0.00000E+00
    0.22581E-02         0.55367E-02         0.00000E+00
    0.22780E-02         0.53871E-02         0.00000E+00
    0.23427E-02         0.52241E-02         0.00000E+00
    0.24424E-02         0.50425E-02         0.00000E+00
    0.25669E-02         0.48384E-02         0.00000E+00
    0.27062E-02         0.46095E-02         0.00000E+00
    0.28507E-02         0.43546E-02         0.00000E+00
    0.29909E-02         0.40743E-02         0.00000E+00
    0.31179E-02         0.37701E-02         0.00000E+00
    0.32235E-02         0.34449E-02         0.00000E+00
    0.33000E-02         0.31025E-02         0.00000E+00
    0.33408E-02         0.27479E-02         0.00000E+00
    0.33401E-02         0.23867E-02         0.00000E+00
    0.32931E-02         0.20252E-02         0.00000E+00
    0.31958E-02         0.16704E-02         0.00000E+00
    0.30456E-02         0.13297E-02         0.00000E+00
    0.28408E-02         0.10105E-02         0.00000E+00
    0.25810E-02         0.72072E-03         0.00000E+00
    0.22670E-02         0.46785E-03         0.00000E+00
    0.19008E-02         0.25935E-03         0.00000E+00
    0.14857E-02         0.10224E-03         0.00000E+00
    0.10263E-02         0.29907E-05         0.00000E+00
    0.52864E-03        -0.32683E-04         0.00000E+00
    0.00000E+00         0.00000E+00         0.00000E+00
    0.19493E-02         0.56175E-02         0.00000E+00
    0.19151E-02         0.54649E-02         0.00000E+00
    0.19256E-02         0.53075E-02         0.00000E+00
    0.19731E-02         0.51387E-02         0.00000E+00
    0.20495E-02         0.49532E-02         0.00000E+00
    0.21465E-02         0.47473E-02         0.00000E+00
    0.22562E-02         0.45186E-02         0.00000E+00
    0.23704E-02         0.42659E-02         0.00000E+00
    0.24813E-02         0.39894E-02         0.00000E+00
    0.25818E-02         0.36907E-02         0.00000E+00
    0.26650E-02         0.33722E-02         0.00000E+00
    0.27247E-02         0.30378E-02         0.00000E+00
    0.27554E-02         0.26919E-02         0.00000E+00
    0.27522E-02         0.23400E-02         0.00000E+00
    0.27112E-02         0.19880E-02         0.00000E+00
    0.26291E-02         0.16427E-02         0.00000E+00
    0.25039E-02         0.13111E-02         0.00000E+00
    0.23341E-02         0.10004E-02         0.00000E+00
    0.21193E-02         0.71794E-03         0.00000E+00
    0.18604E-02         0.47106E-03         0.00000E+00
    0.15589E-02         0.26683E-03         0.00000E+00
    0.12177E-02         0.11190E-03         0.00000E+00
    0.84068E-03         0.12382E-04         0.00000E+00
    0.43273E-03        -0.26386E-04         0.00000E+00
    0.00000E+00         0.00000E+00         0.00000E+00
    0.15847E-02         0.55623E-02         0.00000E+00
    0.15538E-02         0.54021E-02         0.00000E+00
    0.15583E-02         0.52384E-02         0.00000E+00
    0.15920E-02         0.50649E-02         0.00000E+00
    0.16488E-02         0.48763E-02         0.00000E+00
    0.17222E-02         0.46690E-02         0.00000E+00
    0.18056E-02         0.44404E-02         0.00000E+00
    0.18929E-02         0.41894E-02         0.00000E+00
    0.19779E-02         0.39162E-02         0.00000E+00
    0.20548E-02         0.36220E-02         0.00000E+00
    0.21182E-02         0.33092E-02         0.00000E+00
    0.21633E-02         0.29814E-02         0.00000E+00
    0.21856E-02         0.26428E-02         0.00000E+00
    0.21814E-02         0.22986E-02         0.00000E+00
    0.21473E-02         0.19547E-02         0.00000E+00
    0.20811E-02         0.16174E-02         0.00000E+00
    0.19808E-02         0.12935E-02         0.00000E+00
    0.18455E-02         0.98992E-03         0.00000E+00
    0.16749E-02         0.71378E-03         0.00000E+00
    0.14695E-02         0.47211E-03         0.00000E+00
    0.12308E-02         0.27167E-03         0.00000E+00
    0.96091E-03         0.11884E-03         0.00000E+00
    0.66302E-03         0.19419E-04         0.00000E+00
    0.34109E-03        -0.21561E-04         0.00000E+00
    0.00000E+00         0.00000E+00         0.00000E+00
    0.12032E-02         0.55168E-02         0.00000E+00
    0.11779E-02         0.53508E-02         0.00000E+00
    0.11790E-02         0.51823E-02         0.00000E+00
    0.12019E-02         0.50050E-02         0.00000E+00
    0.12420E-02         0.48141E-02         0.00000E+00
    0.12945E-02         0.46056E-02         0.00000E+00
    0.13546E-02         0.43772E-02         0.00000E+00
    0.14177E-02         0.41277E-02         0.00000E+00
    0.14792E-02         0.38570E-02         0.00000E+00
    0.15349E-02         0.35663E-02         0.00000E+00
    0.15807E-02         0.32581E-02         0.00000E+00
    0.16129E-02         0.29354E-02         0.00000E+00
    0.16283E-02         0.26026E-02         0.00000E+00
    0.16241E-02         0.22646E-02         0.00000E+00
    0.15979E-02         0.19270E-02         0.00000E+00
    0.15479E-02         0.15961E-02         0.00000E+00
    0.14726E-02         0.12783E-02         0.00000E+00
    0.13715E-02         0.98045E-03         0.00000E+00
    0.12442E-02         0.70940E-03         0.00000E+00
    0.10912E-02         0.47196E-03         0.00000E+00
    0.91354E-03         0.27466E-03         0.00000E+00
    0.71294E-03         0.12365E-03         0.00000E+00
    0.49171E-03         0.24495E-04         0.00000E+00
    0.25284E-03        -0.18009E-04         0.00000E+00
    0.00000E+00         0.00000E+00         0.00000E+00
    0.80904E-03         0.54829E-02         0.00000E+00
    0.79126E-03         0.53128E-02         0.00000E+00
    0.79089E-03         0.51409E-02         0.00000E+00
    0.80502E-03         0.49611E-02         0.00000E+00
    0.83055E-03         0.47684E-02         0.00000E+00
    0.86435E-03         0.45592E-02         0.00000E+00
    0.90327E-03         0.43309E-02         0.00000E+00
    0.94421E-03         0.40823E-02         0.00000E+00
    0.98417E-03         0.38135E-02         0.00000E+00
    0.10203E-02         0.35254E-02         0.00000E+00
    0.10500E-02         0.32204E-02         0.00000E+00
    0.10707E-02         0.29015E-02         0.00000E+00
    0.10804E-02         0.25728E-02         0.00000E+00
    0.10771E-02         0.22393E-02         0.00000E+00
    0.10593E-02         0.19063E-02         0.00000E+00
    0.10258E-02         0.15800E-02         0.00000E+00
    0.97558E-03         0.12667E-02         0.00000E+00
    0.90828E-03         0.97300E-03         0.00000E+00
    0.82373E-03         0.70567E-03         0.00000E+00
    0.72224E-03         0.47133E-03         0.00000E+00
    0.60449E-03         0.27638E-03         0.00000E+00
    0.47161E-03         0.12677E-03         0.00000E+00
    0.32517E-03         0.27909E-04         0.00000E+00
    0.16715E-03        -0.15578E-04         0.00000E+00
    0.00000E+00         0.00000E+00         0.00000E+00
    0.40659E-03         0.54621E-02         0.00000E+00
    0.39741E-03         0.52895E-02         0.00000E+00
    0.39691E-03         0.51155E-02         0.00000E+00
    0.40363E-03         0.49342E-02         0.00000E+00
    0.41604E-03         0.47405E-02         0.00000E+00
    0.43259E-03         0.45308E-02         0.00000E+00
    0.45170E-03         0.43026E-02         0.00000E+00
    0.47183E-03         0.40547E-02         0.00000E+00
    0.49149E-03         0.37869E-02         0.00000E+00
    0.50927E-03         0.35004E-02         0.00000E+00
    0.52384E-03         0.31973E-02         0.00000E+00
    0.53399E-03         0.28807E-02         0.00000E+00
    0.53864E-03         0.25546E-02         0.00000E+00
    0.53686E-03         0.22237E-02         0.00000E+00
    0.52786E-03         0.18936E-02         0.00000E+00
    0.51103E-03         0.15700E-02         0.00000E+00
    0.48594E-03         0.12594E-02         0.00000E+00
    0.45233E-03         0.96825E-03         0.00000E+00
    0.41015E-03         0.70319E-03         0.00000E+00
    0.35955E-03         0.47076E-03         0.00000E+00
    0.30088E-03         0.27724E-03         0.00000E+00
    0.23470E-03         0.12852E-03         0.00000E+00
    0.16179E-03         0.29874E-04         0.00000E+00
    0.83152E-04        -0.14162E-04         0.00000E+00
    0.00000E+00         0.00000E+00         0.00000E+00
    0.00000E+00         0.54550E-02         0.00000E+00
    0.00000E+00         0.52816E-02         0.00000E+00
    0.00000E+00         0.51070E-02         0.00000E+00
    0.00000E+00         0.49251E-02         0.00000E+00
    0.00000E+00         0.47311E-02         0.00000E+00
    0.00000E+00         0.45213E-02         0.00000E+00
    0.00000E+00         0.42931E-02         0.00000E+00
    0.00000E+00         0.40454E-02         0.00000E+00
    0.00000E+00         0.37780E-02         0.00000E+00
    0.00000E+00         0.34920E-02         0.00000E+00
    0.00000E+00         0.31895E-02         0.00000E+00
    0.00000E+00         0.28737E-02         0.00000E+00
    0.00000E+00         0.25484E-02         0.00000E+00
    0.00000E+00         0.22185E-02         0.00000E+00
    0.00000E+00         0.18892E-02         0.00000E+00
    0.00000E+00         0.15666E-02         0.00000E+00
    0.00000E+00         0.12569E-02         0.00000E+00
    0.00000E+00         0.96662E-03         0.00000E+00
    0.00000E+00         0.70232E-03         0.00000E+00
    0.00000E+00         0.47053E-03         0.00000E+00
    0.00000E+00         0.27751E-03         0.00000E+00
    0.00000E+00         0.12908E-03         0.00000E+00
    0.00000E+00         0.30515E-04         0.00000E+00
    0.00000E+00        -0.13697E-04         0.00000E+00
    0.00000E+00         0.00000E+00         0.00000E+00
CELL_DATA       1152
VECTORS vDarcy double 
    0.10956E-05         0.11027E-05         0.00000E+00
    0.83717E-06         0.29647E-05         0.00000E+00
    0.51731E-06         0.42005E-05         0.00000E+00
    0.28524E-06         0.48146E-05         0.00000E+00
    0.17326E-06         0.51025E-05         0.00000E+00
    0.11218E-06         0.52086E-05         0.00000E+00
    0.77189E-07         0.52035E-05         0.00000E+00
    0.55971E-07         0.51238E-05         0.00000E+00
    0.42496E-07         0.49900E-05         0.00000E+00
    0.33598E-07         0.48140E-05         0.00000E+00
    0.27528E-07         0.46036E-05         0.00000E+00
    0.23273E-07         0.43640E-05         0.00000E+00
    0.20222E-07         0.40993E-05         0.00000E+00
    0.17993E-07         0.38123E-05         0.00000E+00
    0.16338E-07         0.35057E-05         0.00000E+00
    0.15096E-07         0.31818E-05         0.00000E+00
    0.14154E-07         0.28425E-05         0.00000E+00
    0.13438E-07         0.24899E-05         0.00000E+00
    0.12892E-07         0.21257E-05         0.00000E+00
    0.12480E-07         0.17520E-05         0.00000E+00
    0.12175E-07         0.13704E-05         0.00000E+00
    0.11960E-07         0.98292E-06         0.00000E+00
    0.11821E-07         0.59124E-06         0.00000E+00
    0.11753E-07         0.19723E-06         0.00000E+00
    0.36403E-05         0.14024E-05         0.00000E+00
    0.25595E-05         0.40042E-05         0.00000E+00
    0.13194E-05         0.47210E-05         0.00000E+00
    0.76766E-06         0.50779E-05         0.00000E+00
    0.47489E-06         0.52439E-05         0.00000E+00
    0.31364E-06         0.52894E-05         0.00000E+00
    0.21901E-06         0.52523E-05         0.00000E+00
    0.16064E-06         0.51547E-05         0.00000E+00
    0.12306E-06         0.50102E-05         0.00000E+00
    0.97978E-07         0.48277E-05         0.00000E+00
    0.80721E-07         0.46131E-05         0.00000E+00
    0.68542E-07         0.43709E-05         0.00000E+00
    0.59762E-07         0.41043E-05         0.00000E+00
    0.53319E-07         0.38160E-05         0.00000E+00
    0.48521E-07         0.35085E-05         0.00000E+00
    0.44906E-07         0.31839E-05         0.00000E+00
    0.42161E-07         0.28441E-05         0.00000E+00
    0.40067E-07         0.24911E-05         0.00000E+00
    0.38470E-07         0.21267E-05         0.00000E+00
    0.37263E-07         0.17527E-05         0.00000E+00
    0.36369E-07         0.13709E-05         0.00000E+00
    0.35736E-07         0.98326E-06         0.00000E+00
    0.35329E-07         0.59144E-06         0.00000E+00
    0.35129E-07         0.19730E-06         0.00000E+00
    0.84773E-05         0.64454E-05         0.00000E+00
    0.28703E-05         0.56490E-05         0.00000E+00
    0.16742E-05         0.55124E-05         0.00000E+00
    0.10191E-05         0.54933E-05         0.00000E+00
    0.66405E-06         0.54764E-05         0.00000E+00
    0.45546E-06         0.54268E-05         0.00000E+00
    0.32744E-06         0.53375E-05         0.00000E+00
    0.24561E-06         0.52097E-05         0.00000E+00
    0.19144E-06         0.50470E-05         0.00000E+00
    0.15451E-06         0.48530E-05         0.00000E+00
    0.12867E-06         0.46310E-05         0.00000E+00
    0.11018E-06         0.43837E-05         0.00000E+00
    0.96716E-07         0.41137E-05         0.00000E+00
    0.86747E-07         0.38230E-05         0.00000E+00
    0.79270E-07         0.35138E-05         0.00000E+00
    0.73606E-07         0.31879E-05         0.00000E+00
    0.69284E-07         0.28472E-05         0.00000E+00
    0.65973E-07         0.24934E-05         0.00000E+00
    0.63441E-07         0.21285E-05         0.00000E+00
    0.61522E-07         0.17540E-05         0.00000E+00
    0.60098E-07         0.13719E-05         0.00000E+00
    0.59088E-07         0.98393E-06         0.00000E+00
    0.58438E-07         0.59183E-06         0.00000E+00
    0.58119E-07         0.19743E-06         0.00000E+00
    0.14325E-05         0.98540E-05         0.00000E+00
    0.23147E-05         0.69652E-05         0.00000E+00
    0.14877E-05         0.62194E-05         0.00000E+00
    0.10255E-05         0.59036E-05         0.00000E+00
    0.72089E-06         0.57257E-05         0.00000E+00
    0.52319E-06         0.55838E-05         0.00000E+00
    0.39224E-06         0.54395E-05         0.00000E+00
    0.30377E-06         0.52780E-05         0.00000E+00
    0.24272E-06         0.50939E-05         0.00000E+00
    0.19973E-06         0.48860E-05         0.00000E+00
    0.16889E-06         0.46547E-05         0.00000E+00
    0.14639E-06         0.44010E-05         0.00000E+00
    0.12974E-06         0.41265E-05         0.00000E+00
    0.11725E-06         0.38326E-05         0.00000E+00
    0.10779E-06         0.35211E-05         0.00000E+00
    0.10056E-06         0.31935E-05         0.00000E+00
    0.95008E-07         0.28515E-05         0.00000E+00
    0.90729E-07         0.24967E-05         0.00000E+00
    0.87441E-07         0.21310E-05         0.00000E+00
    0.84939E-07         0.17559E-05         0.00000E+00
    0.83077E-07         0.13733E-05         0.00000E+00
    0.81753E-07         0.98487E-06         0.00000E+00
    0.80900E-07         0.59238E-06         0.00000E+00
    0.80480E-07         0.19762E-06         0.00000E+00
    0.43248E-06         0.79890E-05         0.00000E+00
    0.10254E-05         0.73550E-05         0.00000E+00
    0.10786E-05         0.66034E-05         0.00000E+00
    0.86590E-06         0.61944E-05         0.00000E+00
    0.67500E-06         0.59305E-05         0.00000E+00
    0.52567E-06         0.57261E-05         0.00000E+00
    0.41514E-06         0.55387E-05         0.00000E+00
    0.33445E-06         0.53479E-05         0.00000E+00
    0.27553E-06         0.51439E-05         0.00000E+00
    0.23224E-06         0.49223E-05         0.00000E+00
    0.20015E-06         0.46813E-05         0.00000E+00
    0.17612E-06         0.44209E-05         0.00000E+00
    0.15797E-06         0.41414E-05         0.00000E+00
    0.14413E-06         0.38440E-05         0.00000E+00
    0.13350E-06         0.35298E-05         0.00000E+00
    0.12529E-06         0.32002E-05         0.00000E+00
    0.11892E-06         0.28567E-05         0.00000E+00
    0.11398E-06         0.25008E-05         0.00000E+00
    0.11016E-06         0.21341E-05         0.00000E+00
    0.10723E-06         0.17583E-05         0.00000E+00
    0.10505E-06         0.13750E-05         0.00000E+00
    0.10349E-06         0.98605E-06         0.00000E+00
    0.10249E-06         0.59307E-06         0.00000E+00
    0.10199E-06         0.19784E-06         0.00000E+00
    0.21135E-06         0.73452E-05         0.00000E+00
    0.54319E-06         0.70741E-05         0.00000E+00
    0.68288E-06         0.66915E-05         0.00000E+00
    0.66345E-06         0.63384E-05         0.00000E+00
    0.57707E-06         0.60637E-05         0.00000E+00
    0.48576E-06         0.58335E-05         0.00000E+00
    0.40629E-06         0.56213E-05         0.00000E+00
    0.34203E-06         0.54103E-05         0.00000E+00
    0.29161E-06         0.51908E-05         0.00000E+00
    0.25256E-06         0.49577E-05         0.00000E+00
    0.22240E-06         0.47082E-05         0.00000E+00
    0.19910E-06         0.44414E-05         0.00000E+00
    0.18105E-06         0.41572E-05         0.00000E+00
    0.16700E-06         0.38562E-05         0.00000E+00
    0.15604E-06         0.35392E-05         0.00000E+00
    0.14745E-06         0.32076E-05         0.00000E+00
    0.14072E-06         0.28624E-05         0.00000E+00
    0.13545E-06         0.25052E-05         0.00000E+00
    0.13134E-06         0.21375E-05         0.00000E+00
    0.12818E-06         0.17609E-05         0.00000E+00
    0.12581E-06         0.13770E-05         0.00000E+00
    0.12411E-06         0.98737E-06         0.00000E+00
    0.12300E-06         0.59385E-06         0.00000E+00
    0.12246E-06         0.19811E-06         0.00000E+00
    0.12160E-06         0.70123E-05         0.00000E+00
    0.32941E-06         0.68674E-05         0.00000E+00
    0.45325E-06         0.66346E-05         0.00000E+00
    0.49085E-06         0.63771E-05         0.00000E+00
    0.47155E-06         0.61307E-05         0.00000E+00
    0.42752E-06         0.59018E-05         0.00000E+00
    0.37869E-06         0.56813E-05         0.00000E+00
    0.33344E-06         0.54598E-05         0.00000E+00
    0.29463E-06         0.52305E-05         0.00000E+00
    0.26256E-06         0.49891E-05         0.00000E+00
    0.23658E-06         0.47329E-05         0.00000E+00
    0.21574E-06         0.44608E-05         0.00000E+00
    0.19910E-06         0.41724E-05         0.00000E+00
    0.18585E-06         0.38682E-05         0.00000E+00
    0.17530E-06         0.35487E-05         0.00000E+00
    0.16691E-06         0.32150E-05         0.00000E+00
    0.16024E-06         0.28683E-05         0.00000E+00
    0.15497E-06         0.25099E-05         0.00000E+00
    0.15082E-06         0.21411E-05         0.00000E+00
    0.14760E-06         0.17637E-05         0.00000E+00
    0.14517E-06         0.13790E-05         0.00000E+00
    0.14342E-06         0.98878E-06         0.00000E+00
    0.14229E-06         0.59468E-06         0.00000E+00
    0.14172E-06         0.19838E-06         0.00000E+00
    0.78586E-07         0.68121E-05         0.00000E+00
    0.21925E-06         0.67191E-05         0.00000E+00
    0.31853E-06         0.65598E-05         0.00000E+00
    0.36956E-06         0.63633E-05         0.00000E+00
    0.38109E-06         0.61523E-05         0.00000E+00
    0.36807E-06         0.59373E-05         0.00000E+00
    0.34351E-06         0.57192E-05         0.00000E+00
    0.31566E-06         0.54950E-05         0.00000E+00
    0.28880E-06         0.52611E-05         0.00000E+00
    0.26477E-06         0.50147E-05         0.00000E+00
    0.24415E-06         0.47539E-05         0.00000E+00
    0.22686E-06         0.44779E-05         0.00000E+00
    0.21258E-06         0.41863E-05         0.00000E+00
    0.20088E-06         0.38793E-05         0.00000E+00
    0.19136E-06         0.35577E-05         0.00000E+00
    0.18365E-06         0.32222E-05         0.00000E+00
    0.17743E-06         0.28740E-05         0.00000E+00
    0.17244E-06         0.25144E-05         0.00000E+00
    0.16848E-06         0.21447E-05         0.00000E+00
    0.16539E-06         0.17664E-05         0.00000E+00
    0.16303E-06         0.13810E-05         0.00000E+00
    0.16132E-06         0.99020E-06         0.00000E+00
    0.16021E-06         0.59552E-06         0.00000E+00
    0.15965E-06         0.19867E-06         0.00000E+00
    0.55136E-07         0.66784E-05         0.00000E+00
    0.15678E-06         0.66105E-05         0.00000E+00
    0.23596E-06         0.64899E-05         0.00000E+00
    0.28676E-06         0.63313E-05         0.00000E+00
    0.31117E-06         0.61483E-05         0.00000E+00
    0.31579E-06         0.59496E-05         0.00000E+00
    0.30811E-06         0.57390E-05         0.00000E+00
    0.29415E-06         0.55169E-05         0.00000E+00
    0.27792E-06         0.52822E-05         0.00000E+00
    0.26173E-06         0.50337E-05         0.00000E+00
    0.24677E-06         0.47704E-05         0.00000E+00
    0.23354E-06         0.44919E-05         0.00000E+00
    0.22214E-06         0.41979E-05         0.00000E+00
    0.21250E-06         0.38890E-05         0.00000E+00
    0.20445E-06         0.35656E-05         0.00000E+00
    0.19778E-06         0.32287E-05         0.00000E+00
    0.19231E-06         0.28793E-05         0.00000E+00
    0.18787E-06         0.25186E-05         0.00000E+00
    0.18429E-06         0.21480E-05         0.00000E+00
    0.18147E-06         0.17690E-05         0.00000E+00
    0.17930E-06         0.13830E-05         0.00000E+00
    0.17772E-06         0.99155E-06         0.00000E+00
    0.17668E-06         0.59632E-06         0.00000E+00
    0.17616E-06         0.19894E-06         0.00000E+00
    0.41231E-07         0.65820E-05         0.00000E+00
    0.11875E-06         0.65277E-05         0.00000E+00
    0.18309E-06         0.64292E-05         0.00000E+00
    0.22990E-06         0.62944E-05         0.00000E+00
    0.25894E-06         0.61317E-05         0.00000E+00
    0.27302E-06         0.59475E-05         0.00000E+00
    0.27619E-06         0.57457E-05         0.00000E+00
    0.27243E-06         0.55280E-05         0.00000E+00
    0.26483E-06         0.52950E-05         0.00000E+00
    0.25557E-06         0.50464E-05         0.00000E+00
    0.24598E-06         0.47823E-05         0.00000E+00
    0.23683E-06         0.45024E-05         0.00000E+00
    0.22852E-06         0.42071E-05         0.00000E+00
    0.22120E-06         0.38968E-05         0.00000E+00
    0.21488E-06         0.35722E-05         0.00000E+00
    0.20951E-06         0.32341E-05         0.00000E+00
    0.20501E-06         0.28838E-05         0.00000E+00
    0.20129E-06         0.25223E-05         0.00000E+00
    0.19825E-06         0.21510E-05         0.00000E+00
    0.19583E-06         0.17713E-05         0.00000E+00
    0.19394E-06         0.13847E-05         0.00000E+00
    0.19256E-06         0.99277E-06         0.00000E+00
    0.19164E-06         0.59706E-06         0.00000E+00
    0.19118E-06         0.19919E-06         0.00000E+00
    0.32458E-07         0.65083E-05         0.00000E+00
    0.94317E-07         0.64620E-05         0.00000E+00
    0.14793E-06         0.63769E-05         0.00000E+00
    0.19018E-06         0.62577E-05         0.00000E+00
    0.22023E-06         0.61094E-05         0.00000E+00
    0.23913E-06         0.59369E-05         0.00000E+00
    0.24903E-06         0.57433E-05         0.00000E+00
    0.25238E-06         0.55308E-05         0.00000E+00
    0.25141E-06         0.53007E-05         0.00000E+00
    0.24787E-06         0.50535E-05         0.00000E+00
    0.24303E-06         0.47896E-05         0.00000E+00
    0.23771E-06         0.45095E-05         0.00000E+00
    0.23242E-06         0.42136E-05         0.00000E+00
    0.22747E-06         0.39026E-05         0.00000E+00
    0.22300E-06         0.35772E-05         0.00000E+00
    0.21907E-06         0.32384E-05         0.00000E+00
    0.21568E-06         0.28874E-05         0.00000E+00
    0.21281E-06         0.25253E-05         0.00000E+00
    0.21042E-06         0.21534E-05         0.00000E+00
    0.20849E-06         0.17732E-05         0.00000E+00
    0.20696E-06         0.13862E-05         0.00000E+00
    0.20583E-06         0.99381E-06         0.00000E+00
    0.20507E-06         0.59769E-06         0.00000E+00
    0.20469E-06         0.19940E-06         0.00000E+00
    0.26655E-07         0.64492E-05         0.00000E+00
    0.77946E-07         0.64080E-05         0.00000E+00
    0.12377E-06         0.63315E-05         0.00000E+00
    0.16191E-06         0.62227E-05         0.00000E+00
    0.19144E-06         0.60848E-05         0.00000E+00
    0.21263E-06         0.59214E-05         0.00000E+00
    0.22658E-06         0.57349E-05         0.00000E+00
    0.23476E-06         0.55276E-05         0.00000E+00
    0.23870E-06         0.53009E-05         0.00000E+00
    0.23972E-06         0.50558E-05         0.00000E+00
    0.23887E-06         0.47930E-05         0.00000E+00
    0.23694E-06         0.45134E-05         0.00000E+00
    0.23446E-06         0.42175E-05         0.00000E+00
    0.23179E-06         0.39063E-05         0.00000E+00
    0.22917E-06         0.35806E-05         0.00000E+00
    0.22671E-06         0.32414E-05         0.00000E+00
    0.22449E-06         0.28900E-05         0.00000E+00
    0.22255E-06         0.25275E-05         0.00000E+00
    0.22088E-06         0.21553E-05         0.00000E+00
    0.21949E-06         0.17747E-05         0.00000E+00
    0.21838E-06         0.13873E-05         0.00000E+00
    0.21754E-06         0.99464E-06         0.00000E+00
    0.21697E-06         0.59819E-06         0.00000E+00
    0.21668E-06         0.19958E-06         0.00000E+00
    0.22669E-07         0.63999E-05         0.00000E+00
    0.66591E-07         0.63621E-05         0.00000E+00
    0.10670E-06         0.62915E-05         0.00000E+00
    0.14139E-06         0.61899E-05         0.00000E+00
    0.16984E-06         0.60597E-05         0.00000E+00
    0.19197E-06         0.59032E-05         0.00000E+00
    0.20830E-06         0.57228E-05         0.00000E+00
    0.21971E-06         0.55202E-05         0.00000E+00
    0.22720E-06         0.52969E-05         0.00000E+00
    0.23173E-06         0.50542E-05         0.00000E+00
    0.23414E-06         0.47930E-05         0.00000E+00
    0.23511E-06         0.45143E-05         0.00000E+00
    0.23512E-06         0.42190E-05         0.00000E+00
    0.23457E-06         0.39080E-05         0.00000E+00
    0.23370E-06         0.35823E-05         0.00000E+00
    0.23268E-06         0.32431E-05         0.00000E+00
    0.23164E-06         0.28915E-05         0.00000E+00
    0.23064E-06         0.25289E-05         0.00000E+00
    0.22972E-06         0.21564E-05         0.00000E+00
    0.22892E-06         0.17757E-05         0.00000E+00
    0.22825E-06         0.13881E-05         0.00000E+00
    0.22772E-06         0.99522E-06         0.00000E+00
    0.22735E-06         0.59855E-06         0.00000E+00
    0.22716E-06         0.19970E-06         0.00000E+00
    0.19844E-07         0.63573E-05         0.00000E+00
    0.58484E-07         0.63220E-05         0.00000E+00
    0.94334E-07         0.62556E-05         0.00000E+00
    0.12622E-06         0.61592E-05         0.00000E+00
    0.15344E-06         0.60347E-05         0.00000E+00
    0.17579E-06         0.58837E-05         0.00000E+00
    0.19348E-06         0.57082E-05         0.00000E+00
    0.20701E-06         0.55098E-05         0.00000E+00
    0.21704E-06         0.52898E-05         0.00000E+00
    0.22424E-06         0.50496E-05         0.00000E+00
    0.22925E-06         0.47902E-05         0.00000E+00
    0.23262E-06         0.45128E-05         0.00000E+00
    0.23480E-06         0.42183E-05         0.00000E+00
    0.23612E-06         0.39079E-05         0.00000E+00
    0.23686E-06         0.35826E-05         0.00000E+00
    0.23721E-06         0.32436E-05         0.00000E+00
    0.23729E-06         0.28921E-05         0.00000E+00
    0.23722E-06         0.25294E-05         0.00000E+00
    0.23705E-06         0.21570E-05         0.00000E+00
    0.23684E-06         0.17762E-05         0.00000E+00
    0.23662E-06         0.13885E-05         0.00000E+00
    0.23642E-06         0.99554E-06         0.00000E+00
    0.23626E-06         0.59876E-06         0.00000E+00
    0.23617E-06         0.19978E-06         0.00000E+00
    0.17787E-07         0.63197E-05         0.00000E+00
    0.52547E-07         0.62863E-05         0.00000E+00
    0.85172E-07         0.62229E-05         0.00000E+00
    0.11479E-06         0.61304E-05         0.00000E+00
    0.14082E-06         0.60102E-05         0.00000E+00
    0.16302E-06         0.58636E-05         0.00000E+00
    0.18145E-06         0.56922E-05         0.00000E+00
    0.19636E-06         0.54974E-05         0.00000E+00
    0.20818E-06         0.52804E-05         0.00000E+00
    0.21738E-06         0.50426E-05         0.00000E+00
    0.22443E-06         0.47852E-05         0.00000E+00
    0.22976E-06         0.45092E-05         0.00000E+00
    0.23375E-06         0.42158E-05         0.00000E+00
    0.23671E-06         0.39061E-05         0.00000E+00
    0.23889E-06         0.35814E-05         0.00000E+00
    0.24048E-06         0.32428E-05         0.00000E+00
    0.24162E-06         0.28916E-05         0.00000E+00
    0.24242E-06         0.25292E-05         0.00000E+00
    0.24298E-06         0.21569E-05         0.00000E+00
    0.24334E-06         0.17762E-05         0.00000E+00
    0.24357E-06         0.13886E-05         0.00000E+00
    0.24369E-06         0.99559E-06         0.00000E+00
    0.24375E-06         0.59881E-06         0.00000E+00
    0.24376E-06         0.19981E-06         0.00000E+00
    0.16252E-07         0.62857E-05         0.00000E+00
    0.48095E-07         0.62537E-05         0.00000E+00
    0.78238E-07         0.61927E-05         0.00000E+00
    0.10602E-06         0.61032E-05         0.00000E+00
    0.13097E-06         0.59864E-05         0.00000E+00
    0.15284E-06         0.58434E-05         0.00000E+00
    0.17161E-06         0.56753E-05         0.00000E+00
    0.18740E-06         0.54836E-05         0.00000E+00
    0.20047E-06         0.52693E-05         0.00000E+00
    0.21114E-06         0.50338E-05         0.00000E+00
    0.21977E-06         0.47783E-05         0.00000E+00
    0.22667E-06         0.45038E-05         0.00000E+00
    0.23217E-06         0.42117E-05         0.00000E+00
    0.23653E-06         0.39030E-05         0.00000E+00
    0.23996E-06         0.35790E-05         0.00000E+00
    0.24266E-06         0.32409E-05         0.00000E+00
    0.24475E-06         0.28902E-05         0.00000E+00
    0.24637E-06         0.25281E-05         0.00000E+00
    0.24760E-06         0.21561E-05         0.00000E+00
    0.24851E-06         0.17756E-05         0.00000E+00
    0.24916E-06         0.13882E-05         0.00000E+00
    0.24960E-06         0.99538E-06         0.00000E+00
    0.24986E-06         0.59871E-06         0.00000E+00
    0.24998E-06         0.19978E-06         0.00000E+00
    0.15079E-07         0.62543E-05         0.00000E+00
    0.44679E-07         0.62236E-05         0.00000E+00
    0.72875E-07         0.61644E-05         0.00000E+00
    0.99155E-07         0.60774E-05         0.00000E+00
    0.12314E-06         0.59633E-05         0.00000E+00
    0.14460E-06         0.58231E-05         0.00000E+00
    0.16347E-06         0.56579E-05         0.00000E+00
    0.17979E-06         0.54688E-05         0.00000E+00
    0.19372E-06         0.52570E-05         0.00000E+00
    0.20548E-06         0.50237E-05         0.00000E+00
    0.21530E-06         0.47700E-05         0.00000E+00
    0.22346E-06         0.44971E-05         0.00000E+00
    0.23018E-06         0.42062E-05         0.00000E+00
    0.23570E-06         0.38986E-05         0.00000E+00
    0.24021E-06         0.35754E-05         0.00000E+00
    0.24387E-06         0.32381E-05         0.00000E+00
    0.24682E-06         0.28880E-05         0.00000E+00
    0.24917E-06         0.25264E-05         0.00000E+00
    0.25102E-06         0.21548E-05         0.00000E+00
    0.25244E-06         0.17746E-05         0.00000E+00
    0.25348E-06         0.13875E-05         0.00000E+00
    0.25421E-06         0.99492E-06         0.00000E+00
    0.25467E-06         0.59845E-06         0.00000E+00
    0.25488E-06         0.19971E-06         0.00000E+00
    0.14162E-07         0.62251E-05         0.00000E+00
    0.41996E-07         0.61954E-05         0.00000E+00
    0.68633E-07         0.61378E-05         0.00000E+00
    0.93671E-07         0.60527E-05         0.00000E+00
    0.11680E-06         0.59409E-05         0.00000E+00
    0.13782E-06         0.58031E-05         0.00000E+00
    0.15664E-06         0.56403E-05         0.00000E+00
    0.17325E-06         0.54535E-05         0.00000E+00
    0.18776E-06         0.52439E-05         0.00000E+00
    0.20028E-06         0.50125E-05         0.00000E+00
    0.21101E-06         0.47606E-05         0.00000E+00
    0.22014E-06         0.44892E-05         0.00000E+00
    0.22785E-06         0.41996E-05         0.00000E+00
    0.23433E-06         0.38931E-05         0.00000E+00
    0.23974E-06         0.35710E-05         0.00000E+00
    0.24422E-06         0.32345E-05         0.00000E+00
    0.24791E-06         0.28850E-05         0.00000E+00
    0.25091E-06         0.25240E-05         0.00000E+00
    0.25331E-06         0.21529E-05         0.00000E+00
    0.25518E-06         0.17732E-05         0.00000E+00
    0.25659E-06         0.13865E-05         0.00000E+00
    0.25759E-06         0.99422E-06         0.00000E+00
    0.25823E-06         0.59806E-06         0.00000E+00
    0.25853E-06         0.19959E-06         0.00000E+00
    0.13425E-07         0.61975E-05         0.00000E+00
    0.39835E-07         0.61687E-05         0.00000E+00
    0.65196E-07         0.61124E-05         0.00000E+00
    0.89188E-07         0.60290E-05         0.00000E+00
    0.11156E-06         0.59191E-05         0.00000E+00
    0.13212E-06         0.57833E-05         0.00000E+00
    0.15079E-06         0.56226E-05         0.00000E+00
    0.16753E-06         0.54379E-05         0.00000E+00
    0.18239E-06         0.52302E-05         0.00000E+00
    0.19546E-06         0.50006E-05         0.00000E+00
    0.20686E-06         0.47503E-05         0.00000E+00
    0.21672E-06         0.44804E-05         0.00000E+00
    0.22521E-06         0.41922E-05         0.00000E+00
    0.23246E-06         0.38868E-05         0.00000E+00
    0.23861E-06         0.35657E-05         0.00000E+00
    0.24379E-06         0.32301E-05         0.00000E+00
    0.24812E-06         0.28814E-05         0.00000E+00
    0.25167E-06         0.25211E-05         0.00000E+00
    0.25456E-06         0.21506E-05         0.00000E+00
    0.25683E-06         0.17714E-05         0.00000E+00
    0.25857E-06         0.13851E-05         0.00000E+00
    0.25981E-06         0.99332E-06         0.00000E+00
    0.26060E-06         0.59754E-06         0.00000E+00
    0.26098E-06         0.19942E-06         0.00000E+00
    0.12817E-07         0.61713E-05         0.00000E+00
    0.38049E-07         0.61433E-05         0.00000E+00
    0.62338E-07         0.60882E-05         0.00000E+00
    0.85429E-07         0.60062E-05         0.00000E+00
    0.10711E-06         0.58978E-05         0.00000E+00
    0.12722E-06         0.57638E-05         0.00000E+00
    0.14567E-06         0.56049E-05         0.00000E+00
    0.16242E-06         0.54220E-05         0.00000E+00
    0.17748E-06         0.52161E-05         0.00000E+00
    0.19090E-06         0.49882E-05         0.00000E+00
    0.20277E-06         0.47395E-05         0.00000E+00
    0.21319E-06         0.44710E-05         0.00000E+00
    0.22227E-06         0.41841E-05         0.00000E+00
    0.23013E-06         0.38799E-05         0.00000E+00
    0.23689E-06         0.35597E-05         0.00000E+00
    0.24264E-06         0.32251E-05         0.00000E+00
    0.24749E-06         0.28772E-05         0.00000E+00
    0.25152E-06         0.25176E-05         0.00000E+00
    0.25482E-06         0.21478E-05         0.00000E+00
    0.25745E-06         0.17693E-05         0.00000E+00
    0.25946E-06         0.13835E-05         0.00000E+00
    0.26091E-06         0.99222E-06         0.00000E+00
    0.26185E-06         0.59691E-06         0.00000E+00
    0.26230E-06         0.19922E-06         0.00000E+00
    0.12301E-07         0.61462E-05         0.00000E+00
    0.36528E-07         0.61190E-05         0.00000E+00
    0.59895E-07         0.60649E-05         0.00000E+00
    0.82189E-07         0.59841E-05         0.00000E+00
    0.10324E-06         0.58772E-05         0.00000E+00
    0.12290E-06         0.57447E-05         0.00000E+00
    0.14108E-06         0.55874E-05         0.00000E+00
    0.15775E-06         0.54061E-05         0.00000E+00
    0.17288E-06         0.52018E-05         0.00000E+00
    0.18651E-06         0.49755E-05         0.00000E+00
    0.19870E-06         0.47282E-05         0.00000E+00
    0.20951E-06         0.44611E-05         0.00000E+00
    0.21904E-06         0.41754E-05         0.00000E+00
    0.22737E-06         0.38723E-05         0.00000E+00
    0.23460E-06         0.35533E-05         0.00000E+00
    0.24081E-06         0.32196E-05         0.00000E+00
    0.24609E-06         0.28726E-05         0.00000E+00
    0.25052E-06         0.25138E-05         0.00000E+00
    0.25416E-06         0.21447E-05         0.00000E+00
    0.25708E-06         0.17668E-05         0.00000E+00
    0.25934E-06         0.13817E-05         0.00000E+00
    0.26097E-06         0.99096E-06         0.00000E+00
    0.26203E-06         0.59618E-06         0.00000E+00
    0.26254E-06         0.19899E-06         0.00000E+00
    0.11850E-07         0.61220E-05         0.00000E+00
    0.35196E-07         0.60956E-05         0.00000E+00
    0.57743E-07         0.60424E-05         0.00000E+00
    0.79317E-07         0.59627E-05         0.00000E+00
    0.99768E-07         0.58571E-05         0.00000E+00
    0.11898E-06         0.57260E-05         0.00000E+00
    0.13686E-06         0.55701E-05         0.00000E+00
    0.15337E-06         0.53903E-05         0.00000E+00
    0.16848E-06         0.51874E-05         0.00000E+00
    0.18220E-06         0.49625E-05         0.00000E+00
    0.19458E-06         0.47166E-05         0.00000E+00
    0.20566E-06         0.44508E-05         0.00000E+00
    0.21550E-06         0.41663E-05         0.00000E+00
    0.22418E-06         0.38644E-05         0.00000E+00
    0.23176E-06         0.35464E-05         0.00000E+00
    0.23833E-06         0.32137E-05         0.00000E+00
    0.24396E-06         0.28676E-05         0.00000E+00
    0.24870E-06         0.25096E-05         0.00000E+00
    0.25263E-06         0.21413E-05         0.00000E+00
    0.25579E-06         0.17641E-05         0.00000E+00
    0.25824E-06         0.13797E-05         0.00000E+00
    0.26003E-06         0.98956E-06         0.00000E+00
    0.26119E-06         0.59536E-06         0.00000E+00
    0.26176E-06         0.19872E-06         0.00000E+00
    0.11443E-07         0.60987E-05         0.00000E+00
    0.33992E-07         0.60730E-05         0.00000E+00
    0.55792E-07         0.60206E-05         0.00000E+00
    0.76696E-07         0.59420E-05         0.00000E+00
    0.96577E-07         0.58375E-05         0.00000E+00
    0.11533E-06         0.57076E-05         0.00000E+00
    0.13288E-06         0.55530E-05         0.00000E+00
    0.14917E-06         0.53746E-05         0.00000E+00
    0.16418E-06         0.51730E-05         0.00000E+00
    0.17790E-06         0.49494E-05         0.00000E+00
    0.19036E-06         0.47048E-05         0.00000E+00
    0.20159E-06         0.44402E-05         0.00000E+00
    0.21164E-06         0.41569E-05         0.00000E+00
    0.22056E-06         0.38562E-05         0.00000E+00
    0.22840E-06         0.35392E-05         0.00000E+00
    0.23524E-06         0.32074E-05         0.00000E+00
    0.24112E-06         0.28623E-05         0.00000E+00
    0.24611E-06         0.25052E-05         0.00000E+00
    0.25026E-06         0.21377E-05         0.00000E+00
    0.25362E-06         0.17612E-05         0.00000E+00
    0.25623E-06         0.13775E-05         0.00000E+00
    0.25814E-06         0.98805E-06         0.00000E+00
    0.25939E-06         0.59448E-06         0.00000E+00
    0.26000E-06         0.19844E-06         0.00000E+00
    0.11066E-07         0.60762E-05         0.00000E+00
    0.32874E-07         0.60511E-05         0.00000E+00
    0.53974E-07         0.59996E-05         0.00000E+00
    0.74240E-07         0.59219E-05         0.00000E+00
    0.93563E-07         0.58184E-05         0.00000E+00
    0.11185E-06         0.56896E-05         0.00000E+00
    0.12903E-06         0.55363E-05         0.00000E+00
    0.14506E-06         0.53590E-05         0.00000E+00
    0.15990E-06         0.51587E-05         0.00000E+00
    0.17354E-06         0.49364E-05         0.00000E+00
    0.18600E-06         0.46930E-05         0.00000E+00
    0.19729E-06         0.44296E-05         0.00000E+00
    0.20744E-06         0.41474E-05         0.00000E+00
    0.21651E-06         0.38477E-05         0.00000E+00
    0.22453E-06         0.35318E-05         0.00000E+00
    0.23154E-06         0.32010E-05         0.00000E+00
    0.23761E-06         0.28568E-05         0.00000E+00
    0.24278E-06         0.25006E-05         0.00000E+00
    0.24710E-06         0.21338E-05         0.00000E+00
    0.25061E-06         0.17582E-05         0.00000E+00
    0.25334E-06         0.13752E-05         0.00000E+00
    0.25535E-06         0.98644E-06         0.00000E+00
    0.25666E-06         0.59353E-06         0.00000E+00
    0.25730E-06         0.19813E-06         0.00000E+00
    0.10706E-07         0.60544E-05         0.00000E+00
    0.31808E-07         0.60300E-05         0.00000E+00
    0.52235E-07         0.59792E-05         0.00000E+00
    0.71881E-07         0.59024E-05         0.00000E+00
    0.90649E-07         0.57998E-05         0.00000E+00
    0.10846E-06         0.56721E-05         0.00000E+00
    0.12525E-06         0.55198E-05         0.00000E+00
    0.14096E-06         0.53437E-05         0.00000E+00
    0.15557E-06         0.51446E-05         0.00000E+00
    0.16907E-06         0.49234E-05         0.00000E+00
    0.18144E-06         0.46811E-05         0.00000E+00
    0.19271E-06         0.44189E-05         0.00000E+00
    0.20290E-06         0.41378E-05         0.00000E+00
    0.21203E-06         0.38392E-05         0.00000E+00
    0.22014E-06         0.35242E-05         0.00000E+00
    0.22727E-06         0.31944E-05         0.00000E+00
    0.23346E-06         0.28511E-05         0.00000E+00
    0.23875E-06         0.24958E-05         0.00000E+00
    0.24318E-06         0.21299E-05         0.00000E+00
    0.24679E-06         0.17550E-05         0.00000E+00
    0.24962E-06         0.13728E-05         0.00000E+00
    0.25170E-06         0.98475E-06         0.00000E+00
    0.25306E-06         0.59255E-06         0.00000E+00
    0.25372E-06         0.19781E-06         0.00000E+00
    0.10356E-07         0.60334E-05         0.00000E+00
    0.30769E-07         0.60095E-05         0.00000E+00
    0.50536E-07         0.59595E-05         0.00000E+00
    0.69566E-07         0.58834E-05         0.00000E+00
    0.87776E-07         0.57818E-05         0.00000E+00
    0.10509E-06         0.56550E-05         0.00000E+00
    0.12146E-06         0.55038E-05         0.00000E+00
    0.13682E-06         0.53287E-05         0.00000E+00
    0.15115E-06         0.51307E-05         0.00000E+00
    0.16444E-06         0.49105E-05         0.00000E+00
    0.17666E-06         0.46694E-05         0.00000E+00
    0.18784E-06         0.44082E-05         0.00000E+00
    0.19798E-06         0.41282E-05         0.00000E+00
    0.20711E-06         0.38305E-05         0.00000E+00
    0.21524E-06         0.35166E-05         0.00000E+00
    0.22242E-06         0.31877E-05         0.00000E+00
    0.22867E-06         0.28453E-05         0.00000E+00
    0.23403E-06         0.24909E-05         0.00000E+00
    0.23853E-06         0.21258E-05         0.00000E+00
    0.24221E-06         0.17518E-05         0.00000E+00
    0.24510E-06         0.13703E-05         0.00000E+00
    0.24722E-06         0.98302E-06         0.00000E+00
    0.24861E-06         0.59153E-06         0.00000E+00
    0.24930E-06         0.19748E-06         0.00000E+00
    0.10008E-07         0.60130E-05         0.00000E+00
    0.29736E-07         0.59898E-05         0.00000E+00
    0.48846E-07         0.59404E-05         0.00000E+00
    0.67258E-07         0.58651E-05         0.00000E+00
    0.84897E-07         0.57643E-05         0.00000E+00
    0.10170E-06         0.56384E-05         0.00000E+00
    0.11761E-06         0.54881E-05         0.00000E+00
    0.13259E-06         0.53140E-05         0.00000E+00
    0.14659E-06         0.51170E-05         0.00000E+00
    0.15961E-06         0.48979E-05         0.00000E+00
    0.17164E-06         0.46577E-05         0.00000E+00
    0.18266E-06         0.43976E-05         0.00000E+00
    0.19269E-06         0.41186E-05         0.00000E+00
    0.20175E-06         0.38219E-05         0.00000E+00
    0.20985E-06         0.35090E-05         0.00000E+00
    0.21701E-06         0.31810E-05         0.00000E+00
    0.22327E-06         0.28395E-05         0.00000E+00
    0.22865E-06         0.24859E-05         0.00000E+00
    0.23318E-06         0.21217E-05         0.00000E+00
    0.23689E-06         0.17485E-05         0.00000E+00
    0.23981E-06         0.13678E-05         0.00000E+00
    0.24196E-06         0.98126E-06         0.00000E+00
    0.24337E-06         0.59049E-06         0.00000E+00
    0.24406E-06         0.19714E-06         0.00000E+00
    0.96581E-08         0.59933E-05         0.00000E+00
    0.28696E-07         0.59707E-05         0.00000E+00
    0.47142E-07         0.59219E-05         0.00000E+00
    0.64924E-07         0.58473E-05         0.00000E+00
    0.81978E-07         0.57473E-05         0.00000E+00
    0.98244E-07         0.56223E-05         0.00000E+00
    0.11367E-06         0.54729E-05         0.00000E+00
    0.12822E-06         0.52997E-05         0.00000E+00
    0.14186E-06         0.51036E-05         0.00000E+00
    0.15457E-06         0.48855E-05         0.00000E+00
    0.16634E-06         0.46463E-05         0.00000E+00
    0.17715E-06         0.43871E-05         0.00000E+00
    0.18702E-06         0.41091E-05         0.00000E+00
    0.19595E-06         0.38134E-05         0.00000E+00
    0.20396E-06         0.35014E-05         0.00000E+00
    0.21106E-06         0.31744E-05         0.00000E+00
    0.21728E-06         0.28337E-05         0.00000E+00
    0.22264E-06         0.24810E-05         0.00000E+00
    0.22716E-06         0.21176E-05         0.00000E+00
    0.23086E-06         0.17452E-05         0.00000E+00
    0.23378E-06         0.13653E-05         0.00000E+00
    0.23594E-06         0.97948E-06         0.00000E+00
    0.23736E-06         0.58944E-06         0.00000E+00
    0.23805E-06         0.19680E-06         0.00000E+00
    0.93019E-08         0.59744E-05         0.00000E+00
    0.27638E-07         0.59522E-05         0.00000E+00
    0.45406E-07         0.59041E-05         0.00000E+00
    0.62542E-07         0.58302E-05         0.00000E+00
    0.78990E-07         0.57309E-05         0.00000E+00
    0.94695E-07         0.56067E-05         0.00000E+00
    0.10961E-06         0.54581E-05         0.00000E+00
    0.12370E-06         0.52858E-05         0.00000E+00
    0.13693E-06         0.50907E-05         0.00000E+00
    0.14929E-06         0.48734E-05         0.00000E+00
    0.16075E-06         0.46352E-05         0.00000E+00
    0.17130E-06         0.43769E-05         0.00000E+00
    0.18096E-06         0.40998E-05         0.00000E+00
    0.18972E-06         0.38050E-05         0.00000E+00
    0.19758E-06         0.34939E-05         0.00000E+00
    0.20458E-06         0.31678E-05         0.00000E+00
    0.21071E-06         0.28280E-05         0.00000E+00
    0.21601E-06         0.24761E-05         0.00000E+00
    0.22048E-06         0.21135E-05         0.00000E+00
    0.22416E-06         0.17419E-05         0.00000E+00
    0.22706E-06         0.13628E-05         0.00000E+00
    0.22920E-06         0.97771E-06         0.00000E+00
    0.23061E-06         0.58839E-06         0.00000E+00
    0.23131E-06         0.19645E-06         0.00000E+00
    0.89366E-08         0.59561E-05         0.00000E+00
    0.26552E-07         0.59345E-05         0.00000E+00
    0.43624E-07         0.58870E-05         0.00000E+00
    0.60095E-07         0.58137E-05         0.00000E+00
    0.75913E-07         0.57152E-05         0.00000E+00
    0.91031E-07         0.55917E-05         0.00000E+00
    0.10541E-06         0.54439E-05         0.00000E+00
    0.11900E-06         0.52724E-05         0.00000E+00
    0.13179E-06         0.50781E-05         0.00000E+00
    0.14375E-06         0.48617E-05         0.00000E+00
    0.15486E-06         0.46243E-05         0.00000E+00
    0.16511E-06         0.43670E-05         0.00000E+00
    0.17451E-06         0.40907E-05         0.00000E+00
    0.18305E-06         0.37968E-05         0.00000E+00
    0.19073E-06         0.34866E-05         0.00000E+00
    0.19757E-06         0.31613E-05         0.00000E+00
    0.20359E-06         0.28223E-05         0.00000E+00
    0.20878E-06         0.24713E-05         0.00000E+00
    0.21318E-06         0.21095E-05         0.00000E+00
    0.21680E-06         0.17386E-05         0.00000E+00
    0.21966E-06         0.13603E-05         0.00000E+00
    0.22178E-06         0.97595E-06         0.00000E+00
    0.22317E-06         0.58735E-06         0.00000E+00
    0.22385E-06         0.19611E-06         0.00000E+00
    0.85601E-08         0.59387E-05         0.00000E+00
    0.25433E-07         0.59175E-05         0.00000E+00
    0.41786E-07         0.58706E-05         0.00000E+00
    0.57569E-07         0.57979E-05         0.00000E+00
    0.72734E-07         0.57000E-05         0.00000E+00
    0.87237E-07         0.55772E-05         0.00000E+00
    0.10104E-06         0.54301E-05         0.00000E+00
    0.11411E-06         0.52595E-05         0.00000E+00
    0.12642E-06         0.50659E-05         0.00000E+00
    0.13794E-06         0.48504E-05         0.00000E+00
    0.14866E-06         0.46138E-05         0.00000E+00
    0.15858E-06         0.43573E-05         0.00000E+00
    0.16767E-06         0.40819E-05         0.00000E+00
    0.17595E-06         0.37888E-05         0.00000E+00
    0.18341E-06         0.34794E-05         0.00000E+00
    0.19006E-06         0.31549E-05         0.00000E+00
    0.19592E-06         0.28168E-05         0.00000E+00
    0.20099E-06         0.24665E-05         0.00000E+00
    0.20528E-06         0.21055E-05         0.00000E+00
    0.20882E-06         0.17354E-05         0.00000E+00
    0.21162E-06         0.13578E-05         0.00000E+00
    0.21369E-06         0.97421E-06         0.00000E+00
    0.21505E-06         0.58632E-06         0.00000E+00
    0.21573E-06         0.19578E-06         0.00000E+00
    0.81710E-08         0.59219E-05         0.00000E+00
    0.24277E-07         0.59013E-05         0.00000E+00
    0.39887E-07         0.58548E-05         0.00000E+00
    0.54956E-07         0.57828E-05         0.00000E+00
    0.69440E-07         0.56855E-05         0.00000E+00
    0.83301E-07         0.55634E-05         0.00000E+00
    0.96503E-07         0.54170E-05         0.00000E+00
    0.10901E-06         0.52470E-05         0.00000E+00
    0.12081E-06         0.50542E-05         0.00000E+00
    0.13186E-06         0.48395E-05         0.00000E+00
    0.14216E-06         0.46037E-05         0.00000E+00
    0.15169E-06         0.43480E-05         0.00000E+00
    0.16045E-06         0.40734E-05         0.00000E+00
    0.16843E-06         0.37811E-05         0.00000E+00
    0.17564E-06         0.34725E-05         0.00000E+00
    0.18207E-06         0.31488E-05         0.00000E+00
    0.18773E-06         0.28114E-05         0.00000E+00
    0.19265E-06         0.24619E-05         0.00000E+00
    0.19681E-06         0.21017E-05         0.00000E+00
    0.20025E-06         0.17323E-05         0.00000E+00
    0.20296E-06         0.13554E-05         0.00000E+00
    0.20498E-06         0.97252E-06         0.00000E+00
    0.20631E-06         0.58532E-06         0.00000E+00
    0.20696E-06         0.19545E-06         0.00000E+00
    0.77682E-08         0.59060E-05         0.00000E+00
    0.23080E-07         0.58858E-05         0.00000E+00
    0.37920E-07         0.58399E-05         0.00000E+00
    0.52249E-07         0.57684E-05         0.00000E+00
    0.66027E-07         0.56716E-05         0.00000E+00
    0.79217E-07         0.55501E-05         0.00000E+00
    0.91788E-07         0.54044E-05         0.00000E+00
    0.10371E-06         0.52352E-05         0.00000E+00
    0.11496E-06         0.50431E-05         0.00000E+00
    0.12551E-06         0.48290E-05         0.00000E+00
    0.13535E-06         0.45940E-05         0.00000E+00
    0.14447E-06         0.43390E-05         0.00000E+00
    0.15286E-06         0.40652E-05         0.00000E+00
    0.16051E-06         0.37737E-05         0.00000E+00
    0.16742E-06         0.34658E-05         0.00000E+00
    0.17360E-06         0.31428E-05         0.00000E+00
    0.17905E-06         0.28063E-05         0.00000E+00
    0.18378E-06         0.24575E-05         0.00000E+00
    0.18779E-06         0.20980E-05         0.00000E+00
    0.19110E-06         0.17293E-05         0.00000E+00
    0.19372E-06         0.13531E-05         0.00000E+00
    0.19567E-06         0.97089E-06         0.00000E+00
    0.19695E-06         0.58435E-06         0.00000E+00
    0.19759E-06         0.19513E-06         0.00000E+00
    0.73513E-08         0.58909E-05         0.00000E+00
    0.21841E-07         0.58711E-05         0.00000E+00
    0.35885E-07         0.58257E-05         0.00000E+00
    0.49446E-07         0.57547E-05         0.00000E+00
    0.62489E-07         0.56585E-05         0.00000E+00
    0.74981E-07         0.55376E-05         0.00000E+00
    0.86893E-07         0.53925E-05         0.00000E+00
    0.98195E-07         0.52239E-05         0.00000E+00
    0.10887E-06         0.50325E-05         0.00000E+00
    0.11889E-06         0.48191E-05         0.00000E+00
    0.12824E-06         0.45848E-05         0.00000E+00
    0.13691E-06         0.43305E-05         0.00000E+00
    0.14489E-06         0.40573E-05         0.00000E+00
    0.15218E-06         0.37666E-05         0.00000E+00
    0.15878E-06         0.34594E-05         0.00000E+00
    0.16468E-06         0.31372E-05         0.00000E+00
    0.16988E-06         0.28013E-05         0.00000E+00
    0.17440E-06         0.24532E-05         0.00000E+00
    0.17825E-06         0.20944E-05         0.00000E+00
    0.18142E-06         0.17264E-05         0.00000E+00
    0.18393E-06         0.13509E-05         0.00000E+00
    0.18580E-06         0.96931E-06         0.00000E+00
    0.18703E-06         0.58342E-06         0.00000E+00
    0.18763E-06         0.19483E-06         0.00000E+00
    0.69200E-08         0.58766E-05         0.00000E+00
    0.20559E-07         0.58573E-05         0.00000E+00
    0.33779E-07         0.58123E-05         0.00000E+00
    0.46545E-07         0.57418E-05         0.00000E+00
    0.58827E-07         0.56461E-05         0.00000E+00
    0.70593E-07         0.55257E-05         0.00000E+00
    0.81817E-07         0.53812E-05         0.00000E+00
    0.92473E-07         0.52132E-05         0.00000E+00
    0.10254E-06         0.50224E-05         0.00000E+00
    0.11200E-06         0.48097E-05         0.00000E+00
    0.12083E-06         0.45760E-05         0.00000E+00
    0.12903E-06         0.43224E-05         0.00000E+00
    0.13658E-06         0.40499E-05         0.00000E+00
    0.14348E-06         0.37598E-05         0.00000E+00
    0.14973E-06         0.34533E-05         0.00000E+00
    0.15532E-06         0.31318E-05         0.00000E+00
    0.16026E-06         0.27965E-05         0.00000E+00
    0.16456E-06         0.24491E-05         0.00000E+00
    0.16821E-06         0.20910E-05         0.00000E+00
    0.17122E-06         0.17236E-05         0.00000E+00
    0.17361E-06         0.13487E-05         0.00000E+00
    0.17539E-06         0.96780E-06         0.00000E+00
    0.17656E-06         0.58252E-06         0.00000E+00
    0.17714E-06         0.19453E-06         0.00000E+00
    0.64744E-08         0.58632E-05         0.00000E+00
    0.19235E-07         0.58443E-05         0.00000E+00
    0.31603E-07         0.57997E-05         0.00000E+00
    0.43548E-07         0.57296E-05         0.00000E+00
    0.55041E-07         0.56345E-05         0.00000E+00
    0.66055E-07         0.55146E-05         0.00000E+00
    0.76565E-07         0.53706E-05         0.00000E+00
    0.86546E-07         0.52031E-05         0.00000E+00
    0.95980E-07         0.50129E-05         0.00000E+00
    0.10485E-06         0.48008E-05         0.00000E+00
    0.11314E-06         0.45677E-05         0.00000E+00
    0.12083E-06         0.43147E-05         0.00000E+00
    0.12793E-06         0.40429E-05         0.00000E+00
    0.13442E-06         0.37534E-05         0.00000E+00
    0.14029E-06         0.34476E-05         0.00000E+00
    0.14556E-06         0.31266E-05         0.00000E+00
    0.15021E-06         0.27921E-05         0.00000E+00
    0.15426E-06         0.24453E-05         0.00000E+00
    0.15770E-06         0.20877E-05         0.00000E+00
    0.16054E-06         0.17210E-05         0.00000E+00
    0.16280E-06         0.13467E-05         0.00000E+00
    0.16448E-06         0.96637E-06         0.00000E+00
    0.16558E-06         0.58168E-06         0.00000E+00
    0.16613E-06         0.19426E-06         0.00000E+00
    0.60148E-08         0.58507E-05         0.00000E+00
    0.17869E-07         0.58321E-05         0.00000E+00
    0.29358E-07         0.57879E-05         0.00000E+00
    0.40456E-07         0.57183E-05         0.00000E+00
    0.51135E-07         0.56236E-05         0.00000E+00
    0.61371E-07         0.55042E-05         0.00000E+00
    0.71141E-07         0.53607E-05         0.00000E+00
    0.80423E-07         0.51938E-05         0.00000E+00
    0.89199E-07         0.50041E-05         0.00000E+00
    0.97453E-07         0.47925E-05         0.00000E+00
    0.10517E-06         0.45600E-05         0.00000E+00
    0.11234E-06         0.43076E-05         0.00000E+00
    0.11896E-06         0.40363E-05         0.00000E+00
    0.12501E-06         0.37474E-05         0.00000E+00
    0.13049E-06         0.34422E-05         0.00000E+00
    0.13541E-06         0.31218E-05         0.00000E+00
    0.13975E-06         0.27878E-05         0.00000E+00
    0.14354E-06         0.24416E-05         0.00000E+00
    0.14675E-06         0.20847E-05         0.00000E+00
    0.14942E-06         0.17186E-05         0.00000E+00
    0.15153E-06         0.13448E-05         0.00000E+00
    0.15310E-06         0.96503E-06         0.00000E+00
    0.15413E-06         0.58088E-06         0.00000E+00
    0.15464E-06         0.19399E-06         0.00000E+00
    0.55416E-08         0.58391E-05         0.00000E+00
    0.16463E-07         0.58209E-05         0.00000E+00
    0.27048E-07         0.57771E-05         0.00000E+00
    0.37273E-07         0.57079E-05         0.00000E+00
    0.47113E-07         0.56135E-05         0.00000E+00
    0.56547E-07         0.54946E-05         0.00000E+00
    0.65553E-07         0.53516E-05         0.00000E+00
    0.74112E-07         0.51851E-05         0.00000E+00
    0.82207E-07         0.49959E-05         0.00000E+00
    0.89823E-07         0.47849E-05         0.00000E+00
    0.96948E-07         0.45529E-05         0.00000E+00
    0.10357E-06         0.43010E-05         0.00000E+00
    0.10968E-06         0.40302E-05         0.00000E+00
    0.11527E-06         0.37419E-05         0.00000E+00
    0.12035E-06         0.34372E-05         0.00000E+00
    0.12489E-06         0.31174E-05         0.00000E+00
    0.12892E-06         0.27839E-05         0.00000E+00
    0.13242E-06         0.24383E-05         0.00000E+00
    0.13540E-06         0.20819E-05         0.00000E+00
    0.13787E-06         0.17163E-05         0.00000E+00
    0.13983E-06         0.13430E-05         0.00000E+00
    0.14128E-06         0.96378E-06         0.00000E+00
    0.14224E-06         0.58014E-06         0.00000E+00
    0.14272E-06         0.19375E-06         0.00000E+00
    0.50557E-08         0.58286E-05         0.00000E+00
    0.15019E-07         0.58106E-05         0.00000E+00
    0.24676E-07         0.57671E-05         0.00000E+00
    0.34004E-07         0.56983E-05         0.00000E+00
    0.42982E-07         0.56043E-05         0.00000E+00
    0.51590E-07         0.54858E-05         0.00000E+00
    0.59810E-07         0.53432E-05         0.00000E+00
    0.67623E-07         0.51771E-05         0.00000E+00
    0.75016E-07         0.49884E-05         0.00000E+00
    0.81973E-07         0.47778E-05         0.00000E+00
    0.88483E-07         0.45463E-05         0.00000E+00
    0.94535E-07         0.42949E-05         0.00000E+00
    0.10012E-06         0.40246E-05         0.00000E+00
    0.10524E-06         0.37368E-05         0.00000E+00
    0.10988E-06         0.34326E-05         0.00000E+00
    0.11405E-06         0.31133E-05         0.00000E+00
    0.11773E-06         0.27803E-05         0.00000E+00
    0.12094E-06         0.24352E-05         0.00000E+00
    0.12367E-06         0.20792E-05         0.00000E+00
    0.12593E-06         0.17141E-05         0.00000E+00
    0.12773E-06         0.13414E-05         0.00000E+00
    0.12906E-06         0.96262E-06         0.00000E+00
    0.12995E-06         0.57945E-06         0.00000E+00
    0.13038E-06         0.19352E-06         0.00000E+00
    0.45577E-08         0.58189E-05         0.00000E+00
    0.13540E-07         0.58013E-05         0.00000E+00
    0.22245E-07         0.57581E-05         0.00000E+00
    0.30654E-07         0.56895E-05         0.00000E+00
    0.38748E-07         0.55960E-05         0.00000E+00
    0.46510E-07         0.54778E-05         0.00000E+00
    0.53923E-07         0.53355E-05         0.00000E+00
    0.60970E-07         0.51699E-05         0.00000E+00
    0.67640E-07         0.49816E-05         0.00000E+00
    0.73918E-07         0.47714E-05         0.00000E+00
    0.79794E-07         0.45403E-05         0.00000E+00
    0.85260E-07         0.42893E-05         0.00000E+00
    0.90307E-07         0.40195E-05         0.00000E+00
    0.94930E-07         0.37321E-05         0.00000E+00
    0.99126E-07         0.34284E-05         0.00000E+00
    0.10289E-06         0.31095E-05         0.00000E+00
    0.10622E-06         0.27771E-05         0.00000E+00
    0.10913E-06         0.24323E-05         0.00000E+00
    0.11160E-06         0.20769E-05         0.00000E+00
    0.11365E-06         0.17122E-05         0.00000E+00
    0.11527E-06         0.13399E-05         0.00000E+00
    0.11648E-06         0.96157E-06         0.00000E+00
    0.11728E-06         0.57883E-06         0.00000E+00
    0.11767E-06         0.19332E-06         0.00000E+00
    0.40487E-08         0.58103E-05         0.00000E+00
    0.12028E-07         0.57930E-05         0.00000E+00
    0.19760E-07         0.57500E-05         0.00000E+00
    0.27230E-07         0.56818E-05         0.00000E+00
    0.34421E-07         0.55885E-05         0.00000E+00
    0.41317E-07         0.54706E-05         0.00000E+00
    0.47903E-07         0.53287E-05         0.00000E+00
    0.54167E-07         0.51634E-05         0.00000E+00
    0.60095E-07         0.49754E-05         0.00000E+00
    0.65677E-07         0.47656E-05         0.00000E+00
    0.70902E-07         0.45349E-05         0.00000E+00
    0.75764E-07         0.42844E-05         0.00000E+00
    0.80255E-07         0.40150E-05         0.00000E+00
    0.84369E-07         0.37280E-05         0.00000E+00
    0.88104E-07         0.34246E-05         0.00000E+00
    0.91456E-07         0.31062E-05         0.00000E+00
    0.94426E-07         0.27741E-05         0.00000E+00
    0.97011E-07         0.24298E-05         0.00000E+00
    0.99215E-07         0.20747E-05         0.00000E+00
    0.10104E-06         0.17105E-05         0.00000E+00
    0.10249E-06         0.13386E-05         0.00000E+00
    0.10357E-06         0.96062E-06         0.00000E+00
    0.10428E-06         0.57826E-06         0.00000E+00
    0.10463E-06         0.19313E-06         0.00000E+00
    0.35298E-08         0.58028E-05         0.00000E+00
    0.10486E-07         0.57856E-05         0.00000E+00
    0.17227E-07         0.57429E-05         0.00000E+00
    0.23740E-07         0.56749E-05         0.00000E+00
    0.30009E-07         0.55819E-05         0.00000E+00
    0.36022E-07         0.54643E-05         0.00000E+00
    0.41765E-07         0.53227E-05         0.00000E+00
    0.47228E-07         0.51577E-05         0.00000E+00
    0.52398E-07         0.49701E-05         0.00000E+00
    0.57268E-07         0.47606E-05         0.00000E+00
    0.61828E-07         0.45302E-05         0.00000E+00
    0.66071E-07         0.42800E-05         0.00000E+00
    0.69991E-07         0.40109E-05         0.00000E+00
    0.73584E-07         0.37243E-05         0.00000E+00
    0.76845E-07         0.34213E-05         0.00000E+00
    0.79774E-07         0.31032E-05         0.00000E+00
    0.82368E-07         0.27715E-05         0.00000E+00
    0.84628E-07         0.24275E-05         0.00000E+00
    0.86554E-07         0.20728E-05         0.00000E+00
    0.88150E-07         0.17089E-05         0.00000E+00
    0.89417E-07         0.13374E-05         0.00000E+00
    0.90359E-07         0.95978E-06         0.00000E+00
    0.90981E-07         0.57777E-06         0.00000E+00
    0.91289E-07         0.19297E-06         0.00000E+00
    0.30021E-08         0.57962E-05         0.00000E+00
    0.89180E-08         0.57793E-05         0.00000E+00
    0.14652E-07         0.57368E-05         0.00000E+00
    0.20190E-07         0.56690E-05         0.00000E+00
    0.25522E-07         0.55762E-05         0.00000E+00
    0.30636E-07         0.54589E-05         0.00000E+00
    0.35522E-07         0.53175E-05         0.00000E+00
    0.40169E-07         0.51528E-05         0.00000E+00
    0.44568E-07         0.49654E-05         0.00000E+00
    0.48712E-07         0.47562E-05         0.00000E+00
    0.52593E-07         0.45261E-05         0.00000E+00
    0.56205E-07         0.42762E-05         0.00000E+00
    0.59542E-07         0.40075E-05         0.00000E+00
    0.62601E-07         0.37211E-05         0.00000E+00
    0.65379E-07         0.34184E-05         0.00000E+00
    0.67874E-07         0.31007E-05         0.00000E+00
    0.70084E-07         0.27693E-05         0.00000E+00
    0.72010E-07         0.24256E-05         0.00000E+00
    0.73652E-07         0.20712E-05         0.00000E+00
    0.75012E-07         0.17076E-05         0.00000E+00
    0.76092E-07         0.13364E-05         0.00000E+00
    0.76895E-07         0.95906E-06         0.00000E+00
    0.77426E-07         0.57734E-06         0.00000E+00
    0.77689E-07         0.19283E-06         0.00000E+00
    0.24668E-08         0.57908E-05         0.00000E+00
    0.73278E-08         0.57740E-05         0.00000E+00
    0.12039E-07         0.57316E-05         0.00000E+00
    0.16590E-07         0.56640E-05         0.00000E+00
    0.20971E-07         0.55714E-05         0.00000E+00
    0.25174E-07         0.54543E-05         0.00000E+00
    0.29189E-07         0.53132E-05         0.00000E+00
    0.33008E-07         0.51487E-05         0.00000E+00
    0.36624E-07         0.49615E-05         0.00000E+00
    0.40030E-07         0.47526E-05         0.00000E+00
    0.43221E-07         0.45227E-05         0.00000E+00
    0.46190E-07         0.42730E-05         0.00000E+00
    0.48935E-07         0.40045E-05         0.00000E+00
    0.51451E-07         0.37185E-05         0.00000E+00
    0.53736E-07         0.34160E-05         0.00000E+00
    0.55789E-07         0.30985E-05         0.00000E+00
    0.57608E-07         0.27674E-05         0.00000E+00
    0.59192E-07         0.24240E-05         0.00000E+00
    0.60544E-07         0.20698E-05         0.00000E+00
    0.61663E-07         0.17065E-05         0.00000E+00
    0.62552E-07         0.13355E-05         0.00000E+00
    0.63214E-07         0.95845E-06         0.00000E+00
    0.63651E-07         0.57698E-06         0.00000E+00
    0.63867E-07         0.19271E-06         0.00000E+00
    0.19252E-08         0.57864E-05         0.00000E+00
    0.57190E-08         0.57697E-05         0.00000E+00
    0.93956E-08         0.57275E-05         0.00000E+00
    0.12947E-07         0.56600E-05         0.00000E+00
    0.16367E-07         0.55676E-05         0.00000E+00
    0.19647E-07         0.54506E-05         0.00000E+00
    0.22781E-07         0.53097E-05         0.00000E+00
    0.25762E-07         0.51453E-05         0.00000E+00
    0.28585E-07         0.49584E-05         0.00000E+00
    0.31244E-07         0.47496E-05         0.00000E+00
    0.33735E-07         0.45200E-05         0.00000E+00
    0.36054E-07         0.42705E-05         0.00000E+00
    0.38197E-07         0.40022E-05         0.00000E+00
    0.40163E-07         0.37163E-05         0.00000E+00
    0.41948E-07         0.34141E-05         0.00000E+00
    0.43551E-07         0.30968E-05         0.00000E+00
    0.44972E-07         0.27659E-05         0.00000E+00
    0.46210E-07         0.24227E-05         0.00000E+00
    0.47266E-07         0.20687E-05         0.00000E+00
    0.48141E-07         0.17056E-05         0.00000E+00
    0.48836E-07         0.13348E-05         0.00000E+00
    0.49353E-07         0.95796E-06         0.00000E+00
    0.49694E-07         0.57669E-06         0.00000E+00
    0.49863E-07         0.19262E-06         0.00000E+00
    0.13787E-08         0.57831E-05         0.00000E+00
    0.40955E-08         0.57665E-05         0.00000E+00
    0.67285E-08         0.57244E-05         0.00000E+00
    0.92720E-08         0.56570E-05         0.00000E+00
    0.11721E-07         0.55647E-05         0.00000E+00
    0.14070E-07         0.54479E-05         0.00000E+00
    0.16314E-07         0.53070E-05         0.00000E+00
    0.18449E-07         0.51429E-05         0.00000E+00
    0.20471E-07         0.49560E-05         0.00000E+00
    0.22376E-07         0.47474E-05         0.00000E+00
    0.24160E-07         0.45179E-05         0.00000E+00
    0.25822E-07         0.42686E-05         0.00000E+00
    0.27357E-07         0.40004E-05         0.00000E+00
    0.28765E-07         0.37147E-05         0.00000E+00
    0.30044E-07         0.34126E-05         0.00000E+00
    0.31193E-07         0.30955E-05         0.00000E+00
    0.32212E-07         0.27647E-05         0.00000E+00
    0.33099E-07         0.24217E-05         0.00000E+00
    0.33856E-07         0.20679E-05         0.00000E+00
    0.34483E-07         0.17049E-05         0.00000E+00
    0.34982E-07         0.13343E-05         0.00000E+00
    0.35352E-07         0.95759E-06         0.00000E+00
    0.35597E-07         0.57647E-06         0.00000E+00
    0.35718E-07         0.19255E-06         0.00000E+00
    0.82864E-09         0.57809E-05         0.00000E+00
    0.24615E-08         0.57643E-05         0.00000E+00
    0.40440E-08         0.57223E-05         0.00000E+00
    0.55728E-08         0.56550E-05         0.00000E+00
    0.70446E-08         0.55628E-05         0.00000E+00
    0.84564E-08         0.54460E-05         0.00000E+00
    0.98054E-08         0.53053E-05         0.00000E+00
    0.11089E-07         0.51412E-05         0.00000E+00
    0.12304E-07         0.49545E-05         0.00000E+00
    0.13449E-07         0.47459E-05         0.00000E+00
    0.14522E-07         0.45165E-05         0.00000E+00
    0.15521E-07         0.42673E-05         0.00000E+00
    0.16444E-07         0.39993E-05         0.00000E+00
    0.17290E-07         0.37136E-05         0.00000E+00
    0.18060E-07         0.34117E-05         0.00000E+00
    0.18750E-07         0.30946E-05         0.00000E+00
    0.19363E-07         0.27639E-05         0.00000E+00
    0.19897E-07         0.24210E-05         0.00000E+00
    0.20352E-07         0.20674E-05         0.00000E+00
    0.20729E-07         0.17045E-05         0.00000E+00
    0.21029E-07         0.13339E-05         0.00000E+00
    0.21252E-07         0.95735E-06         0.00000E+00
    0.21399E-07         0.57632E-06         0.00000E+00
    0.21472E-07         0.19250E-06         0.00000E+00
    0.27645E-09         0.57797E-05         0.00000E+00
    0.82122E-09         0.57633E-05         0.00000E+00
    0.13492E-08         0.57213E-05         0.00000E+00
    0.18592E-08         0.56540E-05         0.00000E+00
    0.23502E-08         0.55618E-05         0.00000E+00
    0.28212E-08         0.54451E-05         0.00000E+00
    0.32713E-08         0.53044E-05         0.00000E+00
    0.36995E-08         0.51404E-05         0.00000E+00
    0.41050E-08         0.49537E-05         0.00000E+00
    0.44870E-08         0.47452E-05         0.00000E+00
    0.48449E-08         0.45159E-05         0.00000E+00
    0.51781E-08         0.42666E-05         0.00000E+00
    0.54862E-08         0.39987E-05         0.00000E+00
    0.57687E-08         0.37131E-05         0.00000E+00
    0.60253E-08         0.34112E-05         0.00000E+00
    0.62559E-08         0.30942E-05         0.00000E+00
    0.64602E-08         0.27636E-05         0.00000E+00
    0.66383E-08         0.24207E-05         0.00000E+00
    0.67903E-08         0.20671E-05         0.00000E+00
    0.69161E-08         0.17043E-05         0.00000E+00
    0.70161E-08         0.13338E-05         0.00000E+00
    0.70905E-08         0.95723E-06         0.00000E+00
    0.71397E-08         0.57625E-06         0.00000E+00
    0.71640E-08         0.19247E-06         0.00000E+00
POINT_DATA       1225
VECTORS vDarcyNodal double 
    0.11934E-05         0.10049E-05         0.00000E+00
    0.99779E-06         0.19045E-05         0.00000E+00
    0.67655E-06         0.34226E-05         0.00000E+00
    0.35806E-06         0.43915E-05         0.00000E+00
    0.21241E-06         0.49025E-05         0.00000E+00
    0.13410E-06         0.51250E-05         0.00000E+00
    0.90247E-07         0.51885E-05         0.00000E+00
    0.64131E-07         0.51531E-05         0.00000E+00
    0.47811E-07         0.50502E-05         0.00000E+00
    0.37181E-07         0.48975E-05         0.00000E+00
    0.30014E-07         0.47057E-05         0.00000E+00
    0.25041E-07         0.44817E-05         0.00000E+00
    0.21505E-07         0.42301E-05         0.00000E+00
    0.18939E-07         0.39547E-05         0.00000E+00
    0.17046E-07         0.36582E-05         0.00000E+00
    0.15631E-07         0.33431E-05         0.00000E+00
    0.14561E-07         0.30117E-05         0.00000E+00
    0.13748E-07         0.26658E-05         0.00000E+00
    0.13128E-07         0.23075E-05         0.00000E+00
    0.12656E-07         0.19387E-05         0.00000E+00
    0.12304E-07         0.15611E-05         0.00000E+00
    0.12047E-07         0.11766E-05         0.00000E+00
    0.11872E-07         0.78701E-06         0.00000E+00
    0.11770E-07         0.39420E-06         0.00000E+00
    0.11736E-07         0.19722E-06         0.00000E+00
    0.25177E-05         0.12005E-05         0.00000E+00
    0.22181E-05         0.21629E-05         0.00000E+00
    0.11786E-05         0.37425E-05         0.00000E+00
    0.65808E-06         0.46236E-05         0.00000E+00
    0.39482E-06         0.50145E-05         0.00000E+00
    0.25333E-06         0.51861E-05         0.00000E+00
    0.17249E-06         0.52235E-05         0.00000E+00
    0.12372E-06         0.51743E-05         0.00000E+00
    0.92900E-07         0.50636E-05         0.00000E+00
    0.72658E-07         0.49064E-05         0.00000E+00
    0.58918E-07         0.47118E-05         0.00000E+00
    0.49331E-07         0.44859E-05         0.00000E+00
    0.42484E-07         0.42332E-05         0.00000E+00
    0.37500E-07         0.39569E-05         0.00000E+00
    0.33812E-07         0.36599E-05         0.00000E+00
    0.31047E-07         0.33444E-05         0.00000E+00
    0.28955E-07         0.30126E-05         0.00000E+00
    0.27361E-07         0.26666E-05         0.00000E+00
    0.26144E-07         0.23081E-05         0.00000E+00
    0.25218E-07         0.19391E-05         0.00000E+00
    0.24524E-07         0.15614E-05         0.00000E+00
    0.24020E-07         0.11768E-05         0.00000E+00
    0.23676E-07         0.78715E-06         0.00000E+00
    0.23475E-07         0.39427E-06         0.00000E+00
    0.23408E-07         0.19725E-06         0.00000E+00
    0.85803E-05         0.16042E-05         0.00000E+00
    0.35373E-05         0.32437E-05         0.00000E+00
    0.18925E-05         0.49827E-05         0.00000E+00
    0.11011E-05         0.51753E-05         0.00000E+00
    0.68568E-06         0.53073E-05         0.00000E+00
    0.45327E-06         0.53473E-05         0.00000E+00
    0.31583E-06         0.53182E-05         0.00000E+00
    0.23063E-06         0.52326E-05         0.00000E+00
    0.17562E-06         0.51012E-05         0.00000E+00
    0.13888E-06         0.49315E-05         0.00000E+00
    0.11361E-06         0.47291E-05         0.00000E+00
    0.95782E-07         0.44981E-05         0.00000E+00
    0.82945E-07         0.42420E-05         0.00000E+00
    0.73534E-07         0.39634E-05         0.00000E+00
    0.66532E-07         0.36647E-05         0.00000E+00
    0.61259E-07         0.33480E-05         0.00000E+00
    0.57253E-07         0.30154E-05         0.00000E+00
    0.54192E-07         0.26686E-05         0.00000E+00
    0.51848E-07         0.23097E-05         0.00000E+00
    0.50063E-07         0.19403E-05         0.00000E+00
    0.48722E-07         0.15623E-05         0.00000E+00
    0.47745E-07         0.11774E-05         0.00000E+00
    0.47079E-07         0.78755E-06         0.00000E+00
    0.46689E-07         0.39447E-06         0.00000E+00
    0.46559E-07         0.19735E-06         0.00000E+00
    0.66592E-05         0.11287E-04         0.00000E+00
    0.32506E-05         0.88507E-05         0.00000E+00
    0.19344E-05         0.61787E-05         0.00000E+00
    0.12275E-05         0.58304E-05         0.00000E+00
    0.81715E-06         0.56623E-05         0.00000E+00
    0.56779E-06         0.55559E-05         0.00000E+00
    0.41085E-06         0.54462E-05         0.00000E+00
    0.30883E-06         0.53145E-05         0.00000E+00
    0.24054E-06         0.51554E-05         0.00000E+00
    0.19362E-06         0.49684E-05         0.00000E+00
    0.16062E-06         0.47549E-05         0.00000E+00
    0.13694E-06         0.45166E-05         0.00000E+00
    0.11964E-06         0.42554E-05         0.00000E+00
    0.10682E-06         0.39733E-05         0.00000E+00
    0.97185E-07         0.36721E-05         0.00000E+00
    0.89878E-07         0.33537E-05         0.00000E+00
    0.84291E-07         0.30197E-05         0.00000E+00
    0.80000E-07         0.26720E-05         0.00000E+00
    0.76702E-07         0.23122E-05         0.00000E+00
    0.74181E-07         0.19422E-05         0.00000E+00
    0.72281E-07         0.15637E-05         0.00000E+00
    0.70894E-07         0.11784E-05         0.00000E+00
    0.69947E-07         0.78820E-06         0.00000E+00
    0.69392E-07         0.39479E-06         0.00000E+00
    0.69207E-07         0.19751E-06         0.00000E+00
    0.00000E+00         0.84215E-05         0.00000E+00
    0.18650E-05         0.79685E-05         0.00000E+00
    0.14752E-05         0.70058E-05         0.00000E+00
    0.10911E-05         0.62926E-05         0.00000E+00
    0.80033E-06         0.59670E-05         0.00000E+00
    0.59556E-06         0.57536E-05         0.00000E+00
    0.45329E-06         0.55771E-05         0.00000E+00
    0.35409E-06         0.54030E-05         0.00000E+00
    0.28413E-06         0.52164E-05         0.00000E+00
    0.23412E-06         0.50114E-05         0.00000E+00
    0.19785E-06         0.47857E-05         0.00000E+00
    0.17119E-06         0.45391E-05         0.00000E+00
    0.15133E-06         0.42721E-05         0.00000E+00
    0.13638E-06         0.39858E-05         0.00000E+00
    0.12500E-06         0.36816E-05         0.00000E+00
    0.11629E-06         0.33609E-05         0.00000E+00
    0.10956E-06         0.30252E-05         0.00000E+00
    0.10436E-06         0.26762E-05         0.00000E+00
    0.10034E-06         0.23155E-05         0.00000E+00
    0.97255E-07         0.19447E-05         0.00000E+00
    0.94919E-07         0.15656E-05         0.00000E+00
    0.93209E-07         0.11798E-05         0.00000E+00
    0.92037E-07         0.78906E-06         0.00000E+00
    0.91350E-07         0.39521E-06         0.00000E+00
    0.91120E-07         0.19772E-06         0.00000E+00
    0.00000E+00         0.75566E-05         0.00000E+00
    0.64383E-06         0.73756E-05         0.00000E+00
    0.92475E-06         0.69526E-05         0.00000E+00
    0.83670E-06         0.65052E-05         0.00000E+00
    0.69265E-06         0.61579E-05         0.00000E+00
    0.55942E-06         0.59029E-05         0.00000E+00
    0.45200E-06         0.56876E-05         0.00000E+00
    0.36943E-06         0.54836E-05         0.00000E+00
    0.30704E-06         0.52754E-05         0.00000E+00
    0.26010E-06         0.50547E-05         0.00000E+00
    0.22470E-06         0.48178E-05         0.00000E+00
    0.19785E-06         0.45631E-05         0.00000E+00
    0.17737E-06         0.42902E-05         0.00000E+00
    0.16164E-06         0.39997E-05         0.00000E+00
    0.14949E-06         0.36922E-05         0.00000E+00
    0.14005E-06         0.33691E-05         0.00000E+00
    0.13269E-06         0.30316E-05         0.00000E+00
    0.12695E-06         0.26812E-05         0.00000E+00
    0.12248E-06         0.23193E-05         0.00000E+00
    0.11902E-06         0.19476E-05         0.00000E+00
    0.11639E-06         0.15677E-05         0.00000E+00
    0.11446E-06         0.11813E-05         0.00000E+00
    0.11314E-06         0.79006E-06         0.00000E+00
    0.11235E-06         0.39571E-06         0.00000E+00
    0.11209E-06         0.19797E-06         0.00000E+00
    0.12672E-19         0.71339E-05         0.00000E+00
    0.33295E-06         0.70437E-05         0.00000E+00
    0.53965E-06         0.68129E-05         0.00000E+00
    0.59648E-06         0.65247E-05         0.00000E+00
    0.55782E-06         0.62443E-05         0.00000E+00
    0.49080E-06         0.59942E-05         0.00000E+00
    0.42248E-06         0.57671E-05         0.00000E+00
    0.36249E-06         0.55479E-05         0.00000E+00
    0.31298E-06         0.53258E-05         0.00000E+00
    0.27327E-06         0.50938E-05         0.00000E+00
    0.24185E-06         0.48480E-05         0.00000E+00
    0.21713E-06         0.45864E-05         0.00000E+00
    0.19771E-06         0.43083E-05         0.00000E+00
    0.18244E-06         0.40137E-05         0.00000E+00
    0.17041E-06         0.37032E-05         0.00000E+00
    0.16093E-06         0.33777E-05         0.00000E+00
    0.15344E-06         0.30383E-05         0.00000E+00
    0.14753E-06         0.26864E-05         0.00000E+00
    0.14289E-06         0.23234E-05         0.00000E+00
    0.13927E-06         0.19508E-05         0.00000E+00
    0.13651E-06         0.15701E-05         0.00000E+00
    0.13447E-06         0.11830E-05         0.00000E+00
    0.13306E-06         0.79116E-06         0.00000E+00
    0.13223E-06         0.39625E-06         0.00000E+00
    0.13195E-06         0.19824E-06         0.00000E+00
    0.00000E+00         0.68907E-05         0.00000E+00
    0.20019E-06         0.68359E-05         0.00000E+00
    0.34847E-06         0.66891E-05         0.00000E+00
    0.42331E-06         0.64871E-05         0.00000E+00
    0.43710E-06         0.62636E-05         0.00000E+00
    0.41553E-06         0.60383E-05         0.00000E+00
    0.38006E-06         0.58159E-05         0.00000E+00
    0.34214E-06         0.55932E-05         0.00000E+00
    0.30697E-06         0.53646E-05         0.00000E+00
    0.27646E-06         0.51258E-05         0.00000E+00
    0.25088E-06         0.48740E-05         0.00000E+00
    0.22985E-06         0.46072E-05         0.00000E+00
    0.21275E-06         0.43249E-05         0.00000E+00
    0.19893E-06         0.40269E-05         0.00000E+00
    0.18780E-06         0.37137E-05         0.00000E+00
    0.17886E-06         0.33861E-05         0.00000E+00
    0.17170E-06         0.30450E-05         0.00000E+00
    0.16597E-06         0.26917E-05         0.00000E+00
    0.16143E-06         0.23276E-05         0.00000E+00
    0.15787E-06         0.19540E-05         0.00000E+00
    0.15512E-06         0.15725E-05         0.00000E+00
    0.15308E-06         0.11848E-05         0.00000E+00
    0.15167E-06         0.79230E-06         0.00000E+00
    0.15083E-06         0.39682E-06         0.00000E+00
    0.15055E-06         0.19853E-06         0.00000E+00
   -0.23922E-19         0.67335E-05         0.00000E+00
    0.13372E-06         0.66952E-05         0.00000E+00
    0.24230E-06         0.65898E-05         0.00000E+00
    0.31219E-06         0.64360E-05         0.00000E+00
    0.34414E-06         0.62520E-05         0.00000E+00
    0.34812E-06         0.60513E-05         0.00000E+00
    0.33574E-06         0.58405E-05         0.00000E+00
    0.31588E-06         0.56210E-05         0.00000E+00
    0.29394E-06         0.53914E-05         0.00000E+00
    0.27278E-06         0.51499E-05         0.00000E+00
    0.25372E-06         0.48946E-05         0.00000E+00
    0.23720E-06         0.46245E-05         0.00000E+00
    0.22320E-06         0.43392E-05         0.00000E+00
    0.21152E-06         0.40386E-05         0.00000E+00
    0.20186E-06         0.37233E-05         0.00000E+00
    0.19394E-06         0.33938E-05         0.00000E+00
    0.18749E-06         0.30512E-05         0.00000E+00
    0.18226E-06         0.26967E-05         0.00000E+00
    0.17805E-06         0.23315E-05         0.00000E+00
    0.17472E-06         0.19571E-05         0.00000E+00
    0.17213E-06         0.15749E-05         0.00000E+00
    0.17020E-06         0.11865E-05         0.00000E+00
    0.16884E-06         0.79342E-06         0.00000E+00
    0.16804E-06         0.39737E-06         0.00000E+00
    0.16777E-06         0.19881E-06         0.00000E+00
    0.19560E-34         0.66232E-05         0.00000E+00
    0.96367E-07         0.65936E-05         0.00000E+00
    0.17916E-06         0.65106E-05         0.00000E+00
    0.23989E-06         0.63852E-05         0.00000E+00
    0.27677E-06         0.62276E-05         0.00000E+00
    0.29334E-06         0.60467E-05         0.00000E+00
    0.29547E-06         0.58482E-05         0.00000E+00
    0.28883E-06         0.56350E-05         0.00000E+00
    0.27774E-06         0.54077E-05         0.00000E+00
    0.26501E-06         0.51661E-05         0.00000E+00
    0.25229E-06         0.49096E-05         0.00000E+00
    0.24046E-06         0.46378E-05         0.00000E+00
    0.22991E-06         0.43506E-05         0.00000E+00
    0.22075E-06         0.40483E-05         0.00000E+00
    0.21295E-06         0.37313E-05         0.00000E+00
    0.20638E-06         0.34005E-05         0.00000E+00
    0.20092E-06         0.30567E-05         0.00000E+00
    0.19641E-06         0.27012E-05         0.00000E+00
    0.19274E-06         0.23351E-05         0.00000E+00
    0.18980E-06         0.19599E-05         0.00000E+00
    0.18749E-06         0.15771E-05         0.00000E+00
    0.18575E-06         0.11880E-05         0.00000E+00
    0.18453E-06         0.79446E-06         0.00000E+00
    0.18379E-06         0.39789E-06         0.00000E+00
    0.18355E-06         0.19907E-06         0.00000E+00
    0.11619E-19         0.65408E-05         0.00000E+00
    0.73689E-07         0.65161E-05         0.00000E+00
    0.13937E-06         0.64463E-05         0.00000E+00
    0.19164E-06         0.63384E-05         0.00000E+00
    0.22844E-06         0.61986E-05         0.00000E+00
    0.25074E-06         0.60326E-05         0.00000E+00
    0.26141E-06         0.58450E-05         0.00000E+00
    0.26381E-06         0.56387E-05         0.00000E+00
    0.26099E-06         0.54153E-05         0.00000E+00
    0.25525E-06         0.51753E-05         0.00000E+00
    0.24819E-06         0.49191E-05         0.00000E+00
    0.24082E-06         0.46469E-05         0.00000E+00
    0.23372E-06         0.43589E-05         0.00000E+00
    0.22722E-06         0.40556E-05         0.00000E+00
    0.22145E-06         0.37376E-05         0.00000E+00
    0.21643E-06         0.34058E-05         0.00000E+00
    0.21215E-06         0.30612E-05         0.00000E+00
    0.20854E-06         0.27049E-05         0.00000E+00
    0.20556E-06         0.23381E-05         0.00000E+00
    0.20312E-06         0.19624E-05         0.00000E+00
    0.20119E-06         0.15789E-05         0.00000E+00
    0.19972E-06         0.11894E-05         0.00000E+00
    0.19867E-06         0.79537E-06         0.00000E+00
    0.19804E-06         0.39835E-06         0.00000E+00
    0.19783E-06         0.19930E-06         0.00000E+00
    0.00000E+00         0.64758E-05         0.00000E+00
    0.59113E-07         0.64542E-05         0.00000E+00
    0.11315E-06         0.63927E-05         0.00000E+00
    0.15855E-06         0.62962E-05         0.00000E+00
    0.19354E-06         0.61685E-05         0.00000E+00
    0.21813E-06         0.60137E-05         0.00000E+00
    0.23363E-06         0.58351E-05         0.00000E+00
    0.24197E-06         0.56354E-05         0.00000E+00
    0.24517E-06         0.54162E-05         0.00000E+00
    0.24494E-06         0.51789E-05         0.00000E+00
    0.24265E-06         0.49240E-05         0.00000E+00
    0.23925E-06         0.46522E-05         0.00000E+00
    0.23539E-06         0.43642E-05         0.00000E+00
    0.23149E-06         0.40606E-05         0.00000E+00
    0.22778E-06         0.37421E-05         0.00000E+00
    0.22439E-06         0.34098E-05         0.00000E+00
    0.22139E-06         0.30646E-05         0.00000E+00
    0.21878E-06         0.27078E-05         0.00000E+00
    0.21657E-06         0.23405E-05         0.00000E+00
    0.21473E-06         0.19643E-05         0.00000E+00
    0.21325E-06         0.15805E-05         0.00000E+00
    0.21210E-06         0.11906E-05         0.00000E+00
    0.21127E-06         0.79613E-06         0.00000E+00
    0.21077E-06         0.39874E-06         0.00000E+00
    0.21059E-06         0.19950E-06         0.00000E+00
    0.00000E+00         0.64225E-05         0.00000E+00
    0.49324E-07         0.64029E-05         0.00000E+00
    0.95213E-07         0.63468E-05         0.00000E+00
    0.13526E-06         0.62580E-05         0.00000E+00
    0.16804E-06         0.61390E-05         0.00000E+00
    0.19323E-06         0.59925E-05         0.00000E+00
    0.21136E-06         0.58212E-05         0.00000E+00
    0.22351E-06         0.56272E-05         0.00000E+00
    0.23096E-06         0.54123E-05         0.00000E+00
    0.23494E-06         0.51778E-05         0.00000E+00
    0.23651E-06         0.49248E-05         0.00000E+00
    0.23650E-06         0.46542E-05         0.00000E+00
    0.23554E-06         0.43667E-05         0.00000E+00
    0.23404E-06         0.40632E-05         0.00000E+00
    0.23232E-06         0.37447E-05         0.00000E+00
    0.23055E-06         0.34122E-05         0.00000E+00
    0.22885E-06         0.30668E-05         0.00000E+00
    0.22729E-06         0.27097E-05         0.00000E+00
    0.22590E-06         0.23422E-05         0.00000E+00
    0.22470E-06         0.19657E-05         0.00000E+00
    0.22371E-06         0.15816E-05         0.00000E+00
    0.22292E-06         0.11914E-05         0.00000E+00
    0.22234E-06         0.79670E-06         0.00000E+00
    0.22198E-06         0.39903E-06         0.00000E+00
    0.22185E-06         0.19965E-06         0.00000E+00
    0.00000E+00         0.63772E-05         0.00000E+00
    0.42512E-07         0.63590E-05         0.00000E+00
    0.82563E-07         0.63067E-05         0.00000E+00
    0.11847E-06         0.62233E-05         0.00000E+00
    0.14914E-06         0.61105E-05         0.00000E+00
    0.17414E-06         0.59704E-05         0.00000E+00
    0.19362E-06         0.58048E-05         0.00000E+00
    0.20816E-06         0.56158E-05         0.00000E+00
    0.21856E-06         0.54048E-05         0.00000E+00
    0.22568E-06         0.51733E-05         0.00000E+00
    0.23030E-06         0.49224E-05         0.00000E+00
    0.23310E-06         0.46532E-05         0.00000E+00
    0.23463E-06         0.43667E-05         0.00000E+00
    0.23529E-06         0.40638E-05         0.00000E+00
    0.23540E-06         0.37456E-05         0.00000E+00
    0.23516E-06         0.34132E-05         0.00000E+00
    0.23473E-06         0.30679E-05         0.00000E+00
    0.23420E-06         0.27107E-05         0.00000E+00
    0.23365E-06         0.23431E-05         0.00000E+00
    0.23312E-06         0.19665E-05         0.00000E+00
    0.23264E-06         0.15823E-05         0.00000E+00
    0.23223E-06         0.11919E-05         0.00000E+00
    0.23191E-06         0.79707E-06         0.00000E+00
    0.23170E-06         0.39922E-06         0.00000E+00
    0.23163E-06         0.19975E-06         0.00000E+00
    0.00000E+00         0.63375E-05         0.00000E+00
    0.37631E-07         0.63204E-05         0.00000E+00
    0.73400E-07         0.62709E-05         0.00000E+00
    0.10611E-06         0.61914E-05         0.00000E+00
    0.13490E-06         0.60833E-05         0.00000E+00
    0.15936E-06         0.59480E-05         0.00000E+00
    0.17945E-06         0.57871E-05         0.00000E+00
    0.19547E-06         0.56022E-05         0.00000E+00
    0.20790E-06         0.53948E-05         0.00000E+00
    0.21732E-06         0.51661E-05         0.00000E+00
    0.22430E-06         0.49174E-05         0.00000E+00
    0.22938E-06         0.46498E-05         0.00000E+00
    0.23300E-06         0.43645E-05         0.00000E+00
    0.23555E-06         0.40625E-05         0.00000E+00
    0.23729E-06         0.37449E-05         0.00000E+00
    0.23846E-06         0.34129E-05         0.00000E+00
    0.23922E-06         0.30678E-05         0.00000E+00
    0.23969E-06         0.27108E-05         0.00000E+00
    0.23995E-06         0.23433E-05         0.00000E+00
    0.24008E-06         0.19667E-05         0.00000E+00
    0.24011E-06         0.15825E-05         0.00000E+00
    0.24008E-06         0.11921E-05         0.00000E+00
    0.24003E-06         0.79723E-06         0.00000E+00
    0.23998E-06         0.39931E-06         0.00000E+00
    0.23995E-06         0.19981E-06         0.00000E+00
    0.00000E+00         0.63019E-05         0.00000E+00
    0.34039E-07         0.62856E-05         0.00000E+00
    0.66603E-07         0.62383E-05         0.00000E+00
    0.96808E-07         0.61618E-05         0.00000E+00
    0.12400E-06         0.60573E-05         0.00000E+00
    0.14779E-06         0.59258E-05         0.00000E+00
    0.16808E-06         0.57687E-05         0.00000E+00
    0.18498E-06         0.55873E-05         0.00000E+00
    0.19878E-06         0.53830E-05         0.00000E+00
    0.20987E-06         0.51569E-05         0.00000E+00
    0.21865E-06         0.49104E-05         0.00000E+00
    0.22554E-06         0.46445E-05         0.00000E+00
    0.23089E-06         0.43605E-05         0.00000E+00
    0.23503E-06         0.40595E-05         0.00000E+00
    0.23821E-06         0.37427E-05         0.00000E+00
    0.24064E-06         0.34113E-05         0.00000E+00
    0.24249E-06         0.30666E-05         0.00000E+00
    0.24388E-06         0.27100E-05         0.00000E+00
    0.24492E-06         0.23427E-05         0.00000E+00
    0.24567E-06         0.19663E-05         0.00000E+00
    0.24619E-06         0.15822E-05         0.00000E+00
    0.24654E-06         0.11920E-05         0.00000E+00
    0.24675E-06         0.79717E-06         0.00000E+00
    0.24685E-06         0.39930E-06         0.00000E+00
    0.24688E-06         0.19981E-06         0.00000E+00
    0.00000E+00         0.62694E-05         0.00000E+00
    0.31332E-07         0.62538E-05         0.00000E+00
    0.61442E-07         0.62081E-05         0.00000E+00
    0.89670E-07         0.61341E-05         0.00000E+00
    0.11550E-06         0.60323E-05         0.00000E+00
    0.13861E-06         0.59039E-05         0.00000E+00
    0.15884E-06         0.57500E-05         0.00000E+00
    0.17624E-06         0.55715E-05         0.00000E+00
    0.19095E-06         0.53699E-05         0.00000E+00
    0.20324E-06         0.51462E-05         0.00000E+00
    0.21338E-06         0.49017E-05         0.00000E+00
    0.22169E-06         0.46376E-05         0.00000E+00
    0.22844E-06         0.43550E-05         0.00000E+00
    0.23391E-06         0.40551E-05         0.00000E+00
    0.23832E-06         0.37393E-05         0.00000E+00
    0.24185E-06         0.34086E-05         0.00000E+00
    0.24467E-06         0.30645E-05         0.00000E+00
    0.24690E-06         0.27084E-05         0.00000E+00
    0.24864E-06         0.23415E-05         0.00000E+00
    0.24998E-06         0.19654E-05         0.00000E+00
    0.25097E-06         0.15816E-05         0.00000E+00
    0.25168E-06         0.11916E-05         0.00000E+00
    0.25214E-06         0.79691E-06         0.00000E+00
    0.25239E-06         0.39919E-06         0.00000E+00
    0.25246E-06         0.19976E-06         0.00000E+00
    0.00000E+00         0.62393E-05         0.00000E+00
    0.29241E-07         0.62242E-05         0.00000E+00
    0.57434E-07         0.61799E-05         0.00000E+00
    0.84074E-07         0.61078E-05         0.00000E+00
    0.10875E-06         0.60084E-05         0.00000E+00
    0.13119E-06         0.58825E-05         0.00000E+00
    0.15124E-06         0.57311E-05         0.00000E+00
    0.16887E-06         0.55552E-05         0.00000E+00
    0.18418E-06         0.53560E-05         0.00000E+00
    0.19730E-06         0.51345E-05         0.00000E+00
    0.20846E-06         0.48919E-05         0.00000E+00
    0.21786E-06         0.46294E-05         0.00000E+00
    0.22574E-06         0.43483E-05         0.00000E+00
    0.23230E-06         0.40496E-05         0.00000E+00
    0.23773E-06         0.37347E-05         0.00000E+00
    0.24221E-06         0.34050E-05         0.00000E+00
    0.24588E-06         0.30616E-05         0.00000E+00
    0.24885E-06         0.27060E-05         0.00000E+00
    0.25123E-06         0.23397E-05         0.00000E+00
    0.25310E-06         0.19640E-05         0.00000E+00
    0.25452E-06         0.15806E-05         0.00000E+00
    0.25556E-06         0.11908E-05         0.00000E+00
    0.25625E-06         0.79646E-06         0.00000E+00
    0.25664E-06         0.39897E-06         0.00000E+00
    0.25676E-06         0.19966E-06         0.00000E+00
    0.00000E+00         0.62109E-05         0.00000E+00
    0.27586E-07         0.61963E-05         0.00000E+00
    0.54245E-07         0.61533E-05         0.00000E+00
    0.79584E-07         0.60827E-05         0.00000E+00
    0.10328E-06         0.59852E-05         0.00000E+00
    0.12508E-06         0.58615E-05         0.00000E+00
    0.14486E-06         0.57123E-05         0.00000E+00
    0.16257E-06         0.55386E-05         0.00000E+00
    0.17822E-06         0.53415E-05         0.00000E+00
    0.19193E-06         0.51220E-05         0.00000E+00
    0.20382E-06         0.48812E-05         0.00000E+00
    0.21405E-06         0.46203E-05         0.00000E+00
    0.22281E-06         0.43406E-05         0.00000E+00
    0.23025E-06         0.40431E-05         0.00000E+00
    0.23654E-06         0.37293E-05         0.00000E+00
    0.24181E-06         0.34005E-05         0.00000E+00
    0.24620E-06         0.30579E-05         0.00000E+00
    0.24982E-06         0.27030E-05         0.00000E+00
    0.25276E-06         0.23373E-05         0.00000E+00
    0.25510E-06         0.19621E-05         0.00000E+00
    0.25691E-06         0.15791E-05         0.00000E+00
    0.25825E-06         0.11898E-05         0.00000E+00
    0.25915E-06         0.79583E-06         0.00000E+00
    0.25967E-06         0.39867E-06         0.00000E+00
    0.25983E-06         0.19951E-06         0.00000E+00
    0.00000E+00         0.61841E-05         0.00000E+00
    0.26242E-07         0.61699E-05         0.00000E+00
    0.51643E-07         0.61279E-05         0.00000E+00
    0.75892E-07         0.60587E-05         0.00000E+00
    0.98725E-07         0.59629E-05         0.00000E+00
    0.11994E-06         0.58409E-05         0.00000E+00
    0.13941E-06         0.56936E-05         0.00000E+00
    0.15706E-06         0.55219E-05         0.00000E+00
    0.17290E-06         0.53266E-05         0.00000E+00
    0.18698E-06         0.51089E-05         0.00000E+00
    0.19939E-06         0.48698E-05         0.00000E+00
    0.21024E-06         0.46104E-05         0.00000E+00
    0.21967E-06         0.43321E-05         0.00000E+00
    0.22781E-06         0.40359E-05         0.00000E+00
    0.23478E-06         0.37232E-05         0.00000E+00
    0.24072E-06         0.33953E-05         0.00000E+00
    0.24572E-06         0.30536E-05         0.00000E+00
    0.24989E-06         0.26994E-05         0.00000E+00
    0.25331E-06         0.23344E-05         0.00000E+00
    0.25607E-06         0.19598E-05         0.00000E+00
    0.25821E-06         0.15774E-05         0.00000E+00
    0.25981E-06         0.11886E-05         0.00000E+00
    0.26091E-06         0.79504E-06         0.00000E+00
    0.26154E-06         0.39829E-06         0.00000E+00
    0.26174E-06         0.19933E-06         0.00000E+00
    0.00000E+00         0.61585E-05         0.00000E+00
    0.25118E-07         0.61447E-05         0.00000E+00
    0.49459E-07         0.61036E-05         0.00000E+00
    0.72774E-07         0.60357E-05         0.00000E+00
    0.94844E-07         0.59412E-05         0.00000E+00
    0.11550E-06         0.58208E-05         0.00000E+00
    0.13462E-06         0.56752E-05         0.00000E+00
    0.15214E-06         0.55051E-05         0.00000E+00
    0.16803E-06         0.53115E-05         0.00000E+00
    0.18233E-06         0.50955E-05         0.00000E+00
    0.19509E-06         0.48579E-05         0.00000E+00
    0.20638E-06         0.46000E-05         0.00000E+00
    0.21632E-06         0.43230E-05         0.00000E+00
    0.22499E-06         0.40280E-05         0.00000E+00
    0.23251E-06         0.37164E-05         0.00000E+00
    0.23897E-06         0.33895E-05         0.00000E+00
    0.24448E-06         0.30487E-05         0.00000E+00
    0.24910E-06         0.26954E-05         0.00000E+00
    0.25294E-06         0.23311E-05         0.00000E+00
    0.25604E-06         0.19572E-05         0.00000E+00
    0.25848E-06         0.15754E-05         0.00000E+00
    0.26031E-06         0.11872E-05         0.00000E+00
    0.26157E-06         0.79410E-06         0.00000E+00
    0.26230E-06         0.39784E-06         0.00000E+00
    0.26254E-06         0.19911E-06         0.00000E+00
    0.00000E+00         0.61339E-05         0.00000E+00
    0.24151E-07         0.61205E-05         0.00000E+00
    0.47574E-07         0.60803E-05         0.00000E+00
    0.70064E-07         0.60134E-05         0.00000E+00
    0.91442E-07         0.59201E-05         0.00000E+00
    0.11156E-06         0.58011E-05         0.00000E+00
    0.13031E-06         0.56570E-05         0.00000E+00
    0.14763E-06         0.54884E-05         0.00000E+00
    0.16348E-06         0.52964E-05         0.00000E+00
    0.17788E-06         0.50818E-05         0.00000E+00
    0.19084E-06         0.48457E-05         0.00000E+00
    0.20244E-06         0.45892E-05         0.00000E+00
    0.21273E-06         0.43135E-05         0.00000E+00
    0.22181E-06         0.40197E-05         0.00000E+00
    0.22974E-06         0.37092E-05         0.00000E+00
    0.23662E-06         0.33833E-05         0.00000E+00
    0.24252E-06         0.30434E-05         0.00000E+00
    0.24752E-06         0.26910E-05         0.00000E+00
    0.25169E-06         0.23274E-05         0.00000E+00
    0.25509E-06         0.19543E-05         0.00000E+00
    0.25778E-06         0.15731E-05         0.00000E+00
    0.25980E-06         0.11855E-05         0.00000E+00
    0.26120E-06         0.79304E-06         0.00000E+00
    0.26202E-06         0.39733E-06         0.00000E+00
    0.26228E-06         0.19886E-06         0.00000E+00
    0.00000E+00         0.61102E-05         0.00000E+00
    0.23293E-07         0.60971E-05         0.00000E+00
    0.45896E-07         0.60577E-05         0.00000E+00
    0.67640E-07         0.59918E-05         0.00000E+00
    0.88373E-07         0.58997E-05         0.00000E+00
    0.10797E-06         0.57819E-05         0.00000E+00
    0.12634E-06         0.56391E-05         0.00000E+00
    0.14340E-06         0.54719E-05         0.00000E+00
    0.15913E-06         0.52813E-05         0.00000E+00
    0.17352E-06         0.50681E-05         0.00000E+00
    0.18658E-06         0.48334E-05         0.00000E+00
    0.19836E-06         0.45781E-05         0.00000E+00
    0.20889E-06         0.43036E-05         0.00000E+00
    0.21825E-06         0.40110E-05         0.00000E+00
    0.22649E-06         0.37016E-05         0.00000E+00
    0.23368E-06         0.33767E-05         0.00000E+00
    0.23989E-06         0.30378E-05         0.00000E+00
    0.24519E-06         0.26862E-05         0.00000E+00
    0.24962E-06         0.23235E-05         0.00000E+00
    0.25326E-06         0.19511E-05         0.00000E+00
    0.25615E-06         0.15707E-05         0.00000E+00
    0.25833E-06         0.11837E-05         0.00000E+00
    0.25985E-06         0.79188E-06         0.00000E+00
    0.26073E-06         0.39676E-06         0.00000E+00
    0.26102E-06         0.19859E-06         0.00000E+00
    0.00000E+00         0.60873E-05         0.00000E+00
    0.22508E-07         0.60746E-05         0.00000E+00
    0.44358E-07         0.60359E-05         0.00000E+00
    0.65408E-07         0.59709E-05         0.00000E+00
    0.85528E-07         0.58798E-05         0.00000E+00
    0.10461E-06         0.57632E-05         0.00000E+00
    0.12257E-06         0.56215E-05         0.00000E+00
    0.13934E-06         0.54557E-05         0.00000E+00
    0.15488E-06         0.52663E-05         0.00000E+00
    0.16919E-06         0.50544E-05         0.00000E+00
    0.18225E-06         0.48209E-05         0.00000E+00
    0.19411E-06         0.45669E-05         0.00000E+00
    0.20478E-06         0.42936E-05         0.00000E+00
    0.21431E-06         0.40021E-05         0.00000E+00
    0.22276E-06         0.36938E-05         0.00000E+00
    0.23017E-06         0.33699E-05         0.00000E+00
    0.23661E-06         0.30319E-05         0.00000E+00
    0.24213E-06         0.26812E-05         0.00000E+00
    0.24677E-06         0.23194E-05         0.00000E+00
    0.25059E-06         0.19478E-05         0.00000E+00
    0.25363E-06         0.15681E-05         0.00000E+00
    0.25594E-06         0.11818E-05         0.00000E+00
    0.25755E-06         0.79064E-06         0.00000E+00
    0.25850E-06         0.39615E-06         0.00000E+00
    0.25880E-06         0.19829E-06         0.00000E+00
    0.00000E+00         0.60651E-05         0.00000E+00
    0.21772E-07         0.60528E-05         0.00000E+00
    0.42911E-07         0.60148E-05         0.00000E+00
    0.63298E-07         0.59506E-05         0.00000E+00
    0.82823E-07         0.58605E-05         0.00000E+00
    0.10139E-06         0.57449E-05         0.00000E+00
    0.11892E-06         0.56044E-05         0.00000E+00
    0.13536E-06         0.54396E-05         0.00000E+00
    0.15066E-06         0.52515E-05         0.00000E+00
    0.16481E-06         0.50407E-05         0.00000E+00
    0.17780E-06         0.48084E-05         0.00000E+00
    0.18964E-06         0.45556E-05         0.00000E+00
    0.20036E-06         0.42834E-05         0.00000E+00
    0.20998E-06         0.39930E-05         0.00000E+00
    0.21855E-06         0.36858E-05         0.00000E+00
    0.22611E-06         0.33629E-05         0.00000E+00
    0.23270E-06         0.30259E-05         0.00000E+00
    0.23837E-06         0.26761E-05         0.00000E+00
    0.24316E-06         0.23150E-05         0.00000E+00
    0.24712E-06         0.19443E-05         0.00000E+00
    0.25028E-06         0.15653E-05         0.00000E+00
    0.25268E-06         0.11798E-05         0.00000E+00
    0.25437E-06         0.78933E-06         0.00000E+00
    0.25535E-06         0.39551E-06         0.00000E+00
    0.25567E-06         0.19797E-06         0.00000E+00
    0.00000E+00         0.60437E-05         0.00000E+00
    0.21062E-07         0.60317E-05         0.00000E+00
    0.41515E-07         0.59944E-05         0.00000E+00
    0.61256E-07         0.59310E-05         0.00000E+00
    0.80191E-07         0.58417E-05         0.00000E+00
    0.98234E-07         0.57271E-05         0.00000E+00
    0.11532E-06         0.55876E-05         0.00000E+00
    0.13138E-06         0.54239E-05         0.00000E+00
    0.14640E-06         0.52368E-05         0.00000E+00
    0.16033E-06         0.50272E-05         0.00000E+00
    0.17317E-06         0.47961E-05         0.00000E+00
    0.18493E-06         0.45443E-05         0.00000E+00
    0.19562E-06         0.42732E-05         0.00000E+00
    0.20526E-06         0.39839E-05         0.00000E+00
    0.21387E-06         0.36776E-05         0.00000E+00
    0.22150E-06         0.33558E-05         0.00000E+00
    0.22818E-06         0.30197E-05         0.00000E+00
    0.23394E-06         0.26708E-05         0.00000E+00
    0.23883E-06         0.23106E-05         0.00000E+00
    0.24288E-06         0.19407E-05         0.00000E+00
    0.24612E-06         0.15625E-05         0.00000E+00
    0.24859E-06         0.11777E-05         0.00000E+00
    0.25033E-06         0.78797E-06         0.00000E+00
    0.25134E-06         0.39484E-06         0.00000E+00
    0.25168E-06         0.19765E-06         0.00000E+00
    0.00000E+00         0.60230E-05         0.00000E+00
    0.20364E-07         0.60113E-05         0.00000E+00
    0.40141E-07         0.59746E-05         0.00000E+00
    0.59242E-07         0.59119E-05         0.00000E+00
    0.77583E-07         0.58235E-05         0.00000E+00
    0.95091E-07         0.57097E-05         0.00000E+00
    0.11170E-06         0.55712E-05         0.00000E+00
    0.12736E-06         0.54085E-05         0.00000E+00
    0.14204E-06         0.52225E-05         0.00000E+00
    0.15571E-06         0.50140E-05         0.00000E+00
    0.16834E-06         0.47838E-05         0.00000E+00
    0.17996E-06         0.45332E-05         0.00000E+00
    0.19055E-06         0.42631E-05         0.00000E+00
    0.20013E-06         0.39748E-05         0.00000E+00
    0.20873E-06         0.36695E-05         0.00000E+00
    0.21636E-06         0.33486E-05         0.00000E+00
    0.22307E-06         0.30134E-05         0.00000E+00
    0.22887E-06         0.26654E-05         0.00000E+00
    0.23381E-06         0.23061E-05         0.00000E+00
    0.23790E-06         0.19370E-05         0.00000E+00
    0.24119E-06         0.15596E-05         0.00000E+00
    0.24371E-06         0.11756E-05         0.00000E+00
    0.24547E-06         0.78658E-06         0.00000E+00
    0.24651E-06         0.39416E-06         0.00000E+00
    0.24685E-06         0.19731E-06         0.00000E+00
    0.00000E+00         0.60030E-05         0.00000E+00
    0.19666E-07         0.59915E-05         0.00000E+00
    0.38766E-07         0.59555E-05         0.00000E+00
    0.57222E-07         0.58935E-05         0.00000E+00
    0.74960E-07         0.58059E-05         0.00000E+00
    0.91915E-07         0.56929E-05         0.00000E+00
    0.10803E-06         0.55553E-05         0.00000E+00
    0.12325E-06         0.53936E-05         0.00000E+00
    0.13755E-06         0.52085E-05         0.00000E+00
    0.15090E-06         0.50009E-05         0.00000E+00
    0.16328E-06         0.47718E-05         0.00000E+00
    0.17469E-06         0.45221E-05         0.00000E+00
    0.18512E-06         0.42531E-05         0.00000E+00
    0.19459E-06         0.39657E-05         0.00000E+00
    0.20311E-06         0.36614E-05         0.00000E+00
    0.21070E-06         0.33414E-05         0.00000E+00
    0.21738E-06         0.30072E-05         0.00000E+00
    0.22317E-06         0.26600E-05         0.00000E+00
    0.22811E-06         0.23016E-05         0.00000E+00
    0.23222E-06         0.19333E-05         0.00000E+00
    0.23553E-06         0.15567E-05         0.00000E+00
    0.23806E-06         0.11735E-05         0.00000E+00
    0.23984E-06         0.78517E-06         0.00000E+00
    0.24089E-06         0.39347E-06         0.00000E+00
    0.24123E-06         0.19697E-06         0.00000E+00
    0.00000E+00         0.59837E-05         0.00000E+00
    0.18960E-07         0.59725E-05         0.00000E+00
    0.37374E-07         0.59371E-05         0.00000E+00
    0.55173E-07         0.58757E-05         0.00000E+00
    0.72293E-07         0.57888E-05         0.00000E+00
    0.88674E-07         0.56767E-05         0.00000E+00
    0.10426E-06         0.55399E-05         0.00000E+00
    0.11902E-06         0.53790E-05         0.00000E+00
    0.13290E-06         0.51949E-05         0.00000E+00
    0.14589E-06         0.49882E-05         0.00000E+00
    0.15797E-06         0.47600E-05         0.00000E+00
    0.16912E-06         0.45113E-05         0.00000E+00
    0.17934E-06         0.42432E-05         0.00000E+00
    0.18864E-06         0.39568E-05         0.00000E+00
    0.19703E-06         0.36534E-05         0.00000E+00
    0.20451E-06         0.33343E-05         0.00000E+00
    0.21112E-06         0.30009E-05         0.00000E+00
    0.21687E-06         0.26547E-05         0.00000E+00
    0.22177E-06         0.22971E-05         0.00000E+00
    0.22586E-06         0.19296E-05         0.00000E+00
    0.22916E-06         0.15538E-05         0.00000E+00
    0.23168E-06         0.11713E-05         0.00000E+00
    0.23346E-06         0.78375E-06         0.00000E+00
    0.23451E-06         0.39277E-06         0.00000E+00
    0.23485E-06         0.19662E-06         0.00000E+00
    0.00000E+00         0.59651E-05         0.00000E+00
    0.18238E-07         0.59541E-05         0.00000E+00
    0.35951E-07         0.59193E-05         0.00000E+00
    0.53078E-07         0.58586E-05         0.00000E+00
    0.69560E-07         0.57724E-05         0.00000E+00
    0.85344E-07         0.56610E-05         0.00000E+00
    0.10038E-06         0.55250E-05         0.00000E+00
    0.11464E-06         0.53649E-05         0.00000E+00
    0.12807E-06         0.51816E-05         0.00000E+00
    0.14066E-06         0.49759E-05         0.00000E+00
    0.15238E-06         0.47486E-05         0.00000E+00
    0.16323E-06         0.45008E-05         0.00000E+00
    0.17319E-06         0.42335E-05         0.00000E+00
    0.18228E-06         0.39480E-05         0.00000E+00
    0.19049E-06         0.36455E-05         0.00000E+00
    0.19783E-06         0.33273E-05         0.00000E+00
    0.20432E-06         0.29948E-05         0.00000E+00
    0.20998E-06         0.26494E-05         0.00000E+00
    0.21481E-06         0.22926E-05         0.00000E+00
    0.21885E-06         0.19259E-05         0.00000E+00
    0.22211E-06         0.15509E-05         0.00000E+00
    0.22461E-06         0.11692E-05         0.00000E+00
    0.22637E-06         0.78234E-06         0.00000E+00
    0.22741E-06         0.39207E-06         0.00000E+00
    0.22775E-06         0.19628E-06         0.00000E+00
    0.00000E+00         0.59472E-05         0.00000E+00
    0.17497E-07         0.59365E-05         0.00000E+00
    0.34489E-07         0.59022E-05         0.00000E+00
    0.50921E-07         0.58421E-05         0.00000E+00
    0.66743E-07         0.57565E-05         0.00000E+00
    0.81905E-07         0.56459E-05         0.00000E+00
    0.96364E-07         0.55106E-05         0.00000E+00
    0.11008E-06         0.53513E-05         0.00000E+00
    0.12303E-06         0.51688E-05         0.00000E+00
    0.13518E-06         0.49639E-05         0.00000E+00
    0.14651E-06         0.47375E-05         0.00000E+00
    0.15701E-06         0.44905E-05         0.00000E+00
    0.16668E-06         0.42241E-05         0.00000E+00
    0.17550E-06         0.39395E-05         0.00000E+00
    0.18349E-06         0.36378E-05         0.00000E+00
    0.19065E-06         0.33205E-05         0.00000E+00
    0.19699E-06         0.29888E-05         0.00000E+00
    0.20252E-06         0.26442E-05         0.00000E+00
    0.20725E-06         0.22882E-05         0.00000E+00
    0.21121E-06         0.19223E-05         0.00000E+00
    0.21441E-06         0.15480E-05         0.00000E+00
    0.21687E-06         0.11670E-05         0.00000E+00
    0.21860E-06         0.78095E-06         0.00000E+00
    0.21962E-06         0.39139E-06         0.00000E+00
    0.21996E-06         0.19594E-06         0.00000E+00
    0.00000E+00         0.59301E-05         0.00000E+00
    0.16731E-07         0.59197E-05         0.00000E+00
    0.32979E-07         0.58859E-05         0.00000E+00
    0.48694E-07         0.58264E-05         0.00000E+00
    0.63830E-07         0.57414E-05         0.00000E+00
    0.78344E-07         0.56314E-05         0.00000E+00
    0.92195E-07         0.54968E-05         0.00000E+00
    0.10535E-06         0.53383E-05         0.00000E+00
    0.11777E-06         0.51565E-05         0.00000E+00
    0.12945E-06         0.49524E-05         0.00000E+00
    0.14035E-06         0.47268E-05         0.00000E+00
    0.15047E-06         0.44806E-05         0.00000E+00
    0.15980E-06         0.42150E-05         0.00000E+00
    0.16832E-06         0.39312E-05         0.00000E+00
    0.17606E-06         0.36304E-05         0.00000E+00
    0.18299E-06         0.33138E-05         0.00000E+00
    0.18914E-06         0.29829E-05         0.00000E+00
    0.19451E-06         0.26391E-05         0.00000E+00
    0.19912E-06         0.22839E-05         0.00000E+00
    0.20298E-06         0.19187E-05         0.00000E+00
    0.20609E-06         0.15452E-05         0.00000E+00
    0.20849E-06         0.11650E-05         0.00000E+00
    0.21018E-06         0.77959E-06         0.00000E+00
    0.21118E-06         0.39071E-06         0.00000E+00
    0.21151E-06         0.19561E-06         0.00000E+00
    0.00000E+00         0.59137E-05         0.00000E+00
    0.15939E-07         0.59036E-05         0.00000E+00
    0.31417E-07         0.58703E-05         0.00000E+00
    0.46390E-07         0.58113E-05         0.00000E+00
    0.60815E-07         0.57269E-05         0.00000E+00
    0.74652E-07         0.56175E-05         0.00000E+00
    0.87866E-07         0.54836E-05         0.00000E+00
    0.10042E-06         0.53258E-05         0.00000E+00
    0.11230E-06         0.51447E-05         0.00000E+00
    0.12347E-06         0.49413E-05         0.00000E+00
    0.13391E-06         0.47165E-05         0.00000E+00
    0.14361E-06         0.44711E-05         0.00000E+00
    0.15256E-06         0.42063E-05         0.00000E+00
    0.16075E-06         0.39232E-05         0.00000E+00
    0.16819E-06         0.36232E-05         0.00000E+00
    0.17487E-06         0.33074E-05         0.00000E+00
    0.18080E-06         0.29773E-05         0.00000E+00
    0.18598E-06         0.26342E-05         0.00000E+00
    0.19044E-06         0.22797E-05         0.00000E+00
    0.19417E-06         0.19153E-05         0.00000E+00
    0.19718E-06         0.15425E-05         0.00000E+00
    0.19950E-06         0.11630E-05         0.00000E+00
    0.20114E-06         0.77826E-06         0.00000E+00
    0.20211E-06         0.39006E-06         0.00000E+00
    0.20243E-06         0.19529E-06         0.00000E+00
    0.00000E+00         0.58982E-05         0.00000E+00
    0.15120E-07         0.58882E-05         0.00000E+00
    0.29801E-07         0.58554E-05         0.00000E+00
    0.44004E-07         0.57970E-05         0.00000E+00
    0.57691E-07         0.57131E-05         0.00000E+00
    0.70825E-07         0.56043E-05         0.00000E+00
    0.83374E-07         0.54710E-05         0.00000E+00
    0.95307E-07         0.53138E-05         0.00000E+00
    0.10660E-06         0.51335E-05         0.00000E+00
    0.11723E-06         0.49308E-05         0.00000E+00
    0.12717E-06         0.47066E-05         0.00000E+00
    0.13642E-06         0.44620E-05         0.00000E+00
    0.14496E-06         0.41979E-05         0.00000E+00
    0.15279E-06         0.39156E-05         0.00000E+00
    0.15990E-06         0.36163E-05         0.00000E+00
    0.16630E-06         0.33012E-05         0.00000E+00
    0.17198E-06         0.29718E-05         0.00000E+00
    0.17695E-06         0.26295E-05         0.00000E+00
    0.18123E-06         0.22757E-05         0.00000E+00
    0.18481E-06         0.19120E-05         0.00000E+00
    0.18771E-06         0.15399E-05         0.00000E+00
    0.18994E-06         0.11610E-05         0.00000E+00
    0.19152E-06         0.77698E-06         0.00000E+00
    0.19246E-06         0.38943E-06         0.00000E+00
    0.19276E-06         0.19498E-06         0.00000E+00
    0.00000E+00         0.58835E-05         0.00000E+00
    0.14271E-07         0.58738E-05         0.00000E+00
    0.28128E-07         0.58414E-05         0.00000E+00
    0.41535E-07         0.57834E-05         0.00000E+00
    0.54456E-07         0.57001E-05         0.00000E+00
    0.66860E-07         0.55918E-05         0.00000E+00
    0.78715E-07         0.54591E-05         0.00000E+00
    0.89995E-07         0.53025E-05         0.00000E+00
    0.10067E-06         0.51228E-05         0.00000E+00
    0.11073E-06         0.49208E-05         0.00000E+00
    0.12015E-06         0.46973E-05         0.00000E+00
    0.12892E-06         0.44533E-05         0.00000E+00
    0.13702E-06         0.41899E-05         0.00000E+00
    0.14445E-06         0.39083E-05         0.00000E+00
    0.15121E-06         0.36097E-05         0.00000E+00
    0.15730E-06         0.32953E-05         0.00000E+00
    0.16270E-06         0.29666E-05         0.00000E+00
    0.16744E-06         0.26250E-05         0.00000E+00
    0.17152E-06         0.22719E-05         0.00000E+00
    0.17494E-06         0.19088E-05         0.00000E+00
    0.17771E-06         0.15374E-05         0.00000E+00
    0.17984E-06         0.11591E-05         0.00000E+00
    0.18134E-06         0.77575E-06         0.00000E+00
    0.18224E-06         0.38882E-06         0.00000E+00
    0.18253E-06         0.19468E-06         0.00000E+00
    0.10427E-19         0.58697E-05         0.00000E+00
    0.13394E-07         0.58601E-05         0.00000E+00
    0.26399E-07         0.58282E-05         0.00000E+00
    0.38982E-07         0.57706E-05         0.00000E+00
    0.51111E-07         0.56878E-05         0.00000E+00
    0.62757E-07         0.55800E-05         0.00000E+00
    0.73892E-07         0.54479E-05         0.00000E+00
    0.84490E-07         0.52919E-05         0.00000E+00
    0.94529E-07         0.51128E-05         0.00000E+00
    0.10399E-06         0.49113E-05         0.00000E+00
    0.11286E-06         0.46884E-05         0.00000E+00
    0.12111E-06         0.44451E-05         0.00000E+00
    0.12875E-06         0.41824E-05         0.00000E+00
    0.13576E-06         0.39014E-05         0.00000E+00
    0.14214E-06         0.36034E-05         0.00000E+00
    0.14788E-06         0.32897E-05         0.00000E+00
    0.15300E-06         0.29617E-05         0.00000E+00
    0.15748E-06         0.26207E-05         0.00000E+00
    0.16133E-06         0.22682E-05         0.00000E+00
    0.16457E-06         0.19058E-05         0.00000E+00
    0.16720E-06         0.15350E-05         0.00000E+00
    0.16922E-06         0.11574E-05         0.00000E+00
    0.17065E-06         0.77458E-06         0.00000E+00
    0.17149E-06         0.38824E-06         0.00000E+00
    0.17177E-06         0.19439E-06         0.00000E+00
    0.14595E-33         0.58567E-05         0.00000E+00
    0.12489E-07         0.58474E-05         0.00000E+00
    0.24614E-07         0.58158E-05         0.00000E+00
    0.36347E-07         0.57587E-05         0.00000E+00
    0.47657E-07         0.56763E-05         0.00000E+00
    0.58519E-07         0.55690E-05         0.00000E+00
    0.68907E-07         0.54374E-05         0.00000E+00
    0.78798E-07         0.52819E-05         0.00000E+00
    0.88171E-07         0.51033E-05         0.00000E+00
    0.97008E-07         0.49024E-05         0.00000E+00
    0.10529E-06         0.46801E-05         0.00000E+00
    0.11301E-06         0.44374E-05         0.00000E+00
    0.12016E-06         0.41753E-05         0.00000E+00
    0.12672E-06         0.38949E-05         0.00000E+00
    0.13270E-06         0.35975E-05         0.00000E+00
    0.13809E-06         0.32845E-05         0.00000E+00
    0.14288E-06         0.29570E-05         0.00000E+00
    0.14709E-06         0.26166E-05         0.00000E+00
    0.15071E-06         0.22648E-05         0.00000E+00
    0.15375E-06         0.19029E-05         0.00000E+00
    0.15621E-06         0.15327E-05         0.00000E+00
    0.15811E-06         0.11557E-05         0.00000E+00
    0.15946E-06         0.77347E-06         0.00000E+00
    0.16026E-06         0.38769E-06         0.00000E+00
    0.16052E-06         0.19412E-06         0.00000E+00
   -0.10382E-19         0.58447E-05         0.00000E+00
    0.11556E-07         0.58355E-05         0.00000E+00
    0.22776E-07         0.58043E-05         0.00000E+00
    0.33631E-07         0.57476E-05         0.00000E+00
    0.44098E-07         0.56656E-05         0.00000E+00
    0.54150E-07         0.55588E-05         0.00000E+00
    0.63767E-07         0.54276E-05         0.00000E+00
    0.72926E-07         0.52726E-05         0.00000E+00
    0.81609E-07         0.50945E-05         0.00000E+00
    0.89798E-07         0.48942E-05         0.00000E+00
    0.97479E-07         0.46724E-05         0.00000E+00
    0.10464E-06         0.44302E-05         0.00000E+00
    0.11127E-06         0.41687E-05         0.00000E+00
    0.11736E-06         0.38889E-05         0.00000E+00
    0.12292E-06         0.35921E-05         0.00000E+00
    0.12792E-06         0.32795E-05         0.00000E+00
    0.13238E-06         0.29527E-05         0.00000E+00
    0.13629E-06         0.26129E-05         0.00000E+00
    0.13966E-06         0.22616E-05         0.00000E+00
    0.14249E-06         0.19003E-05         0.00000E+00
    0.14479E-06         0.15306E-05         0.00000E+00
    0.14656E-06         0.11541E-05         0.00000E+00
    0.14782E-06         0.77244E-06         0.00000E+00
    0.14856E-06         0.38718E-06         0.00000E+00
    0.14880E-06         0.19387E-06         0.00000E+00
    0.00000E+00         0.58336E-05         0.00000E+00
    0.10597E-07         0.58246E-05         0.00000E+00
    0.20885E-07         0.57937E-05         0.00000E+00
    0.30839E-07         0.57374E-05         0.00000E+00
    0.40437E-07         0.56558E-05         0.00000E+00
    0.49658E-07         0.55494E-05         0.00000E+00
    0.58479E-07         0.54186E-05         0.00000E+00
    0.66883E-07         0.52641E-05         0.00000E+00
    0.74852E-07         0.50865E-05         0.00000E+00
    0.82371E-07         0.48866E-05         0.00000E+00
    0.89425E-07         0.46653E-05         0.00000E+00
    0.96005E-07         0.44236E-05         0.00000E+00
    0.10210E-06         0.41625E-05         0.00000E+00
    0.10770E-06         0.38833E-05         0.00000E+00
    0.11281E-06         0.35870E-05         0.00000E+00
    0.11742E-06         0.32750E-05         0.00000E+00
    0.12152E-06         0.29486E-05         0.00000E+00
    0.12513E-06         0.26093E-05         0.00000E+00
    0.12823E-06         0.22586E-05         0.00000E+00
    0.13084E-06         0.18978E-05         0.00000E+00
    0.13296E-06         0.15287E-05         0.00000E+00
    0.13459E-06         0.11527E-05         0.00000E+00
    0.13575E-06         0.77148E-06         0.00000E+00
    0.13644E-06         0.38671E-06         0.00000E+00
    0.13666E-06         0.19363E-06         0.00000E+00
    0.00000E+00         0.58235E-05         0.00000E+00
    0.96134E-08         0.58146E-05         0.00000E+00
    0.18945E-07         0.57841E-05         0.00000E+00
    0.27975E-07         0.57280E-05         0.00000E+00
    0.36683E-07         0.56468E-05         0.00000E+00
    0.45048E-07         0.55407E-05         0.00000E+00
    0.53053E-07         0.54104E-05         0.00000E+00
    0.60680E-07         0.52562E-05         0.00000E+00
    0.67914E-07         0.50791E-05         0.00000E+00
    0.74741E-07         0.48796E-05         0.00000E+00
    0.81149E-07         0.46588E-05         0.00000E+00
    0.87128E-07         0.44175E-05         0.00000E+00
    0.92668E-07         0.41570E-05         0.00000E+00
    0.97763E-07         0.38782E-05         0.00000E+00
    0.10241E-06         0.35823E-05         0.00000E+00
    0.10660E-06         0.32708E-05         0.00000E+00
    0.11034E-06         0.29450E-05         0.00000E+00
    0.11362E-06         0.26061E-05         0.00000E+00
    0.11645E-06         0.22558E-05         0.00000E+00
    0.11883E-06         0.18956E-05         0.00000E+00
    0.12076E-06         0.15269E-05         0.00000E+00
    0.12225E-06         0.11513E-05         0.00000E+00
    0.12330E-06         0.77059E-06         0.00000E+00
    0.12392E-06         0.38627E-06         0.00000E+00
    0.12413E-06         0.19342E-06         0.00000E+00
    0.00000E+00         0.58144E-05         0.00000E+00
    0.86064E-08         0.58056E-05         0.00000E+00
    0.16961E-07         0.57754E-05         0.00000E+00
    0.25045E-07         0.57196E-05         0.00000E+00
    0.32840E-07         0.56387E-05         0.00000E+00
    0.40330E-07         0.55330E-05         0.00000E+00
    0.47498E-07         0.54030E-05         0.00000E+00
    0.54329E-07         0.52492E-05         0.00000E+00
    0.60809E-07         0.50724E-05         0.00000E+00
    0.66926E-07         0.48733E-05         0.00000E+00
    0.72669E-07         0.46529E-05         0.00000E+00
    0.78028E-07         0.44121E-05         0.00000E+00
    0.82996E-07         0.41519E-05         0.00000E+00
    0.87566E-07         0.38735E-05         0.00000E+00
    0.91734E-07         0.35782E-05         0.00000E+00
    0.95496E-07         0.32671E-05         0.00000E+00
    0.98851E-07         0.29416E-05         0.00000E+00
    0.10180E-06         0.26032E-05         0.00000E+00
    0.10434E-06         0.22534E-05         0.00000E+00
    0.10648E-06         0.18935E-05         0.00000E+00
    0.10821E-06         0.15252E-05         0.00000E+00
    0.10955E-06         0.11501E-05         0.00000E+00
    0.11050E-06         0.76980E-06         0.00000E+00
    0.11106E-06         0.38587E-06         0.00000E+00
    0.11124E-06         0.19322E-06         0.00000E+00
    0.00000E+00         0.58063E-05         0.00000E+00
    0.75785E-08         0.57977E-05         0.00000E+00
    0.14935E-07         0.57676E-05         0.00000E+00
    0.22053E-07         0.57122E-05         0.00000E+00
    0.28917E-07         0.56315E-05         0.00000E+00
    0.35513E-07         0.55261E-05         0.00000E+00
    0.41826E-07         0.53964E-05         0.00000E+00
    0.47843E-07         0.52429E-05         0.00000E+00
    0.53552E-07         0.50665E-05         0.00000E+00
    0.58942E-07         0.48678E-05         0.00000E+00
    0.64003E-07         0.46477E-05         0.00000E+00
    0.68727E-07         0.44072E-05         0.00000E+00
    0.73107E-07         0.41474E-05         0.00000E+00
    0.77138E-07         0.38694E-05         0.00000E+00
    0.80815E-07         0.35744E-05         0.00000E+00
    0.84135E-07         0.32637E-05         0.00000E+00
    0.87096E-07         0.29387E-05         0.00000E+00
    0.89698E-07         0.26007E-05         0.00000E+00
    0.91942E-07         0.22512E-05         0.00000E+00
    0.93828E-07         0.18917E-05         0.00000E+00
    0.95361E-07         0.15238E-05         0.00000E+00
    0.96544E-07         0.11491E-05         0.00000E+00
    0.97381E-07         0.76909E-06         0.00000E+00
    0.97878E-07         0.38552E-06         0.00000E+00
    0.98041E-07         0.19305E-06         0.00000E+00
    0.00000E+00         0.57992E-05         0.00000E+00
    0.65319E-08         0.57907E-05         0.00000E+00
    0.12872E-07         0.57609E-05         0.00000E+00
    0.19007E-07         0.57056E-05         0.00000E+00
    0.24923E-07         0.56252E-05         0.00000E+00
    0.30608E-07         0.55201E-05         0.00000E+00
    0.36050E-07         0.53906E-05         0.00000E+00
    0.41237E-07         0.52375E-05         0.00000E+00
    0.46160E-07         0.50613E-05         0.00000E+00
    0.50807E-07         0.48629E-05         0.00000E+00
    0.55173E-07         0.46431E-05         0.00000E+00
    0.59248E-07         0.44030E-05         0.00000E+00
    0.63027E-07         0.41435E-05         0.00000E+00
    0.66506E-07         0.38658E-05         0.00000E+00
    0.69679E-07         0.35712E-05         0.00000E+00
    0.72545E-07         0.32608E-05         0.00000E+00
    0.75103E-07         0.29361E-05         0.00000E+00
    0.77350E-07         0.25984E-05         0.00000E+00
    0.79288E-07         0.22492E-05         0.00000E+00
    0.80918E-07         0.18901E-05         0.00000E+00
    0.82243E-07         0.15225E-05         0.00000E+00
    0.83265E-07         0.11481E-05         0.00000E+00
    0.83989E-07         0.76846E-06         0.00000E+00
    0.84418E-07         0.38521E-06         0.00000E+00
    0.84559E-07         0.19290E-06         0.00000E+00
    0.00000E+00         0.57932E-05         0.00000E+00
    0.54688E-08         0.57848E-05         0.00000E+00
    0.10777E-07         0.57551E-05         0.00000E+00
    0.15913E-07         0.57001E-05         0.00000E+00
    0.20867E-07         0.56199E-05         0.00000E+00
    0.25627E-07         0.55150E-05         0.00000E+00
    0.30183E-07         0.53857E-05         0.00000E+00
    0.34527E-07         0.52328E-05         0.00000E+00
    0.38650E-07         0.50569E-05         0.00000E+00
    0.42543E-07         0.48587E-05         0.00000E+00
    0.46200E-07         0.46392E-05         0.00000E+00
    0.49614E-07         0.43994E-05         0.00000E+00
    0.52781E-07         0.41402E-05         0.00000E+00
    0.55696E-07         0.38628E-05         0.00000E+00
    0.58356E-07         0.35684E-05         0.00000E+00
    0.60759E-07         0.32583E-05         0.00000E+00
    0.62904E-07         0.29339E-05         0.00000E+00
    0.64788E-07         0.25965E-05         0.00000E+00
    0.66414E-07         0.22476E-05         0.00000E+00
    0.67782E-07         0.18887E-05         0.00000E+00
    0.68893E-07         0.15214E-05         0.00000E+00
    0.69751E-07         0.11473E-05         0.00000E+00
    0.70358E-07         0.76793E-06         0.00000E+00
    0.70719E-07         0.38495E-06         0.00000E+00
    0.70837E-07         0.19277E-06         0.00000E+00
    0.00000E+00         0.57883E-05         0.00000E+00
    0.43920E-08         0.57799E-05         0.00000E+00
    0.86548E-08         0.57504E-05         0.00000E+00
    0.12780E-07         0.56955E-05         0.00000E+00
    0.16758E-07         0.56155E-05         0.00000E+00
    0.20581E-07         0.55108E-05         0.00000E+00
    0.24240E-07         0.53817E-05         0.00000E+00
    0.27729E-07         0.52290E-05         0.00000E+00
    0.31041E-07         0.50533E-05         0.00000E+00
    0.34168E-07         0.48553E-05         0.00000E+00
    0.37106E-07         0.46361E-05         0.00000E+00
    0.39850E-07         0.43964E-05         0.00000E+00
    0.42395E-07         0.41374E-05         0.00000E+00
    0.44738E-07         0.38602E-05         0.00000E+00
    0.46876E-07         0.35661E-05         0.00000E+00
    0.48808E-07         0.32562E-05         0.00000E+00
    0.50532E-07         0.29320E-05         0.00000E+00
    0.52047E-07         0.25949E-05         0.00000E+00
    0.53355E-07         0.22462E-05         0.00000E+00
    0.54455E-07         0.18876E-05         0.00000E+00
    0.55349E-07         0.15206E-05         0.00000E+00
    0.56039E-07         0.11466E-05         0.00000E+00
    0.56527E-07         0.76749E-06         0.00000E+00
    0.56818E-07         0.38474E-06         0.00000E+00
    0.56913E-07         0.19266E-06         0.00000E+00
    0.00000E+00         0.57844E-05         0.00000E+00
    0.33039E-08         0.57761E-05         0.00000E+00
    0.65106E-08         0.57468E-05         0.00000E+00
    0.96135E-08         0.56920E-05         0.00000E+00
    0.12606E-07         0.56121E-05         0.00000E+00
    0.15482E-07         0.55075E-05         0.00000E+00
    0.18235E-07         0.53786E-05         0.00000E+00
    0.20860E-07         0.52260E-05         0.00000E+00
    0.23351E-07         0.50505E-05         0.00000E+00
    0.25704E-07         0.48527E-05         0.00000E+00
    0.27915E-07         0.46336E-05         0.00000E+00
    0.29980E-07         0.43941E-05         0.00000E+00
    0.31895E-07         0.41353E-05         0.00000E+00
    0.33659E-07         0.38583E-05         0.00000E+00
    0.35269E-07         0.35643E-05         0.00000E+00
    0.36723E-07         0.32546E-05         0.00000E+00
    0.38021E-07         0.29306E-05         0.00000E+00
    0.39162E-07         0.25936E-05         0.00000E+00
    0.40147E-07         0.22452E-05         0.00000E+00
    0.40975E-07         0.18867E-05         0.00000E+00
    0.41649E-07         0.15199E-05         0.00000E+00
    0.42169E-07         0.11461E-05         0.00000E+00
    0.42537E-07         0.76715E-06         0.00000E+00
    0.42755E-07         0.38457E-06         0.00000E+00
    0.42827E-07         0.19258E-06         0.00000E+00
    0.00000E+00         0.57817E-05         0.00000E+00
    0.22073E-08         0.57734E-05         0.00000E+00
    0.43497E-08         0.57441E-05         0.00000E+00
    0.64227E-08         0.56895E-05         0.00000E+00
    0.84220E-08         0.56097E-05         0.00000E+00
    0.10343E-07         0.55051E-05         0.00000E+00
    0.12183E-07         0.53763E-05         0.00000E+00
    0.13937E-07         0.52239E-05         0.00000E+00
    0.15601E-07         0.50484E-05         0.00000E+00
    0.17174E-07         0.48508E-05         0.00000E+00
    0.18651E-07         0.46318E-05         0.00000E+00
    0.20031E-07         0.43924E-05         0.00000E+00
    0.21311E-07         0.41337E-05         0.00000E+00
    0.22490E-07         0.38569E-05         0.00000E+00
    0.23566E-07         0.35630E-05         0.00000E+00
    0.24538E-07         0.32535E-05         0.00000E+00
    0.25406E-07         0.29296E-05         0.00000E+00
    0.26169E-07         0.25928E-05         0.00000E+00
    0.26827E-07         0.22444E-05         0.00000E+00
    0.27381E-07         0.18861E-05         0.00000E+00
    0.27831E-07         0.15194E-05         0.00000E+00
    0.28179E-07         0.11458E-05         0.00000E+00
    0.28425E-07         0.76691E-06         0.00000E+00
    0.28571E-07         0.38445E-06         0.00000E+00
    0.28619E-07         0.19252E-06         0.00000E+00
    0.00000E+00         0.57800E-05         0.00000E+00
    0.11051E-08         0.57718E-05         0.00000E+00
    0.21777E-08         0.57425E-05         0.00000E+00
    0.32155E-08         0.56879E-05         0.00000E+00
    0.42164E-08         0.56082E-05         0.00000E+00
    0.51784E-08         0.55037E-05         0.00000E+00
    0.60993E-08         0.53750E-05         0.00000E+00
    0.69774E-08         0.52226E-05         0.00000E+00
    0.78109E-08         0.50472E-05         0.00000E+00
    0.85982E-08         0.48496E-05         0.00000E+00
    0.93379E-08         0.46307E-05         0.00000E+00
    0.10029E-07         0.43914E-05         0.00000E+00
    0.10670E-07         0.41328E-05         0.00000E+00
    0.11260E-07         0.38560E-05         0.00000E+00
    0.11799E-07         0.35623E-05         0.00000E+00
    0.12286E-07         0.32528E-05         0.00000E+00
    0.12720E-07         0.29290E-05         0.00000E+00
    0.13103E-07         0.25922E-05         0.00000E+00
    0.13432E-07         0.22440E-05         0.00000E+00
    0.13710E-07         0.18857E-05         0.00000E+00
    0.13935E-07         0.15191E-05         0.00000E+00
    0.14109E-07         0.11455E-05         0.00000E+00
    0.14233E-07         0.76676E-06         0.00000E+00
    0.14306E-07         0.38437E-06         0.00000E+00
    0.14330E-07         0.19248E-06         0.00000E+00
    0.00000E+00         0.57795E-05         0.00000E+00
    0.55290E-09         0.57712E-05         0.00000E+00
    0.10895E-08         0.57420E-05         0.00000E+00
    0.16088E-08         0.56874E-05         0.00000E+00
    0.21096E-08         0.56077E-05         0.00000E+00
    0.25909E-08         0.55033E-05         0.00000E+00
    0.30516E-08         0.53745E-05         0.00000E+00
    0.34910E-08         0.52222E-05         0.00000E+00
    0.39080E-08         0.50468E-05         0.00000E+00
    0.43019E-08         0.48492E-05         0.00000E+00
    0.46720E-08         0.46303E-05         0.00000E+00
    0.50178E-08         0.43911E-05         0.00000E+00
    0.53385E-08         0.41325E-05         0.00000E+00
    0.56339E-08         0.38557E-05         0.00000E+00
    0.59035E-08         0.35620E-05         0.00000E+00
    0.61471E-08         0.32526E-05         0.00000E+00
    0.63646E-08         0.29288E-05         0.00000E+00
    0.65558E-08         0.25920E-05         0.00000E+00
    0.67208E-08         0.22438E-05         0.00000E+00
    0.68597E-08         0.18856E-05         0.00000E+00
    0.69726E-08         0.15190E-05         0.00000E+00
    0.70597E-08         0.11455E-05         0.00000E+00
    0.71214E-08         0.76671E-06         0.00000E+00
    0.71580E-08         0.38435E-06         0.00000E+00
    0.71700E-08         0.19247E-06         0.00000E+00
CELL_DATA       1152
TENSORS stressef double 
   -0.69266E+05         0.61812E+03         0.00000E+00
    0.61812E+03        -0.99342E+05         0.00000E+00
    0.00000E+00         0.00000E+00        -0.50583E+05
 
   -0.36009E+05         0.35672E+04         0.00000E+00
    0.35672E+04        -0.95063E+05         0.00000E+00
    0.00000E+00         0.00000E+00        -0.39322E+05
 
   -0.16310E+05         0.53464E+04         0.00000E+00
    0.53464E+04        -0.85328E+05         0.00000E+00
    0.00000E+00         0.00000E+00        -0.30491E+05
 
   -0.65767E+04         0.51471E+04         0.00000E+00
    0.51471E+04        -0.74776E+05         0.00000E+00
    0.00000E+00         0.00000E+00        -0.24406E+05
 
   -0.17928E+04         0.43655E+04         0.00000E+00
    0.43655E+04        -0.65454E+05         0.00000E+00
    0.00000E+00         0.00000E+00        -0.20174E+05
 
    0.59330E+03         0.35678E+04         0.00000E+00
    0.35678E+04        -0.57718E+05         0.00000E+00
    0.00000E+00         0.00000E+00        -0.17138E+05
 
    0.17608E+04         0.28931E+04         0.00000E+00
    0.28931E+04        -0.51414E+05         0.00000E+00
    0.00000E+00         0.00000E+00        -0.14896E+05
 
    0.22772E+04         0.23539E+04         0.00000E+00
    0.23539E+04        -0.46282E+05         0.00000E+00
    0.00000E+00         0.00000E+00        -0.13201E+05
 
    0.24272E+04         0.19294E+04         0.00000E+00
    0.19294E+04        -0.42081E+05         0.00000E+00
    0.00000E+00         0.00000E+00        -0.11896E+05
 
    0.23596E+04         0.15951E+04         0.00000E+00
    0.15951E+04        -0.38616E+05         0.00000E+00
    0.00000E+00         0.00000E+00        -0.10877E+05
 
    0.21548E+04         0.13299E+04         0.00000E+00
    0.13299E+04        -0.35734E+05         0.00000E+00
    0.00000E+00         0.00000E+00        -0.10074E+05
 
    0.18567E+04         0.11176E+04         0.00000E+00
    0.11176E+04        -0.33319E+05         0.00000E+00
    0.00000E+00         0.00000E+00        -0.94386E+04
 
    0.14889E+04         0.94618E+03         0.00000E+00
    0.94618E+03        -0.31279E+05         0.00000E+00
    0.00000E+00         0.00000E+00        -0.89370E+04
 
    0.10629E+04         0.80663E+03         0.00000E+00
    0.80663E+03        -0.29544E+05         0.00000E+00
    0.00000E+00         0.00000E+00        -0.85443E+04
 
    0.58257E+03         0.69240E+03         0.00000E+00
    0.69240E+03        -0.28059E+05         0.00000E+00
    0.00000E+00         0.00000E+00        -0.82429E+04
 
    0.46376E+02         0.59865E+03         0.00000E+00
    0.59865E+03        -0.26778E+05         0.00000E+00
    0.00000E+00         0.00000E+00        -0.80196E+04
 
   -0.55121E+03         0.52194E+03         0.00000E+00
    0.52194E+03        -0.25666E+05         0.00000E+00
    0.00000E+00         0.00000E+00        -0.78653E+04
 
   -0.12193E+04         0.45980E+03         0.00000E+00
    0.45980E+03        -0.24691E+05         0.00000E+00
    0.00000E+00         0.00000E+00        -0.77732E+04
 
   -0.19705E+04         0.41065E+03         0.00000E+00
    0.41065E+03        -0.23826E+05         0.00000E+00
    0.00000E+00         0.00000E+00        -0.77391E+04
 
   -0.28214E+04         0.37360E+03         0.00000E+00
    0.37360E+03        -0.23047E+05         0.00000E+00
    0.00000E+00         0.00000E+00        -0.77605E+04
 
   -0.37927E+04         0.34844E+03         0.00000E+00
    0.34844E+03        -0.22329E+05         0.00000E+00
    0.00000E+00         0.00000E+00        -0.78365E+04
 
   -0.49107E+04         0.33562E+03         0.00000E+00
    0.33562E+03        -0.21649E+05         0.00000E+00
    0.00000E+00         0.00000E+00        -0.79678E+04
 
   -0.62083E+04         0.33638E+03         0.00000E+00
    0.33638E+03        -0.20980E+05         0.00000E+00
    0.00000E+00         0.00000E+00        -0.81566E+04
 
   -0.77271E+04         0.35281E+03         0.00000E+00
    0.35281E+03        -0.20295E+05         0.00000E+00
    0.00000E+00         0.00000E+00        -0.84067E+04
 
   -0.64580E+05         0.30733E+04         0.00000E+00
    0.30733E+04        -0.99314E+05         0.00000E+00
    0.00000E+00         0.00000E+00        -0.49168E+05
 
   -0.30575E+05         0.13481E+05         0.00000E+00
    0.13481E+05        -0.87762E+05         0.00000E+00
    0.00000E+00         0.00000E+00        -0.35501E+05
 
   -0.15863E+05         0.15997E+05         0.00000E+00
    0.15997E+05        -0.76814E+05         0.00000E+00
    0.00000E+00         0.00000E+00        -0.27803E+05
 
   -0.79173E+04         0.14598E+05         0.00000E+00
    0.14598E+05        -0.67772E+05         0.00000E+00
    0.00000E+00         0.00000E+00        -0.22707E+05
 
   -0.33845E+04         0.12296E+05         0.00000E+00
    0.12296E+05        -0.60182E+05         0.00000E+00
    0.00000E+00         0.00000E+00        -0.19070E+05
 
   -0.81966E+03         0.10092E+05         0.00000E+00
    0.10092E+05        -0.53835E+05         0.00000E+00
    0.00000E+00         0.00000E+00        -0.16397E+05
 
    0.60839E+03         0.82403E+04         0.00000E+00
    0.82403E+04        -0.48544E+05         0.00000E+00
    0.00000E+00         0.00000E+00        -0.14381E+05
 
    0.13616E+04         0.67507E+04         0.00000E+00
    0.67507E+04        -0.44132E+05         0.00000E+00
    0.00000E+00         0.00000E+00        -0.12831E+05
 
    0.17032E+04         0.55668E+04         0.00000E+00
    0.55668E+04        -0.40444E+05         0.00000E+00
    0.00000E+00         0.00000E+00        -0.11622E+05
 
    0.17847E+04         0.46256E+04         0.00000E+00
    0.46256E+04        -0.37346E+05         0.00000E+00
    0.00000E+00         0.00000E+00        -0.10669E+05
 
    0.16948E+04         0.38730E+04         0.00000E+00
    0.38730E+04        -0.34732E+05         0.00000E+00
    0.00000E+00         0.00000E+00        -0.99113E+04
 
    0.14855E+04         0.32663E+04         0.00000E+00
    0.32663E+04        -0.32514E+05         0.00000E+00
    0.00000E+00         0.00000E+00        -0.93086E+04
 
    0.11869E+04         0.27735E+04         0.00000E+00
    0.27735E+04        -0.30622E+05         0.00000E+00
    0.00000E+00         0.00000E+00        -0.88305E+04
 
    0.81568E+03         0.23704E+04         0.00000E+00
    0.23704E+04        -0.28999E+05         0.00000E+00
    0.00000E+00         0.00000E+00        -0.84550E+04
 
    0.37940E+03         0.20391E+04         0.00000E+00
    0.20391E+04        -0.27599E+05         0.00000E+00
    0.00000E+00         0.00000E+00        -0.81660E+04
 
   -0.12051E+03         0.17664E+04         0.00000E+00
    0.17664E+04        -0.26386E+05         0.00000E+00
    0.00000E+00         0.00000E+00        -0.79518E+04
 
   -0.68741E+03         0.15426E+04         0.00000E+00
    0.15426E+04        -0.25325E+05         0.00000E+00
    0.00000E+00         0.00000E+00        -0.78038E+04
 
   -0.13286E+04         0.13611E+04         0.00000E+00
    0.13611E+04        -0.24391E+05         0.00000E+00
    0.00000E+00         0.00000E+00        -0.77160E+04
 
   -0.20554E+04         0.12173E+04         0.00000E+00
    0.12173E+04        -0.23559E+05         0.00000E+00
    0.00000E+00         0.00000E+00        -0.76843E+04
 
   -0.28827E+04         0.11089E+04         0.00000E+00
    0.11089E+04        -0.22805E+05         0.00000E+00
    0.00000E+00         0.00000E+00        -0.77065E+04
 
   -0.38302E+04         0.10354E+04         0.00000E+00
    0.10354E+04        -0.22109E+05         0.00000E+00
    0.00000E+00         0.00000E+00        -0.77818E+04
 
   -0.49228E+04         0.99828E+03         0.00000E+00
    0.99828E+03        -0.21447E+05         0.00000E+00
    0.00000E+00         0.00000E+00        -0.79109E+04
 
   -0.61917E+04         0.10012E+04         0.00000E+00
    0.10012E+04        -0.20795E+05         0.00000E+00
    0.00000E+00         0.00000E+00        -0.80960E+04
 
   -0.76765E+04         0.10503E+04         0.00000E+00
    0.10503E+04        -0.20126E+05         0.00000E+00
    0.00000E+00         0.00000E+00        -0.83407E+04
 
   -0.48121E+05         0.17594E+05         0.00000E+00
    0.17594E+05        -0.74888E+05         0.00000E+00
    0.00000E+00         0.00000E+00        -0.36903E+05
 
   -0.26321E+05         0.25407E+05         0.00000E+00
    0.25407E+05        -0.65489E+05         0.00000E+00
    0.00000E+00         0.00000E+00        -0.27543E+05
 
   -0.17168E+05         0.24191E+05         0.00000E+00
    0.24191E+05        -0.59589E+05         0.00000E+00
    0.00000E+00         0.00000E+00        -0.23027E+05
 
   -0.10620E+05         0.21198E+05         0.00000E+00
    0.21198E+05        -0.54919E+05         0.00000E+00
    0.00000E+00         0.00000E+00        -0.19662E+05
 
   -0.61853E+04         0.17918E+05         0.00000E+00
    0.17918E+05        -0.50724E+05         0.00000E+00
    0.00000E+00         0.00000E+00        -0.17073E+05
 
   -0.32668E+04         0.14922E+05         0.00000E+00
    0.14922E+05        -0.46853E+05         0.00000E+00
    0.00000E+00         0.00000E+00        -0.15036E+05
 
   -0.14092E+04         0.12380E+05         0.00000E+00
    0.12380E+05        -0.43332E+05         0.00000E+00
    0.00000E+00         0.00000E+00        -0.13422E+05
 
   -0.26657E+03         0.10288E+05         0.00000E+00
    0.10288E+05        -0.40184E+05         0.00000E+00
    0.00000E+00         0.00000E+00        -0.12135E+05
 
    0.39584E+03         0.85881E+04         0.00000E+00
    0.85881E+04        -0.37404E+05         0.00000E+00
    0.00000E+00         0.00000E+00        -0.11102E+05
 
    0.73250E+03         0.72088E+04         0.00000E+00
    0.72088E+04        -0.34966E+05         0.00000E+00
    0.00000E+00         0.00000E+00        -0.10270E+05
 
    0.84316E+03         0.60866E+04         0.00000E+00
    0.60866E+04        -0.32838E+05         0.00000E+00
    0.00000E+00         0.00000E+00        -0.95984E+04
 
    0.79157E+03         0.51691E+04         0.00000E+00
    0.51691E+04        -0.30982E+05         0.00000E+00
    0.00000E+00         0.00000E+00        -0.90571E+04
 
    0.61795E+03         0.44149E+04         0.00000E+00
    0.44149E+04        -0.29363E+05         0.00000E+00
    0.00000E+00         0.00000E+00        -0.86235E+04
 
    0.34684E+03         0.37919E+04         0.00000E+00
    0.37919E+04        -0.27949E+05         0.00000E+00
    0.00000E+00         0.00000E+00        -0.82807E+04
 
   -0.78811E+01         0.32759E+04         0.00000E+00
    0.32759E+04        -0.26711E+05         0.00000E+00
    0.00000E+00         0.00000E+00        -0.80157E+04
 
   -0.43998E+03         0.28484E+04         0.00000E+00
    0.28484E+04        -0.25623E+05         0.00000E+00
    0.00000E+00         0.00000E+00        -0.78188E+04
 
   -0.94896E+03         0.24959E+04         0.00000E+00
    0.24959E+04        -0.24661E+05         0.00000E+00
    0.00000E+00         0.00000E+00        -0.76830E+04
 
   -0.15391E+04         0.22089E+04         0.00000E+00
    0.22089E+04        -0.23805E+05         0.00000E+00
    0.00000E+00         0.00000E+00        -0.76033E+04
 
   -0.22188E+04         0.19811E+04         0.00000E+00
    0.19811E+04        -0.23035E+05         0.00000E+00
    0.00000E+00         0.00000E+00        -0.75762E+04
 
   -0.30007E+04         0.18094E+04         0.00000E+00
    0.18094E+04        -0.22332E+05         0.00000E+00
    0.00000E+00         0.00000E+00        -0.75999E+04
 
   -0.39021E+04         0.16934E+04         0.00000E+00
    0.16934E+04        -0.21677E+05         0.00000E+00
    0.00000E+00         0.00000E+00        -0.76738E+04
 
   -0.49450E+04         0.16357E+04         0.00000E+00
    0.16357E+04        -0.21051E+05         0.00000E+00
    0.00000E+00         0.00000E+00        -0.77987E+04
 
   -0.61579E+04         0.16424E+04         0.00000E+00
    0.16424E+04        -0.20430E+05         0.00000E+00
    0.00000E+00         0.00000E+00        -0.79765E+04
 
   -0.75765E+04         0.17238E+04         0.00000E+00
    0.17238E+04        -0.19792E+05         0.00000E+00
    0.00000E+00         0.00000E+00        -0.82106E+04
 
   -0.22456E+05         0.17640E+05         0.00000E+00
    0.17640E+05        -0.25090E+05         0.00000E+00
    0.00000E+00         0.00000E+00        -0.14264E+05
 
   -0.25863E+05         0.25944E+05         0.00000E+00
    0.25944E+05        -0.33924E+05         0.00000E+00
    0.00000E+00         0.00000E+00        -0.17936E+05
 
   -0.19349E+05         0.25462E+05         0.00000E+00
    0.25462E+05        -0.37964E+05         0.00000E+00
    0.00000E+00         0.00000E+00        -0.17194E+05
 
   -0.13709E+05         0.23127E+05         0.00000E+00
    0.23127E+05        -0.39340E+05         0.00000E+00
    0.00000E+00         0.00000E+00        -0.15915E+05
 
   -0.92849E+04         0.20259E+05         0.00000E+00
    0.20259E+05        -0.39179E+05         0.00000E+00
    0.00000E+00         0.00000E+00        -0.14539E+05
 
   -0.60600E+04         0.17422E+05         0.00000E+00
    0.17422E+05        -0.38158E+05         0.00000E+00
    0.00000E+00         0.00000E+00        -0.13265E+05
 
   -0.37981E+04         0.14850E+05         0.00000E+00
    0.14850E+05        -0.36693E+05         0.00000E+00
    0.00000E+00         0.00000E+00        -0.12147E+05
 
   -0.22613E+04         0.12620E+05         0.00000E+00
    0.12620E+05        -0.35045E+05         0.00000E+00
    0.00000E+00         0.00000E+00        -0.11192E+05
 
   -0.12530E+04         0.10729E+05         0.00000E+00
    0.10729E+05        -0.33370E+05         0.00000E+00
    0.00000E+00         0.00000E+00        -0.10387E+05
 
   -0.62697E+03         0.91414E+04         0.00000E+00
    0.91414E+04        -0.31756E+05         0.00000E+00
    0.00000E+00         0.00000E+00        -0.97149E+04
 
   -0.27927E+03         0.78138E+04         0.00000E+00
    0.78138E+04        -0.30247E+05         0.00000E+00
    0.00000E+00         0.00000E+00        -0.91579E+04
 
   -0.13802E+03         0.67039E+04         0.00000E+00
    0.67039E+04        -0.28862E+05         0.00000E+00
    0.00000E+00         0.00000E+00        -0.86999E+04
 
   -0.15454E+03         0.57748E+04         0.00000E+00
    0.57748E+04        -0.27604E+05         0.00000E+00
    0.00000E+00         0.00000E+00        -0.83275E+04
 
   -0.29668E+03         0.49961E+04         0.00000E+00
    0.49961E+04        -0.26470E+05         0.00000E+00
    0.00000E+00         0.00000E+00        -0.80299E+04
 
   -0.54415E+03         0.43432E+04         0.00000E+00
    0.43432E+04        -0.25450E+05         0.00000E+00
    0.00000E+00         0.00000E+00        -0.77981E+04
 
   -0.88541E+03         0.37973E+04         0.00000E+00
    0.37973E+04        -0.24533E+05         0.00000E+00
    0.00000E+00         0.00000E+00        -0.76255E+04
 
   -0.13155E+04         0.33438E+04         0.00000E+00
    0.33438E+04        -0.23707E+05         0.00000E+00
    0.00000E+00         0.00000E+00        -0.75069E+04
 
   -0.18350E+04         0.29727E+04         0.00000E+00
    0.29727E+04        -0.22960E+05         0.00000E+00
    0.00000E+00         0.00000E+00        -0.74385E+04
 
   -0.24489E+04         0.26773E+04         0.00000E+00
    0.26773E+04        -0.22277E+05         0.00000E+00
    0.00000E+00         0.00000E+00        -0.74178E+04
 
   -0.31667E+04         0.24546E+04         0.00000E+00
    0.24546E+04        -0.21645E+05         0.00000E+00
    0.00000E+00         0.00000E+00        -0.74435E+04
 
   -0.40021E+04         0.23049E+04         0.00000E+00
    0.23049E+04        -0.21049E+05         0.00000E+00
    0.00000E+00         0.00000E+00        -0.75154E+04
 
   -0.49739E+04         0.22326E+04         0.00000E+00
    0.22326E+04        -0.20473E+05         0.00000E+00
    0.00000E+00         0.00000E+00        -0.76340E+04
 
   -0.61061E+04         0.22459E+04         0.00000E+00
    0.22459E+04        -0.19898E+05         0.00000E+00
    0.00000E+00         0.00000E+00        -0.78013E+04
 
   -0.74293E+04         0.23588E+04         0.00000E+00
    0.23588E+04        -0.19305E+05         0.00000E+00
    0.00000E+00         0.00000E+00        -0.80202E+04
 
   -0.54725E+04         0.32381E+04         0.00000E+00
    0.32381E+04        -0.64083E+03         0.00000E+00
    0.00000E+00         0.00000E+00        -0.18340E+04
 
   -0.20249E+05         0.15274E+05         0.00000E+00
    0.15274E+05        -0.11419E+05         0.00000E+00
    0.00000E+00         0.00000E+00        -0.95004E+04
 
   -0.19184E+05         0.20104E+05         0.00000E+00
    0.20104E+05        -0.19979E+05         0.00000E+00
    0.00000E+00         0.00000E+00        -0.11749E+05
 
   -0.15354E+05         0.20644E+05         0.00000E+00
    0.20644E+05        -0.25155E+05         0.00000E+00
    0.00000E+00         0.00000E+00        -0.12153E+05
 
   -0.11572E+05         0.19462E+05         0.00000E+00
    0.19462E+05        -0.27996E+05         0.00000E+00
    0.00000E+00         0.00000E+00        -0.11870E+05
 
   -0.84349E+04         0.17615E+05         0.00000E+00
    0.17615E+05        -0.29311E+05         0.00000E+00
    0.00000E+00         0.00000E+00        -0.11324E+05
 
   -0.60199E+04         0.15604E+05         0.00000E+00
    0.15604E+05        -0.29660E+05         0.00000E+00
    0.00000E+00         0.00000E+00        -0.10704E+05
 
   -0.42382E+04         0.13665E+05         0.00000E+00
    0.13665E+05        -0.29417E+05         0.00000E+00
    0.00000E+00         0.00000E+00        -0.10097E+05
 
   -0.29672E+04         0.11898E+05         0.00000E+00
    0.11898E+05        -0.28830E+05         0.00000E+00
    0.00000E+00         0.00000E+00        -0.95392E+04
 
   -0.20939E+04         0.10335E+05         0.00000E+00
    0.10335E+05        -0.28059E+05         0.00000E+00
    0.00000E+00         0.00000E+00        -0.90458E+04
 
   -0.15267E+04         0.89743E+04         0.00000E+00
    0.89743E+04        -0.27205E+05         0.00000E+00
    0.00000E+00         0.00000E+00        -0.86194E+04
 
   -0.11958E+04         0.78009E+04         0.00000E+00
    0.78009E+04        -0.26331E+05         0.00000E+00
    0.00000E+00         0.00000E+00        -0.82581E+04
 
   -0.10504E+04         0.67939E+04         0.00000E+00
    0.67939E+04        -0.25475E+05         0.00000E+00
    0.00000E+00         0.00000E+00        -0.79577E+04
 
   -0.10545E+04         0.59329E+04         0.00000E+00
    0.59329E+04        -0.24658E+05         0.00000E+00
    0.00000E+00         0.00000E+00        -0.77138E+04
 
   -0.11835E+04         0.51996E+04         0.00000E+00
    0.51996E+04        -0.23890E+05         0.00000E+00
    0.00000E+00         0.00000E+00        -0.75221E+04
 
   -0.14216E+04         0.45786E+04         0.00000E+00
    0.45786E+04        -0.23175E+05         0.00000E+00
    0.00000E+00         0.00000E+00        -0.73789E+04
 
   -0.17600E+04         0.40579E+04         0.00000E+00
    0.40579E+04        -0.22510E+05         0.00000E+00
    0.00000E+00         0.00000E+00        -0.72810E+04
 
   -0.21955E+04         0.36288E+04         0.00000E+00
    0.36288E+04        -0.21893E+05         0.00000E+00
    0.00000E+00         0.00000E+00        -0.72264E+04
 
   -0.27297E+04         0.32860E+04         0.00000E+00
    0.32860E+04        -0.21315E+05         0.00000E+00
    0.00000E+00         0.00000E+00        -0.72135E+04
 
   -0.33685E+04         0.30277E+04         0.00000E+00
    0.30277E+04        -0.20770E+05         0.00000E+00
    0.00000E+00         0.00000E+00        -0.72415E+04
 
   -0.41220E+04         0.28557E+04         0.00000E+00
    0.28557E+04        -0.20246E+05         0.00000E+00
    0.00000E+00         0.00000E+00        -0.73105E+04
 
   -0.50046E+04         0.27759E+04         0.00000E+00
    0.27759E+04        -0.19733E+05         0.00000E+00
    0.00000E+00         0.00000E+00        -0.74212E+04
 
   -0.60353E+04         0.27992E+04         0.00000E+00
    0.27992E+04        -0.19215E+05         0.00000E+00
    0.00000E+00         0.00000E+00        -0.75752E+04
 
   -0.72383E+04         0.29422E+04         0.00000E+00
    0.29422E+04        -0.18677E+05         0.00000E+00
    0.00000E+00         0.00000E+00        -0.77747E+04
 
    0.48380E+03         0.10065E+04         0.00000E+00
    0.10065E+04        -0.58732E+03         0.00000E+00
    0.00000E+00         0.00000E+00        -0.31055E+02
 
   -0.11756E+05         0.73085E+04         0.00000E+00
    0.73085E+04        -0.33802E+04         0.00000E+00
    0.00000E+00         0.00000E+00        -0.45409E+04
 
   -0.15763E+05         0.13257E+05         0.00000E+00
    0.13257E+05        -0.94780E+04         0.00000E+00
    0.00000E+00         0.00000E+00        -0.75722E+04
 
   -0.14784E+05         0.16060E+05         0.00000E+00
    0.16060E+05        -0.14939E+05         0.00000E+00
    0.00000E+00         0.00000E+00        -0.89170E+04
 
   -0.12399E+05         0.16680E+05         0.00000E+00
    0.16680E+05        -0.18912E+05         0.00000E+00
    0.00000E+00         0.00000E+00        -0.93934E+04
 
   -0.98825E+04         0.16111E+05         0.00000E+00
    0.16111E+05        -0.21529E+05         0.00000E+00
    0.00000E+00         0.00000E+00        -0.94234E+04
 
   -0.76732E+04         0.14962E+05         0.00000E+00
    0.14962E+05        -0.23103E+05         0.00000E+00
    0.00000E+00         0.00000E+00        -0.92328E+04
 
   -0.58849E+04         0.13584E+05         0.00000E+00
    0.13584E+05        -0.23929E+05         0.00000E+00
    0.00000E+00         0.00000E+00        -0.89440E+04
 
   -0.45062E+04         0.12167E+05         0.00000E+00
    0.12167E+05        -0.24240E+05         0.00000E+00
    0.00000E+00         0.00000E+00        -0.86238E+04
 
   -0.34839E+04         0.10813E+05         0.00000E+00
    0.10813E+05        -0.24209E+05         0.00000E+00
    0.00000E+00         0.00000E+00        -0.83080E+04
 
   -0.27578E+04         0.95665E+04         0.00000E+00
    0.95665E+04        -0.23960E+05         0.00000E+00
    0.00000E+00         0.00000E+00        -0.80153E+04
 
   -0.22734E+04         0.84456E+04         0.00000E+00
    0.84456E+04        -0.23577E+05         0.00000E+00
    0.00000E+00         0.00000E+00        -0.77552E+04
 
   -0.19862E+04         0.74521E+04         0.00000E+00
    0.74521E+04        -0.23119E+05         0.00000E+00
    0.00000E+00         0.00000E+00        -0.75316E+04
 
   -0.18621E+04         0.65809E+04         0.00000E+00
    0.65809E+04        -0.22624E+05         0.00000E+00
    0.00000E+00         0.00000E+00        -0.73459E+04
 
   -0.18756E+04         0.58239E+04         0.00000E+00
    0.58239E+04        -0.22118E+05         0.00000E+00
    0.00000E+00         0.00000E+00        -0.71980E+04
 
   -0.20091E+04         0.51728E+04         0.00000E+00
    0.51728E+04        -0.21614E+05         0.00000E+00
    0.00000E+00         0.00000E+00        -0.70871E+04
 
   -0.22514E+04         0.46204E+04         0.00000E+00
    0.46204E+04        -0.21123E+05         0.00000E+00
    0.00000E+00         0.00000E+00        -0.70123E+04
 
   -0.25963E+04         0.41615E+04         0.00000E+00
    0.41615E+04        -0.20647E+05         0.00000E+00
    0.00000E+00         0.00000E+00        -0.69729E+04
 
   -0.30424E+04         0.37935E+04         0.00000E+00
    0.37935E+04        -0.20186E+05         0.00000E+00
    0.00000E+00         0.00000E+00        -0.69685E+04
 
   -0.35922E+04         0.35166E+04         0.00000E+00
    0.35166E+04        -0.19737E+05         0.00000E+00
    0.00000E+00         0.00000E+00        -0.69988E+04
 
   -0.42519E+04         0.33347E+04         0.00000E+00
    0.33347E+04        -0.19295E+05         0.00000E+00
    0.00000E+00         0.00000E+00        -0.70642E+04
 
   -0.50315E+04         0.32555E+04         0.00000E+00
    0.32555E+04        -0.18853E+05         0.00000E+00
    0.00000E+00         0.00000E+00        -0.71654E+04
 
   -0.59443E+04         0.32922E+04         0.00000E+00
    0.32922E+04        -0.18402E+05         0.00000E+00
    0.00000E+00         0.00000E+00        -0.73037E+04
 
   -0.70076E+04         0.34639E+04         0.00000E+00
    0.34639E+04        -0.17929E+05         0.00000E+00
    0.00000E+00         0.00000E+00        -0.74808E+04
 
    0.32284E+04         0.38100E+03         0.00000E+00
    0.38100E+03        -0.78469E+02         0.00000E+00
    0.00000E+00         0.00000E+00         0.94497E+03
 
   -0.63732E+04         0.38495E+04         0.00000E+00
    0.38495E+04        -0.14761E+04         0.00000E+00
    0.00000E+00         0.00000E+00        -0.23548E+04
 
   -0.11414E+05         0.82619E+04         0.00000E+00
    0.82619E+04        -0.46511E+04         0.00000E+00
    0.00000E+00         0.00000E+00        -0.48195E+04
 
   -0.12695E+05         0.11567E+05         0.00000E+00
    0.11567E+05        -0.87192E+04         0.00000E+00
    0.00000E+00         0.00000E+00        -0.64242E+04
 
   -0.11888E+05         0.13263E+05         0.00000E+00
    0.13263E+05        -0.12438E+05         0.00000E+00
    0.00000E+00         0.00000E+00        -0.72978E+04
 
   -0.10309E+05         0.13734E+05         0.00000E+00
    0.13734E+05        -0.15387E+05         0.00000E+00
    0.00000E+00         0.00000E+00        -0.77087E+04
 
   -0.85963E+04         0.13429E+05         0.00000E+00
    0.13429E+05        -0.17539E+05         0.00000E+00
    0.00000E+00         0.00000E+00        -0.78406E+04
 
   -0.70302E+04         0.12684E+05         0.00000E+00
    0.12684E+05        -0.19011E+05         0.00000E+00
    0.00000E+00         0.00000E+00        -0.78124E+04
 
   -0.57125E+04         0.11723E+05         0.00000E+00
    0.11723E+05        -0.19948E+05         0.00000E+00
    0.00000E+00         0.00000E+00        -0.76981E+04
 
   -0.46614E+04         0.10685E+05         0.00000E+00
    0.10685E+05        -0.20484E+05         0.00000E+00
    0.00000E+00         0.00000E+00        -0.75437E+04
 
   -0.38598E+04         0.96526E+04         0.00000E+00
    0.96526E+04        -0.20730E+05         0.00000E+00
    0.00000E+00         0.00000E+00        -0.73769E+04
 
   -0.32785E+04         0.86711E+04         0.00000E+00
    0.86711E+04        -0.20771E+05         0.00000E+00
    0.00000E+00         0.00000E+00        -0.72147E+04
 
   -0.28872E+04         0.77649E+04         0.00000E+00
    0.77649E+04        -0.20670E+05         0.00000E+00
    0.00000E+00         0.00000E+00        -0.70672E+04
 
   -0.26590E+04         0.69449E+04         0.00000E+00
    0.69449E+04        -0.20474E+05         0.00000E+00
    0.00000E+00         0.00000E+00        -0.69401E+04
 
   -0.25719E+04         0.62150E+04         0.00000E+00
    0.62150E+04        -0.20217E+05         0.00000E+00
    0.00000E+00         0.00000E+00        -0.68368E+04
 
   -0.26090E+04         0.55753E+04         0.00000E+00
    0.55753E+04        -0.19922E+05         0.00000E+00
    0.00000E+00         0.00000E+00        -0.67592E+04
 
   -0.27584E+04         0.50252E+04         0.00000E+00
    0.50252E+04        -0.19603E+05         0.00000E+00
    0.00000E+00         0.00000E+00        -0.67083E+04
 
   -0.30125E+04         0.45640E+04         0.00000E+00
    0.45640E+04        -0.19270E+05         0.00000E+00
    0.00000E+00         0.00000E+00        -0.66847E+04
 
   -0.33675E+04         0.41926E+04         0.00000E+00
    0.41926E+04        -0.18929E+05         0.00000E+00
    0.00000E+00         0.00000E+00        -0.66889E+04
 
   -0.38230E+04         0.39142E+04         0.00000E+00
    0.39142E+04        -0.18581E+05         0.00000E+00
    0.00000E+00         0.00000E+00        -0.67212E+04
 
   -0.43816E+04         0.37348E+04         0.00000E+00
    0.37348E+04        -0.18226E+05         0.00000E+00
    0.00000E+00         0.00000E+00        -0.67823E+04
 
   -0.50487E+04         0.36643E+04         0.00000E+00
    0.36643E+04        -0.17861E+05         0.00000E+00
    0.00000E+00         0.00000E+00        -0.68729E+04
 
   -0.58322E+04         0.37177E+04         0.00000E+00
    0.37177E+04        -0.17480E+05         0.00000E+00
    0.00000E+00         0.00000E+00        -0.69938E+04
 
   -0.67423E+04         0.39159E+04         0.00000E+00
    0.39159E+04        -0.17078E+05         0.00000E+00
    0.00000E+00         0.00000E+00        -0.71461E+04
 
    0.45672E+04         0.14594E+03         0.00000E+00
    0.14594E+03        -0.51731E+02         0.00000E+00
    0.00000E+00         0.00000E+00         0.13546E+04
 
   -0.29303E+04         0.21453E+04         0.00000E+00
    0.21453E+04        -0.70712E+03         0.00000E+00
    0.00000E+00         0.00000E+00        -0.10912E+04
 
   -0.78668E+04         0.52211E+04         0.00000E+00
    0.52211E+04        -0.25428E+04         0.00000E+00
    0.00000E+00         0.00000E+00        -0.31229E+04
 
   -0.10167E+05         0.80894E+04         0.00000E+00
    0.80894E+04        -0.52392E+04         0.00000E+00
    0.00000E+00         0.00000E+00        -0.46219E+04
 
   -0.10580E+05         0.10099E+05         0.00000E+00
    0.10099E+05        -0.81870E+04         0.00000E+00
    0.00000E+00         0.00000E+00        -0.56302E+04
 
   -0.99374E+04         0.11170E+05         0.00000E+00
    0.11170E+05        -0.10888E+05         0.00000E+00
    0.00000E+00         0.00000E+00        -0.62477E+04
 
   -0.88444E+04         0.11495E+05         0.00000E+00
    0.11495E+05        -0.13130E+05         0.00000E+00
    0.00000E+00         0.00000E+00        -0.65923E+04
 
   -0.76478E+04         0.11305E+05         0.00000E+00
    0.11305E+05        -0.14873E+05         0.00000E+00
    0.00000E+00         0.00000E+00        -0.67564E+04
 
   -0.65246E+04         0.10795E+05         0.00000E+00
    0.10795E+05        -0.16163E+05         0.00000E+00
    0.00000E+00         0.00000E+00        -0.68063E+04
 
   -0.55535E+04         0.10106E+05         0.00000E+00
    0.10106E+05        -0.17072E+05         0.00000E+00
    0.00000E+00         0.00000E+00        -0.67877E+04
 
   -0.47606E+04         0.93341E+04         0.00000E+00
    0.93341E+04        -0.17678E+05         0.00000E+00
    0.00000E+00         0.00000E+00        -0.67315E+04
 
   -0.41452E+04         0.85437E+04         0.00000E+00
    0.85437E+04        -0.18049E+05         0.00000E+00
    0.00000E+00         0.00000E+00        -0.66582E+04
 
   -0.36956E+04         0.77747E+04         0.00000E+00
    0.77747E+04        -0.18242E+05         0.00000E+00
    0.00000E+00         0.00000E+00        -0.65813E+04
 
   -0.33958E+04         0.70514E+04         0.00000E+00
    0.70514E+04        -0.18304E+05         0.00000E+00
    0.00000E+00         0.00000E+00        -0.65099E+04
 
   -0.32306E+04         0.63885E+04         0.00000E+00
    0.63885E+04        -0.18268E+05         0.00000E+00
    0.00000E+00         0.00000E+00        -0.64496E+04
 
   -0.31863E+04         0.57950E+04         0.00000E+00
    0.57950E+04        -0.18162E+05         0.00000E+00
    0.00000E+00         0.00000E+00        -0.64045E+04
 
   -0.32523E+04         0.52763E+04         0.00000E+00
    0.52763E+04        -0.18004E+05         0.00000E+00
    0.00000E+00         0.00000E+00        -0.63769E+04
 
   -0.34207E+04         0.48372E+04         0.00000E+00
    0.48372E+04        -0.17808E+05         0.00000E+00
    0.00000E+00         0.00000E+00        -0.63688E+04
 
   -0.36864E+04         0.44824E+04         0.00000E+00
    0.44824E+04        -0.17584E+05         0.00000E+00
    0.00000E+00         0.00000E+00        -0.63812E+04
 
   -0.40467E+04         0.42181E+04         0.00000E+00
    0.42181E+04        -0.17337E+05         0.00000E+00
    0.00000E+00         0.00000E+00        -0.64150E+04
 
   -0.45011E+04         0.40528E+04         0.00000E+00
    0.40528E+04        -0.17069E+05         0.00000E+00
    0.00000E+00         0.00000E+00        -0.64711E+04
 
   -0.50508E+04         0.39984E+04         0.00000E+00
    0.39984E+04        -0.16783E+05         0.00000E+00
    0.00000E+00         0.00000E+00        -0.65500E+04
 
   -0.56985E+04         0.40712E+04         0.00000E+00
    0.40712E+04        -0.16476E+05         0.00000E+00
    0.00000E+00         0.00000E+00        -0.66524E+04
 
   -0.64476E+04         0.42934E+04         0.00000E+00
    0.42934E+04        -0.16148E+05         0.00000E+00
    0.00000E+00         0.00000E+00        -0.67787E+04
 
    0.52588E+04         0.27338E+02         0.00000E+00
    0.27338E+02        -0.24468E+02         0.00000E+00
    0.00000E+00         0.00000E+00         0.15703E+04
 
   -0.73792E+03         0.12238E+04         0.00000E+00
    0.12238E+04        -0.39943E+03         0.00000E+00
    0.00000E+00         0.00000E+00        -0.34121E+03
 
   -0.51899E+04         0.33417E+04         0.00000E+00
    0.33417E+04        -0.14984E+04         0.00000E+00
    0.00000E+00         0.00000E+00        -0.20065E+04
 
   -0.78521E+04         0.56212E+04         0.00000E+00
    0.56212E+04        -0.32989E+04         0.00000E+00
    0.00000E+00         0.00000E+00        -0.33453E+04
 
   -0.89936E+04         0.75192E+04         0.00000E+00
    0.75192E+04        -0.54898E+04         0.00000E+00
    0.00000E+00         0.00000E+00        -0.43450E+04
 
   -0.90918E+04         0.88149E+04         0.00000E+00
    0.88149E+04        -0.77328E+04         0.00000E+00
    0.00000E+00         0.00000E+00        -0.50474E+04
 
   -0.85905E+04         0.95156E+04         0.00000E+00
    0.95156E+04        -0.97888E+04         0.00000E+00
    0.00000E+00         0.00000E+00        -0.55138E+04
 
   -0.78122E+04         0.97334E+04         0.00000E+00
    0.97334E+04        -0.11543E+05         0.00000E+00
    0.00000E+00         0.00000E+00        -0.58065E+04
 
   -0.69589E+04         0.96006E+04         0.00000E+00
    0.96006E+04        -0.12965E+05         0.00000E+00
    0.00000E+00         0.00000E+00        -0.59773E+04
 
   -0.61452E+04         0.92343E+04         0.00000E+00
    0.92343E+04        -0.14073E+05         0.00000E+00
    0.00000E+00         0.00000E+00        -0.60656E+04
 
   -0.54295E+04         0.87267E+04         0.00000E+00
    0.87267E+04        -0.14906E+05         0.00000E+00
    0.00000E+00         0.00000E+00        -0.61007E+04
 
   -0.48368E+04         0.81457E+04         0.00000E+00
    0.81457E+04        -0.15508E+05         0.00000E+00
    0.00000E+00         0.00000E+00        -0.61035E+04
 
   -0.43737E+04         0.75393E+04         0.00000E+00
    0.75393E+04        -0.15923E+05         0.00000E+00
    0.00000E+00         0.00000E+00        -0.60890E+04
 
   -0.40371E+04         0.69405E+04         0.00000E+00
    0.69405E+04        -0.16189E+05         0.00000E+00
    0.00000E+00         0.00000E+00        -0.60677E+04
 
   -0.38197E+04         0.63723E+04         0.00000E+00
    0.63723E+04        -0.16337E+05         0.00000E+00
    0.00000E+00         0.00000E+00        -0.60469E+04
 
   -0.37130E+04         0.58502E+04         0.00000E+00
    0.58502E+04        -0.16393E+05         0.00000E+00
    0.00000E+00         0.00000E+00        -0.60318E+04
 
   -0.37090E+04         0.53860E+04         0.00000E+00
    0.53860E+04        -0.16378E+05         0.00000E+00
    0.00000E+00         0.00000E+00        -0.60261E+04
 
   -0.38007E+04         0.49888E+04         0.00000E+00
    0.49888E+04        -0.16307E+05         0.00000E+00
    0.00000E+00         0.00000E+00        -0.60322E+04
 
   -0.39826E+04         0.46672E+04         0.00000E+00
    0.46672E+04        -0.16190E+05         0.00000E+00
    0.00000E+00         0.00000E+00        -0.60519E+04
 
   -0.42506E+04         0.44303E+04         0.00000E+00
    0.44303E+04        -0.16038E+05         0.00000E+00
    0.00000E+00         0.00000E+00        -0.60866E+04
 
   -0.46015E+04         0.42890E+04         0.00000E+00
    0.42890E+04        -0.15855E+05         0.00000E+00
    0.00000E+00         0.00000E+00        -0.61370E+04
 
   -0.50332E+04         0.42569E+04         0.00000E+00
    0.42569E+04        -0.15646E+05         0.00000E+00
    0.00000E+00         0.00000E+00        -0.62037E+04
 
   -0.55434E+04         0.43512E+04         0.00000E+00
    0.43512E+04        -0.15413E+05         0.00000E+00
    0.00000E+00         0.00000E+00        -0.62870E+04
 
   -0.61293E+04         0.45944E+04         0.00000E+00
    0.45944E+04        -0.15160E+05         0.00000E+00
    0.00000E+00         0.00000E+00        -0.63868E+04
 
    0.55918E+04        -0.42970E+02         0.00000E+00
   -0.42970E+02        -0.16182E+02         0.00000E+00
    0.00000E+00         0.00000E+00         0.16727E+04
 
    0.68929E+03         0.67649E+03         0.00000E+00
    0.67649E+03        -0.24495E+03         0.00000E+00
    0.00000E+00         0.00000E+00         0.13330E+03
 
   -0.32312E+04         0.21408E+04         0.00000E+00
    0.21408E+04        -0.94642E+03         0.00000E+00
    0.00000E+00         0.00000E+00        -0.12533E+04
 
   -0.59191E+04         0.38902E+04         0.00000E+00
    0.38902E+04        -0.21683E+04         0.00000E+00
    0.00000E+00         0.00000E+00        -0.24262E+04
 
   -0.74406E+04         0.55283E+04         0.00000E+00
    0.55283E+04        -0.37753E+04         0.00000E+00
    0.00000E+00         0.00000E+00        -0.33648E+04
 
   -0.80449E+04         0.68213E+04         0.00000E+00
    0.68213E+04        -0.55556E+04         0.00000E+00
    0.00000E+00         0.00000E+00        -0.40802E+04
 
   -0.80269E+04         0.76920E+04         0.00000E+00
    0.76920E+04        -0.73192E+04         0.00000E+00
    0.00000E+00         0.00000E+00        -0.46038E+04
 
   -0.76420E+04         0.81648E+04         0.00000E+00
    0.81648E+04        -0.89371E+04         0.00000E+00
    0.00000E+00         0.00000E+00        -0.49737E+04
 
   -0.70788E+04         0.83104E+04         0.00000E+00
    0.83104E+04        -0.10343E+05         0.00000E+00
    0.00000E+00         0.00000E+00        -0.52266E+04
 
   -0.64624E+04         0.82104E+04         0.00000E+00
    0.82104E+04        -0.11516E+05         0.00000E+00
    0.00000E+00         0.00000E+00        -0.53936E+04
 
   -0.58693E+04         0.79400E+04         0.00000E+00
    0.79400E+04        -0.12463E+05         0.00000E+00
    0.00000E+00         0.00000E+00        -0.54998E+04
 
   -0.53426E+04         0.75610E+04         0.00000E+00
    0.75610E+04        -0.13206E+05         0.00000E+00
    0.00000E+00         0.00000E+00        -0.55645E+04
 
   -0.49041E+04         0.71219E+04         0.00000E+00
    0.71219E+04        -0.13771E+05         0.00000E+00
    0.00000E+00         0.00000E+00        -0.56024E+04
 
   -0.45622E+04         0.66594E+04         0.00000E+00
    0.66594E+04        -0.14185E+05         0.00000E+00
    0.00000E+00         0.00000E+00        -0.56242E+04
 
   -0.43180E+04         0.62007E+04         0.00000E+00
    0.62007E+04        -0.14475E+05         0.00000E+00
    0.00000E+00         0.00000E+00        -0.56379E+04
 
   -0.41688E+04         0.57663E+04         0.00000E+00
    0.57663E+04        -0.14663E+05         0.00000E+00
    0.00000E+00         0.00000E+00        -0.56495E+04
 
   -0.41100E+04         0.53722E+04         0.00000E+00
    0.53722E+04        -0.14767E+05         0.00000E+00
    0.00000E+00         0.00000E+00        -0.56631E+04
 
   -0.41364E+04         0.50314E+04         0.00000E+00
    0.50314E+04        -0.14803E+05         0.00000E+00
    0.00000E+00         0.00000E+00        -0.56817E+04
 
   -0.42428E+04         0.47556E+04         0.00000E+00
    0.47556E+04        -0.14783E+05         0.00000E+00
    0.00000E+00         0.00000E+00        -0.57076E+04
 
   -0.44242E+04         0.45566E+04         0.00000E+00
    0.45566E+04        -0.14717E+05         0.00000E+00
    0.00000E+00         0.00000E+00        -0.57423E+04
 
   -0.46758E+04         0.44470E+04         0.00000E+00
    0.44470E+04        -0.14613E+05         0.00000E+00
    0.00000E+00         0.00000E+00        -0.57865E+04
 
   -0.49923E+04         0.44416E+04         0.00000E+00
    0.44416E+04        -0.14477E+05         0.00000E+00
    0.00000E+00         0.00000E+00        -0.58408E+04
 
   -0.53675E+04         0.45584E+04         0.00000E+00
    0.45584E+04        -0.14316E+05         0.00000E+00
    0.00000E+00         0.00000E+00        -0.59050E+04
 
   -0.57934E+04         0.48193E+04         0.00000E+00
    0.48193E+04        -0.14136E+05         0.00000E+00
    0.00000E+00         0.00000E+00        -0.59787E+04
 
    0.57085E+04        -0.88770E+02         0.00000E+00
   -0.88770E+02        -0.10827E+02         0.00000E+00
    0.00000E+00         0.00000E+00         0.17093E+04
 
    0.16230E+04         0.32783E+03         0.00000E+00
    0.32783E+03        -0.16082E+03         0.00000E+00
    0.00000E+00         0.00000E+00         0.43866E+03
 
   -0.18075E+04         0.13418E+04         0.00000E+00
    0.13418E+04        -0.62905E+03         0.00000E+00
    0.00000E+00         0.00000E+00        -0.73097E+03
 
   -0.43725E+04         0.26656E+04         0.00000E+00
    0.26656E+04        -0.14805E+04         0.00000E+00
    0.00000E+00         0.00000E+00        -0.17559E+04
 
   -0.60538E+04         0.40190E+04         0.00000E+00
    0.40190E+04        -0.26617E+04         0.00000E+00
    0.00000E+00         0.00000E+00        -0.26146E+04
 
   -0.69720E+04         0.52009E+04         0.00000E+00
    0.52009E+04        -0.40502E+04         0.00000E+00
    0.00000E+00         0.00000E+00        -0.33067E+04
 
   -0.73105E+04         0.61069E+04         0.00000E+00
    0.61069E+04        -0.55101E+04         0.00000E+00
    0.00000E+00         0.00000E+00        -0.38462E+04
 
   -0.72555E+04         0.67121E+04         0.00000E+00
    0.67121E+04        -0.69295E+04         0.00000E+00
    0.00000E+00         0.00000E+00        -0.42555E+04
 
   -0.69638E+04         0.70408E+04         0.00000E+00
    0.70408E+04        -0.82331E+04         0.00000E+00
    0.00000E+00         0.00000E+00        -0.45591E+04
 
   -0.65530E+04         0.71407E+04         0.00000E+00
    0.71407E+04        -0.93805E+04         0.00000E+00
    0.00000E+00         0.00000E+00        -0.47800E+04
 
   -0.61046E+04         0.70652E+04         0.00000E+00
    0.70652E+04        -0.10357E+05         0.00000E+00
    0.00000E+00         0.00000E+00        -0.49385E+04
 
   -0.56714E+04         0.68649E+04         0.00000E+00
    0.68649E+04        -0.11165E+05         0.00000E+00
    0.00000E+00         0.00000E+00        -0.50510E+04
 
   -0.52851E+04         0.65830E+04         0.00000E+00
    0.65830E+04        -0.11817E+05         0.00000E+00
    0.00000E+00         0.00000E+00        -0.51307E+04
 
   -0.49634E+04         0.62554E+04         0.00000E+00
    0.62554E+04        -0.12330E+05         0.00000E+00
    0.00000E+00         0.00000E+00        -0.51879E+04
 
   -0.47148E+04         0.59105E+04         0.00000E+00
    0.59105E+04        -0.12721E+05         0.00000E+00
    0.00000E+00         0.00000E+00        -0.52306E+04
 
   -0.45417E+04         0.55712E+04         0.00000E+00
    0.55712E+04        -0.13007E+05         0.00000E+00
    0.00000E+00         0.00000E+00        -0.52647E+04
 
   -0.44433E+04         0.52560E+04         0.00000E+00
    0.52560E+04        -0.13205E+05         0.00000E+00
    0.00000E+00         0.00000E+00        -0.52946E+04
 
   -0.44166E+04         0.49806E+04         0.00000E+00
    0.49806E+04        -0.13329E+05         0.00000E+00
    0.00000E+00         0.00000E+00        -0.53238E+04
 
   -0.44573E+04         0.47591E+04         0.00000E+00
    0.47591E+04        -0.13391E+05         0.00000E+00
    0.00000E+00         0.00000E+00        -0.53545E+04
 
   -0.45600E+04         0.46050E+04         0.00000E+00
    0.46050E+04        -0.13401E+05         0.00000E+00
    0.00000E+00         0.00000E+00        -0.53882E+04
 
   -0.47188E+04         0.45324E+04         0.00000E+00
    0.45324E+04        -0.13367E+05         0.00000E+00
    0.00000E+00         0.00000E+00        -0.54259E+04
 
   -0.49260E+04         0.45567E+04         0.00000E+00
    0.45567E+04        -0.13300E+05         0.00000E+00
    0.00000E+00         0.00000E+00        -0.54677E+04
 
   -0.51723E+04         0.46958E+04         0.00000E+00
    0.46958E+04        -0.13206E+05         0.00000E+00
    0.00000E+00         0.00000E+00        -0.55134E+04
 
   -0.54454E+04         0.49708E+04         0.00000E+00
    0.49708E+04        -0.13095E+05         0.00000E+00
    0.00000E+00         0.00000E+00        -0.55620E+04
 
    0.56844E+04        -0.12027E+03         0.00000E+00
   -0.12027E+03        -0.76104E+01         0.00000E+00
    0.00000E+00         0.00000E+00         0.17030E+04
 
    0.22271E+04         0.93853E+02         0.00000E+00
    0.93853E+02        -0.11014E+03         0.00000E+00
    0.00000E+00         0.00000E+00         0.63507E+03
 
   -0.77696E+03         0.79119E+03         0.00000E+00
    0.79119E+03        -0.43457E+03         0.00000E+00
    0.00000E+00         0.00000E+00        -0.36346E+03
 
   -0.31596E+04         0.17849E+04         0.00000E+00
    0.17849E+04        -0.10420E+04         0.00000E+00
    0.00000E+00         0.00000E+00        -0.12605E+04
 
   -0.48725E+04         0.28777E+04         0.00000E+00
    0.28777E+04        -0.19185E+04         0.00000E+00
    0.00000E+00         0.00000E+00        -0.20373E+04
 
   -0.59657E+04         0.39084E+04         0.00000E+00
    0.39084E+04        -0.29957E+04         0.00000E+00
    0.00000E+00         0.00000E+00        -0.26884E+04
 
   -0.65484E+04         0.47736E+04         0.00000E+00
    0.47736E+04        -0.41825E+04         0.00000E+00
    0.00000E+00         0.00000E+00        -0.32193E+04
 
   -0.67493E+04         0.54259E+04         0.00000E+00
    0.54259E+04        -0.53912E+04         0.00000E+00
    0.00000E+00         0.00000E+00        -0.36421E+04
 
   -0.66900E+04         0.58603E+04         0.00000E+00
    0.58603E+04        -0.65527E+04         0.00000E+00
    0.00000E+00         0.00000E+00        -0.39728E+04
 
   -0.64716E+04         0.60976E+04         0.00000E+00
    0.60976E+04        -0.76204E+04         0.00000E+00
    0.00000E+00         0.00000E+00        -0.42276E+04
 
   -0.61712E+04         0.61713E+04         0.00000E+00
    0.61713E+04        -0.85684E+04         0.00000E+00
    0.00000E+00         0.00000E+00        -0.44219E+04
 
   -0.58439E+04         0.61186E+04         0.00000E+00
    0.61186E+04        -0.93865E+04         0.00000E+00
    0.00000E+00         0.00000E+00        -0.45691E+04
 
   -0.55268E+04         0.59749E+04         0.00000E+00
    0.59749E+04        -0.10075E+05         0.00000E+00
    0.00000E+00         0.00000E+00        -0.46806E+04
 
   -0.52435E+04         0.57719E+04         0.00000E+00
    0.57719E+04        -0.10642E+05         0.00000E+00
    0.00000E+00         0.00000E+00        -0.47655E+04
 
   -0.50078E+04         0.55370E+04         0.00000E+00
    0.55370E+04        -0.11096E+05         0.00000E+00
    0.00000E+00         0.00000E+00        -0.48312E+04
 
   -0.48267E+04         0.52930E+04         0.00000E+00
    0.52930E+04        -0.11452E+05         0.00000E+00
    0.00000E+00         0.00000E+00        -0.48835E+04
 
   -0.47027E+04         0.50596E+04         0.00000E+00
    0.50596E+04        -0.11720E+05         0.00000E+00
    0.00000E+00         0.00000E+00        -0.49267E+04
 
   -0.46349E+04         0.48537E+04         0.00000E+00
    0.48537E+04        -0.11912E+05         0.00000E+00
    0.00000E+00         0.00000E+00        -0.49641E+04
 
   -0.46201E+04         0.46908E+04         0.00000E+00
    0.46908E+04        -0.12040E+05         0.00000E+00
    0.00000E+00         0.00000E+00        -0.49980E+04
 
   -0.46532E+04         0.45856E+04         0.00000E+00
    0.45856E+04        -0.12113E+05         0.00000E+00
    0.00000E+00         0.00000E+00        -0.50300E+04
 
   -0.47273E+04         0.45527E+04         0.00000E+00
    0.45527E+04        -0.12142E+05         0.00000E+00
    0.00000E+00         0.00000E+00        -0.50608E+04
 
   -0.48334E+04         0.46078E+04         0.00000E+00
    0.46078E+04        -0.12135E+05         0.00000E+00
    0.00000E+00         0.00000E+00        -0.50905E+04
 
   -0.49598E+04         0.47683E+04         0.00000E+00
    0.47683E+04        -0.12102E+05         0.00000E+00
    0.00000E+00         0.00000E+00        -0.51186E+04
 
   -0.50909E+04         0.50536E+04         0.00000E+00
    0.50536E+04        -0.12055E+05         0.00000E+00
    0.00000E+00         0.00000E+00        -0.51438E+04
 
    0.55643E+04        -0.14254E+03         0.00000E+00
   -0.14254E+03        -0.53454E+01         0.00000E+00
    0.00000E+00         0.00000E+00         0.16677E+04
 
    0.26027E+04        -0.68984E+02         0.00000E+00
   -0.68984E+02        -0.77427E+02         0.00000E+00
    0.00000E+00         0.00000E+00         0.75757E+03
 
   -0.36031E+02         0.40075E+03         0.00000E+00
    0.40075E+03        -0.30827E+03         0.00000E+00
    0.00000E+00         0.00000E+00        -0.10329E+03
 
   -0.22197E+04         0.11409E+04         0.00000E+00
    0.11409E+04        -0.75033E+03         0.00000E+00
    0.00000E+00         0.00000E+00        -0.89101E+03
 
   -0.38923E+04         0.20109E+04         0.00000E+00
    0.20109E+04        -0.14076E+04         0.00000E+00
    0.00000E+00         0.00000E+00        -0.15900E+04
 
   -0.50669E+04         0.28854E+04         0.00000E+00
    0.28854E+04        -0.22438E+04         0.00000E+00
    0.00000E+00         0.00000E+00        -0.21932E+04
 
   -0.58052E+04         0.36727E+04         0.00000E+00
    0.36727E+04        -0.31997E+04         0.00000E+00
    0.00000E+00         0.00000E+00        -0.27015E+04
 
   -0.61929E+04         0.43186E+04         0.00000E+00
    0.43186E+04        -0.42108E+04         0.00000E+00
    0.00000E+00         0.00000E+00        -0.31211E+04
 
   -0.63201E+04         0.48018E+04         0.00000E+00
    0.48018E+04        -0.52192E+04         0.00000E+00
    0.00000E+00         0.00000E+00        -0.34618E+04
 
   -0.62689E+04         0.51251E+04         0.00000E+00
    0.51251E+04        -0.61805E+04         0.00000E+00
    0.00000E+00         0.00000E+00        -0.37348E+04
 
   -0.61069E+04         0.53057E+04         0.00000E+00
    0.53057E+04        -0.70645E+04         0.00000E+00
    0.00000E+00         0.00000E+00        -0.39514E+04
 
   -0.58867E+04         0.53682E+04         0.00000E+00
    0.53682E+04        -0.78539E+04         0.00000E+00
    0.00000E+00         0.00000E+00        -0.41222E+04
 
   -0.56462E+04         0.53395E+04         0.00000E+00
    0.53395E+04        -0.85415E+04         0.00000E+00
    0.00000E+00         0.00000E+00        -0.42563E+04
 
   -0.54121E+04         0.52459E+04         0.00000E+00
    0.52459E+04        -0.91269E+04         0.00000E+00
    0.00000E+00         0.00000E+00        -0.43617E+04
 
   -0.52015E+04         0.51114E+04         0.00000E+00
    0.51114E+04        -0.96146E+04         0.00000E+00
    0.00000E+00         0.00000E+00        -0.44448E+04
 
   -0.50248E+04         0.49578E+04         0.00000E+00
    0.49578E+04        -0.10012E+05         0.00000E+00
    0.00000E+00         0.00000E+00        -0.45110E+04
 
   -0.48868E+04         0.48042E+04         0.00000E+00
    0.48042E+04        -0.10327E+05         0.00000E+00
    0.00000E+00         0.00000E+00        -0.45642E+04
 
   -0.47888E+04         0.46677E+04         0.00000E+00
    0.46677E+04        -0.10570E+05         0.00000E+00
    0.00000E+00         0.00000E+00        -0.46075E+04
 
   -0.47286E+04         0.45643E+04         0.00000E+00
    0.45643E+04        -0.10749E+05         0.00000E+00
    0.00000E+00         0.00000E+00        -0.46432E+04
 
   -0.47015E+04         0.45089E+04         0.00000E+00
    0.45089E+04        -0.10874E+05         0.00000E+00
    0.00000E+00         0.00000E+00        -0.46727E+04
 
   -0.47004E+04         0.45163E+04         0.00000E+00
    0.45163E+04        -0.10955E+05         0.00000E+00
    0.00000E+00         0.00000E+00        -0.46965E+04
 
   -0.47152E+04         0.46018E+04         0.00000E+00
    0.46018E+04        -0.11000E+05         0.00000E+00
    0.00000E+00         0.00000E+00        -0.47147E+04
 
   -0.47326E+04         0.47817E+04         0.00000E+00
    0.47817E+04        -0.11022E+05         0.00000E+00
    0.00000E+00         0.00000E+00        -0.47265E+04
 
   -0.47350E+04         0.50735E+04         0.00000E+00
    0.50735E+04        -0.11033E+05         0.00000E+00
    0.00000E+00         0.00000E+00        -0.47303E+04
 
    0.53769E+04        -0.15837E+03         0.00000E+00
   -0.15837E+03        -0.36588E+01         0.00000E+00
    0.00000E+00         0.00000E+00         0.16120E+04
 
    0.28156E+04        -0.18496E+03         0.00000E+00
   -0.18496E+03        -0.54953E+02         0.00000E+00
    0.00000E+00         0.00000E+00         0.82820E+03
 
    0.48930E+03         0.11802E+03         0.00000E+00
    0.11802E+03        -0.22208E+03         0.00000E+00
    0.00000E+00         0.00000E+00         0.80167E+02
 
   -0.14981E+04         0.66307E+03         0.00000E+00
    0.66307E+03        -0.54858E+03         0.00000E+00
    0.00000E+00         0.00000E+00        -0.61400E+03
 
   -0.30922E+04         0.13485E+04         0.00000E+00
    0.13485E+04        -0.10460E+04         0.00000E+00
    0.00000E+00         0.00000E+00        -0.12415E+04
 
   -0.42873E+04         0.20777E+04         0.00000E+00
    0.20777E+04        -0.16967E+04         0.00000E+00
    0.00000E+00         0.00000E+00        -0.17952E+04
 
   -0.51154E+04         0.27732E+04         0.00000E+00
    0.27732E+04        -0.24633E+04         0.00000E+00
    0.00000E+00         0.00000E+00        -0.22736E+04
 
   -0.56319E+04         0.33820E+04         0.00000E+00
    0.33820E+04        -0.32997E+04         0.00000E+00
    0.00000E+00         0.00000E+00        -0.26795E+04
 
   -0.59013E+04         0.38758E+04         0.00000E+00
    0.38758E+04        -0.41603E+04         0.00000E+00
    0.00000E+00         0.00000E+00        -0.30185E+04
 
   -0.59875E+04         0.42459E+04         0.00000E+00
    0.42459E+04        -0.50061E+04         0.00000E+00
    0.00000E+00         0.00000E+00        -0.32981E+04
 
   -0.59471E+04         0.44977E+04         0.00000E+00
    0.44977E+04        -0.58074E+04         0.00000E+00
    0.00000E+00         0.00000E+00        -0.35264E+04
 
   -0.58269E+04         0.46457E+04         0.00000E+00
    0.46457E+04        -0.65441E+04         0.00000E+00
    0.00000E+00         0.00000E+00        -0.37113E+04
 
   -0.56632E+04         0.47084E+04         0.00000E+00
    0.47084E+04        -0.72042E+04         0.00000E+00
    0.00000E+00         0.00000E+00        -0.38602E+04
 
   -0.54829E+04         0.47065E+04         0.00000E+00
    0.47065E+04        -0.77825E+04         0.00000E+00
    0.00000E+00         0.00000E+00        -0.39796E+04
 
   -0.53048E+04         0.46600E+04         0.00000E+00
    0.46600E+04        -0.82786E+04         0.00000E+00
    0.00000E+00         0.00000E+00        -0.40750E+04
 
   -0.51410E+04         0.45883E+04         0.00000E+00
    0.45883E+04        -0.86957E+04         0.00000E+00
    0.00000E+00         0.00000E+00        -0.41510E+04
 
   -0.49984E+04         0.45090E+04         0.00000E+00
    0.45090E+04        -0.90390E+04         0.00000E+00
    0.00000E+00         0.00000E+00        -0.42112E+04
 
   -0.48794E+04         0.44387E+04         0.00000E+00
    0.44387E+04        -0.93151E+04         0.00000E+00
    0.00000E+00         0.00000E+00        -0.42584E+04
 
   -0.47831E+04         0.43927E+04         0.00000E+00
    0.43927E+04        -0.95317E+04         0.00000E+00
    0.00000E+00         0.00000E+00        -0.42945E+04
 
   -0.47053E+04         0.43857E+04         0.00000E+00
    0.43857E+04        -0.96970E+04         0.00000E+00
    0.00000E+00         0.00000E+00        -0.43207E+04
 
   -0.46388E+04         0.44320E+04         0.00000E+00
    0.44320E+04        -0.98200E+04         0.00000E+00
    0.00000E+00         0.00000E+00        -0.43376E+04
 
   -0.45730E+04         0.45461E+04         0.00000E+00
    0.45461E+04        -0.99105E+04         0.00000E+00
    0.00000E+00         0.00000E+00        -0.43450E+04
 
   -0.44937E+04         0.47428E+04         0.00000E+00
    0.47428E+04        -0.99796E+04         0.00000E+00
    0.00000E+00         0.00000E+00        -0.43420E+04
 
   -0.43823E+04         0.50375E+04         0.00000E+00
    0.50375E+04        -0.10040E+05         0.00000E+00
    0.00000E+00         0.00000E+00        -0.43268E+04
 
    0.51416E+04        -0.16940E+03         0.00000E+00
   -0.16940E+03        -0.23274E+01         0.00000E+00
    0.00000E+00         0.00000E+00         0.15418E+04
 
    0.29103E+04        -0.26847E+03         0.00000E+00
   -0.26847E+03        -0.38716E+02         0.00000E+00
    0.00000E+00         0.00000E+00         0.86147E+03
 
    0.85235E+03        -0.89512E+02         0.00000E+00
   -0.89512E+02        -0.16069E+03         0.00000E+00
    0.00000E+00         0.00000E+00         0.20750E+03
 
   -0.94975E+03         0.30478E+03         0.00000E+00
    0.30478E+03        -0.40405E+03         0.00000E+00
    0.00000E+00         0.00000E+00        -0.40614E+03
 
   -0.24467E+04         0.83947E+03         0.00000E+00
    0.83947E+03        -0.78296E+03         0.00000E+00
    0.00000E+00         0.00000E+00        -0.96891E+03
 
   -0.36237E+04         0.14401E+04         0.00000E+00
    0.14401E+04        -0.12905E+04         0.00000E+00
    0.00000E+00         0.00000E+00        -0.14743E+04
 
   -0.44946E+04         0.20427E+04         0.00000E+00
    0.20427E+04        -0.19038E+04         0.00000E+00
    0.00000E+00         0.00000E+00        -0.19195E+04
 
   -0.50938E+04         0.25993E+04         0.00000E+00
    0.25993E+04        -0.25906E+04         0.00000E+00
    0.00000E+00         0.00000E+00        -0.23053E+04
 
   -0.54664E+04         0.30794E+04         0.00000E+00
    0.30794E+04        -0.33161E+04         0.00000E+00
    0.00000E+00         0.00000E+00        -0.26347E+04
 
   -0.56604E+04         0.34681E+04         0.00000E+00
    0.34681E+04        -0.40481E+04         0.00000E+00
    0.00000E+00         0.00000E+00        -0.29126E+04
 
   -0.57217E+04         0.37633E+04         0.00000E+00
    0.37633E+04        -0.47596E+04         0.00000E+00
    0.00000E+00         0.00000E+00        -0.31444E+04
 
   -0.56899E+04         0.39711E+04         0.00000E+00
    0.39711E+04        -0.54303E+04         0.00000E+00
    0.00000E+00         0.00000E+00        -0.33361E+04
 
   -0.55980E+04         0.41036E+04         0.00000E+00
    0.41036E+04        -0.60462E+04         0.00000E+00
    0.00000E+00         0.00000E+00        -0.34933E+04
 
   -0.54714E+04         0.41757E+04         0.00000E+00
    0.41757E+04        -0.65992E+04         0.00000E+00
    0.00000E+00         0.00000E+00        -0.36212E+04
 
   -0.53289E+04         0.42034E+04         0.00000E+00
    0.42034E+04        -0.70855E+04         0.00000E+00
    0.00000E+00         0.00000E+00        -0.37243E+04
 
   -0.51834E+04         0.42031E+04         0.00000E+00
    0.42031E+04        -0.75050E+04         0.00000E+00
    0.00000E+00         0.00000E+00        -0.38065E+04
 
   -0.50428E+04         0.41905E+04         0.00000E+00
    0.41905E+04        -0.78604E+04         0.00000E+00
    0.00000E+00         0.00000E+00        -0.38710E+04
 
   -0.49106E+04         0.41807E+04         0.00000E+00
    0.41807E+04        -0.81560E+04         0.00000E+00
    0.00000E+00         0.00000E+00        -0.39200E+04
 
   -0.47865E+04         0.41880E+04         0.00000E+00
    0.41880E+04        -0.83977E+04         0.00000E+00
    0.00000E+00         0.00000E+00        -0.39553E+04
 
   -0.46668E+04         0.42262E+04         0.00000E+00
    0.42262E+04        -0.85926E+04         0.00000E+00
    0.00000E+00         0.00000E+00        -0.39778E+04
 
   -0.45446E+04         0.43086E+04         0.00000E+00
    0.43086E+04        -0.87488E+04         0.00000E+00
    0.00000E+00         0.00000E+00        -0.39880E+04
 
   -0.44092E+04         0.44484E+04         0.00000E+00
    0.44484E+04        -0.88759E+04         0.00000E+00
    0.00000E+00         0.00000E+00        -0.39855E+04
 
   -0.42462E+04         0.46589E+04         0.00000E+00
    0.46589E+04        -0.89848E+04         0.00000E+00
    0.00000E+00         0.00000E+00        -0.39693E+04
 
   -0.40367E+04         0.49530E+04         0.00000E+00
    0.49530E+04        -0.90886E+04         0.00000E+00
    0.00000E+00         0.00000E+00        -0.39376E+04
 
    0.48723E+04        -0.17669E+03         0.00000E+00
   -0.17669E+03        -0.12374E+01         0.00000E+00
    0.00000E+00         0.00000E+00         0.14613E+04
 
    0.29178E+04        -0.32849E+03         0.00000E+00
   -0.32849E+03        -0.26489E+02         0.00000E+00
    0.00000E+00         0.00000E+00         0.86740E+03
 
    0.10920E+04        -0.24273E+03         0.00000E+00
   -0.24273E+03        -0.11535E+03         0.00000E+00
    0.00000E+00         0.00000E+00         0.29300E+03
 
   -0.53876E+03         0.34450E+02         0.00000E+00
    0.34450E+02        -0.29728E+03         0.00000E+00
    0.00000E+00         0.00000E+00        -0.25081E+03
 
   -0.19311E+04         0.44689E+03         0.00000E+00
    0.44689E+03        -0.58679E+03         0.00000E+00
    0.00000E+00         0.00000E+00        -0.75537E+03
 
   -0.30662E+04         0.93681E+03         0.00000E+00
    0.93681E+03        -0.98308E+03         0.00000E+00
    0.00000E+00         0.00000E+00        -0.12148E+04
 
   -0.39471E+04         0.14520E+04         0.00000E+00
    0.14520E+04        -0.14726E+04         0.00000E+00
    0.00000E+00         0.00000E+00        -0.16259E+04
 
   -0.45938E+04         0.19506E+04         0.00000E+00
    0.19506E+04        -0.20333E+04         0.00000E+00
    0.00000E+00         0.00000E+00        -0.19882E+04
 
   -0.50370E+04         0.24029E+04         0.00000E+00
    0.24029E+04        -0.26394E+04         0.00000E+00
    0.00000E+00         0.00000E+00        -0.23029E+04
 
   -0.53120E+04         0.27913E+04         0.00000E+00
    0.27913E+04        -0.32650E+04         0.00000E+00
    0.00000E+00         0.00000E+00        -0.25731E+04
 
   -0.54546E+04         0.31087E+04         0.00000E+00
    0.31087E+04        -0.38869E+04         0.00000E+00
    0.00000E+00         0.00000E+00        -0.28024E+04
 
   -0.54975E+04         0.33558E+04         0.00000E+00
    0.33558E+04        -0.44862E+04         0.00000E+00
    0.00000E+00         0.00000E+00        -0.29951E+04
 
   -0.54693E+04         0.35391E+04         0.00000E+00
    0.35391E+04        -0.50486E+04         0.00000E+00
    0.00000E+00         0.00000E+00        -0.31554E+04
 
   -0.53929E+04         0.36688E+04         0.00000E+00
    0.36688E+04        -0.55644E+04         0.00000E+00
    0.00000E+00         0.00000E+00        -0.32872E+04
 
   -0.52860E+04         0.37571E+04         0.00000E+00
    0.37571E+04        -0.60280E+04         0.00000E+00
    0.00000E+00         0.00000E+00        -0.33942E+04
 
   -0.51615E+04         0.38171E+04         0.00000E+00
    0.38171E+04        -0.64371E+04         0.00000E+00
    0.00000E+00         0.00000E+00        -0.34796E+04
 
   -0.50274E+04         0.38623E+04         0.00000E+00
    0.38623E+04        -0.67922E+04         0.00000E+00
    0.00000E+00         0.00000E+00        -0.35459E+04
 
   -0.48878E+04         0.39060E+04         0.00000E+00
    0.39060E+04        -0.70957E+04         0.00000E+00
    0.00000E+00         0.00000E+00        -0.35951E+04
 
   -0.47429E+04         0.39609E+04         0.00000E+00
    0.39609E+04        -0.73521E+04         0.00000E+00
    0.00000E+00         0.00000E+00        -0.36285E+04
 
   -0.45896E+04         0.40397E+04         0.00000E+00
    0.40397E+04        -0.75673E+04         0.00000E+00
    0.00000E+00         0.00000E+00        -0.36471E+04
 
   -0.44211E+04         0.41543E+04         0.00000E+00
    0.41543E+04        -0.77484E+04         0.00000E+00
    0.00000E+00         0.00000E+00        -0.36508E+04
 
   -0.42271E+04         0.43163E+04         0.00000E+00
    0.43163E+04        -0.79044E+04         0.00000E+00
    0.00000E+00         0.00000E+00        -0.36395E+04
 
   -0.39935E+04         0.45372E+04         0.00000E+00
    0.45372E+04        -0.80458E+04         0.00000E+00
    0.00000E+00         0.00000E+00        -0.36118E+04
 
   -0.37016E+04         0.48275E+04         0.00000E+00
    0.48275E+04        -0.81854E+04         0.00000E+00
    0.00000E+00         0.00000E+00        -0.35661E+04
 
    0.45796E+04        -0.18097E+03         0.00000E+00
   -0.18097E+03        -0.32345E+00         0.00000E+00
    0.00000E+00         0.00000E+00         0.13738E+04
 
    0.28607E+04        -0.37089E+03         0.00000E+00
   -0.37089E+03        -0.16979E+02         0.00000E+00
    0.00000E+00         0.00000E+00         0.85311E+03
 
    0.12372E+04        -0.35557E+03         0.00000E+00
   -0.35557E+03        -0.80831E+02         0.00000E+00
    0.00000E+00         0.00000E+00         0.34692E+03
 
   -0.23669E+03        -0.16971E+03         0.00000E+00
   -0.16971E+03        -0.21630E+03         0.00000E+00
    0.00000E+00         0.00000E+00        -0.13590E+03
 
   -0.15232E+04         0.14387E+03         0.00000E+00
    0.14387E+03        -0.43722E+03         0.00000E+00
    0.00000E+00         0.00000E+00        -0.58814E+03
 
   -0.26024E+04         0.53998E+03         0.00000E+00
    0.53998E+03        -0.74616E+03         0.00000E+00
    0.00000E+00         0.00000E+00        -0.10046E+04
 
   -0.34708E+04         0.97618E+03         0.00000E+00
    0.97618E+03        -0.11357E+04         0.00000E+00
    0.00000E+00         0.00000E+00        -0.13820E+04
 
   -0.41389E+04         0.14166E+04         0.00000E+00
    0.14166E+04        -0.15912E+04         0.00000E+00
    0.00000E+00         0.00000E+00        -0.17190E+04
 
   -0.46266E+04         0.18338E+04         0.00000E+00
    0.18338E+04        -0.20937E+04         0.00000E+00
    0.00000E+00         0.00000E+00        -0.20161E+04
 
   -0.49593E+04         0.22097E+04         0.00000E+00
    0.22097E+04        -0.26230E+04         0.00000E+00
    0.00000E+00         0.00000E+00        -0.22747E+04
 
   -0.51642E+04         0.25343E+04         0.00000E+00
    0.25343E+04        -0.31597E+04         0.00000E+00
    0.00000E+00         0.00000E+00        -0.24972E+04
 
   -0.52678E+04         0.28045E+04         0.00000E+00
    0.28045E+04        -0.36873E+04         0.00000E+00
    0.00000E+00         0.00000E+00        -0.26865E+04
 
   -0.52936E+04         0.30230E+04         0.00000E+00
    0.30230E+04        -0.41921E+04         0.00000E+00
    0.00000E+00         0.00000E+00        -0.28457E+04
 
   -0.52618E+04         0.31958E+04         0.00000E+00
    0.31958E+04        -0.46641E+04         0.00000E+00
    0.00000E+00         0.00000E+00        -0.29778E+04
 
   -0.51884E+04         0.33317E+04         0.00000E+00
    0.33317E+04        -0.50968E+04         0.00000E+00
    0.00000E+00         0.00000E+00        -0.30856E+04
 
   -0.50853E+04         0.34411E+04         0.00000E+00
    0.34411E+04        -0.54864E+04         0.00000E+00
    0.00000E+00         0.00000E+00        -0.31715E+04
 
   -0.49604E+04         0.35349E+04         0.00000E+00
    0.35349E+04        -0.58319E+04         0.00000E+00
    0.00000E+00         0.00000E+00        -0.32377E+04
 
   -0.48177E+04         0.36243E+04         0.00000E+00
    0.36243E+04        -0.61344E+04         0.00000E+00
    0.00000E+00         0.00000E+00        -0.32856E+04
 
   -0.46580E+04         0.37206E+04         0.00000E+00
    0.37206E+04        -0.63970E+04         0.00000E+00
    0.00000E+00         0.00000E+00        -0.33165E+04
 
   -0.44783E+04         0.38345E+04         0.00000E+00
    0.38345E+04        -0.66244E+04         0.00000E+00
    0.00000E+00         0.00000E+00        -0.33308E+04
 
   -0.42724E+04         0.39766E+04         0.00000E+00
    0.39766E+04        -0.68230E+04         0.00000E+00
    0.00000E+00         0.00000E+00        -0.33286E+04
 
   -0.40304E+04         0.41569E+04         0.00000E+00
    0.41569E+04        -0.70010E+04         0.00000E+00
    0.00000E+00         0.00000E+00        -0.33094E+04
 
   -0.37388E+04         0.43848E+04         0.00000E+00
    0.43848E+04        -0.71681E+04         0.00000E+00
    0.00000E+00         0.00000E+00        -0.32721E+04
 
   -0.33799E+04         0.46685E+04         0.00000E+00
    0.46685E+04        -0.73364E+04         0.00000E+00
    0.00000E+00         0.00000E+00        -0.32149E+04
 
    0.42715E+04        -0.18276E+03         0.00000E+00
   -0.18276E+03         0.45271E+00         0.00000E+00
    0.00000E+00         0.00000E+00         0.12816E+04
 
    0.27556E+04        -0.39972E+03         0.00000E+00
   -0.39972E+03        -0.94025E+01         0.00000E+00
    0.00000E+00         0.00000E+00         0.82386E+03
 
    0.13099E+04        -0.43763E+03         0.00000E+00
   -0.43763E+03        -0.53924E+02         0.00000E+00
    0.00000E+00         0.00000E+00         0.37678E+03
 
   -0.21065E+02        -0.32314E+03         0.00000E+00
   -0.32314E+03        -0.15354E+03         0.00000E+00
    0.00000E+00         0.00000E+00        -0.52383E+02
 
   -0.12042E+04        -0.89356E+02         0.00000E+00
   -0.89356E+02        -0.32104E+03         0.00000E+00
    0.00000E+00         0.00000E+00        -0.45757E+03
 
   -0.22197E+04         0.22804E+03         0.00000E+00
    0.22804E+03        -0.56078E+03         0.00000E+00
    0.00000E+00         0.00000E+00        -0.83414E+03
 
   -0.30606E+04         0.59455E+03         0.00000E+00
    0.59455E+03        -0.86938E+03         0.00000E+00
    0.00000E+00         0.00000E+00        -0.11790E+04
 
   -0.37308E+04         0.97975E+03         0.00000E+00
    0.97975E+03        -0.12373E+04         0.00000E+00
    0.00000E+00         0.00000E+00        -0.14904E+04
 
   -0.42426E+04         0.13592E+04         0.00000E+00
    0.13592E+04        -0.16509E+04         0.00000E+00
    0.00000E+00         0.00000E+00        -0.17681E+04
 
   -0.46137E+04         0.17151E+04         0.00000E+00
    0.17151E+04        -0.20948E+04         0.00000E+00
    0.00000E+00         0.00000E+00        -0.20125E+04
 
   -0.48642E+04         0.20364E+04         0.00000E+00
    0.20364E+04        -0.25532E+04         0.00000E+00
    0.00000E+00         0.00000E+00        -0.22252E+04
 
   -0.50148E+04         0.23177E+04         0.00000E+00
    0.23177E+04        -0.30119E+04         0.00000E+00
    0.00000E+00         0.00000E+00        -0.24080E+04
 
   -0.50848E+04         0.25586E+04         0.00000E+00
    0.25586E+04        -0.34588E+04         0.00000E+00
    0.00000E+00         0.00000E+00        -0.25631E+04
 
   -0.50910E+04         0.27623E+04         0.00000E+00
    0.27623E+04        -0.38842E+04         0.00000E+00
    0.00000E+00         0.00000E+00        -0.26926E+04
 
   -0.50475E+04         0.29345E+04         0.00000E+00
    0.29345E+04        -0.42812E+04         0.00000E+00
    0.00000E+00         0.00000E+00        -0.27986E+04
 
   -0.49648E+04         0.30829E+04         0.00000E+00
    0.30829E+04        -0.46454E+04         0.00000E+00
    0.00000E+00         0.00000E+00        -0.28831E+04
 
   -0.48502E+04         0.32162E+04         0.00000E+00
    0.32162E+04        -0.49748E+04         0.00000E+00
    0.00000E+00         0.00000E+00        -0.29475E+04
 
   -0.47076E+04         0.33435E+04         0.00000E+00
    0.33435E+04        -0.52695E+04         0.00000E+00
    0.00000E+00         0.00000E+00        -0.29932E+04
 
   -0.45378E+04         0.34743E+04         0.00000E+00
    0.34743E+04        -0.55316E+04         0.00000E+00
    0.00000E+00         0.00000E+00        -0.30208E+04
 
   -0.43381E+04         0.36176E+04         0.00000E+00
    0.36176E+04        -0.57648E+04         0.00000E+00
    0.00000E+00         0.00000E+00        -0.30309E+04
 
   -0.41028E+04         0.37824E+04         0.00000E+00
    0.37824E+04        -0.59746E+04         0.00000E+00
    0.00000E+00         0.00000E+00        -0.30232E+04
 
   -0.38226E+04         0.39768E+04         0.00000E+00
    0.39768E+04        -0.61682E+04         0.00000E+00
    0.00000E+00         0.00000E+00        -0.29973E+04
 
   -0.34850E+04         0.42082E+04         0.00000E+00
    0.42082E+04        -0.63548E+04         0.00000E+00
    0.00000E+00         0.00000E+00        -0.29519E+04
 
   -0.30735E+04         0.44829E+04         0.00000E+00
    0.44829E+04        -0.65452E+04         0.00000E+00
    0.00000E+00         0.00000E+00        -0.28856E+04
 
    0.39545E+04        -0.18246E+03         0.00000E+00
   -0.18246E+03         0.11146E+01         0.00000E+00
    0.00000E+00         0.00000E+00         0.11867E+04
 
    0.26153E+04        -0.41785E+03         0.00000E+00
   -0.41785E+03        -0.32694E+01         0.00000E+00
    0.00000E+00         0.00000E+00         0.78362E+03
 
    0.13267E+04        -0.49576E+03         0.00000E+00
   -0.49576E+03        -0.32572E+02         0.00000E+00
    0.00000E+00         0.00000E+00         0.38823E+03
 
    0.12595E+03        -0.43700E+03         0.00000E+00
   -0.43700E+03        -0.10408E+03         0.00000E+00
    0.00000E+00         0.00000E+00         0.65611E+01
 
   -0.95804E+03        -0.26753E+03         0.00000E+00
   -0.26753E+03        -0.22941E+03         0.00000E+00
    0.00000E+00         0.00000E+00        -0.35624E+03
 
   -0.19063E+04        -0.15737E+02         0.00000E+00
   -0.15737E+02        -0.41384E+03         0.00000E+00
    0.00000E+00         0.00000E+00        -0.69606E+03
 
   -0.27099E+04         0.29022E+03         0.00000E+00
    0.29022E+03        -0.65657E+03         0.00000E+00
    0.00000E+00         0.00000E+00        -0.10099E+04
 
   -0.33684E+04         0.62474E+03         0.00000E+00
    0.62474E+03        -0.95171E+03         0.00000E+00
    0.00000E+00         0.00000E+00        -0.12960E+04
 
   -0.38886E+04         0.96630E+03         0.00000E+00
    0.96630E+03        -0.12897E+04         0.00000E+00
    0.00000E+00         0.00000E+00        -0.15535E+04
 
   -0.42823E+04         0.12983E+04         0.00000E+00
    0.12983E+04        -0.16588E+04         0.00000E+00
    0.00000E+00         0.00000E+00        -0.17823E+04
 
   -0.45641E+04         0.16095E+04         0.00000E+00
    0.16095E+04        -0.20467E+04         0.00000E+00
    0.00000E+00         0.00000E+00        -0.19832E+04
 
   -0.47496E+04         0.18930E+04         0.00000E+00
    0.18930E+04        -0.24414E+04         0.00000E+00
    0.00000E+00         0.00000E+00        -0.21573E+04
 
   -0.48541E+04         0.21464E+04         0.00000E+00
    0.21464E+04        -0.28325E+04         0.00000E+00
    0.00000E+00         0.00000E+00        -0.23060E+04
 
   -0.48915E+04         0.23707E+04         0.00000E+00
    0.23707E+04        -0.32110E+04         0.00000E+00
    0.00000E+00         0.00000E+00        -0.24307E+04
 
   -0.48735E+04         0.25693E+04         0.00000E+00
    0.25693E+04        -0.35703E+04         0.00000E+00
    0.00000E+00         0.00000E+00        -0.25331E+04
 
   -0.48092E+04         0.27474E+04         0.00000E+00
    0.27474E+04        -0.39057E+04         0.00000E+00
    0.00000E+00         0.00000E+00        -0.26145E+04
 
   -0.47051E+04         0.29117E+04         0.00000E+00
    0.29117E+04        -0.42148E+04         0.00000E+00
    0.00000E+00         0.00000E+00        -0.26760E+04
 
   -0.45647E+04         0.30694E+04         0.00000E+00
    0.30694E+04        -0.44969E+04         0.00000E+00
    0.00000E+00         0.00000E+00        -0.27185E+04
 
   -0.43886E+04         0.32279E+04         0.00000E+00
    0.32279E+04        -0.47534E+04         0.00000E+00
    0.00000E+00         0.00000E+00        -0.27426E+04
 
   -0.41744E+04         0.33949E+04         0.00000E+00
    0.33949E+04        -0.49871E+04         0.00000E+00
    0.00000E+00         0.00000E+00        -0.27484E+04
 
   -0.39168E+04         0.35773E+04         0.00000E+00
    0.35773E+04        -0.52028E+04         0.00000E+00
    0.00000E+00         0.00000E+00        -0.27359E+04
 
   -0.36076E+04         0.37817E+04         0.00000E+00
    0.37817E+04        -0.54067E+04         0.00000E+00
    0.00000E+00         0.00000E+00        -0.27043E+04
 
   -0.32350E+04         0.40137E+04         0.00000E+00
    0.40137E+04        -0.56070E+04         0.00000E+00
    0.00000E+00         0.00000E+00        -0.26526E+04
 
   -0.27842E+04         0.42773E+04         0.00000E+00
    0.42773E+04        -0.58137E+04         0.00000E+00
    0.00000E+00         0.00000E+00        -0.25794E+04
 
    0.36338E+04        -0.18042E+03         0.00000E+00
   -0.18042E+03         0.16777E+01         0.00000E+00
    0.00000E+00         0.00000E+00         0.10906E+04
 
    0.24498E+04        -0.42741E+03         0.00000E+00
   -0.42741E+03         0.17407E+01         0.00000E+00
    0.00000E+00         0.00000E+00         0.73545E+03
 
    0.13008E+04        -0.53499E+03         0.00000E+00
   -0.53499E+03        -0.15424E+02         0.00000E+00
    0.00000E+00         0.00000E+00         0.38561E+03
 
    0.21858E+03        -0.51960E+03         0.00000E+00
   -0.51960E+03        -0.64605E+02         0.00000E+00
    0.00000E+00         0.00000E+00         0.46192E+02
 
   -0.77150E+03        -0.40183E+03         0.00000E+00
   -0.40183E+03        -0.15631E+03         0.00000E+00
    0.00000E+00         0.00000E+00        -0.27834E+03
 
   -0.16517E+04        -0.20446E+03         0.00000E+00
   -0.20446E+03        -0.29620E+03         0.00000E+00
    0.00000E+00         0.00000E+00        -0.58436E+03
 
   -0.24118E+04         0.49467E+02         0.00000E+00
    0.49467E+02        -0.48514E+03         0.00000E+00
    0.00000E+00         0.00000E+00        -0.86909E+03
 
   -0.30489E+04         0.33842E+03         0.00000E+00
    0.33842E+03        -0.71980E+03         0.00000E+00
    0.00000E+00         0.00000E+00        -0.11306E+04
 
   -0.35657E+04         0.64368E+03         0.00000E+00
    0.64368E+03        -0.99365E+03         0.00000E+00
    0.00000E+00         0.00000E+00        -0.13678E+04
 
   -0.39696E+04         0.95018E+03         0.00000E+00
    0.95018E+03        -0.12980E+04         0.00000E+00
    0.00000E+00         0.00000E+00        -0.15803E+04
 
   -0.42706E+04         0.12468E+04         0.00000E+00
    0.12468E+04        -0.16233E+04         0.00000E+00
    0.00000E+00         0.00000E+00        -0.17682E+04
 
   -0.44804E+04         0.15262E+04         0.00000E+00
    0.15262E+04        -0.19598E+04         0.00000E+00
    0.00000E+00         0.00000E+00        -0.19321E+04
 
   -0.46107E+04         0.17846E+04         0.00000E+00
    0.17846E+04        -0.22985E+04         0.00000E+00
    0.00000E+00         0.00000E+00        -0.20728E+04
 
   -0.46725E+04         0.20213E+04         0.00000E+00
    0.20213E+04        -0.26317E+04         0.00000E+00
    0.00000E+00         0.00000E+00        -0.21913E+04
 
   -0.46754E+04         0.22379E+04         0.00000E+00
    0.22379E+04        -0.29532E+04         0.00000E+00
    0.00000E+00         0.00000E+00        -0.22886E+04
 
   -0.46271E+04         0.24376E+04         0.00000E+00
    0.24376E+04        -0.32585E+04         0.00000E+00
    0.00000E+00         0.00000E+00        -0.23657E+04
 
   -0.45329E+04         0.26252E+04         0.00000E+00
    0.26252E+04        -0.35448E+04         0.00000E+00
    0.00000E+00         0.00000E+00        -0.24233E+04
 
   -0.43959E+04         0.28061E+04         0.00000E+00
    0.28061E+04        -0.38112E+04         0.00000E+00
    0.00000E+00         0.00000E+00        -0.24621E+04
 
   -0.42164E+04         0.29861E+04         0.00000E+00
    0.29861E+04        -0.40584E+04         0.00000E+00
    0.00000E+00         0.00000E+00        -0.24824E+04
 
   -0.39924E+04         0.31710E+04         0.00000E+00
    0.31710E+04        -0.42886E+04         0.00000E+00
    0.00000E+00         0.00000E+00        -0.24843E+04
 
   -0.37191E+04         0.33663E+04         0.00000E+00
    0.33663E+04        -0.45057E+04         0.00000E+00
    0.00000E+00         0.00000E+00        -0.24674E+04
 
   -0.33888E+04         0.35769E+04         0.00000E+00
    0.35769E+04        -0.47153E+04         0.00000E+00
    0.00000E+00         0.00000E+00        -0.24312E+04
 
   -0.29911E+04         0.38066E+04         0.00000E+00
    0.38066E+04        -0.49245E+04         0.00000E+00
    0.00000E+00         0.00000E+00        -0.23747E+04
 
   -0.25129E+04         0.40576E+04         0.00000E+00
    0.40576E+04        -0.51420E+04         0.00000E+00
    0.00000E+00         0.00000E+00        -0.22965E+04
 
    0.33136E+04        -0.17691E+03         0.00000E+00
   -0.17691E+03         0.21526E+01         0.00000E+00
    0.00000E+00         0.00000E+00         0.99473E+03
 
    0.22667E+04        -0.43006E+03         0.00000E+00
   -0.43006E+03         0.58447E+01         0.00000E+00
    0.00000E+00         0.00000E+00         0.68176E+03
 
    0.12425E+04        -0.55913E+03         0.00000E+00
   -0.55913E+03        -0.15597E+01         0.00000E+00
    0.00000E+00         0.00000E+00         0.37227E+03
 
    0.26825E+03        -0.57725E+03         0.00000E+00
   -0.57725E+03        -0.32855E+02         0.00000E+00
    0.00000E+00         0.00000E+00         0.70619E+02
 
   -0.63356E+03        -0.50088E+03         0.00000E+00
   -0.50088E+03        -0.97540E+02         0.00000E+00
    0.00000E+00         0.00000E+00        -0.21933E+03
 
   -0.14464E+04        -0.34846E+03         0.00000E+00
   -0.34846E+03        -0.20135E+03         0.00000E+00
    0.00000E+00         0.00000E+00        -0.49432E+03
 
   -0.21597E+04        -0.13892E+03         0.00000E+00
   -0.13892E+03        -0.34621E+03         0.00000E+00
    0.00000E+00         0.00000E+00        -0.75178E+03
 
   -0.27687E+04         0.10966E+03         0.00000E+00
    0.10966E+03        -0.53062E+03         0.00000E+00
    0.00000E+00         0.00000E+00        -0.98979E+03
 
   -0.32733E+04         0.38110E+03         0.00000E+00
    0.38110E+03        -0.75031E+03         0.00000E+00
    0.00000E+00         0.00000E+00        -0.12071E+04
 
   -0.36776E+04         0.66186E+03         0.00000E+00
    0.66186E+03        -0.99901E+03         0.00000E+00
    0.00000E+00         0.00000E+00        -0.14030E+04
 
   -0.39882E+04         0.94143E+03         0.00000E+00
    0.94143E+03        -0.12694E+04         0.00000E+00
    0.00000E+00         0.00000E+00        -0.15773E+04
 
   -0.42132E+04         0.12124E+04         0.00000E+00
    0.12124E+04        -0.15536E+04         0.00000E+00
    0.00000E+00         0.00000E+00        -0.17300E+04
 
   -0.43615E+04         0.14701E+04         0.00000E+00
    0.14701E+04        -0.18444E+04         0.00000E+00
    0.00000E+00         0.00000E+00        -0.18618E+04
 
   -0.44416E+04         0.17127E+04         0.00000E+00
    0.17127E+04        -0.21349E+04         0.00000E+00
    0.00000E+00         0.00000E+00        -0.19730E+04
 
   -0.44610E+04         0.19403E+04         0.00000E+00
    0.19403E+04        -0.24199E+04         0.00000E+00
    0.00000E+00         0.00000E+00        -0.20642E+04
 
   -0.44258E+04         0.21546E+04         0.00000E+00
    0.21546E+04        -0.26950E+04         0.00000E+00
    0.00000E+00         0.00000E+00        -0.21362E+04
 
   -0.43406E+04         0.23587E+04         0.00000E+00
    0.23587E+04        -0.29575E+04         0.00000E+00
    0.00000E+00         0.00000E+00        -0.21894E+04
 
   -0.42076E+04         0.25565E+04         0.00000E+00
    0.25565E+04        -0.32063E+04         0.00000E+00
    0.00000E+00         0.00000E+00        -0.22242E+04
 
   -0.40272E+04         0.27520E+04         0.00000E+00
    0.27520E+04        -0.34416E+04         0.00000E+00
    0.00000E+00         0.00000E+00        -0.22406E+04
 
   -0.37973E+04         0.29498E+04         0.00000E+00
    0.29498E+04        -0.36652E+04         0.00000E+00
    0.00000E+00         0.00000E+00        -0.22388E+04
 
   -0.35136E+04         0.31536E+04         0.00000E+00
    0.31536E+04        -0.38804E+04         0.00000E+00
    0.00000E+00         0.00000E+00        -0.22182E+04
 
   -0.31693E+04         0.33668E+04         0.00000E+00
    0.33668E+04        -0.40919E+04         0.00000E+00
    0.00000E+00         0.00000E+00        -0.21784E+04
 
   -0.27554E+04         0.35916E+04         0.00000E+00
    0.35916E+04        -0.43057E+04         0.00000E+00
    0.00000E+00         0.00000E+00        -0.21183E+04
 
   -0.22602E+04         0.38290E+04         0.00000E+00
    0.38290E+04        -0.45294E+04         0.00000E+00
    0.00000E+00         0.00000E+00        -0.20369E+04
 
    0.29974E+04        -0.17218E+03         0.00000E+00
   -0.17218E+03         0.25476E+01         0.00000E+00
    0.00000E+00         0.00000E+00         0.89999E+03
 
    0.20723E+04        -0.42710E+03         0.00000E+00
   -0.42710E+03         0.91958E+01         0.00000E+00
    0.00000E+00         0.00000E+00         0.62445E+03
 
    0.11599E+04        -0.57114E+03         0.00000E+00
   -0.57114E+03         0.96662E+01         0.00000E+00
    0.00000E+00         0.00000E+00         0.35088E+03
 
    0.28420E+03        -0.61484E+03         0.00000E+00
   -0.61484E+03        -0.72266E+01         0.00000E+00
    0.00000E+00         0.00000E+00         0.83091E+02
 
   -0.53505E+03        -0.57146E+03         0.00000E+00
   -0.57146E+03        -0.50087E+02         0.00000E+00
    0.00000E+00         0.00000E+00        -0.17554E+03
 
   -0.12824E+04        -0.45600E+03         0.00000E+00
   -0.45600E+03        -0.12455E+03         0.00000E+00
    0.00000E+00         0.00000E+00        -0.42210E+03
 
   -0.19474E+04        -0.28409E+03         0.00000E+00
   -0.28409E+03        -0.23323E+03         0.00000E+00
    0.00000E+00         0.00000E+00        -0.65418E+03
 
   -0.25238E+04        -0.70932E+02         0.00000E+00
   -0.70932E+02        -0.37589E+03         0.00000E+00
    0.00000E+00         0.00000E+00        -0.86992E+03
 
   -0.30100E+04         0.16955E+03         0.00000E+00
    0.16955E+03        -0.54994E+03         0.00000E+00
    0.00000E+00         0.00000E+00        -0.10680E+04
 
   -0.34073E+04         0.42532E+03         0.00000E+00
    0.42532E+03        -0.75102E+03         0.00000E+00
    0.00000E+00         0.00000E+00        -0.12475E+04
 
   -0.37195E+04         0.68666E+03         0.00000E+00
    0.68666E+03        -0.97359E+03         0.00000E+00
    0.00000E+00         0.00000E+00        -0.14079E+04
 
   -0.39524E+04         0.94625E+03         0.00000E+00
    0.94625E+03        -0.12116E+04         0.00000E+00
    0.00000E+00         0.00000E+00        -0.15492E+04
 
   -0.41120E+04         0.11991E+04         0.00000E+00
    0.11991E+04        -0.14591E+04         0.00000E+00
    0.00000E+00         0.00000E+00        -0.16713E+04
 
   -0.42048E+04         0.14425E+04         0.00000E+00
    0.14425E+04        -0.17104E+04         0.00000E+00
    0.00000E+00         0.00000E+00        -0.17745E+04
 
   -0.42364E+04         0.16754E+04         0.00000E+00
    0.16754E+04        -0.19608E+04         0.00000E+00
    0.00000E+00         0.00000E+00        -0.18592E+04
 
   -0.42118E+04         0.18985E+04         0.00000E+00
    0.18985E+04        -0.22067E+04         0.00000E+00
    0.00000E+00         0.00000E+00        -0.19256E+04
 
   -0.41343E+04         0.21132E+04         0.00000E+00
    0.21132E+04        -0.24454E+04         0.00000E+00
    0.00000E+00         0.00000E+00        -0.19739E+04
 
   -0.40058E+04         0.23222E+04         0.00000E+00
    0.23222E+04        -0.26757E+04         0.00000E+00
    0.00000E+00         0.00000E+00        -0.20044E+04
 
   -0.38261E+04         0.25281E+04         0.00000E+00
    0.25281E+04        -0.28976E+04         0.00000E+00
    0.00000E+00         0.00000E+00        -0.20171E+04
 
   -0.35935E+04         0.27339E+04         0.00000E+00
    0.27339E+04        -0.31125E+04         0.00000E+00
    0.00000E+00         0.00000E+00        -0.20118E+04
 
   -0.33042E+04         0.29422E+04         0.00000E+00
    0.29422E+04        -0.33230E+04         0.00000E+00
    0.00000E+00         0.00000E+00        -0.19882E+04
 
   -0.29521E+04         0.31549E+04         0.00000E+00
    0.31549E+04        -0.35331E+04         0.00000E+00
    0.00000E+00         0.00000E+00        -0.19456E+04
 
   -0.25295E+04         0.33730E+04         0.00000E+00
    0.33730E+04        -0.37480E+04         0.00000E+00
    0.00000E+00         0.00000E+00        -0.18832E+04
 
   -0.20263E+04         0.35958E+04         0.00000E+00
    0.35958E+04        -0.39741E+04         0.00000E+00
    0.00000E+00         0.00000E+00        -0.18001E+04
 
    0.26880E+04        -0.16644E+03         0.00000E+00
   -0.16644E+03         0.28696E+01         0.00000E+00
    0.00000E+00         0.00000E+00         0.80728E+03
 
    0.18715E+04        -0.41961E+03         0.00000E+00
   -0.41961E+03         0.11908E+02         0.00000E+00
    0.00000E+00         0.00000E+00         0.56503E+03
 
    0.10598E+04        -0.57338E+03         0.00000E+00
   -0.57338E+03         0.18723E+02         0.00000E+00
    0.00000E+00         0.00000E+00         0.32357E+03
 
    0.27391E+03        -0.63624E+03         0.00000E+00
   -0.63624E+03         0.13444E+02         0.00000E+00
    0.00000E+00         0.00000E+00         0.86206E+02
 
   -0.46841E+03        -0.61894E+03         0.00000E+00
   -0.61894E+03        -0.11750E+02         0.00000E+00
    0.00000E+00         0.00000E+00        -0.14405E+03
 
   -0.11529E+04        -0.53375E+03         0.00000E+00
   -0.53375E+03        -0.62312E+02         0.00000E+00
    0.00000E+00         0.00000E+00        -0.36456E+03
 
   -0.17692E+04        -0.39359E+03         0.00000E+00
   -0.39359E+03        -0.14125E+03         0.00000E+00
    0.00000E+00         0.00000E+00        -0.57312E+03
 
   -0.23105E+04        -0.21127E+03         0.00000E+00
   -0.21127E+03        -0.24924E+03         0.00000E+00
    0.00000E+00         0.00000E+00        -0.76792E+03
 
   -0.27737E+04         0.12251E+01         0.00000E+00
    0.12251E+01        -0.38496E+03         0.00000E+00
    0.00000E+00         0.00000E+00        -0.94760E+03
 
   -0.31583E+04         0.23330E+03         0.00000E+00
    0.23330E+03        -0.54548E+03         0.00000E+00
    0.00000E+00         0.00000E+00        -0.11111E+04
 
   -0.34663E+04         0.47605E+03         0.00000E+00
    0.47605E+03        -0.72680E+03         0.00000E+00
    0.00000E+00         0.00000E+00        -0.12579E+04
 
   -0.37008E+04         0.72249E+03         0.00000E+00
    0.72249E+03        -0.92429E+03         0.00000E+00
    0.00000E+00         0.00000E+00        -0.13875E+04
 
   -0.38662E+04         0.96751E+03         0.00000E+00
    0.96751E+03        -0.11332E+04         0.00000E+00
    0.00000E+00         0.00000E+00        -0.14998E+04
 
   -0.39669E+04         0.12078E+04         0.00000E+00
    0.12078E+04        -0.13489E+04         0.00000E+00
    0.00000E+00         0.00000E+00        -0.15947E+04
 
   -0.40072E+04         0.14416E+04         0.00000E+00
    0.14416E+04        -0.15674E+04         0.00000E+00
    0.00000E+00         0.00000E+00        -0.16724E+04
 
   -0.39905E+04         0.16684E+04         0.00000E+00
    0.16684E+04        -0.17856E+04         0.00000E+00
    0.00000E+00         0.00000E+00        -0.17328E+04
 
   -0.39195E+04         0.18888E+04         0.00000E+00
    0.18888E+04        -0.20012E+04         0.00000E+00
    0.00000E+00         0.00000E+00        -0.17762E+04
 
   -0.37953E+04         0.21041E+04         0.00000E+00
    0.21041E+04        -0.22128E+04         0.00000E+00
    0.00000E+00         0.00000E+00        -0.18024E+04
 
   -0.36178E+04         0.23159E+04         0.00000E+00
    0.23159E+04        -0.24205E+04         0.00000E+00
    0.00000E+00         0.00000E+00        -0.18115E+04
 
   -0.33853E+04         0.25257E+04         0.00000E+00
    0.25257E+04        -0.26252E+04         0.00000E+00
    0.00000E+00         0.00000E+00        -0.18031E+04
 
   -0.30942E+04         0.27350E+04         0.00000E+00
    0.27350E+04        -0.28290E+04         0.00000E+00
    0.00000E+00         0.00000E+00        -0.17770E+04
 
   -0.27396E+04         0.29445E+04         0.00000E+00
    0.29445E+04        -0.30353E+04         0.00000E+00
    0.00000E+00         0.00000E+00        -0.17325E+04
 
   -0.23146E+04         0.31540E+04         0.00000E+00
    0.31540E+04        -0.32483E+04         0.00000E+00
    0.00000E+00         0.00000E+00        -0.16689E+04
 
   -0.18111E+04         0.33620E+04         0.00000E+00
    0.33620E+04        -0.34735E+04         0.00000E+00
    0.00000E+00         0.00000E+00        -0.15854E+04
 
    0.23878E+04        -0.15990E+03         0.00000E+00
   -0.15990E+03         0.31248E+01         0.00000E+00
    0.00000E+00         0.00000E+00         0.71728E+03
 
    0.16684E+04        -0.40848E+03         0.00000E+00
   -0.40848E+03         0.14068E+02         0.00000E+00
    0.00000E+00         0.00000E+00         0.50474E+03
 
    0.94745E+03        -0.56776E+03         0.00000E+00
   -0.56776E+03         0.25966E+02         0.00000E+00
    0.00000E+00         0.00000E+00         0.29203E+03
 
    0.24350E+03        -0.64458E+03         0.00000E+00
   -0.64458E+03         0.30029E+02         0.00000E+00
    0.00000E+00         0.00000E+00         0.82060E+02
 
   -0.42735E+03        -0.64768E+03         0.00000E+00
   -0.64768E+03         0.19127E+02         0.00000E+00
    0.00000E+00         0.00000E+00        -0.12247E+03
 
   -0.10519E+04        -0.58712E+03         0.00000E+00
   -0.58712E+03        -0.11966E+02         0.00000E+00
    0.00000E+00         0.00000E+00        -0.31917E+03
 
   -0.16202E+04        -0.47364E+03         0.00000E+00
   -0.47364E+03        -0.66482E+02         0.00000E+00
    0.00000E+00         0.00000E+00        -0.50599E+03
 
   -0.21250E+04        -0.31804E+03         0.00000E+00
   -0.31804E+03        -0.14574E+03         0.00000E+00
    0.00000E+00         0.00000E+00        -0.68122E+03
 
   -0.25623E+04        -0.13061E+03         0.00000E+00
   -0.13061E+03        -0.24934E+03         0.00000E+00
    0.00000E+00         0.00000E+00        -0.84348E+03
 
   -0.29302E+04         0.79324E+02         0.00000E+00
    0.79324E+02        -0.37550E+03         0.00000E+00
    0.00000E+00         0.00000E+00        -0.99172E+03
 
   -0.32291E+04         0.30372E+03         0.00000E+00
    0.30372E+03        -0.52143E+03         0.00000E+00
    0.00000E+00         0.00000E+00        -0.11252E+04
 
   -0.34605E+04         0.53599E+03         0.00000E+00
    0.53599E+03        -0.68366E+03         0.00000E+00
    0.00000E+00         0.00000E+00        -0.12433E+04
 
   -0.36271E+04         0.77105E+03         0.00000E+00
    0.77105E+03        -0.85851E+03         0.00000E+00
    0.00000E+00         0.00000E+00        -0.13457E+04
 
   -0.37318E+04         0.10053E+04         0.00000E+00
    0.10053E+04        -0.10423E+04         0.00000E+00
    0.00000E+00         0.00000E+00        -0.14322E+04
 
   -0.37774E+04         0.12363E+04         0.00000E+00
    0.12363E+04        -0.12319E+04         0.00000E+00
    0.00000E+00         0.00000E+00        -0.15028E+04
 
   -0.37664E+04         0.14630E+04         0.00000E+00
    0.14630E+04        -0.14244E+04         0.00000E+00
    0.00000E+00         0.00000E+00        -0.15572E+04
 
   -0.37006E+04         0.16850E+04         0.00000E+00
    0.16850E+04        -0.16179E+04         0.00000E+00
    0.00000E+00         0.00000E+00        -0.15956E+04
 
   -0.35807E+04         0.19025E+04         0.00000E+00
    0.19025E+04        -0.18113E+04         0.00000E+00
    0.00000E+00         0.00000E+00        -0.16176E+04
 
   -0.34064E+04         0.21161E+04         0.00000E+00
    0.21161E+04        -0.20045E+04         0.00000E+00
    0.00000E+00         0.00000E+00        -0.16233E+04
 
   -0.31760E+04         0.23264E+04         0.00000E+00
    0.23264E+04        -0.21980E+04         0.00000E+00
    0.00000E+00         0.00000E+00        -0.16122E+04
 
   -0.28865E+04         0.25337E+04         0.00000E+00
    0.25337E+04        -0.23937E+04         0.00000E+00
    0.00000E+00         0.00000E+00        -0.15841E+04
 
   -0.25336E+04         0.27378E+04         0.00000E+00
    0.27378E+04        -0.25942E+04         0.00000E+00
    0.00000E+00         0.00000E+00        -0.15384E+04
 
   -0.21118E+04         0.29375E+04         0.00000E+00
    0.29375E+04        -0.28030E+04         0.00000E+00
    0.00000E+00         0.00000E+00        -0.14744E+04
 
   -0.16141E+04         0.31304E+04         0.00000E+00
    0.31304E+04        -0.30245E+04         0.00000E+00
    0.00000E+00         0.00000E+00        -0.13916E+04
 
    0.20985E+04        -0.15273E+03         0.00000E+00
   -0.15273E+03         0.33191E+01         0.00000E+00
    0.00000E+00         0.00000E+00         0.63054E+03
 
    0.14661E+04        -0.39445E+03         0.00000E+00
   -0.39445E+03         0.15750E+02         0.00000E+00
    0.00000E+00         0.00000E+00         0.44456E+03
 
    0.82708E+03        -0.55585E+03         0.00000E+00
   -0.55585E+03         0.31672E+02         0.00000E+00
    0.00000E+00         0.00000E+00         0.25763E+03
 
    0.19796E+03        -0.64240E+03         0.00000E+00
   -0.64240E+03         0.43204E+02         0.00000E+00
    0.00000E+00         0.00000E+00         0.72350E+02
 
   -0.40665E+03        -0.66123E+03         0.00000E+00
   -0.66123E+03         0.43819E+02         0.00000E+00
    0.00000E+00         0.00000E+00        -0.10885E+03
 
   -0.97454E+03        -0.62059E+03         0.00000E+00
   -0.62059E+03         0.28543E+02         0.00000E+00
    0.00000E+00         0.00000E+00        -0.28380E+03
 
   -0.14960E+04        -0.52944E+03         0.00000E+00
   -0.52944E+03        -0.59692E+01         0.00000E+00
    0.00000E+00         0.00000E+00        -0.45060E+03
 
   -0.19639E+04        -0.39689E+03         0.00000E+00
   -0.39689E+03        -0.61468E+02         0.00000E+00
    0.00000E+00         0.00000E+00        -0.60762E+03
 
   -0.23734E+04        -0.23178E+03         0.00000E+00
   -0.23178E+03        -0.13826E+03         0.00000E+00
    0.00000E+00         0.00000E+00        -0.75351E+03
 
   -0.27219E+04        -0.42292E+02         0.00000E+00
   -0.42292E+02        -0.23544E+03         0.00000E+00
    0.00000E+00         0.00000E+00        -0.88719E+03
 
   -0.30082E+04         0.16434E+03         0.00000E+00
    0.16434E+03        -0.35117E+03         0.00000E+00
    0.00000E+00         0.00000E+00        -0.10078E+04
 
   -0.32328E+04         0.38198E+03         0.00000E+00
    0.38198E+03        -0.48298E+03         0.00000E+00
    0.00000E+00         0.00000E+00        -0.11147E+04
 
   -0.33969E+04         0.60570E+03         0.00000E+00
    0.60570E+03        -0.62808E+03         0.00000E+00
    0.00000E+00         0.00000E+00        -0.12075E+04
 
   -0.35022E+04         0.83170E+03         0.00000E+00
    0.83170E+03        -0.78365E+03         0.00000E+00
    0.00000E+00         0.00000E+00        -0.12858E+04
 
   -0.35504E+04         0.10573E+04         0.00000E+00
    0.10573E+04        -0.94705E+03         0.00000E+00
    0.00000E+00         0.00000E+00        -0.13492E+04
 
   -0.35432E+04         0.12807E+04         0.00000E+00
    0.12807E+04        -0.11161E+04         0.00000E+00
    0.00000E+00         0.00000E+00        -0.13978E+04
 
   -0.34815E+04         0.15008E+04         0.00000E+00
    0.15008E+04        -0.12891E+04         0.00000E+00
    0.00000E+00         0.00000E+00        -0.14312E+04
 
   -0.33657E+04         0.17171E+04         0.00000E+00
    0.17171E+04        -0.14650E+04         0.00000E+00
    0.00000E+00         0.00000E+00        -0.14492E+04
 
   -0.31953E+04         0.19293E+04         0.00000E+00
    0.19293E+04        -0.16437E+04         0.00000E+00
    0.00000E+00         0.00000E+00        -0.14517E+04
 
   -0.29688E+04         0.21371E+04         0.00000E+00
    0.21371E+04        -0.18256E+04         0.00000E+00
    0.00000E+00         0.00000E+00        -0.14383E+04
 
   -0.26835E+04         0.23400E+04         0.00000E+00
    0.23400E+04        -0.20122E+04         0.00000E+00
    0.00000E+00         0.00000E+00        -0.14087E+04
 
   -0.23360E+04         0.25369E+04         0.00000E+00
    0.25369E+04        -0.22054E+04         0.00000E+00
    0.00000E+00         0.00000E+00        -0.13624E+04
 
   -0.19215E+04         0.27258E+04         0.00000E+00
    0.27258E+04        -0.24082E+04         0.00000E+00
    0.00000E+00         0.00000E+00        -0.12989E+04
 
   -0.14346E+04         0.29038E+04         0.00000E+00
    0.29038E+04        -0.26240E+04         0.00000E+00
    0.00000E+00         0.00000E+00        -0.12176E+04
 
    0.18215E+04        -0.14508E+03         0.00000E+00
   -0.14508E+03         0.34582E+01         0.00000E+00
    0.00000E+00         0.00000E+00         0.54750E+03
 
    0.12672E+04        -0.37818E+03         0.00000E+00
   -0.37818E+03         0.17014E+02         0.00000E+00
    0.00000E+00         0.00000E+00         0.38528E+03
 
    0.70220E+03        -0.53897E+03         0.00000E+00
   -0.53897E+03         0.36066E+02         0.00000E+00
    0.00000E+00         0.00000E+00         0.22148E+03
 
    0.14137E+03        -0.63183E+03         0.00000E+00
   -0.63183E+03         0.53505E+02         0.00000E+00
    0.00000E+00         0.00000E+00         0.58462E+02
 
   -0.40198E+03        -0.66252E+03         0.00000E+00
   -0.66252E+03         0.63338E+02         0.00000E+00
    0.00000E+00         0.00000E+00        -0.10159E+03
 
   -0.91651E+03        -0.63787E+03         0.00000E+00
   -0.63787E+03         0.60844E+02         0.00000E+00
    0.00000E+00         0.00000E+00        -0.25670E+03
 
   -0.13930E+04        -0.56532E+03         0.00000E+00
   -0.56532E+03         0.42650E+02         0.00000E+00
    0.00000E+00         0.00000E+00        -0.40510E+03
 
   -0.18242E+04        -0.45259E+03         0.00000E+00
   -0.45259E+03         0.67090E+01         0.00000E+00
    0.00000E+00         0.00000E+00        -0.54525E+03
 
   -0.22050E+04        -0.30728E+03         0.00000E+00
   -0.30728E+03        -0.47802E+02         0.00000E+00
    0.00000E+00         0.00000E+00        -0.67585E+03
 
   -0.25321E+04        -0.13654E+03         0.00000E+00
   -0.13654E+03        -0.12065E+03         0.00000E+00
    0.00000E+00         0.00000E+00        -0.79581E+03
 
   -0.28034E+04         0.53138E+02         0.00000E+00
    0.53138E+02        -0.21077E+03         0.00000E+00
    0.00000E+00         0.00000E+00        -0.90425E+03
 
   -0.30184E+04         0.25609E+03         0.00000E+00
    0.25609E+03        -0.31648E+03         0.00000E+00
    0.00000E+00         0.00000E+00        -0.10005E+04
 
   -0.31771E+04         0.46760E+03         0.00000E+00
    0.46760E+03        -0.43578E+03         0.00000E+00
    0.00000E+00         0.00000E+00        -0.10839E+04
 
   -0.32804E+04         0.68383E+03         0.00000E+00
    0.68383E+03        -0.56652E+03         0.00000E+00
    0.00000E+00         0.00000E+00        -0.11541E+04
 
   -0.33290E+04         0.90184E+03         0.00000E+00
    0.90184E+03        -0.70666E+03         0.00000E+00
    0.00000E+00         0.00000E+00        -0.12107E+04
 
   -0.33238E+04         0.11194E+04         0.00000E+00
    0.11194E+04        -0.85443E+03         0.00000E+00
    0.00000E+00         0.00000E+00        -0.12535E+04
 
   -0.32652E+04         0.13350E+04         0.00000E+00
    0.13350E+04        -0.10085E+04         0.00000E+00
    0.00000E+00         0.00000E+00        -0.12821E+04
 
   -0.31533E+04         0.15473E+04         0.00000E+00
    0.15473E+04        -0.11679E+04         0.00000E+00
    0.00000E+00         0.00000E+00        -0.12964E+04
 
   -0.29874E+04         0.17554E+04         0.00000E+00
    0.17554E+04        -0.13326E+04         0.00000E+00
    0.00000E+00         0.00000E+00        -0.12960E+04
 
   -0.27660E+04         0.19583E+04         0.00000E+00
    0.19583E+04        -0.15028E+04         0.00000E+00
    0.00000E+00         0.00000E+00        -0.12806E+04
 
   -0.24871E+04         0.21548E+04         0.00000E+00
    0.21548E+04        -0.16796E+04         0.00000E+00
    0.00000E+00         0.00000E+00        -0.12500E+04
 
   -0.21477E+04         0.23431E+04         0.00000E+00
    0.23431E+04        -0.18645E+04         0.00000E+00
    0.00000E+00         0.00000E+00        -0.12037E+04
 
   -0.17441E+04         0.25206E+04         0.00000E+00
    0.25206E+04        -0.20599E+04         0.00000E+00
    0.00000E+00         0.00000E+00        -0.11412E+04
 
   -0.12720E+04         0.26840E+04         0.00000E+00
    0.26840E+04        -0.22683E+04         0.00000E+00
    0.00000E+00         0.00000E+00        -0.10621E+04
 
    0.15580E+04        -0.13710E+03         0.00000E+00
   -0.13710E+03         0.35479E+01         0.00000E+00
    0.00000E+00         0.00000E+00         0.46848E+03
 
    0.10738E+04        -0.36022E+03         0.00000E+00
   -0.36022E+03         0.17913E+02         0.00000E+00
    0.00000E+00         0.00000E+00         0.32750E+03
 
    0.57560E+03        -0.51823E+03         0.00000E+00
   -0.51823E+03         0.39336E+02         0.00000E+00
    0.00000E+00         0.00000E+00         0.18448E+03
 
    0.77062E+02        -0.61461E+03         0.00000E+00
   -0.61461E+03         0.61372E+02         0.00000E+00
    0.00000E+00         0.00000E+00         0.41530E+02
 
   -0.40974E+03        -0.65401E+03         0.00000E+00
   -0.65401E+03         0.78501E+02         0.00000E+00
    0.00000E+00         0.00000E+00        -0.99372E+02
 
   -0.87429E+03        -0.64204E+03         0.00000E+00
   -0.64204E+03         0.86257E+02         0.00000E+00
    0.00000E+00         0.00000E+00        -0.23641E+03
 
   -0.13078E+04        -0.58492E+03         0.00000E+00
   -0.58492E+03         0.81291E+02         0.00000E+00
    0.00000E+00         0.00000E+00        -0.36795E+03
 
   -0.17031E+04        -0.48920E+03         0.00000E+00
   -0.48920E+03         0.61364E+02         0.00000E+00
    0.00000E+00         0.00000E+00        -0.49254E+03
 
   -0.20550E+04        -0.36138E+03         0.00000E+00
   -0.36138E+03         0.25275E+02         0.00000E+00
    0.00000E+00         0.00000E+00        -0.60892E+03
 
   -0.23595E+04        -0.20775E+03         0.00000E+00
   -0.20775E+03        -0.27260E+02         0.00000E+00
    0.00000E+00         0.00000E+00        -0.71604E+03
 
   -0.26142E+04        -0.34106E+02         0.00000E+00
   -0.34106E+02        -0.95780E+02         0.00000E+00
    0.00000E+00         0.00000E+00        -0.81298E+03
 
   -0.28175E+04         0.15437E+03         0.00000E+00
    0.15437E+03        -0.17926E+03         0.00000E+00
    0.00000E+00         0.00000E+00        -0.89901E+03
 
   -0.29687E+04         0.35320E+03         0.00000E+00
    0.35320E+03        -0.27633E+03         0.00000E+00
    0.00000E+00         0.00000E+00        -0.97352E+03
 
   -0.30679E+04         0.55859E+03         0.00000E+00
    0.55859E+03        -0.38543E+03         0.00000E+00
    0.00000E+00         0.00000E+00        -0.10360E+04
 
   -0.31151E+04         0.76747E+03         0.00000E+00
    0.76747E+03        -0.50502E+03         0.00000E+00
    0.00000E+00         0.00000E+00        -0.10860E+04
 
   -0.31106E+04         0.97733E+03         0.00000E+00
    0.97733E+03        -0.63374E+03         0.00000E+00
    0.00000E+00         0.00000E+00        -0.11233E+04
 
   -0.30543E+04         0.11862E+04         0.00000E+00
    0.11862E+04        -0.77051E+03         0.00000E+00
    0.00000E+00         0.00000E+00        -0.11474E+04
 
   -0.29459E+04         0.13923E+04         0.00000E+00
    0.13923E+04        -0.91462E+03         0.00000E+00
    0.00000E+00         0.00000E+00        -0.11582E+04
 
   -0.27848E+04         0.15942E+04         0.00000E+00
    0.15942E+04        -0.10658E+04         0.00000E+00
    0.00000E+00         0.00000E+00        -0.11552E+04
 
   -0.25698E+04         0.17903E+04         0.00000E+00
    0.17903E+04        -0.12244E+04         0.00000E+00
    0.00000E+00         0.00000E+00        -0.11383E+04
 
   -0.22988E+04         0.19788E+04         0.00000E+00
    0.19788E+04        -0.13911E+04         0.00000E+00
    0.00000E+00         0.00000E+00        -0.11070E+04
 
   -0.19697E+04         0.21575E+04         0.00000E+00
    0.21575E+04        -0.15672E+04         0.00000E+00
    0.00000E+00         0.00000E+00        -0.10611E+04
 
   -0.15796E+04         0.23233E+04         0.00000E+00
    0.23233E+04        -0.17541E+04         0.00000E+00
    0.00000E+00         0.00000E+00        -0.10001E+04
 
   -0.11253E+04         0.24725E+04         0.00000E+00
    0.24725E+04        -0.19539E+04         0.00000E+00
    0.00000E+00         0.00000E+00        -0.92378E+03
 
    0.13087E+04        -0.12892E+03         0.00000E+00
   -0.12892E+03         0.35937E+01         0.00000E+00
    0.00000E+00         0.00000E+00         0.39370E+03
 
    0.88728E+03        -0.34103E+03         0.00000E+00
   -0.34103E+03         0.18496E+02         0.00000E+00
    0.00000E+00         0.00000E+00         0.27173E+03
 
    0.44954E+03        -0.49457E+03         0.00000E+00
   -0.49457E+03         0.41644E+02         0.00000E+00
    0.00000E+00         0.00000E+00         0.14736E+03
 
    0.77579E+01        -0.59221E+03         0.00000E+00
   -0.59221E+03         0.67173E+02         0.00000E+00
    0.00000E+00         0.00000E+00         0.22479E+02
 
   -0.42697E+03        -0.63772E+03         0.00000E+00
   -0.63772E+03         0.89989E+02         0.00000E+00
    0.00000E+00         0.00000E+00        -0.10109E+03
 
   -0.84487E+03        -0.63569E+03         0.00000E+00
   -0.63569E+03         0.10587E+03         0.00000E+00
    0.00000E+00         0.00000E+00        -0.22170E+03
 
   -0.12376E+04        -0.59132E+03         0.00000E+00
   -0.59132E+03         0.11154E+03         0.00000E+00
    0.00000E+00         0.00000E+00        -0.33782E+03
 
   -0.15983E+04        -0.51015E+03         0.00000E+00
   -0.51015E+03         0.10463E+03         0.00000E+00
    0.00000E+00         0.00000E+00        -0.44810E+03
 
   -0.19215E+04        -0.39778E+03         0.00000E+00
   -0.39778E+03         0.83669E+02         0.00000E+00
    0.00000E+00         0.00000E+00        -0.55134E+03
 
   -0.22030E+04        -0.25971E+03         0.00000E+00
   -0.25971E+03         0.47989E+02         0.00000E+00
    0.00000E+00         0.00000E+00        -0.64651E+03
 
   -0.24399E+04        -0.10111E+03         0.00000E+00
   -0.10111E+03        -0.24310E+01         0.00000E+00
    0.00000E+00         0.00000E+00        -0.73270E+03
 
   -0.26301E+04         0.73291E+02         0.00000E+00
    0.73291E+02        -0.67089E+02         0.00000E+00
    0.00000E+00         0.00000E+00        -0.80915E+03
 
   -0.27723E+04         0.25927E+03         0.00000E+00
    0.25927E+03        -0.14513E+03         0.00000E+00
    0.00000E+00         0.00000E+00        -0.87523E+03
 
   -0.28659E+04         0.45314E+03         0.00000E+00
    0.45314E+03        -0.23549E+03         0.00000E+00
    0.00000E+00         0.00000E+00        -0.93040E+03
 
   -0.29103E+04         0.65178E+03         0.00000E+00
    0.65178E+03        -0.33708E+03         0.00000E+00
    0.00000E+00         0.00000E+00        -0.97421E+03
 
   -0.29053E+04         0.85250E+03         0.00000E+00
    0.85250E+03        -0.44886E+03         0.00000E+00
    0.00000E+00         0.00000E+00        -0.10062E+04
 
   -0.28506E+04         0.10530E+04         0.00000E+00
    0.10530E+04        -0.57001E+03         0.00000E+00
    0.00000E+00         0.00000E+00        -0.10262E+04
 
   -0.27456E+04         0.12512E+04         0.00000E+00
    0.12512E+04        -0.69997E+03         0.00000E+00
    0.00000E+00         0.00000E+00        -0.10337E+04
 
   -0.25896E+04         0.14452E+04         0.00000E+00
    0.14452E+04        -0.83853E+03         0.00000E+00
    0.00000E+00         0.00000E+00        -0.10284E+04
 
   -0.23815E+04         0.16331E+04         0.00000E+00
    0.16331E+04        -0.98581E+03         0.00000E+00
    0.00000E+00         0.00000E+00        -0.10102E+04
 
   -0.21198E+04         0.18124E+04         0.00000E+00
    0.18124E+04        -0.11424E+04         0.00000E+00
    0.00000E+00         0.00000E+00        -0.97864E+03
 
   -0.18026E+04         0.19807E+04         0.00000E+00
    0.19807E+04        -0.13090E+04         0.00000E+00
    0.00000E+00         0.00000E+00        -0.93349E+03
 
   -0.14279E+04         0.21347E+04         0.00000E+00
    0.21347E+04        -0.14869E+04         0.00000E+00
    0.00000E+00         0.00000E+00        -0.87445E+03
 
   -0.99351E+03         0.22704E+04         0.00000E+00
    0.22704E+04        -0.16773E+04         0.00000E+00
    0.00000E+00         0.00000E+00        -0.80125E+03
 
    0.10741E+04        -0.12064E+03         0.00000E+00
   -0.12064E+03         0.36013E+01         0.00000E+00
    0.00000E+00         0.00000E+00         0.32332E+03
 
    0.70899E+03        -0.32104E+03         0.00000E+00
   -0.32104E+03         0.18806E+02         0.00000E+00
    0.00000E+00         0.00000E+00         0.21834E+03
 
    0.32579E+03        -0.46878E+03         0.00000E+00
   -0.46878E+03         0.43132E+02         0.00000E+00
    0.00000E+00         0.00000E+00         0.11068E+03
 
   -0.64332E+02        -0.56589E+03         0.00000E+00
   -0.56589E+03         0.71225E+02         0.00000E+00
    0.00000E+00         0.00000E+00         0.20679E+01
 
   -0.45120E+03        -0.61537E+03         0.00000E+00
   -0.61537E+03         0.98376E+02         0.00000E+00
    0.00000E+00         0.00000E+00        -0.10585E+03
 
   -0.82574E+03        -0.62100E+03         0.00000E+00
   -0.62100E+03         0.12061E+03         0.00000E+00
    0.00000E+00         0.00000E+00        -0.21154E+03
 
   -0.11801E+04        -0.58710E+03         0.00000E+00
   -0.58710E+03         0.13471E+03         0.00000E+00
    0.00000E+00         0.00000E+00        -0.31361E+03
 
   -0.15075E+04        -0.51836E+03         0.00000E+00
   -0.51836E+03         0.13828E+03         0.00000E+00
    0.00000E+00         0.00000E+00        -0.41078E+03
 
   -0.18027E+04        -0.41961E+03         0.00000E+00
   -0.41961E+03         0.12966E+03         0.00000E+00
    0.00000E+00         0.00000E+00        -0.50191E+03
 
   -0.20612E+04        -0.29566E+03         0.00000E+00
   -0.29566E+03         0.10787E+03         0.00000E+00
    0.00000E+00         0.00000E+00        -0.58601E+03
 
   -0.22798E+04        -0.15111E+03         0.00000E+00
   -0.15111E+03         0.72516E+02         0.00000E+00
    0.00000E+00         0.00000E+00        -0.66220E+03
 
   -0.24561E+04         0.97172E+01         0.00000E+00
    0.97172E+01         0.23695E+02         0.00000E+00
    0.00000E+00         0.00000E+00        -0.72971E+03
 
   -0.25882E+04         0.18289E+03         0.00000E+00
    0.18289E+03        -0.38166E+02         0.00000E+00
    0.00000E+00         0.00000E+00        -0.78790E+03
 
   -0.26750E+04         0.36487E+03         0.00000E+00
    0.36487E+03        -0.11242E+03         0.00000E+00
    0.00000E+00         0.00000E+00        -0.83621E+03
 
   -0.27156E+04         0.55252E+03         0.00000E+00
    0.55252E+03        -0.19832E+03         0.00000E+00
    0.00000E+00         0.00000E+00        -0.87416E+03
 
   -0.27093E+04         0.74306E+03         0.00000E+00
    0.74306E+03        -0.29515E+03         0.00000E+00
    0.00000E+00         0.00000E+00        -0.90133E+03
 
   -0.26556E+04         0.93401E+03         0.00000E+00
    0.93401E+03        -0.40229E+03         0.00000E+00
    0.00000E+00         0.00000E+00        -0.91736E+03
 
   -0.25538E+04         0.11230E+04         0.00000E+00
    0.11230E+04        -0.51931E+03         0.00000E+00
    0.00000E+00         0.00000E+00        -0.92192E+03
 
   -0.24030E+04         0.13079E+04         0.00000E+00
    0.13079E+04        -0.64600E+03         0.00000E+00
    0.00000E+00         0.00000E+00        -0.91471E+03
 
   -0.22024E+04         0.14863E+04         0.00000E+00
    0.14863E+04        -0.78244E+03         0.00000E+00
    0.00000E+00         0.00000E+00        -0.89546E+03
 
   -0.19508E+04         0.16558E+04         0.00000E+00
    0.16558E+04        -0.92893E+03         0.00000E+00
    0.00000E+00         0.00000E+00        -0.86391E+03
 
   -0.16467E+04         0.18133E+04         0.00000E+00
    0.18133E+04        -0.10860E+04         0.00000E+00
    0.00000E+00         0.00000E+00        -0.81982E+03
 
   -0.12888E+04         0.19555E+04         0.00000E+00
    0.19555E+04        -0.12544E+04         0.00000E+00
    0.00000E+00         0.00000E+00        -0.76296E+03
 
   -0.87559E+03         0.20783E+04         0.00000E+00
    0.20783E+04        -0.14350E+04         0.00000E+00
    0.00000E+00         0.00000E+00        -0.69316E+03
 
    0.85447E+03        -0.11235E+03         0.00000E+00
   -0.11235E+03         0.35760E+01         0.00000E+00
    0.00000E+00         0.00000E+00         0.25742E+03
 
    0.53978E+03        -0.30058E+03         0.00000E+00
   -0.30058E+03         0.18885E+02         0.00000E+00
    0.00000E+00         0.00000E+00         0.16760E+03
 
    0.20576E+03        -0.44152E+03         0.00000E+00
   -0.44152E+03         0.43925E+02         0.00000E+00
    0.00000E+00         0.00000E+00         0.74905E+02
 
   -0.13742E+03        -0.53667E+03         0.00000E+00
   -0.53667E+03         0.73802E+02         0.00000E+00
    0.00000E+00         0.00000E+00        -0.19086E+02
 
   -0.48042E+03        -0.58840E+03         0.00000E+00
   -0.58840E+03         0.10415E+03         0.00000E+00
    0.00000E+00         0.00000E+00        -0.11288E+03
 
   -0.81479E+03        -0.59978E+03         0.00000E+00
   -0.59978E+03         0.13124E+03         0.00000E+00
    0.00000E+00         0.00000E+00        -0.20507E+03
 
   -0.11331E+04        -0.57442E+03         0.00000E+00
   -0.57442E+03         0.15195E+03         0.00000E+00
    0.00000E+00         0.00000E+00        -0.29435E+03
 
   -0.14290E+04        -0.51629E+03         0.00000E+00
   -0.51629E+03         0.16386E+03         0.00000E+00
    0.00000E+00         0.00000E+00        -0.37955E+03
 
   -0.16971E+04        -0.42955E+03         0.00000E+00
   -0.42955E+03         0.16519E+03         0.00000E+00
    0.00000E+00         0.00000E+00        -0.45958E+03
 
   -0.19330E+04        -0.31840E+03         0.00000E+00
   -0.31840E+03         0.15475E+03         0.00000E+00
    0.00000E+00         0.00000E+00        -0.53349E+03
 
   -0.21333E+04        -0.18694E+03         0.00000E+00
   -0.18694E+03         0.13185E+03         0.00000E+00
    0.00000E+00         0.00000E+00        -0.60042E+03
 
   -0.22951E+04        -0.39097E+02         0.00000E+00
   -0.39097E+02         0.96263E+02         0.00000E+00
    0.00000E+00         0.00000E+00        -0.65964E+03
 
   -0.24164E+04         0.12147E+03         0.00000E+00
    0.12147E+03         0.48074E+02         0.00000E+00
    0.00000E+00         0.00000E+00        -0.71050E+03
 
   -0.24957E+04         0.29140E+03         0.00000E+00
    0.29140E+03        -0.12403E+02         0.00000E+00
    0.00000E+00         0.00000E+00        -0.75243E+03
 
   -0.25317E+04         0.46761E+03         0.00000E+00
    0.46761E+03        -0.84729E+02         0.00000E+00
    0.00000E+00         0.00000E+00        -0.78493E+03
 
   -0.25236E+04         0.64729E+03         0.00000E+00
    0.64729E+03        -0.16843E+03         0.00000E+00
    0.00000E+00         0.00000E+00        -0.80760E+03
 
   -0.24704E+04         0.82783E+03         0.00000E+00
    0.82783E+03        -0.26307E+03         0.00000E+00
    0.00000E+00         0.00000E+00        -0.82005E+03
 
   -0.23715E+04         0.10067E+04         0.00000E+00
    0.10067E+04        -0.36833E+03         0.00000E+00
    0.00000E+00         0.00000E+00        -0.82196E+03
 
   -0.22261E+04         0.11816E+04         0.00000E+00
    0.11816E+04        -0.48403E+03         0.00000E+00
    0.00000E+00         0.00000E+00        -0.81304E+03
 
   -0.20333E+04         0.13499E+04         0.00000E+00
    0.13499E+04        -0.61016E+03         0.00000E+00
    0.00000E+00         0.00000E+00        -0.79304E+03
 
   -0.17923E+04         0.15088E+04         0.00000E+00
    0.15088E+04        -0.74685E+03         0.00000E+00
    0.00000E+00         0.00000E+00        -0.76174E+03
 
   -0.15020E+04         0.16554E+04         0.00000E+00
    0.16554E+04        -0.89440E+03         0.00000E+00
    0.00000E+00         0.00000E+00        -0.71893E+03
 
   -0.11617E+04         0.17860E+04         0.00000E+00
    0.17860E+04        -0.10532E+04         0.00000E+00
    0.00000E+00         0.00000E+00        -0.66446E+03
 
   -0.77052E+03         0.18968E+04         0.00000E+00
    0.18968E+04        -0.12235E+04         0.00000E+00
    0.00000E+00         0.00000E+00        -0.59822E+03
 
    0.64986E+03        -0.10415E+03         0.00000E+00
   -0.10415E+03         0.35231E+01         0.00000E+00
    0.00000E+00         0.00000E+00         0.19602E+03
 
    0.38026E+03        -0.27995E+03         0.00000E+00
   -0.27995E+03         0.18768E+02         0.00000E+00
    0.00000E+00         0.00000E+00         0.11971E+03
 
    0.90517E+02        -0.41336E+03         0.00000E+00
   -0.41336E+03         0.44137E+02         0.00000E+00
    0.00000E+00         0.00000E+00         0.40396E+02
 
   -0.21009E+03        -0.50543E+03         0.00000E+00
   -0.50543E+03         0.75145E+02         0.00000E+00
    0.00000E+00         0.00000E+00        -0.40482E+02
 
   -0.51295E+03        -0.55801E+03         0.00000E+00
   -0.55801E+03         0.10776E+03         0.00000E+00
    0.00000E+00         0.00000E+00        -0.12156E+03
 
   -0.81025E+03        -0.57358E+03         0.00000E+00
   -0.57358E+03         0.13844E+03         0.00000E+00
    0.00000E+00         0.00000E+00        -0.20154E+03
 
   -0.10950E+04        -0.55514E+03         0.00000E+00
   -0.55514E+03         0.16422E+03         0.00000E+00
    0.00000E+00         0.00000E+00        -0.27924E+03
 
   -0.13611E+04        -0.50605E+03         0.00000E+00
   -0.50605E+03         0.18267E+03         0.00000E+00
    0.00000E+00         0.00000E+00        -0.35353E+03
 
   -0.16033E+04        -0.42989E+03         0.00000E+00
   -0.42989E+03         0.19194E+03         0.00000E+00
    0.00000E+00         0.00000E+00        -0.42342E+03
 
   -0.18173E+04        -0.33033E+03         0.00000E+00
   -0.33033E+03         0.19068E+03         0.00000E+00
    0.00000E+00         0.00000E+00        -0.48798E+03
 
   -0.19994E+04        -0.21104E+03         0.00000E+00
   -0.21104E+03         0.17799E+03         0.00000E+00
    0.00000E+00         0.00000E+00        -0.54641E+03
 
   -0.21467E+04        -0.75551E+02         0.00000E+00
   -0.75551E+02         0.15338E+03         0.00000E+00
    0.00000E+00         0.00000E+00        -0.59799E+03
 
   -0.22569E+04         0.72739E+02         0.00000E+00
    0.72739E+02         0.11667E+03         0.00000E+00
    0.00000E+00         0.00000E+00        -0.64206E+03
 
   -0.23282E+04         0.23065E+03         0.00000E+00
    0.23065E+03         0.67900E+02         0.00000E+00
    0.00000E+00         0.00000E+00        -0.67809E+03
 
   -0.23592E+04         0.39519E+03         0.00000E+00
    0.39519E+03         0.72639E+01         0.00000E+00
    0.00000E+00         0.00000E+00        -0.70558E+03
 
   -0.23487E+04         0.56357E+03         0.00000E+00
    0.56357E+03        -0.64971E+02         0.00000E+00
    0.00000E+00         0.00000E+00        -0.72411E+03
 
   -0.22958E+04         0.73314E+03         0.00000E+00
    0.73314E+03        -0.14853E+03         0.00000E+00
    0.00000E+00         0.00000E+00        -0.73330E+03
 
   -0.21997E+04         0.90132E+03         0.00000E+00
    0.90132E+03        -0.24317E+03         0.00000E+00
    0.00000E+00         0.00000E+00        -0.73285E+03
 
   -0.20596E+04         0.10655E+04         0.00000E+00
    0.10655E+04        -0.34873E+03         0.00000E+00
    0.00000E+00         0.00000E+00        -0.72249E+03
 
   -0.18747E+04         0.12232E+04         0.00000E+00
    0.12232E+04        -0.46514E+03         0.00000E+00
    0.00000E+00         0.00000E+00        -0.70197E+03
 
   -0.16446E+04         0.13713E+04         0.00000E+00
    0.13713E+04        -0.59241E+03         0.00000E+00
    0.00000E+00         0.00000E+00        -0.67110E+03
 
   -0.13685E+04         0.15069E+04         0.00000E+00
    0.15069E+04        -0.73059E+03         0.00000E+00
    0.00000E+00         0.00000E+00        -0.62974E+03
 
   -0.10462E+04         0.16264E+04         0.00000E+00
    0.16264E+04        -0.87976E+03         0.00000E+00
    0.00000E+00         0.00000E+00        -0.57777E+03
 
   -0.67726E+03         0.17258E+04         0.00000E+00
    0.17258E+04        -0.10399E+04         0.00000E+00
    0.00000E+00         0.00000E+00        -0.51515E+03
 
    0.46020E+03        -0.96097E+02         0.00000E+00
   -0.96097E+02         0.34475E+01         0.00000E+00
    0.00000E+00         0.00000E+00         0.13909E+03
 
    0.23083E+03        -0.25938E+03         0.00000E+00
   -0.25938E+03         0.18492E+02         0.00000E+00
    0.00000E+00         0.00000E+00         0.74796E+02
 
   -0.19121E+02        -0.38476E+03         0.00000E+00
   -0.38476E+03         0.43870E+02         0.00000E+00
    0.00000E+00         0.00000E+00         0.74247E+01
 
   -0.28118E+03        -0.47290E+03         0.00000E+00
   -0.47290E+03         0.75471E+02         0.00000E+00
    0.00000E+00         0.00000E+00        -0.61714E+02
 
   -0.54745E+03        -0.52520E+03         0.00000E+00
   -0.52520E+03         0.10955E+03         0.00000E+00
    0.00000E+00         0.00000E+00        -0.13137E+03
 
   -0.81066E+03        -0.54367E+03         0.00000E+00
   -0.54367E+03         0.14280E+03         0.00000E+00
    0.00000E+00         0.00000E+00        -0.20036E+03
 
   -0.10643E+04        -0.53078E+03         0.00000E+00
   -0.53078E+03         0.17235E+03         0.00000E+00
    0.00000E+00         0.00000E+00        -0.26757E+03
 
   -0.13024E+04        -0.48938E+03         0.00000E+00
   -0.48938E+03         0.19584E+03         0.00000E+00
    0.00000E+00         0.00000E+00        -0.33197E+03
 
   -0.15201E+04        -0.42256E+03         0.00000E+00
   -0.42256E+03         0.21135E+03         0.00000E+00
    0.00000E+00         0.00000E+00        -0.39263E+03
 
   -0.17130E+04        -0.33351E+03         0.00000E+00
   -0.33351E+03         0.21743E+03         0.00000E+00
    0.00000E+00         0.00000E+00        -0.44866E+03
 
   -0.18774E+04        -0.22550E+03         0.00000E+00
   -0.22550E+03         0.21304E+03         0.00000E+00
    0.00000E+00         0.00000E+00        -0.49931E+03
 
   -0.20104E+04        -0.10173E+03         0.00000E+00
   -0.10173E+03         0.19747E+03         0.00000E+00
    0.00000E+00         0.00000E+00        -0.54387E+03
 
   -0.21094E+04         0.34678E+02         0.00000E+00
    0.34678E+02         0.17033E+03         0.00000E+00
    0.00000E+00         0.00000E+00        -0.58172E+03
 
   -0.21726E+04         0.18073E+03         0.00000E+00
    0.18073E+03         0.13145E+03         0.00000E+00
    0.00000E+00         0.00000E+00        -0.61233E+03
 
   -0.21982E+04         0.33356E+03         0.00000E+00
    0.33356E+03         0.80825E+02         0.00000E+00
    0.00000E+00         0.00000E+00        -0.63522E+03
 
   -0.21851E+04         0.49043E+03         0.00000E+00
    0.49043E+03         0.18554E+02         0.00000E+00
    0.00000E+00         0.00000E+00        -0.64997E+03
 
   -0.21322E+04         0.64871E+03         0.00000E+00
    0.64871E+03        -0.55213E+02         0.00000E+00
    0.00000E+00         0.00000E+00        -0.65624E+03
 
   -0.20387E+04         0.80578E+03         0.00000E+00
    0.80578E+03        -0.14031E+03         0.00000E+00
    0.00000E+00         0.00000E+00        -0.65370E+03
 
   -0.19038E+04         0.95902E+03         0.00000E+00
    0.95902E+03        -0.23659E+03         0.00000E+00
    0.00000E+00         0.00000E+00        -0.64211E+03
 
   -0.17270E+04         0.11057E+04         0.00000E+00
    0.11057E+04        -0.34392E+03         0.00000E+00
    0.00000E+00         0.00000E+00        -0.62126E+03
 
   -0.15078E+04         0.12430E+04         0.00000E+00
    0.12430E+04        -0.46219E+03         0.00000E+00
    0.00000E+00         0.00000E+00        -0.59099E+03
 
   -0.12460E+04         0.13678E+04         0.00000E+00
    0.13678E+04        -0.59129E+03         0.00000E+00
    0.00000E+00         0.00000E+00        -0.55118E+03
 
   -0.94156E+03         0.14765E+04         0.00000E+00
    0.14765E+04        -0.73104E+03         0.00000E+00
    0.00000E+00         0.00000E+00        -0.50178E+03
 
   -0.59480E+03         0.15654E+04         0.00000E+00
    0.15654E+04        -0.88114E+03         0.00000E+00
    0.00000E+00         0.00000E+00        -0.44278E+03
 
    0.28526E+03        -0.88243E+02         0.00000E+00
   -0.88243E+02         0.33540E+01         0.00000E+00
    0.00000E+00         0.00000E+00         0.86584E+02
 
    0.91710E+02        -0.23909E+03         0.00000E+00
   -0.23909E+03         0.18087E+02         0.00000E+00
    0.00000E+00         0.00000E+00         0.32939E+02
 
   -0.12256E+03        -0.35610E+03         0.00000E+00
   -0.35610E+03         0.43216E+02         0.00000E+00
    0.00000E+00         0.00000E+00        -0.23804E+02
 
   -0.34983E+03        -0.43966E+03         0.00000E+00
   -0.43966E+03         0.74970E+02         0.00000E+00
    0.00000E+00         0.00000E+00        -0.82459E+02
 
   -0.58282E+03        -0.49080E+03         0.00000E+00
   -0.49080E+03         0.10988E+03         0.00000E+00
    0.00000E+00         0.00000E+00        -0.14188E+03
 
   -0.81479E+03        -0.51111E+03         0.00000E+00
   -0.51111E+03         0.14483E+03         0.00000E+00
    0.00000E+00         0.00000E+00        -0.20099E+03
 
   -0.10396E+04        -0.50263E+03         0.00000E+00
   -0.50263E+03         0.17710E+03         0.00000E+00
    0.00000E+00         0.00000E+00        -0.25875E+03
 
   -0.12517E+04        -0.46777E+03         0.00000E+00
   -0.46777E+03         0.20435E+03         0.00000E+00
    0.00000E+00         0.00000E+00        -0.31421E+03
 
   -0.14463E+04        -0.40918E+03         0.00000E+00
   -0.40918E+03         0.22468E+03         0.00000E+00
    0.00000E+00         0.00000E+00        -0.36649E+03
 
   -0.16191E+04        -0.32967E+03         0.00000E+00
   -0.32967E+03         0.23656E+03         0.00000E+00
    0.00000E+00         0.00000E+00        -0.41477E+03
 
   -0.17666E+04        -0.23211E+03         0.00000E+00
   -0.23211E+03         0.23882E+03         0.00000E+00
    0.00000E+00         0.00000E+00        -0.45833E+03
 
   -0.18856E+04        -0.11942E+03         0.00000E+00
   -0.11942E+03         0.23063E+03         0.00000E+00
    0.00000E+00         0.00000E+00        -0.49649E+03
 
   -0.19736E+04         0.55494E+01         0.00000E+00
    0.55494E+01         0.21142E+03         0.00000E+00
    0.00000E+00         0.00000E+00        -0.52866E+03
 
   -0.20286E+04         0.14000E+03         0.00000E+00
    0.14000E+03         0.18085E+03         0.00000E+00
    0.00000E+00         0.00000E+00        -0.55433E+03
 
   -0.20489E+04         0.28121E+03         0.00000E+00
    0.28121E+03         0.13876E+03         0.00000E+00
    0.00000E+00         0.00000E+00        -0.57303E+03
 
   -0.20330E+04         0.42654E+03         0.00000E+00
    0.42654E+03         0.85110E+02         0.00000E+00
    0.00000E+00         0.00000E+00        -0.58437E+03
 
   -0.19799E+04         0.57339E+03         0.00000E+00
    0.57339E+03         0.19953E+02         0.00000E+00
    0.00000E+00         0.00000E+00        -0.58800E+03
 
   -0.18888E+04         0.71918E+03         0.00000E+00
    0.71918E+03        -0.56603E+02         0.00000E+00
    0.00000E+00         0.00000E+00        -0.58363E+03
 
   -0.17590E+04         0.86130E+03         0.00000E+00
    0.86130E+03        -0.14442E+03         0.00000E+00
    0.00000E+00         0.00000E+00        -0.57103E+03
 
   -0.15901E+04         0.99703E+03         0.00000E+00
    0.99703E+03        -0.24332E+03         0.00000E+00
    0.00000E+00         0.00000E+00        -0.55002E+03
 
   -0.13817E+04         0.11235E+04         0.00000E+00
    0.11235E+04        -0.35310E+03         0.00000E+00
    0.00000E+00         0.00000E+00        -0.52046E+03
 
   -0.11341E+04         0.12377E+04         0.00000E+00
    0.12377E+04        -0.47349E+03         0.00000E+00
    0.00000E+00         0.00000E+00        -0.48227E+03
 
   -0.84731E+03         0.13362E+04         0.00000E+00
    0.13362E+04        -0.60412E+03         0.00000E+00
    0.00000E+00         0.00000E+00        -0.43543E+03
 
   -0.52217E+03         0.14154E+04         0.00000E+00
    0.14154E+04        -0.74444E+03         0.00000E+00
    0.00000E+00         0.00000E+00        -0.37998E+03
 
    0.12471E+03        -0.80631E+02         0.00000E+00
   -0.80631E+02         0.32470E+01         0.00000E+00
    0.00000E+00         0.00000E+00         0.38387E+02
 
   -0.37033E+02        -0.21922E+03         0.00000E+00
   -0.21922E+03         0.17584E+02         0.00000E+00
    0.00000E+00         0.00000E+00        -0.58345E+01
 
   -0.21941E+03        -0.32770E+03         0.00000E+00
   -0.32770E+03         0.42259E+02         0.00000E+00
    0.00000E+00         0.00000E+00        -0.53144E+02
 
   -0.41535E+03        -0.40621E+03         0.00000E+00
   -0.40621E+03         0.73813E+02         0.00000E+00
    0.00000E+00         0.00000E+00        -0.10246E+03
 
   -0.61817E+03        -0.45548E+03         0.00000E+00
   -0.45548E+03         0.10903E+03         0.00000E+00
    0.00000E+00         0.00000E+00        -0.15274E+03
 
   -0.82162E+03        -0.47677E+03         0.00000E+00
   -0.47677E+03         0.14499E+03         0.00000E+00
    0.00000E+00         0.00000E+00        -0.20299E+03
 
   -0.10200E+04        -0.47175E+03         0.00000E+00
   -0.47175E+03         0.17909E+03         0.00000E+00
    0.00000E+00         0.00000E+00        -0.25226E+03
 
   -0.12080E+04        -0.44245E+03         0.00000E+00
   -0.44245E+03         0.20907E+03         0.00000E+00
    0.00000E+00         0.00000E+00        -0.29967E+03
 
   -0.13810E+04        -0.39113E+03         0.00000E+00
   -0.39113E+03         0.23303E+03         0.00000E+00
    0.00000E+00         0.00000E+00        -0.34438E+03
 
   -0.15349E+04        -0.32027E+03         0.00000E+00
   -0.32027E+03         0.24941E+03         0.00000E+00
    0.00000E+00         0.00000E+00        -0.38565E+03
 
   -0.16662E+04        -0.23241E+03         0.00000E+00
   -0.23241E+03         0.25696E+03         0.00000E+00
    0.00000E+00         0.00000E+00        -0.42278E+03
 
   -0.17718E+04        -0.13017E+03         0.00000E+00
   -0.13017E+03         0.25473E+03         0.00000E+00
    0.00000E+00         0.00000E+00        -0.45513E+03
 
   -0.18492E+04        -0.16156E+02         0.00000E+00
   -0.16156E+02         0.24203E+03         0.00000E+00
    0.00000E+00         0.00000E+00        -0.48215E+03
 
   -0.18962E+04         0.10703E+03         0.00000E+00
    0.10703E+03         0.21840E+03         0.00000E+00
    0.00000E+00         0.00000E+00        -0.50334E+03
 
   -0.19110E+04         0.23682E+03         0.00000E+00
    0.23682E+03         0.18355E+03         0.00000E+00
    0.00000E+00         0.00000E+00        -0.51825E+03
 
   -0.18924E+04         0.37070E+03         0.00000E+00
    0.37070E+03         0.13733E+03         0.00000E+00
    0.00000E+00         0.00000E+00        -0.52651E+03
 
   -0.18390E+04         0.50614E+03         0.00000E+00
    0.50614E+03         0.79712E+02         0.00000E+00
    0.00000E+00         0.00000E+00        -0.52779E+03
 
   -0.17502E+04         0.64065E+03         0.00000E+00
    0.64065E+03         0.10766E+02         0.00000E+00
    0.00000E+00         0.00000E+00        -0.52183E+03
 
   -0.16253E+04         0.77164E+03         0.00000E+00
    0.77164E+03        -0.69375E+02         0.00000E+00
    0.00000E+00         0.00000E+00        -0.50840E+03
 
   -0.14640E+04         0.89647E+03         0.00000E+00
    0.89647E+03        -0.16050E+03         0.00000E+00
    0.00000E+00         0.00000E+00        -0.48736E+03
 
   -0.12663E+04         0.10123E+04         0.00000E+00
    0.10123E+04        -0.26233E+03         0.00000E+00
    0.00000E+00         0.00000E+00        -0.45858E+03
 
   -0.10323E+04         0.11163E+04         0.00000E+00
    0.11163E+04        -0.37445E+03         0.00000E+00
    0.00000E+00         0.00000E+00        -0.42204E+03
 
   -0.76272E+03         0.12051E+04         0.00000E+00
    0.12051E+04        -0.49635E+03         0.00000E+00
    0.00000E+00         0.00000E+00        -0.37772E+03
 
   -0.45846E+03         0.12754E+04         0.00000E+00
    0.12754E+04        -0.62729E+03         0.00000E+00
    0.00000E+00         0.00000E+00        -0.32572E+03
 
   -0.21869E+02        -0.73293E+02         0.00000E+00
   -0.73293E+02         0.31305E+01         0.00000E+00
    0.00000E+00         0.00000E+00        -0.56216E+01
 
   -0.15545E+03        -0.19989E+03         0.00000E+00
   -0.19989E+03         0.17009E+02         0.00000E+00
    0.00000E+00         0.00000E+00        -0.41533E+02
 
   -0.30938E+03        -0.29979E+03         0.00000E+00
   -0.29979E+03         0.41075E+02         0.00000E+00
    0.00000E+00         0.00000E+00        -0.80493E+02
 
   -0.47722E+03        -0.37293E+03         0.00000E+00
   -0.37293E+03         0.72154E+02         0.00000E+00
    0.00000E+00         0.00000E+00        -0.12152E+03
 
   -0.65280E+03        -0.41980E+03         0.00000E+00
   -0.41980E+03         0.10727E+03         0.00000E+00
    0.00000E+00         0.00000E+00        -0.16366E+03
 
   -0.83034E+03        -0.44137E+03         0.00000E+00
   -0.44137E+03         0.14367E+03         0.00000E+00
    0.00000E+00         0.00000E+00        -0.20600E+03
 
   -0.10045E+04        -0.43901E+03         0.00000E+00
   -0.43901E+03         0.17889E+03         0.00000E+00
    0.00000E+00         0.00000E+00        -0.24767E+03
 
   -0.11702E+04        -0.41442E+03         0.00000E+00
   -0.41442E+03         0.21075E+03         0.00000E+00
    0.00000E+00         0.00000E+00        -0.28785E+03
 
   -0.13232E+04        -0.36955E+03         0.00000E+00
   -0.36955E+03         0.23737E+03         0.00000E+00
    0.00000E+00         0.00000E+00        -0.32576E+03
 
   -0.14595E+04        -0.30655E+03         0.00000E+00
   -0.30655E+03         0.25716E+03         0.00000E+00
    0.00000E+00         0.00000E+00        -0.36071E+03
 
   -0.15756E+04        -0.22768E+03         0.00000E+00
   -0.22768E+03         0.26884E+03         0.00000E+00
    0.00000E+00         0.00000E+00        -0.39203E+03
 
   -0.16685E+04        -0.13528E+03         0.00000E+00
   -0.13528E+03         0.27138E+03         0.00000E+00
    0.00000E+00         0.00000E+00        -0.41915E+03
 
   -0.17357E+04        -0.31732E+02         0.00000E+00
   -0.31732E+02         0.26400E+03         0.00000E+00
    0.00000E+00         0.00000E+00        -0.44151E+03
 
   -0.17750E+04         0.80562E+02         0.00000E+00
    0.80562E+02         0.24612E+03         0.00000E+00
    0.00000E+00         0.00000E+00        -0.45865E+03
 
   -0.17845E+04         0.19921E+03         0.00000E+00
    0.19921E+03         0.21737E+03         0.00000E+00
    0.00000E+00         0.00000E+00        -0.47015E+03
 
   -0.17631E+04         0.32183E+03         0.00000E+00
    0.32183E+03         0.17753E+03         0.00000E+00
    0.00000E+00         0.00000E+00        -0.47566E+03
 
   -0.17094E+04         0.44601E+03         0.00000E+00
    0.44601E+03         0.12649E+03         0.00000E+00
    0.00000E+00         0.00000E+00        -0.47487E+03
 
   -0.16227E+04         0.56935E+03         0.00000E+00
    0.56935E+03         0.64303E+02         0.00000E+00
    0.00000E+00         0.00000E+00        -0.46752E+03
 
   -0.15025E+04         0.68935E+03         0.00000E+00
    0.68935E+03        -0.89123E+01         0.00000E+00
    0.00000E+00         0.00000E+00        -0.45343E+03
 
   -0.13486E+04         0.80346E+03         0.00000E+00
    0.80346E+03        -0.92912E+02         0.00000E+00
    0.00000E+00         0.00000E+00        -0.43246E+03
 
   -0.11611E+04         0.90900E+03         0.00000E+00
    0.90900E+03        -0.18734E+03         0.00000E+00
    0.00000E+00         0.00000E+00        -0.40453E+03
 
   -0.94034E+03         0.10031E+04         0.00000E+00
    0.10031E+04        -0.29170E+03         0.00000E+00
    0.00000E+00         0.00000E+00        -0.36961E+03
 
   -0.68716E+03         0.10828E+04         0.00000E+00
    0.10828E+04        -0.40533E+03         0.00000E+00
    0.00000E+00         0.00000E+00        -0.32775E+03
 
   -0.40280E+03         0.11449E+04         0.00000E+00
    0.11449E+04        -0.52735E+03         0.00000E+00
    0.00000E+00         0.00000E+00        -0.27904E+03
 
   -0.15495E+03        -0.66250E+02         0.00000E+00
   -0.66250E+02         0.30084E+01         0.00000E+00
    0.00000E+00         0.00000E+00        -0.45583E+02
 
   -0.26369E+03        -0.18120E+03         0.00000E+00
   -0.18120E+03         0.16385E+02         0.00000E+00
    0.00000E+00         0.00000E+00        -0.74192E+02
 
   -0.39236E+03        -0.27256E+03         0.00000E+00
   -0.27256E+03         0.39730E+02         0.00000E+00
    0.00000E+00         0.00000E+00        -0.10579E+03
 
   -0.53507E+03        -0.34012E+03         0.00000E+00
   -0.34012E+03         0.70127E+02         0.00000E+00
    0.00000E+00         0.00000E+00        -0.13948E+03
 
   -0.68615E+03        -0.38418E+03         0.00000E+00
   -0.38418E+03         0.10481E+03         0.00000E+00
    0.00000E+00         0.00000E+00        -0.17440E+03
 
   -0.84024E+03        -0.40547E+03         0.00000E+00
   -0.40547E+03         0.14122E+03         0.00000E+00
    0.00000E+00         0.00000E+00        -0.20971E+03
 
   -0.99232E+03        -0.40511E+03         0.00000E+00
   -0.40511E+03         0.17700E+03         0.00000E+00
    0.00000E+00         0.00000E+00        -0.24460E+03
 
   -0.11378E+04        -0.38452E+03         0.00000E+00
   -0.38452E+03         0.21004E+03         0.00000E+00
    0.00000E+00         0.00000E+00        -0.27831E+03
 
   -0.12723E+04        -0.34537E+03         0.00000E+00
   -0.34537E+03         0.23852E+03         0.00000E+00
    0.00000E+00         0.00000E+00        -0.31014E+03
 
   -0.13923E+04        -0.28953E+03         0.00000E+00
   -0.28953E+03         0.26084E+03         0.00000E+00
    0.00000E+00         0.00000E+00        -0.33942E+03
 
   -0.14942E+04        -0.21899E+03         0.00000E+00
   -0.21899E+03         0.27570E+03         0.00000E+00
    0.00000E+00         0.00000E+00        -0.36554E+03
 
   -0.15751E+04        -0.13586E+03         0.00000E+00
   -0.13586E+03         0.28200E+03         0.00000E+00
    0.00000E+00         0.00000E+00        -0.38794E+03
 
   -0.16326E+04        -0.42287E+02         0.00000E+00
   -0.42287E+02         0.27891E+03         0.00000E+00
    0.00000E+00         0.00000E+00        -0.40612E+03
 
   -0.16646E+04         0.59528E+02         0.00000E+00
    0.59528E+02         0.26578E+03         0.00000E+00
    0.00000E+00         0.00000E+00        -0.41963E+03
 
   -0.16691E+04         0.16737E+03         0.00000E+00
    0.16737E+03         0.24216E+03         0.00000E+00
    0.00000E+00         0.00000E+00        -0.42809E+03
 
   -0.16449E+04         0.27899E+03         0.00000E+00
    0.27899E+03         0.20776E+03         0.00000E+00
    0.00000E+00         0.00000E+00        -0.43115E+03
 
   -0.15909E+04         0.39213E+03         0.00000E+00
    0.39213E+03         0.16245E+03         0.00000E+00
    0.00000E+00         0.00000E+00        -0.42852E+03
 
   -0.15062E+04         0.50450E+03         0.00000E+00
    0.50450E+03         0.10623E+03         0.00000E+00
    0.00000E+00         0.00000E+00        -0.41999E+03
 
   -0.13905E+04         0.61374E+03         0.00000E+00
    0.61374E+03         0.39235E+02         0.00000E+00
    0.00000E+00         0.00000E+00        -0.40538E+03
 
   -0.12436E+04         0.71740E+03         0.00000E+00
    0.71740E+03        -0.38268E+02         0.00000E+00
    0.00000E+00         0.00000E+00        -0.38457E+03
 
   -0.10658E+04         0.81294E+03         0.00000E+00
    0.81294E+03        -0.12587E+03         0.00000E+00
    0.00000E+00         0.00000E+00        -0.35750E+03
 
   -0.85759E+03         0.89770E+03         0.00000E+00
    0.89770E+03        -0.22299E+03         0.00000E+00
    0.00000E+00         0.00000E+00        -0.32417E+03
 
   -0.61997E+03         0.96885E+03         0.00000E+00
    0.96885E+03        -0.32887E+03         0.00000E+00
    0.00000E+00         0.00000E+00        -0.28465E+03
 
   -0.35437E+03         0.10234E+04         0.00000E+00
    0.10234E+04        -0.44252E+03         0.00000E+00
    0.00000E+00         0.00000E+00        -0.23907E+03
 
   -0.27505E+03        -0.59513E+02         0.00000E+00
   -0.59513E+02         0.28839E+01         0.00000E+00
    0.00000E+00         0.00000E+00        -0.81651E+02
 
   -0.36197E+03        -0.16320E+03         0.00000E+00
   -0.16320E+03         0.15736E+02         0.00000E+00
    0.00000E+00         0.00000E+00        -0.10387E+03
 
   -0.46830E+03        -0.24613E+03         0.00000E+00
   -0.24613E+03         0.38285E+02         0.00000E+00
    0.00000E+00         0.00000E+00        -0.12900E+03
 
   -0.58864E+03        -0.30800E+03         0.00000E+00
   -0.30800E+03         0.67855E+02         0.00000E+00
    0.00000E+00         0.00000E+00        -0.15624E+03
 
   -0.71779E+03        -0.34895E+03         0.00000E+00
   -0.34895E+03         0.10188E+03         0.00000E+00
    0.00000E+00         0.00000E+00        -0.18477E+03
 
   -0.85078E+03        -0.36952E+03         0.00000E+00
   -0.36952E+03         0.13795E+03         0.00000E+00
    0.00000E+00         0.00000E+00        -0.21385E+03
 
   -0.98292E+03        -0.37061E+03         0.00000E+00
   -0.37061E+03         0.17384E+03         0.00000E+00
    0.00000E+00         0.00000E+00        -0.24273E+03
 
   -0.11099E+04        -0.35341E+03         0.00000E+00
   -0.35341E+03         0.20753E+03         0.00000E+00
    0.00000E+00         0.00000E+00        -0.27070E+03
 
   -0.12276E+04        -0.31935E+03         0.00000E+00
   -0.31935E+03         0.23722E+03         0.00000E+00
    0.00000E+00         0.00000E+00        -0.29710E+03
 
   -0.13324E+04        -0.27005E+03         0.00000E+00
   -0.27005E+03         0.26136E+03         0.00000E+00
    0.00000E+00         0.00000E+00        -0.32133E+03
 
   -0.14212E+04        -0.20725E+03         0.00000E+00
   -0.20725E+03         0.27860E+03         0.00000E+00
    0.00000E+00         0.00000E+00        -0.34280E+03
 
   -0.14911E+04        -0.13284E+03         0.00000E+00
   -0.13284E+03         0.28784E+03         0.00000E+00
    0.00000E+00         0.00000E+00        -0.36099E+03
 
   -0.15396E+04        -0.48758E+02         0.00000E+00
   -0.48758E+02         0.28818E+03         0.00000E+00
    0.00000E+00         0.00000E+00        -0.37543E+03
 
   -0.15646E+04         0.42998E+02         0.00000E+00
    0.42998E+02         0.27894E+03         0.00000E+00
    0.00000E+00         0.00000E+00        -0.38571E+03
 
   -0.15645E+04         0.14039E+03         0.00000E+00
    0.14039E+03         0.25960E+03         0.00000E+00
    0.00000E+00         0.00000E+00        -0.39146E+03
 
   -0.15377E+04         0.24133E+03         0.00000E+00
    0.24133E+03         0.22983E+03         0.00000E+00
    0.00000E+00         0.00000E+00        -0.39235E+03
 
   -0.14832E+04         0.34372E+03         0.00000E+00
    0.34372E+03         0.18948E+03         0.00000E+00
    0.00000E+00         0.00000E+00        -0.38813E+03
 
   -0.14005E+04         0.44540E+03         0.00000E+00
    0.44540E+03         0.13851E+03         0.00000E+00
    0.00000E+00         0.00000E+00        -0.37859E+03
 
   -0.12890E+04         0.54415E+03         0.00000E+00
    0.54415E+03         0.77071E+02         0.00000E+00
    0.00000E+00         0.00000E+00        -0.36357E+03
 
   -0.11487E+04         0.63768E+03         0.00000E+00
    0.63768E+03         0.54488E+01         0.00000E+00
    0.00000E+00         0.00000E+00        -0.34298E+03
 
   -0.98001E+03         0.72362E+03         0.00000E+00
    0.72362E+03        -0.75900E+02         0.00000E+00
    0.00000E+00         0.00000E+00        -0.31677E+03
 
   -0.78358E+03         0.79947E+03         0.00000E+00
    0.79947E+03        -0.16634E+03         0.00000E+00
    0.00000E+00         0.00000E+00        -0.28497E+03
 
   -0.56052E+03         0.86262E+03         0.00000E+00
    0.86262E+03        -0.26503E+03         0.00000E+00
    0.00000E+00         0.00000E+00        -0.24767E+03
 
   -0.31243E+03         0.91035E+03         0.00000E+00
    0.91035E+03        -0.37089E+03         0.00000E+00
    0.00000E+00         0.00000E+00        -0.20499E+03
 
   -0.38272E+03        -0.53086E+02         0.00000E+00
   -0.53086E+02         0.27602E+01         0.00000E+00
    0.00000E+00         0.00000E+00        -0.11399E+03
 
   -0.45056E+03        -0.14591E+03         0.00000E+00
   -0.14591E+03         0.15079E+02         0.00000E+00
    0.00000E+00         0.00000E+00        -0.13064E+03
 
   -0.53721E+03        -0.22059E+03         0.00000E+00
   -0.22059E+03         0.36794E+02         0.00000E+00
    0.00000E+00         0.00000E+00        -0.15013E+03
 
   -0.63776E+03        -0.27673E+03         0.00000E+00
   -0.27673E+03         0.65443E+02         0.00000E+00
    0.00000E+00         0.00000E+00        -0.17169E+03
 
   -0.74740E+03        -0.31435E+03         0.00000E+00
   -0.31435E+03         0.98644E+02         0.00000E+00
    0.00000E+00         0.00000E+00        -0.19463E+03
 
   -0.86152E+03        -0.33385E+03         0.00000E+00
   -0.33385E+03         0.13413E+03         0.00000E+00
    0.00000E+00         0.00000E+00        -0.21821E+03
 
   -0.97573E+03        -0.33595E+03         0.00000E+00
   -0.33595E+03         0.16980E+03         0.00000E+00
    0.00000E+00         0.00000E+00        -0.24178E+03
 
   -0.10859E+04        -0.32163E+03         0.00000E+00
   -0.32163E+03         0.20371E+03         0.00000E+00
    0.00000E+00         0.00000E+00        -0.26467E+03
 
   -0.11884E+04        -0.29211E+03         0.00000E+00
   -0.29211E+03         0.23412E+03         0.00000E+00
    0.00000E+00         0.00000E+00        -0.28627E+03
 
   -0.12795E+04        -0.24878E+03         0.00000E+00
   -0.24878E+03         0.25948E+03         0.00000E+00
    0.00000E+00         0.00000E+00        -0.30601E+03
 
   -0.13563E+04        -0.19319E+03         0.00000E+00
   -0.19319E+03         0.27847E+03         0.00000E+00
    0.00000E+00         0.00000E+00        -0.32336E+03
 
   -0.14160E+04        -0.12700E+03         0.00000E+00
   -0.12700E+03         0.28996E+03         0.00000E+00
    0.00000E+00         0.00000E+00        -0.33782E+03
 
   -0.14562E+04        -0.51937E+02         0.00000E+00
   -0.51937E+02         0.29302E+03         0.00000E+00
    0.00000E+00         0.00000E+00        -0.34895E+03
 
   -0.14748E+04         0.30183E+02         0.00000E+00
    0.30183E+02         0.28694E+03         0.00000E+00
    0.00000E+00         0.00000E+00        -0.35636E+03
 
   -0.14702E+04         0.11750E+03         0.00000E+00
    0.11750E+03         0.27116E+03         0.00000E+00
    0.00000E+00         0.00000E+00        -0.35971E+03
 
   -0.14410E+04         0.20811E+03         0.00000E+00
    0.20811E+03         0.24532E+03         0.00000E+00
    0.00000E+00         0.00000E+00        -0.35870E+03
 
   -0.13862E+04         0.30007E+03         0.00000E+00
    0.30007E+03         0.20923E+03         0.00000E+00
    0.00000E+00         0.00000E+00        -0.35309E+03
 
   -0.13052E+04         0.39137E+03         0.00000E+00
    0.39137E+03         0.16286E+03         0.00000E+00
    0.00000E+00         0.00000E+00        -0.34269E+03
 
   -0.11976E+04         0.47997E+03         0.00000E+00
    0.47997E+03         0.10636E+03         0.00000E+00
    0.00000E+00         0.00000E+00        -0.32736E+03
 
   -0.10635E+04         0.56373E+03         0.00000E+00
    0.56373E+03         0.40023E+02         0.00000E+00
    0.00000E+00         0.00000E+00        -0.30704E+03
 
   -0.90328E+03         0.64046E+03         0.00000E+00
    0.64046E+03        -0.35648E+02         0.00000E+00
    0.00000E+00         0.00000E+00        -0.28168E+03
 
   -0.71779E+03         0.70787E+03         0.00000E+00
    0.70787E+03        -0.11997E+03         0.00000E+00
    0.00000E+00         0.00000E+00        -0.25133E+03
 
   -0.50823E+03         0.76357E+03         0.00000E+00
    0.76357E+03        -0.21205E+03         0.00000E+00
    0.00000E+00         0.00000E+00        -0.21608E+03
 
   -0.27629E+03         0.80508E+03         0.00000E+00
    0.80508E+03        -0.31074E+03         0.00000E+00
    0.00000E+00         0.00000E+00        -0.17611E+03
 
   -0.47849E+03        -0.46963E+02         0.00000E+00
   -0.46963E+02         0.26400E+01         0.00000E+00
    0.00000E+00         0.00000E+00        -0.14275E+03
 
   -0.52975E+03        -0.12936E+03         0.00000E+00
   -0.12936E+03         0.14434E+02         0.00000E+00
    0.00000E+00         0.00000E+00        -0.15459E+03
 
   -0.59920E+03        -0.19599E+03         0.00000E+00
   -0.19599E+03         0.35304E+02         0.00000E+00
    0.00000E+00         0.00000E+00        -0.16917E+03
 
   -0.68233E+03        -0.24640E+03         0.00000E+00
   -0.24640E+03         0.62985E+02         0.00000E+00
    0.00000E+00         0.00000E+00        -0.18580E+03
 
   -0.77471E+03        -0.28056E+03         0.00000E+00
   -0.28056E+03         0.95260E+02         0.00000E+00
    0.00000E+00         0.00000E+00        -0.20384E+03
 
   -0.87207E+03        -0.29872E+03         0.00000E+00
   -0.29872E+03         0.13000E+03         0.00000E+00
    0.00000E+00         0.00000E+00        -0.22262E+03
 
   -0.97030E+03        -0.30146E+03         0.00000E+00
   -0.30146E+03         0.16521E+03         0.00000E+00
    0.00000E+00         0.00000E+00        -0.24153E+03
 
   -0.10655E+04        -0.28958E+03         0.00000E+00
   -0.28958E+03         0.19903E+03         0.00000E+00
    0.00000E+00         0.00000E+00        -0.25995E+03
 
   -0.11542E+04        -0.26413E+03         0.00000E+00
   -0.26413E+03         0.22976E+03         0.00000E+00
    0.00000E+00         0.00000E+00        -0.27733E+03
 
   -0.12330E+04        -0.22629E+03         0.00000E+00
   -0.22629E+03         0.25590E+03         0.00000E+00
    0.00000E+00         0.00000E+00        -0.29312E+03
 
   -0.12989E+04        -0.17742E+03         0.00000E+00
   -0.17742E+03         0.27612E+03         0.00000E+00
    0.00000E+00         0.00000E+00        -0.30683E+03
 
   -0.13493E+04        -0.11897E+03         0.00000E+00
   -0.11897E+03         0.28930E+03         0.00000E+00
    0.00000E+00         0.00000E+00        -0.31800E+03
 
   -0.13819E+04        -0.52485E+02         0.00000E+00
   -0.52485E+02         0.29450E+03         0.00000E+00
    0.00000E+00         0.00000E+00        -0.32621E+03
 
   -0.13946E+04         0.20409E+02         0.00000E+00
    0.20409E+02         0.29096E+03         0.00000E+00
    0.00000E+00         0.00000E+00        -0.33110E+03
 
   -0.13859E+04         0.98039E+02         0.00000E+00
    0.98039E+02         0.27811E+03         0.00000E+00
    0.00000E+00         0.00000E+00        -0.33235E+03
 
   -0.13545E+04         0.17868E+03         0.00000E+00
    0.17868E+03         0.25558E+03         0.00000E+00
    0.00000E+00         0.00000E+00        -0.32968E+03
 
   -0.12994E+04         0.26054E+03         0.00000E+00
    0.26054E+03         0.22315E+03         0.00000E+00
    0.00000E+00         0.00000E+00        -0.32287E+03
 
   -0.12200E+04         0.34181E+03         0.00000E+00
    0.34181E+03         0.18078E+03         0.00000E+00
    0.00000E+00         0.00000E+00        -0.31175E+03
 
   -0.11160E+04         0.42061E+03         0.00000E+00
    0.42061E+03         0.12863E+03         0.00000E+00
    0.00000E+00         0.00000E+00        -0.29620E+03
 
   -0.98755E+03         0.49497E+03         0.00000E+00
    0.49497E+03         0.67020E+02         0.00000E+00
    0.00000E+00         0.00000E+00        -0.27616E+03
 
   -0.83518E+03         0.56291E+03         0.00000E+00
    0.56291E+03        -0.35399E+01         0.00000E+00
    0.00000E+00         0.00000E+00        -0.25161E+03
 
   -0.65973E+03         0.62234E+03         0.00000E+00
    0.62234E+03        -0.82325E+02         0.00000E+00
    0.00000E+00         0.00000E+00        -0.22262E+03
 
   -0.46253E+03         0.67109E+03         0.00000E+00
    0.67109E+03        -0.16839E+03         0.00000E+00
    0.00000E+00         0.00000E+00        -0.18928E+03
 
   -0.24534E+03         0.70696E+03         0.00000E+00
    0.70696E+03        -0.26056E+03         0.00000E+00
    0.00000E+00         0.00000E+00        -0.15177E+03
 
   -0.56291E+03        -0.41134E+02         0.00000E+00
   -0.41134E+02         0.25256E+01         0.00000E+00
    0.00000E+00         0.00000E+00        -0.16811E+03
 
   -0.59986E+03        -0.11352E+03         0.00000E+00
   -0.11352E+03         0.13813E+02         0.00000E+00
    0.00000E+00         0.00000E+00        -0.17581E+03
 
   -0.65437E+03        -0.17232E+03         0.00000E+00
   -0.17232E+03         0.33856E+02         0.00000E+00
    0.00000E+00         0.00000E+00        -0.18615E+03
 
   -0.72230E+03        -0.21707E+03         0.00000E+00
   -0.21707E+03         0.60563E+02         0.00000E+00
    0.00000E+00         0.00000E+00        -0.19852E+03
 
   -0.79956E+03        -0.24767E+03         0.00000E+00
   -0.24767E+03         0.91866E+02         0.00000E+00
    0.00000E+00         0.00000E+00        -0.21231E+03
 
   -0.88216E+03        -0.26428E+03         0.00000E+00
   -0.26428E+03         0.12576E+03         0.00000E+00
    0.00000E+00         0.00000E+00        -0.22692E+03
 
   -0.96626E+03        -0.26735E+03         0.00000E+00
   -0.26735E+03         0.16035E+03         0.00000E+00
    0.00000E+00         0.00000E+00        -0.24177E+03
 
   -0.10482E+04        -0.25756E+03         0.00000E+00
   -0.25756E+03         0.19385E+03         0.00000E+00
    0.00000E+00         0.00000E+00        -0.25631E+03
 
   -0.11246E+04        -0.23576E+03         0.00000E+00
   -0.23576E+03         0.22463E+03         0.00000E+00
    0.00000E+00         0.00000E+00        -0.27000E+03
 
   -0.11923E+04        -0.20299E+03         0.00000E+00
   -0.20299E+03         0.25119E+03         0.00000E+00
    0.00000E+00         0.00000E+00        -0.28234E+03
 
   -0.12485E+04        -0.16040E+03         0.00000E+00
   -0.16040E+03         0.27225E+03         0.00000E+00
    0.00000E+00         0.00000E+00        -0.29287E+03
 
   -0.12906E+04        -0.10927E+03         0.00000E+00
   -0.10927E+03         0.28668E+03         0.00000E+00
    0.00000E+00         0.00000E+00        -0.30116E+03
 
   -0.13163E+04        -0.50953E+02         0.00000E+00
   -0.50953E+02         0.29352E+03         0.00000E+00
    0.00000E+00         0.00000E+00        -0.30683E+03
 
   -0.13237E+04         0.13110E+02         0.00000E+00
    0.13110E+02         0.29201E+03         0.00000E+00
    0.00000E+00         0.00000E+00        -0.30952E+03
 
   -0.13114E+04         0.81425E+02         0.00000E+00
    0.81425E+02         0.28157E+03         0.00000E+00
    0.00000E+00         0.00000E+00        -0.30894E+03
 
   -0.12779E+04         0.15244E+03         0.00000E+00
    0.15244E+03         0.26181E+03         0.00000E+00
    0.00000E+00         0.00000E+00        -0.30484E+03
 
   -0.12225E+04         0.22457E+03         0.00000E+00
    0.22457E+03         0.23249E+03         0.00000E+00
    0.00000E+00         0.00000E+00        -0.29700E+03
 
   -0.11445E+04         0.29615E+03         0.00000E+00
    0.29615E+03         0.19359E+03         0.00000E+00
    0.00000E+00         0.00000E+00        -0.28528E+03
 
   -0.10438E+04         0.36550E+03         0.00000E+00
    0.36550E+03         0.14525E+03         0.00000E+00
    0.00000E+00         0.00000E+00        -0.26957E+03
 
   -0.92055E+03         0.43085E+03         0.00000E+00
    0.43085E+03         0.87803E+02         0.00000E+00
    0.00000E+00         0.00000E+00        -0.24983E+03
 
   -0.77527E+03         0.49040E+03         0.00000E+00
    0.49040E+03         0.21797E+02         0.00000E+00
    0.00000E+00         0.00000E+00        -0.22604E+03
 
   -0.60893E+03         0.54228E+03         0.00000E+00
    0.54228E+03        -0.52024E+02         0.00000E+00
    0.00000E+00         0.00000E+00        -0.19829E+03
 
   -0.42291E+03         0.58457E+03         0.00000E+00
    0.58457E+03        -0.13269E+03         0.00000E+00
    0.00000E+00         0.00000E+00        -0.16668E+03
 
   -0.21902E+03         0.61529E+03         0.00000E+00
    0.61529E+03        -0.21898E+03         0.00000E+00
    0.00000E+00         0.00000E+00        -0.13140E+03
 
   -0.63648E+03        -0.35582E+02         0.00000E+00
   -0.35582E+02         0.24191E+01         0.00000E+00
    0.00000E+00         0.00000E+00        -0.19022E+03
 
   -0.66121E+03        -0.98369E+02         0.00000E+00
   -0.98369E+02         0.13231E+02         0.00000E+00
    0.00000E+00         0.00000E+00        -0.19439E+03
 
   -0.70288E+03        -0.14957E+03         0.00000E+00
   -0.14957E+03         0.32487E+02         0.00000E+00
    0.00000E+00         0.00000E+00        -0.20112E+03
 
   -0.75768E+03        -0.18874E+03         0.00000E+00
   -0.18874E+03         0.58247E+02         0.00000E+00
    0.00000E+00         0.00000E+00        -0.20983E+03
 
   -0.82181E+03        -0.21572E+03         0.00000E+00
   -0.21572E+03         0.88579E+02         0.00000E+00
    0.00000E+00         0.00000E+00        -0.21997E+03
 
   -0.89156E+03        -0.23063E+03         0.00000E+00
   -0.23063E+03         0.12159E+03         0.00000E+00
    0.00000E+00         0.00000E+00        -0.23099E+03
 
   -0.96330E+03        -0.23380E+03         0.00000E+00
   -0.23380E+03         0.15547E+03         0.00000E+00
    0.00000E+00         0.00000E+00        -0.24235E+03
 
   -0.10336E+04        -0.22578E+03         0.00000E+00
   -0.22578E+03         0.18851E+03         0.00000E+00
    0.00000E+00         0.00000E+00        -0.25353E+03
 
   -0.10992E+04        -0.20729E+03         0.00000E+00
   -0.20729E+03         0.21913E+03         0.00000E+00
    0.00000E+00         0.00000E+00        -0.26403E+03
 
   -0.11572E+04        -0.17921E+03         0.00000E+00
   -0.17921E+03         0.24587E+03         0.00000E+00
    0.00000E+00         0.00000E+00        -0.27340E+03
 
   -0.12047E+04        -0.14252E+03         0.00000E+00
   -0.14252E+03         0.26746E+03         0.00000E+00
    0.00000E+00         0.00000E+00        -0.28118E+03
 
   -0.12394E+04        -0.98319E+02         0.00000E+00
   -0.98319E+02         0.28277E+03         0.00000E+00
    0.00000E+00         0.00000E+00        -0.28698E+03
 
   -0.12590E+04        -0.47793E+02         0.00000E+00
   -0.47793E+02         0.29087E+03         0.00000E+00
    0.00000E+00         0.00000E+00        -0.29045E+03
 
   -0.12618E+04         0.78048E+01         0.00000E+00
    0.78048E+01         0.29097E+03         0.00000E+00
    0.00000E+00         0.00000E+00        -0.29124E+03
 
   -0.12461E+04         0.67161E+02         0.00000E+00
    0.67161E+02         0.28249E+03         0.00000E+00
    0.00000E+00         0.00000E+00        -0.28909E+03
 
   -0.12109E+04         0.12891E+03         0.00000E+00
    0.12891E+03         0.26502E+03         0.00000E+00
    0.00000E+00         0.00000E+00        -0.28376E+03
 
   -0.11552E+04         0.19163E+03         0.00000E+00
    0.19163E+03         0.23833E+03         0.00000E+00
    0.00000E+00         0.00000E+00        -0.27505E+03
 
   -0.10785E+04         0.25387E+03         0.00000E+00
    0.25387E+03         0.20239E+03         0.00000E+00
    0.00000E+00         0.00000E+00        -0.26284E+03
 
   -0.98075E+03         0.31411E+03         0.00000E+00
    0.31411E+03         0.15735E+03         0.00000E+00
    0.00000E+00         0.00000E+00        -0.24702E+03
 
   -0.86210E+03         0.37081E+03         0.00000E+00
    0.37081E+03         0.10355E+03         0.00000E+00
    0.00000E+00         0.00000E+00        -0.22756E+03
 
   -0.72316E+03         0.42235E+03         0.00000E+00
    0.42235E+03         0.41553E+02         0.00000E+00
    0.00000E+00         0.00000E+00        -0.20448E+03
 
   -0.56496E+03         0.46710E+03         0.00000E+00
    0.46710E+03        -0.27879E+02         0.00000E+00
    0.00000E+00         0.00000E+00        -0.17785E+03
 
   -0.38890E+03         0.50336E+03         0.00000E+00
    0.50336E+03        -0.10375E+03         0.00000E+00
    0.00000E+00         0.00000E+00        -0.14779E+03
 
   -0.19684E+03         0.52940E+03         0.00000E+00
    0.52940E+03        -0.18482E+03         0.00000E+00
    0.00000E+00         0.00000E+00        -0.11450E+03
 
   -0.69971E+03        -0.30285E+02         0.00000E+00
   -0.30285E+02         0.23223E+01         0.00000E+00
    0.00000E+00         0.00000E+00        -0.20922E+03
 
   -0.71411E+03        -0.83853E+02         0.00000E+00
   -0.83853E+02         0.12699E+02         0.00000E+00
    0.00000E+00         0.00000E+00        -0.21042E+03
 
   -0.74487E+03        -0.12768E+03         0.00000E+00
   -0.12768E+03         0.31226E+02         0.00000E+00
    0.00000E+00         0.00000E+00        -0.21409E+03
 
   -0.78847E+03        -0.16136E+03         0.00000E+00
   -0.16136E+03         0.56098E+02         0.00000E+00
    0.00000E+00         0.00000E+00        -0.21971E+03
 
   -0.84138E+03        -0.18471E+03         0.00000E+00
   -0.18471E+03         0.85499E+02         0.00000E+00
    0.00000E+00         0.00000E+00        -0.22676E+03
 
   -0.90008E+03        -0.19779E+03         0.00000E+00
   -0.19779E+03         0.11764E+03         0.00000E+00
    0.00000E+00         0.00000E+00        -0.23473E+03
 
   -0.96118E+03        -0.20087E+03         0.00000E+00
   -0.20087E+03         0.15078E+03         0.00000E+00
    0.00000E+00         0.00000E+00        -0.24312E+03
 
   -0.10214E+04        -0.19438E+03         0.00000E+00
   -0.19438E+03         0.18329E+03         0.00000E+00
    0.00000E+00         0.00000E+00        -0.25144E+03
 
   -0.10777E+04        -0.17891E+03         0.00000E+00
   -0.17891E+03         0.21361E+03         0.00000E+00
    0.00000E+00         0.00000E+00        -0.25923E+03
 
   -0.11272E+04        -0.15519E+03         0.00000E+00
   -0.15519E+03         0.24035E+03         0.00000E+00
    0.00000E+00         0.00000E+00        -0.26605E+03
 
   -0.11672E+04        -0.12406E+03         0.00000E+00
   -0.12406E+03         0.26224E+03         0.00000E+00
    0.00000E+00         0.00000E+00        -0.27149E+03
 
   -0.11954E+04        -0.86454E+02         0.00000E+00
   -0.86454E+02         0.27817E+03         0.00000E+00
    0.00000E+00         0.00000E+00        -0.27518E+03
 
   -0.12097E+04        -0.43376E+02         0.00000E+00
   -0.43376E+02         0.28721E+03         0.00000E+00
    0.00000E+00         0.00000E+00        -0.27676E+03
 
   -0.12084E+04         0.40935E+01         0.00000E+00
    0.40935E+01         0.28857E+03         0.00000E+00
    0.00000E+00         0.00000E+00        -0.27594E+03
 
   -0.11898E+04         0.54820E+02         0.00000E+00
    0.54820E+02         0.28166E+03         0.00000E+00
    0.00000E+00         0.00000E+00        -0.27245E+03
 
   -0.11530E+04         0.10762E+03         0.00000E+00
    0.10762E+03         0.26608E+03         0.00000E+00
    0.00000E+00         0.00000E+00        -0.26608E+03
 
   -0.10971E+04         0.16126E+03         0.00000E+00
    0.16126E+03         0.24159E+03         0.00000E+00
    0.00000E+00         0.00000E+00        -0.25665E+03
 
   -0.10216E+04         0.21448E+03         0.00000E+00
    0.21448E+03         0.20816E+03         0.00000E+00
    0.00000E+00         0.00000E+00        -0.24403E+03
 
   -0.92640E+03         0.26595E+03         0.00000E+00
    0.26595E+03         0.16593E+03         0.00000E+00
    0.00000E+00         0.00000E+00        -0.22814E+03
 
   -0.81181E+03         0.31433E+03         0.00000E+00
    0.31433E+03         0.11527E+03         0.00000E+00
    0.00000E+00         0.00000E+00        -0.20896E+03
 
   -0.67847E+03         0.35823E+03         0.00000E+00
    0.35823E+03         0.56749E+02         0.00000E+00
    0.00000E+00         0.00000E+00        -0.18651E+03
 
   -0.52740E+03         0.39621E+03         0.00000E+00
    0.39621E+03        -0.88614E+01         0.00000E+00
    0.00000E+00         0.00000E+00        -0.16088E+03
 
   -0.36007E+03         0.42683E+03         0.00000E+00
    0.42683E+03        -0.80550E+02         0.00000E+00
    0.00000E+00         0.00000E+00        -0.13218E+03
 
   -0.17835E+03         0.44859E+03         0.00000E+00
    0.44859E+03        -0.15707E+03         0.00000E+00
    0.00000E+00         0.00000E+00        -0.10063E+03
 
   -0.75302E+03        -0.25218E+02         0.00000E+00
   -0.25218E+02         0.22367E+01         0.00000E+00
    0.00000E+00         0.00000E+00        -0.22524E+03
 
   -0.75885E+03        -0.69914E+02         0.00000E+00
   -0.69914E+02         0.12227E+02         0.00000E+00
    0.00000E+00         0.00000E+00        -0.22399E+03
 
   -0.78052E+03        -0.10659E+03         0.00000E+00
   -0.10659E+03         0.30100E+02         0.00000E+00
    0.00000E+00         0.00000E+00        -0.22513E+03
 
   -0.81474E+03        -0.13488E+03         0.00000E+00
   -0.13488E+03         0.54167E+02         0.00000E+00
    0.00000E+00         0.00000E+00        -0.22817E+03
 
   -0.85819E+03        -0.15459E+03         0.00000E+00
   -0.15459E+03         0.82712E+02         0.00000E+00
    0.00000E+00         0.00000E+00        -0.23264E+03
 
   -0.90759E+03        -0.16577E+03         0.00000E+00
   -0.16577E+03         0.11403E+03         0.00000E+00
    0.00000E+00         0.00000E+00        -0.23807E+03
 
   -0.95970E+03        -0.16859E+03         0.00000E+00
   -0.16859E+03         0.14645E+03         0.00000E+00
    0.00000E+00         0.00000E+00        -0.24397E+03
 
   -0.10114E+04        -0.16342E+03         0.00000E+00
   -0.16342E+03         0.17840E+03         0.00000E+00
    0.00000E+00         0.00000E+00        -0.24990E+03
 
   -0.10598E+04        -0.15073E+03         0.00000E+00
   -0.15073E+03         0.20837E+03         0.00000E+00
    0.00000E+00         0.00000E+00        -0.25542E+03
 
   -0.11020E+04        -0.13110E+03         0.00000E+00
   -0.13110E+03         0.23500E+03         0.00000E+00
    0.00000E+00         0.00000E+00        -0.26011E+03
 
   -0.11357E+04        -0.10525E+03         0.00000E+00
   -0.10525E+03         0.25703E+03         0.00000E+00
    0.00000E+00         0.00000E+00        -0.26359E+03
 
   -0.11583E+04        -0.73930E+02         0.00000E+00
   -0.73930E+02         0.27338E+03         0.00000E+00
    0.00000E+00         0.00000E+00        -0.26549E+03
 
   -0.11681E+04        -0.38000E+02         0.00000E+00
   -0.38000E+02         0.28310E+03         0.00000E+00
    0.00000E+00         0.00000E+00        -0.26550E+03
 
   -0.11632E+04         0.16398E+01         0.00000E+00
    0.16398E+01         0.28543E+03         0.00000E+00
    0.00000E+00         0.00000E+00        -0.26333E+03
 
   -0.11422E+04         0.44033E+02         0.00000E+00
    0.44033E+02         0.27978E+03         0.00000E+00
    0.00000E+00         0.00000E+00        -0.25873E+03
 
   -0.11040E+04         0.88178E+02         0.00000E+00
    0.88178E+02         0.26572E+03         0.00000E+00
    0.00000E+00         0.00000E+00        -0.25149E+03
 
   -0.10479E+04         0.13303E+03         0.00000E+00
    0.13303E+03         0.24304E+03         0.00000E+00
    0.00000E+00         0.00000E+00        -0.24146E+03
 
   -0.97341E+03         0.17752E+03         0.00000E+00
    0.17752E+03         0.21169E+03         0.00000E+00
    0.00000E+00         0.00000E+00        -0.22852E+03
 
   -0.88046E+03         0.22053E+03         0.00000E+00
    0.22053E+03         0.17183E+03         0.00000E+00
    0.00000E+00         0.00000E+00        -0.21259E+03
 
   -0.76938E+03         0.26091E+03         0.00000E+00
    0.26091E+03         0.12383E+03         0.00000E+00
    0.00000E+00         0.00000E+00        -0.19367E+03
 
   -0.64083E+03         0.29748E+03         0.00000E+00
    0.29748E+03         0.68252E+02         0.00000E+00
    0.00000E+00         0.00000E+00        -0.17177E+03
 
   -0.49589E+03         0.32903E+03         0.00000E+00
    0.32903E+03         0.58991E+01         0.00000E+00
    0.00000E+00         0.00000E+00        -0.14700E+03
 
   -0.33605E+03         0.35435E+03         0.00000E+00
    0.35435E+03        -0.62218E+02         0.00000E+00
    0.00000E+00         0.00000E+00        -0.11948E+03
 
   -0.16319E+03         0.37218E+03         0.00000E+00
    0.37218E+03        -0.13485E+03         0.00000E+00
    0.00000E+00         0.00000E+00        -0.89411E+02
 
   -0.79682E+03        -0.20350E+02         0.00000E+00
   -0.20350E+02         0.21635E+01         0.00000E+00
    0.00000E+00         0.00000E+00        -0.23840E+03
 
   -0.79570E+03        -0.56481E+02         0.00000E+00
   -0.56481E+02         0.11822E+02         0.00000E+00
    0.00000E+00         0.00000E+00        -0.23516E+03
 
   -0.80996E+03        -0.86204E+02         0.00000E+00
   -0.86204E+02         0.29131E+02         0.00000E+00
    0.00000E+00         0.00000E+00        -0.23425E+03
 
   -0.83652E+03        -0.10919E+03         0.00000E+00
   -0.10919E+03         0.52497E+02         0.00000E+00
    0.00000E+00         0.00000E+00        -0.23521E+03
 
   -0.87224E+03        -0.12529E+03         0.00000E+00
   -0.12529E+03         0.80287E+02         0.00000E+00
    0.00000E+00         0.00000E+00        -0.23758E+03
 
   -0.91399E+03        -0.13449E+03         0.00000E+00
   -0.13449E+03         0.11087E+03         0.00000E+00
    0.00000E+00         0.00000E+00        -0.24094E+03
 
   -0.95869E+03        -0.13695E+03         0.00000E+00
   -0.13695E+03         0.14264E+03         0.00000E+00
    0.00000E+00         0.00000E+00        -0.24482E+03
 
   -0.10034E+04        -0.13293E+03         0.00000E+00
   -0.13293E+03         0.17405E+03         0.00000E+00
    0.00000E+00         0.00000E+00        -0.24879E+03
 
   -0.10452E+04        -0.12280E+03         0.00000E+00
   -0.12280E+03         0.20366E+03         0.00000E+00
    0.00000E+00         0.00000E+00        -0.25245E+03
 
   -0.10815E+04        -0.10705E+03         0.00000E+00
   -0.10705E+03         0.23011E+03         0.00000E+00
    0.00000E+00         0.00000E+00        -0.25540E+03
 
   -0.11098E+04        -0.86224E+02         0.00000E+00
   -0.86224E+02         0.25218E+03         0.00000E+00
    0.00000E+00         0.00000E+00        -0.25728E+03
 
   -0.11279E+04        -0.60948E+02         0.00000E+00
   -0.60948E+02         0.26879E+03         0.00000E+00
    0.00000E+00         0.00000E+00        -0.25773E+03
 
   -0.11339E+04        -0.31907E+02         0.00000E+00
   -0.31907E+02         0.27901E+03         0.00000E+00
    0.00000E+00         0.00000E+00        -0.25645E+03
 
   -0.11260E+04         0.16226E+00         0.00000E+00
    0.16226E+00         0.28208E+03         0.00000E+00
    0.00000E+00         0.00000E+00        -0.25318E+03
 
   -0.11030E+04         0.34481E+02         0.00000E+00
    0.34481E+02         0.27740E+03         0.00000E+00
    0.00000E+00         0.00000E+00        -0.24767E+03
 
   -0.10637E+04         0.70230E+02         0.00000E+00
    0.70230E+02         0.26455E+03         0.00000E+00
    0.00000E+00         0.00000E+00        -0.23973E+03
 
   -0.10074E+04         0.10656E+03         0.00000E+00
    0.10656E+03         0.24332E+03         0.00000E+00
    0.00000E+00         0.00000E+00        -0.22922E+03
 
   -0.93372E+03         0.14258E+03         0.00000E+00
    0.14258E+03         0.21366E+03         0.00000E+00
    0.00000E+00         0.00000E+00        -0.21602E+03
 
   -0.84265E+03         0.17739E+03         0.00000E+00
    0.17739E+03         0.17573E+03         0.00000E+00
    0.00000E+00         0.00000E+00        -0.20007E+03
 
   -0.73449E+03         0.21003E+03         0.00000E+00
    0.21003E+03         0.12992E+03         0.00000E+00
    0.00000E+00         0.00000E+00        -0.18137E+03
 
   -0.60995E+03         0.23956E+03         0.00000E+00
    0.23956E+03         0.76782E+02         0.00000E+00
    0.00000E+00         0.00000E+00        -0.15995E+03
 
   -0.47013E+03         0.26498E+03         0.00000E+00
    0.26498E+03         0.17130E+02         0.00000E+00
    0.00000E+00         0.00000E+00        -0.13590E+03
 
   -0.31653E+03         0.28529E+03         0.00000E+00
    0.28529E+03        -0.48019E+02         0.00000E+00
    0.00000E+00         0.00000E+00        -0.10936E+03
 
   -0.15103E+03         0.29948E+03         0.00000E+00
    0.29948E+03        -0.11742E+03         0.00000E+00
    0.00000E+00         0.00000E+00        -0.80534E+02
 
   -0.83144E+03        -0.15650E+02         0.00000E+00
   -0.15650E+02         0.21038E+01         0.00000E+00
    0.00000E+00         0.00000E+00        -0.24880E+03
 
   -0.82489E+03        -0.43474E+02         0.00000E+00
   -0.43474E+02         0.11490E+02         0.00000E+00
    0.00000E+00         0.00000E+00        -0.24402E+03
 
   -0.83334E+03        -0.66409E+02         0.00000E+00
   -0.66409E+02         0.28335E+02         0.00000E+00
    0.00000E+00         0.00000E+00        -0.24150E+03
 
   -0.85386E+03        -0.84188E+02         0.00000E+00
   -0.84188E+02         0.51121E+02         0.00000E+00
    0.00000E+00         0.00000E+00        -0.24082E+03
 
   -0.88348E+03        -0.96679E+02         0.00000E+00
   -0.96679E+02         0.78281E+02         0.00000E+00
    0.00000E+00         0.00000E+00        -0.24156E+03
 
   -0.91918E+03        -0.10387E+03         0.00000E+00
   -0.10387E+03         0.10824E+03         0.00000E+00
    0.00000E+00         0.00000E+00        -0.24328E+03
 
   -0.95802E+03        -0.10587E+03         0.00000E+00
   -0.10587E+03         0.13944E+03         0.00000E+00
    0.00000E+00         0.00000E+00        -0.24557E+03
 
   -0.99711E+03        -0.10287E+03         0.00000E+00
   -0.10287E+03         0.17039E+03         0.00000E+00
    0.00000E+00         0.00000E+00        -0.24802E+03
 
   -0.10337E+04        -0.95159E+02         0.00000E+00
   -0.95159E+02         0.19966E+03         0.00000E+00
    0.00000E+00         0.00000E+00        -0.25022E+03
 
   -0.10652E+04        -0.83092E+02         0.00000E+00
   -0.83092E+02         0.22592E+03         0.00000E+00
    0.00000E+00         0.00000E+00        -0.25180E+03
 
   -0.10893E+04        -0.67097E+02         0.00000E+00
   -0.67097E+02         0.24797E+03         0.00000E+00
    0.00000E+00         0.00000E+00        -0.25241E+03
 
   -0.11038E+04        -0.47654E+02         0.00000E+00
   -0.47654E+02         0.26474E+03         0.00000E+00
    0.00000E+00         0.00000E+00        -0.25172E+03
 
   -0.11067E+04        -0.25290E+02         0.00000E+00
   -0.25290E+02         0.27531E+03         0.00000E+00
    0.00000E+00         0.00000E+00        -0.24943E+03
 
   -0.10965E+04        -0.57530E+00         0.00000E+00
   -0.57530E+00         0.27892E+03         0.00000E+00
    0.00000E+00         0.00000E+00        -0.24529E+03
 
   -0.10719E+04         0.25886E+02         0.00000E+00
    0.25886E+02         0.27497E+03         0.00000E+00
    0.00000E+00         0.00000E+00        -0.23907E+03
 
   -0.10317E+04         0.53458E+02         0.00000E+00
    0.53458E+02         0.26305E+03         0.00000E+00
    0.00000E+00         0.00000E+00        -0.23059E+03
 
   -0.97527E+03         0.81478E+02         0.00000E+00
    0.81478E+02         0.24294E+03         0.00000E+00
    0.00000E+00         0.00000E+00        -0.21970E+03
 
   -0.90228E+03         0.10926E+03         0.00000E+00
    0.10926E+03         0.21460E+03         0.00000E+00
    0.00000E+00         0.00000E+00        -0.20630E+03
 
   -0.81271E+03         0.13609E+03         0.00000E+00
    0.13609E+03         0.17821E+03         0.00000E+00
    0.00000E+00         0.00000E+00        -0.19035E+03
 
   -0.70690E+03         0.16123E+03         0.00000E+00
    0.16123E+03         0.13412E+03         0.00000E+00
    0.00000E+00         0.00000E+00        -0.17183E+03
 
   -0.58557E+03         0.18395E+03         0.00000E+00
    0.18395E+03         0.82925E+02         0.00000E+00
    0.00000E+00         0.00000E+00        -0.15079E+03
 
   -0.44985E+03         0.20347E+03         0.00000E+00
    0.20347E+03         0.25425E+02         0.00000E+00
    0.00000E+00         0.00000E+00        -0.12733E+03
 
   -0.30123E+03         0.21901E+03         0.00000E+00
    0.21901E+03        -0.37358E+02         0.00000E+00
    0.00000E+00         0.00000E+00        -0.10158E+03
 
   -0.14162E+03         0.22980E+03         0.00000E+00
    0.22980E+03        -0.10418E+03         0.00000E+00
    0.00000E+00         0.00000E+00        -0.73737E+02
 
   -0.85715E+03        -0.11083E+02         0.00000E+00
   -0.11083E+02         0.20584E+01         0.00000E+00
    0.00000E+00         0.00000E+00        -0.25653E+03
 
   -0.84661E+03        -0.30806E+02         0.00000E+00
   -0.30806E+02         0.11237E+02         0.00000E+00
    0.00000E+00         0.00000E+00        -0.25061E+03
 
   -0.85076E+03        -0.47088E+02         0.00000E+00
   -0.47088E+02         0.27727E+02         0.00000E+00
    0.00000E+00         0.00000E+00        -0.24691E+03
 
   -0.86682E+03        -0.59732E+02         0.00000E+00
   -0.59732E+02         0.50066E+02         0.00000E+00
    0.00000E+00         0.00000E+00        -0.24503E+03
 
   -0.89191E+03        -0.68638E+02         0.00000E+00
   -0.68638E+02         0.76739E+02         0.00000E+00
    0.00000E+00         0.00000E+00        -0.24455E+03
 
   -0.92313E+03        -0.73793E+02         0.00000E+00
   -0.73793E+02         0.10621E+03         0.00000E+00
    0.00000E+00         0.00000E+00        -0.24507E+03
 
   -0.95760E+03        -0.75265E+02         0.00000E+00
   -0.75265E+02         0.13697E+03         0.00000E+00
    0.00000E+00         0.00000E+00        -0.24619E+03
 
   -0.99254E+03        -0.73190E+02         0.00000E+00
   -0.73190E+02         0.16754E+03         0.00000E+00
    0.00000E+00         0.00000E+00        -0.24750E+03
 
   -0.10253E+04        -0.67766E+02         0.00000E+00
   -0.67766E+02         0.19653E+03         0.00000E+00
    0.00000E+00         0.00000E+00        -0.24862E+03
 
   -0.10532E+04        -0.59246E+02         0.00000E+00
   -0.59246E+02         0.22262E+03         0.00000E+00
    0.00000E+00         0.00000E+00        -0.24919E+03
 
   -0.10742E+04        -0.47930E+02         0.00000E+00
   -0.47930E+02         0.24463E+03         0.00000E+00
    0.00000E+00         0.00000E+00        -0.24886E+03
 
   -0.10859E+04        -0.34158E+02         0.00000E+00
   -0.34158E+02         0.26149E+03         0.00000E+00
    0.00000E+00         0.00000E+00        -0.24732E+03
 
   -0.10866E+04        -0.18304E+02         0.00000E+00
   -0.18304E+02         0.27229E+03         0.00000E+00
    0.00000E+00         0.00000E+00        -0.24429E+03
 
   -0.10746E+04        -0.77339E+00         0.00000E+00
   -0.77339E+00         0.27627E+03         0.00000E+00
    0.00000E+00         0.00000E+00        -0.23951E+03
 
   -0.10487E+04         0.18003E+02         0.00000E+00
    0.18003E+02         0.27284E+03         0.00000E+00
    0.00000E+00         0.00000E+00        -0.23276E+03
 
   -0.10079E+04         0.37571E+02         0.00000E+00
    0.37571E+02         0.26160E+03         0.00000E+00
    0.00000E+00         0.00000E+00        -0.22388E+03
 
   -0.95136E+03         0.57458E+02         0.00000E+00
    0.57458E+02         0.24231E+03         0.00000E+00
    0.00000E+00         0.00000E+00        -0.21271E+03
 
   -0.87888E+03         0.77172E+02         0.00000E+00
    0.77172E+02         0.21495E+03         0.00000E+00
    0.00000E+00         0.00000E+00        -0.19918E+03
 
   -0.79044E+03         0.96204E+02         0.00000E+00
    0.96204E+02         0.17969E+03         0.00000E+00
    0.00000E+00         0.00000E+00        -0.18323E+03
 
   -0.68639E+03         0.11403E+03         0.00000E+00
    0.11403E+03         0.13689E+03         0.00000E+00
    0.00000E+00         0.00000E+00        -0.16485E+03
 
   -0.56748E+03         0.13012E+03         0.00000E+00
    0.13012E+03         0.87139E+02         0.00000E+00
    0.00000E+00         0.00000E+00        -0.14410E+03
 
   -0.43482E+03         0.14393E+03         0.00000E+00
    0.14393E+03         0.31247E+02         0.00000E+00
    0.00000E+00         0.00000E+00        -0.12107E+03
 
   -0.28994E+03         0.15489E+03         0.00000E+00
    0.15489E+03        -0.29766E+02         0.00000E+00
    0.00000E+00         0.00000E+00        -0.95912E+02
 
   -0.13473E+03         0.16247E+03         0.00000E+00
    0.16247E+03        -0.94652E+02         0.00000E+00
    0.00000E+00         0.00000E+00        -0.68816E+02
 
   -0.87418E+03        -0.66110E+01         0.00000E+00
   -0.66110E+01         0.20278E+01         0.00000E+00
    0.00000E+00         0.00000E+00        -0.26165E+03
 
   -0.86100E+03        -0.18384E+02         0.00000E+00
   -0.18384E+02         0.11066E+02         0.00000E+00
    0.00000E+00         0.00000E+00        -0.25498E+03
 
   -0.86233E+03        -0.28113E+02         0.00000E+00
   -0.28113E+02         0.27316E+02         0.00000E+00
    0.00000E+00         0.00000E+00        -0.25050E+03
 
   -0.87544E+03        -0.35676E+02         0.00000E+00
   -0.35676E+02         0.49352E+02         0.00000E+00
    0.00000E+00         0.00000E+00        -0.24783E+03
 
   -0.89753E+03        -0.41013E+02         0.00000E+00
   -0.41013E+02         0.75694E+02         0.00000E+00
    0.00000E+00         0.00000E+00        -0.24655E+03
 
   -0.92578E+03        -0.44112E+02         0.00000E+00
   -0.44112E+02         0.10484E+03         0.00000E+00
    0.00000E+00         0.00000E+00        -0.24628E+03
 
   -0.95736E+03        -0.45013E+02         0.00000E+00
   -0.45013E+02         0.13529E+03         0.00000E+00
    0.00000E+00         0.00000E+00        -0.24662E+03
 
   -0.98954E+03        -0.43795E+02         0.00000E+00
   -0.43795E+02         0.16560E+03         0.00000E+00
    0.00000E+00         0.00000E+00        -0.24718E+03
 
   -0.10197E+04        -0.40574E+02         0.00000E+00
   -0.40574E+02         0.19438E+03         0.00000E+00
    0.00000E+00         0.00000E+00        -0.24759E+03
 
   -0.10453E+04        -0.35502E+02         0.00000E+00
   -0.35502E+02         0.22034E+03         0.00000E+00
    0.00000E+00         0.00000E+00        -0.24749E+03
 
   -0.10641E+04        -0.28755E+02         0.00000E+00
   -0.28755E+02         0.24231E+03         0.00000E+00
    0.00000E+00         0.00000E+00        -0.24654E+03
 
   -0.10740E+04        -0.20538E+02         0.00000E+00
   -0.20538E+02         0.25921E+03         0.00000E+00
    0.00000E+00         0.00000E+00        -0.24445E+03
 
   -0.10732E+04        -0.11074E+02         0.00000E+00
   -0.11074E+02         0.27015E+03         0.00000E+00
    0.00000E+00         0.00000E+00        -0.24092E+03
 
   -0.10601E+04        -0.60524E+00         0.00000E+00
   -0.60524E+00         0.27437E+03         0.00000E+00
    0.00000E+00         0.00000E+00        -0.23572E+03
 
   -0.10334E+04         0.10610E+02         0.00000E+00
    0.10610E+02         0.27129E+03         0.00000E+00
    0.00000E+00         0.00000E+00        -0.22863E+03
 
   -0.99206E+03         0.22300E+02         0.00000E+00
    0.22300E+02         0.26048E+03         0.00000E+00
    0.00000E+00         0.00000E+00        -0.21947E+03
 
   -0.93551E+03         0.34181E+02         0.00000E+00
    0.34181E+02         0.24174E+03         0.00000E+00
    0.00000E+00         0.00000E+00        -0.20813E+03
 
   -0.86337E+03         0.45957E+02         0.00000E+00
    0.45957E+02         0.21502E+03         0.00000E+00
    0.00000E+00         0.00000E+00        -0.19451E+03
 
   -0.77568E+03         0.57324E+02         0.00000E+00
    0.57324E+02         0.18050E+03         0.00000E+00
    0.00000E+00         0.00000E+00        -0.17855E+03
 
   -0.67280E+03         0.67967E+02         0.00000E+00
    0.67967E+02         0.13855E+03         0.00000E+00
    0.00000E+00         0.00000E+00        -0.16028E+03
 
   -0.55550E+03         0.77567E+02         0.00000E+00
    0.77567E+02         0.89763E+02         0.00000E+00
    0.00000E+00         0.00000E+00        -0.13972E+03
 
   -0.42490E+03         0.85795E+02         0.00000E+00
    0.85795E+02         0.34940E+02         0.00000E+00
    0.00000E+00         0.00000E+00        -0.11699E+03
 
   -0.28251E+03         0.92321E+02         0.00000E+00
    0.92321E+02        -0.24895E+02         0.00000E+00
    0.00000E+00         0.00000E+00        -0.92221E+02
 
   -0.13023E+03         0.96814E+02         0.00000E+00
    0.96814E+02        -0.88496E+02         0.00000E+00
    0.00000E+00         0.00000E+00        -0.65619E+02
 
   -0.88266E+03        -0.21972E+01         0.00000E+00
   -0.21972E+01         0.20124E+01         0.00000E+00
    0.00000E+00         0.00000E+00        -0.26419E+03
 
   -0.86817E+03        -0.61115E+01         0.00000E+00
   -0.61115E+01         0.10981E+02         0.00000E+00
    0.00000E+00         0.00000E+00        -0.25716E+03
 
   -0.86810E+03        -0.93474E+01         0.00000E+00
   -0.93474E+01         0.27108E+02         0.00000E+00
    0.00000E+00         0.00000E+00        -0.25230E+03
 
   -0.87974E+03        -0.11865E+02         0.00000E+00
   -0.11865E+02         0.48992E+02         0.00000E+00
    0.00000E+00         0.00000E+00        -0.24922E+03
 
   -0.90035E+03        -0.13642E+02         0.00000E+00
   -0.13642E+02         0.75165E+02         0.00000E+00
    0.00000E+00         0.00000E+00        -0.24755E+03
 
   -0.92711E+03        -0.14677E+02         0.00000E+00
   -0.14677E+02         0.10414E+03         0.00000E+00
    0.00000E+00         0.00000E+00        -0.24689E+03
 
   -0.95725E+03        -0.14980E+02         0.00000E+00
   -0.14980E+02         0.13444E+03         0.00000E+00
    0.00000E+00         0.00000E+00        -0.24684E+03
 
   -0.98805E+03        -0.14578E+02         0.00000E+00
   -0.14578E+02         0.16461E+03         0.00000E+00
    0.00000E+00         0.00000E+00        -0.24703E+03
 
   -0.10169E+04        -0.13510E+02         0.00000E+00
   -0.13510E+02         0.19329E+03         0.00000E+00
    0.00000E+00         0.00000E+00        -0.24708E+03
 
   -0.10414E+04        -0.11826E+02         0.00000E+00
   -0.11826E+02         0.21919E+03         0.00000E+00
    0.00000E+00         0.00000E+00        -0.24665E+03
 
   -0.10591E+04        -0.95842E+01         0.00000E+00
   -0.95842E+01         0.24112E+03         0.00000E+00
    0.00000E+00         0.00000E+00        -0.24540E+03
 
   -0.10681E+04        -0.68529E+01         0.00000E+00
   -0.68529E+01         0.25805E+03         0.00000E+00
    0.00000E+00         0.00000E+00        -0.24302E+03
 
   -0.10666E+04        -0.37062E+01         0.00000E+00
   -0.37062E+01         0.26905E+03         0.00000E+00
    0.00000E+00         0.00000E+00        -0.23925E+03
 
   -0.10529E+04        -0.22490E+00         0.00000E+00
   -0.22490E+00         0.27339E+03         0.00000E+00
    0.00000E+00         0.00000E+00        -0.23384E+03
 
   -0.10257E+04         0.35051E+01         0.00000E+00
    0.35051E+01         0.27046E+03         0.00000E+00
    0.00000E+00         0.00000E+00        -0.22658E+03
 
   -0.98419E+03         0.73933E+01         0.00000E+00
    0.73933E+01         0.25988E+03         0.00000E+00
    0.00000E+00         0.00000E+00        -0.21729E+03
 
   -0.92761E+03         0.11345E+02         0.00000E+00
    0.11345E+02         0.24140E+03         0.00000E+00
    0.00000E+00         0.00000E+00        -0.20586E+03
 
   -0.85564E+03         0.15262E+02         0.00000E+00
    0.15262E+02         0.21500E+03         0.00000E+00
    0.00000E+00         0.00000E+00        -0.19219E+03
 
   -0.76832E+03         0.19042E+02         0.00000E+00
    0.19042E+02         0.18085E+03         0.00000E+00
    0.00000E+00         0.00000E+00        -0.17624E+03
 
   -0.66604E+03         0.22580E+02         0.00000E+00
    0.22580E+02         0.13933E+03         0.00000E+00
    0.00000E+00         0.00000E+00        -0.15801E+03
 
   -0.54954E+03         0.25771E+02         0.00000E+00
    0.25771E+02         0.91020E+02         0.00000E+00
    0.00000E+00         0.00000E+00        -0.13756E+03
 
   -0.41996E+03         0.28505E+02         0.00000E+00
    0.28505E+02         0.36731E+02         0.00000E+00
    0.00000E+00         0.00000E+00        -0.11497E+03
 
   -0.27882E+03         0.30671E+02         0.00000E+00
    0.30671E+02        -0.22516E+02         0.00000E+00
    0.00000E+00         0.00000E+00        -0.90400E+02
 
   -0.12801E+03         0.32160E+02         0.00000E+00
    0.32160E+02        -0.85476E+02         0.00000E+00
    0.00000E+00         0.00000E+00        -0.64045E+02
 
TENSORS stresstot double 
   -0.69268E+05         0.61812E+03         0.00000E+00
    0.61812E+03        -0.99344E+05         0.00000E+00
    0.00000E+00         0.00000E+00        -0.50584E+05
 
   -0.36011E+05         0.35672E+04         0.00000E+00
    0.35672E+04        -0.95065E+05         0.00000E+00
    0.00000E+00         0.00000E+00        -0.39324E+05
 
   -0.16312E+05         0.53464E+04         0.00000E+00
    0.53464E+04        -0.85331E+05         0.00000E+00
    0.00000E+00         0.00000E+00        -0.30494E+05
 
   -0.65795E+04         0.51471E+04         0.00000E+00
    0.51471E+04        -0.74779E+05         0.00000E+00
    0.00000E+00         0.00000E+00        -0.24409E+05
 
   -0.17962E+04         0.43655E+04         0.00000E+00
    0.43655E+04        -0.65457E+05         0.00000E+00
    0.00000E+00         0.00000E+00        -0.20177E+05
 
    0.58945E+03         0.35678E+04         0.00000E+00
    0.35678E+04        -0.57722E+05         0.00000E+00
    0.00000E+00         0.00000E+00        -0.17141E+05
 
    0.17564E+04         0.28931E+04         0.00000E+00
    0.28931E+04        -0.51418E+05         0.00000E+00
    0.00000E+00         0.00000E+00        -0.14900E+05
 
    0.22723E+04         0.23539E+04         0.00000E+00
    0.23539E+04        -0.46287E+05         0.00000E+00
    0.00000E+00         0.00000E+00        -0.13206E+05
 
    0.24218E+04         0.19294E+04         0.00000E+00
    0.19294E+04        -0.42086E+05         0.00000E+00
    0.00000E+00         0.00000E+00        -0.11902E+05
 
    0.23537E+04         0.15951E+04         0.00000E+00
    0.15951E+04        -0.38622E+05         0.00000E+00
    0.00000E+00         0.00000E+00        -0.10883E+05
 
    0.21485E+04         0.13299E+04         0.00000E+00
    0.13299E+04        -0.35741E+05         0.00000E+00
    0.00000E+00         0.00000E+00        -0.10080E+05
 
    0.18499E+04         0.11176E+04         0.00000E+00
    0.11176E+04        -0.33326E+05         0.00000E+00
    0.00000E+00         0.00000E+00        -0.94454E+04
 
    0.14817E+04         0.94618E+03         0.00000E+00
    0.94618E+03        -0.31286E+05         0.00000E+00
    0.00000E+00         0.00000E+00        -0.89442E+04
 
    0.10553E+04         0.80663E+03         0.00000E+00
    0.80663E+03        -0.29552E+05         0.00000E+00
    0.00000E+00         0.00000E+00        -0.85519E+04
 
    0.57458E+03         0.69240E+03         0.00000E+00
    0.69240E+03        -0.28067E+05         0.00000E+00
    0.00000E+00         0.00000E+00        -0.82509E+04
 
    0.38050E+02         0.59865E+03         0.00000E+00
    0.59865E+03        -0.26787E+05         0.00000E+00
    0.00000E+00         0.00000E+00        -0.80280E+04
 
   -0.55983E+03         0.52194E+03         0.00000E+00
    0.52194E+03        -0.25675E+05         0.00000E+00
    0.00000E+00         0.00000E+00        -0.78739E+04
 
   -0.12282E+04         0.45980E+03         0.00000E+00
    0.45980E+03        -0.24700E+05         0.00000E+00
    0.00000E+00         0.00000E+00        -0.77821E+04
 
   -0.19797E+04         0.41065E+03         0.00000E+00
    0.41065E+03        -0.23836E+05         0.00000E+00
    0.00000E+00         0.00000E+00        -0.77482E+04
 
   -0.28307E+04         0.37360E+03         0.00000E+00
    0.37360E+03        -0.23056E+05         0.00000E+00
    0.00000E+00         0.00000E+00        -0.77698E+04
 
   -0.38022E+04         0.34844E+03         0.00000E+00
    0.34844E+03        -0.22338E+05         0.00000E+00
    0.00000E+00         0.00000E+00        -0.78460E+04
 
   -0.49203E+04         0.33562E+03         0.00000E+00
    0.33562E+03        -0.21658E+05         0.00000E+00
    0.00000E+00         0.00000E+00        -0.79774E+04
 
   -0.62180E+04         0.33638E+03         0.00000E+00
    0.33638E+03        -0.20990E+05         0.00000E+00
    0.00000E+00         0.00000E+00        -0.81663E+04
 
   -0.77369E+04         0.35281E+03         0.00000E+00
    0.35281E+03        -0.20305E+05         0.00000E+00
    0.00000E+00         0.00000E+00        -0.84164E+04
 
   -0.64581E+05         0.30733E+04         0.00000E+00
    0.30733E+04        -0.99316E+05         0.00000E+00
    0.00000E+00         0.00000E+00        -0.49170E+05
 
   -0.30576E+05         0.13481E+05         0.00000E+00
    0.13481E+05        -0.87764E+05         0.00000E+00
    0.00000E+00         0.00000E+00        -0.35503E+05
 
   -0.15865E+05         0.15997E+05         0.00000E+00
    0.15997E+05        -0.76817E+05         0.00000E+00
    0.00000E+00         0.00000E+00        -0.27805E+05
 
   -0.79201E+04         0.14598E+05         0.00000E+00
    0.14598E+05        -0.67775E+05         0.00000E+00
    0.00000E+00         0.00000E+00        -0.22710E+05
 
   -0.33878E+04         0.12296E+05         0.00000E+00
    0.12296E+05        -0.60185E+05         0.00000E+00
    0.00000E+00         0.00000E+00        -0.19073E+05
 
   -0.82349E+03         0.10092E+05         0.00000E+00
    0.10092E+05        -0.53839E+05         0.00000E+00
    0.00000E+00         0.00000E+00        -0.16400E+05
 
    0.60403E+03         0.82403E+04         0.00000E+00
    0.82403E+04        -0.48548E+05         0.00000E+00
    0.00000E+00         0.00000E+00        -0.14385E+05
 
    0.13567E+04         0.67507E+04         0.00000E+00
    0.67507E+04        -0.44137E+05         0.00000E+00
    0.00000E+00         0.00000E+00        -0.12836E+05
 
    0.16978E+04         0.55668E+04         0.00000E+00
    0.55668E+04        -0.40449E+05         0.00000E+00
    0.00000E+00         0.00000E+00        -0.11628E+05
 
    0.17788E+04         0.46256E+04         0.00000E+00
    0.46256E+04        -0.37352E+05         0.00000E+00
    0.00000E+00         0.00000E+00        -0.10674E+05
 
    0.16884E+04         0.38730E+04         0.00000E+00
    0.38730E+04        -0.34739E+05         0.00000E+00
    0.00000E+00         0.00000E+00        -0.99176E+04
 
    0.14787E+04         0.32663E+04         0.00000E+00
    0.32663E+04        -0.32521E+05         0.00000E+00
    0.00000E+00         0.00000E+00        -0.93154E+04
 
    0.11797E+04         0.27735E+04         0.00000E+00
    0.27735E+04        -0.30629E+05         0.00000E+00
    0.00000E+00         0.00000E+00        -0.88377E+04
 
    0.80806E+03         0.23704E+04         0.00000E+00
    0.23704E+04        -0.29007E+05         0.00000E+00
    0.00000E+00         0.00000E+00        -0.84626E+04
 
    0.37142E+03         0.20391E+04         0.00000E+00
    0.20391E+04        -0.27607E+05         0.00000E+00
    0.00000E+00         0.00000E+00        -0.81740E+04
 
   -0.12884E+03         0.17664E+04         0.00000E+00
    0.17664E+04        -0.26394E+05         0.00000E+00
    0.00000E+00         0.00000E+00        -0.79602E+04
 
   -0.69603E+03         0.15426E+04         0.00000E+00
    0.15426E+04        -0.25334E+05         0.00000E+00
    0.00000E+00         0.00000E+00        -0.78125E+04
 
   -0.13375E+04         0.13611E+04         0.00000E+00
    0.13611E+04        -0.24400E+05         0.00000E+00
    0.00000E+00         0.00000E+00        -0.77249E+04
 
   -0.20645E+04         0.12173E+04         0.00000E+00
    0.12173E+04        -0.23568E+05         0.00000E+00
    0.00000E+00         0.00000E+00        -0.76934E+04
 
   -0.28920E+04         0.11089E+04         0.00000E+00
    0.11089E+04        -0.22815E+05         0.00000E+00
    0.00000E+00         0.00000E+00        -0.77158E+04
 
   -0.38397E+04         0.10354E+04         0.00000E+00
    0.10354E+04        -0.22118E+05         0.00000E+00
    0.00000E+00         0.00000E+00        -0.77912E+04
 
   -0.49324E+04         0.99828E+03         0.00000E+00
    0.99828E+03        -0.21457E+05         0.00000E+00
    0.00000E+00         0.00000E+00        -0.79205E+04
 
   -0.62014E+04         0.10012E+04         0.00000E+00
    0.10012E+04        -0.20805E+05         0.00000E+00
    0.00000E+00         0.00000E+00        -0.81057E+04
 
   -0.76862E+04         0.10503E+04         0.00000E+00
    0.10503E+04        -0.20135E+05         0.00000E+00
    0.00000E+00         0.00000E+00        -0.83504E+04
 
   -0.48122E+05         0.17594E+05         0.00000E+00
    0.17594E+05        -0.74889E+05         0.00000E+00
    0.00000E+00         0.00000E+00        -0.36904E+05
 
   -0.26322E+05         0.25407E+05         0.00000E+00
    0.25407E+05        -0.65491E+05         0.00000E+00
    0.00000E+00         0.00000E+00        -0.27545E+05
 
   -0.17170E+05         0.24191E+05         0.00000E+00
    0.24191E+05        -0.59592E+05         0.00000E+00
    0.00000E+00         0.00000E+00        -0.23029E+05
 
   -0.10623E+05         0.21198E+05         0.00000E+00
    0.21198E+05        -0.54922E+05         0.00000E+00
    0.00000E+00         0.00000E+00        -0.19664E+05
 
   -0.61886E+04         0.17918E+05         0.00000E+00
    0.17918E+05        -0.50728E+05         0.00000E+00
    0.00000E+00         0.00000E+00        -0.17076E+05
 
   -0.32706E+04         0.14922E+05         0.00000E+00
    0.14922E+05        -0.46857E+05         0.00000E+00
    0.00000E+00         0.00000E+00        -0.15040E+05
 
   -0.14135E+04         0.12380E+05         0.00000E+00
    0.12380E+05        -0.43337E+05         0.00000E+00
    0.00000E+00         0.00000E+00        -0.13427E+05
 
   -0.27143E+03         0.10288E+05         0.00000E+00
    0.10288E+05        -0.40189E+05         0.00000E+00
    0.00000E+00         0.00000E+00        -0.12140E+05
 
    0.39046E+03         0.85881E+04         0.00000E+00
    0.85881E+04        -0.37409E+05         0.00000E+00
    0.00000E+00         0.00000E+00        -0.11108E+05
 
    0.72664E+03         0.72088E+04         0.00000E+00
    0.72088E+04        -0.34972E+05         0.00000E+00
    0.00000E+00         0.00000E+00        -0.10276E+05
 
    0.83682E+03         0.60866E+04         0.00000E+00
    0.60866E+04        -0.32844E+05         0.00000E+00
    0.00000E+00         0.00000E+00        -0.96047E+04
 
    0.78478E+03         0.51691E+04         0.00000E+00
    0.51691E+04        -0.30989E+05         0.00000E+00
    0.00000E+00         0.00000E+00        -0.90639E+04
 
    0.61073E+03         0.44149E+04         0.00000E+00
    0.44149E+04        -0.29370E+05         0.00000E+00
    0.00000E+00         0.00000E+00        -0.86308E+04
 
    0.33923E+03         0.37919E+04         0.00000E+00
    0.37919E+04        -0.27957E+05         0.00000E+00
    0.00000E+00         0.00000E+00        -0.82883E+04
 
   -0.15863E+02         0.32759E+04         0.00000E+00
    0.32759E+04        -0.26719E+05         0.00000E+00
    0.00000E+00         0.00000E+00        -0.80237E+04
 
   -0.44829E+03         0.28484E+04         0.00000E+00
    0.28484E+04        -0.25631E+05         0.00000E+00
    0.00000E+00         0.00000E+00        -0.78271E+04
 
   -0.95758E+03         0.24959E+04         0.00000E+00
    0.24959E+04        -0.24670E+05         0.00000E+00
    0.00000E+00         0.00000E+00        -0.76917E+04
 
   -0.15479E+04         0.22089E+04         0.00000E+00
    0.22089E+04        -0.23814E+05         0.00000E+00
    0.00000E+00         0.00000E+00        -0.76122E+04
 
   -0.22279E+04         0.19811E+04         0.00000E+00
    0.19811E+04        -0.23044E+05         0.00000E+00
    0.00000E+00         0.00000E+00        -0.75853E+04
 
   -0.30100E+04         0.18094E+04         0.00000E+00
    0.18094E+04        -0.22341E+05         0.00000E+00
    0.00000E+00         0.00000E+00        -0.76092E+04
 
   -0.39115E+04         0.16934E+04         0.00000E+00
    0.16934E+04        -0.21687E+05         0.00000E+00
    0.00000E+00         0.00000E+00        -0.76833E+04
 
   -0.49546E+04         0.16357E+04         0.00000E+00
    0.16357E+04        -0.21060E+05         0.00000E+00
    0.00000E+00         0.00000E+00        -0.78083E+04
 
   -0.61676E+04         0.16424E+04         0.00000E+00
    0.16424E+04        -0.20440E+05         0.00000E+00
    0.00000E+00         0.00000E+00        -0.79862E+04
 
   -0.75862E+04         0.17238E+04         0.00000E+00
    0.17238E+04        -0.19802E+05         0.00000E+00
    0.00000E+00         0.00000E+00        -0.82203E+04
 
   -0.22457E+05         0.17640E+05         0.00000E+00
    0.17640E+05        -0.25090E+05         0.00000E+00
    0.00000E+00         0.00000E+00        -0.14264E+05
 
   -0.25864E+05         0.25944E+05         0.00000E+00
    0.25944E+05        -0.33925E+05         0.00000E+00
    0.00000E+00         0.00000E+00        -0.17937E+05
 
   -0.19351E+05         0.25462E+05         0.00000E+00
    0.25462E+05        -0.37966E+05         0.00000E+00
    0.00000E+00         0.00000E+00        -0.17196E+05
 
   -0.13712E+05         0.23127E+05         0.00000E+00
    0.23127E+05        -0.39342E+05         0.00000E+00
    0.00000E+00         0.00000E+00        -0.15917E+05
 
   -0.92880E+04         0.20259E+05         0.00000E+00
    0.20259E+05        -0.39182E+05         0.00000E+00
    0.00000E+00         0.00000E+00        -0.14542E+05
 
   -0.60637E+04         0.17422E+05         0.00000E+00
    0.17422E+05        -0.38161E+05         0.00000E+00
    0.00000E+00         0.00000E+00        -0.13269E+05
 
   -0.38024E+04         0.14850E+05         0.00000E+00
    0.14850E+05        -0.36697E+05         0.00000E+00
    0.00000E+00         0.00000E+00        -0.12151E+05
 
   -0.22661E+04         0.12620E+05         0.00000E+00
    0.12620E+05        -0.35050E+05         0.00000E+00
    0.00000E+00         0.00000E+00        -0.11197E+05
 
   -0.12584E+04         0.10729E+05         0.00000E+00
    0.10729E+05        -0.33376E+05         0.00000E+00
    0.00000E+00         0.00000E+00        -0.10392E+05
 
   -0.63282E+03         0.91414E+04         0.00000E+00
    0.91414E+04        -0.31762E+05         0.00000E+00
    0.00000E+00         0.00000E+00        -0.97208E+04
 
   -0.28560E+03         0.78138E+04         0.00000E+00
    0.78138E+04        -0.30253E+05         0.00000E+00
    0.00000E+00         0.00000E+00        -0.91642E+04
 
   -0.14480E+03         0.67039E+04         0.00000E+00
    0.67039E+04        -0.28868E+05         0.00000E+00
    0.00000E+00         0.00000E+00        -0.87067E+04
 
   -0.16175E+03         0.57748E+04         0.00000E+00
    0.57748E+04        -0.27611E+05         0.00000E+00
    0.00000E+00         0.00000E+00        -0.83347E+04
 
   -0.30428E+03         0.49961E+04         0.00000E+00
    0.49961E+04        -0.26477E+05         0.00000E+00
    0.00000E+00         0.00000E+00        -0.80375E+04
 
   -0.55213E+03         0.43432E+04         0.00000E+00
    0.43432E+04        -0.25458E+05         0.00000E+00
    0.00000E+00         0.00000E+00        -0.78061E+04
 
   -0.89372E+03         0.37973E+04         0.00000E+00
    0.37973E+04        -0.24541E+05         0.00000E+00
    0.00000E+00         0.00000E+00        -0.76338E+04
 
   -0.13242E+04         0.33438E+04         0.00000E+00
    0.33438E+04        -0.23716E+05         0.00000E+00
    0.00000E+00         0.00000E+00        -0.75155E+04
 
   -0.18439E+04         0.29727E+04         0.00000E+00
    0.29727E+04        -0.22969E+05         0.00000E+00
    0.00000E+00         0.00000E+00        -0.74474E+04
 
   -0.24580E+04         0.26773E+04         0.00000E+00
    0.26773E+04        -0.22286E+05         0.00000E+00
    0.00000E+00         0.00000E+00        -0.74269E+04
 
   -0.31760E+04         0.24546E+04         0.00000E+00
    0.24546E+04        -0.21654E+05         0.00000E+00
    0.00000E+00         0.00000E+00        -0.74528E+04
 
   -0.40116E+04         0.23049E+04         0.00000E+00
    0.23049E+04        -0.21059E+05         0.00000E+00
    0.00000E+00         0.00000E+00        -0.75248E+04
 
   -0.49835E+04         0.22326E+04         0.00000E+00
    0.22326E+04        -0.20482E+05         0.00000E+00
    0.00000E+00         0.00000E+00        -0.76436E+04
 
   -0.61158E+04         0.22459E+04         0.00000E+00
    0.22459E+04        -0.19908E+05         0.00000E+00
    0.00000E+00         0.00000E+00        -0.78110E+04
 
   -0.74390E+04         0.23588E+04         0.00000E+00
    0.23588E+04        -0.19314E+05         0.00000E+00
    0.00000E+00         0.00000E+00        -0.80299E+04
 
   -0.54729E+04         0.32381E+04         0.00000E+00
    0.32381E+04        -0.64123E+03         0.00000E+00
    0.00000E+00         0.00000E+00        -0.18344E+04
 
   -0.20250E+05         0.15274E+05         0.00000E+00
    0.15274E+05        -0.11420E+05         0.00000E+00
    0.00000E+00         0.00000E+00        -0.95016E+04
 
   -0.19185E+05         0.20104E+05         0.00000E+00
    0.20104E+05        -0.19980E+05         0.00000E+00
    0.00000E+00         0.00000E+00        -0.11751E+05
 
   -0.15357E+05         0.20644E+05         0.00000E+00
    0.20644E+05        -0.25158E+05         0.00000E+00
    0.00000E+00         0.00000E+00        -0.12155E+05
 
   -0.11575E+05         0.19462E+05         0.00000E+00
    0.19462E+05        -0.27999E+05         0.00000E+00
    0.00000E+00         0.00000E+00        -0.11873E+05
 
   -0.84386E+04         0.17615E+05         0.00000E+00
    0.17615E+05        -0.29315E+05         0.00000E+00
    0.00000E+00         0.00000E+00        -0.11327E+05
 
   -0.60242E+04         0.15604E+05         0.00000E+00
    0.15604E+05        -0.29664E+05         0.00000E+00
    0.00000E+00         0.00000E+00        -0.10708E+05
 
   -0.42430E+04         0.13665E+05         0.00000E+00
    0.13665E+05        -0.29422E+05         0.00000E+00
    0.00000E+00         0.00000E+00        -0.10101E+05
 
   -0.29725E+04         0.11898E+05         0.00000E+00
    0.11898E+05        -0.28835E+05         0.00000E+00
    0.00000E+00         0.00000E+00        -0.95445E+04
 
   -0.20998E+04         0.10335E+05         0.00000E+00
    0.10335E+05        -0.28064E+05         0.00000E+00
    0.00000E+00         0.00000E+00        -0.90516E+04
 
   -0.15330E+04         0.89743E+04         0.00000E+00
    0.89743E+04        -0.27211E+05         0.00000E+00
    0.00000E+00         0.00000E+00        -0.86257E+04
 
   -0.12025E+04         0.78009E+04         0.00000E+00
    0.78009E+04        -0.26338E+05         0.00000E+00
    0.00000E+00         0.00000E+00        -0.82648E+04
 
   -0.10576E+04         0.67939E+04         0.00000E+00
    0.67939E+04        -0.25482E+05         0.00000E+00
    0.00000E+00         0.00000E+00        -0.79649E+04
 
   -0.10621E+04         0.59329E+04         0.00000E+00
    0.59329E+04        -0.24666E+05         0.00000E+00
    0.00000E+00         0.00000E+00        -0.77214E+04
 
   -0.11915E+04         0.51996E+04         0.00000E+00
    0.51996E+04        -0.23898E+05         0.00000E+00
    0.00000E+00         0.00000E+00        -0.75301E+04
 
   -0.14299E+04         0.45786E+04         0.00000E+00
    0.45786E+04        -0.23183E+05         0.00000E+00
    0.00000E+00         0.00000E+00        -0.73872E+04
 
   -0.17686E+04         0.40579E+04         0.00000E+00
    0.40579E+04        -0.22519E+05         0.00000E+00
    0.00000E+00         0.00000E+00        -0.72896E+04
 
   -0.22043E+04         0.36288E+04         0.00000E+00
    0.36288E+04        -0.21901E+05         0.00000E+00
    0.00000E+00         0.00000E+00        -0.72353E+04
 
   -0.27388E+04         0.32860E+04         0.00000E+00
    0.32860E+04        -0.21324E+05         0.00000E+00
    0.00000E+00         0.00000E+00        -0.72226E+04
 
   -0.33778E+04         0.30277E+04         0.00000E+00
    0.30277E+04        -0.20779E+05         0.00000E+00
    0.00000E+00         0.00000E+00        -0.72508E+04
 
   -0.41315E+04         0.28557E+04         0.00000E+00
    0.28557E+04        -0.20256E+05         0.00000E+00
    0.00000E+00         0.00000E+00        -0.73199E+04
 
   -0.50142E+04         0.27759E+04         0.00000E+00
    0.27759E+04        -0.19742E+05         0.00000E+00
    0.00000E+00         0.00000E+00        -0.74308E+04
 
   -0.60449E+04         0.27992E+04         0.00000E+00
    0.27992E+04        -0.19225E+05         0.00000E+00
    0.00000E+00         0.00000E+00        -0.75848E+04
 
   -0.72480E+04         0.29422E+04         0.00000E+00
    0.29422E+04        -0.18687E+05         0.00000E+00
    0.00000E+00         0.00000E+00        -0.77844E+04
 
    0.48344E+03         0.10065E+04         0.00000E+00
    0.10065E+04        -0.58769E+03         0.00000E+00
    0.00000E+00         0.00000E+00        -0.31422E+02
 
   -0.11757E+05         0.73085E+04         0.00000E+00
    0.73085E+04        -0.33812E+04         0.00000E+00
    0.00000E+00         0.00000E+00        -0.45420E+04
 
   -0.15764E+05         0.13257E+05         0.00000E+00
    0.13257E+05        -0.94798E+04         0.00000E+00
    0.00000E+00         0.00000E+00        -0.75740E+04
 
   -0.14786E+05         0.16060E+05         0.00000E+00
    0.16060E+05        -0.14942E+05         0.00000E+00
    0.00000E+00         0.00000E+00        -0.89194E+04
 
   -0.12402E+05         0.16680E+05         0.00000E+00
    0.16680E+05        -0.18915E+05         0.00000E+00
    0.00000E+00         0.00000E+00        -0.93965E+04
 
   -0.98861E+04         0.16111E+05         0.00000E+00
    0.16111E+05        -0.21533E+05         0.00000E+00
    0.00000E+00         0.00000E+00        -0.94270E+04
 
   -0.76774E+04         0.14962E+05         0.00000E+00
    0.14962E+05        -0.23107E+05         0.00000E+00
    0.00000E+00         0.00000E+00        -0.92370E+04
 
   -0.58897E+04         0.13584E+05         0.00000E+00
    0.13584E+05        -0.23933E+05         0.00000E+00
    0.00000E+00         0.00000E+00        -0.89488E+04
 
   -0.45115E+04         0.12167E+05         0.00000E+00
    0.12167E+05        -0.24245E+05         0.00000E+00
    0.00000E+00         0.00000E+00        -0.86291E+04
 
   -0.34897E+04         0.10813E+05         0.00000E+00
    0.10813E+05        -0.24215E+05         0.00000E+00
    0.00000E+00         0.00000E+00        -0.83138E+04
 
   -0.27641E+04         0.95665E+04         0.00000E+00
    0.95665E+04        -0.23966E+05         0.00000E+00
    0.00000E+00         0.00000E+00        -0.80216E+04
 
   -0.22801E+04         0.84456E+04         0.00000E+00
    0.84456E+04        -0.23584E+05         0.00000E+00
    0.00000E+00         0.00000E+00        -0.77619E+04
 
   -0.19934E+04         0.74521E+04         0.00000E+00
    0.74521E+04        -0.23126E+05         0.00000E+00
    0.00000E+00         0.00000E+00        -0.75388E+04
 
   -0.18696E+04         0.65809E+04         0.00000E+00
    0.65809E+04        -0.22632E+05         0.00000E+00
    0.00000E+00         0.00000E+00        -0.73535E+04
 
   -0.18835E+04         0.58239E+04         0.00000E+00
    0.58239E+04        -0.22126E+05         0.00000E+00
    0.00000E+00         0.00000E+00        -0.72059E+04
 
   -0.20174E+04         0.51728E+04         0.00000E+00
    0.51728E+04        -0.21623E+05         0.00000E+00
    0.00000E+00         0.00000E+00        -0.70953E+04
 
   -0.22600E+04         0.46204E+04         0.00000E+00
    0.46204E+04        -0.21132E+05         0.00000E+00
    0.00000E+00         0.00000E+00        -0.70209E+04
 
   -0.26051E+04         0.41615E+04         0.00000E+00
    0.41615E+04        -0.20656E+05         0.00000E+00
    0.00000E+00         0.00000E+00        -0.69818E+04
 
   -0.30515E+04         0.37935E+04         0.00000E+00
    0.37935E+04        -0.20195E+05         0.00000E+00
    0.00000E+00         0.00000E+00        -0.69776E+04
 
   -0.36015E+04         0.35166E+04         0.00000E+00
    0.35166E+04        -0.19746E+05         0.00000E+00
    0.00000E+00         0.00000E+00        -0.70081E+04
 
   -0.42614E+04         0.33347E+04         0.00000E+00
    0.33347E+04        -0.19305E+05         0.00000E+00
    0.00000E+00         0.00000E+00        -0.70737E+04
 
   -0.50410E+04         0.32555E+04         0.00000E+00
    0.32555E+04        -0.18863E+05         0.00000E+00
    0.00000E+00         0.00000E+00        -0.71750E+04
 
   -0.59539E+04         0.32922E+04         0.00000E+00
    0.32922E+04        -0.18411E+05         0.00000E+00
    0.00000E+00         0.00000E+00        -0.73134E+04
 
   -0.70173E+04         0.34639E+04         0.00000E+00
    0.34639E+04        -0.17938E+05         0.00000E+00
    0.00000E+00         0.00000E+00        -0.74905E+04
 
    0.32280E+04         0.38100E+03         0.00000E+00
    0.38100E+03        -0.78819E+02         0.00000E+00
    0.00000E+00         0.00000E+00         0.94462E+03
 
   -0.63742E+04         0.38495E+04         0.00000E+00
    0.38495E+04        -0.14772E+04         0.00000E+00
    0.00000E+00         0.00000E+00        -0.23558E+04
 
   -0.11416E+05         0.82619E+04         0.00000E+00
    0.82619E+04        -0.46528E+04         0.00000E+00
    0.00000E+00         0.00000E+00        -0.48212E+04
 
   -0.12697E+05         0.11567E+05         0.00000E+00
    0.11567E+05        -0.87216E+04         0.00000E+00
    0.00000E+00         0.00000E+00        -0.64265E+04
 
   -0.11891E+05         0.13263E+05         0.00000E+00
    0.13263E+05        -0.12441E+05         0.00000E+00
    0.00000E+00         0.00000E+00        -0.73008E+04
 
   -0.10313E+05         0.13734E+05         0.00000E+00
    0.13734E+05        -0.15390E+05         0.00000E+00
    0.00000E+00         0.00000E+00        -0.77123E+04
 
   -0.86005E+04         0.13429E+05         0.00000E+00
    0.13429E+05        -0.17543E+05         0.00000E+00
    0.00000E+00         0.00000E+00        -0.78448E+04
 
   -0.70350E+04         0.12684E+05         0.00000E+00
    0.12684E+05        -0.19016E+05         0.00000E+00
    0.00000E+00         0.00000E+00        -0.78171E+04
 
   -0.57178E+04         0.11723E+05         0.00000E+00
    0.11723E+05        -0.19953E+05         0.00000E+00
    0.00000E+00         0.00000E+00        -0.77034E+04
 
   -0.46671E+04         0.10685E+05         0.00000E+00
    0.10685E+05        -0.20490E+05         0.00000E+00
    0.00000E+00         0.00000E+00        -0.75495E+04
 
   -0.38660E+04         0.96526E+04         0.00000E+00
    0.96526E+04        -0.20736E+05         0.00000E+00
    0.00000E+00         0.00000E+00        -0.73832E+04
 
   -0.32852E+04         0.86711E+04         0.00000E+00
    0.86711E+04        -0.20777E+05         0.00000E+00
    0.00000E+00         0.00000E+00        -0.72215E+04
 
   -0.28944E+04         0.77649E+04         0.00000E+00
    0.77649E+04        -0.20677E+05         0.00000E+00
    0.00000E+00         0.00000E+00        -0.70743E+04
 
   -0.26666E+04         0.69449E+04         0.00000E+00
    0.69449E+04        -0.20482E+05         0.00000E+00
    0.00000E+00         0.00000E+00        -0.69476E+04
 
   -0.25798E+04         0.62150E+04         0.00000E+00
    0.62150E+04        -0.20225E+05         0.00000E+00
    0.00000E+00         0.00000E+00        -0.68447E+04
 
   -0.26173E+04         0.55753E+04         0.00000E+00
    0.55753E+04        -0.19930E+05         0.00000E+00
    0.00000E+00         0.00000E+00        -0.67674E+04
 
   -0.27670E+04         0.50252E+04         0.00000E+00
    0.50252E+04        -0.19611E+05         0.00000E+00
    0.00000E+00         0.00000E+00        -0.67169E+04
 
   -0.30214E+04         0.45640E+04         0.00000E+00
    0.45640E+04        -0.19279E+05         0.00000E+00
    0.00000E+00         0.00000E+00        -0.66935E+04
 
   -0.33766E+04         0.41926E+04         0.00000E+00
    0.41926E+04        -0.18938E+05         0.00000E+00
    0.00000E+00         0.00000E+00        -0.66979E+04
 
   -0.38323E+04         0.39142E+04         0.00000E+00
    0.39142E+04        -0.18590E+05         0.00000E+00
    0.00000E+00         0.00000E+00        -0.67305E+04
 
   -0.43910E+04         0.37348E+04         0.00000E+00
    0.37348E+04        -0.18236E+05         0.00000E+00
    0.00000E+00         0.00000E+00        -0.67918E+04
 
   -0.50582E+04         0.36643E+04         0.00000E+00
    0.36643E+04        -0.17870E+05         0.00000E+00
    0.00000E+00         0.00000E+00        -0.68824E+04
 
   -0.58418E+04         0.37177E+04         0.00000E+00
    0.37177E+04        -0.17490E+05         0.00000E+00
    0.00000E+00         0.00000E+00        -0.70034E+04
 
   -0.67519E+04         0.39159E+04         0.00000E+00
    0.39159E+04        -0.17088E+05         0.00000E+00
    0.00000E+00         0.00000E+00        -0.71558E+04
 
    0.45669E+04         0.14594E+03         0.00000E+00
    0.14594E+03        -0.52071E+02         0.00000E+00
    0.00000E+00         0.00000E+00         0.13543E+04
 
   -0.29313E+04         0.21453E+04         0.00000E+00
    0.21453E+04        -0.70813E+03         0.00000E+00
    0.00000E+00         0.00000E+00        -0.10922E+04
 
   -0.78685E+04         0.52211E+04         0.00000E+00
    0.52211E+04        -0.25444E+04         0.00000E+00
    0.00000E+00         0.00000E+00        -0.31246E+04
 
   -0.10170E+05         0.80894E+04         0.00000E+00
    0.80894E+04        -0.52415E+04         0.00000E+00
    0.00000E+00         0.00000E+00        -0.46243E+04
 
   -0.10583E+05         0.10099E+05         0.00000E+00
    0.10099E+05        -0.81899E+04         0.00000E+00
    0.00000E+00         0.00000E+00        -0.56332E+04
 
   -0.99410E+04         0.11170E+05         0.00000E+00
    0.11170E+05        -0.10892E+05         0.00000E+00
    0.00000E+00         0.00000E+00        -0.62512E+04
 
   -0.88486E+04         0.11495E+05         0.00000E+00
    0.11495E+05        -0.13134E+05         0.00000E+00
    0.00000E+00         0.00000E+00        -0.65964E+04
 
   -0.76525E+04         0.11305E+05         0.00000E+00
    0.11305E+05        -0.14878E+05         0.00000E+00
    0.00000E+00         0.00000E+00        -0.67611E+04
 
   -0.65298E+04         0.10795E+05         0.00000E+00
    0.10795E+05        -0.16168E+05         0.00000E+00
    0.00000E+00         0.00000E+00        -0.68115E+04
 
   -0.55593E+04         0.10106E+05         0.00000E+00
    0.10106E+05        -0.17078E+05         0.00000E+00
    0.00000E+00         0.00000E+00        -0.67935E+04
 
   -0.47668E+04         0.93341E+04         0.00000E+00
    0.93341E+04        -0.17684E+05         0.00000E+00
    0.00000E+00         0.00000E+00        -0.67378E+04
 
   -0.41519E+04         0.85437E+04         0.00000E+00
    0.85437E+04        -0.18056E+05         0.00000E+00
    0.00000E+00         0.00000E+00        -0.66649E+04
 
   -0.37027E+04         0.77747E+04         0.00000E+00
    0.77747E+04        -0.18249E+05         0.00000E+00
    0.00000E+00         0.00000E+00        -0.65885E+04
 
   -0.34034E+04         0.70514E+04         0.00000E+00
    0.70514E+04        -0.18311E+05         0.00000E+00
    0.00000E+00         0.00000E+00        -0.65174E+04
 
   -0.32385E+04         0.63885E+04         0.00000E+00
    0.63885E+04        -0.18276E+05         0.00000E+00
    0.00000E+00         0.00000E+00        -0.64575E+04
 
   -0.31946E+04         0.57950E+04         0.00000E+00
    0.57950E+04        -0.18170E+05         0.00000E+00
    0.00000E+00         0.00000E+00        -0.64127E+04
 
   -0.32609E+04         0.52763E+04         0.00000E+00
    0.52763E+04        -0.18013E+05         0.00000E+00
    0.00000E+00         0.00000E+00        -0.63855E+04
 
   -0.34296E+04         0.48372E+04         0.00000E+00
    0.48372E+04        -0.17817E+05         0.00000E+00
    0.00000E+00         0.00000E+00        -0.63776E+04
 
   -0.36955E+04         0.44824E+04         0.00000E+00
    0.44824E+04        -0.17593E+05         0.00000E+00
    0.00000E+00         0.00000E+00        -0.63902E+04
 
   -0.40560E+04         0.42181E+04         0.00000E+00
    0.42181E+04        -0.17346E+05         0.00000E+00
    0.00000E+00         0.00000E+00        -0.64243E+04
 
   -0.45105E+04         0.40528E+04         0.00000E+00
    0.40528E+04        -0.17079E+05         0.00000E+00
    0.00000E+00         0.00000E+00        -0.64805E+04
 
   -0.50603E+04         0.39984E+04         0.00000E+00
    0.39984E+04        -0.16792E+05         0.00000E+00
    0.00000E+00         0.00000E+00        -0.65595E+04
 
   -0.57081E+04         0.40712E+04         0.00000E+00
    0.40712E+04        -0.16486E+05         0.00000E+00
    0.00000E+00         0.00000E+00        -0.66620E+04
 
   -0.64572E+04         0.42934E+04         0.00000E+00
    0.42934E+04        -0.16158E+05         0.00000E+00
    0.00000E+00         0.00000E+00        -0.67883E+04
 
    0.52585E+04         0.27338E+02         0.00000E+00
    0.27338E+02        -0.24802E+02         0.00000E+00
    0.00000E+00         0.00000E+00         0.15700E+04
 
   -0.73892E+03         0.12238E+04         0.00000E+00
    0.12238E+04        -0.40043E+03         0.00000E+00
    0.00000E+00         0.00000E+00        -0.34220E+03
 
   -0.51916E+04         0.33417E+04         0.00000E+00
    0.33417E+04        -0.15001E+04         0.00000E+00
    0.00000E+00         0.00000E+00        -0.20082E+04
 
   -0.78544E+04         0.56212E+04         0.00000E+00
    0.56212E+04        -0.33012E+04         0.00000E+00
    0.00000E+00         0.00000E+00        -0.33476E+04
 
   -0.89965E+04         0.75192E+04         0.00000E+00
    0.75192E+04        -0.54927E+04         0.00000E+00
    0.00000E+00         0.00000E+00        -0.43479E+04
 
   -0.90953E+04         0.88149E+04         0.00000E+00
    0.88149E+04        -0.77363E+04         0.00000E+00
    0.00000E+00         0.00000E+00        -0.50509E+04
 
   -0.85946E+04         0.95156E+04         0.00000E+00
    0.95156E+04        -0.97929E+04         0.00000E+00
    0.00000E+00         0.00000E+00        -0.55179E+04
 
   -0.78169E+04         0.97334E+04         0.00000E+00
    0.97334E+04        -0.11548E+05         0.00000E+00
    0.00000E+00         0.00000E+00        -0.58112E+04
 
   -0.69642E+04         0.96006E+04         0.00000E+00
    0.96006E+04        -0.12971E+05         0.00000E+00
    0.00000E+00         0.00000E+00        -0.59825E+04
 
   -0.61509E+04         0.92343E+04         0.00000E+00
    0.92343E+04        -0.14079E+05         0.00000E+00
    0.00000E+00         0.00000E+00        -0.60713E+04
 
   -0.54357E+04         0.87267E+04         0.00000E+00
    0.87267E+04        -0.14912E+05         0.00000E+00
    0.00000E+00         0.00000E+00        -0.61069E+04
 
   -0.48435E+04         0.81457E+04         0.00000E+00
    0.81457E+04        -0.15515E+05         0.00000E+00
    0.00000E+00         0.00000E+00        -0.61102E+04
 
   -0.43808E+04         0.75393E+04         0.00000E+00
    0.75393E+04        -0.15930E+05         0.00000E+00
    0.00000E+00         0.00000E+00        -0.60961E+04
 
   -0.40446E+04         0.69405E+04         0.00000E+00
    0.69405E+04        -0.16196E+05         0.00000E+00
    0.00000E+00         0.00000E+00        -0.60752E+04
 
   -0.38276E+04         0.63723E+04         0.00000E+00
    0.63723E+04        -0.16345E+05         0.00000E+00
    0.00000E+00         0.00000E+00        -0.60548E+04
 
   -0.37212E+04         0.58502E+04         0.00000E+00
    0.58502E+04        -0.16401E+05         0.00000E+00
    0.00000E+00         0.00000E+00        -0.60401E+04
 
   -0.37175E+04         0.53860E+04         0.00000E+00
    0.53860E+04        -0.16386E+05         0.00000E+00
    0.00000E+00         0.00000E+00        -0.60346E+04
 
   -0.38095E+04         0.49888E+04         0.00000E+00
    0.49888E+04        -0.16315E+05         0.00000E+00
    0.00000E+00         0.00000E+00        -0.60410E+04
 
   -0.39916E+04         0.46672E+04         0.00000E+00
    0.46672E+04        -0.16200E+05         0.00000E+00
    0.00000E+00         0.00000E+00        -0.60610E+04
 
   -0.42598E+04         0.44303E+04         0.00000E+00
    0.44303E+04        -0.16047E+05         0.00000E+00
    0.00000E+00         0.00000E+00        -0.60958E+04
 
   -0.46109E+04         0.42890E+04         0.00000E+00
    0.42890E+04        -0.15865E+05         0.00000E+00
    0.00000E+00         0.00000E+00        -0.61464E+04
 
   -0.50427E+04         0.42569E+04         0.00000E+00
    0.42569E+04        -0.15655E+05         0.00000E+00
    0.00000E+00         0.00000E+00        -0.62132E+04
 
   -0.55530E+04         0.43512E+04         0.00000E+00
    0.43512E+04        -0.15423E+05         0.00000E+00
    0.00000E+00         0.00000E+00        -0.62966E+04
 
   -0.61390E+04         0.45944E+04         0.00000E+00
    0.45944E+04        -0.15170E+05         0.00000E+00
    0.00000E+00         0.00000E+00        -0.63965E+04
 
    0.55915E+04        -0.42970E+02         0.00000E+00
   -0.42970E+02        -0.16511E+02         0.00000E+00
    0.00000E+00         0.00000E+00         0.16724E+04
 
    0.68830E+03         0.67649E+03         0.00000E+00
    0.67649E+03        -0.24594E+03         0.00000E+00
    0.00000E+00         0.00000E+00         0.13232E+03
 
   -0.32328E+04         0.21408E+04         0.00000E+00
    0.21408E+04        -0.94805E+03         0.00000E+00
    0.00000E+00         0.00000E+00        -0.12549E+04
 
   -0.59214E+04         0.38902E+04         0.00000E+00
    0.38902E+04        -0.21706E+04         0.00000E+00
    0.00000E+00         0.00000E+00        -0.24285E+04
 
   -0.74435E+04         0.55283E+04         0.00000E+00
    0.55283E+04        -0.37781E+04         0.00000E+00
    0.00000E+00         0.00000E+00        -0.33677E+04
 
   -0.80484E+04         0.68213E+04         0.00000E+00
    0.68213E+04        -0.55591E+04         0.00000E+00
    0.00000E+00         0.00000E+00        -0.40837E+04
 
   -0.80310E+04         0.76920E+04         0.00000E+00
    0.76920E+04        -0.73233E+04         0.00000E+00
    0.00000E+00         0.00000E+00        -0.46079E+04
 
   -0.76466E+04         0.81648E+04         0.00000E+00
    0.81648E+04        -0.89418E+04         0.00000E+00
    0.00000E+00         0.00000E+00        -0.49784E+04
 
   -0.70840E+04         0.83104E+04         0.00000E+00
    0.83104E+04        -0.10348E+05         0.00000E+00
    0.00000E+00         0.00000E+00        -0.52317E+04
 
   -0.64681E+04         0.82104E+04         0.00000E+00
    0.82104E+04        -0.11522E+05         0.00000E+00
    0.00000E+00         0.00000E+00        -0.53993E+04
 
   -0.58754E+04         0.79400E+04         0.00000E+00
    0.79400E+04        -0.12470E+05         0.00000E+00
    0.00000E+00         0.00000E+00        -0.55060E+04
 
   -0.53493E+04         0.75610E+04         0.00000E+00
    0.75610E+04        -0.13212E+05         0.00000E+00
    0.00000E+00         0.00000E+00        -0.55712E+04
 
   -0.49111E+04         0.71219E+04         0.00000E+00
    0.71219E+04        -0.13778E+05         0.00000E+00
    0.00000E+00         0.00000E+00        -0.56095E+04
 
   -0.45696E+04         0.66594E+04         0.00000E+00
    0.66594E+04        -0.14193E+05         0.00000E+00
    0.00000E+00         0.00000E+00        -0.56317E+04
 
   -0.43259E+04         0.62007E+04         0.00000E+00
    0.62007E+04        -0.14483E+05         0.00000E+00
    0.00000E+00         0.00000E+00        -0.56458E+04
 
   -0.41770E+04         0.57663E+04         0.00000E+00
    0.57663E+04        -0.14671E+05         0.00000E+00
    0.00000E+00         0.00000E+00        -0.56577E+04
 
   -0.41185E+04         0.53722E+04         0.00000E+00
    0.53722E+04        -0.14775E+05         0.00000E+00
    0.00000E+00         0.00000E+00        -0.56716E+04
 
   -0.41452E+04         0.50314E+04         0.00000E+00
    0.50314E+04        -0.14812E+05         0.00000E+00
    0.00000E+00         0.00000E+00        -0.56905E+04
 
   -0.42518E+04         0.47556E+04         0.00000E+00
    0.47556E+04        -0.14792E+05         0.00000E+00
    0.00000E+00         0.00000E+00        -0.57167E+04
 
   -0.44334E+04         0.45566E+04         0.00000E+00
    0.45566E+04        -0.14726E+05         0.00000E+00
    0.00000E+00         0.00000E+00        -0.57515E+04
 
   -0.46852E+04         0.44470E+04         0.00000E+00
    0.44470E+04        -0.14622E+05         0.00000E+00
    0.00000E+00         0.00000E+00        -0.57959E+04
 
   -0.50018E+04         0.44416E+04         0.00000E+00
    0.44416E+04        -0.14487E+05         0.00000E+00
    0.00000E+00         0.00000E+00        -0.58503E+04
 
   -0.53771E+04         0.45584E+04         0.00000E+00
    0.45584E+04        -0.14326E+05         0.00000E+00
    0.00000E+00         0.00000E+00        -0.59146E+04
 
   -0.58030E+04         0.48193E+04         0.00000E+00
    0.48193E+04        -0.14145E+05         0.00000E+00
    0.00000E+00         0.00000E+00        -0.59883E+04
 
    0.57082E+04        -0.88770E+02         0.00000E+00
   -0.88770E+02        -0.11153E+02         0.00000E+00
    0.00000E+00         0.00000E+00         0.17090E+04
 
    0.16220E+04         0.32783E+03         0.00000E+00
    0.32783E+03        -0.16179E+03         0.00000E+00
    0.00000E+00         0.00000E+00         0.43769E+03
 
   -0.18091E+04         0.13418E+04         0.00000E+00
    0.13418E+04        -0.63066E+03         0.00000E+00
    0.00000E+00         0.00000E+00        -0.73258E+03
 
   -0.43748E+04         0.26656E+04         0.00000E+00
    0.26656E+04        -0.14827E+04         0.00000E+00
    0.00000E+00         0.00000E+00        -0.17581E+04
 
   -0.60567E+04         0.40190E+04         0.00000E+00
    0.40190E+04        -0.26645E+04         0.00000E+00
    0.00000E+00         0.00000E+00        -0.26175E+04
 
   -0.69755E+04         0.52009E+04         0.00000E+00
    0.52009E+04        -0.40536E+04         0.00000E+00
    0.00000E+00         0.00000E+00        -0.33101E+04
 
   -0.73145E+04         0.61069E+04         0.00000E+00
    0.61069E+04        -0.55142E+04         0.00000E+00
    0.00000E+00         0.00000E+00        -0.38502E+04
 
   -0.72601E+04         0.67121E+04         0.00000E+00
    0.67121E+04        -0.69341E+04         0.00000E+00
    0.00000E+00         0.00000E+00        -0.42601E+04
 
   -0.69689E+04         0.70408E+04         0.00000E+00
    0.70408E+04        -0.82383E+04         0.00000E+00
    0.00000E+00         0.00000E+00        -0.45642E+04
 
   -0.65587E+04         0.71407E+04         0.00000E+00
    0.71407E+04        -0.93862E+04         0.00000E+00
    0.00000E+00         0.00000E+00        -0.47857E+04
 
   -0.61108E+04         0.70652E+04         0.00000E+00
    0.70652E+04        -0.10363E+05         0.00000E+00
    0.00000E+00         0.00000E+00        -0.49447E+04
 
   -0.56780E+04         0.68649E+04         0.00000E+00
    0.68649E+04        -0.11172E+05         0.00000E+00
    0.00000E+00         0.00000E+00        -0.50576E+04
 
   -0.52921E+04         0.65830E+04         0.00000E+00
    0.65830E+04        -0.11824E+05         0.00000E+00
    0.00000E+00         0.00000E+00        -0.51378E+04
 
   -0.49709E+04         0.62554E+04         0.00000E+00
    0.62554E+04        -0.12337E+05         0.00000E+00
    0.00000E+00         0.00000E+00        -0.51954E+04
 
   -0.47226E+04         0.59105E+04         0.00000E+00
    0.59105E+04        -0.12728E+05         0.00000E+00
    0.00000E+00         0.00000E+00        -0.52384E+04
 
   -0.45499E+04         0.55712E+04         0.00000E+00
    0.55712E+04        -0.13015E+05         0.00000E+00
    0.00000E+00         0.00000E+00        -0.52729E+04
 
   -0.44518E+04         0.52560E+04         0.00000E+00
    0.52560E+04        -0.13214E+05         0.00000E+00
    0.00000E+00         0.00000E+00        -0.53031E+04
 
   -0.44254E+04         0.49806E+04         0.00000E+00
    0.49806E+04        -0.13338E+05         0.00000E+00
    0.00000E+00         0.00000E+00        -0.53326E+04
 
   -0.44663E+04         0.47591E+04         0.00000E+00
    0.47591E+04        -0.13400E+05         0.00000E+00
    0.00000E+00         0.00000E+00        -0.53635E+04
 
   -0.45692E+04         0.46050E+04         0.00000E+00
    0.46050E+04        -0.13410E+05         0.00000E+00
    0.00000E+00         0.00000E+00        -0.53974E+04
 
   -0.47281E+04         0.45324E+04         0.00000E+00
    0.45324E+04        -0.13377E+05         0.00000E+00
    0.00000E+00         0.00000E+00        -0.54352E+04
 
   -0.49354E+04         0.45567E+04         0.00000E+00
    0.45567E+04        -0.13309E+05         0.00000E+00
    0.00000E+00         0.00000E+00        -0.54772E+04
 
   -0.51818E+04         0.46958E+04         0.00000E+00
    0.46958E+04        -0.13215E+05         0.00000E+00
    0.00000E+00         0.00000E+00        -0.55230E+04
 
   -0.54550E+04         0.49708E+04         0.00000E+00
    0.49708E+04        -0.13104E+05         0.00000E+00
    0.00000E+00         0.00000E+00        -0.55716E+04
 
    0.56841E+04        -0.12027E+03         0.00000E+00
   -0.12027E+03        -0.79328E+01         0.00000E+00
    0.00000E+00         0.00000E+00         0.17027E+04
 
    0.22261E+04         0.93853E+02         0.00000E+00
    0.93853E+02        -0.11111E+03         0.00000E+00
    0.00000E+00         0.00000E+00         0.63411E+03
 
   -0.77857E+03         0.79119E+03         0.00000E+00
    0.79119E+03        -0.43618E+03         0.00000E+00
    0.00000E+00         0.00000E+00        -0.36506E+03
 
   -0.31619E+04         0.17849E+04         0.00000E+00
    0.17849E+04        -0.10442E+04         0.00000E+00
    0.00000E+00         0.00000E+00        -0.12627E+04
 
   -0.48753E+04         0.28777E+04         0.00000E+00
    0.28777E+04        -0.19213E+04         0.00000E+00
    0.00000E+00         0.00000E+00        -0.20401E+04
 
   -0.59692E+04         0.39084E+04         0.00000E+00
    0.39084E+04        -0.29991E+04         0.00000E+00
    0.00000E+00         0.00000E+00        -0.26919E+04
 
   -0.65524E+04         0.47736E+04         0.00000E+00
    0.47736E+04        -0.41865E+04         0.00000E+00
    0.00000E+00         0.00000E+00        -0.32233E+04
 
   -0.67539E+04         0.54259E+04         0.00000E+00
    0.54259E+04        -0.53958E+04         0.00000E+00
    0.00000E+00         0.00000E+00        -0.36467E+04
 
   -0.66951E+04         0.58603E+04         0.00000E+00
    0.58603E+04        -0.65578E+04         0.00000E+00
    0.00000E+00         0.00000E+00        -0.39779E+04
 
   -0.64772E+04         0.60976E+04         0.00000E+00
    0.60976E+04        -0.76260E+04         0.00000E+00
    0.00000E+00         0.00000E+00        -0.42332E+04
 
   -0.61773E+04         0.61713E+04         0.00000E+00
    0.61713E+04        -0.85746E+04         0.00000E+00
    0.00000E+00         0.00000E+00        -0.44280E+04
 
   -0.58505E+04         0.61186E+04         0.00000E+00
    0.61186E+04        -0.93931E+04         0.00000E+00
    0.00000E+00         0.00000E+00        -0.45757E+04
 
   -0.55339E+04         0.59749E+04         0.00000E+00
    0.59749E+04        -0.10082E+05         0.00000E+00
    0.00000E+00         0.00000E+00        -0.46876E+04
 
   -0.52510E+04         0.57719E+04         0.00000E+00
    0.57719E+04        -0.10649E+05         0.00000E+00
    0.00000E+00         0.00000E+00        -0.47730E+04
 
   -0.50156E+04         0.55370E+04         0.00000E+00
    0.55370E+04        -0.11104E+05         0.00000E+00
    0.00000E+00         0.00000E+00        -0.48391E+04
 
   -0.48349E+04         0.52930E+04         0.00000E+00
    0.52930E+04        -0.11460E+05         0.00000E+00
    0.00000E+00         0.00000E+00        -0.48917E+04
 
   -0.47112E+04         0.50596E+04         0.00000E+00
    0.50596E+04        -0.11728E+05         0.00000E+00
    0.00000E+00         0.00000E+00        -0.49352E+04
 
   -0.46436E+04         0.48537E+04         0.00000E+00
    0.48537E+04        -0.11921E+05         0.00000E+00
    0.00000E+00         0.00000E+00        -0.49728E+04
 
   -0.46290E+04         0.46908E+04         0.00000E+00
    0.46908E+04        -0.12049E+05         0.00000E+00
    0.00000E+00         0.00000E+00        -0.50070E+04
 
   -0.46623E+04         0.45856E+04         0.00000E+00
    0.45856E+04        -0.12123E+05         0.00000E+00
    0.00000E+00         0.00000E+00        -0.50392E+04
 
   -0.47366E+04         0.45527E+04         0.00000E+00
    0.45527E+04        -0.12151E+05         0.00000E+00
    0.00000E+00         0.00000E+00        -0.50701E+04
 
   -0.48429E+04         0.46078E+04         0.00000E+00
    0.46078E+04        -0.12144E+05         0.00000E+00
    0.00000E+00         0.00000E+00        -0.51000E+04
 
   -0.49693E+04         0.47683E+04         0.00000E+00
    0.47683E+04        -0.12112E+05         0.00000E+00
    0.00000E+00         0.00000E+00        -0.51282E+04
 
   -0.51005E+04         0.50536E+04         0.00000E+00
    0.50536E+04        -0.12065E+05         0.00000E+00
    0.00000E+00         0.00000E+00        -0.51534E+04
 
    0.55640E+04        -0.14254E+03         0.00000E+00
   -0.14254E+03        -0.56654E+01         0.00000E+00
    0.00000E+00         0.00000E+00         0.16674E+04
 
    0.26017E+04        -0.68984E+02         0.00000E+00
   -0.68984E+02        -0.78385E+02         0.00000E+00
    0.00000E+00         0.00000E+00         0.75661E+03
 
   -0.37622E+02         0.40075E+03         0.00000E+00
    0.40075E+03        -0.30986E+03         0.00000E+00
    0.00000E+00         0.00000E+00        -0.10488E+03
 
   -0.22219E+04         0.11409E+04         0.00000E+00
    0.11409E+04        -0.75255E+03         0.00000E+00
    0.00000E+00         0.00000E+00        -0.89323E+03
 
   -0.38951E+04         0.20109E+04         0.00000E+00
    0.20109E+04        -0.14104E+04         0.00000E+00
    0.00000E+00         0.00000E+00        -0.15928E+04
 
   -0.50704E+04         0.28854E+04         0.00000E+00
    0.28854E+04        -0.22472E+04         0.00000E+00
    0.00000E+00         0.00000E+00        -0.21966E+04
 
   -0.58092E+04         0.36727E+04         0.00000E+00
    0.36727E+04        -0.32037E+04         0.00000E+00
    0.00000E+00         0.00000E+00        -0.27055E+04
 
   -0.61974E+04         0.43186E+04         0.00000E+00
    0.43186E+04        -0.42154E+04         0.00000E+00
    0.00000E+00         0.00000E+00        -0.31257E+04
 
   -0.63252E+04         0.48018E+04         0.00000E+00
    0.48018E+04        -0.52243E+04         0.00000E+00
    0.00000E+00         0.00000E+00        -0.34669E+04
 
   -0.62745E+04         0.51251E+04         0.00000E+00
    0.51251E+04        -0.61861E+04         0.00000E+00
    0.00000E+00         0.00000E+00        -0.37404E+04
 
   -0.61131E+04         0.53057E+04         0.00000E+00
    0.53057E+04        -0.70706E+04         0.00000E+00
    0.00000E+00         0.00000E+00        -0.39576E+04
 
   -0.58932E+04         0.53682E+04         0.00000E+00
    0.53682E+04        -0.78605E+04         0.00000E+00
    0.00000E+00         0.00000E+00        -0.41288E+04
 
   -0.56532E+04         0.53395E+04         0.00000E+00
    0.53395E+04        -0.85485E+04         0.00000E+00
    0.00000E+00         0.00000E+00        -0.42633E+04
 
   -0.54195E+04         0.52459E+04         0.00000E+00
    0.52459E+04        -0.91343E+04         0.00000E+00
    0.00000E+00         0.00000E+00        -0.43691E+04
 
   -0.52094E+04         0.51114E+04         0.00000E+00
    0.51114E+04        -0.96224E+04         0.00000E+00
    0.00000E+00         0.00000E+00        -0.44526E+04
 
   -0.50329E+04         0.49578E+04         0.00000E+00
    0.49578E+04        -0.10020E+05         0.00000E+00
    0.00000E+00         0.00000E+00        -0.45191E+04
 
   -0.48953E+04         0.48042E+04         0.00000E+00
    0.48042E+04        -0.10336E+05         0.00000E+00
    0.00000E+00         0.00000E+00        -0.45726E+04
 
   -0.47975E+04         0.46677E+04         0.00000E+00
    0.46677E+04        -0.10578E+05         0.00000E+00
    0.00000E+00         0.00000E+00        -0.46163E+04
 
   -0.47375E+04         0.45643E+04         0.00000E+00
    0.45643E+04        -0.10758E+05         0.00000E+00
    0.00000E+00         0.00000E+00        -0.46522E+04
 
   -0.47107E+04         0.45089E+04         0.00000E+00
    0.45089E+04        -0.10883E+05         0.00000E+00
    0.00000E+00         0.00000E+00        -0.46818E+04
 
   -0.47097E+04         0.45163E+04         0.00000E+00
    0.45163E+04        -0.10964E+05         0.00000E+00
    0.00000E+00         0.00000E+00        -0.47058E+04
 
   -0.47246E+04         0.46018E+04         0.00000E+00
    0.46018E+04        -0.11010E+05         0.00000E+00
    0.00000E+00         0.00000E+00        -0.47241E+04
 
   -0.47421E+04         0.47817E+04         0.00000E+00
    0.47817E+04        -0.11032E+05         0.00000E+00
    0.00000E+00         0.00000E+00        -0.47360E+04
 
   -0.47446E+04         0.50735E+04         0.00000E+00
    0.50735E+04        -0.11042E+05         0.00000E+00
    0.00000E+00         0.00000E+00        -0.47399E+04
 
    0.53766E+04        -0.15837E+03         0.00000E+00
   -0.15837E+03        -0.39767E+01         0.00000E+00
    0.00000E+00         0.00000E+00         0.16116E+04
 
    0.28147E+04        -0.18496E+03         0.00000E+00
   -0.18496E+03        -0.55905E+02         0.00000E+00
    0.00000E+00         0.00000E+00         0.82725E+03
 
    0.48772E+03         0.11802E+03         0.00000E+00
    0.11802E+03        -0.22366E+03         0.00000E+00
    0.00000E+00         0.00000E+00         0.78586E+02
 
   -0.15003E+04         0.66307E+03         0.00000E+00
    0.66307E+03        -0.55079E+03         0.00000E+00
    0.00000E+00         0.00000E+00        -0.61620E+03
 
   -0.30950E+04         0.13485E+04         0.00000E+00
    0.13485E+04        -0.10488E+04         0.00000E+00
    0.00000E+00         0.00000E+00        -0.12443E+04
 
   -0.42907E+04         0.20777E+04         0.00000E+00
    0.20777E+04        -0.17001E+04         0.00000E+00
    0.00000E+00         0.00000E+00        -0.17986E+04
 
   -0.51194E+04         0.27732E+04         0.00000E+00
    0.27732E+04        -0.24673E+04         0.00000E+00
    0.00000E+00         0.00000E+00        -0.22776E+04
 
   -0.56364E+04         0.33820E+04         0.00000E+00
    0.33820E+04        -0.33043E+04         0.00000E+00
    0.00000E+00         0.00000E+00        -0.26840E+04
 
   -0.59064E+04         0.38758E+04         0.00000E+00
    0.38758E+04        -0.41654E+04         0.00000E+00
    0.00000E+00         0.00000E+00        -0.30236E+04
 
   -0.59931E+04         0.42459E+04         0.00000E+00
    0.42459E+04        -0.50117E+04         0.00000E+00
    0.00000E+00         0.00000E+00        -0.33037E+04
 
   -0.59532E+04         0.44977E+04         0.00000E+00
    0.44977E+04        -0.58135E+04         0.00000E+00
    0.00000E+00         0.00000E+00        -0.35325E+04
 
   -0.58335E+04         0.46457E+04         0.00000E+00
    0.46457E+04        -0.65506E+04         0.00000E+00
    0.00000E+00         0.00000E+00        -0.37179E+04
 
   -0.56702E+04         0.47084E+04         0.00000E+00
    0.47084E+04        -0.72112E+04         0.00000E+00
    0.00000E+00         0.00000E+00        -0.38672E+04
 
   -0.54903E+04         0.47065E+04         0.00000E+00
    0.47065E+04        -0.77899E+04         0.00000E+00
    0.00000E+00         0.00000E+00        -0.39870E+04
 
   -0.53126E+04         0.46600E+04         0.00000E+00
    0.46600E+04        -0.82864E+04         0.00000E+00
    0.00000E+00         0.00000E+00        -0.40828E+04
 
   -0.51491E+04         0.45883E+04         0.00000E+00
    0.45883E+04        -0.87038E+04         0.00000E+00
    0.00000E+00         0.00000E+00        -0.41591E+04
 
   -0.50068E+04         0.45090E+04         0.00000E+00
    0.45090E+04        -0.90474E+04         0.00000E+00
    0.00000E+00         0.00000E+00        -0.42196E+04
 
   -0.48881E+04         0.44387E+04         0.00000E+00
    0.44387E+04        -0.93238E+04         0.00000E+00
    0.00000E+00         0.00000E+00        -0.42671E+04
 
   -0.47921E+04         0.43927E+04         0.00000E+00
    0.43927E+04        -0.95406E+04         0.00000E+00
    0.00000E+00         0.00000E+00        -0.43034E+04
 
   -0.47145E+04         0.43857E+04         0.00000E+00
    0.43857E+04        -0.97062E+04         0.00000E+00
    0.00000E+00         0.00000E+00        -0.43298E+04
 
   -0.46481E+04         0.44320E+04         0.00000E+00
    0.44320E+04        -0.98293E+04         0.00000E+00
    0.00000E+00         0.00000E+00        -0.43469E+04
 
   -0.45824E+04         0.45461E+04         0.00000E+00
    0.45461E+04        -0.99199E+04         0.00000E+00
    0.00000E+00         0.00000E+00        -0.43544E+04
 
   -0.45032E+04         0.47428E+04         0.00000E+00
    0.47428E+04        -0.99891E+04         0.00000E+00
    0.00000E+00         0.00000E+00        -0.43515E+04
 
   -0.43918E+04         0.50375E+04         0.00000E+00
    0.50375E+04        -0.10050E+05         0.00000E+00
    0.00000E+00         0.00000E+00        -0.43363E+04
 
    0.51412E+04        -0.16940E+03         0.00000E+00
   -0.16940E+03        -0.26434E+01         0.00000E+00
    0.00000E+00         0.00000E+00         0.15415E+04
 
    0.29093E+04        -0.26847E+03         0.00000E+00
   -0.26847E+03        -0.39663E+02         0.00000E+00
    0.00000E+00         0.00000E+00         0.86053E+03
 
    0.85077E+03        -0.89512E+02         0.00000E+00
   -0.89512E+02        -0.16226E+03         0.00000E+00
    0.00000E+00         0.00000E+00         0.20592E+03
 
   -0.95193E+03         0.30478E+03         0.00000E+00
    0.30478E+03        -0.40624E+03         0.00000E+00
    0.00000E+00         0.00000E+00        -0.40833E+03
 
   -0.24495E+04         0.83947E+03         0.00000E+00
    0.83947E+03        -0.78576E+03         0.00000E+00
    0.00000E+00         0.00000E+00        -0.97171E+03
 
   -0.36271E+04         0.14401E+04         0.00000E+00
    0.14401E+04        -0.12939E+04         0.00000E+00
    0.00000E+00         0.00000E+00        -0.14777E+04
 
   -0.44986E+04         0.20427E+04         0.00000E+00
    0.20427E+04        -0.19078E+04         0.00000E+00
    0.00000E+00         0.00000E+00        -0.19235E+04
 
   -0.50983E+04         0.25993E+04         0.00000E+00
    0.25993E+04        -0.25951E+04         0.00000E+00
    0.00000E+00         0.00000E+00        -0.23098E+04
 
   -0.54714E+04         0.30794E+04         0.00000E+00
    0.30794E+04        -0.33212E+04         0.00000E+00
    0.00000E+00         0.00000E+00        -0.26398E+04
 
   -0.56660E+04         0.34681E+04         0.00000E+00
    0.34681E+04        -0.40537E+04         0.00000E+00
    0.00000E+00         0.00000E+00        -0.29181E+04
 
   -0.57277E+04         0.37633E+04         0.00000E+00
    0.37633E+04        -0.47657E+04         0.00000E+00
    0.00000E+00         0.00000E+00        -0.31505E+04
 
   -0.56964E+04         0.39711E+04         0.00000E+00
    0.39711E+04        -0.54368E+04         0.00000E+00
    0.00000E+00         0.00000E+00        -0.33426E+04
 
   -0.56049E+04         0.41036E+04         0.00000E+00
    0.41036E+04        -0.60532E+04         0.00000E+00
    0.00000E+00         0.00000E+00        -0.35002E+04
 
   -0.54787E+04         0.41757E+04         0.00000E+00
    0.41757E+04        -0.66065E+04         0.00000E+00
    0.00000E+00         0.00000E+00        -0.36285E+04
 
   -0.53366E+04         0.42034E+04         0.00000E+00
    0.42034E+04        -0.70932E+04         0.00000E+00
    0.00000E+00         0.00000E+00        -0.37321E+04
 
   -0.51915E+04         0.42031E+04         0.00000E+00
    0.42031E+04        -0.75131E+04         0.00000E+00
    0.00000E+00         0.00000E+00        -0.38146E+04
 
   -0.50512E+04         0.41905E+04         0.00000E+00
    0.41905E+04        -0.78688E+04         0.00000E+00
    0.00000E+00         0.00000E+00        -0.38794E+04
 
   -0.49192E+04         0.41807E+04         0.00000E+00
    0.41807E+04        -0.81647E+04         0.00000E+00
    0.00000E+00         0.00000E+00        -0.39286E+04
 
   -0.47954E+04         0.41880E+04         0.00000E+00
    0.41880E+04        -0.84066E+04         0.00000E+00
    0.00000E+00         0.00000E+00        -0.39642E+04
 
   -0.46759E+04         0.42262E+04         0.00000E+00
    0.42262E+04        -0.86017E+04         0.00000E+00
    0.00000E+00         0.00000E+00        -0.39869E+04
 
   -0.45538E+04         0.43086E+04         0.00000E+00
    0.43086E+04        -0.87581E+04         0.00000E+00
    0.00000E+00         0.00000E+00        -0.39973E+04
 
   -0.44186E+04         0.44484E+04         0.00000E+00
    0.44484E+04        -0.88852E+04         0.00000E+00
    0.00000E+00         0.00000E+00        -0.39949E+04
 
   -0.42557E+04         0.46589E+04         0.00000E+00
    0.46589E+04        -0.89942E+04         0.00000E+00
    0.00000E+00         0.00000E+00        -0.39788E+04
 
   -0.40462E+04         0.49530E+04         0.00000E+00
    0.49530E+04        -0.90981E+04         0.00000E+00
    0.00000E+00         0.00000E+00        -0.39471E+04
 
    0.48720E+04        -0.17669E+03         0.00000E+00
   -0.17669E+03        -0.15517E+01         0.00000E+00
    0.00000E+00         0.00000E+00         0.14610E+04
 
    0.29169E+04        -0.32849E+03         0.00000E+00
   -0.32849E+03        -0.27430E+02         0.00000E+00
    0.00000E+00         0.00000E+00         0.86646E+03
 
    0.10905E+04        -0.24273E+03         0.00000E+00
   -0.24273E+03        -0.11691E+03         0.00000E+00
    0.00000E+00         0.00000E+00         0.29144E+03
 
   -0.54094E+03         0.34450E+02         0.00000E+00
    0.34450E+02        -0.29946E+03         0.00000E+00
    0.00000E+00         0.00000E+00        -0.25299E+03
 
   -0.19339E+04         0.44689E+03         0.00000E+00
    0.44689E+03        -0.58957E+03         0.00000E+00
    0.00000E+00         0.00000E+00        -0.75815E+03
 
   -0.30695E+04         0.93681E+03         0.00000E+00
    0.93681E+03        -0.98645E+03         0.00000E+00
    0.00000E+00         0.00000E+00        -0.12181E+04
 
   -0.39510E+04         0.14520E+04         0.00000E+00
    0.14520E+04        -0.14765E+04         0.00000E+00
    0.00000E+00         0.00000E+00        -0.16298E+04
 
   -0.45983E+04         0.19506E+04         0.00000E+00
    0.19506E+04        -0.20379E+04         0.00000E+00
    0.00000E+00         0.00000E+00        -0.19927E+04
 
   -0.50421E+04         0.24029E+04         0.00000E+00
    0.24029E+04        -0.26445E+04         0.00000E+00
    0.00000E+00         0.00000E+00        -0.23080E+04
 
   -0.53176E+04         0.27913E+04         0.00000E+00
    0.27913E+04        -0.32706E+04         0.00000E+00
    0.00000E+00         0.00000E+00        -0.25787E+04
 
   -0.54606E+04         0.31087E+04         0.00000E+00
    0.31087E+04        -0.38930E+04         0.00000E+00
    0.00000E+00         0.00000E+00        -0.28085E+04
 
   -0.55041E+04         0.33558E+04         0.00000E+00
    0.33558E+04        -0.44927E+04         0.00000E+00
    0.00000E+00         0.00000E+00        -0.30016E+04
 
   -0.54762E+04         0.35391E+04         0.00000E+00
    0.35391E+04        -0.50555E+04         0.00000E+00
    0.00000E+00         0.00000E+00        -0.31623E+04
 
   -0.54002E+04         0.36688E+04         0.00000E+00
    0.36688E+04        -0.55717E+04         0.00000E+00
    0.00000E+00         0.00000E+00        -0.32945E+04
 
   -0.52938E+04         0.37571E+04         0.00000E+00
    0.37571E+04        -0.60357E+04         0.00000E+00
    0.00000E+00         0.00000E+00        -0.34019E+04
 
   -0.51696E+04         0.38171E+04         0.00000E+00
    0.38171E+04        -0.64452E+04         0.00000E+00
    0.00000E+00         0.00000E+00        -0.34877E+04
 
   -0.50358E+04         0.38623E+04         0.00000E+00
    0.38623E+04        -0.68006E+04         0.00000E+00
    0.00000E+00         0.00000E+00        -0.35543E+04
 
   -0.48964E+04         0.39060E+04         0.00000E+00
    0.39060E+04        -0.71044E+04         0.00000E+00
    0.00000E+00         0.00000E+00        -0.36037E+04
 
   -0.47518E+04         0.39609E+04         0.00000E+00
    0.39609E+04        -0.73610E+04         0.00000E+00
    0.00000E+00         0.00000E+00        -0.36374E+04
 
   -0.45987E+04         0.40397E+04         0.00000E+00
    0.40397E+04        -0.75763E+04         0.00000E+00
    0.00000E+00         0.00000E+00        -0.36561E+04
 
   -0.44303E+04         0.41543E+04         0.00000E+00
    0.41543E+04        -0.77576E+04         0.00000E+00
    0.00000E+00         0.00000E+00        -0.36601E+04
 
   -0.42365E+04         0.43163E+04         0.00000E+00
    0.43163E+04        -0.79137E+04         0.00000E+00
    0.00000E+00         0.00000E+00        -0.36488E+04
 
   -0.40030E+04         0.45372E+04         0.00000E+00
    0.45372E+04        -0.80552E+04         0.00000E+00
    0.00000E+00         0.00000E+00        -0.36212E+04
 
   -0.37111E+04         0.48275E+04         0.00000E+00
    0.48275E+04        -0.81949E+04         0.00000E+00
    0.00000E+00         0.00000E+00        -0.35756E+04
 
    0.45793E+04        -0.18097E+03         0.00000E+00
   -0.18097E+03        -0.63617E+00         0.00000E+00
    0.00000E+00         0.00000E+00         0.13735E+04
 
    0.28597E+04        -0.37089E+03         0.00000E+00
   -0.37089E+03        -0.17915E+02         0.00000E+00
    0.00000E+00         0.00000E+00         0.85217E+03
 
    0.12357E+04        -0.35557E+03         0.00000E+00
   -0.35557E+03        -0.82387E+02         0.00000E+00
    0.00000E+00         0.00000E+00         0.34537E+03
 
   -0.23886E+03        -0.16971E+03         0.00000E+00
   -0.16971E+03        -0.21847E+03         0.00000E+00
    0.00000E+00         0.00000E+00        -0.13807E+03
 
   -0.15260E+04         0.14387E+03         0.00000E+00
    0.14387E+03        -0.43999E+03         0.00000E+00
    0.00000E+00         0.00000E+00        -0.59091E+03
 
   -0.26057E+04         0.53998E+03         0.00000E+00
    0.53998E+03        -0.74952E+03         0.00000E+00
    0.00000E+00         0.00000E+00        -0.10079E+04
 
   -0.34747E+04         0.97618E+03         0.00000E+00
    0.97618E+03        -0.11397E+04         0.00000E+00
    0.00000E+00         0.00000E+00        -0.13859E+04
 
   -0.41434E+04         0.14166E+04         0.00000E+00
    0.14166E+04        -0.15957E+04         0.00000E+00
    0.00000E+00         0.00000E+00        -0.17235E+04
 
   -0.46316E+04         0.18338E+04         0.00000E+00
    0.18338E+04        -0.20987E+04         0.00000E+00
    0.00000E+00         0.00000E+00        -0.20211E+04
 
   -0.49649E+04         0.22097E+04         0.00000E+00
    0.22097E+04        -0.26285E+04         0.00000E+00
    0.00000E+00         0.00000E+00        -0.22802E+04
 
   -0.51703E+04         0.25343E+04         0.00000E+00
    0.25343E+04        -0.31658E+04         0.00000E+00
    0.00000E+00         0.00000E+00        -0.25032E+04
 
   -0.52743E+04         0.28045E+04         0.00000E+00
    0.28045E+04        -0.36938E+04         0.00000E+00
    0.00000E+00         0.00000E+00        -0.26930E+04
 
   -0.53005E+04         0.30230E+04         0.00000E+00
    0.30230E+04        -0.41990E+04         0.00000E+00
    0.00000E+00         0.00000E+00        -0.28526E+04
 
   -0.52691E+04         0.31958E+04         0.00000E+00
    0.31958E+04        -0.46715E+04         0.00000E+00
    0.00000E+00         0.00000E+00        -0.29851E+04
 
   -0.51961E+04         0.33317E+04         0.00000E+00
    0.33317E+04        -0.51045E+04         0.00000E+00
    0.00000E+00         0.00000E+00        -0.30933E+04
 
   -0.50934E+04         0.34411E+04         0.00000E+00
    0.34411E+04        -0.54945E+04         0.00000E+00
    0.00000E+00         0.00000E+00        -0.31796E+04
 
   -0.49687E+04         0.35349E+04         0.00000E+00
    0.35349E+04        -0.58403E+04         0.00000E+00
    0.00000E+00         0.00000E+00        -0.32460E+04
 
   -0.48264E+04         0.36243E+04         0.00000E+00
    0.36243E+04        -0.61430E+04         0.00000E+00
    0.00000E+00         0.00000E+00        -0.32943E+04
 
   -0.46669E+04         0.37206E+04         0.00000E+00
    0.37206E+04        -0.64058E+04         0.00000E+00
    0.00000E+00         0.00000E+00        -0.33254E+04
 
   -0.44874E+04         0.38345E+04         0.00000E+00
    0.38345E+04        -0.66335E+04         0.00000E+00
    0.00000E+00         0.00000E+00        -0.33399E+04
 
   -0.42816E+04         0.39766E+04         0.00000E+00
    0.39766E+04        -0.68323E+04         0.00000E+00
    0.00000E+00         0.00000E+00        -0.33378E+04
 
   -0.40397E+04         0.41569E+04         0.00000E+00
    0.41569E+04        -0.70103E+04         0.00000E+00
    0.00000E+00         0.00000E+00        -0.33187E+04
 
   -0.37482E+04         0.43848E+04         0.00000E+00
    0.43848E+04        -0.71775E+04         0.00000E+00
    0.00000E+00         0.00000E+00        -0.32815E+04
 
   -0.33893E+04         0.46685E+04         0.00000E+00
    0.46685E+04        -0.73459E+04         0.00000E+00
    0.00000E+00         0.00000E+00        -0.32243E+04
 
    0.42712E+04        -0.18276E+03         0.00000E+00
   -0.18276E+03         0.14145E+00         0.00000E+00
    0.00000E+00         0.00000E+00         0.12813E+04
 
    0.27547E+04        -0.39972E+03         0.00000E+00
   -0.39972E+03        -0.10335E+02         0.00000E+00
    0.00000E+00         0.00000E+00         0.82293E+03
 
    0.13083E+04        -0.43763E+03         0.00000E+00
   -0.43763E+03        -0.55473E+02         0.00000E+00
    0.00000E+00         0.00000E+00         0.37523E+03
 
   -0.23223E+02        -0.32314E+03         0.00000E+00
   -0.32314E+03        -0.15570E+03         0.00000E+00
    0.00000E+00         0.00000E+00        -0.54541E+02
 
   -0.12070E+04        -0.89356E+02         0.00000E+00
   -0.89356E+02        -0.32379E+03         0.00000E+00
    0.00000E+00         0.00000E+00        -0.46033E+03
 
   -0.22230E+04         0.22804E+03         0.00000E+00
    0.22804E+03        -0.56412E+03         0.00000E+00
    0.00000E+00         0.00000E+00        -0.83749E+03
 
   -0.30645E+04         0.59455E+03         0.00000E+00
    0.59455E+03        -0.87330E+03         0.00000E+00
    0.00000E+00         0.00000E+00        -0.11829E+04
 
   -0.37352E+04         0.97975E+03         0.00000E+00
    0.97975E+03        -0.12418E+04         0.00000E+00
    0.00000E+00         0.00000E+00        -0.14949E+04
 
   -0.42476E+04         0.13592E+04         0.00000E+00
    0.13592E+04        -0.16559E+04         0.00000E+00
    0.00000E+00         0.00000E+00        -0.17731E+04
 
   -0.46192E+04         0.17151E+04         0.00000E+00
    0.17151E+04        -0.21003E+04         0.00000E+00
    0.00000E+00         0.00000E+00        -0.20180E+04
 
   -0.48702E+04         0.20364E+04         0.00000E+00
    0.20364E+04        -0.25592E+04         0.00000E+00
    0.00000E+00         0.00000E+00        -0.22312E+04
 
   -0.50213E+04         0.23177E+04         0.00000E+00
    0.23177E+04        -0.30184E+04         0.00000E+00
    0.00000E+00         0.00000E+00        -0.24145E+04
 
   -0.50917E+04         0.25586E+04         0.00000E+00
    0.25586E+04        -0.34657E+04         0.00000E+00
    0.00000E+00         0.00000E+00        -0.25700E+04
 
   -0.50983E+04         0.27623E+04         0.00000E+00
    0.27623E+04        -0.38915E+04         0.00000E+00
    0.00000E+00         0.00000E+00        -0.26999E+04
 
   -0.50552E+04         0.29345E+04         0.00000E+00
    0.29345E+04        -0.42889E+04         0.00000E+00
    0.00000E+00         0.00000E+00        -0.28063E+04
 
   -0.49728E+04         0.30829E+04         0.00000E+00
    0.30829E+04        -0.46534E+04         0.00000E+00
    0.00000E+00         0.00000E+00        -0.28911E+04
 
   -0.48585E+04         0.32162E+04         0.00000E+00
    0.32162E+04        -0.49832E+04         0.00000E+00
    0.00000E+00         0.00000E+00        -0.29558E+04
 
   -0.47162E+04         0.33435E+04         0.00000E+00
    0.33435E+04        -0.52781E+04         0.00000E+00
    0.00000E+00         0.00000E+00        -0.30018E+04
 
   -0.45466E+04         0.34743E+04         0.00000E+00
    0.34743E+04        -0.55404E+04         0.00000E+00
    0.00000E+00         0.00000E+00        -0.30296E+04
 
   -0.43471E+04         0.36176E+04         0.00000E+00
    0.36176E+04        -0.57738E+04         0.00000E+00
    0.00000E+00         0.00000E+00        -0.30399E+04
 
   -0.41119E+04         0.37824E+04         0.00000E+00
    0.37824E+04        -0.59838E+04         0.00000E+00
    0.00000E+00         0.00000E+00        -0.30324E+04
 
   -0.38319E+04         0.39768E+04         0.00000E+00
    0.39768E+04        -0.61775E+04         0.00000E+00
    0.00000E+00         0.00000E+00        -0.30066E+04
 
   -0.34944E+04         0.42082E+04         0.00000E+00
    0.42082E+04        -0.63642E+04         0.00000E+00
    0.00000E+00         0.00000E+00        -0.29613E+04
 
   -0.30830E+04         0.44829E+04         0.00000E+00
    0.44829E+04        -0.65547E+04         0.00000E+00
    0.00000E+00         0.00000E+00        -0.28951E+04
 
    0.39542E+04        -0.18246E+03         0.00000E+00
   -0.18246E+03         0.80477E+00         0.00000E+00
    0.00000E+00         0.00000E+00         0.11864E+04
 
    0.26144E+04        -0.41785E+03         0.00000E+00
   -0.41785E+03        -0.41975E+01         0.00000E+00
    0.00000E+00         0.00000E+00         0.78269E+03
 
    0.13251E+04        -0.49576E+03         0.00000E+00
   -0.49576E+03        -0.34114E+02         0.00000E+00
    0.00000E+00         0.00000E+00         0.38669E+03
 
    0.12380E+03        -0.43700E+03         0.00000E+00
   -0.43700E+03        -0.10623E+03         0.00000E+00
    0.00000E+00         0.00000E+00         0.44118E+01
 
   -0.96079E+03        -0.26753E+03         0.00000E+00
   -0.26753E+03        -0.23215E+03         0.00000E+00
    0.00000E+00         0.00000E+00        -0.35898E+03
 
   -0.19097E+04        -0.15737E+02         0.00000E+00
   -0.15737E+02        -0.41717E+03         0.00000E+00
    0.00000E+00         0.00000E+00        -0.69939E+03
 
   -0.27138E+04         0.29022E+03         0.00000E+00
    0.29022E+03        -0.66047E+03         0.00000E+00
    0.00000E+00         0.00000E+00        -0.10138E+04
 
   -0.33728E+04         0.62474E+03         0.00000E+00
    0.62474E+03        -0.95616E+03         0.00000E+00
    0.00000E+00         0.00000E+00        -0.13005E+04
 
   -0.38936E+04         0.96630E+03         0.00000E+00
    0.96630E+03        -0.12947E+04         0.00000E+00
    0.00000E+00         0.00000E+00        -0.15585E+04
 
   -0.42878E+04         0.12983E+04         0.00000E+00
    0.12983E+04        -0.16643E+04         0.00000E+00
    0.00000E+00         0.00000E+00        -0.17878E+04
 
   -0.45701E+04         0.16095E+04         0.00000E+00
    0.16095E+04        -0.20527E+04         0.00000E+00
    0.00000E+00         0.00000E+00        -0.19892E+04
 
   -0.47561E+04         0.18930E+04         0.00000E+00
    0.18930E+04        -0.24479E+04         0.00000E+00
    0.00000E+00         0.00000E+00        -0.21638E+04
 
   -0.48610E+04         0.21464E+04         0.00000E+00
    0.21464E+04        -0.28393E+04         0.00000E+00
    0.00000E+00         0.00000E+00        -0.23129E+04
 
   -0.48988E+04         0.23707E+04         0.00000E+00
    0.23707E+04        -0.32183E+04         0.00000E+00
    0.00000E+00         0.00000E+00        -0.24380E+04
 
   -0.48812E+04         0.25693E+04         0.00000E+00
    0.25693E+04        -0.35779E+04         0.00000E+00
    0.00000E+00         0.00000E+00        -0.25408E+04
 
   -0.48172E+04         0.27474E+04         0.00000E+00
    0.27474E+04        -0.39137E+04         0.00000E+00
    0.00000E+00         0.00000E+00        -0.26225E+04
 
   -0.47134E+04         0.29117E+04         0.00000E+00
    0.29117E+04        -0.42231E+04         0.00000E+00
    0.00000E+00         0.00000E+00        -0.26843E+04
 
   -0.45733E+04         0.30694E+04         0.00000E+00
    0.30694E+04        -0.45055E+04         0.00000E+00
    0.00000E+00         0.00000E+00        -0.27271E+04
 
   -0.43974E+04         0.32279E+04         0.00000E+00
    0.32279E+04        -0.47622E+04         0.00000E+00
    0.00000E+00         0.00000E+00        -0.27514E+04
 
   -0.41834E+04         0.33949E+04         0.00000E+00
    0.33949E+04        -0.49961E+04         0.00000E+00
    0.00000E+00         0.00000E+00        -0.27574E+04
 
   -0.39260E+04         0.35773E+04         0.00000E+00
    0.35773E+04        -0.52119E+04         0.00000E+00
    0.00000E+00         0.00000E+00        -0.27450E+04
 
   -0.36169E+04         0.37817E+04         0.00000E+00
    0.37817E+04        -0.54160E+04         0.00000E+00
    0.00000E+00         0.00000E+00        -0.27136E+04
 
   -0.32444E+04         0.40137E+04         0.00000E+00
    0.40137E+04        -0.56164E+04         0.00000E+00
    0.00000E+00         0.00000E+00        -0.26620E+04
 
   -0.27936E+04         0.42773E+04         0.00000E+00
    0.42773E+04        -0.58231E+04         0.00000E+00
    0.00000E+00         0.00000E+00        -0.25888E+04
 
    0.36335E+04        -0.18042E+03         0.00000E+00
   -0.18042E+03         0.13691E+01         0.00000E+00
    0.00000E+00         0.00000E+00         0.10903E+04
 
    0.24488E+04        -0.42741E+03         0.00000E+00
   -0.42741E+03         0.81644E+00         0.00000E+00
    0.00000E+00         0.00000E+00         0.73453E+03
 
    0.12992E+04        -0.53499E+03         0.00000E+00
   -0.53499E+03        -0.16960E+02         0.00000E+00
    0.00000E+00         0.00000E+00         0.38407E+03
 
    0.21644E+03        -0.51960E+03         0.00000E+00
   -0.51960E+03        -0.66745E+02         0.00000E+00
    0.00000E+00         0.00000E+00         0.44052E+02
 
   -0.77424E+03        -0.40183E+03         0.00000E+00
   -0.40183E+03        -0.15905E+03         0.00000E+00
    0.00000E+00         0.00000E+00        -0.28108E+03
 
   -0.16550E+04        -0.20446E+03         0.00000E+00
   -0.20446E+03        -0.29952E+03         0.00000E+00
    0.00000E+00         0.00000E+00        -0.58768E+03
 
   -0.24157E+04         0.49467E+02         0.00000E+00
    0.49467E+02        -0.48902E+03         0.00000E+00
    0.00000E+00         0.00000E+00        -0.87298E+03
 
   -0.30533E+04         0.33842E+03         0.00000E+00
    0.33842E+03        -0.72424E+03         0.00000E+00
    0.00000E+00         0.00000E+00        -0.11350E+04
 
   -0.35707E+04         0.64368E+03         0.00000E+00
    0.64368E+03        -0.99862E+03         0.00000E+00
    0.00000E+00         0.00000E+00        -0.13728E+04
 
   -0.39751E+04         0.95018E+03         0.00000E+00
    0.95018E+03        -0.13035E+04         0.00000E+00
    0.00000E+00         0.00000E+00        -0.15858E+04
 
   -0.42766E+04         0.12468E+04         0.00000E+00
    0.12468E+04        -0.16293E+04         0.00000E+00
    0.00000E+00         0.00000E+00        -0.17741E+04
 
   -0.44868E+04         0.15262E+04         0.00000E+00
    0.15262E+04        -0.19662E+04         0.00000E+00
    0.00000E+00         0.00000E+00        -0.19385E+04
 
   -0.46175E+04         0.17846E+04         0.00000E+00
    0.17846E+04        -0.23054E+04         0.00000E+00
    0.00000E+00         0.00000E+00        -0.20796E+04
 
   -0.46798E+04         0.20213E+04         0.00000E+00
    0.20213E+04        -0.26390E+04         0.00000E+00
    0.00000E+00         0.00000E+00        -0.21985E+04
 
   -0.46831E+04         0.22379E+04         0.00000E+00
    0.22379E+04        -0.29608E+04         0.00000E+00
    0.00000E+00         0.00000E+00        -0.22962E+04
 
   -0.46351E+04         0.24376E+04         0.00000E+00
    0.24376E+04        -0.32665E+04         0.00000E+00
    0.00000E+00         0.00000E+00        -0.23737E+04
 
   -0.45412E+04         0.26252E+04         0.00000E+00
    0.26252E+04        -0.35531E+04         0.00000E+00
    0.00000E+00         0.00000E+00        -0.24316E+04
 
   -0.44044E+04         0.28061E+04         0.00000E+00
    0.28061E+04        -0.38198E+04         0.00000E+00
    0.00000E+00         0.00000E+00        -0.24707E+04
 
   -0.42252E+04         0.29861E+04         0.00000E+00
    0.29861E+04        -0.40672E+04         0.00000E+00
    0.00000E+00         0.00000E+00        -0.24912E+04
 
   -0.40014E+04         0.31710E+04         0.00000E+00
    0.31710E+04        -0.42975E+04         0.00000E+00
    0.00000E+00         0.00000E+00        -0.24933E+04
 
   -0.37282E+04         0.33663E+04         0.00000E+00
    0.33663E+04        -0.45149E+04         0.00000E+00
    0.00000E+00         0.00000E+00        -0.24766E+04
 
   -0.33980E+04         0.35769E+04         0.00000E+00
    0.35769E+04        -0.47246E+04         0.00000E+00
    0.00000E+00         0.00000E+00        -0.24405E+04
 
   -0.30005E+04         0.38066E+04         0.00000E+00
    0.38066E+04        -0.49338E+04         0.00000E+00
    0.00000E+00         0.00000E+00        -0.23840E+04
 
   -0.25223E+04         0.40576E+04         0.00000E+00
    0.40576E+04        -0.51514E+04         0.00000E+00
    0.00000E+00         0.00000E+00        -0.23058E+04
 
    0.33133E+04        -0.17691E+03         0.00000E+00
   -0.17691E+03         0.18453E+01         0.00000E+00
    0.00000E+00         0.00000E+00         0.99442E+03
 
    0.22658E+04        -0.43006E+03         0.00000E+00
   -0.43006E+03         0.49241E+01         0.00000E+00
    0.00000E+00         0.00000E+00         0.68084E+03
 
    0.12409E+04        -0.55913E+03         0.00000E+00
   -0.55913E+03        -0.30894E+01         0.00000E+00
    0.00000E+00         0.00000E+00         0.37074E+03
 
    0.26612E+03        -0.57725E+03         0.00000E+00
   -0.57725E+03        -0.34987E+02         0.00000E+00
    0.00000E+00         0.00000E+00         0.68487E+02
 
   -0.63628E+03        -0.50088E+03         0.00000E+00
   -0.50088E+03        -0.10027E+03         0.00000E+00
    0.00000E+00         0.00000E+00        -0.22205E+03
 
   -0.14497E+04        -0.34846E+03         0.00000E+00
   -0.34846E+03        -0.20465E+03         0.00000E+00
    0.00000E+00         0.00000E+00        -0.49763E+03
 
   -0.21636E+04        -0.13892E+03         0.00000E+00
   -0.13892E+03        -0.35008E+03         0.00000E+00
    0.00000E+00         0.00000E+00        -0.75565E+03
 
   -0.27731E+04         0.10966E+03         0.00000E+00
    0.10966E+03        -0.53505E+03         0.00000E+00
    0.00000E+00         0.00000E+00        -0.99421E+03
 
   -0.32783E+04         0.38110E+03         0.00000E+00
    0.38110E+03        -0.75526E+03         0.00000E+00
    0.00000E+00         0.00000E+00        -0.12120E+04
 
   -0.36831E+04         0.66186E+03         0.00000E+00
    0.66186E+03        -0.10045E+04         0.00000E+00
    0.00000E+00         0.00000E+00        -0.14085E+04
 
   -0.39941E+04         0.94143E+03         0.00000E+00
    0.94143E+03        -0.12753E+04         0.00000E+00
    0.00000E+00         0.00000E+00        -0.15832E+04
 
   -0.42196E+04         0.12124E+04         0.00000E+00
    0.12124E+04        -0.15600E+04         0.00000E+00
    0.00000E+00         0.00000E+00        -0.17365E+04
 
   -0.43683E+04         0.14701E+04         0.00000E+00
    0.14701E+04        -0.18512E+04         0.00000E+00
    0.00000E+00         0.00000E+00        -0.18686E+04
 
   -0.44488E+04         0.17127E+04         0.00000E+00
    0.17127E+04        -0.21422E+04         0.00000E+00
    0.00000E+00         0.00000E+00        -0.19802E+04
 
   -0.44686E+04         0.19403E+04         0.00000E+00
    0.19403E+04        -0.24275E+04         0.00000E+00
    0.00000E+00         0.00000E+00        -0.20719E+04
 
   -0.44338E+04         0.21546E+04         0.00000E+00
    0.21546E+04        -0.27029E+04         0.00000E+00
    0.00000E+00         0.00000E+00        -0.21442E+04
 
   -0.43489E+04         0.23587E+04         0.00000E+00
    0.23587E+04        -0.29658E+04         0.00000E+00
    0.00000E+00         0.00000E+00        -0.21977E+04
 
   -0.42162E+04         0.25565E+04         0.00000E+00
    0.25565E+04        -0.32148E+04         0.00000E+00
    0.00000E+00         0.00000E+00        -0.22327E+04
 
   -0.40360E+04         0.27520E+04         0.00000E+00
    0.27520E+04        -0.34504E+04         0.00000E+00
    0.00000E+00         0.00000E+00        -0.22494E+04
 
   -0.38062E+04         0.29498E+04         0.00000E+00
    0.29498E+04        -0.36742E+04         0.00000E+00
    0.00000E+00         0.00000E+00        -0.22477E+04
 
   -0.35227E+04         0.31536E+04         0.00000E+00
    0.31536E+04        -0.38895E+04         0.00000E+00
    0.00000E+00         0.00000E+00        -0.22273E+04
 
   -0.31786E+04         0.33668E+04         0.00000E+00
    0.33668E+04        -0.41011E+04         0.00000E+00
    0.00000E+00         0.00000E+00        -0.21876E+04
 
   -0.27647E+04         0.35916E+04         0.00000E+00
    0.35916E+04        -0.43150E+04         0.00000E+00
    0.00000E+00         0.00000E+00        -0.21276E+04
 
   -0.22695E+04         0.38290E+04         0.00000E+00
    0.38290E+04        -0.45388E+04         0.00000E+00
    0.00000E+00         0.00000E+00        -0.20462E+04
 
    0.29971E+04        -0.17218E+03         0.00000E+00
   -0.17218E+03         0.22415E+01         0.00000E+00
    0.00000E+00         0.00000E+00         0.89968E+03
 
    0.20714E+04        -0.42710E+03         0.00000E+00
   -0.42710E+03         0.82788E+01         0.00000E+00
    0.00000E+00         0.00000E+00         0.62353E+03
 
    0.11584E+04        -0.57114E+03         0.00000E+00
   -0.57114E+03         0.81423E+01         0.00000E+00
    0.00000E+00         0.00000E+00         0.34936E+03
 
    0.28207E+03        -0.61484E+03         0.00000E+00
   -0.61484E+03        -0.93507E+01         0.00000E+00
    0.00000E+00         0.00000E+00         0.80967E+02
 
   -0.53777E+03        -0.57146E+03         0.00000E+00
   -0.57146E+03        -0.52802E+02         0.00000E+00
    0.00000E+00         0.00000E+00        -0.17826E+03
 
   -0.12857E+04        -0.45600E+03         0.00000E+00
   -0.45600E+03        -0.12785E+03         0.00000E+00
    0.00000E+00         0.00000E+00        -0.42539E+03
 
   -0.19512E+04        -0.28409E+03         0.00000E+00
   -0.28409E+03        -0.23709E+03         0.00000E+00
    0.00000E+00         0.00000E+00        -0.65803E+03
 
   -0.25283E+04        -0.70932E+02         0.00000E+00
   -0.70932E+02        -0.38029E+03         0.00000E+00
    0.00000E+00         0.00000E+00        -0.87433E+03
 
   -0.30149E+04         0.16955E+03         0.00000E+00
    0.16955E+03        -0.55488E+03         0.00000E+00
    0.00000E+00         0.00000E+00        -0.10729E+04
 
   -0.34127E+04         0.42532E+03         0.00000E+00
    0.42532E+03        -0.75646E+03         0.00000E+00
    0.00000E+00         0.00000E+00        -0.12529E+04
 
   -0.37255E+04         0.68666E+03         0.00000E+00
    0.68666E+03        -0.97951E+03         0.00000E+00
    0.00000E+00         0.00000E+00        -0.14139E+04
 
   -0.39587E+04         0.94625E+03         0.00000E+00
    0.94625E+03        -0.12180E+04         0.00000E+00
    0.00000E+00         0.00000E+00        -0.15556E+04
 
   -0.41188E+04         0.11991E+04         0.00000E+00
    0.11991E+04        -0.14659E+04         0.00000E+00
    0.00000E+00         0.00000E+00        -0.16781E+04
 
   -0.42120E+04         0.14425E+04         0.00000E+00
    0.14425E+04        -0.17176E+04         0.00000E+00
    0.00000E+00         0.00000E+00        -0.17818E+04
 
   -0.42440E+04         0.16754E+04         0.00000E+00
    0.16754E+04        -0.19684E+04         0.00000E+00
    0.00000E+00         0.00000E+00        -0.18668E+04
 
   -0.42198E+04         0.18985E+04         0.00000E+00
    0.18985E+04        -0.22146E+04         0.00000E+00
    0.00000E+00         0.00000E+00        -0.19335E+04
 
   -0.41426E+04         0.21132E+04         0.00000E+00
    0.21132E+04        -0.24536E+04         0.00000E+00
    0.00000E+00         0.00000E+00        -0.19821E+04
 
   -0.40143E+04         0.23222E+04         0.00000E+00
    0.23222E+04        -0.26842E+04         0.00000E+00
    0.00000E+00         0.00000E+00        -0.20129E+04
 
   -0.38348E+04         0.25281E+04         0.00000E+00
    0.25281E+04        -0.29063E+04         0.00000E+00
    0.00000E+00         0.00000E+00        -0.20258E+04
 
   -0.36025E+04         0.27339E+04         0.00000E+00
    0.27339E+04        -0.31214E+04         0.00000E+00
    0.00000E+00         0.00000E+00        -0.20207E+04
 
   -0.33133E+04         0.29422E+04         0.00000E+00
    0.29422E+04        -0.33321E+04         0.00000E+00
    0.00000E+00         0.00000E+00        -0.19972E+04
 
   -0.29613E+04         0.31549E+04         0.00000E+00
    0.31549E+04        -0.35423E+04         0.00000E+00
    0.00000E+00         0.00000E+00        -0.19548E+04
 
   -0.25388E+04         0.33730E+04         0.00000E+00
    0.33730E+04        -0.37573E+04         0.00000E+00
    0.00000E+00         0.00000E+00        -0.18925E+04
 
   -0.20356E+04         0.35958E+04         0.00000E+00
    0.35958E+04        -0.39834E+04         0.00000E+00
    0.00000E+00         0.00000E+00        -0.18094E+04
 
    0.26877E+04        -0.16644E+03         0.00000E+00
   -0.16644E+03         0.25647E+01         0.00000E+00
    0.00000E+00         0.00000E+00         0.80697E+03
 
    0.18706E+04        -0.41961E+03         0.00000E+00
   -0.41961E+03         0.10994E+02         0.00000E+00
    0.00000E+00         0.00000E+00         0.56412E+03
 
    0.10583E+04        -0.57338E+03         0.00000E+00
   -0.57338E+03         0.17205E+02         0.00000E+00
    0.00000E+00         0.00000E+00         0.32205E+03
 
    0.27179E+03        -0.63624E+03         0.00000E+00
   -0.63624E+03         0.11327E+02         0.00000E+00
    0.00000E+00         0.00000E+00         0.84090E+02
 
   -0.47112E+03        -0.61894E+03         0.00000E+00
   -0.61894E+03        -0.14455E+02         0.00000E+00
    0.00000E+00         0.00000E+00        -0.14675E+03
 
   -0.11562E+04        -0.53375E+03         0.00000E+00
   -0.53375E+03        -0.65595E+02         0.00000E+00
    0.00000E+00         0.00000E+00        -0.36785E+03
 
   -0.17730E+04        -0.39359E+03         0.00000E+00
   -0.39359E+03        -0.14509E+03         0.00000E+00
    0.00000E+00         0.00000E+00        -0.57697E+03
 
   -0.23149E+04        -0.21127E+03         0.00000E+00
   -0.21127E+03        -0.25363E+03         0.00000E+00
    0.00000E+00         0.00000E+00        -0.77232E+03
 
   -0.27786E+04         0.12251E+01         0.00000E+00
    0.12251E+01        -0.38988E+03         0.00000E+00
    0.00000E+00         0.00000E+00        -0.95252E+03
 
   -0.31638E+04         0.23330E+03         0.00000E+00
    0.23330E+03        -0.55091E+03         0.00000E+00
    0.00000E+00         0.00000E+00        -0.11166E+04
 
   -0.34722E+04         0.47605E+03         0.00000E+00
    0.47605E+03        -0.73271E+03         0.00000E+00
    0.00000E+00         0.00000E+00        -0.12638E+04
 
   -0.37072E+04         0.72249E+03         0.00000E+00
    0.72249E+03        -0.93065E+03         0.00000E+00
    0.00000E+00         0.00000E+00        -0.13939E+04
 
   -0.38730E+04         0.96751E+03         0.00000E+00
    0.96751E+03        -0.11400E+04         0.00000E+00
    0.00000E+00         0.00000E+00        -0.15066E+04
 
   -0.39741E+04         0.12078E+04         0.00000E+00
    0.12078E+04        -0.13561E+04         0.00000E+00
    0.00000E+00         0.00000E+00        -0.16019E+04
 
   -0.40147E+04         0.14416E+04         0.00000E+00
    0.14416E+04        -0.15750E+04         0.00000E+00
    0.00000E+00         0.00000E+00        -0.16799E+04
 
   -0.39984E+04         0.16684E+04         0.00000E+00
    0.16684E+04        -0.17935E+04         0.00000E+00
    0.00000E+00         0.00000E+00        -0.17407E+04
 
   -0.39277E+04         0.18888E+04         0.00000E+00
    0.18888E+04        -0.20094E+04         0.00000E+00
    0.00000E+00         0.00000E+00        -0.17844E+04
 
   -0.38038E+04         0.21041E+04         0.00000E+00
    0.21041E+04        -0.22213E+04         0.00000E+00
    0.00000E+00         0.00000E+00        -0.18109E+04
 
   -0.36265E+04         0.23159E+04         0.00000E+00
    0.23159E+04        -0.24292E+04         0.00000E+00
    0.00000E+00         0.00000E+00        -0.18202E+04
 
   -0.33942E+04         0.25257E+04         0.00000E+00
    0.25257E+04        -0.26341E+04         0.00000E+00
    0.00000E+00         0.00000E+00        -0.18120E+04
 
   -0.31033E+04         0.27350E+04         0.00000E+00
    0.27350E+04        -0.28381E+04         0.00000E+00
    0.00000E+00         0.00000E+00        -0.17860E+04
 
   -0.27487E+04         0.29445E+04         0.00000E+00
    0.29445E+04        -0.30445E+04         0.00000E+00
    0.00000E+00         0.00000E+00        -0.17416E+04
 
   -0.23239E+04         0.31540E+04         0.00000E+00
    0.31540E+04        -0.32576E+04         0.00000E+00
    0.00000E+00         0.00000E+00        -0.16781E+04
 
   -0.18204E+04         0.33620E+04         0.00000E+00
    0.33620E+04        -0.34827E+04         0.00000E+00
    0.00000E+00         0.00000E+00        -0.15946E+04
 
    0.23875E+04        -0.15990E+03         0.00000E+00
   -0.15990E+03         0.28210E+01         0.00000E+00
    0.00000E+00         0.00000E+00         0.71697E+03
 
    0.16675E+04        -0.40848E+03         0.00000E+00
   -0.40848E+03         0.13158E+02         0.00000E+00
    0.00000E+00         0.00000E+00         0.50383E+03
 
    0.94594E+03        -0.56776E+03         0.00000E+00
   -0.56776E+03         0.24454E+02         0.00000E+00
    0.00000E+00         0.00000E+00         0.29051E+03
 
    0.24139E+03        -0.64458E+03         0.00000E+00
   -0.64458E+03         0.27920E+02         0.00000E+00
    0.00000E+00         0.00000E+00         0.79951E+02
 
   -0.43005E+03        -0.64768E+03         0.00000E+00
   -0.64768E+03         0.16431E+02         0.00000E+00
    0.00000E+00         0.00000E+00        -0.12516E+03
 
   -0.10552E+04        -0.58712E+03         0.00000E+00
   -0.58712E+03        -0.15237E+02         0.00000E+00
    0.00000E+00         0.00000E+00        -0.32244E+03
 
   -0.16240E+04        -0.47364E+03         0.00000E+00
   -0.47364E+03        -0.70314E+02         0.00000E+00
    0.00000E+00         0.00000E+00        -0.50982E+03
 
   -0.21294E+04        -0.31804E+03         0.00000E+00
   -0.31804E+03        -0.15011E+03         0.00000E+00
    0.00000E+00         0.00000E+00        -0.68560E+03
 
   -0.25672E+04        -0.13061E+03         0.00000E+00
   -0.13061E+03        -0.25424E+03         0.00000E+00
    0.00000E+00         0.00000E+00        -0.84838E+03
 
   -0.29356E+04         0.79324E+02         0.00000E+00
    0.79324E+02        -0.38091E+03         0.00000E+00
    0.00000E+00         0.00000E+00        -0.99713E+03
 
   -0.32350E+04         0.30372E+03         0.00000E+00
    0.30372E+03        -0.52732E+03         0.00000E+00
    0.00000E+00         0.00000E+00        -0.11310E+04
 
   -0.34669E+04         0.53599E+03         0.00000E+00
    0.53599E+03        -0.69001E+03         0.00000E+00
    0.00000E+00         0.00000E+00        -0.12496E+04
 
   -0.36339E+04         0.77105E+03         0.00000E+00
    0.77105E+03        -0.86529E+03         0.00000E+00
    0.00000E+00         0.00000E+00        -0.13525E+04
 
   -0.37389E+04         0.10053E+04         0.00000E+00
    0.10053E+04        -0.10495E+04         0.00000E+00
    0.00000E+00         0.00000E+00        -0.14394E+04
 
   -0.37849E+04         0.12363E+04         0.00000E+00
    0.12363E+04        -0.12394E+04         0.00000E+00
    0.00000E+00         0.00000E+00        -0.15103E+04
 
   -0.37743E+04         0.14630E+04         0.00000E+00
    0.14630E+04        -0.14323E+04         0.00000E+00
    0.00000E+00         0.00000E+00        -0.15651E+04
 
   -0.37088E+04         0.16850E+04         0.00000E+00
    0.16850E+04        -0.16261E+04         0.00000E+00
    0.00000E+00         0.00000E+00        -0.16037E+04
 
   -0.35892E+04         0.19025E+04         0.00000E+00
    0.19025E+04        -0.18198E+04         0.00000E+00
    0.00000E+00         0.00000E+00        -0.16261E+04
 
   -0.34151E+04         0.21161E+04         0.00000E+00
    0.21161E+04        -0.20131E+04         0.00000E+00
    0.00000E+00         0.00000E+00        -0.16319E+04
 
   -0.31849E+04         0.23264E+04         0.00000E+00
    0.23264E+04        -0.22069E+04         0.00000E+00
    0.00000E+00         0.00000E+00        -0.16211E+04
 
   -0.28956E+04         0.25337E+04         0.00000E+00
    0.25337E+04        -0.24027E+04         0.00000E+00
    0.00000E+00         0.00000E+00        -0.15931E+04
 
   -0.25428E+04         0.27378E+04         0.00000E+00
    0.27378E+04        -0.26033E+04         0.00000E+00
    0.00000E+00         0.00000E+00        -0.15475E+04
 
   -0.21210E+04         0.29375E+04         0.00000E+00
    0.29375E+04        -0.28123E+04         0.00000E+00
    0.00000E+00         0.00000E+00        -0.14837E+04
 
   -0.16233E+04         0.31304E+04         0.00000E+00
    0.31304E+04        -0.30338E+04         0.00000E+00
    0.00000E+00         0.00000E+00        -0.14008E+04
 
    0.20982E+04        -0.15273E+03         0.00000E+00
   -0.15273E+03         0.30163E+01         0.00000E+00
    0.00000E+00         0.00000E+00         0.63024E+03
 
    0.14652E+04        -0.39445E+03         0.00000E+00
   -0.39445E+03         0.14843E+02         0.00000E+00
    0.00000E+00         0.00000E+00         0.44366E+03
 
    0.82557E+03        -0.55585E+03         0.00000E+00
   -0.55585E+03         0.30165E+02         0.00000E+00
    0.00000E+00         0.00000E+00         0.25612E+03
 
    0.19586E+03        -0.64240E+03         0.00000E+00
   -0.64240E+03         0.41103E+02         0.00000E+00
    0.00000E+00         0.00000E+00         0.70248E+02
 
   -0.40934E+03        -0.66123E+03         0.00000E+00
   -0.66123E+03         0.41133E+02         0.00000E+00
    0.00000E+00         0.00000E+00        -0.11154E+03
 
   -0.97780E+03        -0.62059E+03         0.00000E+00
   -0.62059E+03         0.25282E+02         0.00000E+00
    0.00000E+00         0.00000E+00        -0.28706E+03
 
   -0.14998E+04        -0.52944E+03         0.00000E+00
   -0.52944E+03        -0.97890E+01         0.00000E+00
    0.00000E+00         0.00000E+00        -0.45442E+03
 
   -0.19683E+04        -0.39689E+03         0.00000E+00
   -0.39689E+03        -0.65831E+02         0.00000E+00
    0.00000E+00         0.00000E+00        -0.61198E+03
 
   -0.23783E+04        -0.23178E+03         0.00000E+00
   -0.23178E+03        -0.14315E+03         0.00000E+00
    0.00000E+00         0.00000E+00        -0.75840E+03
 
   -0.27273E+04        -0.42292E+02         0.00000E+00
   -0.42292E+02        -0.24083E+03         0.00000E+00
    0.00000E+00         0.00000E+00        -0.89258E+03
 
   -0.30141E+04         0.16434E+03         0.00000E+00
    0.16434E+03        -0.35704E+03         0.00000E+00
    0.00000E+00         0.00000E+00        -0.10137E+04
 
   -0.32392E+04         0.38198E+03         0.00000E+00
    0.38198E+03        -0.48930E+03         0.00000E+00
    0.00000E+00         0.00000E+00        -0.11211E+04
 
   -0.34037E+04         0.60570E+03         0.00000E+00
    0.60570E+03        -0.63483E+03         0.00000E+00
    0.00000E+00         0.00000E+00        -0.12143E+04
 
   -0.35094E+04         0.83170E+03         0.00000E+00
    0.83170E+03        -0.79080E+03         0.00000E+00
    0.00000E+00         0.00000E+00        -0.12929E+04
 
   -0.35580E+04         0.10573E+04         0.00000E+00
    0.10573E+04        -0.95457E+03         0.00000E+00
    0.00000E+00         0.00000E+00        -0.13568E+04
 
   -0.35510E+04         0.12807E+04         0.00000E+00
    0.12807E+04        -0.11239E+04         0.00000E+00
    0.00000E+00         0.00000E+00        -0.14056E+04
 
   -0.34896E+04         0.15008E+04         0.00000E+00
    0.15008E+04        -0.12972E+04         0.00000E+00
    0.00000E+00         0.00000E+00        -0.14393E+04
 
   -0.33741E+04         0.17171E+04         0.00000E+00
    0.17171E+04        -0.14734E+04         0.00000E+00
    0.00000E+00         0.00000E+00        -0.14576E+04
 
   -0.32040E+04         0.19293E+04         0.00000E+00
    0.19293E+04        -0.16523E+04         0.00000E+00
    0.00000E+00         0.00000E+00        -0.14604E+04
 
   -0.29776E+04         0.21371E+04         0.00000E+00
    0.21371E+04        -0.18345E+04         0.00000E+00
    0.00000E+00         0.00000E+00        -0.14472E+04
 
   -0.26925E+04         0.23400E+04         0.00000E+00
    0.23400E+04        -0.20212E+04         0.00000E+00
    0.00000E+00         0.00000E+00        -0.14177E+04
 
   -0.23451E+04         0.25369E+04         0.00000E+00
    0.25369E+04        -0.22145E+04         0.00000E+00
    0.00000E+00         0.00000E+00        -0.13715E+04
 
   -0.19307E+04         0.27258E+04         0.00000E+00
    0.27258E+04        -0.24174E+04         0.00000E+00
    0.00000E+00         0.00000E+00        -0.13081E+04
 
   -0.14439E+04         0.29038E+04         0.00000E+00
    0.29038E+04        -0.26332E+04         0.00000E+00
    0.00000E+00         0.00000E+00        -0.12268E+04
 
    0.18212E+04        -0.14508E+03         0.00000E+00
   -0.14508E+03         0.31565E+01         0.00000E+00
    0.00000E+00         0.00000E+00         0.54720E+03
 
    0.12663E+04        -0.37818E+03         0.00000E+00
   -0.37818E+03         0.16110E+02         0.00000E+00
    0.00000E+00         0.00000E+00         0.38437E+03
 
    0.70069E+03        -0.53897E+03         0.00000E+00
   -0.53897E+03         0.34564E+02         0.00000E+00
    0.00000E+00         0.00000E+00         0.21998E+03
 
    0.13928E+03        -0.63183E+03         0.00000E+00
   -0.63183E+03         0.51411E+02         0.00000E+00
    0.00000E+00         0.00000E+00         0.56368E+02
 
   -0.40465E+03        -0.66252E+03         0.00000E+00
   -0.66252E+03         0.60660E+02         0.00000E+00
    0.00000E+00         0.00000E+00        -0.10427E+03
 
   -0.91976E+03        -0.63787E+03         0.00000E+00
   -0.63787E+03         0.57594E+02         0.00000E+00
    0.00000E+00         0.00000E+00        -0.25995E+03
 
   -0.13968E+04        -0.56532E+03         0.00000E+00
   -0.56532E+03         0.38843E+02         0.00000E+00
    0.00000E+00         0.00000E+00        -0.40891E+03
 
   -0.18286E+04        -0.45259E+03         0.00000E+00
   -0.45259E+03         0.23599E+01         0.00000E+00
    0.00000E+00         0.00000E+00        -0.54960E+03
 
   -0.22099E+04        -0.30728E+03         0.00000E+00
   -0.30728E+03        -0.52674E+02         0.00000E+00
    0.00000E+00         0.00000E+00        -0.68072E+03
 
   -0.25374E+04        -0.13654E+03         0.00000E+00
   -0.13654E+03        -0.12603E+03         0.00000E+00
    0.00000E+00         0.00000E+00        -0.80119E+03
 
   -0.28093E+04         0.53138E+02         0.00000E+00
    0.53138E+02        -0.21662E+03         0.00000E+00
    0.00000E+00         0.00000E+00        -0.91010E+03
 
   -0.30247E+04         0.25609E+03         0.00000E+00
    0.25609E+03        -0.32279E+03         0.00000E+00
    0.00000E+00         0.00000E+00        -0.10068E+04
 
   -0.31839E+04         0.46760E+03         0.00000E+00
    0.46760E+03        -0.44251E+03         0.00000E+00
    0.00000E+00         0.00000E+00        -0.10906E+04
 
   -0.32875E+04         0.68383E+03         0.00000E+00
    0.68383E+03        -0.57365E+03         0.00000E+00
    0.00000E+00         0.00000E+00        -0.11612E+04
 
   -0.33365E+04         0.90184E+03         0.00000E+00
    0.90184E+03        -0.71416E+03         0.00000E+00
    0.00000E+00         0.00000E+00        -0.12182E+04
 
   -0.33316E+04         0.11194E+04         0.00000E+00
    0.11194E+04        -0.86226E+03         0.00000E+00
    0.00000E+00         0.00000E+00        -0.12613E+04
 
   -0.32733E+04         0.13350E+04         0.00000E+00
    0.13350E+04        -0.10166E+04         0.00000E+00
    0.00000E+00         0.00000E+00        -0.12902E+04
 
   -0.31617E+04         0.15473E+04         0.00000E+00
    0.15473E+04        -0.11763E+04         0.00000E+00
    0.00000E+00         0.00000E+00        -0.13048E+04
 
   -0.29960E+04         0.17554E+04         0.00000E+00
    0.17554E+04        -0.13412E+04         0.00000E+00
    0.00000E+00         0.00000E+00        -0.13046E+04
 
   -0.27748E+04         0.19583E+04         0.00000E+00
    0.19583E+04        -0.15116E+04         0.00000E+00
    0.00000E+00         0.00000E+00        -0.12895E+04
 
   -0.24961E+04         0.21548E+04         0.00000E+00
    0.21548E+04        -0.16885E+04         0.00000E+00
    0.00000E+00         0.00000E+00        -0.12590E+04
 
   -0.21568E+04         0.23431E+04         0.00000E+00
    0.23431E+04        -0.18736E+04         0.00000E+00
    0.00000E+00         0.00000E+00        -0.12128E+04
 
   -0.17533E+04         0.25206E+04         0.00000E+00
    0.25206E+04        -0.20691E+04         0.00000E+00
    0.00000E+00         0.00000E+00        -0.11504E+04
 
   -0.12813E+04         0.26840E+04         0.00000E+00
    0.26840E+04        -0.22775E+04         0.00000E+00
    0.00000E+00         0.00000E+00        -0.10713E+04
 
    0.15577E+04        -0.13710E+03         0.00000E+00
   -0.13710E+03         0.32472E+01         0.00000E+00
    0.00000E+00         0.00000E+00         0.46818E+03
 
    0.10729E+04        -0.36022E+03         0.00000E+00
   -0.36022E+03         0.17012E+02         0.00000E+00
    0.00000E+00         0.00000E+00         0.32660E+03
 
    0.57410E+03        -0.51823E+03         0.00000E+00
   -0.51823E+03         0.37839E+02         0.00000E+00
    0.00000E+00         0.00000E+00         0.18298E+03
 
    0.74974E+02        -0.61461E+03         0.00000E+00
   -0.61461E+03         0.59285E+02         0.00000E+00
    0.00000E+00         0.00000E+00         0.39443E+02
 
   -0.41241E+03        -0.65401E+03         0.00000E+00
   -0.65401E+03         0.75832E+02         0.00000E+00
    0.00000E+00         0.00000E+00        -0.10204E+03
 
   -0.87753E+03        -0.64204E+03         0.00000E+00
   -0.64204E+03         0.83018E+02         0.00000E+00
    0.00000E+00         0.00000E+00        -0.23965E+03
 
   -0.13116E+04        -0.58492E+03         0.00000E+00
   -0.58492E+03         0.77496E+02         0.00000E+00
    0.00000E+00         0.00000E+00        -0.37174E+03
 
   -0.17075E+04        -0.48920E+03         0.00000E+00
   -0.48920E+03         0.57028E+02         0.00000E+00
    0.00000E+00         0.00000E+00        -0.49687E+03
 
   -0.20599E+04        -0.36138E+03         0.00000E+00
   -0.36138E+03         0.20418E+02         0.00000E+00
    0.00000E+00         0.00000E+00        -0.61378E+03
 
   -0.23649E+04        -0.20775E+03         0.00000E+00
   -0.20775E+03        -0.32618E+02         0.00000E+00
    0.00000E+00         0.00000E+00        -0.72140E+03
 
   -0.26200E+04        -0.34106E+02         0.00000E+00
   -0.34106E+02        -0.10162E+03         0.00000E+00
    0.00000E+00         0.00000E+00        -0.81882E+03
 
   -0.28237E+04         0.15437E+03         0.00000E+00
    0.15437E+03        -0.18555E+03         0.00000E+00
    0.00000E+00         0.00000E+00        -0.90530E+03
 
   -0.29755E+04         0.35320E+03         0.00000E+00
    0.35320E+03        -0.28304E+03         0.00000E+00
    0.00000E+00         0.00000E+00        -0.98023E+03
 
   -0.30750E+04         0.55859E+03         0.00000E+00
    0.55859E+03        -0.39254E+03         0.00000E+00
    0.00000E+00         0.00000E+00        -0.10431E+04
 
   -0.31226E+04         0.76747E+03         0.00000E+00
    0.76747E+03        -0.51250E+03         0.00000E+00
    0.00000E+00         0.00000E+00        -0.10935E+04
 
   -0.31184E+04         0.97733E+03         0.00000E+00
    0.97733E+03        -0.64156E+03         0.00000E+00
    0.00000E+00         0.00000E+00        -0.11311E+04
 
   -0.30624E+04         0.11862E+04         0.00000E+00
    0.11862E+04        -0.77862E+03         0.00000E+00
    0.00000E+00         0.00000E+00        -0.11555E+04
 
   -0.29543E+04         0.13923E+04         0.00000E+00
    0.13923E+04        -0.92300E+03         0.00000E+00
    0.00000E+00         0.00000E+00        -0.11665E+04
 
   -0.27935E+04         0.15942E+04         0.00000E+00
    0.15942E+04        -0.10745E+04         0.00000E+00
    0.00000E+00         0.00000E+00        -0.11638E+04
 
   -0.25786E+04         0.17903E+04         0.00000E+00
    0.17903E+04        -0.12332E+04         0.00000E+00
    0.00000E+00         0.00000E+00        -0.11471E+04
 
   -0.23078E+04         0.19788E+04         0.00000E+00
    0.19788E+04        -0.14001E+04         0.00000E+00
    0.00000E+00         0.00000E+00        -0.11159E+04
 
   -0.19788E+04         0.21575E+04         0.00000E+00
    0.21575E+04        -0.15762E+04         0.00000E+00
    0.00000E+00         0.00000E+00        -0.10701E+04
 
   -0.15888E+04         0.23233E+04         0.00000E+00
    0.23233E+04        -0.17633E+04         0.00000E+00
    0.00000E+00         0.00000E+00        -0.10093E+04
 
   -0.11345E+04         0.24725E+04         0.00000E+00
    0.24725E+04        -0.19631E+04         0.00000E+00
    0.00000E+00         0.00000E+00        -0.93297E+03
 
    0.13084E+04        -0.12892E+03         0.00000E+00
   -0.12892E+03         0.32940E+01         0.00000E+00
    0.00000E+00         0.00000E+00         0.39340E+03
 
    0.88639E+03        -0.34103E+03         0.00000E+00
   -0.34103E+03         0.17598E+02         0.00000E+00
    0.00000E+00         0.00000E+00         0.27084E+03
 
    0.44805E+03        -0.49457E+03         0.00000E+00
   -0.49457E+03         0.40152E+02         0.00000E+00
    0.00000E+00         0.00000E+00         0.14586E+03
 
    0.56769E+01        -0.59221E+03         0.00000E+00
   -0.59221E+03         0.65092E+02         0.00000E+00
    0.00000E+00         0.00000E+00         0.20398E+02
 
   -0.42963E+03        -0.63772E+03         0.00000E+00
   -0.63772E+03         0.87328E+02         0.00000E+00
    0.00000E+00         0.00000E+00        -0.10375E+03
 
   -0.84810E+03        -0.63569E+03         0.00000E+00
   -0.63569E+03         0.10264E+03         0.00000E+00
    0.00000E+00         0.00000E+00        -0.22493E+03
 
   -0.12414E+04        -0.59132E+03         0.00000E+00
   -0.59132E+03         0.10775E+03         0.00000E+00
    0.00000E+00         0.00000E+00        -0.34160E+03
 
   -0.16026E+04        -0.51015E+03         0.00000E+00
   -0.51015E+03         0.10030E+03         0.00000E+00
    0.00000E+00         0.00000E+00        -0.45242E+03
 
   -0.19263E+04        -0.39778E+03         0.00000E+00
   -0.39778E+03         0.78827E+02         0.00000E+00
    0.00000E+00         0.00000E+00        -0.55619E+03
 
   -0.22084E+04        -0.25971E+03         0.00000E+00
   -0.25971E+03         0.42647E+02         0.00000E+00
    0.00000E+00         0.00000E+00        -0.65185E+03
 
   -0.24457E+04        -0.10111E+03         0.00000E+00
   -0.10111E+03        -0.82497E+01         0.00000E+00
    0.00000E+00         0.00000E+00        -0.73851E+03
 
   -0.26364E+04         0.73291E+02         0.00000E+00
    0.73291E+02        -0.73360E+02         0.00000E+00
    0.00000E+00         0.00000E+00        -0.81542E+03
 
   -0.27790E+04         0.25927E+03         0.00000E+00
    0.25927E+03        -0.15182E+03         0.00000E+00
    0.00000E+00         0.00000E+00        -0.88193E+03
 
   -0.28729E+04         0.45314E+03         0.00000E+00
    0.45314E+03        -0.24259E+03         0.00000E+00
    0.00000E+00         0.00000E+00        -0.93750E+03
 
   -0.29177E+04         0.65178E+03         0.00000E+00
    0.65178E+03        -0.34454E+03         0.00000E+00
    0.00000E+00         0.00000E+00        -0.98166E+03
 
   -0.29131E+04         0.85250E+03         0.00000E+00
    0.85250E+03        -0.45666E+03         0.00000E+00
    0.00000E+00         0.00000E+00        -0.10140E+04
 
   -0.28586E+04         0.10530E+04         0.00000E+00
    0.10530E+04        -0.57811E+03         0.00000E+00
    0.00000E+00         0.00000E+00        -0.10343E+04
 
   -0.27539E+04         0.12512E+04         0.00000E+00
    0.12512E+04        -0.70833E+03         0.00000E+00
    0.00000E+00         0.00000E+00        -0.10420E+04
 
   -0.25982E+04         0.14452E+04         0.00000E+00
    0.14452E+04        -0.84711E+03         0.00000E+00
    0.00000E+00         0.00000E+00        -0.10370E+04
 
   -0.23903E+04         0.16331E+04         0.00000E+00
    0.16331E+04        -0.99459E+03         0.00000E+00
    0.00000E+00         0.00000E+00        -0.10190E+04
 
   -0.21287E+04         0.18124E+04         0.00000E+00
    0.18124E+04        -0.11513E+04         0.00000E+00
    0.00000E+00         0.00000E+00        -0.98758E+03
 
   -0.18117E+04         0.19807E+04         0.00000E+00
    0.19807E+04        -0.13181E+04         0.00000E+00
    0.00000E+00         0.00000E+00        -0.94254E+03
 
   -0.14371E+04         0.21347E+04         0.00000E+00
    0.21347E+04        -0.14960E+04         0.00000E+00
    0.00000E+00         0.00000E+00        -0.88358E+03
 
   -0.10027E+04         0.22704E+04         0.00000E+00
    0.22704E+04        -0.16865E+04         0.00000E+00
    0.00000E+00         0.00000E+00        -0.81042E+03
 
    0.10738E+04        -0.12064E+03         0.00000E+00
   -0.12064E+03         0.33026E+01         0.00000E+00
    0.00000E+00         0.00000E+00         0.32302E+03
 
    0.70810E+03        -0.32104E+03         0.00000E+00
   -0.32104E+03         0.17911E+02         0.00000E+00
    0.00000E+00         0.00000E+00         0.21744E+03
 
    0.32431E+03        -0.46878E+03         0.00000E+00
   -0.46878E+03         0.41644E+02         0.00000E+00
    0.00000E+00         0.00000E+00         0.10919E+03
 
   -0.66407E+02        -0.56589E+03         0.00000E+00
   -0.56589E+03         0.69150E+02         0.00000E+00
    0.00000E+00         0.00000E+00        -0.66863E-02
 
   -0.45385E+03        -0.61537E+03         0.00000E+00
   -0.61537E+03         0.95723E+02         0.00000E+00
    0.00000E+00         0.00000E+00        -0.10850E+03
 
   -0.82896E+03        -0.62100E+03         0.00000E+00
   -0.62100E+03         0.11739E+03         0.00000E+00
    0.00000E+00         0.00000E+00        -0.21476E+03
 
   -0.11838E+04        -0.58710E+03         0.00000E+00
   -0.58710E+03         0.13094E+03         0.00000E+00
    0.00000E+00         0.00000E+00        -0.31738E+03
 
   -0.15119E+04        -0.51836E+03         0.00000E+00
   -0.51836E+03         0.13397E+03         0.00000E+00
    0.00000E+00         0.00000E+00        -0.41509E+03
 
   -0.18075E+04        -0.41961E+03         0.00000E+00
   -0.41961E+03         0.12483E+03         0.00000E+00
    0.00000E+00         0.00000E+00        -0.50674E+03
 
   -0.20666E+04        -0.29566E+03         0.00000E+00
   -0.29566E+03         0.10254E+03         0.00000E+00
    0.00000E+00         0.00000E+00        -0.59134E+03
 
   -0.22856E+04        -0.15111E+03         0.00000E+00
   -0.15111E+03         0.66714E+02         0.00000E+00
    0.00000E+00         0.00000E+00        -0.66800E+03
 
   -0.24623E+04         0.97172E+01         0.00000E+00
    0.97172E+01         0.17442E+02         0.00000E+00
    0.00000E+00         0.00000E+00        -0.73597E+03
 
   -0.25949E+04         0.18289E+03         0.00000E+00
    0.18289E+03        -0.44843E+02         0.00000E+00
    0.00000E+00         0.00000E+00        -0.79458E+03
 
   -0.26820E+04         0.36487E+03         0.00000E+00
    0.36487E+03        -0.11949E+03         0.00000E+00
    0.00000E+00         0.00000E+00        -0.84329E+03
 
   -0.27230E+04         0.55252E+03         0.00000E+00
    0.55252E+03        -0.20576E+03         0.00000E+00
    0.00000E+00         0.00000E+00        -0.88160E+03
 
   -0.27171E+04         0.74306E+03         0.00000E+00
    0.74306E+03        -0.30292E+03         0.00000E+00
    0.00000E+00         0.00000E+00        -0.90910E+03
 
   -0.26637E+04         0.93401E+03         0.00000E+00
    0.93401E+03        -0.41036E+03         0.00000E+00
    0.00000E+00         0.00000E+00        -0.92543E+03
 
   -0.25621E+04         0.11230E+04         0.00000E+00
    0.11230E+04        -0.52764E+03         0.00000E+00
    0.00000E+00         0.00000E+00        -0.93025E+03
 
   -0.24116E+04         0.13079E+04         0.00000E+00
    0.13079E+04        -0.65457E+03         0.00000E+00
    0.00000E+00         0.00000E+00        -0.92328E+03
 
   -0.22112E+04         0.14863E+04         0.00000E+00
    0.14863E+04        -0.79120E+03         0.00000E+00
    0.00000E+00         0.00000E+00        -0.90422E+03
 
   -0.19597E+04         0.16558E+04         0.00000E+00
    0.16558E+04        -0.93784E+03         0.00000E+00
    0.00000E+00         0.00000E+00        -0.87282E+03
 
   -0.16557E+04         0.18133E+04         0.00000E+00
    0.18133E+04        -0.10951E+04         0.00000E+00
    0.00000E+00         0.00000E+00        -0.82885E+03
 
   -0.12979E+04         0.19555E+04         0.00000E+00
    0.19555E+04        -0.12635E+04         0.00000E+00
    0.00000E+00         0.00000E+00        -0.77207E+03
 
   -0.88474E+03         0.20783E+04         0.00000E+00
    0.20783E+04        -0.14441E+04         0.00000E+00
    0.00000E+00         0.00000E+00        -0.70231E+03
 
    0.85418E+03        -0.11235E+03         0.00000E+00
   -0.11235E+03         0.32782E+01         0.00000E+00
    0.00000E+00         0.00000E+00         0.25712E+03
 
    0.53889E+03        -0.30058E+03         0.00000E+00
   -0.30058E+03         0.17992E+02         0.00000E+00
    0.00000E+00         0.00000E+00         0.16671E+03
 
    0.20428E+03        -0.44152E+03         0.00000E+00
   -0.44152E+03         0.42442E+02         0.00000E+00
    0.00000E+00         0.00000E+00         0.73422E+02
 
   -0.13949E+03        -0.53667E+03         0.00000E+00
   -0.53667E+03         0.71733E+02         0.00000E+00
    0.00000E+00         0.00000E+00        -0.21155E+02
 
   -0.48306E+03        -0.58840E+03         0.00000E+00
   -0.58840E+03         0.10151E+03         0.00000E+00
    0.00000E+00         0.00000E+00        -0.11552E+03
 
   -0.81800E+03        -0.59978E+03         0.00000E+00
   -0.59978E+03         0.12803E+03         0.00000E+00
    0.00000E+00         0.00000E+00        -0.20828E+03
 
   -0.11369E+04        -0.57442E+03         0.00000E+00
   -0.57442E+03         0.14819E+03         0.00000E+00
    0.00000E+00         0.00000E+00        -0.29811E+03
 
   -0.14333E+04        -0.51629E+03         0.00000E+00
   -0.51629E+03         0.15957E+03         0.00000E+00
    0.00000E+00         0.00000E+00        -0.38384E+03
 
   -0.17019E+04        -0.42955E+03         0.00000E+00
   -0.42955E+03         0.16038E+03         0.00000E+00
    0.00000E+00         0.00000E+00        -0.46439E+03
 
   -0.19383E+04        -0.31840E+03         0.00000E+00
   -0.31840E+03         0.14943E+03         0.00000E+00
    0.00000E+00         0.00000E+00        -0.53880E+03
 
   -0.21391E+04        -0.18694E+03         0.00000E+00
   -0.18694E+03         0.12606E+03         0.00000E+00
    0.00000E+00         0.00000E+00        -0.60621E+03
 
   -0.23013E+04        -0.39097E+02         0.00000E+00
   -0.39097E+02         0.90027E+02         0.00000E+00
    0.00000E+00         0.00000E+00        -0.66588E+03
 
   -0.24231E+04         0.12147E+03         0.00000E+00
    0.12147E+03         0.41415E+02         0.00000E+00
    0.00000E+00         0.00000E+00        -0.71716E+03
 
   -0.25027E+04         0.29140E+03         0.00000E+00
    0.29140E+03        -0.19457E+02         0.00000E+00
    0.00000E+00         0.00000E+00        -0.75948E+03
 
   -0.25391E+04         0.46761E+03         0.00000E+00
    0.46761E+03        -0.92147E+02         0.00000E+00
    0.00000E+00         0.00000E+00        -0.79235E+03
 
   -0.25313E+04         0.64729E+03         0.00000E+00
    0.64729E+03        -0.17618E+03         0.00000E+00
    0.00000E+00         0.00000E+00        -0.81535E+03
 
   -0.24785E+04         0.82783E+03         0.00000E+00
    0.82783E+03        -0.27112E+03         0.00000E+00
    0.00000E+00         0.00000E+00        -0.82810E+03
 
   -0.23798E+04         0.10067E+04         0.00000E+00
    0.10067E+04        -0.37665E+03         0.00000E+00
    0.00000E+00         0.00000E+00        -0.83027E+03
 
   -0.22347E+04         0.11816E+04         0.00000E+00
    0.11816E+04        -0.49258E+03         0.00000E+00
    0.00000E+00         0.00000E+00        -0.82159E+03
 
   -0.20421E+04         0.13499E+04         0.00000E+00
    0.13499E+04        -0.61889E+03         0.00000E+00
    0.00000E+00         0.00000E+00        -0.80178E+03
 
   -0.18012E+04         0.15088E+04         0.00000E+00
    0.15088E+04        -0.75574E+03         0.00000E+00
    0.00000E+00         0.00000E+00        -0.77063E+03
 
   -0.15110E+04         0.16554E+04         0.00000E+00
    0.16554E+04        -0.90341E+03         0.00000E+00
    0.00000E+00         0.00000E+00        -0.72794E+03
 
   -0.11708E+04         0.17860E+04         0.00000E+00
    0.17860E+04        -0.10623E+04         0.00000E+00
    0.00000E+00         0.00000E+00        -0.67355E+03
 
   -0.77964E+03         0.18968E+04         0.00000E+00
    0.18968E+04        -0.12327E+04         0.00000E+00
    0.00000E+00         0.00000E+00        -0.60734E+03
 
    0.64957E+03        -0.10415E+03         0.00000E+00
   -0.10415E+03         0.32261E+01         0.00000E+00
    0.00000E+00         0.00000E+00         0.19572E+03
 
    0.37937E+03        -0.27995E+03         0.00000E+00
   -0.27995E+03         0.17878E+02         0.00000E+00
    0.00000E+00         0.00000E+00         0.11882E+03
 
    0.89038E+02        -0.41336E+03         0.00000E+00
   -0.41336E+03         0.42658E+02         0.00000E+00
    0.00000E+00         0.00000E+00         0.38917E+02
 
   -0.21215E+03        -0.50543E+03         0.00000E+00
   -0.50543E+03         0.73083E+02         0.00000E+00
    0.00000E+00         0.00000E+00        -0.42545E+02
 
   -0.51559E+03        -0.55801E+03         0.00000E+00
   -0.55801E+03         0.10512E+03         0.00000E+00
    0.00000E+00         0.00000E+00        -0.12420E+03
 
   -0.81345E+03        -0.57358E+03         0.00000E+00
   -0.57358E+03         0.13524E+03         0.00000E+00
    0.00000E+00         0.00000E+00        -0.20475E+03
 
   -0.10988E+04        -0.55514E+03         0.00000E+00
   -0.55514E+03         0.16046E+03         0.00000E+00
    0.00000E+00         0.00000E+00        -0.28299E+03
 
   -0.13654E+04        -0.50605E+03         0.00000E+00
   -0.50605E+03         0.17839E+03         0.00000E+00
    0.00000E+00         0.00000E+00        -0.35782E+03
 
   -0.16081E+04        -0.42989E+03         0.00000E+00
   -0.42989E+03         0.18714E+03         0.00000E+00
    0.00000E+00         0.00000E+00        -0.42822E+03
 
   -0.18226E+04        -0.33033E+03         0.00000E+00
   -0.33033E+03         0.18538E+03         0.00000E+00
    0.00000E+00         0.00000E+00        -0.49328E+03
 
   -0.20051E+04        -0.21104E+03         0.00000E+00
   -0.21104E+03         0.17222E+03         0.00000E+00
    0.00000E+00         0.00000E+00        -0.55219E+03
 
   -0.21529E+04        -0.75551E+02         0.00000E+00
   -0.75551E+02         0.14716E+03         0.00000E+00
    0.00000E+00         0.00000E+00        -0.60421E+03
 
   -0.22635E+04         0.72739E+02         0.00000E+00
    0.72739E+02         0.11003E+03         0.00000E+00
    0.00000E+00         0.00000E+00        -0.64871E+03
 
   -0.23352E+04         0.23065E+03         0.00000E+00
    0.23065E+03         0.60865E+02         0.00000E+00
    0.00000E+00         0.00000E+00        -0.68513E+03
 
   -0.23666E+04         0.39519E+03         0.00000E+00
    0.39519E+03        -0.13499E+00         0.00000E+00
    0.00000E+00         0.00000E+00        -0.71298E+03
 
   -0.23564E+04         0.56357E+03         0.00000E+00
    0.56357E+03        -0.72702E+02         0.00000E+00
    0.00000E+00         0.00000E+00        -0.73184E+03
 
   -0.23038E+04         0.73314E+03         0.00000E+00
    0.73314E+03        -0.15656E+03         0.00000E+00
    0.00000E+00         0.00000E+00        -0.74133E+03
 
   -0.22080E+04         0.90132E+03         0.00000E+00
    0.90132E+03        -0.25146E+03         0.00000E+00
    0.00000E+00         0.00000E+00        -0.74115E+03
 
   -0.20681E+04         0.10655E+04         0.00000E+00
    0.10655E+04        -0.35725E+03         0.00000E+00
    0.00000E+00         0.00000E+00        -0.73101E+03
 
   -0.18835E+04         0.12232E+04         0.00000E+00
    0.12232E+04        -0.47386E+03         0.00000E+00
    0.00000E+00         0.00000E+00        -0.71068E+03
 
   -0.16535E+04         0.13713E+04         0.00000E+00
    0.13713E+04        -0.60128E+03         0.00000E+00
    0.00000E+00         0.00000E+00        -0.67997E+03
 
   -0.13775E+04         0.15069E+04         0.00000E+00
    0.15069E+04        -0.73957E+03         0.00000E+00
    0.00000E+00         0.00000E+00        -0.63872E+03
 
   -0.10552E+04         0.16264E+04         0.00000E+00
    0.16264E+04        -0.88883E+03         0.00000E+00
    0.00000E+00         0.00000E+00        -0.58684E+03
 
   -0.68636E+03         0.17258E+04         0.00000E+00
    0.17258E+04        -0.10490E+04         0.00000E+00
    0.00000E+00         0.00000E+00        -0.52426E+03
 
    0.45990E+03        -0.96097E+02         0.00000E+00
   -0.96097E+02         0.31514E+01         0.00000E+00
    0.00000E+00         0.00000E+00         0.13880E+03
 
    0.22994E+03        -0.25938E+03         0.00000E+00
   -0.25938E+03         0.17605E+02         0.00000E+00
    0.00000E+00         0.00000E+00         0.73909E+02
 
   -0.20596E+02        -0.38476E+03         0.00000E+00
   -0.38476E+03         0.42395E+02         0.00000E+00
    0.00000E+00         0.00000E+00         0.59497E+01
 
   -0.28324E+03        -0.47290E+03         0.00000E+00
   -0.47290E+03         0.73414E+02         0.00000E+00
    0.00000E+00         0.00000E+00        -0.63771E+02
 
   -0.55008E+03        -0.52520E+03         0.00000E+00
   -0.52520E+03         0.10692E+03         0.00000E+00
    0.00000E+00         0.00000E+00        -0.13400E+03
 
   -0.81385E+03        -0.54367E+03         0.00000E+00
   -0.54367E+03         0.13961E+03         0.00000E+00
    0.00000E+00         0.00000E+00        -0.20355E+03
 
   -0.10680E+04        -0.53078E+03         0.00000E+00
   -0.53078E+03         0.16861E+03         0.00000E+00
    0.00000E+00         0.00000E+00        -0.27131E+03
 
   -0.13067E+04        -0.48938E+03         0.00000E+00
   -0.48938E+03         0.19157E+03         0.00000E+00
    0.00000E+00         0.00000E+00        -0.33625E+03
 
   -0.15249E+04        -0.42256E+03         0.00000E+00
   -0.42256E+03         0.20656E+03         0.00000E+00
    0.00000E+00         0.00000E+00        -0.39742E+03
 
   -0.17183E+04        -0.33351E+03         0.00000E+00
   -0.33351E+03         0.21215E+03         0.00000E+00
    0.00000E+00         0.00000E+00        -0.45395E+03
 
   -0.18831E+04        -0.22550E+03         0.00000E+00
   -0.22550E+03         0.20728E+03         0.00000E+00
    0.00000E+00         0.00000E+00        -0.50506E+03
 
   -0.20166E+04        -0.10173E+03         0.00000E+00
   -0.10173E+03         0.19126E+03         0.00000E+00
    0.00000E+00         0.00000E+00        -0.55007E+03
 
   -0.21160E+04         0.34678E+02         0.00000E+00
    0.34678E+02         0.16370E+03         0.00000E+00
    0.00000E+00         0.00000E+00        -0.58835E+03
 
   -0.21796E+04         0.18073E+03         0.00000E+00
    0.18073E+03         0.12443E+03         0.00000E+00
    0.00000E+00         0.00000E+00        -0.61935E+03
 
   -0.22056E+04         0.33356E+03         0.00000E+00
    0.33356E+03         0.73444E+02         0.00000E+00
    0.00000E+00         0.00000E+00        -0.64260E+03
 
   -0.21928E+04         0.49043E+03         0.00000E+00
    0.49043E+03         0.10842E+02         0.00000E+00
    0.00000E+00         0.00000E+00        -0.65769E+03
 
   -0.21403E+04         0.64871E+03         0.00000E+00
    0.64871E+03        -0.63223E+02         0.00000E+00
    0.00000E+00         0.00000E+00        -0.66425E+03
 
   -0.20470E+04         0.80578E+03         0.00000E+00
    0.80578E+03        -0.14858E+03         0.00000E+00
    0.00000E+00         0.00000E+00        -0.66197E+03
 
   -0.19123E+04         0.95902E+03         0.00000E+00
    0.95902E+03        -0.24509E+03         0.00000E+00
    0.00000E+00         0.00000E+00        -0.65061E+03
 
   -0.17357E+04         0.11057E+04         0.00000E+00
    0.11057E+04        -0.35261E+03         0.00000E+00
    0.00000E+00         0.00000E+00        -0.62996E+03
 
   -0.15166E+04         0.12430E+04         0.00000E+00
    0.12430E+04        -0.47104E+03         0.00000E+00
    0.00000E+00         0.00000E+00        -0.59984E+03
 
   -0.12550E+04         0.13678E+04         0.00000E+00
    0.13678E+04        -0.60025E+03         0.00000E+00
    0.00000E+00         0.00000E+00        -0.56015E+03
 
   -0.95061E+03         0.14765E+04         0.00000E+00
    0.14765E+04        -0.74008E+03         0.00000E+00
    0.00000E+00         0.00000E+00        -0.51082E+03
 
   -0.60388E+03         0.15654E+04         0.00000E+00
    0.15654E+04        -0.89022E+03         0.00000E+00
    0.00000E+00         0.00000E+00        -0.45186E+03
 
    0.28496E+03        -0.88243E+02         0.00000E+00
   -0.88243E+02         0.30587E+01         0.00000E+00
    0.00000E+00         0.00000E+00         0.86289E+02
 
    0.90825E+02        -0.23909E+03         0.00000E+00
   -0.23909E+03         0.17203E+02         0.00000E+00
    0.00000E+00         0.00000E+00         0.32054E+02
 
   -0.12404E+03        -0.35610E+03         0.00000E+00
   -0.35610E+03         0.41745E+02         0.00000E+00
    0.00000E+00         0.00000E+00        -0.25276E+02
 
   -0.35188E+03        -0.43966E+03         0.00000E+00
   -0.43966E+03         0.72918E+02         0.00000E+00
    0.00000E+00         0.00000E+00        -0.84510E+02
 
   -0.58544E+03        -0.49080E+03         0.00000E+00
   -0.49080E+03         0.10726E+03         0.00000E+00
    0.00000E+00         0.00000E+00        -0.14451E+03
 
   -0.81797E+03        -0.51111E+03         0.00000E+00
   -0.51111E+03         0.14165E+03         0.00000E+00
    0.00000E+00         0.00000E+00        -0.20417E+03
 
   -0.10433E+04        -0.50263E+03         0.00000E+00
   -0.50263E+03         0.17337E+03         0.00000E+00
    0.00000E+00         0.00000E+00        -0.26248E+03
 
   -0.12560E+04        -0.46777E+03         0.00000E+00
   -0.46777E+03         0.20009E+03         0.00000E+00
    0.00000E+00         0.00000E+00        -0.31847E+03
 
   -0.14511E+04        -0.40918E+03         0.00000E+00
   -0.40918E+03         0.21990E+03         0.00000E+00
    0.00000E+00         0.00000E+00        -0.37127E+03
 
   -0.16244E+04        -0.32967E+03         0.00000E+00
   -0.32967E+03         0.23129E+03         0.00000E+00
    0.00000E+00         0.00000E+00        -0.42004E+03
 
   -0.17723E+04        -0.23211E+03         0.00000E+00
   -0.23211E+03         0.23308E+03         0.00000E+00
    0.00000E+00         0.00000E+00        -0.46407E+03
 
   -0.18918E+04        -0.11942E+03         0.00000E+00
   -0.11942E+03         0.22444E+03         0.00000E+00
    0.00000E+00         0.00000E+00        -0.50268E+03
 
   -0.19802E+04         0.55494E+01         0.00000E+00
    0.55494E+01         0.20481E+03         0.00000E+00
    0.00000E+00         0.00000E+00        -0.53527E+03
 
   -0.20356E+04         0.14000E+03         0.00000E+00
    0.14000E+03         0.17385E+03         0.00000E+00
    0.00000E+00         0.00000E+00        -0.56134E+03
 
   -0.20562E+04         0.28121E+03         0.00000E+00
    0.28121E+03         0.13139E+03         0.00000E+00
    0.00000E+00         0.00000E+00        -0.58040E+03
 
   -0.20407E+04         0.42654E+03         0.00000E+00
    0.42654E+03         0.77415E+02         0.00000E+00
    0.00000E+00         0.00000E+00        -0.59206E+03
 
   -0.19879E+04         0.57339E+03         0.00000E+00
    0.57339E+03         0.11962E+02         0.00000E+00
    0.00000E+00         0.00000E+00        -0.59599E+03
 
   -0.18971E+04         0.71918E+03         0.00000E+00
    0.71918E+03        -0.64858E+02         0.00000E+00
    0.00000E+00         0.00000E+00        -0.59189E+03
 
   -0.17675E+04         0.86130E+03         0.00000E+00
    0.86130E+03        -0.15290E+03         0.00000E+00
    0.00000E+00         0.00000E+00        -0.57952E+03
 
   -0.15987E+04         0.99703E+03         0.00000E+00
    0.99703E+03        -0.25199E+03         0.00000E+00
    0.00000E+00         0.00000E+00        -0.55869E+03
 
   -0.13906E+04         0.11235E+04         0.00000E+00
    0.11235E+04        -0.36193E+03         0.00000E+00
    0.00000E+00         0.00000E+00        -0.52928E+03
 
   -0.11430E+04         0.12377E+04         0.00000E+00
    0.12377E+04        -0.48244E+03         0.00000E+00
    0.00000E+00         0.00000E+00        -0.49121E+03
 
   -0.85633E+03         0.13362E+04         0.00000E+00
    0.13362E+04        -0.61314E+03         0.00000E+00
    0.00000E+00         0.00000E+00        -0.44445E+03
 
   -0.53123E+03         0.14154E+04         0.00000E+00
    0.14154E+04        -0.75350E+03         0.00000E+00
    0.00000E+00         0.00000E+00        -0.38905E+03
 
    0.12441E+03        -0.80631E+02         0.00000E+00
   -0.80631E+02         0.29524E+01         0.00000E+00
    0.00000E+00         0.00000E+00         0.38092E+02
 
   -0.37915E+02        -0.21922E+03         0.00000E+00
   -0.21922E+03         0.16702E+02         0.00000E+00
    0.00000E+00         0.00000E+00        -0.67172E+01
 
   -0.22087E+03        -0.32770E+03         0.00000E+00
   -0.32770E+03         0.40792E+02         0.00000E+00
    0.00000E+00         0.00000E+00        -0.54611E+02
 
   -0.41739E+03        -0.40621E+03         0.00000E+00
   -0.40621E+03         0.71767E+02         0.00000E+00
    0.00000E+00         0.00000E+00        -0.10451E+03
 
   -0.62079E+03        -0.45548E+03         0.00000E+00
   -0.45548E+03         0.10641E+03         0.00000E+00
    0.00000E+00         0.00000E+00        -0.15536E+03
 
   -0.82480E+03        -0.47677E+03         0.00000E+00
   -0.47677E+03         0.14181E+03         0.00000E+00
    0.00000E+00         0.00000E+00        -0.20617E+03
 
   -0.10237E+04        -0.47175E+03         0.00000E+00
   -0.47175E+03         0.17536E+03         0.00000E+00
    0.00000E+00         0.00000E+00        -0.25598E+03
 
   -0.12122E+04        -0.44245E+03         0.00000E+00
   -0.44245E+03         0.20482E+03         0.00000E+00
    0.00000E+00         0.00000E+00        -0.30392E+03
 
   -0.13857E+04        -0.39113E+03         0.00000E+00
   -0.39113E+03         0.22827E+03         0.00000E+00
    0.00000E+00         0.00000E+00        -0.34915E+03
 
   -0.15402E+04        -0.32027E+03         0.00000E+00
   -0.32027E+03         0.24415E+03         0.00000E+00
    0.00000E+00         0.00000E+00        -0.39091E+03
 
   -0.16719E+04        -0.23241E+03         0.00000E+00
   -0.23241E+03         0.25123E+03         0.00000E+00
    0.00000E+00         0.00000E+00        -0.42851E+03
 
   -0.17780E+04        -0.13017E+03         0.00000E+00
   -0.13017E+03         0.24855E+03         0.00000E+00
    0.00000E+00         0.00000E+00        -0.46131E+03
 
   -0.18558E+04        -0.16156E+02         0.00000E+00
   -0.16156E+02         0.23544E+03         0.00000E+00
    0.00000E+00         0.00000E+00        -0.48875E+03
 
   -0.19032E+04         0.10703E+03         0.00000E+00
    0.10703E+03         0.21141E+03         0.00000E+00
    0.00000E+00         0.00000E+00        -0.51032E+03
 
   -0.19184E+04         0.23682E+03         0.00000E+00
    0.23682E+03         0.17620E+03         0.00000E+00
    0.00000E+00         0.00000E+00        -0.52560E+03
 
   -0.19000E+04         0.37070E+03         0.00000E+00
    0.37070E+03         0.12965E+03         0.00000E+00
    0.00000E+00         0.00000E+00        -0.53419E+03
 
   -0.18470E+04         0.50614E+03         0.00000E+00
    0.50614E+03         0.71737E+02         0.00000E+00
    0.00000E+00         0.00000E+00        -0.53577E+03
 
   -0.17584E+04         0.64065E+03         0.00000E+00
    0.64065E+03         0.25287E+01         0.00000E+00
    0.00000E+00         0.00000E+00        -0.53007E+03
 
   -0.16338E+04         0.77164E+03         0.00000E+00
    0.77164E+03        -0.77840E+02         0.00000E+00
    0.00000E+00         0.00000E+00        -0.51687E+03
 
   -0.14727E+04         0.89647E+03         0.00000E+00
    0.89647E+03        -0.16916E+03         0.00000E+00
    0.00000E+00         0.00000E+00        -0.49601E+03
 
   -0.12751E+04         0.10123E+04         0.00000E+00
    0.10123E+04        -0.27114E+03         0.00000E+00
    0.00000E+00         0.00000E+00        -0.46739E+03
 
   -0.10413E+04         0.11163E+04         0.00000E+00
    0.11163E+04        -0.38338E+03         0.00000E+00
    0.00000E+00         0.00000E+00        -0.43096E+03
 
   -0.77173E+03         0.12051E+04         0.00000E+00
    0.12051E+04        -0.50535E+03         0.00000E+00
    0.00000E+00         0.00000E+00        -0.38672E+03
 
   -0.46750E+03         0.12754E+04         0.00000E+00
    0.12754E+04        -0.63633E+03         0.00000E+00
    0.00000E+00         0.00000E+00        -0.33477E+03
 
   -0.22163E+02        -0.73293E+02         0.00000E+00
   -0.73293E+02         0.28367E+01         0.00000E+00
    0.00000E+00         0.00000E+00        -0.59154E+01
 
   -0.15633E+03        -0.19989E+03         0.00000E+00
   -0.19989E+03         0.16128E+02         0.00000E+00
    0.00000E+00         0.00000E+00        -0.42413E+02
 
   -0.31085E+03        -0.29979E+03         0.00000E+00
   -0.29979E+03         0.39611E+02         0.00000E+00
    0.00000E+00         0.00000E+00        -0.81957E+02
 
   -0.47926E+03        -0.37293E+03         0.00000E+00
   -0.37293E+03         0.70112E+02         0.00000E+00
    0.00000E+00         0.00000E+00        -0.12356E+03
 
   -0.65541E+03        -0.41980E+03         0.00000E+00
   -0.41980E+03         0.10465E+03         0.00000E+00
    0.00000E+00         0.00000E+00        -0.16627E+03
 
   -0.83350E+03        -0.44137E+03         0.00000E+00
   -0.44137E+03         0.14050E+03         0.00000E+00
    0.00000E+00         0.00000E+00        -0.20917E+03
 
   -0.10082E+04        -0.43901E+03         0.00000E+00
   -0.43901E+03         0.17517E+03         0.00000E+00
    0.00000E+00         0.00000E+00        -0.25138E+03
 
   -0.11745E+04        -0.41442E+03         0.00000E+00
   -0.41442E+03         0.20650E+03         0.00000E+00
    0.00000E+00         0.00000E+00        -0.29209E+03
 
   -0.13280E+04        -0.36955E+03         0.00000E+00
   -0.36955E+03         0.23261E+03         0.00000E+00
    0.00000E+00         0.00000E+00        -0.33052E+03
 
   -0.14648E+04        -0.30655E+03         0.00000E+00
   -0.30655E+03         0.25191E+03         0.00000E+00
    0.00000E+00         0.00000E+00        -0.36596E+03
 
   -0.15813E+04        -0.22768E+03         0.00000E+00
   -0.22768E+03         0.26312E+03         0.00000E+00
    0.00000E+00         0.00000E+00        -0.39775E+03
 
   -0.16747E+04        -0.13528E+03         0.00000E+00
   -0.13528E+03         0.26522E+03         0.00000E+00
    0.00000E+00         0.00000E+00        -0.42531E+03
 
   -0.17423E+04        -0.31732E+02         0.00000E+00
   -0.31732E+02         0.25742E+03         0.00000E+00
    0.00000E+00         0.00000E+00        -0.44809E+03
 
   -0.17819E+04         0.80562E+02         0.00000E+00
    0.80562E+02         0.23915E+03         0.00000E+00
    0.00000E+00         0.00000E+00        -0.46562E+03
 
   -0.17919E+04         0.19921E+03         0.00000E+00
    0.19921E+03         0.21004E+03         0.00000E+00
    0.00000E+00         0.00000E+00        -0.47749E+03
 
   -0.17707E+04         0.32183E+03         0.00000E+00
    0.32183E+03         0.16987E+03         0.00000E+00
    0.00000E+00         0.00000E+00        -0.48332E+03
 
   -0.17173E+04         0.44601E+03         0.00000E+00
    0.44601E+03         0.11854E+03         0.00000E+00
    0.00000E+00         0.00000E+00        -0.48282E+03
 
   -0.16309E+04         0.56935E+03         0.00000E+00
    0.56935E+03         0.56083E+02         0.00000E+00
    0.00000E+00         0.00000E+00        -0.47574E+03
 
   -0.15110E+04         0.68935E+03         0.00000E+00
    0.68935E+03        -0.17359E+02         0.00000E+00
    0.00000E+00         0.00000E+00        -0.46188E+03
 
   -0.13573E+04         0.80346E+03         0.00000E+00
    0.80346E+03        -0.10155E+03         0.00000E+00
    0.00000E+00         0.00000E+00        -0.44110E+03
 
   -0.11699E+04         0.90900E+03         0.00000E+00
    0.90900E+03        -0.19613E+03         0.00000E+00
    0.00000E+00         0.00000E+00        -0.41332E+03
 
   -0.94925E+03         0.10031E+04         0.00000E+00
    0.10031E+04        -0.30061E+03         0.00000E+00
    0.00000E+00         0.00000E+00        -0.37852E+03
 
   -0.69614E+03         0.10828E+04         0.00000E+00
    0.10828E+04        -0.41431E+03         0.00000E+00
    0.00000E+00         0.00000E+00        -0.33673E+03
 
   -0.41182E+03         0.11449E+04         0.00000E+00
    0.11449E+04        -0.53637E+03         0.00000E+00
    0.00000E+00         0.00000E+00        -0.28807E+03
 
   -0.15524E+03        -0.66250E+02         0.00000E+00
   -0.66250E+02         0.27152E+01         0.00000E+00
    0.00000E+00         0.00000E+00        -0.45876E+02
 
   -0.26457E+03        -0.18120E+03         0.00000E+00
   -0.18120E+03         0.15507E+02         0.00000E+00
    0.00000E+00         0.00000E+00        -0.75071E+02
 
   -0.39382E+03        -0.27256E+03         0.00000E+00
   -0.27256E+03         0.38269E+02         0.00000E+00
    0.00000E+00         0.00000E+00        -0.10725E+03
 
   -0.53711E+03        -0.34012E+03         0.00000E+00
   -0.34012E+03         0.68090E+02         0.00000E+00
    0.00000E+00         0.00000E+00        -0.14152E+03
 
   -0.68876E+03        -0.38418E+03         0.00000E+00
   -0.38418E+03         0.10221E+03         0.00000E+00
    0.00000E+00         0.00000E+00        -0.17701E+03
 
   -0.84340E+03        -0.40547E+03         0.00000E+00
   -0.40547E+03         0.13806E+03         0.00000E+00
    0.00000E+00         0.00000E+00        -0.21287E+03
 
   -0.99603E+03        -0.40511E+03         0.00000E+00
   -0.40511E+03         0.17329E+03         0.00000E+00
    0.00000E+00         0.00000E+00        -0.24830E+03
 
   -0.11420E+04        -0.38452E+03         0.00000E+00
   -0.38452E+03         0.20581E+03         0.00000E+00
    0.00000E+00         0.00000E+00        -0.28255E+03
 
   -0.12771E+04        -0.34537E+03         0.00000E+00
   -0.34537E+03         0.23377E+03         0.00000E+00
    0.00000E+00         0.00000E+00        -0.31489E+03
 
   -0.13975E+04        -0.28953E+03         0.00000E+00
   -0.28953E+03         0.25561E+03         0.00000E+00
    0.00000E+00         0.00000E+00        -0.34466E+03
 
   -0.14999E+04        -0.21899E+03         0.00000E+00
   -0.21899E+03         0.26999E+03         0.00000E+00
    0.00000E+00         0.00000E+00        -0.37125E+03
 
   -0.15813E+04        -0.13586E+03         0.00000E+00
   -0.13586E+03         0.27585E+03         0.00000E+00
    0.00000E+00         0.00000E+00        -0.39409E+03
 
   -0.16392E+04        -0.42287E+02         0.00000E+00
   -0.42287E+02         0.27234E+03         0.00000E+00
    0.00000E+00         0.00000E+00        -0.41269E+03
 
   -0.16715E+04         0.59528E+02         0.00000E+00
    0.59528E+02         0.25882E+03         0.00000E+00
    0.00000E+00         0.00000E+00        -0.42659E+03
 
   -0.16764E+04         0.16737E+03         0.00000E+00
    0.16737E+03         0.23484E+03         0.00000E+00
    0.00000E+00         0.00000E+00        -0.43541E+03
 
   -0.16526E+04         0.27899E+03         0.00000E+00
    0.27899E+03         0.20012E+03         0.00000E+00
    0.00000E+00         0.00000E+00        -0.43879E+03
 
   -0.15988E+04         0.39213E+03         0.00000E+00
    0.39213E+03         0.15451E+03         0.00000E+00
    0.00000E+00         0.00000E+00        -0.43647E+03
 
   -0.15144E+04         0.50450E+03         0.00000E+00
    0.50450E+03         0.98027E+02         0.00000E+00
    0.00000E+00         0.00000E+00        -0.42820E+03
 
   -0.13989E+04         0.61374E+03         0.00000E+00
    0.61374E+03         0.30805E+02         0.00000E+00
    0.00000E+00         0.00000E+00        -0.41381E+03
 
   -0.12523E+04         0.71740E+03         0.00000E+00
    0.71740E+03        -0.46890E+02         0.00000E+00
    0.00000E+00         0.00000E+00        -0.39319E+03
 
   -0.10746E+04         0.81294E+03         0.00000E+00
    0.81294E+03        -0.13464E+03         0.00000E+00
    0.00000E+00         0.00000E+00        -0.36628E+03
 
   -0.86648E+03         0.89770E+03         0.00000E+00
    0.89770E+03        -0.23188E+03         0.00000E+00
    0.00000E+00         0.00000E+00        -0.33306E+03
 
   -0.62894E+03         0.96885E+03         0.00000E+00
    0.96885E+03        -0.33784E+03         0.00000E+00
    0.00000E+00         0.00000E+00        -0.29362E+03
 
   -0.36337E+03         0.10234E+04         0.00000E+00
    0.10234E+04        -0.45153E+03         0.00000E+00
    0.00000E+00         0.00000E+00        -0.24807E+03
 
   -0.27535E+03        -0.59513E+02         0.00000E+00
   -0.59513E+02         0.25914E+01         0.00000E+00
    0.00000E+00         0.00000E+00        -0.81943E+02
 
   -0.36285E+03        -0.16320E+03         0.00000E+00
   -0.16320E+03         0.14859E+02         0.00000E+00
    0.00000E+00         0.00000E+00        -0.10475E+03
 
   -0.46975E+03        -0.24613E+03         0.00000E+00
   -0.24613E+03         0.36827E+02         0.00000E+00
    0.00000E+00         0.00000E+00        -0.13046E+03
 
   -0.59067E+03        -0.30800E+03         0.00000E+00
   -0.30800E+03         0.65822E+02         0.00000E+00
    0.00000E+00         0.00000E+00        -0.15827E+03
 
   -0.72039E+03        -0.34895E+03         0.00000E+00
   -0.34895E+03         0.99281E+02         0.00000E+00
    0.00000E+00         0.00000E+00        -0.18737E+03
 
   -0.85394E+03        -0.36952E+03         0.00000E+00
   -0.36952E+03         0.13480E+03         0.00000E+00
    0.00000E+00         0.00000E+00        -0.21701E+03
 
   -0.98662E+03        -0.37061E+03         0.00000E+00
   -0.37061E+03         0.17014E+03         0.00000E+00
    0.00000E+00         0.00000E+00        -0.24642E+03
 
   -0.11141E+04        -0.35341E+03         0.00000E+00
   -0.35341E+03         0.20330E+03         0.00000E+00
    0.00000E+00         0.00000E+00        -0.27492E+03
 
   -0.12323E+04        -0.31935E+03         0.00000E+00
   -0.31935E+03         0.23249E+03         0.00000E+00
    0.00000E+00         0.00000E+00        -0.30184E+03
 
   -0.13377E+04        -0.27005E+03         0.00000E+00
   -0.27005E+03         0.25613E+03         0.00000E+00
    0.00000E+00         0.00000E+00        -0.32655E+03
 
   -0.14269E+04        -0.20725E+03         0.00000E+00
   -0.20725E+03         0.27290E+03         0.00000E+00
    0.00000E+00         0.00000E+00        -0.34849E+03
 
   -0.14973E+04        -0.13284E+03         0.00000E+00
   -0.13284E+03         0.28170E+03         0.00000E+00
    0.00000E+00         0.00000E+00        -0.36713E+03
 
   -0.15462E+04        -0.48758E+02         0.00000E+00
   -0.48758E+02         0.28163E+03         0.00000E+00
    0.00000E+00         0.00000E+00        -0.38199E+03
 
   -0.15716E+04         0.42998E+02         0.00000E+00
    0.42998E+02         0.27199E+03         0.00000E+00
    0.00000E+00         0.00000E+00        -0.39266E+03
 
   -0.15718E+04         0.14039E+03         0.00000E+00
    0.14039E+03         0.25229E+03         0.00000E+00
    0.00000E+00         0.00000E+00        -0.39876E+03
 
   -0.15453E+04         0.24133E+03         0.00000E+00
    0.24133E+03         0.22220E+03         0.00000E+00
    0.00000E+00         0.00000E+00        -0.39998E+03
 
   -0.14912E+04         0.34372E+03         0.00000E+00
    0.34372E+03         0.18155E+03         0.00000E+00
    0.00000E+00         0.00000E+00        -0.39606E+03
 
   -0.14087E+04         0.44540E+03         0.00000E+00
    0.44540E+03         0.13032E+03         0.00000E+00
    0.00000E+00         0.00000E+00        -0.38677E+03
 
   -0.12974E+04         0.54415E+03         0.00000E+00
    0.54415E+03         0.68655E+02         0.00000E+00
    0.00000E+00         0.00000E+00        -0.37198E+03
 
   -0.11573E+04         0.63768E+03         0.00000E+00
    0.63768E+03        -0.31569E+01         0.00000E+00
    0.00000E+00         0.00000E+00        -0.35158E+03
 
   -0.98877E+03         0.72362E+03         0.00000E+00
    0.72362E+03        -0.84659E+02         0.00000E+00
    0.00000E+00         0.00000E+00        -0.32553E+03
 
   -0.79245E+03         0.79947E+03         0.00000E+00
    0.79947E+03        -0.17521E+03         0.00000E+00
    0.00000E+00         0.00000E+00        -0.29385E+03
 
   -0.56947E+03         0.86262E+03         0.00000E+00
    0.86262E+03        -0.27398E+03         0.00000E+00
    0.00000E+00         0.00000E+00        -0.25662E+03
 
   -0.32142E+03         0.91035E+03         0.00000E+00
    0.91035E+03        -0.37988E+03         0.00000E+00
    0.00000E+00         0.00000E+00        -0.21399E+03
 
   -0.38301E+03        -0.53086E+02         0.00000E+00
   -0.53086E+02         0.24683E+01         0.00000E+00
    0.00000E+00         0.00000E+00        -0.11428E+03
 
   -0.45143E+03        -0.14591E+03         0.00000E+00
   -0.14591E+03         0.14204E+02         0.00000E+00
    0.00000E+00         0.00000E+00        -0.13152E+03
 
   -0.53867E+03        -0.22059E+03         0.00000E+00
   -0.22059E+03         0.35339E+02         0.00000E+00
    0.00000E+00         0.00000E+00        -0.15158E+03
 
   -0.63979E+03        -0.27673E+03         0.00000E+00
   -0.27673E+03         0.63413E+02         0.00000E+00
    0.00000E+00         0.00000E+00        -0.17372E+03
 
   -0.74999E+03        -0.31435E+03         0.00000E+00
   -0.31435E+03         0.96048E+02         0.00000E+00
    0.00000E+00         0.00000E+00        -0.19722E+03
 
   -0.86467E+03        -0.33385E+03         0.00000E+00
   -0.33385E+03         0.13098E+03         0.00000E+00
    0.00000E+00         0.00000E+00        -0.22136E+03
 
   -0.97942E+03        -0.33595E+03         0.00000E+00
   -0.33595E+03         0.16611E+03         0.00000E+00
    0.00000E+00         0.00000E+00        -0.24547E+03
 
   -0.10902E+04        -0.32163E+03         0.00000E+00
   -0.32163E+03         0.19949E+03         0.00000E+00
    0.00000E+00         0.00000E+00        -0.26889E+03
 
   -0.11931E+04        -0.29211E+03         0.00000E+00
   -0.29211E+03         0.22939E+03         0.00000E+00
    0.00000E+00         0.00000E+00        -0.29100E+03
 
   -0.12847E+04        -0.24878E+03         0.00000E+00
   -0.24878E+03         0.25427E+03         0.00000E+00
    0.00000E+00         0.00000E+00        -0.31123E+03
 
   -0.13620E+04        -0.19319E+03         0.00000E+00
   -0.19319E+03         0.27279E+03         0.00000E+00
    0.00000E+00         0.00000E+00        -0.32904E+03
 
   -0.14221E+04        -0.12700E+03         0.00000E+00
   -0.12700E+03         0.28383E+03         0.00000E+00
    0.00000E+00         0.00000E+00        -0.34394E+03
 
   -0.14627E+04        -0.51937E+02         0.00000E+00
   -0.51937E+02         0.28648E+03         0.00000E+00
    0.00000E+00         0.00000E+00        -0.35549E+03
 
   -0.14817E+04         0.30183E+02         0.00000E+00
    0.30183E+02         0.28000E+03         0.00000E+00
    0.00000E+00         0.00000E+00        -0.36329E+03
 
   -0.14775E+04         0.11750E+03         0.00000E+00
    0.11750E+03         0.26386E+03         0.00000E+00
    0.00000E+00         0.00000E+00        -0.36700E+03
 
   -0.14486E+04         0.20811E+03         0.00000E+00
    0.20811E+03         0.23770E+03         0.00000E+00
    0.00000E+00         0.00000E+00        -0.36632E+03
 
   -0.13941E+04         0.30007E+03         0.00000E+00
    0.30007E+03         0.20131E+03         0.00000E+00
    0.00000E+00         0.00000E+00        -0.36100E+03
 
   -0.13133E+04         0.39137E+03         0.00000E+00
    0.39137E+03         0.15469E+03         0.00000E+00
    0.00000E+00         0.00000E+00        -0.35086E+03
 
   -0.12060E+04         0.47997E+03         0.00000E+00
    0.47997E+03         0.97954E+02         0.00000E+00
    0.00000E+00         0.00000E+00        -0.33577E+03
 
   -0.10721E+04         0.56373E+03         0.00000E+00
    0.56373E+03         0.31432E+02         0.00000E+00
    0.00000E+00         0.00000E+00        -0.31563E+03
 
   -0.91202E+03         0.64046E+03         0.00000E+00
    0.64046E+03        -0.44392E+02         0.00000E+00
    0.00000E+00         0.00000E+00        -0.29042E+03
 
   -0.72665E+03         0.70787E+03         0.00000E+00
    0.70787E+03        -0.12883E+03         0.00000E+00
    0.00000E+00         0.00000E+00        -0.26019E+03
 
   -0.51717E+03         0.76357E+03         0.00000E+00
    0.76357E+03        -0.22099E+03         0.00000E+00
    0.00000E+00         0.00000E+00        -0.22502E+03
 
   -0.28527E+03         0.80508E+03         0.00000E+00
    0.80508E+03        -0.31972E+03         0.00000E+00
    0.00000E+00         0.00000E+00        -0.18509E+03
 
   -0.47878E+03        -0.46963E+02         0.00000E+00
   -0.46963E+02         0.23486E+01         0.00000E+00
    0.00000E+00         0.00000E+00        -0.14305E+03
 
   -0.53062E+03        -0.12936E+03         0.00000E+00
   -0.12936E+03         0.13560E+02         0.00000E+00
    0.00000E+00         0.00000E+00        -0.15547E+03
 
   -0.60065E+03        -0.19599E+03         0.00000E+00
   -0.19599E+03         0.33852E+02         0.00000E+00
    0.00000E+00         0.00000E+00        -0.17062E+03
 
   -0.68435E+03        -0.24640E+03         0.00000E+00
   -0.24640E+03         0.60959E+02         0.00000E+00
    0.00000E+00         0.00000E+00        -0.18783E+03
 
   -0.77730E+03        -0.28056E+03         0.00000E+00
   -0.28056E+03         0.92669E+02         0.00000E+00
    0.00000E+00         0.00000E+00        -0.20643E+03
 
   -0.87522E+03        -0.29872E+03         0.00000E+00
   -0.29872E+03         0.12686E+03         0.00000E+00
    0.00000E+00         0.00000E+00        -0.22577E+03
 
   -0.97399E+03        -0.30146E+03         0.00000E+00
   -0.30146E+03         0.16153E+03         0.00000E+00
    0.00000E+00         0.00000E+00        -0.24521E+03
 
   -0.10698E+04        -0.28958E+03         0.00000E+00
   -0.28958E+03         0.19481E+03         0.00000E+00
    0.00000E+00         0.00000E+00        -0.26417E+03
 
   -0.11589E+04        -0.26413E+03         0.00000E+00
   -0.26413E+03         0.22504E+03         0.00000E+00
    0.00000E+00         0.00000E+00        -0.28205E+03
 
   -0.12382E+04        -0.22629E+03         0.00000E+00
   -0.22629E+03         0.25069E+03         0.00000E+00
    0.00000E+00         0.00000E+00        -0.29833E+03
 
   -0.13046E+04        -0.17742E+03         0.00000E+00
   -0.17742E+03         0.27045E+03         0.00000E+00
    0.00000E+00         0.00000E+00        -0.31251E+03
 
   -0.13554E+04        -0.11897E+03         0.00000E+00
   -0.11897E+03         0.28319E+03         0.00000E+00
    0.00000E+00         0.00000E+00        -0.32412E+03
 
   -0.13884E+04        -0.52485E+02         0.00000E+00
   -0.52485E+02         0.28796E+03         0.00000E+00
    0.00000E+00         0.00000E+00        -0.33274E+03
 
   -0.14016E+04         0.20409E+02         0.00000E+00
    0.20409E+02         0.28403E+03         0.00000E+00
    0.00000E+00         0.00000E+00        -0.33802E+03
 
   -0.13932E+04         0.98039E+02         0.00000E+00
    0.98039E+02         0.27083E+03         0.00000E+00
    0.00000E+00         0.00000E+00        -0.33963E+03
 
   -0.13621E+04         0.17868E+03         0.00000E+00
    0.17868E+03         0.24797E+03         0.00000E+00
    0.00000E+00         0.00000E+00        -0.33729E+03
 
   -0.13073E+04         0.26054E+03         0.00000E+00
    0.26054E+03         0.21525E+03         0.00000E+00
    0.00000E+00         0.00000E+00        -0.33077E+03
 
   -0.12281E+04         0.34181E+03         0.00000E+00
    0.34181E+03         0.17262E+03         0.00000E+00
    0.00000E+00         0.00000E+00        -0.31992E+03
 
   -0.11244E+04         0.42061E+03         0.00000E+00
    0.42061E+03         0.12025E+03         0.00000E+00
    0.00000E+00         0.00000E+00        -0.30459E+03
 
   -0.99613E+03         0.49497E+03         0.00000E+00
    0.49497E+03         0.58442E+02         0.00000E+00
    0.00000E+00         0.00000E+00        -0.28474E+03
 
   -0.84391E+03         0.56291E+03         0.00000E+00
    0.56291E+03        -0.12271E+02         0.00000E+00
    0.00000E+00         0.00000E+00        -0.26035E+03
 
   -0.66858E+03         0.62234E+03         0.00000E+00
    0.62234E+03        -0.91171E+02         0.00000E+00
    0.00000E+00         0.00000E+00        -0.23146E+03
 
   -0.47146E+03         0.67109E+03         0.00000E+00
    0.67109E+03        -0.17732E+03         0.00000E+00
    0.00000E+00         0.00000E+00        -0.19820E+03
 
   -0.25430E+03         0.70696E+03         0.00000E+00
    0.70696E+03        -0.26952E+03         0.00000E+00
    0.00000E+00         0.00000E+00        -0.16073E+03
 
   -0.56320E+03        -0.41134E+02         0.00000E+00
   -0.41134E+02         0.22347E+01         0.00000E+00
    0.00000E+00         0.00000E+00        -0.16840E+03
 
   -0.60073E+03        -0.11352E+03         0.00000E+00
   -0.11352E+03         0.12941E+02         0.00000E+00
    0.00000E+00         0.00000E+00        -0.17669E+03
 
   -0.65582E+03        -0.17232E+03         0.00000E+00
   -0.17232E+03         0.32406E+02         0.00000E+00
    0.00000E+00         0.00000E+00        -0.18760E+03
 
   -0.72432E+03        -0.21707E+03         0.00000E+00
   -0.21707E+03         0.58540E+02         0.00000E+00
    0.00000E+00         0.00000E+00        -0.20054E+03
 
   -0.80215E+03        -0.24767E+03         0.00000E+00
   -0.24767E+03         0.89279E+02         0.00000E+00
    0.00000E+00         0.00000E+00        -0.21490E+03
 
   -0.88530E+03        -0.26428E+03         0.00000E+00
   -0.26428E+03         0.12262E+03         0.00000E+00
    0.00000E+00         0.00000E+00        -0.23006E+03
 
   -0.96994E+03        -0.26735E+03         0.00000E+00
   -0.26735E+03         0.15667E+03         0.00000E+00
    0.00000E+00         0.00000E+00        -0.24545E+03
 
   -0.10524E+04        -0.25756E+03         0.00000E+00
   -0.25756E+03         0.18965E+03         0.00000E+00
    0.00000E+00         0.00000E+00        -0.26051E+03
 
   -0.11293E+04        -0.23576E+03         0.00000E+00
   -0.23576E+03         0.21991E+03         0.00000E+00
    0.00000E+00         0.00000E+00        -0.27471E+03
 
   -0.11975E+04        -0.20299E+03         0.00000E+00
   -0.20299E+03         0.24599E+03         0.00000E+00
    0.00000E+00         0.00000E+00        -0.28754E+03
 
   -0.12542E+04        -0.16040E+03         0.00000E+00
   -0.16040E+03         0.26659E+03         0.00000E+00
    0.00000E+00         0.00000E+00        -0.29854E+03
 
   -0.12967E+04        -0.10927E+03         0.00000E+00
   -0.10927E+03         0.28057E+03         0.00000E+00
    0.00000E+00         0.00000E+00        -0.30727E+03
 
   -0.13228E+04        -0.50953E+02         0.00000E+00
   -0.50953E+02         0.28699E+03         0.00000E+00
    0.00000E+00         0.00000E+00        -0.31335E+03
 
   -0.13307E+04         0.13110E+02         0.00000E+00
    0.13110E+02         0.28510E+03         0.00000E+00
    0.00000E+00         0.00000E+00        -0.31643E+03
 
   -0.13186E+04         0.81425E+02         0.00000E+00
    0.81425E+02         0.27430E+03         0.00000E+00
    0.00000E+00         0.00000E+00        -0.31621E+03
 
   -0.12855E+04         0.15244E+03         0.00000E+00
    0.15244E+03         0.25421E+03         0.00000E+00
    0.00000E+00         0.00000E+00        -0.31243E+03
 
   -0.12304E+04         0.22457E+03         0.00000E+00
    0.22457E+03         0.22460E+03         0.00000E+00
    0.00000E+00         0.00000E+00        -0.30489E+03
 
   -0.11527E+04         0.29615E+03         0.00000E+00
    0.29615E+03         0.18544E+03         0.00000E+00
    0.00000E+00         0.00000E+00        -0.29343E+03
 
   -0.10522E+04         0.36550E+03         0.00000E+00
    0.36550E+03         0.13687E+03         0.00000E+00
    0.00000E+00         0.00000E+00        -0.27795E+03
 
   -0.92912E+03         0.43085E+03         0.00000E+00
    0.43085E+03         0.79237E+02         0.00000E+00
    0.00000E+00         0.00000E+00        -0.25839E+03
 
   -0.78399E+03         0.49040E+03         0.00000E+00
    0.49040E+03         0.13078E+02         0.00000E+00
    0.00000E+00         0.00000E+00        -0.23476E+03
 
   -0.61777E+03         0.54228E+03         0.00000E+00
    0.54228E+03        -0.60858E+02         0.00000E+00
    0.00000E+00         0.00000E+00        -0.20712E+03
 
   -0.43182E+03         0.58457E+03         0.00000E+00
    0.58457E+03        -0.14160E+03         0.00000E+00
    0.00000E+00         0.00000E+00        -0.17559E+03
 
   -0.22797E+03         0.61529E+03         0.00000E+00
    0.61529E+03        -0.22793E+03         0.00000E+00
    0.00000E+00         0.00000E+00        -0.14035E+03
 
   -0.63677E+03        -0.35582E+02         0.00000E+00
   -0.35582E+02         0.21286E+01         0.00000E+00
    0.00000E+00         0.00000E+00        -0.19051E+03
 
   -0.66208E+03        -0.98369E+02         0.00000E+00
   -0.98369E+02         0.12361E+02         0.00000E+00
    0.00000E+00         0.00000E+00        -0.19526E+03
 
   -0.70432E+03        -0.14957E+03         0.00000E+00
   -0.14957E+03         0.31039E+02         0.00000E+00
    0.00000E+00         0.00000E+00        -0.20256E+03
 
   -0.75970E+03        -0.18874E+03         0.00000E+00
   -0.18874E+03         0.56228E+02         0.00000E+00
    0.00000E+00         0.00000E+00        -0.21185E+03
 
   -0.82439E+03        -0.21572E+03         0.00000E+00
   -0.21572E+03         0.85996E+02         0.00000E+00
    0.00000E+00         0.00000E+00        -0.22255E+03
 
   -0.89469E+03        -0.23063E+03         0.00000E+00
   -0.23063E+03         0.11846E+03         0.00000E+00
    0.00000E+00         0.00000E+00        -0.23412E+03
 
   -0.96698E+03        -0.23380E+03         0.00000E+00
   -0.23380E+03         0.15180E+03         0.00000E+00
    0.00000E+00         0.00000E+00        -0.24602E+03
 
   -0.10378E+04        -0.22578E+03         0.00000E+00
   -0.22578E+03         0.18431E+03         0.00000E+00
    0.00000E+00         0.00000E+00        -0.25773E+03
 
   -0.11039E+04        -0.20729E+03         0.00000E+00
   -0.20729E+03         0.21442E+03         0.00000E+00
    0.00000E+00         0.00000E+00        -0.26874E+03
 
   -0.11624E+04        -0.17921E+03         0.00000E+00
   -0.17921E+03         0.24067E+03         0.00000E+00
    0.00000E+00         0.00000E+00        -0.27859E+03
 
   -0.12104E+04        -0.14252E+03         0.00000E+00
   -0.14252E+03         0.26180E+03         0.00000E+00
    0.00000E+00         0.00000E+00        -0.28684E+03
 
   -0.12455E+04        -0.98319E+02         0.00000E+00
   -0.98319E+02         0.27667E+03         0.00000E+00
    0.00000E+00         0.00000E+00        -0.29309E+03
 
   -0.12655E+04        -0.47793E+02         0.00000E+00
   -0.47793E+02         0.28435E+03         0.00000E+00
    0.00000E+00         0.00000E+00        -0.29696E+03
 
   -0.12687E+04         0.78048E+01         0.00000E+00
    0.78048E+01         0.28407E+03         0.00000E+00
    0.00000E+00         0.00000E+00        -0.29814E+03
 
   -0.12534E+04         0.67161E+02         0.00000E+00
    0.67161E+02         0.27523E+03         0.00000E+00
    0.00000E+00         0.00000E+00        -0.29635E+03
 
   -0.12185E+04         0.12891E+03         0.00000E+00
    0.12891E+03         0.25743E+03         0.00000E+00
    0.00000E+00         0.00000E+00        -0.29134E+03
 
   -0.11631E+04         0.19163E+03         0.00000E+00
    0.19163E+03         0.23045E+03         0.00000E+00
    0.00000E+00         0.00000E+00        -0.28293E+03
 
   -0.10867E+04         0.25387E+03         0.00000E+00
    0.25387E+03         0.19425E+03         0.00000E+00
    0.00000E+00         0.00000E+00        -0.27098E+03
 
   -0.98911E+03         0.31411E+03         0.00000E+00
    0.31411E+03         0.14898E+03         0.00000E+00
    0.00000E+00         0.00000E+00        -0.25539E+03
 
   -0.87065E+03         0.37081E+03         0.00000E+00
    0.37081E+03         0.94995E+02         0.00000E+00
    0.00000E+00         0.00000E+00        -0.23612E+03
 
   -0.73187E+03         0.42235E+03         0.00000E+00
    0.42235E+03         0.32845E+02         0.00000E+00
    0.00000E+00         0.00000E+00        -0.21319E+03
 
   -0.57378E+03         0.46710E+03         0.00000E+00
    0.46710E+03        -0.36701E+02         0.00000E+00
    0.00000E+00         0.00000E+00        -0.18667E+03
 
   -0.39780E+03         0.50336E+03         0.00000E+00
    0.50336E+03        -0.11265E+03         0.00000E+00
    0.00000E+00         0.00000E+00        -0.15669E+03
 
   -0.20578E+03         0.52940E+03         0.00000E+00
    0.52940E+03        -0.19376E+03         0.00000E+00
    0.00000E+00         0.00000E+00        -0.12344E+03
 
   -0.70000E+03        -0.30285E+02         0.00000E+00
   -0.30285E+02         0.20322E+01         0.00000E+00
    0.00000E+00         0.00000E+00        -0.20951E+03
 
   -0.71498E+03        -0.83853E+02         0.00000E+00
   -0.83853E+02         0.11830E+02         0.00000E+00
    0.00000E+00         0.00000E+00        -0.21129E+03
 
   -0.74632E+03        -0.12768E+03         0.00000E+00
   -0.12768E+03         0.29780E+02         0.00000E+00
    0.00000E+00         0.00000E+00        -0.21554E+03
 
   -0.79049E+03        -0.16136E+03         0.00000E+00
   -0.16136E+03         0.54081E+02         0.00000E+00
    0.00000E+00         0.00000E+00        -0.22173E+03
 
   -0.84395E+03        -0.18471E+03         0.00000E+00
   -0.18471E+03         0.82919E+02         0.00000E+00
    0.00000E+00         0.00000E+00        -0.22934E+03
 
   -0.90321E+03        -0.19779E+03         0.00000E+00
   -0.19779E+03         0.11451E+03         0.00000E+00
    0.00000E+00         0.00000E+00        -0.23786E+03
 
   -0.96485E+03        -0.20087E+03         0.00000E+00
   -0.20087E+03         0.14711E+03         0.00000E+00
    0.00000E+00         0.00000E+00        -0.24679E+03
 
   -0.10256E+04        -0.19438E+03         0.00000E+00
   -0.19438E+03         0.17909E+03         0.00000E+00
    0.00000E+00         0.00000E+00        -0.25564E+03
 
   -0.10824E+04        -0.17891E+03         0.00000E+00
   -0.17891E+03         0.20891E+03         0.00000E+00
    0.00000E+00         0.00000E+00        -0.26393E+03
 
   -0.11324E+04        -0.15519E+03         0.00000E+00
   -0.15519E+03         0.23516E+03         0.00000E+00
    0.00000E+00         0.00000E+00        -0.27124E+03
 
   -0.11729E+04        -0.12406E+03         0.00000E+00
   -0.12406E+03         0.25659E+03         0.00000E+00
    0.00000E+00         0.00000E+00        -0.27715E+03
 
   -0.12015E+04        -0.86454E+02         0.00000E+00
   -0.86454E+02         0.27208E+03         0.00000E+00
    0.00000E+00         0.00000E+00        -0.28127E+03
 
   -0.12162E+04        -0.43376E+02         0.00000E+00
   -0.43376E+02         0.28070E+03         0.00000E+00
    0.00000E+00         0.00000E+00        -0.28327E+03
 
   -0.12153E+04         0.40935E+01         0.00000E+00
    0.40935E+01         0.28167E+03         0.00000E+00
    0.00000E+00         0.00000E+00        -0.28283E+03
 
   -0.11971E+04         0.54820E+02         0.00000E+00
    0.54820E+02         0.27441E+03         0.00000E+00
    0.00000E+00         0.00000E+00        -0.27970E+03
 
   -0.11606E+04         0.10762E+03         0.00000E+00
    0.10762E+03         0.25850E+03         0.00000E+00
    0.00000E+00         0.00000E+00        -0.27366E+03
 
   -0.11049E+04         0.16126E+03         0.00000E+00
    0.16126E+03         0.23372E+03         0.00000E+00
    0.00000E+00         0.00000E+00        -0.26452E+03
 
   -0.10297E+04         0.21448E+03         0.00000E+00
    0.21448E+03         0.20002E+03         0.00000E+00
    0.00000E+00         0.00000E+00        -0.25216E+03
 
   -0.93476E+03         0.26595E+03         0.00000E+00
    0.26595E+03         0.15757E+03         0.00000E+00
    0.00000E+00         0.00000E+00        -0.23650E+03
 
   -0.82036E+03         0.31433E+03         0.00000E+00
    0.31433E+03         0.10673E+03         0.00000E+00
    0.00000E+00         0.00000E+00        -0.21751E+03
 
   -0.68716E+03         0.35823E+03         0.00000E+00
    0.35823E+03         0.48051E+02         0.00000E+00
    0.00000E+00         0.00000E+00        -0.19521E+03
 
   -0.53621E+03         0.39621E+03         0.00000E+00
    0.39621E+03        -0.17675E+02         0.00000E+00
    0.00000E+00         0.00000E+00        -0.16969E+03
 
   -0.36896E+03         0.42683E+03         0.00000E+00
    0.42683E+03        -0.89440E+02         0.00000E+00
    0.00000E+00         0.00000E+00        -0.14107E+03
 
   -0.18728E+03         0.44859E+03         0.00000E+00
    0.44859E+03        -0.16600E+03         0.00000E+00
    0.00000E+00         0.00000E+00        -0.10956E+03
 
   -0.75331E+03        -0.25218E+02         0.00000E+00
   -0.25218E+02         0.19469E+01         0.00000E+00
    0.00000E+00         0.00000E+00        -0.22553E+03
 
   -0.75972E+03        -0.69914E+02         0.00000E+00
   -0.69914E+02         0.11358E+02         0.00000E+00
    0.00000E+00         0.00000E+00        -0.22486E+03
 
   -0.78196E+03        -0.10659E+03         0.00000E+00
   -0.10659E+03         0.28656E+02         0.00000E+00
    0.00000E+00         0.00000E+00        -0.22657E+03
 
   -0.81675E+03        -0.13488E+03         0.00000E+00
   -0.13488E+03         0.52153E+02         0.00000E+00
    0.00000E+00         0.00000E+00        -0.23019E+03
 
   -0.86077E+03        -0.15459E+03         0.00000E+00
   -0.15459E+03         0.80135E+02         0.00000E+00
    0.00000E+00         0.00000E+00        -0.23522E+03
 
   -0.91072E+03        -0.16577E+03         0.00000E+00
   -0.16577E+03         0.11090E+03         0.00000E+00
    0.00000E+00         0.00000E+00        -0.24120E+03
 
   -0.96337E+03        -0.16859E+03         0.00000E+00
   -0.16859E+03         0.14279E+03         0.00000E+00
    0.00000E+00         0.00000E+00        -0.24764E+03
 
   -0.10156E+04        -0.16342E+03         0.00000E+00
   -0.16342E+03         0.17421E+03         0.00000E+00
    0.00000E+00         0.00000E+00        -0.25409E+03
 
   -0.10645E+04        -0.15073E+03         0.00000E+00
   -0.15073E+03         0.20368E+03         0.00000E+00
    0.00000E+00         0.00000E+00        -0.26012E+03
 
   -0.11072E+04        -0.13110E+03         0.00000E+00
   -0.13110E+03         0.22982E+03         0.00000E+00
    0.00000E+00         0.00000E+00        -0.26529E+03
 
   -0.11413E+04        -0.10525E+03         0.00000E+00
   -0.10525E+03         0.25138E+03         0.00000E+00
    0.00000E+00         0.00000E+00        -0.26923E+03
 
   -0.11644E+04        -0.73930E+02         0.00000E+00
   -0.73930E+02         0.26729E+03         0.00000E+00
    0.00000E+00         0.00000E+00        -0.27158E+03
 
   -0.11746E+04        -0.38000E+02         0.00000E+00
   -0.38000E+02         0.27660E+03         0.00000E+00
    0.00000E+00         0.00000E+00        -0.27200E+03
 
   -0.11701E+04         0.16398E+01         0.00000E+00
    0.16398E+01         0.27855E+03         0.00000E+00
    0.00000E+00         0.00000E+00        -0.27022E+03
 
   -0.11495E+04         0.44033E+02         0.00000E+00
    0.44033E+02         0.27254E+03         0.00000E+00
    0.00000E+00         0.00000E+00        -0.26597E+03
 
   -0.11116E+04         0.88178E+02         0.00000E+00
    0.88178E+02         0.25815E+03         0.00000E+00
    0.00000E+00         0.00000E+00        -0.25906E+03
 
   -0.10558E+04         0.13303E+03         0.00000E+00
    0.13303E+03         0.23518E+03         0.00000E+00
    0.00000E+00         0.00000E+00        -0.24932E+03
 
   -0.98153E+03         0.17752E+03         0.00000E+00
    0.17752E+03         0.20356E+03         0.00000E+00
    0.00000E+00         0.00000E+00        -0.23664E+03
 
   -0.88881E+03         0.22053E+03         0.00000E+00
    0.22053E+03         0.16348E+03         0.00000E+00
    0.00000E+00         0.00000E+00        -0.22094E+03
 
   -0.77792E+03         0.26091E+03         0.00000E+00
    0.26091E+03         0.11529E+03         0.00000E+00
    0.00000E+00         0.00000E+00        -0.20220E+03
 
   -0.64952E+03         0.29748E+03         0.00000E+00
    0.29748E+03         0.59562E+02         0.00000E+00
    0.00000E+00         0.00000E+00        -0.18046E+03
 
   -0.50470E+03         0.32903E+03         0.00000E+00
    0.32903E+03        -0.29057E+01         0.00000E+00
    0.00000E+00         0.00000E+00        -0.15580E+03
 
   -0.34493E+03         0.35435E+03         0.00000E+00
    0.35435E+03        -0.71099E+02         0.00000E+00
    0.00000E+00         0.00000E+00        -0.12836E+03
 
   -0.17211E+03         0.37218E+03         0.00000E+00
    0.37218E+03        -0.14377E+03         0.00000E+00
    0.00000E+00         0.00000E+00        -0.98331E+02
 
   -0.79711E+03        -0.20350E+02         0.00000E+00
   -0.20350E+02         0.18740E+01         0.00000E+00
    0.00000E+00         0.00000E+00        -0.23869E+03
 
   -0.79657E+03        -0.56481E+02         0.00000E+00
   -0.56481E+02         0.10954E+02         0.00000E+00
    0.00000E+00         0.00000E+00        -0.23603E+03
 
   -0.81140E+03        -0.86204E+02         0.00000E+00
   -0.86204E+02         0.27688E+02         0.00000E+00
    0.00000E+00         0.00000E+00        -0.23569E+03
 
   -0.83853E+03        -0.10919E+03         0.00000E+00
   -0.10919E+03         0.50484E+02         0.00000E+00
    0.00000E+00         0.00000E+00        -0.23722E+03
 
   -0.87481E+03        -0.12529E+03         0.00000E+00
   -0.12529E+03         0.77712E+02         0.00000E+00
    0.00000E+00         0.00000E+00        -0.24016E+03
 
   -0.91711E+03        -0.13449E+03         0.00000E+00
   -0.13449E+03         0.10774E+03         0.00000E+00
    0.00000E+00         0.00000E+00        -0.24406E+03
 
   -0.96235E+03        -0.13695E+03         0.00000E+00
   -0.13695E+03         0.13897E+03         0.00000E+00
    0.00000E+00         0.00000E+00        -0.24848E+03
 
   -0.10076E+04        -0.13293E+03         0.00000E+00
   -0.13293E+03         0.16986E+03         0.00000E+00
    0.00000E+00         0.00000E+00        -0.25298E+03
 
   -0.10499E+04        -0.12280E+03         0.00000E+00
   -0.12280E+03         0.19897E+03         0.00000E+00
    0.00000E+00         0.00000E+00        -0.25715E+03
 
   -0.10866E+04        -0.10705E+03         0.00000E+00
   -0.10705E+03         0.22493E+03         0.00000E+00
    0.00000E+00         0.00000E+00        -0.26058E+03
 
   -0.11154E+04        -0.86224E+02         0.00000E+00
   -0.86224E+02         0.24654E+03         0.00000E+00
    0.00000E+00         0.00000E+00        -0.26292E+03
 
   -0.11340E+04        -0.60948E+02         0.00000E+00
   -0.60948E+02         0.26271E+03         0.00000E+00
    0.00000E+00         0.00000E+00        -0.26381E+03
 
   -0.11404E+04        -0.31907E+02         0.00000E+00
   -0.31907E+02         0.27252E+03         0.00000E+00
    0.00000E+00         0.00000E+00        -0.26295E+03
 
   -0.11329E+04         0.16226E+00         0.00000E+00
    0.16226E+00         0.27520E+03         0.00000E+00
    0.00000E+00         0.00000E+00        -0.26006E+03
 
   -0.11102E+04         0.34481E+02         0.00000E+00
    0.34481E+02         0.27016E+03         0.00000E+00
    0.00000E+00         0.00000E+00        -0.25491E+03
 
   -0.10712E+04         0.70230E+02         0.00000E+00
    0.70230E+02         0.25699E+03         0.00000E+00
    0.00000E+00         0.00000E+00        -0.24730E+03
 
   -0.10152E+04         0.10656E+03         0.00000E+00
    0.10656E+03         0.23546E+03         0.00000E+00
    0.00000E+00         0.00000E+00        -0.23708E+03
 
   -0.94184E+03         0.14258E+03         0.00000E+00
    0.14258E+03         0.20554E+03         0.00000E+00
    0.00000E+00         0.00000E+00        -0.22414E+03
 
   -0.85099E+03         0.17739E+03         0.00000E+00
    0.17739E+03         0.16739E+03         0.00000E+00
    0.00000E+00         0.00000E+00        -0.20842E+03
 
   -0.74302E+03         0.21003E+03         0.00000E+00
    0.21003E+03         0.12138E+03         0.00000E+00
    0.00000E+00         0.00000E+00        -0.18990E+03
 
   -0.61864E+03         0.23956E+03         0.00000E+00
    0.23956E+03         0.68099E+02         0.00000E+00
    0.00000E+00         0.00000E+00        -0.16863E+03
 
   -0.47893E+03         0.26498E+03         0.00000E+00
    0.26498E+03         0.83326E+01         0.00000E+00
    0.00000E+00         0.00000E+00        -0.14470E+03
 
   -0.32540E+03         0.28529E+03         0.00000E+00
    0.28529E+03        -0.56894E+02         0.00000E+00
    0.00000E+00         0.00000E+00        -0.11824E+03
 
   -0.15994E+03         0.29948E+03         0.00000E+00
    0.29948E+03        -0.12633E+03         0.00000E+00
    0.00000E+00         0.00000E+00        -0.89447E+02
 
   -0.83173E+03        -0.15650E+02         0.00000E+00
   -0.15650E+02         0.18145E+01         0.00000E+00
    0.00000E+00         0.00000E+00        -0.24909E+03
 
   -0.82576E+03        -0.43474E+02         0.00000E+00
   -0.43474E+02         0.10623E+02         0.00000E+00
    0.00000E+00         0.00000E+00        -0.24489E+03
 
   -0.83478E+03        -0.66409E+02         0.00000E+00
   -0.66409E+02         0.26893E+02         0.00000E+00
    0.00000E+00         0.00000E+00        -0.24294E+03
 
   -0.85587E+03        -0.84188E+02         0.00000E+00
   -0.84188E+02         0.49109E+02         0.00000E+00
    0.00000E+00         0.00000E+00        -0.24283E+03
 
   -0.88605E+03        -0.96679E+02         0.00000E+00
   -0.96679E+02         0.75709E+02         0.00000E+00
    0.00000E+00         0.00000E+00        -0.24413E+03
 
   -0.92231E+03        -0.10387E+03         0.00000E+00
   -0.10387E+03         0.10512E+03         0.00000E+00
    0.00000E+00         0.00000E+00        -0.24641E+03
 
   -0.96168E+03        -0.10587E+03         0.00000E+00
   -0.10587E+03         0.13578E+03         0.00000E+00
    0.00000E+00         0.00000E+00        -0.24923E+03
 
   -0.10013E+04        -0.10287E+03         0.00000E+00
   -0.10287E+03         0.16621E+03         0.00000E+00
    0.00000E+00         0.00000E+00        -0.25220E+03
 
   -0.10384E+04        -0.95159E+02         0.00000E+00
   -0.95159E+02         0.19497E+03         0.00000E+00
    0.00000E+00         0.00000E+00        -0.25491E+03
 
   -0.10704E+04        -0.83092E+02         0.00000E+00
   -0.83092E+02         0.22075E+03         0.00000E+00
    0.00000E+00         0.00000E+00        -0.25697E+03
 
   -0.10950E+04        -0.67097E+02         0.00000E+00
   -0.67097E+02         0.24233E+03         0.00000E+00
    0.00000E+00         0.00000E+00        -0.25804E+03
 
   -0.11099E+04        -0.47654E+02         0.00000E+00
   -0.47654E+02         0.25866E+03         0.00000E+00
    0.00000E+00         0.00000E+00        -0.25779E+03
 
   -0.11132E+04        -0.25290E+02         0.00000E+00
   -0.25290E+02         0.26882E+03         0.00000E+00
    0.00000E+00         0.00000E+00        -0.25592E+03
 
   -0.11034E+04        -0.57530E+00         0.00000E+00
   -0.57530E+00         0.27204E+03         0.00000E+00
    0.00000E+00         0.00000E+00        -0.25217E+03
 
   -0.10791E+04         0.25886E+02         0.00000E+00
    0.25886E+02         0.26773E+03         0.00000E+00
    0.00000E+00         0.00000E+00        -0.24630E+03
 
   -0.10392E+04         0.53458E+02         0.00000E+00
    0.53458E+02         0.25549E+03         0.00000E+00
    0.00000E+00         0.00000E+00        -0.23815E+03
 
   -0.98312E+03         0.81478E+02         0.00000E+00
    0.81478E+02         0.23509E+03         0.00000E+00
    0.00000E+00         0.00000E+00        -0.22755E+03
 
   -0.91040E+03         0.10926E+03         0.00000E+00
    0.10926E+03         0.20649E+03         0.00000E+00
    0.00000E+00         0.00000E+00        -0.21442E+03
 
   -0.82105E+03         0.13609E+03         0.00000E+00
    0.13609E+03         0.16987E+03         0.00000E+00
    0.00000E+00         0.00000E+00        -0.19869E+03
 
   -0.71542E+03         0.16123E+03         0.00000E+00
    0.16123E+03         0.12559E+03         0.00000E+00
    0.00000E+00         0.00000E+00        -0.18036E+03
 
   -0.59425E+03         0.18395E+03         0.00000E+00
    0.18395E+03         0.74247E+02         0.00000E+00
    0.00000E+00         0.00000E+00        -0.15947E+03
 
   -0.45864E+03         0.20347E+03         0.00000E+00
    0.20347E+03         0.16633E+02         0.00000E+00
    0.00000E+00         0.00000E+00        -0.13612E+03
 
   -0.31010E+03         0.21901E+03         0.00000E+00
    0.21901E+03        -0.46227E+02         0.00000E+00
    0.00000E+00         0.00000E+00        -0.11044E+03
 
   -0.15052E+03         0.22980E+03         0.00000E+00
    0.22980E+03        -0.11308E+03         0.00000E+00
    0.00000E+00         0.00000E+00        -0.82645E+02
 
   -0.85744E+03        -0.11083E+02         0.00000E+00
   -0.11083E+02         0.17692E+01         0.00000E+00
    0.00000E+00         0.00000E+00        -0.25682E+03
 
   -0.84747E+03        -0.30806E+02         0.00000E+00
   -0.30806E+02         0.10371E+02         0.00000E+00
    0.00000E+00         0.00000E+00        -0.25148E+03
 
   -0.85220E+03        -0.47088E+02         0.00000E+00
   -0.47088E+02         0.26286E+02         0.00000E+00
    0.00000E+00         0.00000E+00        -0.24835E+03
 
   -0.86883E+03        -0.59732E+02         0.00000E+00
   -0.59732E+02         0.48056E+02         0.00000E+00
    0.00000E+00         0.00000E+00        -0.24704E+03
 
   -0.89448E+03        -0.68638E+02         0.00000E+00
   -0.68638E+02         0.74168E+02         0.00000E+00
    0.00000E+00         0.00000E+00        -0.24712E+03
 
   -0.92625E+03        -0.73793E+02         0.00000E+00
   -0.73793E+02         0.10309E+03         0.00000E+00
    0.00000E+00         0.00000E+00        -0.24820E+03
 
   -0.96126E+03        -0.75265E+02         0.00000E+00
   -0.75265E+02         0.13331E+03         0.00000E+00
    0.00000E+00         0.00000E+00        -0.24985E+03
 
   -0.99672E+03        -0.73190E+02         0.00000E+00
   -0.73190E+02         0.16336E+03         0.00000E+00
    0.00000E+00         0.00000E+00        -0.25168E+03
 
   -0.10299E+04        -0.67766E+02         0.00000E+00
   -0.67766E+02         0.19184E+03         0.00000E+00
    0.00000E+00         0.00000E+00        -0.25331E+03
 
   -0.10584E+04        -0.59246E+02         0.00000E+00
   -0.59246E+02         0.21745E+03         0.00000E+00
    0.00000E+00         0.00000E+00        -0.25436E+03
 
   -0.10798E+04        -0.47930E+02         0.00000E+00
   -0.47930E+02         0.23899E+03         0.00000E+00
    0.00000E+00         0.00000E+00        -0.25449E+03
 
   -0.10920E+04        -0.34158E+02         0.00000E+00
   -0.34158E+02         0.25541E+03         0.00000E+00
    0.00000E+00         0.00000E+00        -0.25340E+03
 
   -0.10931E+04        -0.18304E+02         0.00000E+00
   -0.18304E+02         0.26580E+03         0.00000E+00
    0.00000E+00         0.00000E+00        -0.25078E+03
 
   -0.10815E+04        -0.77339E+00         0.00000E+00
   -0.77339E+00         0.26939E+03         0.00000E+00
    0.00000E+00         0.00000E+00        -0.24638E+03
 
   -0.10559E+04         0.18003E+02         0.00000E+00
    0.18003E+02         0.26561E+03         0.00000E+00
    0.00000E+00         0.00000E+00        -0.23999E+03
 
   -0.10154E+04         0.37571E+02         0.00000E+00
    0.37571E+02         0.25404E+03         0.00000E+00
    0.00000E+00         0.00000E+00        -0.23143E+03
 
   -0.95921E+03         0.57458E+02         0.00000E+00
    0.57458E+02         0.23447E+03         0.00000E+00
    0.00000E+00         0.00000E+00        -0.22056E+03
 
   -0.88699E+03         0.77172E+02         0.00000E+00
    0.77172E+02         0.20685E+03         0.00000E+00
    0.00000E+00         0.00000E+00        -0.20729E+03
 
   -0.79877E+03         0.96204E+02         0.00000E+00
    0.96204E+02         0.17135E+03         0.00000E+00
    0.00000E+00         0.00000E+00        -0.19156E+03
 
   -0.69491E+03         0.11403E+03         0.00000E+00
    0.11403E+03         0.12837E+03         0.00000E+00
    0.00000E+00         0.00000E+00        -0.17337E+03
 
   -0.57615E+03         0.13012E+03         0.00000E+00
    0.13012E+03         0.78466E+02         0.00000E+00
    0.00000E+00         0.00000E+00        -0.15277E+03
 
   -0.44361E+03         0.14393E+03         0.00000E+00
    0.14393E+03         0.22459E+02         0.00000E+00
    0.00000E+00         0.00000E+00        -0.12986E+03
 
   -0.29881E+03         0.15489E+03         0.00000E+00
    0.15489E+03        -0.38630E+02         0.00000E+00
    0.00000E+00         0.00000E+00        -0.10478E+03
 
   -0.14364E+03         0.16247E+03         0.00000E+00
    0.16247E+03        -0.10356E+03         0.00000E+00
    0.00000E+00         0.00000E+00        -0.77719E+02
 
   -0.87447E+03        -0.66110E+01         0.00000E+00
   -0.66110E+01         0.17387E+01         0.00000E+00
    0.00000E+00         0.00000E+00        -0.26193E+03
 
   -0.86187E+03        -0.18384E+02         0.00000E+00
   -0.18384E+02         0.10200E+02         0.00000E+00
    0.00000E+00         0.00000E+00        -0.25585E+03
 
   -0.86377E+03        -0.28113E+02         0.00000E+00
   -0.28113E+02         0.25875E+02         0.00000E+00
    0.00000E+00         0.00000E+00        -0.25194E+03
 
   -0.87745E+03        -0.35676E+02         0.00000E+00
   -0.35676E+02         0.47342E+02         0.00000E+00
    0.00000E+00         0.00000E+00        -0.24984E+03
 
   -0.90010E+03        -0.41013E+02         0.00000E+00
   -0.41013E+02         0.73123E+02         0.00000E+00
    0.00000E+00         0.00000E+00        -0.24912E+03
 
   -0.92890E+03        -0.44112E+02         0.00000E+00
   -0.44112E+02         0.10172E+03         0.00000E+00
    0.00000E+00         0.00000E+00        -0.24940E+03
 
   -0.96102E+03        -0.45013E+02         0.00000E+00
   -0.45013E+02         0.13163E+03         0.00000E+00
    0.00000E+00         0.00000E+00        -0.25028E+03
 
   -0.99372E+03        -0.43795E+02         0.00000E+00
   -0.43795E+02         0.16142E+03         0.00000E+00
    0.00000E+00         0.00000E+00        -0.25136E+03
 
   -0.10244E+04        -0.40574E+02         0.00000E+00
   -0.40574E+02         0.18970E+03         0.00000E+00
    0.00000E+00         0.00000E+00        -0.25227E+03
 
   -0.10505E+04        -0.35502E+02         0.00000E+00
   -0.35502E+02         0.21517E+03         0.00000E+00
    0.00000E+00         0.00000E+00        -0.25266E+03
 
   -0.10697E+04        -0.28755E+02         0.00000E+00
   -0.28755E+02         0.23667E+03         0.00000E+00
    0.00000E+00         0.00000E+00        -0.25218E+03
 
   -0.10801E+04        -0.20538E+02         0.00000E+00
   -0.20538E+02         0.25314E+03         0.00000E+00
    0.00000E+00         0.00000E+00        -0.25052E+03
 
   -0.10797E+04        -0.11074E+02         0.00000E+00
   -0.11074E+02         0.26367E+03         0.00000E+00
    0.00000E+00         0.00000E+00        -0.24741E+03
 
   -0.10670E+04        -0.60524E+00         0.00000E+00
   -0.60524E+00         0.26750E+03         0.00000E+00
    0.00000E+00         0.00000E+00        -0.24259E+03
 
   -0.10406E+04         0.10610E+02         0.00000E+00
    0.10610E+02         0.26406E+03         0.00000E+00
    0.00000E+00         0.00000E+00        -0.23585E+03
 
   -0.99962E+03         0.22300E+02         0.00000E+00
    0.22300E+02         0.25293E+03         0.00000E+00
    0.00000E+00         0.00000E+00        -0.22703E+03
 
   -0.94335E+03         0.34181E+02         0.00000E+00
    0.34181E+02         0.23389E+03         0.00000E+00
    0.00000E+00         0.00000E+00        -0.21598E+03
 
   -0.87148E+03         0.45957E+02         0.00000E+00
    0.45957E+02         0.20691E+03         0.00000E+00
    0.00000E+00         0.00000E+00        -0.20261E+03
 
   -0.78401E+03         0.57324E+02         0.00000E+00
    0.57324E+02         0.17217E+03         0.00000E+00
    0.00000E+00         0.00000E+00        -0.18688E+03
 
   -0.68132E+03         0.67967E+02         0.00000E+00
    0.67967E+02         0.13003E+03         0.00000E+00
    0.00000E+00         0.00000E+00        -0.16879E+03
 
   -0.56417E+03         0.77567E+02         0.00000E+00
    0.77567E+02         0.81093E+02         0.00000E+00
    0.00000E+00         0.00000E+00        -0.14839E+03
 
   -0.43368E+03         0.85795E+02         0.00000E+00
    0.85795E+02         0.26155E+02         0.00000E+00
    0.00000E+00         0.00000E+00        -0.12577E+03
 
   -0.29137E+03         0.92321E+02         0.00000E+00
    0.92321E+02        -0.33756E+02         0.00000E+00
    0.00000E+00         0.00000E+00        -0.10108E+03
 
   -0.13913E+03         0.96814E+02         0.00000E+00
    0.96814E+02        -0.97396E+02         0.00000E+00
    0.00000E+00         0.00000E+00        -0.74519E+02
 
   -0.88295E+03        -0.21972E+01         0.00000E+00
   -0.21972E+01         0.17234E+01         0.00000E+00
    0.00000E+00         0.00000E+00        -0.26448E+03
 
   -0.86904E+03        -0.61115E+01         0.00000E+00
   -0.61115E+01         0.10114E+02         0.00000E+00
    0.00000E+00         0.00000E+00        -0.25802E+03
 
   -0.86954E+03        -0.93474E+01         0.00000E+00
   -0.93474E+01         0.25668E+02         0.00000E+00
    0.00000E+00         0.00000E+00        -0.25374E+03
 
   -0.88175E+03        -0.11865E+02         0.00000E+00
   -0.11865E+02         0.46983E+02         0.00000E+00
    0.00000E+00         0.00000E+00        -0.25123E+03
 
   -0.90292E+03        -0.13642E+02         0.00000E+00
   -0.13642E+02         0.72595E+02         0.00000E+00
    0.00000E+00         0.00000E+00        -0.25012E+03
 
   -0.93023E+03        -0.14677E+02         0.00000E+00
   -0.14677E+02         0.10102E+03         0.00000E+00
    0.00000E+00         0.00000E+00        -0.25001E+03
 
   -0.96091E+03        -0.14980E+02         0.00000E+00
   -0.14980E+02         0.13078E+03         0.00000E+00
    0.00000E+00         0.00000E+00        -0.25050E+03
 
   -0.99223E+03        -0.14578E+02         0.00000E+00
   -0.14578E+02         0.16043E+03         0.00000E+00
    0.00000E+00         0.00000E+00        -0.25121E+03
 
   -0.10216E+04        -0.13510E+02         0.00000E+00
   -0.13510E+02         0.18860E+03         0.00000E+00
    0.00000E+00         0.00000E+00        -0.25177E+03
 
   -0.10465E+04        -0.11826E+02         0.00000E+00
   -0.11826E+02         0.21402E+03         0.00000E+00
    0.00000E+00         0.00000E+00        -0.25182E+03
 
   -0.10647E+04        -0.95842E+01         0.00000E+00
   -0.95842E+01         0.23549E+03         0.00000E+00
    0.00000E+00         0.00000E+00        -0.25103E+03
 
   -0.10742E+04        -0.68529E+01         0.00000E+00
   -0.68529E+01         0.25197E+03         0.00000E+00
    0.00000E+00         0.00000E+00        -0.24910E+03
 
   -0.10730E+04        -0.37062E+01         0.00000E+00
   -0.37062E+01         0.26257E+03         0.00000E+00
    0.00000E+00         0.00000E+00        -0.24574E+03
 
   -0.10597E+04        -0.22490E+00         0.00000E+00
   -0.22490E+00         0.26652E+03         0.00000E+00
    0.00000E+00         0.00000E+00        -0.24071E+03
 
   -0.10329E+04         0.35051E+01         0.00000E+00
    0.35051E+01         0.26324E+03         0.00000E+00
    0.00000E+00         0.00000E+00        -0.23380E+03
 
   -0.99174E+03         0.73933E+01         0.00000E+00
    0.73933E+01         0.25232E+03         0.00000E+00
    0.00000E+00         0.00000E+00        -0.22485E+03
 
   -0.93545E+03         0.11345E+02         0.00000E+00
    0.11345E+02         0.23355E+03         0.00000E+00
    0.00000E+00         0.00000E+00        -0.21371E+03
 
   -0.86375E+03         0.15262E+02         0.00000E+00
    0.15262E+02         0.20689E+03         0.00000E+00
    0.00000E+00         0.00000E+00        -0.20030E+03
 
   -0.77665E+03         0.19042E+02         0.00000E+00
    0.19042E+02         0.17252E+03         0.00000E+00
    0.00000E+00         0.00000E+00        -0.18457E+03
 
   -0.67456E+03         0.22580E+02         0.00000E+00
    0.22580E+02         0.13081E+03         0.00000E+00
    0.00000E+00         0.00000E+00        -0.16653E+03
 
   -0.55821E+03         0.25771E+02         0.00000E+00
    0.25771E+02         0.82351E+02         0.00000E+00
    0.00000E+00         0.00000E+00        -0.14623E+03
 
   -0.42875E+03         0.28505E+02         0.00000E+00
    0.28505E+02         0.27947E+02         0.00000E+00
    0.00000E+00         0.00000E+00        -0.12375E+03
 
   -0.28768E+03         0.30671E+02         0.00000E+00
    0.30671E+02        -0.31376E+02         0.00000E+00
    0.00000E+00         0.00000E+00        -0.99260E+02
 
   -0.13691E+03         0.32160E+02         0.00000E+00
    0.32160E+02        -0.94374E+02         0.00000E+00
    0.00000E+00         0.00000E+00        -0.72944E+02
 
SCALARS stresss double 
LOOKUP_TABLE default
  -73065.5796072199     
  -56800.0904923597     
  -44045.6251263459     
  -35255.6340977394     
  -29143.6633090284     
  -24758.0524423834     
  -21520.7794846400     
  -19073.5316376332     
  -17188.7113381221     
  -15716.9847283831     
  -14557.4905955956     
  -13640.3579224074     
  -12916.1700265706     
  -12349.4234755763     
  -11914.3593667275     
  -11592.2460570663     
  -11369.5773149977     
  -11236.8658294225     
  -11187.8370036450     
  -11218.9025549898     
  -11328.8395634363     
  -11518.6304371491     
  -11791.4398214225     
  -12152.7200649506     
  -71022.1487160750     
  -51280.8978898623     
  -40162.3640973379     
  -32801.5620733525     
  -27548.7139726995     
  -23687.7094665588     
  -20776.4923640886     
  -18538.8567409027     
  -16792.9840219971     
  -15415.9762213440     
  -14322.6054249392     
  -13452.5383073289     
  -12762.3410881210     
  -12220.3592949710     
  -11803.3629912025     
  -11494.3088361822     
  -11280.8272725025     
  -11154.1937581665     
  -11108.6331341142     
  -11140.8618620340     
  -11249.8083320237     
  -11436.4750395546     
  -11703.9231434948     
  -12057.3728951573     
  -53304.8853788159     
  -39785.8417674057     
  -33263.7193300067     
  -28402.9581316772     
  -24664.0867549517     
  -21722.4686588307     
  -19392.3510169626     
  -17533.5005981611     
  -16042.0646343400     
  -14840.4378331593     
  -13870.6454853619     
  -13089.2164439488     
  -12463.4357892378     
  -11968.6236179338     
  -11586.1775558700     
  -11302.1688507749     
  -11106.3388538282     
  -10991.3867948418     
  -10952.4728784791     
  -10986.8847487050     
  -11093.8327987845     
  -11274.3527126851     
  -11531.3036336869     
  -11869.4587224912     
  -20603.7501360464     
  -25908.8460571331     
  -24837.8448597885     
  -22990.4006116749     
  -21004.0234394219     
  -19164.7600225012     
  -17550.2465300688     
  -16170.8019885024     
  -15008.7644825028     
  -14038.5485057127     
  -13234.3811903177     
  -12573.2778289796     
  -12035.8555390866     
  -11606.2860862835     
  -11271.9403149384     
  -11022.9665582289     
  -10851.9008401834     
  -10753.3436460827     
  -10723.7111866986     
  -10761.0589138011     
  -10864.9723648888     
  -11036.5210629656     
  -11278.2733046173     
  -11594.3724534883     
  -2649.51968983924     
  -13724.0095430967     
  -16972.1658001977     
  -17556.5198161487     
  -17149.0331336687     
  -16360.2135499686     
  -15465.6008462354     
  -14588.8603914426     
  -13784.1719607483     
  -13071.9474315409     
  -12456.5576489667     
  -11935.0753065944     
  -11501.6705685563     
  -11149.7954505629     
  -10873.2443284248     
  -10666.6415601821     
  -10525.6421467557     
  -10446.9947692545     
  -10428.5457972865     
  -10469.2257961378     
  -10569.0406186816     
  -10729.0790322069     
  -10951.5436368591     
  -11239.8092217889     
  -45.2247547661868     
  -6560.13941012707     
  -10939.4014191573     
  -12882.4837080886     
  -13571.3430817208     
  -13615.2201950764     
  -13340.4470908080     
  -12923.9496230512     
  -12461.9175953365     
  -12006.2001178455     
  -11583.9623603338     
  -11208.6487149193     
  -10886.1533094268     
  -10618.3315561298     
  -10405.0092591654     
  -10245.1363160757     
  -10137.4501246699     
  -10080.8575474920     
  -10074.6560489001     
  -10118.6642528229     
  -10213.3030100554     
  -10359.6508773394     
  -10559.4874435249     
  -10815.3311000115     
   1364.60832153949     
  -3402.41466402243     
  -6963.20293340657     
  -9281.71412796868     
  -10544.2260642898     
  -11138.4077294600     
  -11329.5338032090     
  -11289.2797803682     
  -11124.8134077514     
  -10902.2157198671     
  -10661.8276288048     
  -10428.0107975471     
  -10215.2702825977     
  -10032.0788560396     
  -9883.26690106544     
  -9771.51930217925     
  -9698.31615686024     
  -9664.52608352050     
  -9670.78159058202     
  -9717.71676244842     
  -9806.11674853193     
  -9937.00893136542     
  -10111.7126496578     
  -10331.8550319946     
   1956.36138621244     
  -1577.23283616437     
  -4512.49230321298     
  -6678.46843392555     
  -8135.50453108573     
  -9027.95599961554     
  -9526.33605874707     
  -9763.89938663862     
  -9836.53787159460     
  -9810.25619893983     
  -9729.56529363433     
  -9624.11872182817     
  -9513.52167531278     
  -9410.66999841122     
  -9324.02296571314     
  -9259.13485097490     
  -9219.68175004520     
  -9208.14760258021     
  -9226.28014680088     
  -9275.39024659499     
  -9356.54229488464     
  -9470.66551375898     
  -9618.60311069139     
  -9801.10629818931     
   2267.87708320876     
  -493.850439673137     
  -2899.95503465433     
  -4834.40551501134     
  -6279.07398495675     
  -7294.18337762170     
  -7968.46145136403     
  -8391.90661054749     
  -8639.06181604201     
  -8767.15651708740     
  -8818.32445142150     
  -8822.88852305110     
  -8802.38161237577     
  -8771.97629087199     
  -8742.31865796919     
  -8720.86677006956     
  -8712.84775685087     
  -8721.93205279227     
  -8750.70088851949     
  -8800.96248962444     
  -8873.95543491392     
  -8970.46420181085     
  -9090.86121148140     
  -9235.08065386291     
   2415.77203835771     
   191.560278449315     
  -1811.93862862370     
  -3506.83504150452     
  -4863.10696179092     
  -5897.07577427335     
  -6654.04323637839     
  -7188.92057201561     
  -7554.66200003357     
  -7796.41309241268     
  -7950.32962946418     
  -8044.31505179533     
  -8099.42617112785     
  -8131.32750550548     
  -8151.56131062046     
  -8168.57130260445     
  -8188.49081727972     
  -8215.73041050912     
  -8253.40313622185     
  -8303.62063650800     
  -8367.68549804388     
  -8446.19738351714     
  -8539.08294082459     
  -8645.55239307098     
   2468.65919786767     
   632.646440540534     
  -1057.45630425401     
  -2538.53850731878     
  -3779.58143164000     
  -4779.75780234557     
  -5559.65026897236     
  -6151.43398346648     
  -6590.47249430950     
  -6910.19071927330     
  -7139.57684801840     
  -7302.52338346208     
  -7418.09061306432     
  -7501.15387759578     
  -7563.13803859784     
  -7612.70060747643     
  -7656.30947556220     
  -7698.70328916300     
  -7743.24079913660     
  -7792.15148430713     
  -7846.69966009635     
  -7907.27139325567     
  -7973.38940640493     
  -8043.65641092834     
   2459.61039854641     
   916.360994183192     
  -526.601691859021     
  -1822.93663447251     
  -2945.59392127790     
  -3886.73594689586     
  -4654.08369815040     
  -5265.46003171189     
  -5743.59968587784     
  -6112.16730058574     
  -6393.31112011951     
  -6606.45097500072     
  -6767.90419171231     
  -6890.97822942140     
  -6986.28219294002     
  -7062.10815027512     
  -7124.80227921053     
  -7179.08757061423     
  -7228.32299034751     
  -7274.69555279254     
  -7319.34649366769     
  -7362.43360972630     
  -7403.13057447165     
  -7439.56157459181     
   2408.56606025006     
   1093.31066500884     
  -150.786966771021     
  -1289.22979643158     
  -2299.42989303483     
  -3171.39645087617     
  -3906.14666540677     
  -4512.82497347699     
  -5005.49547619670     
  -5400.36561312367     
  -5713.75623247119     
  -5960.84426007675     
  -6155.01842155080     
  -6307.65398932769     
  -6428.13572776988     
  -6524.00681010708     
  -6601.16470853197     
  -6664.05714777745     
  -6715.85222646967     
  -6758.56942170875     
  -6793.16502980402     
  -6819.56871223045     
  -6836.66862389942     
  -6842.24202091217     
   2328.07824193312     
   1195.33312176647     
   114.216150559352     
  -889.085534633607     
  -1796.02838798592     
  -2596.47896286030     
  -3288.11664352591     
  -3874.89374960364     
  -4365.10089480899     
  -4769.48877118234     
  -5099.72962686837     
  -5367.31453728754     
  -5582.86097087920     
  -5755.74251350333     
  -5893.94175534640     
  -6004.04041985614     
  -6091.28242289163     
  -6159.66572918534     
  -6212.03456794709     
  -6250.15445753809     
  -6274.75941418539     
  -6285.56473020013     
  -6281.24073157498     
  -6259.34369272904     
   2226.68056995925     
   1243.40343539674     
   298.144750794061     
  -588.835031019120     
  -1402.33240406875     
  -2132.88758756321     
  -2776.62157145433     
  -3334.42740388867     
  -3810.80397403324     
  -4212.61234037053     
  -4547.95584524774     
  -4825.29062959150     
  -5052.79073287982     
  -5237.94085001233     
  -5387.30652039278     
  -5506.42846926394     
  -5599.79481445303     
  -5670.85526620784     
  -5722.05142447113     
  -5754.84533563489     
  -5769.73433896544     
  -5766.24420040480     
  -5742.89506461334     
  -5697.13633807444     
   2110.47615943175     
   1251.96538234821     
   421.660089911536     
  -364.462956519441     
  -1093.87168163591     
  -1758.03950827193     
  -2352.47087929154     
  -2876.28484981421     
  -3331.51423841878     
  -3722.28782625969     
  -4054.03373669674     
  -4332.79250688058     
  -4564.67936066637     
  -4755.49760838906     
  -4910.48292015606     
  -5034.14891881607     
  -5130.20391552902     
  -5201.51242622822     
  -5250.08046374624     
  -5277.04883371617     
  -5282.68306116568     
  -5266.35198276861     
  -5226.48958891017     
  -5160.53665113722     
   1984.02829864227     
   1231.32921799621     
   499.553488902051     
  -198.465249126842     
  -852.302909894974     
  -1454.38651144800     
  -2000.09131472291     
  -2487.53611209693     
  -2917.16224016764     
  -3291.19710830963     
  -3613.09358075471     
  -3887.01244240683     
  -4117.38662672840     
  -4308.58091130765     
  -4464.64305479029     
  -4589.13233684248     
  -4685.00756908783     
  -4754.55674632273     
  -4799.35269944172     
  -4820.22207753694     
  -4817.21796724042     
  -4789.58911867555     
  -4735.74102787060     
  -4653.18612438688     
   1850.86659830443     
   1189.08544633774     
   542.691330798567     
  -77.8226030077698     
  -663.691206144427     
  -1208.21872074447     
  -1706.89468370706     
  -2157.30229475156     
  -2558.86610794240     
  -2912.49959143883     
  -3220.21227058205     
  -3484.72497736735     
  -3709.12579020356     
  -3896.58333597361     
  -4050.12129483824     
  -4172.44930810111     
  -4265.84081227317     
  -4332.04667437801     
  -4372.23382006752     
  -4386.93942935141     
  -4376.03310786818     
  -4338.68137387497     
  -4273.31068909530     
  -4177.56710521146     
   1713.79120553069     
   1130.96762104423     
   559.238445292871     
   7.32786267084357     
  -517.308438112544     
  -1008.74508717856     
  -1462.69863207091     
  -1876.49527977225     
  -2248.92035330990     
  -2579.98597269636     
  -2870.65573059619     
  -3122.56051957641     
  -3337.73103816429     
  -3518.36272863940     
  -3666.62009455893     
  -3784.48064926709     
  -3873.61442964433     
  -3935.29279360269     
  -3970.31958203885     
  -3978.97812767652     
  -3960.98859970519     
  -3915.47149289105     
  -3840.91454591620     
  -3735.14195615278     
   1575.06213759951     
   1061.39828750505     
   555.449138445264     
   64.5815808550980     
  -404.789297314660     
  -847.400384115488     
  -1259.23901901080     
  -1637.54078734092     
  -1980.70046337839     
  -2288.11817022681     
  -2560.00589236876     
  -2797.17804857468     
  -3000.84537180763     
  -3172.42550328618     
  -3313.37789087456     
  -3425.06569914411     
  -3508.64389968071     
  -3564.97053716875     
  -3594.53715571550     
  -3597.41423336315     
  -3573.20793638733     
  -3521.02535607761     
  -3439.44649222139     
  -3326.50253171750     
   1436.52181844917     
   983.845096983156     
   536.192365371586     
   99.8728502012546     
  -319.533094437130     
  -717.327014217873     
  -1089.77549010172     
  -1434.12210178864     
  -1748.53553514416     
  -2032.00719734713     
  -2284.21464653286     
  -2505.36717976229     
  -2696.04777725369     
  -2857.06221571408     
  -2989.30242957558     
  -3093.62778345448     
  -3170.76520927307     
  -3221.22729494132     
  -3245.24635122835     
  -3242.72209977362     
  -3213.18076160468     
  -3155.74384075777     
  -3069.10568531478     
  -2951.51990063954     
   1299.67754109861     
   901.059902123734     
   505.308839018671     
   117.896124434041     
  -256.275146198904     
  -612.987768706872     
  -948.778928782874     
  -1260.95787691393     
  -1547.57648769635     
  -1807.36079589204     
  -2039.61411165457     
  -2244.10295440627     
  -2420.93615404108     
  -2570.44557853792     
  -2693.07461295756     
  -2789.27819904898     
  -2859.43626199465     
  -2903.78086328670     
  -2922.33646575264     
  -2914.87223815626     
  -2880.86528387460     
  -2819.47396422245     
  -2729.52102545785     
  -2609.48696972900     
   1165.75939212856     
   815.243773119177     
   465.859422413629     
   122.403995452958     
  -210.776039087416     
  -529.875511029111     
  -831.686247537081     
  -1113.61611291992     
  -1373.67311479313     
  -1610.41946618652     
  -1822.90251873856     
  -2010.57030096699     
  -2173.17916095834     
  -2310.70001689345     
  -2423.22830099128     
  -2510.90115384270     
  -2573.82402372540     
  -2612.00769703304     
  -2625.31599770203     
  -2613.42395089821     
  -2575.78607731788     
  -2511.61462017958     
  -2419.86785483774     
  -2299.24914190963     
   1035.76286973894     
   728.164043177384     
   420.301698744181     
   116.421636067085     
  -179.593586158899     
  -464.294301427262     
  -734.708761580906     
  -988.361456878873     
  -1223.26538699249     
  -1437.89122316861     
  -1631.11788973286     
  -1802.16990237736     
  -1950.54688966417     
  -2075.95025084571     
  -2178.21107262051     
  -2257.22244448006     
  -2312.87834759041     
  -2345.02046613062     
  -2353.39365129743     
  -2337.61038175771     
  -2297.12440392552     
  -2231.21377581341     
  -2138.97374459705     
  -2019.32022171867     
   910.481793120691     
   641.239643917240     
   370.618186480017     
   102.403755486485     
  -159.913371183620     
  -413.193208637001     
  -654.682454889412     
  -882.031232039246     
  -1093.29028181232     
  -1286.89037008531     
  -1461.60688033843     
  -1616.51329777777     
  -1750.92751734613     
  -1864.35473271992     
  -1956.43020210155     
  -2026.86457269928     
  -2075.39379864145     
  -2101.73509902696     
  -2105.54993423282     
  -2086.41465983526     
  -2043.79935468878     
  -1977.05530165118     
  -1885.41170362734     
  -1767.98241423526     
   790.534937958706     
   555.605072791645     
   318.411423227948     
   82.3514127077718     
  -149.421226634418     
  -374.039101085572     
  -588.950702622376     
  -791.935354967536     
  -981.103395506027     
  -1154.88262926421     
  -1311.99302870600     
  -1451.41226427722     
  -1572.33492870987     
  -1674.12830408300     
  -1756.28728647418     
  -1818.39071339437     
  -1860.06091581078     
  -1880.92790741880     
  -1880.59927775233     
  -1858.63660150129     
  -1814.53902489405     
  -1747.73463765616     
  -1657.58027147470     
  -1543.37046057063     
   676.388517716816     
   472.159686416494     
   264.975968697083     
   57.9004058107805     
  -146.206034343825     
  -344.718413409782     
  -535.272035741348     
  -715.775699955833     
  -884.413718465808     
  -1039.63730924501     
  -1180.14667840152     
  -1304.86561453330     
  -1412.91069207040     
  -1503.55724912672     
  -1576.20420717173     
  -1630.33958845108     
  -1665.50831750321     
  -1681.28361397868     
  -1677.24303274153     
  -1652.95000828826     
  -1607.94162538729     
  -1541.72326673010     
  -1453.77077214373     
  -1343.54076579738     
   568.375816967291     
   391.606716796473     
   211.354064639318     
   30.3892606522151     
  -148.684678062764     
  -323.460575355031     
  -491.747207228951     
  -651.581096023121     
  -801.229694331666     
  -939.186306497246     
  -1064.15763881141     
  -1175.04527512122     
  -1270.92262647306     
  -1351.00900789913     
  -1414.64247549169     
  -1461.25294561010     
  -1490.33695179886     
  -1501.43520776300     
  -1494.11396425167     
  -1467.95099324676     
  -1422.52691475190     
  -1357.42250149724     
  -1272.22254921781     
  -1166.52687257482     
   466.714774995961     
   314.484934884554     
   158.379530844217     
  0.912380371373192     
  -155.543345948045     
  -308.777739876892     
  -456.761150221645     
  -597.654796169959     
  -729.814725676641     
  -851.789317411394     
  -962.310937909997     
  -1060.28268916505     
  -1144.76140102432     
  -1214.93813744823     
  -1270.11750802226     
  -1309.69702621528     
  -1333.14765738346     
  -1339.99657572185     
  -1329.81302015535     
  -1302.19801914248     
  -1256.77865197641     
  -1193.20743159134     
  -1111.16732746732     
  -1010.38288818051     
   371.523999809982     
   241.194927684589     
   106.713047355606     
  -29.6377460626419     
  -165.691027267033     
  -299.416860762327     
  -428.936454177308     
  -552.531857006745     
  -668.650469483963     
  -775.904475557422     
  -873.065628256606     
  -959.056071909095     
  -1032.93607070643     
  -1093.88962412694     
  -1141.20899241945     
  -1174.27914155726     
  -1192.56306187155     
  -1195.58883359009     
  -1182.93921967523     
  -1154.24447234875     
  -1109.17895103825     
  -1047.46206825276     
  -968.864003838691     
  -873.216551030580     
   282.837494796658     
   172.021324137974     
   56.8710144783934     
  -60.5365154596266     
  -178.222202211755     
  -294.321197672802     
  -407.095781913526     
  -514.944380439279     
  -616.406494406300     
  -710.163611799829     
  -795.036406932777     
  -869.978737310282     
  -934.069100039466     
  -986.500310517780     
  -1026.56821615132     
  -1053.66026396112     
  -1067.24471250136     
  -1066.86122579772     
  -1052.11351955390     
  -1022.66465525703     
  -978.235500899713     
  -918.606799596160     
  -843.625208076605     
  -753.213581745137     
   200.618259401734     
   107.151885854214     
   9.24953162824304     
  -91.1993878466526     
  -192.386540555446     
  -292.599076480163     
  -390.231259363300     
  -483.792994514515     
  -571.915103550625     
  -653.351390501536     
  -726.977726184515     
  -791.788535885183     
  -846.891200282918     
  -891.498966967826     
  -924.923019833538     
  -946.564369500053     
  -955.906215335050     
  -952.507395170855     
  -935.997488836580     
  -906.074081407290     
  -862.502625138127     
  -805.119266842847     
  -733.836929296222     
  -648.654848430398     
   124.770853875274     
   46.6940985578006     
  -35.8554096717244     
  -121.158844558620     
  -207.564007461049     
  -293.498282552074     
  -377.479334044865     
  -458.123295524436     
  -534.150339854041     
  -604.387663010369     
  -667.770054461451     
  -723.338350292514     
  -770.236166025196     
  -807.705379937410     
  -835.080883646197     
  -851.785136214324     
  -857.323054265500     
  -851.277747616958     
  -833.307571926220     
  -803.144920381468     
  -760.597118050704     
  -705.549716301735     
  -637.972410451014     
  -557.927719936570     
   55.1529786009745     
  -9.31028783920696     
  -78.2307312759654     
  -150.045088564613     
  -223.244193346339     
  -296.384869526352     
  -368.099951612920     
  -437.106249486792     
  -502.210377543532     
  -562.312477000098     
  -616.407966562438     
  -663.587552991378     
  -703.035813634118     
  -734.028724106350     
  -755.930544513754     
  -768.190497198334     
  -770.339669623878     
  -761.988560096381     
  -742.825654194169     
  -712.617378448108     
  -671.209726735079     
  -618.531794964366     
  -554.601390987107     
  -479.532808478057     
  -8.41390091232251     
  -60.8724489301089     
  -117.731499211136     
  -177.569723102991     
  -239.008987528580     
  -300.725465621244     
  -361.459168900688     
  -420.021769983504     
  -475.302660975898     
  -526.273274774900     
  -571.989777911636     
  -611.594318508062     
  -644.315076816592     
  -669.465415555621     
  -686.442461201182     
  -694.725465216582     
  -693.874296587646     
  -683.528405328418     
  -663.406572456881     
  -633.307726882241     
  -593.113064945884     
  -542.789654790755     
  -482.395645547128     
  -412.087130307201     
  -66.1348594135593     
  -108.045168567708     
  -154.268156521499     
  -203.511840864652     
  -254.517935803017     
  -306.072382035726     
  -357.014526829983     
  -406.244861798414     
  -452.731282901742     
  -495.513899350455     
  -533.708480462260     
  -566.508687726089     
  -593.187289706654     
  -613.096597363255     
  -625.668385251899     
  -630.413579283647     
  -626.921994352500     
  -614.862395893536     
  -593.983139247250     
  -564.113610608684     
  -525.166654225911     
  -477.142123040134     
  -420.131634515766     
  -354.324550160448     
  -118.232723687229     
  -150.912835083896     
  -187.795440455945     
  -227.706097080550     
  -269.495783507510     
  -312.050993971220     
  -354.302662871036     
  -395.233855080774     
  -433.886200881659     
  -469.365101613443     
  -500.843780050284     
  -527.566294652902     
  -548.849676365942     
  -564.085378328580     
  -572.740251281840     
  -574.357269815266     
  -568.556236715529     
  -555.034684820988     
  -533.569178487017     
  -504.017190688150     
  -466.319697582983     
  -420.504590623304     
  -366.690957474358     
  -305.094227536907     
  -164.940163049300     
  -189.582609902934     
  -218.302741102610     
  -250.032442062690     
  -283.721824474133     
  -318.348989105032     
  -352.928762066452     
  -386.520360522020     
  -418.233976633119     
  -447.236304764167     
  -472.755073889803     
  -494.082682162710     
  -510.579061463397     
  -521.673924661452     
  -526.868565981468     
  -525.737394501429     
  -517.929382081990     
  -503.169599957362     
  -481.261003092464     
  -452.086598660545     
  -415.612105122605     
  -371.889171914716     
  -321.059187193857     
  -263.357653009847     
  -206.492625771515     
  -224.176653691338     
  -245.805712064441     
  -270.407263298277     
  -297.020764301394     
  -324.707171806623     
  -352.557536864632     
  -379.700658498724     
  -405.309791864428     
  -428.608434249703     
  -448.875240833306     
  -465.448149310388     
  -477.727816524100     
  -485.180489645413     
  -487.340448115201     
  -483.812159769506     
  -474.272294920374     
  -458.471735564507     
  -436.237703471477     
  -407.476110956137     
  -372.174212069141     
  -330.403600221946     
  -282.323561440928     
  -228.184751146777     
  -243.122083560292     
  -254.825313377436     
  -270.338982468226     
  -288.775742059803     
  -309.254872015481     
  -330.911581966250     
  -352.905495871542     
  -374.428299309986     
  -394.710548720125     
  -413.027663681276     
  -428.705145606582     
  -441.123087397094     
  -449.720057288210     
  -453.996455125966     
  -453.517449713170     
  -447.915611011478     
  -436.893350487035     
  -420.225276596292     
  -397.760560376363     
  -369.425388543967     
  -335.225558757491     
  -295.249244202056     
  -249.669922960683     
  -198.749432390687     
  -275.051542040350     
  -281.661186460254     
  -291.949848077204     
  -305.105270317154     
  -320.317243504047     
  -336.786740873232     
  -353.734315249139     
  -370.407741516960     
  -386.088905995197     
  -400.099961153729     
  -411.808781663802     
  -420.633774349012     
  -426.048109142929     
  -427.583449701287     
  -424.833270099016     
  -417.455847503038     
  -405.177019495930     
  -387.792788674301     
  -365.171846274976     
  -337.258071059920     
  -304.073039816396     
  -265.718562018995     
  -222.379223985547     
  -174.324897891241     
  -302.490272412064     
  -304.813988988305     
  -310.692840731243     
  -319.379804551246     
  -330.126037515915     
  -342.189877490801     
  -354.845167767991     
  -367.388894144876     
  -379.148136047792     
  -389.486347295694     
  -397.808996096082     
  -403.568606966981     
  -406.269258634121     
  -405.470600804972     
  -400.791458445574     
  -391.913094310597     
  -378.582198693999     
  -360.613669530127     
  -337.893236088824     
  -310.379965719240     
  -278.108675679213     
  -241.192251434303     
  -199.823849433508     
  -154.278936897739     
  -325.629718285027     
  -324.406161748364     
  -326.625092007391     
  -331.595056757588     
  -338.619573745303     
  -347.006019966781     
  -356.073896441100     
  -365.162458639631     
  -373.637713751098     
  -380.898797523752     
  -386.383754796975     
  -389.574758326054     
  -390.002809449794     
  -387.251970947412     
  -380.963186571742     
  -370.837742841285     
  -356.640426465385     
  -338.202425141929     
  -315.424010414375     
  -288.277028941393     
  -256.807213176294     
  -221.136304448356     
  -181.463961271701     
  -138.069403979551     
  -344.640032179871     
  -340.549156429857     
  -339.802420440195     
  -341.754441562639     
  -345.752204916988     
  -351.143861714122     
  -357.286944504051     
  -363.555989956538     
  -369.349569438638     
  -374.096737458364     
  -377.262917495364     
  -378.355253304671     
  -376.927460931988     
  -372.584221936223     
  -364.985161265416     
  -353.848453557873     
  -338.954099129567     
  -320.146905464594     
  -297.339201666739     
  -270.513302192268     
  -239.723722514147     
  -205.099133523484     
  -166.844023918600     
  -125.240021133700     
  -359.667198260895     
  -353.340350374501     
  -350.276082951161     
  -349.865713442054     
  -351.490892589815     
  -354.532330704936     
  -358.377973008310     
  -362.430614551809     
  -366.114953889114     
  -368.884093234408     
  -370.225500929043     
  -369.666459214995     
  -366.779026167392     
  -361.184544775311     
  -352.557734244069     
  -340.630398362203     
  -325.194783060957     
  -306.106610020337     
  -283.287805375003     
  -256.728932381557     
  -226.491324566935     
  -192.708901729135     
  -155.589635648630     
  -115.416616029147     
  -370.830701367916     
  -362.860545316522     
  -358.090141056579     
  -355.938240593432     
  -355.812430871834     
  -357.117806106974     
  -359.265112797000     
  -361.678357567912     
  -363.801875999326     
  -365.106868307134     
  -365.097414906731     
  -363.315991106137     
  -359.348505134270     
  -352.828887070494     
  -343.443257725747     
  -330.933705914941     
  -315.101699714583     
  -295.811152166032     
  -272.991154504999     
  -246.638380510700     
  -216.819154209827     
  -183.671160273860     
  -147.404762438298     
  -108.303880661672     
  -378.221707170556     
  -369.172012449478     
  -363.279401460202     
  -359.980872840304     
  -358.701274329173     
  -358.861939076907     
  -359.888810164276     
  -361.220043110322     
  -362.313083738256     
  -362.651225980944     
  -361.749660774112     
  -359.161032815483     
  -354.480526361561     
  -347.350504107358     
  -337.464724302415     
  -324.572160409676     
  -308.480444692671     
  -289.058952082553     
  -266.241533579120     
  -240.028899420187     
  -210.490641544979     
  -177.766872805360     
  -142.069447356192     
  -103.682713178266     
  -381.901724065637     
  -372.317053304262     
  -365.867899130261     
  -362.000370574803     
  -360.147936765393     
  -359.740045186307     
  -360.210235854450     
  -361.003740960851     
  -361.584566931218     
  -361.442062823556     
  -360.096985269456     
  -357.107075509829     
  -352.072168198714     
  -344.638854287586     
  -334.504721229810     
  -321.422192785308     
  -305.201987750196     
  -285.716211954007     
  -262.901090911606     
  -236.759341729966     
  -207.362172484437     
  -174.850885616491     
  -139.438049371752     
  -101.408188379545     
SCALARS 2waySource double 
LOOKUP_TABLE default
 -6.118197237278139E-009
 -1.370290782895301E-008
 -2.228942419794910E-008
 -3.123780003004658E-008
 -4.037447780027968E-008
 -4.951281775245998E-008
 -5.853620194377092E-008
 -6.736451954382228E-008
 -7.593720601744489E-008
 -8.420507111185337E-008
 -9.212606603698634E-008
 -9.966308800151427E-008
 -1.067827935338399E-007
 -1.134549545565970E-007
 -1.196521127022596E-007
 -1.253494034121789E-007
 -1.305244783980939E-007
 -1.351574856523992E-007
 -1.392310827788132E-007
 -1.427304690466038E-007
 -1.456434271066982E-007
 -1.479603687901739E-007
 -1.496743815439725E-007
 -1.507812735800524E-007
 -3.753887871494391E-009
 -1.189000139996133E-008
 -2.113282233850366E-008
 -3.058562305644746E-008
 -3.997967887387517E-008
 -4.925613002402229E-008
 -5.835775971148476E-008
 -6.723240209587376E-008
 -7.583360013733945E-008
 -8.411951672129809E-008
 -9.205217357298554E-008
 -9.959681485751146E-008
 -1.067215067453566E-007
 -1.133968970302225E-007
 -1.195960881327803E-007
 -1.252945837693191E-007
 -1.304702826136240E-007
 -1.351035009417474E-007
 -1.391770121895978E-007
 -1.426760955713122E-007
 -1.455885884869669E-007
 -1.479049393665096E-007
 -1.496182589011632E-007
 -1.507243685677965E-007
  4.126854879762994E-009
 -9.228227889565894E-009
 -1.977759482449183E-008
 -2.977969738624325E-008
 -3.946479972907709E-008
 -4.890622843356655E-008
 -5.810486798576891E-008
 -6.703887195226678E-008
 -7.567731531269615E-008
 -8.398704294542859E-008
 -9.193505738997100E-008
 -9.948958653401762E-008
 -1.066205395835454E-007
 -1.132997365617957E-007
 -1.195010437194620E-007
 -1.252004725677173E-007
 -1.303762643932324E-007
 -1.350089685165914E-007
 -1.390815166662346E-007
 -1.425792937654810E-007
 -1.454902046451508E-007
 -1.478047361614847E-007
 -1.495160143764312E-007
 -1.506198567886198E-007
  3.635720803894497E-009
 -7.666600848506644E-009
 -1.878660134028323E-008
 -2.906325534975309E-008
 -3.895472664375281E-008
 -4.852972717317260E-008
 -5.781609920150290E-008
 -6.680723412193132E-008
 -7.548311973424770E-008
 -8.381738594234214E-008
 -9.178138581874317E-008
 -9.934613782734011E-008
 -1.064833743170552E-007
 -1.131661245009867E-007
 -1.193690688090236E-007
 -1.250687734846532E-007
 -1.302438605814577E-007
 -1.348751407717006E-007
 -1.389457230475459E-007
 -1.424411085568713E-007
 -1.453492723922925E-007
 -1.476607354695441E-007
 -1.493686277634662E-007
 -1.504687439364943E-007
  3.360616898129509E-009
 -7.575668246521158E-009
 -1.817885506319549E-008
 -2.854872289203798E-008
 -3.852263332351051E-008
 -4.817767592044416E-008
 -5.752460252742441E-008
 -6.655957185011382E-008
 -7.526596659479902E-008
 -8.362094764466530E-008
 -9.159859511648791E-008
 -9.917194164475531E-008
 -1.063141609092107E-007
 -1.129993056063223E-007
 -1.192027808610038E-007
 -1.249016655849998E-007
 -1.300749431752872E-007
 -1.347036762761631E-007
 -1.387711452465332E-007
 -1.422629615748882E-007
 -1.451671628230346E-007
 -1.474742930504671E-007
 -1.491774712102057E-007
 -1.502724492707578E-007
  3.173715879984738E-009
 -7.503921805292522E-009
 -1.797985678776591E-008
 -2.821563569685434E-008
 -3.819595930131607E-008
 -4.787579567989225E-008
 -5.725243806213981E-008
 -6.631273273664335E-008
 -7.503851609964614E-008
 -8.340721577179015E-008
 -9.139387886016305E-008
 -9.897254892203765E-008
 -1.061172775104762E-007
 -1.128028189395514E-007
 -1.190051172204093E-007
 -1.247016547051665E-007
 -1.298717102792560E-007
 -1.344965571743557E-007
 -1.385596192707666E-007
 -1.420465976712431E-007
 -1.449455748867055E-007
 -1.472471013390707E-007
 -1.489442672146492E-007
 -1.500327617556674E-007
  2.977098964204327E-009
 -7.512160266063375E-009
 -1.786850579196277E-008
 -2.803030495646090E-008
 -3.796098389778055E-008
 -4.763058322258366E-008
 -5.700976980032550E-008
 -6.607715101531664E-008
 -7.480990224271740E-008
 -8.318380763680600E-008
 -9.117347895445810E-008
 -9.875307763541468E-008
 -1.058969631156446E-007
 -1.125802323483445E-007
 -1.187791408045660E-007
 -1.244714287926209E-007
 -1.296365759979007E-007
 -1.342560030062559E-007
 -1.383132334007887E-007
 -1.417940258992924E-007
 -1.446864829590123E-007
 -1.469811401968132E-007
 -1.486710395626979E-007
 -1.497517883027194E-007
  2.779733480996969E-009
 -7.575671077138872E-009
 -1.782759776311566E-008
 -2.791575589382979E-008
 -3.779685387472399E-008
 -4.743494356103187E-008
 -5.679825286207515E-008
 -6.585749525362533E-008
 -7.458568342354259E-008
 -8.295615256491940E-008
 -9.094233898791327E-008
 -9.851790403713116E-008
 -1.056570641798768E-007
 -1.123349409398806E-007
 -1.185278814437534E-007
 -1.242137326145351E-007
 -1.293720702384329E-007
 -1.339843889003519E-007
 -1.380342594301322E-007
 -1.415074595622732E-007
 -1.443920822029711E-007
 -1.466786245625384E-007
 -1.483600604924762E-007
 -1.494318976420146E-007
  2.576090151510295E-009
 -7.674201175984519E-009
 -1.783531707291934E-008
 -2.785240710737018E-008
 -3.767990566568800E-008
 -4.727896402901913E-008
 -5.661457700378815E-008
 -6.565451880369910E-008
 -7.436850596036511E-008
 -8.272767720056270E-008
 -9.070407186546185E-008
 -9.827055126504363E-008
 -1.054009033209031E-007
 -1.120700410195051E-007
 -1.182542237169074E-007
 -1.239312709606459E-007
 -1.290807557915073E-007
 -1.336841739861180E-007
 -1.377250896868890E-007
 -1.411892592032696E-007
 -1.440647350624806E-007
 -1.463419521297720E-007
 -1.480137972203561E-007
 -1.490756632377655E-007
  2.363581245449489E-009
 -7.797514227748643E-009
 -1.787764416343334E-008
 -2.782631144587721E-008
 -3.759830871829939E-008
 -4.715320935199520E-008
 -5.645414990998442E-008
 -6.546685095320674E-008
 -7.415908487442105E-008
 -8.250025740534326E-008
 -9.046114093463508E-008
 -9.801372978666121E-008
 -1.051312528786542E-007
 -1.117882748051725E-007
 -1.179608420561052E-007
 -1.236266432096420E-007
 -1.287651660963167E-007
 -1.333578434060109E-007
 -1.373881829400366E-007
 -1.408418813908414E-007
 -1.437069215929027E-007
 -1.459736536642419E-007
 -1.476348605386079E-007
 -1.486858082350872E-007
  2.141116669329039E-009
 -7.939937689279278E-009
 -1.794550246985880E-008
 -2.782817164614515E-008
 -3.754368571924067E-008
 -4.705114728526175E-008
 -5.631258003100127E-008
 -6.529241095444406E-008
 -7.395707176408333E-008
 -8.227473602372068E-008
 -9.021513596111161E-008
 -9.774946853164008E-008
 -1.048503817196396E-007
 -1.114920306262604E-007
 -1.176501764278106E-007
 -1.233023069911890E-007
 -1.284277637088251E-007
 -1.330078649754886E-007
 -1.370260207241263E-007
 -1.404678350578410E-007
 -1.433211954660217E-007
 -1.455763479318240E-007
 -1.472259576051609E-007
 -1.482651548005698E-007
  1.908500167744855E-009
 -8.097923156333436E-009
 -1.803300991809458E-008
 -2.785147393998300E-008
 -3.751004024089805E-008
 -4.696782828712248E-008
 -5.618630803506425E-008
 -6.512908292075357E-008
 -7.376167407052258E-008
 -8.205135633542972E-008
 -8.996705242664084E-008
 -9.747927848735586E-008
 -1.045601411815919E-007
 -1.111833791090330E-007
 -1.173244378582807E-007
 -1.229605654314366E-007
 -1.280709168588182E-007
 -1.326366596287354E-007
 -1.366410742191390E-007
 -1.400696460705873E-007
 -1.429101466905987E-007
 -1.451527024825696E-007
 -1.467898503639717E-007
 -1.478165794744680E-007
  1.666024396998710E-009
 -8.269001977397503E-009
 -1.813615184479536E-008
 -2.789160986675055E-008
 -3.749293925538607E-008
 -4.689947709609276E-008
 -5.607246029598437E-008
 -6.497499784205888E-008
 -7.357199215410634E-008
 -8.183006683270336E-008
 -8.971751997697200E-008
 -9.720430830448109E-008
 -1.042620618184819E-007
 -1.108641269093169E-007
 -1.169856323404234E-007
 -1.226035710288592E-007
 -1.276968902056112E-007
 -1.322465836127411E-007
 -1.362357807936058E-007
 -1.396498298796449E-007
 -1.424763713354837E-007
 -1.447054008909401E-007
 -1.463293203722123E-007
 -1.473429754419564E-007
  1.414266159581839E-009
 -8.451286437441112E-009
 -1.825204226863671E-008
 -2.794522384608510E-008
 -3.748906617900379E-008
 -4.684317884744512E-008
 -5.596874113457731E-008
 -6.482857906261682E-008
 -7.338718261790341E-008
 -8.161070499547955E-008
 -8.946696633402215E-008
 -9.692547116176395E-008
 -1.039574427229034E-007
 -1.105358740070126E-007
 -1.166355931871051E-007
 -1.222333395707668E-007
 -1.273078455062396E-007
 -1.318399197922804E-007
 -1.358125286963282E-007
 -1.392108714804248E-007
 -1.420224479873199E-007
 -1.442371164715895E-007
 -1.458471402408046E-007
 -1.468472219781705E-007
  1.153977942856315E-009
 -8.643223682036959E-009
 -1.837849215519621E-008
 -2.800979647080436E-008
 -3.749589739647441E-008
 -4.679667069628144E-008
 -5.587332527108855E-008
 -6.468853597194658E-008
 -7.320652211452087E-008
 -8.139309943409545E-008
 -8.921572403077391E-008
 -9.664353848487961E-008
 -1.036474248530336E-007
 -1.102000660013739E-007
 -1.162760147119758E-007
 -1.218517686244136E-007
 -1.269058482950336E-007
 -1.314188753948830E-007
 -1.353736481597564E-007
 -1.387552115919419E-007
 -1.415509202701541E-007
 -1.437504920769571E-007
 -1.453460514197634E-007
 -1.463321608149963E-007
  8.860268375555585E-010
 -8.843462980954792E-009
 -1.851375777503809E-008
 -2.808337278958083E-008
 -3.751147726240082E-008
 -4.675818357947116E-008
 -5.578476884212941E-008
 -6.455383570521189E-008
 -7.302942853390006E-008
 -8.117712201813179E-008
 -8.896409587163429E-008
 -9.635920450007447E-008
 -1.033330466752094E-007
 -1.098580374730760E-007
 -1.159084829522356E-007
 -1.214606568171520E-007
 -1.264928775176455E-007
 -1.309855838813882E-007
 -1.349214071937190E-007
 -1.382852378109122E-007
 -1.410642845421386E-007
 -1.432481252995388E-007
 -1.448287477397024E-007
 -1.458005788088258E-007
  6.113577681506941E-010
 -9.050781048836739E-009
 -1.865638870847866E-008
 -2.816438619901808E-008
 -3.753425987831322E-008
 -4.672632330951126E-008
 -5.570193442861231E-008
 -6.442366940635232E-008
 -7.285546109811390E-008
 -8.096271227550543E-008
 -8.871239292354361E-008
 -9.607312856043260E-008
 -1.030152840902989E-007
 -1.095110456482590E-007
 -1.155345014578139E-007
 -1.210617216054649E-007
 -1.260708359685081E-007
 -1.305421090924359E-007
 -1.344580105816076E-007
 -1.378032795592493E-007
 -1.405649817957558E-007
 -1.427325582522524E-007
 -1.442978639294990E-007
 -1.452551960599133E-007
  3.309697342950576E-010
 -9.264038263277366E-009
 -1.880513367791413E-008
 -2.825154265202444E-008
 -3.756299826587402E-008
 -4.669998111792175E-008
 -5.562392952329988E-008
 -6.429741843249920E-008
 -7.268431063102176E-008
 -8.074988604034112E-008
 -8.846095514804407E-008
 -9.578596162825197E-008
 -1.026950778058119E-007
 -1.091602952555277E-007
 -1.151555116885379E-007
 -1.206566144305198E-007
 -1.256415601840946E-007
 -1.300904503391278E-007
 -1.339856008721225E-007
 -1.373116057618503E-007
 -1.400553928375175E-007
 -1.422062710509803E-007
 -1.437559682341654E-007
 -1.446986585323448E-007
  4.589939557631318E-011
 -9.482152397721684E-009
 -1.895888068807894E-008
 -2.834374345479805E-008
 -3.759666631800278E-008
 -4.667826671533820E-008
 -5.555005679018110E-008
 -6.417462325839257E-008
 -7.251578554256664E-008
 -8.053873530873230E-008
 -8.821016114429113E-008
 -9.549836187867578E-008
 -1.023733512851657E-007
 -1.088069560891632E-007
 -1.147729083826098E-007
 -1.202469328980640E-007
 -1.252068290863769E-007
 -1.296325475911167E-007
 -1.335062604679229E-007
 -1.368124243689908E-007
 -1.395378358748114E-007
 -1.416716781625216E-007
 -1.432055582590387E-007
 -1.441335342115656E-007
 -2.427909934381237E-010
 -9.704082686175668E-009
 -1.911661817010360E-008
 -2.844003297868009E-008
 -3.763440345312954E-008
 -4.666045823276777E-008
 -5.547977437023248E-008
 -6.405495612307553E-008
 -7.234979653245863E-008
 -8.032942329653441E-008
 -8.796043114562847E-008
 -9.521100299595367E-008
 -1.020510218387462E-007
 -1.084521748486067E-007
 -1.143880506354143E-007
 -1.198342301162448E-007
 -1.247683710815525E-007
 -1.291702862178592E-007
 -1.330220141636582E-007
 -1.363078830355087E-007
 -1.390145657969923E-007
 -1.411311268474882E-007
 -1.426490592252901E-007
 -1.435623118962721E-007
 -5.340229453509098E-010
 -9.928820196366715E-009
 -1.927740934145510E-008
 -2.853956273049773E-008
 -3.767547500316260E-008
 -4.664596470088269E-008
 -5.541266442192630E-008
 -6.393819762971010E-008
 -7.218634160741139E-008
 -8.012217711420694E-008
 -8.771222591431474E-008
 -9.492457757412101E-008
 -1.017290068389939E-007
 -1.080970826415317E-007
 -1.140022694694984E-007
 -1.194200214985461E-007
 -1.243278695869244E-007
 -1.287055010208498E-007
 -1.325348317079263E-007
 -1.358000704090373E-007
 -1.384877745388267E-007
 -1.405868970462589E-007
 -1.420888239087642E-007
 -1.429874018162759E-007
 -8.267093371725137E-010
 -1.015538216438294E-008
 -1.944037508212985E-008
 -2.864156633058092E-008
 -3.771924358620668E-008
 -4.663429780516784E-008
 -5.534840826277384E-008
 -6.382421704591538E-008
 -7.202549219414291E-008
 -7.991727946883765E-008
 -8.746604325668952E-008
 -9.463979736631468E-008
 -1.014082265223344E-007
 -1.077427992495916E-007
 -1.136168726613499E-007
 -1.190057894338727E-007
 -1.238869670829664E-007
 -1.282399794356944E-007
 -1.320466301067054E-007
 -1.352910176524643E-007
 -1.379595920563630E-007
 -1.400412021561882E-007
 -1.415271336562696E-007
 -1.424111373955447E-007
 -1.119760806129322E-009
 -1.038280886566972E-008
 -1.960468241981716E-008
 -2.874534189018376E-008
 -3.776514821025125E-008
 -4.662505048967094E-008
 -5.528676671207465E-008
 -6.371295587742592E-008
 -7.186738065944272E-008
 -7.971506021632234E-008
 -8.722241323219317E-008
 -9.435739149442859E-008
 -1.010896044379230E-007
 -1.073904350450791E-007
 -1.132331474179243E-007
 -1.185929861947257E-007
 -1.234472678613567E-007
 -1.277754638877571E-007
 -1.315592755078075E-007
 -1.347826999115238E-007
 -1.374320875487579E-007
 -1.394961902651289E-007
 -1.409661999702486E-007
 -1.418357776015815E-007
 -1.412091282686532E-009
 -1.061016213926395E-008
 -1.976953677856004E-008
 -2.885023947875974E-008
 -3.781268886979218E-008
 -4.661788062988458E-008
 -5.522756450748510E-008
 -6.360441422663997E-008
 -7.171218930405020E-008
 -7.951588822326550E-008
 -8.698189275481554E-008
 -9.407810343006219E-008
 -1.007740663091603E-007
 -1.070410911973729E-007
 -1.128523614507155E-007
 -1.181830354382121E-007
 -1.230103396443623E-007
 -1.273136533287511E-007
 -1.310745845776219E-007
 -1.342770375452723E-007
 -1.369072706541255E-007
 -1.389539455056628E-007
 -1.404081662825349E-007
 -1.412635094494337E-007
 -1.702622884492236E-009
 -1.083652499753360E-008
 -1.993417679483714E-008
 -2.895565214792531E-008
 -3.786141509060412E-008
 -4.661249847678710E-008
 -5.517067788626254E-008
 -6.349863946944977E-008
 -7.156014075561487E-008
 -7.932016376135494E-008
 -8.674506000995386E-008
 -9.380268725579266E-008
 -1.004625378439950E-007
 -1.066958586821421E-007
 -1.124757628187018E-007
 -1.177773325886863E-007
 -1.225777142559941E-007
 -1.268562040359937E-007
 -1.305943253312112E-007
 -1.337758969966168E-007
 -1.363870924297410E-007
 -1.384164892838948E-007
 -1.398551096187130E-007
 -1.406964503376749E-007
 -1.990290314979749E-009
 -1.106100195324606E-008
 -2.009787090573120E-008
 -2.906100946952397E-008
 -3.791091733386574E-008
 -4.660865691822724E-008
 -5.511602462887032E-008
 -6.339571683608986E-008
 -7.141148961411508E-008
 -7.912831152700481E-008
 -8.651250894701468E-008
 -9.353190356728222E-008
 -1.001559418779006E-007
 -1.063558164457965E-007
 -1.121045788768955E-007
 -1.173772443365422E-007
 -1.221508874908200E-007
 -1.264047297175642E-007
 -1.301202174166768E-007
 -1.332810912311796E-007
 -1.358734459925052E-007
 -1.378857812116922E-007
 -1.393090419564391E-007
 -1.401366499936868E-007
 -2.274044867437469E-009
 -1.128271981976613E-008
 -2.025991517763157E-008
 -2.916577287398014E-008
 -3.796082049518928E-008
 -4.660614386142344E-008
 -5.506355601910880E-008
 -6.329576154137613E-008
 -7.126651520453807E-008
 -7.894077429704260E-008
 -8.628484397542850E-008
 -9.326651522933472E-008
 -9.985519511256386E-008
 -1.060220289870877E-007
 -1.117400145506975E-007
 -1.169841074567932E-007
 -1.217313183371806E-007
 -1.259608010375447E-007
 -1.296539318729250E-007
 -1.327943797173443E-007
 -1.353681667409437E-007
 -1.373637196284285E-007
 -1.387719111373935E-007
 -1.395860918855161E-007
 -2.552858106000063E-009
 -1.150082882029967E-008
 -2.041963200803058E-008
 -2.926943228909560E-008
 -3.801077895230592E-008
 -4.660477622081445E-008
 -5.501325029951368E-008
 -6.319891217583849E-008
 -7.112551527202579E-008
 -7.875800719473351E-008
 -8.606267495254837E-008
 -9.300728313360860E-008
 -9.956120463030054E-008
 -1.056955435666447E-007
 -1.113832501346193E-007
 -1.165992270893903E-007
 -1.213204276519082E-007
 -1.255259446099539E-007
 -1.291970903946998E-007
 -1.323174679380255E-007
 -1.348730321224411E-007
 -1.368521416599338E-007
 -1.382456012655010E-007
 -1.390466940221810E-007
 -2.825725276357120E-009
 -1.171450389436676E-008
 -2.057636944884699E-008
 -2.937150372989802E-008
 -3.806047276678683E-008
 -4.660439512983469E-008
 -5.496510729735781E-008
 -6.310532511577305E-008
 -7.098880048577834E-008
 -7.858047251372252E-008
 -8.584661247734855E-008
 -9.275496204952555E-008
 -9.927486431374094E-008
 -1.053773871638794E-007
 -1.110354387452767E-007
 -1.162238746240852E-007
 -1.209195964051337E-007
 -1.251016415503156E-007
 -1.287512641519555E-007
 -1.318520064578096E-007
 -1.343897609452937E-007
 -1.363528227852861E-007
 -1.377319325577968E-007
 -1.385203091187194E-007
 -3.091668486053347E-009
 -1.192294612572467E-008
 -2.072950097060650E-008
 -2.947152758606166E-008
 -3.810960475360881E-008
 -4.660486209455295E-008
 -5.491914397319722E-008
 -6.301516976115988E-008
 -7.085668961907687E-008
 -7.840863504261052E-008
 -8.563726350455234E-008
 -9.251029660811844E-008
 -9.899705124377444E-008
 -1.050685632992542E-007
 -1.106977035353439E-007
 -1.158592852716213E-007
 -1.205301635720202E-007
 -1.246893256468407E-007
 -1.283179722112193E-007
 -1.313995895728908E-007
 -1.339200122473141E-007
 -1.358674759261345E-007
 -1.372326606570920E-007
 -1.380087241373082E-007
 -3.349739684342151E-009
 -1.212538423801020E-008
 -2.087842554410589E-008
 -2.956906742871198E-008
 -3.815789821048393E-008
 -4.660605587523622E-008
 -5.487539070063143E-008
 -6.292862444695743E-008
 -7.072950530315916E-008
 -7.824295783451728E-008
 -8.543522726055623E-008
 -9.227401745720544E-008
 -9.872862214485015E-008
 -1.047700487843983E-007
 -1.103711347535524E-007
 -1.155066554167121E-007
 -1.201534237529401E-007
 -1.242903812242701E-007
 -1.278986796141661E-007
 -1.309617535878463E-007
 -1.334653837589682E-007
 -1.353977500839663E-007
 -1.367494754355178E-007
 -1.375136592450112E-007
 -3.599023464703033E-009
 -1.232107612158035E-008
 -2.102256794503136E-008
 -2.966370920172839E-008
 -3.820509514632501E-008
 -4.660786993636005E-008
 -5.483388812806431E-008
 -6.284587290880762E-008
 -7.060757026907670E-008
 -7.808389837293164E-008
 -8.524109145063810E-008
 -9.204683759453889E-008
 -9.847040990259567E-008
 -1.044827904603811E-007
 -1.100567867124583E-007
 -1.151671398127909E-007
 -1.197906245822333E-007
 -1.239061407486088E-007
 -1.274947951683422E-007
 -1.305399747720171E-007
 -1.330274100050011E-007
 -1.349452285741347E-007
 -1.362839993410016E-007
 -1.370367662480771E-007
 -3.838639708376687E-009
 -1.250931036441224E-008
 -2.116137921613924E-008
 -2.975506070218978E-008
 -3.825095490121497E-008
 -4.661021034327905E-008
 -5.479468450947083E-008
 -6.276710120004326E-008
 -7.049120399617589E-008
 -7.793190507919137E-008
 -8.505542873025329E-008
 -9.182944888875782E-008
 -9.822322018957255E-008
 -1.042077019623021E-007
 -1.097556747159758E-007
 -1.148418486759981E-007
 -1.194429639893411E-007
 -1.235378822464747E-007
 -1.271076690046315E-007
 -1.301356670415770E-007
 -1.326075600982498E-007
 -1.345114269072738E-007
 -1.358377853442060E-007
 -1.365796265732807E-007
 -4.067746081120706E-009
 -1.268940776811896E-008
 -2.129433724081135E-008
 -2.984275127793909E-008
 -3.829525306167376E-008
 -4.661299401488189E-008
 -5.475783341596825E-008
 -6.269249499020368E-008
 -7.038071971766624E-008
 -7.778741413194747E-008
 -8.487879343366945E-008
 -9.162251878543957E-008
 -9.798782820930252E-008
 -1.039456605454156E-007
 -1.094687719847248E-007
 -1.145318447274456E-007
 -1.191115873580737E-007
 -1.231868265772955E-007
 -1.267385899565019E-007
 -1.297501794318259E-007
 -1.322072352827041E-007
 -1.340977903843090E-007
 -1.354123145560365E-007
 -1.361437488736686E-007
 -4.285540392866828E-009
 -1.286072283365477E-008
 -2.142094738532158E-008
 -2.992643168601656E-008
 -3.833778061329066E-008
 -4.661614726001705E-008
 -5.472339175979567E-008
 -6.262223717859730E-008
 -7.027642172484739E-008
 -7.765084655960991E-008
 -8.471171853113855E-008
 -9.142668720290160E-008
 -9.776497557991545E-008
 -1.036975039911324E-007
 -1.091970066203447E-007
 -1.142381402275493E-007
 -1.187975846379395E-007
 -1.228541346203615E-007
 -1.263887828144747E-007
 -1.293847934057104E-007
 -1.318277662836178E-007
 -1.337056914636617E-007
 -1.350089935847955E-007
 -1.357305663388188E-007
 -4.491262827417955E-009
 -1.302264520544687E-008
 -2.154074318826271E-008
 -3.000577407289267E-008
 -3.837834327597730E-008
 -4.661960454439003E-008
 -5.469141807627561E-008
 -6.255650578139717E-008
 -7.017860294464735E-008
 -7.752260558122122E-008
 -8.455471280952993E-008
 -9.124256360847006E-008
 -9.755536735940019E-008
 -1.034640276228765E-007
 -1.089412586320480E-007
 -1.139616940336569E-007
 -1.185019874418397E-007
 -1.225409044154866E-007
 -1.260594055056918E-007
 -1.290407200622126E-007
 -1.314704105250606E-007
 -1.333364269682929E-007
 -1.346291517038194E-007
 -1.353414337884663E-007
 -4.684198043009914E-009
 -1.317460106510836E-008
 -2.165328707091191E-008
 -3.008047204310172E-008
 -3.841676098416365E-008
 -4.662330744734675E-008
 -5.466197102691928E-008
 -6.249547205078068E-008
 -7.008754274647973E-008
 -7.740307417494579E-008
 -8.440825826086064E-008
 -9.107072428392804E-008
 -9.735966923006202E-008
 -1.032459814438922E-007
 -1.087023570582928E-007
 -1.137034087212454E-007
 -1.182257661782025E-007
 -1.222481683075934E-007
 -1.257515462470864E-007
 -1.287190972906489E-007
 -1.311363492718063E-007
 -1.329912151930983E-007
 -1.342740378983510E-007
 -1.349776246257113E-007
 -4.863677147152950E-009
 -1.331605446428986E-008
 -2.175817105288927E-008
 -3.015024079250314E-008
 -3.845286748374488E-008
 -4.662720377439842E-008
 -5.463510808649990E-008
 -6.243929880002470E-008
 -7.000350496714248E-008
 -7.729261285841987E-008
 -8.427280767279070E-008
 -9.091170977308294E-008
 -9.717850484526905E-008
 -1.030440674159475E-007
 -1.084810772005276E-007
 -1.134641277929068E-007
 -1.179698272452441E-007
 -1.219768901314884E-007
 -1.254662207194293E-007
 -1.284209869238143E-007
 -1.308266847496067E-007
 -1.326711929739016E-007
 -1.339448178585754E-007
 -1.346403277220533E-007
 -5.029079544645750E-009
 -1.344650859057474E-008
 -2.185501745866334E-008
 -3.021481728706567E-008
 -3.848651002078348E-008
 -4.663124680152840E-008
 -5.461088439349802E-008
 -6.238813891144955E-008
 -6.992673612763835E-008
 -7.719155766565254E-008
 -8.414878241329368E-008
 -9.076602251587502E-008
 -9.701245334788338E-008
 -1.028589368928322E-007
 -1.082781379977294E-007
 -1.132446330079080E-007
 -1.177350103261986E-007
 -1.217279624775386E-007
 -1.252043693020705E-007
 -1.281473719377478E-007
 -1.305424372961937E-007
 -1.323774127732867E-007
 -1.336425709776179E-007
 -1.343306443014436E-007
 -5.179834655630380E-009
 -1.356550696013524E-008
 -2.194347960378994E-008
 -3.027396046963508E-008
 -3.851754910430420E-008
 -4.663539463273161E-008
 -5.458935174356913E-008
 -6.234213400967828E-008
 -6.985746383183241E-008
 -7.710021831473438E-008
 -8.403657040645969E-008
 -9.063412466926734E-008
 -9.686204707047552E-008
 -1.026911882255324E-007
 -1.080941995545159E-007
 -1.130456418526352E-007
 -1.175220858122455E-007
 -1.215022040718505E-007
 -1.249668544103746E-007
 -1.278991537395261E-007
 -1.302845425911939E-007
 -1.321108398368749E-007
 -1.333682874149510E-007
 -1.340495848846326E-007
 -5.315423500113979E-009
 -1.367263452762687E-008
 -2.202324245054198E-008
 -3.032745148565007E-008
 -3.854585832847920E-008
 -4.663960965340770E-008
 -5.457055771057610E-008
 -6.230141328859920E-008
 -6.979589533697016E-008
 -7.701887655692305E-008
 -8.393652429772026E-008
 -9.051643612014803E-008
 -9.672776942133836E-008
 -1.025413645464284E-007
 -1.079298608464185E-007
 -1.128678051784888E-007
 -1.173317523824128E-007
 -1.213003573029719E-007
 -1.247544579699864E-007
 -1.276771495854635E-007
 -1.300538490082139E-007
 -1.318723494670427E-007
 -1.331228652738072E-007
 -1.337980663497651E-007
 -5.435380147304650E-009
 -1.376751871091002E-008
 -2.209402322445985E-008
 -3.037509391309270E-008
 -3.857132424414250E-008
 -4.664385806976724E-008
 -5.455454488466392E-008
 -6.226609248040448E-008
 -6.974221628492014E-008
 -7.694778470545395E-008
 -8.384895980639764E-008
 -9.041333269006024E-008
 -9.661005296831500E-008
 -1.024099517523757E-007
 -1.077856576159197E-007
 -1.127117050252890E-007
 -1.171646347646768E-007
 -1.211230859250926E-007
 -1.245678790616120E-007
 -1.274820901644088E-007
 -1.298511151299537E-007
 -1.316627244579309E-007
 -1.329071079415080E-007
 -1.335769091588890E-007
 -5.539293020410141E-009
 -1.384983032032833E-008
 -2.215557198437212E-008
 -3.041671399174240E-008
 -3.859384626871726E-008
 -4.664810952353908E-008
 -5.454135021871772E-008
 -6.223627295968695E-008
 -6.969658959356399E-008
 -7.688716433703279E-008
 -8.377415426684808E-008
 -9.032514453849684E-008
 -9.650927772361149E-008
 -1.022973766896370E-007
 -1.076620604748752E-007
 -1.125778526515959E-007
 -1.170212817004741E-007
 -1.209709729620800E-007
 -1.244077317658718E-007
 -1.273146173799076E-007
 -1.296770074611011E-007
 -1.314826527301964E-007
 -1.327217216331265E-007
 -1.333868347949313E-007
 -5.626806057653489E-009
 -1.391928439081332E-008
 -2.220767213972731E-008
 -3.045216084418492E-008
 -3.861333662695098E-008
 -4.665233677565312E-008
 -5.453100447560472E-008
 -6.221204097835150E-008
 -6.965915450020351E-008
 -7.683720516943456E-008
 -8.371234535852751E-008
 -9.025215476628850E-008
 -9.642576963955902E-008
 -1.022040055568603E-007
 -1.075594732261988E-007
 -1.124666867864250E-007
 -1.169021641337763E-007
 -1.208445188361981E-007
 -1.242745432329615E-007
 -1.271752823589391E-007
 -1.295320983715658E-007
 -1.313327251997626E-007
 -1.325673131752566E-007
 -1.332284634471765E-007
 -5.697619719598894E-009
 -1.397564090887535E-008
 -2.225014091023486E-008
 -3.048130667996450E-008
 -3.862972031897395E-008
 -4.665651545242984E-008
 -5.452353177143984E-008
 -6.219346702466880E-008
 -6.963002575660320E-008
 -7.679806410913868E-008
 -8.366373002612157E-008
 -9.019459822422092E-008
 -9.635979931966049E-008
 -1.021301425323753E-007
 -1.074782314182685E-007
 -1.123785721177177E-007
 -1.168076736397824E-007
 -1.207441397418927E-007
 -1.241687520011667E-007
 -1.270645437134505E-007
 -1.294168642958717E-007
 -1.312134339097535E-007
 -1.324443880611155E-007
 -1.331023119784983E-007
 -5.751491840684270E-009
 -1.401870543155523E-008
 -2.228282972205380E-008
 -3.050404698197502E-008
 -3.864293510796054E-008
 -4.666062385048948E-008
 -5.451894921229978E-008
 -6.218060530643242E-008
 -6.960929297340116E-008
 -7.676986447294747E-008
 -8.362846359197524E-008
 -9.015266052968224E-008
 -9.631158095210911E-008
 -1.020760286339677E-007
 -1.074186011400734E-007
 -1.123137980305830E-007
 -1.167381211106441E-007
 -1.206701662806394E-007
 -1.240907065823198E-007
 -1.269827660746581E-007
 -1.293316842137332E-007
 -1.311251704505678E-007
 -1.323533488035497E-007
 -1.330087922022969E-007
 -5.788238321526879E-009
 -1.404832959239258E-008
 -2.230562453731876E-008
 -3.052030066868230E-008
 -3.865293152571283E-008
 -4.666464279605513E-008
 -5.451726661890181E-008
 -6.217349335325537E-008
 -6.959702011194982E-008
 -7.675269538117039E-008
 -8.360665906108502E-008
 -9.012647729407584E-008
 -9.628127146869500E-008
 -1.020418408184197E-007
 -1.073807780675666E-007
 -1.122725776051084E-007
 -1.166937357085414E-007
 -1.206228423717031E-007
 -1.240406643302548E-007
 -1.269302189184814E-007
 -1.292768384289052E-007
 -1.310682246887208E-007
 -1.322944936074379E-007
 -1.329482094915650E-007
 -5.807733655496081E-009
 -1.406441149167032E-008
 -2.231844611303412E-008
 -3.053001023012734E-008
 -3.865967289272477E-008
 -4.666855555733468E-008
 -5.451848634006056E-008
 -6.217215173866019E-008
 -6.959324512444637E-008
 -7.674661132316735E-008
 -8.359838662142382E-008
 -9.011613356487573E-008
 -9.626896993502436E-008
 -1.020276913253266E-007
 -1.073648867662441E-007
 -1.122550468816669E-007
 -1.166746640964852E-007
 -1.206023244496425E-007
 -1.240187906054708E-007
 -1.269070756955121E-007
 -1.292525076627192E-007
 -1.310427838202451E-007
 -1.322680153788596E-007
 -1.329207617382142E-007
SCALARS elementIsPlast double 
LOOKUP_TABLE default
  0.000000000000000E+000
  0.000000000000000E+000
  0.000000000000000E+000
  0.000000000000000E+000
  0.000000000000000E+000
  0.000000000000000E+000
  0.000000000000000E+000
  0.000000000000000E+000
  0.000000000000000E+000
  0.000000000000000E+000
  0.000000000000000E+000
  0.000000000000000E+000
  0.000000000000000E+000
  0.000000000000000E+000
  0.000000000000000E+000
  0.000000000000000E+000
  0.000000000000000E+000
  0.000000000000000E+000
  0.000000000000000E+000
  0.000000000000000E+000
  0.000000000000000E+000
  0.000000000000000E+000
  0.000000000000000E+000
  0.000000000000000E+000
  0.000000000000000E+000
  0.000000000000000E+000
  0.000000000000000E+000
  0.000000000000000E+000
  0.000000000000000E+000
  0.000000000000000E+000
  0.000000000000000E+000
  0.000000000000000E+000
  0.000000000000000E+000
  0.000000000000000E+000
  0.000000000000000E+000
  0.000000000000000E+000
  0.000000000000000E+000
  0.000000000000000E+000
  0.000000000000000E+000
  0.000000000000000E+000
  0.000000000000000E+000
  0.000000000000000E+000
  0.000000000000000E+000
  0.000000000000000E+000
  0.000000000000000E+000
  0.000000000000000E+000
  0.000000000000000E+000
  0.000000000000000E+000
  0.000000000000000E+000
  0.000000000000000E+000
  0.000000000000000E+000
  0.000000000000000E+000
  0.000000000000000E+000
  0.000000000000000E+000
  0.000000000000000E+000
  0.000000000000000E+000
  0.000000000000000E+000
  0.000000000000000E+000
  0.000000000000000E+000
  0.000000000000000E+000
  0.000000000000000E+000
  0.000000000000000E+000
  0.000000000000000E+000
  0.000000000000000E+000
  0.000000000000000E+000
  0.000000000000000E+000
  0.000000000000000E+000
  0.000000000000000E+000
  0.000000000000000E+000
  0.000000000000000E+000
  0.000000000000000E+000
  0.000000000000000E+000
  0.000000000000000E+000
  0.000000000000000E+000
  0.000000000000000E+000
  0.000000000000000E+000
  0.000000000000000E+000
  0.000000000000000E+000
  0.000000000000000E+000
  0.000000000000000E+000
  0.000000000000000E+000
  0.000000000000000E+000
  0.000000000000000E+000
  0.000000000000000E+000
  0.000000000000000E+000
  0.000000000000000E+000
  0.000000000000000E+000
  0.000000000000000E+000
  0.000000000000000E+000
  0.000000000000000E+000
  0.000000000000000E+000
  0.000000000000000E+000
  0.000000000000000E+000
  0.000000000000000E+000
  0.000000000000000E+000
  0.000000000000000E+000
  0.000000000000000E+000
  0.000000000000000E+000
  0.000000000000000E+000
  0.000000000000000E+000
  0.000000000000000E+000
  0.000000000000000E+000
  0.000000000000000E+000
  0.000000000000000E+000
  0.000000000000000E+000
  0.000000000000000E+000
  0.000000000000000E+000
  0.000000000000000E+000
  0.000000000000000E+000
  0.000000000000000E+000
  0.000000000000000E+000
  0.000000000000000E+000
  0.000000000000000E+000
  0.000000000000000E+000
  0.000000000000000E+000
  0.000000000000000E+000
  0.000000000000000E+000
  0.000000000000000E+000
  0.000000000000000E+000
  0.000000000000000E+000
  0.000000000000000E+000
  0.000000000000000E+000
  0.000000000000000E+000
  0.000000000000000E+000
  0.000000000000000E+000
  0.000000000000000E+000
  0.000000000000000E+000
  0.000000000000000E+000
  0.000000000000000E+000
  0.000000000000000E+000
  0.000000000000000E+000
  0.000000000000000E+000
  0.000000000000000E+000
  0.000000000000000E+000
  0.000000000000000E+000
  0.000000000000000E+000
  0.000000000000000E+000
  0.000000000000000E+000
  0.000000000000000E+000
  0.000000000000000E+000
  0.000000000000000E+000
  0.000000000000000E+000
  0.000000000000000E+000
  0.000000000000000E+000
  0.000000000000000E+000
  0.000000000000000E+000
  0.000000000000000E+000
  0.000000000000000E+000
  0.000000000000000E+000
  0.000000000000000E+000
  0.000000000000000E+000
  0.000000000000000E+000
  0.000000000000000E+000
  0.000000000000000E+000
  0.000000000000000E+000
  0.000000000000000E+000
  0.000000000000000E+000
  0.000000000000000E+000
  0.000000000000000E+000
  0.000000000000000E+000
  0.000000000000000E+000
  0.000000000000000E+000
  0.000000000000000E+000
  0.000000000000000E+000
  0.000000000000000E+000
  0.000000000000000E+000
  0.000000000000000E+000
  0.000000000000000E+000
  0.000000000000000E+000
  0.000000000000000E+000
  0.000000000000000E+000
  0.000000000000000E+000
  0.000000000000000E+000
  0.000000000000000E+000
  0.000000000000000E+000
  0.000000000000000E+000
  0.000000000000000E+000
  0.000000000000000E+000
  0.000000000000000E+000
  0.000000000000000E+000
  0.000000000000000E+000
  0.000000000000000E+000
  0.000000000000000E+000
  0.000000000000000E+000
  0.000000000000000E+000
  0.000000000000000E+000
  0.000000000000000E+000
  0.000000000000000E+000
  0.000000000000000E+000
  0.000000000000000E+000
  0.000000000000000E+000
  0.000000000000000E+000
  0.000000000000000E+000
  0.000000000000000E+000
  0.000000000000000E+000
  0.000000000000000E+000
  0.000000000000000E+000
  0.000000000000000E+000
  0.000000000000000E+000
  0.000000000000000E+000
  0.000000000000000E+000
  0.000000000000000E+000
  0.000000000000000E+000
  0.000000000000000E+000
  0.000000000000000E+000
  0.000000000000000E+000
  0.000000000000000E+000
  0.000000000000000E+000
  0.000000000000000E+000
  0.000000000000000E+000
  0.000000000000000E+000
  0.000000000000000E+000
  0.000000000000000E+000
  0.000000000000000E+000
  0.000000000000000E+000
  0.000000000000000E+000
  0.000000000000000E+000
  0.000000000000000E+000
  0.000000000000000E+000
  0.000000000000000E+000
  0.000000000000000E+000
  0.000000000000000E+000
  0.000000000000000E+000
  0.000000000000000E+000
  0.000000000000000E+000
  0.000000000000000E+000
  0.000000000000000E+000
  0.000000000000000E+000
  0.000000000000000E+000
  0.000000000000000E+000
  0.000000000000000E+000
  0.000000000000000E+000
  0.000000000000000E+000
  0.000000000000000E+000
  0.000000000000000E+000
  0.000000000000000E+000
  0.000000000000000E+000
  0.000000000000000E+000
  0.000000000000000E+000
  0.000000000000000E+000
  0.000000000000000E+000
  0.000000000000000E+000
  0.000000000000000E+000
  0.000000000000000E+000
  0.000000000000000E+000
  0.000000000000000E+000
  0.000000000000000E+000
  0.000000000000000E+000
  0.000000000000000E+000
  0.000000000000000E+000
  0.000000000000000E+000
  0.000000000000000E+000
  0.000000000000000E+000
  0.000000000000000E+000
  0.000000000000000E+000
  0.000000000000000E+000
  0.000000000000000E+000
  0.000000000000000E+000
  0.000000000000000E+000
  0.000000000000000E+000
  0.000000000000000E+000
  0.000000000000000E+000
  0.000000000000000E+000
  0.000000000000000E+000
  0.000000000000000E+000
  0.000000000000000E+000
  0.000000000000000E+000
  0.000000000000000E+000
  0.000000000000000E+000
  0.000000000000000E+000
  0.000000000000000E+000
  0.000000000000000E+000
  0.000000000000000E+000
  0.000000000000000E+000
  0.000000000000000E+000
  0.000000000000000E+000
  0.000000000000000E+000
  0.000000000000000E+000
  0.000000000000000E+000
  0.000000000000000E+000
  0.000000000000000E+000
  0.000000000000000E+000
  0.000000000000000E+000
  0.000000000000000E+000
  0.000000000000000E+000
  0.000000000000000E+000
  0.000000000000000E+000
  0.000000000000000E+000
  0.000000000000000E+000
  0.000000000000000E+000
  0.000000000000000E+000
  0.000000000000000E+000
  0.000000000000000E+000
  0.000000000000000E+000
  0.000000000000000E+000
  0.000000000000000E+000
  0.000000000000000E+000
  0.000000000000000E+000
  0.000000000000000E+000
  0.000000000000000E+000
  0.000000000000000E+000
  0.000000000000000E+000
  0.000000000000000E+000
  0.000000000000000E+000
  0.000000000000000E+000
  0.000000000000000E+000
  0.000000000000000E+000
  0.000000000000000E+000
  0.000000000000000E+000
  0.000000000000000E+000
  0.000000000000000E+000
  0.000000000000000E+000
  0.000000000000000E+000
  0.000000000000000E+000
  0.000000000000000E+000
  0.000000000000000E+000
  0.000000000000000E+000
  0.000000000000000E+000
  0.000000000000000E+000
  0.000000000000000E+000
  0.000000000000000E+000
  0.000000000000000E+000
  0.000000000000000E+000
  0.000000000000000E+000
  0.000000000000000E+000
  0.000000000000000E+000
  0.000000000000000E+000
  0.000000000000000E+000
  0.000000000000000E+000
  0.000000000000000E+000
  0.000000000000000E+000
  0.000000000000000E+000
  0.000000000000000E+000
  0.000000000000000E+000
  0.000000000000000E+000
  0.000000000000000E+000
  0.000000000000000E+000
  0.000000000000000E+000
  0.000000000000000E+000
  0.000000000000000E+000
  0.000000000000000E+000
  0.000000000000000E+000
  0.000000000000000E+000
  0.000000000000000E+000
  0.000000000000000E+000
  0.000000000000000E+000
  0.000000000000000E+000
  0.000000000000000E+000
  0.000000000000000E+000
  0.000000000000000E+000
  0.000000000000000E+000
  0.000000000000000E+000
  0.000000000000000E+000
  0.000000000000000E+000
  0.000000000000000E+000
  0.000000000000000E+000
  0.000000000000000E+000
  0.000000000000000E+000
  0.000000000000000E+000
  0.000000000000000E+000
  0.000000000000000E+000
  0.000000000000000E+000
  0.000000000000000E+000
  0.000000000000000E+000
  0.000000000000000E+000
  0.000000000000000E+000
  0.000000000000000E+000
  0.000000000000000E+000
  0.000000000000000E+000
  0.000000000000000E+000
  0.000000000000000E+000
  0.000000000000000E+000
  0.000000000000000E+000
  0.000000000000000E+000
  0.000000000000000E+000
  0.000000000000000E+000
  0.000000000000000E+000
  0.000000000000000E+000
  0.000000000000000E+000
  0.000000000000000E+000
  0.000000000000000E+000
  0.000000000000000E+000
  0.000000000000000E+000
  0.000000000000000E+000
  0.000000000000000E+000
  0.000000000000000E+000
  0.000000000000000E+000
  0.000000000000000E+000
  0.000000000000000E+000
  0.000000000000000E+000
  0.000000000000000E+000
  0.000000000000000E+000
  0.000000000000000E+000
  0.000000000000000E+000
  0.000000000000000E+000
  0.000000000000000E+000
  0.000000000000000E+000
  0.000000000000000E+000
  0.000000000000000E+000
  0.000000000000000E+000
  0.000000000000000E+000
  0.000000000000000E+000
  0.000000000000000E+000
  0.000000000000000E+000
  0.000000000000000E+000
  0.000000000000000E+000
  0.000000000000000E+000
  0.000000000000000E+000
  0.000000000000000E+000
  0.000000000000000E+000
  0.000000000000000E+000
  0.000000000000000E+000
  0.000000000000000E+000
  0.000000000000000E+000
  0.000000000000000E+000
  0.000000000000000E+000
  0.000000000000000E+000
  0.000000000000000E+000
  0.000000000000000E+000
  0.000000000000000E+000
  0.000000000000000E+000
  0.000000000000000E+000
  0.000000000000000E+000
  0.000000000000000E+000
  0.000000000000000E+000
  0.000000000000000E+000
  0.000000000000000E+000
  0.000000000000000E+000
  0.000000000000000E+000
  0.000000000000000E+000
  0.000000000000000E+000
  0.000000000000000E+000
  0.000000000000000E+000
  0.000000000000000E+000
  0.000000000000000E+000
  0.000000000000000E+000
  0.000000000000000E+000
  0.000000000000000E+000
  0.000000000000000E+000
  0.000000000000000E+000
  0.000000000000000E+000
  0.000000000000000E+000
  0.000000000000000E+000
  0.000000000000000E+000
  0.000000000000000E+000
  0.000000000000000E+000
  0.000000000000000E+000
  0.000000000000000E+000
  0.000000000000000E+000
  0.000000000000000E+000
  0.000000000000000E+000
  0.000000000000000E+000
  0.000000000000000E+000
  0.000000000000000E+000
  0.000000000000000E+000
  0.000000000000000E+000
  0.000000000000000E+000
  0.000000000000000E+000
  0.000000000000000E+000
  0.000000000000000E+000
  0.000000000000000E+000
  0.000000000000000E+000
  0.000000000000000E+000
  0.000000000000000E+000
  0.000000000000000E+000
  0.000000000000000E+000
  0.000000000000000E+000
  0.000000000000000E+000
  0.000000000000000E+000
  0.000000000000000E+000
  0.000000000000000E+000
  0.000000000000000E+000
  0.000000000000000E+000
  0.000000000000000E+000
  0.000000000000000E+000
  0.000000000000000E+000
  0.000000000000000E+000
  0.000000000000000E+000
  0.000000000000000E+000
  0.000000000000000E+000
  0.000000000000000E+000
  0.000000000000000E+000
  0.000000000000000E+000
  0.000000000000000E+000
  0.000000000000000E+000
  0.000000000000000E+000
  0.000000000000000E+000
  0.000000000000000E+000
  0.000000000000000E+000
  0.000000000000000E+000
  0.000000000000000E+000
  0.000000000000000E+000
  0.000000000000000E+000
  0.000000000000000E+000
  0.000000000000000E+000
  0.000000000000000E+000
  0.000000000000000E+000
  0.000000000000000E+000
  0.000000000000000E+000
  0.000000000000000E+000
  0.000000000000000E+000
  0.000000000000000E+000
  0.000000000000000E+000
  0.000000000000000E+000
  0.000000000000000E+000
  0.000000000000000E+000
  0.000000000000000E+000
  0.000000000000000E+000
  0.000000000000000E+000
  0.000000000000000E+000
  0.000000000000000E+000
  0.000000000000000E+000
  0.000000000000000E+000
  0.000000000000000E+000
  0.000000000000000E+000
  0.000000000000000E+000
  0.000000000000000E+000
  0.000000000000000E+000
  0.000000000000000E+000
  0.000000000000000E+000
  0.000000000000000E+000
  0.000000000000000E+000
  0.000000000000000E+000
  0.000000000000000E+000
  0.000000000000000E+000
  0.000000000000000E+000
  0.000000000000000E+000
  0.000000000000000E+000
  0.000000000000000E+000
  0.000000000000000E+000
  0.000000000000000E+000
  0.000000000000000E+000
  0.000000000000000E+000
  0.000000000000000E+000
  0.000000000000000E+000
  0.000000000000000E+000
  0.000000000000000E+000
  0.000000000000000E+000
  0.000000000000000E+000
  0.000000000000000E+000
  0.000000000000000E+000
  0.000000000000000E+000
  0.000000000000000E+000
  0.000000000000000E+000
  0.000000000000000E+000
  0.000000000000000E+000
  0.000000000000000E+000
  0.000000000000000E+000
  0.000000000000000E+000
  0.000000000000000E+000
  0.000000000000000E+000
  0.000000000000000E+000
  0.000000000000000E+000
  0.000000000000000E+000
  0.000000000000000E+000
  0.000000000000000E+000
  0.000000000000000E+000
  0.000000000000000E+000
  0.000000000000000E+000
  0.000000000000000E+000
  0.000000000000000E+000
  0.000000000000000E+000
  0.000000000000000E+000
  0.000000000000000E+000
  0.000000000000000E+000
  0.000000000000000E+000
  0.000000000000000E+000
  0.000000000000000E+000
  0.000000000000000E+000
  0.000000000000000E+000
  0.000000000000000E+000
  0.000000000000000E+000
  0.000000000000000E+000
  0.000000000000000E+000
  0.000000000000000E+000
  0.000000000000000E+000
  0.000000000000000E+000
  0.000000000000000E+000
  0.000000000000000E+000
  0.000000000000000E+000
  0.000000000000000E+000
  0.000000000000000E+000
  0.000000000000000E+000
  0.000000000000000E+000
  0.000000000000000E+000
  0.000000000000000E+000
  0.000000000000000E+000
  0.000000000000000E+000
  0.000000000000000E+000
  0.000000000000000E+000
  0.000000000000000E+000
  0.000000000000000E+000
  0.000000000000000E+000
  0.000000000000000E+000
  0.000000000000000E+000
  0.000000000000000E+000
  0.000000000000000E+000
  0.000000000000000E+000
  0.000000000000000E+000
  0.000000000000000E+000
  0.000000000000000E+000
  0.000000000000000E+000
  0.000000000000000E+000
  0.000000000000000E+000
  0.000000000000000E+000
  0.000000000000000E+000
  0.000000000000000E+000
  0.000000000000000E+000
  0.000000000000000E+000
  0.000000000000000E+000
  0.000000000000000E+000
  0.000000000000000E+000
  0.000000000000000E+000
  0.000000000000000E+000
  0.000000000000000E+000
  0.000000000000000E+000
  0.000000000000000E+000
  0.000000000000000E+000
  0.000000000000000E+000
  0.000000000000000E+000
  0.000000000000000E+000
  0.000000000000000E+000
  0.000000000000000E+000
  0.000000000000000E+000
  0.000000000000000E+000
  0.000000000000000E+000
  0.000000000000000E+000
  0.000000000000000E+000
  0.000000000000000E+000
  0.000000000000000E+000
  0.000000000000000E+000
  0.000000000000000E+000
  0.000000000000000E+000
  0.000000000000000E+000
  0.000000000000000E+000
  0.000000000000000E+000
  0.000000000000000E+000
  0.000000000000000E+000
  0.000000000000000E+000
  0.000000000000000E+000
  0.000000000000000E+000
  0.000000000000000E+000
  0.000000000000000E+000
  0.000000000000000E+000
  0.000000000000000E+000
  0.000000000000000E+000
  0.000000000000000E+000
  0.000000000000000E+000
  0.000000000000000E+000
  0.000000000000000E+000
  0.000000000000000E+000
  0.000000000000000E+000
  0.000000000000000E+000
  0.000000000000000E+000
  0.000000000000000E+000
  0.000000000000000E+000
  0.000000000000000E+000
  0.000000000000000E+000
  0.000000000000000E+000
  0.000000000000000E+000
  0.000000000000000E+000
  0.000000000000000E+000
  0.000000000000000E+000
  0.000000000000000E+000
  0.000000000000000E+000
  0.000000000000000E+000
  0.000000000000000E+000
  0.000000000000000E+000
  0.000000000000000E+000
  0.000000000000000E+000
  0.000000000000000E+000
  0.000000000000000E+000
  0.000000000000000E+000
  0.000000000000000E+000
  0.000000000000000E+000
  0.000000000000000E+000
  0.000000000000000E+000
  0.000000000000000E+000
  0.000000000000000E+000
  0.000000000000000E+000
  0.000000000000000E+000
  0.000000000000000E+000
  0.000000000000000E+000
  0.000000000000000E+000
  0.000000000000000E+000
  0.000000000000000E+000
  0.000000000000000E+000
  0.000000000000000E+000
  0.000000000000000E+000
  0.000000000000000E+000
  0.000000000000000E+000
  0.000000000000000E+000
  0.000000000000000E+000
  0.000000000000000E+000
  0.000000000000000E+000
  0.000000000000000E+000
  0.000000000000000E+000
  0.000000000000000E+000
  0.000000000000000E+000
  0.000000000000000E+000
  0.000000000000000E+000
  0.000000000000000E+000
  0.000000000000000E+000
  0.000000000000000E+000
  0.000000000000000E+000
  0.000000000000000E+000
  0.000000000000000E+000
  0.000000000000000E+000
  0.000000000000000E+000
  0.000000000000000E+000
  0.000000000000000E+000
  0.000000000000000E+000
  0.000000000000000E+000
  0.000000000000000E+000
  0.000000000000000E+000
  0.000000000000000E+000
  0.000000000000000E+000
  0.000000000000000E+000
  0.000000000000000E+000
  0.000000000000000E+000
  0.000000000000000E+000
  0.000000000000000E+000
  0.000000000000000E+000
  0.000000000000000E+000
  0.000000000000000E+000
  0.000000000000000E+000
  0.000000000000000E+000
  0.000000000000000E+000
  0.000000000000000E+000
  0.000000000000000E+000
  0.000000000000000E+000
  0.000000000000000E+000
  0.000000000000000E+000
  0.000000000000000E+000
  0.000000000000000E+000
  0.000000000000000E+000
  0.000000000000000E+000
  0.000000000000000E+000
  0.000000000000000E+000
  0.000000000000000E+000
  0.000000000000000E+000
  0.000000000000000E+000
  0.000000000000000E+000
  0.000000000000000E+000
  0.000000000000000E+000
  0.000000000000000E+000
  0.000000000000000E+000
  0.000000000000000E+000
  0.000000000000000E+000
  0.000000000000000E+000
  0.000000000000000E+000
  0.000000000000000E+000
  0.000000000000000E+000
  0.000000000000000E+000
  0.000000000000000E+000
  0.000000000000000E+000
  0.000000000000000E+000
  0.000000000000000E+000
  0.000000000000000E+000
  0.000000000000000E+000
  0.000000000000000E+000
  0.000000000000000E+000
  0.000000000000000E+000
  0.000000000000000E+000
  0.000000000000000E+000
  0.000000000000000E+000
  0.000000000000000E+000
  0.000000000000000E+000
  0.000000000000000E+000
  0.000000000000000E+000
  0.000000000000000E+000
  0.000000000000000E+000
  0.000000000000000E+000
  0.000000000000000E+000
  0.000000000000000E+000
  0.000000000000000E+000
  0.000000000000000E+000
  0.000000000000000E+000
  0.000000000000000E+000
  0.000000000000000E+000
  0.000000000000000E+000
  0.000000000000000E+000
  0.000000000000000E+000
  0.000000000000000E+000
  0.000000000000000E+000
  0.000000000000000E+000
  0.000000000000000E+000
  0.000000000000000E+000
  0.000000000000000E+000
  0.000000000000000E+000
  0.000000000000000E+000
  0.000000000000000E+000
  0.000000000000000E+000
  0.000000000000000E+000
  0.000000000000000E+000
  0.000000000000000E+000
  0.000000000000000E+000
  0.000000000000000E+000
  0.000000000000000E+000
  0.000000000000000E+000
  0.000000000000000E+000
  0.000000000000000E+000
  0.000000000000000E+000
  0.000000000000000E+000
  0.000000000000000E+000
  0.000000000000000E+000
  0.000000000000000E+000
  0.000000000000000E+000
  0.000000000000000E+000
  0.000000000000000E+000
  0.000000000000000E+000
  0.000000000000000E+000
  0.000000000000000E+000
  0.000000000000000E+000
  0.000000000000000E+000
  0.000000000000000E+000
  0.000000000000000E+000
  0.000000000000000E+000
  0.000000000000000E+000
  0.000000000000000E+000
  0.000000000000000E+000
  0.000000000000000E+000
  0.000000000000000E+000
  0.000000000000000E+000
  0.000000000000000E+000
  0.000000000000000E+000
  0.000000000000000E+000
  0.000000000000000E+000
  0.000000000000000E+000
  0.000000000000000E+000
  0.000000000000000E+000
  0.000000000000000E+000
  0.000000000000000E+000
  0.000000000000000E+000
  0.000000000000000E+000
  0.000000000000000E+000
  0.000000000000000E+000
  0.000000000000000E+000
  0.000000000000000E+000
  0.000000000000000E+000
  0.000000000000000E+000
  0.000000000000000E+000
  0.000000000000000E+000
  0.000000000000000E+000
  0.000000000000000E+000
  0.000000000000000E+000
  0.000000000000000E+000
  0.000000000000000E+000
  0.000000000000000E+000
  0.000000000000000E+000
  0.000000000000000E+000
  0.000000000000000E+000
  0.000000000000000E+000
  0.000000000000000E+000
  0.000000000000000E+000
  0.000000000000000E+000
  0.000000000000000E+000
  0.000000000000000E+000
  0.000000000000000E+000
  0.000000000000000E+000
  0.000000000000000E+000
  0.000000000000000E+000
  0.000000000000000E+000
  0.000000000000000E+000
  0.000000000000000E+000
  0.000000000000000E+000
  0.000000000000000E+000
  0.000000000000000E+000
  0.000000000000000E+000
  0.000000000000000E+000
  0.000000000000000E+000
  0.000000000000000E+000
  0.000000000000000E+000
  0.000000000000000E+000
  0.000000000000000E+000
  0.000000000000000E+000
  0.000000000000000E+000
  0.000000000000000E+000
  0.000000000000000E+000
  0.000000000000000E+000
  0.000000000000000E+000
  0.000000000000000E+000
  0.000000000000000E+000
  0.000000000000000E+000
  0.000000000000000E+000
  0.000000000000000E+000
  0.000000000000000E+000
  0.000000000000000E+000
  0.000000000000000E+000
  0.000000000000000E+000
  0.000000000000000E+000
  0.000000000000000E+000
  0.000000000000000E+000
  0.000000000000000E+000
  0.000000000000000E+000
  0.000000000000000E+000
  0.000000000000000E+000
  0.000000000000000E+000
  0.000000000000000E+000
  0.000000000000000E+000
  0.000000000000000E+000
  0.000000000000000E+000
  0.000000000000000E+000
  0.000000000000000E+000
  0.000000000000000E+000
  0.000000000000000E+000
  0.000000000000000E+000
  0.000000000000000E+000
  0.000000000000000E+000
  0.000000000000000E+000
  0.000000000000000E+000
  0.000000000000000E+000
  0.000000000000000E+000
  0.000000000000000E+000
  0.000000000000000E+000
  0.000000000000000E+000
  0.000000000000000E+000
  0.000000000000000E+000
  0.000000000000000E+000
  0.000000000000000E+000
  0.000000000000000E+000
  0.000000000000000E+000
  0.000000000000000E+000
  0.000000000000000E+000
  0.000000000000000E+000
  0.000000000000000E+000
  0.000000000000000E+000
  0.000000000000000E+000
  0.000000000000000E+000
  0.000000000000000E+000
  0.000000000000000E+000
  0.000000000000000E+000
  0.000000000000000E+000
  0.000000000000000E+000
  0.000000000000000E+000
  0.000000000000000E+000
  0.000000000000000E+000
  0.000000000000000E+000
  0.000000000000000E+000
  0.000000000000000E+000
  0.000000000000000E+000
  0.000000000000000E+000
  0.000000000000000E+000
  0.000000000000000E+000
  0.000000000000000E+000
  0.000000000000000E+000
  0.000000000000000E+000
  0.000000000000000E+000
  0.000000000000000E+000
  0.000000000000000E+000
  0.000000000000000E+000
  0.000000000000000E+000
  0.000000000000000E+000
  0.000000000000000E+000
  0.000000000000000E+000
  0.000000000000000E+000
  0.000000000000000E+000
  0.000000000000000E+000
  0.000000000000000E+000
  0.000000000000000E+000
  0.000000000000000E+000
  0.000000000000000E+000
  0.000000000000000E+000
  0.000000000000000E+000
  0.000000000000000E+000
  0.000000000000000E+000
  0.000000000000000E+000
  0.000000000000000E+000
  0.000000000000000E+000
  0.000000000000000E+000
  0.000000000000000E+000
  0.000000000000000E+000
  0.000000000000000E+000
  0.000000000000000E+000
  0.000000000000000E+000
  0.000000000000000E+000
  0.000000000000000E+000
  0.000000000000000E+000
  0.000000000000000E+000
  0.000000000000000E+000
  0.000000000000000E+000
  0.000000000000000E+000
  0.000000000000000E+000
  0.000000000000000E+000
  0.000000000000000E+000
  0.000000000000000E+000
  0.000000000000000E+000
  0.000000000000000E+000
  0.000000000000000E+000
  0.000000000000000E+000
  0.000000000000000E+000
  0.000000000000000E+000
  0.000000000000000E+000
  0.000000000000000E+000
  0.000000000000000E+000
  0.000000000000000E+000
  0.000000000000000E+000
  0.000000000000000E+000
  0.000000000000000E+000
  0.000000000000000E+000
  0.000000000000000E+000
  0.000000000000000E+000
  0.000000000000000E+000
  0.000000000000000E+000
  0.000000000000000E+000
  0.000000000000000E+000
  0.000000000000000E+000
  0.000000000000000E+000
  0.000000000000000E+000
  0.000000000000000E+000
  0.000000000000000E+000
  0.000000000000000E+000
  0.000000000000000E+000
  0.000000000000000E+000
  0.000000000000000E+000
  0.000000000000000E+000
  0.000000000000000E+000
  0.000000000000000E+000
  0.000000000000000E+000
  0.000000000000000E+000
  0.000000000000000E+000
  0.000000000000000E+000
  0.000000000000000E+000
  0.000000000000000E+000
  0.000000000000000E+000
  0.000000000000000E+000
  0.000000000000000E+000
  0.000000000000000E+000
  0.000000000000000E+000
  0.000000000000000E+000
  0.000000000000000E+000
  0.000000000000000E+000
  0.000000000000000E+000
  0.000000000000000E+000
  0.000000000000000E+000
  0.000000000000000E+000
  0.000000000000000E+000
  0.000000000000000E+000
  0.000000000000000E+000
  0.000000000000000E+000
  0.000000000000000E+000
  0.000000000000000E+000
  0.000000000000000E+000
  0.000000000000000E+000
  0.000000000000000E+000
  0.000000000000000E+000
  0.000000000000000E+000
  0.000000000000000E+000
  0.000000000000000E+000
  0.000000000000000E+000
  0.000000000000000E+000
  0.000000000000000E+000
  0.000000000000000E+000
  0.000000000000000E+000
  0.000000000000000E+000
  0.000000000000000E+000
  0.000000000000000E+000
  0.000000000000000E+000
  0.000000000000000E+000
  0.000000000000000E+000
  0.000000000000000E+000
  0.000000000000000E+000
  0.000000000000000E+000
  0.000000000000000E+000
  0.000000000000000E+000
  0.000000000000000E+000
  0.000000000000000E+000
  0.000000000000000E+000
  0.000000000000000E+000
  0.000000000000000E+000
  0.000000000000000E+000
  0.000000000000000E+000
  0.000000000000000E+000
  0.000000000000000E+000
  0.000000000000000E+000
  0.000000000000000E+000
  0.000000000000000E+000
  0.000000000000000E+000
  0.000000000000000E+000
  0.000000000000000E+000
  0.000000000000000E+000
  0.000000000000000E+000
  0.000000000000000E+000
  0.000000000000000E+000
  0.000000000000000E+000
  0.000000000000000E+000
  0.000000000000000E+000
  0.000000000000000E+000
  0.000000000000000E+000
  0.000000000000000E+000
  0.000000000000000E+000
  0.000000000000000E+000
  0.000000000000000E+000
  0.000000000000000E+000
  0.000000000000000E+000
  0.000000000000000E+000
  0.000000000000000E+000
  0.000000000000000E+000
  0.000000000000000E+000
  0.000000000000000E+000
  0.000000000000000E+000
  0.000000000000000E+000
  0.000000000000000E+000
  0.000000000000000E+000
  0.000000000000000E+000
  0.000000000000000E+000
  0.000000000000000E+000
  0.000000000000000E+000
  0.000000000000000E+000
  0.000000000000000E+000
  0.000000000000000E+000
  0.000000000000000E+000
  0.000000000000000E+000
  0.000000000000000E+000
  0.000000000000000E+000
  0.000000000000000E+000
  0.000000000000000E+000
  0.000000000000000E+000
  0.000000000000000E+000
  0.000000000000000E+000
  0.000000000000000E+000
  0.000000000000000E+000
  0.000000000000000E+000
  0.000000000000000E+000
  0.000000000000000E+000
  0.000000000000000E+000
  0.000000000000000E+000
  0.000000000000000E+000
  0.000000000000000E+000
  0.000000000000000E+000
  0.000000000000000E+000
  0.000000000000000E+000
  0.000000000000000E+000
  0.000000000000000E+000
  0.000000000000000E+000
  0.000000000000000E+000
  0.000000000000000E+000
  0.000000000000000E+000
  0.000000000000000E+000
  0.000000000000000E+000
  0.000000000000000E+000
  0.000000000000000E+000
  0.000000000000000E+000
  0.000000000000000E+000
  0.000000000000000E+000
  0.000000000000000E+000
  0.000000000000000E+000
  0.000000000000000E+000
  0.000000000000000E+000
  0.000000000000000E+000
  0.000000000000000E+000
  0.000000000000000E+000
