# vtk DataFile Version 3.0
vtk output
ASCII
DATASET UNSTRUCTURED_GRID
POINTS      1225 double 
  0.00000000E+00  2.40000000E+01  0.00000000E+00
  0.00000000E+00  2.30000000E+01  0.00000000E+00
  0.00000000E+00  2.20000000E+01  0.00000000E+00
  0.00000000E+00  2.10000000E+01  0.00000000E+00
  0.00000000E+00  2.00000000E+01  0.00000000E+00
  0.00000000E+00  1.90000000E+01  0.00000000E+00
  0.00000000E+00  1.80000000E+01  0.00000000E+00
  0.00000000E+00  1.70000000E+01  0.00000000E+00
  0.00000000E+00  1.60000000E+01  0.00000000E+00
  0.00000000E+00  1.50000000E+01  0.00000000E+00
  0.00000000E+00  1.40000000E+01  0.00000000E+00
  0.00000000E+00  1.30000000E+01  0.00000000E+00
  0.00000000E+00  1.20000000E+01  0.00000000E+00
  0.00000000E+00  1.10000000E+01  0.00000000E+00
  0.00000000E+00  1.00000000E+01  0.00000000E+00
  0.00000000E+00  9.00000000E+00  0.00000000E+00
  0.00000000E+00  8.00000000E+00  0.00000000E+00
  0.00000000E+00  7.00000000E+00  0.00000000E+00
  0.00000000E+00  6.00000000E+00  0.00000000E+00
  0.00000000E+00  5.00000000E+00  0.00000000E+00
  0.00000000E+00  4.00000000E+00  0.00000000E+00
  0.00000000E+00  3.00000000E+00  0.00000000E+00
  0.00000000E+00  2.00000000E+00  0.00000000E+00
  0.00000000E+00  1.00000000E+00  0.00000000E+00
  0.00000000E+00 -2.66453526E-15  0.00000000E+00
  1.00000000E+00  2.40000000E+01  0.00000000E+00
  1.00000000E+00  2.30000000E+01  0.00000000E+00
  1.00000000E+00  2.20000000E+01  0.00000000E+00
  1.00000000E+00  2.10000000E+01  0.00000000E+00
  1.00000000E+00  2.00000000E+01  0.00000000E+00
  1.00000000E+00  1.90000000E+01  0.00000000E+00
  1.00000000E+00  1.80000000E+01  0.00000000E+00
  1.00000000E+00  1.70000000E+01  0.00000000E+00
  1.00000000E+00  1.60000000E+01  0.00000000E+00
  1.00000000E+00  1.50000000E+01  0.00000000E+00
  1.00000000E+00  1.40000000E+01  0.00000000E+00
  1.00000000E+00  1.30000000E+01  0.00000000E+00
  1.00000000E+00  1.20000000E+01  0.00000000E+00
  1.00000000E+00  1.10000000E+01  0.00000000E+00
  1.00000000E+00  1.00000000E+01  0.00000000E+00
  1.00000000E+00  9.00000000E+00  0.00000000E+00
  1.00000000E+00  8.00000000E+00  0.00000000E+00
  1.00000000E+00  7.00000000E+00  0.00000000E+00
  1.00000000E+00  6.00000000E+00  0.00000000E+00
  1.00000000E+00  5.00000000E+00  0.00000000E+00
  1.00000000E+00  4.00000000E+00  0.00000000E+00
  1.00000000E+00  3.00000000E+00  0.00000000E+00
  1.00000000E+00  2.00000000E+00  0.00000000E+00
  1.00000000E+00  1.00000000E+00  0.00000000E+00
  1.00000000E+00 -2.66453526E-15  0.00000000E+00
  2.00000000E+00  2.40000000E+01  0.00000000E+00
  2.00000000E+00  2.30000000E+01  0.00000000E+00
  2.00000000E+00  2.20000000E+01  0.00000000E+00
  2.00000000E+00  2.10000000E+01  0.00000000E+00
  2.00000000E+00  2.00000000E+01  0.00000000E+00
  2.00000000E+00  1.90000000E+01  0.00000000E+00
  2.00000000E+00  1.80000000E+01  0.00000000E+00
  2.00000000E+00  1.70000000E+01  0.00000000E+00
  2.00000000E+00  1.60000000E+01  0.00000000E+00
  2.00000000E+00  1.50000000E+01  0.00000000E+00
  2.00000000E+00  1.40000000E+01  0.00000000E+00
  2.00000000E+00  1.30000000E+01  0.00000000E+00
  2.00000000E+00  1.20000000E+01  0.00000000E+00
  2.00000000E+00  1.10000000E+01  0.00000000E+00
  2.00000000E+00  1.00000000E+01  0.00000000E+00
  2.00000000E+00  9.00000000E+00  0.00000000E+00
  2.00000000E+00  8.00000000E+00  0.00000000E+00
  2.00000000E+00  7.00000000E+00  0.00000000E+00
  2.00000000E+00  6.00000000E+00  0.00000000E+00
  2.00000000E+00  5.00000000E+00  0.00000000E+00
  2.00000000E+00  4.00000000E+00  0.00000000E+00
  2.00000000E+00  3.00000000E+00  0.00000000E+00
  2.00000000E+00  2.00000000E+00  0.00000000E+00
  2.00000000E+00  1.00000000E+00  0.00000000E+00
  2.00000000E+00 -2.66453526E-15  0.00000000E+00
  3.00000000E+00  2.40000000E+01  0.00000000E+00
  3.00000000E+00  2.30000000E+01  0.00000000E+00
  3.00000000E+00  2.20000000E+01  0.00000000E+00
  3.00000000E+00  2.10000000E+01  0.00000000E+00
  3.00000000E+00  2.00000000E+01  0.00000000E+00
  3.00000000E+00  1.90000000E+01  0.00000000E+00
  3.00000000E+00  1.80000000E+01  0.00000000E+00
  3.00000000E+00  1.70000000E+01  0.00000000E+00
  3.00000000E+00  1.60000000E+01  0.00000000E+00
  3.00000000E+00  1.50000000E+01  0.00000000E+00
  3.00000000E+00  1.40000000E+01  0.00000000E+00
  3.00000000E+00  1.30000000E+01  0.00000000E+00
  3.00000000E+00  1.20000000E+01  0.00000000E+00
  3.00000000E+00  1.10000000E+01  0.00000000E+00
  3.00000000E+00  1.00000000E+01  0.00000000E+00
  3.00000000E+00  9.00000000E+00  0.00000000E+00
  3.00000000E+00  8.00000000E+00  0.00000000E+00
  3.00000000E+00  7.00000000E+00  0.00000000E+00
  3.00000000E+00  6.00000000E+00  0.00000000E+00
  3.00000000E+00  5.00000000E+00  0.00000000E+00
  3.00000000E+00  4.00000000E+00  0.00000000E+00
  3.00000000E+00  3.00000000E+00  0.00000000E+00
  3.00000000E+00  2.00000000E+00  0.00000000E+00
  3.00000000E+00  1.00000000E+00  0.00000000E+00
  3.00000000E+00 -2.66453526E-15  0.00000000E+00
  4.00000000E+00  2.40000000E+01  0.00000000E+00
  4.00000000E+00  2.30000000E+01  0.00000000E+00
  4.00000000E+00  2.20000000E+01  0.00000000E+00
  4.00000000E+00  2.10000000E+01  0.00000000E+00
  4.00000000E+00  2.00000000E+01  0.00000000E+00
  4.00000000E+00  1.90000000E+01  0.00000000E+00
  4.00000000E+00  1.80000000E+01  0.00000000E+00
  4.00000000E+00  1.70000000E+01  0.00000000E+00
  4.00000000E+00  1.60000000E+01  0.00000000E+00
  4.00000000E+00  1.50000000E+01  0.00000000E+00
  4.00000000E+00  1.40000000E+01  0.00000000E+00
  4.00000000E+00  1.30000000E+01  0.00000000E+00
  4.00000000E+00  1.20000000E+01  0.00000000E+00
  4.00000000E+00  1.10000000E+01  0.00000000E+00
  4.00000000E+00  1.00000000E+01  0.00000000E+00
  4.00000000E+00  9.00000000E+00  0.00000000E+00
  4.00000000E+00  8.00000000E+00  0.00000000E+00
  4.00000000E+00  7.00000000E+00  0.00000000E+00
  4.00000000E+00  6.00000000E+00  0.00000000E+00
  4.00000000E+00  5.00000000E+00  0.00000000E+00
  4.00000000E+00  4.00000000E+00  0.00000000E+00
  4.00000000E+00  3.00000000E+00  0.00000000E+00
  4.00000000E+00  2.00000000E+00  0.00000000E+00
  4.00000000E+00  1.00000000E+00  0.00000000E+00
  4.00000000E+00 -2.66453526E-15  0.00000000E+00
  5.00000000E+00  2.40000000E+01  0.00000000E+00
  5.00000000E+00  2.30000000E+01  0.00000000E+00
  5.00000000E+00  2.20000000E+01  0.00000000E+00
  5.00000000E+00  2.10000000E+01  0.00000000E+00
  5.00000000E+00  2.00000000E+01  0.00000000E+00
  5.00000000E+00  1.90000000E+01  0.00000000E+00
  5.00000000E+00  1.80000000E+01  0.00000000E+00
  5.00000000E+00  1.70000000E+01  0.00000000E+00
  5.00000000E+00  1.60000000E+01  0.00000000E+00
  5.00000000E+00  1.50000000E+01  0.00000000E+00
  5.00000000E+00  1.40000000E+01  0.00000000E+00
  5.00000000E+00  1.30000000E+01  0.00000000E+00
  5.00000000E+00  1.20000000E+01  0.00000000E+00
  5.00000000E+00  1.10000000E+01  0.00000000E+00
  5.00000000E+00  1.00000000E+01  0.00000000E+00
  5.00000000E+00  9.00000000E+00  0.00000000E+00
  5.00000000E+00  8.00000000E+00  0.00000000E+00
  5.00000000E+00  7.00000000E+00  0.00000000E+00
  5.00000000E+00  6.00000000E+00  0.00000000E+00
  5.00000000E+00  5.00000000E+00  0.00000000E+00
  5.00000000E+00  4.00000000E+00  0.00000000E+00
  5.00000000E+00  3.00000000E+00  0.00000000E+00
  5.00000000E+00  2.00000000E+00  0.00000000E+00
  5.00000000E+00  1.00000000E+00  0.00000000E+00
  5.00000000E+00 -2.66453526E-15  0.00000000E+00
  6.00000000E+00  2.40000000E+01  0.00000000E+00
  6.00000000E+00  2.30000000E+01  0.00000000E+00
  6.00000000E+00  2.20000000E+01  0.00000000E+00
  6.00000000E+00  2.10000000E+01  0.00000000E+00
  6.00000000E+00  2.00000000E+01  0.00000000E+00
  6.00000000E+00  1.90000000E+01  0.00000000E+00
  6.00000000E+00  1.80000000E+01  0.00000000E+00
  6.00000000E+00  1.70000000E+01  0.00000000E+00
  6.00000000E+00  1.60000000E+01  0.00000000E+00
  6.00000000E+00  1.50000000E+01  0.00000000E+00
  6.00000000E+00  1.40000000E+01  0.00000000E+00
  6.00000000E+00  1.30000000E+01  0.00000000E+00
  6.00000000E+00  1.20000000E+01  0.00000000E+00
  6.00000000E+00  1.10000000E+01  0.00000000E+00
  6.00000000E+00  1.00000000E+01  0.00000000E+00
  6.00000000E+00  9.00000000E+00  0.00000000E+00
  6.00000000E+00  8.00000000E+00  0.00000000E+00
  6.00000000E+00  7.00000000E+00  0.00000000E+00
  6.00000000E+00  6.00000000E+00  0.00000000E+00
  6.00000000E+00  5.00000000E+00  0.00000000E+00
  6.00000000E+00  4.00000000E+00  0.00000000E+00
  6.00000000E+00  3.00000000E+00  0.00000000E+00
  6.00000000E+00  2.00000000E+00  0.00000000E+00
  6.00000000E+00  1.00000000E+00  0.00000000E+00
  6.00000000E+00 -2.66453526E-15  0.00000000E+00
  7.00000000E+00  2.40000000E+01  0.00000000E+00
  7.00000000E+00  2.30000000E+01  0.00000000E+00
  7.00000000E+00  2.20000000E+01  0.00000000E+00
  7.00000000E+00  2.10000000E+01  0.00000000E+00
  7.00000000E+00  2.00000000E+01  0.00000000E+00
  7.00000000E+00  1.90000000E+01  0.00000000E+00
  7.00000000E+00  1.80000000E+01  0.00000000E+00
  7.00000000E+00  1.70000000E+01  0.00000000E+00
  7.00000000E+00  1.60000000E+01  0.00000000E+00
  7.00000000E+00  1.50000000E+01  0.00000000E+00
  7.00000000E+00  1.40000000E+01  0.00000000E+00
  7.00000000E+00  1.30000000E+01  0.00000000E+00
  7.00000000E+00  1.20000000E+01  0.00000000E+00
  7.00000000E+00  1.10000000E+01  0.00000000E+00
  7.00000000E+00  1.00000000E+01  0.00000000E+00
  7.00000000E+00  9.00000000E+00  0.00000000E+00
  7.00000000E+00  8.00000000E+00  0.00000000E+00
  7.00000000E+00  7.00000000E+00  0.00000000E+00
  7.00000000E+00  6.00000000E+00  0.00000000E+00
  7.00000000E+00  5.00000000E+00  0.00000000E+00
  7.00000000E+00  4.00000000E+00  0.00000000E+00
  7.00000000E+00  3.00000000E+00  0.00000000E+00
  7.00000000E+00  2.00000000E+00  0.00000000E+00
  7.00000000E+00  1.00000000E+00  0.00000000E+00
  7.00000000E+00 -2.66453526E-15  0.00000000E+00
  8.00000000E+00  2.40000000E+01  0.00000000E+00
  8.00000000E+00  2.30000000E+01  0.00000000E+00
  8.00000000E+00  2.20000000E+01  0.00000000E+00
  8.00000000E+00  2.10000000E+01  0.00000000E+00
  8.00000000E+00  2.00000000E+01  0.00000000E+00
  8.00000000E+00  1.90000000E+01  0.00000000E+00
  8.00000000E+00  1.80000000E+01  0.00000000E+00
  8.00000000E+00  1.70000000E+01  0.00000000E+00
  8.00000000E+00  1.60000000E+01  0.00000000E+00
  8.00000000E+00  1.50000000E+01  0.00000000E+00
  8.00000000E+00  1.40000000E+01  0.00000000E+00
  8.00000000E+00  1.30000000E+01  0.00000000E+00
  8.00000000E+00  1.20000000E+01  0.00000000E+00
  8.00000000E+00  1.10000000E+01  0.00000000E+00
  8.00000000E+00  1.00000000E+01  0.00000000E+00
  8.00000000E+00  9.00000000E+00  0.00000000E+00
  8.00000000E+00  8.00000000E+00  0.00000000E+00
  8.00000000E+00  7.00000000E+00  0.00000000E+00
  8.00000000E+00  6.00000000E+00  0.00000000E+00
  8.00000000E+00  5.00000000E+00  0.00000000E+00
  8.00000000E+00  4.00000000E+00  0.00000000E+00
  8.00000000E+00  3.00000000E+00  0.00000000E+00
  8.00000000E+00  2.00000000E+00  0.00000000E+00
  8.00000000E+00  1.00000000E+00  0.00000000E+00
  8.00000000E+00 -2.66453526E-15  0.00000000E+00
  9.00000000E+00  2.40000000E+01  0.00000000E+00
  9.00000000E+00  2.30000000E+01  0.00000000E+00
  9.00000000E+00  2.20000000E+01  0.00000000E+00
  9.00000000E+00  2.10000000E+01  0.00000000E+00
  9.00000000E+00  2.00000000E+01  0.00000000E+00
  9.00000000E+00  1.90000000E+01  0.00000000E+00
  9.00000000E+00  1.80000000E+01  0.00000000E+00
  9.00000000E+00  1.70000000E+01  0.00000000E+00
  9.00000000E+00  1.60000000E+01  0.00000000E+00
  9.00000000E+00  1.50000000E+01  0.00000000E+00
  9.00000000E+00  1.40000000E+01  0.00000000E+00
  9.00000000E+00  1.30000000E+01  0.00000000E+00
  9.00000000E+00  1.20000000E+01  0.00000000E+00
  9.00000000E+00  1.10000000E+01  0.00000000E+00
  9.00000000E+00  1.00000000E+01  0.00000000E+00
  9.00000000E+00  9.00000000E+00  0.00000000E+00
  9.00000000E+00  8.00000000E+00  0.00000000E+00
  9.00000000E+00  7.00000000E+00  0.00000000E+00
  9.00000000E+00  6.00000000E+00  0.00000000E+00
  9.00000000E+00  5.00000000E+00  0.00000000E+00
  9.00000000E+00  4.00000000E+00  0.00000000E+00
  9.00000000E+00  3.00000000E+00  0.00000000E+00
  9.00000000E+00  2.00000000E+00  0.00000000E+00
  9.00000000E+00  1.00000000E+00  0.00000000E+00
  9.00000000E+00 -2.66453526E-15  0.00000000E+00
  1.00000000E+01  2.40000000E+01  0.00000000E+00
  1.00000000E+01  2.30000000E+01  0.00000000E+00
  1.00000000E+01  2.20000000E+01  0.00000000E+00
  1.00000000E+01  2.10000000E+01  0.00000000E+00
  1.00000000E+01  2.00000000E+01  0.00000000E+00
  1.00000000E+01  1.90000000E+01  0.00000000E+00
  1.00000000E+01  1.80000000E+01  0.00000000E+00
  1.00000000E+01  1.70000000E+01  0.00000000E+00
  1.00000000E+01  1.60000000E+01  0.00000000E+00
  1.00000000E+01  1.50000000E+01  0.00000000E+00
  1.00000000E+01  1.40000000E+01  0.00000000E+00
  1.00000000E+01  1.30000000E+01  0.00000000E+00
  1.00000000E+01  1.20000000E+01  0.00000000E+00
  1.00000000E+01  1.10000000E+01  0.00000000E+00
  1.00000000E+01  1.00000000E+01  0.00000000E+00
  1.00000000E+01  9.00000000E+00  0.00000000E+00
  1.00000000E+01  8.00000000E+00  0.00000000E+00
  1.00000000E+01  7.00000000E+00  0.00000000E+00
  1.00000000E+01  6.00000000E+00  0.00000000E+00
  1.00000000E+01  5.00000000E+00  0.00000000E+00
  1.00000000E+01  4.00000000E+00  0.00000000E+00
  1.00000000E+01  3.00000000E+00  0.00000000E+00
  1.00000000E+01  2.00000000E+00  0.00000000E+00
  1.00000000E+01  1.00000000E+00  0.00000000E+00
  1.00000000E+01 -2.66453526E-15  0.00000000E+00
  1.10000000E+01  2.40000000E+01  0.00000000E+00
  1.10000000E+01  2.30000000E+01  0.00000000E+00
  1.10000000E+01  2.20000000E+01  0.00000000E+00
  1.10000000E+01  2.10000000E+01  0.00000000E+00
  1.10000000E+01  2.00000000E+01  0.00000000E+00
  1.10000000E+01  1.90000000E+01  0.00000000E+00
  1.10000000E+01  1.80000000E+01  0.00000000E+00
  1.10000000E+01  1.70000000E+01  0.00000000E+00
  1.10000000E+01  1.60000000E+01  0.00000000E+00
  1.10000000E+01  1.50000000E+01  0.00000000E+00
  1.10000000E+01  1.40000000E+01  0.00000000E+00
  1.10000000E+01  1.30000000E+01  0.00000000E+00
  1.10000000E+01  1.20000000E+01  0.00000000E+00
  1.10000000E+01  1.10000000E+01  0.00000000E+00
  1.10000000E+01  1.00000000E+01  0.00000000E+00
  1.10000000E+01  9.00000000E+00  0.00000000E+00
  1.10000000E+01  8.00000000E+00  0.00000000E+00
  1.10000000E+01  7.00000000E+00  0.00000000E+00
  1.10000000E+01  6.00000000E+00  0.00000000E+00
  1.10000000E+01  5.00000000E+00  0.00000000E+00
  1.10000000E+01  4.00000000E+00  0.00000000E+00
  1.10000000E+01  3.00000000E+00  0.00000000E+00
  1.10000000E+01  2.00000000E+00  0.00000000E+00
  1.10000000E+01  1.00000000E+00  0.00000000E+00
  1.10000000E+01 -2.66453526E-15  0.00000000E+00
  1.20000000E+01  2.40000000E+01  0.00000000E+00
  1.20000000E+01  2.30000000E+01  0.00000000E+00
  1.20000000E+01  2.20000000E+01  0.00000000E+00
  1.20000000E+01  2.10000000E+01  0.00000000E+00
  1.20000000E+01  2.00000000E+01  0.00000000E+00
  1.20000000E+01  1.90000000E+01  0.00000000E+00
  1.20000000E+01  1.80000000E+01  0.00000000E+00
  1.20000000E+01  1.70000000E+01  0.00000000E+00
  1.20000000E+01  1.60000000E+01  0.00000000E+00
  1.20000000E+01  1.50000000E+01  0.00000000E+00
  1.20000000E+01  1.40000000E+01  0.00000000E+00
  1.20000000E+01  1.30000000E+01  0.00000000E+00
  1.20000000E+01  1.20000000E+01  0.00000000E+00
  1.20000000E+01  1.10000000E+01  0.00000000E+00
  1.20000000E+01  1.00000000E+01  0.00000000E+00
  1.20000000E+01  9.00000000E+00  0.00000000E+00
  1.20000000E+01  8.00000000E+00  0.00000000E+00
  1.20000000E+01  7.00000000E+00  0.00000000E+00
  1.20000000E+01  6.00000000E+00  0.00000000E+00
  1.20000000E+01  5.00000000E+00  0.00000000E+00
  1.20000000E+01  4.00000000E+00  0.00000000E+00
  1.20000000E+01  3.00000000E+00  0.00000000E+00
  1.20000000E+01  2.00000000E+00  0.00000000E+00
  1.20000000E+01  1.00000000E+00  0.00000000E+00
  1.20000000E+01 -2.66453526E-15  0.00000000E+00
  1.30000000E+01  2.40000000E+01  0.00000000E+00
  1.30000000E+01  2.30000000E+01  0.00000000E+00
  1.30000000E+01  2.20000000E+01  0.00000000E+00
  1.30000000E+01  2.10000000E+01  0.00000000E+00
  1.30000000E+01  2.00000000E+01  0.00000000E+00
  1.30000000E+01  1.90000000E+01  0.00000000E+00
  1.30000000E+01  1.80000000E+01  0.00000000E+00
  1.30000000E+01  1.70000000E+01  0.00000000E+00
  1.30000000E+01  1.60000000E+01  0.00000000E+00
  1.30000000E+01  1.50000000E+01  0.00000000E+00
  1.30000000E+01  1.40000000E+01  0.00000000E+00
  1.30000000E+01  1.30000000E+01  0.00000000E+00
  1.30000000E+01  1.20000000E+01  0.00000000E+00
  1.30000000E+01  1.10000000E+01  0.00000000E+00
  1.30000000E+01  1.00000000E+01  0.00000000E+00
  1.30000000E+01  9.00000000E+00  0.00000000E+00
  1.30000000E+01  8.00000000E+00  0.00000000E+00
  1.30000000E+01  7.00000000E+00  0.00000000E+00
  1.30000000E+01  6.00000000E+00  0.00000000E+00
  1.30000000E+01  5.00000000E+00  0.00000000E+00
  1.30000000E+01  4.00000000E+00  0.00000000E+00
  1.30000000E+01  3.00000000E+00  0.00000000E+00
  1.30000000E+01  2.00000000E+00  0.00000000E+00
  1.30000000E+01  1.00000000E+00  0.00000000E+00
  1.30000000E+01 -2.66453526E-15  0.00000000E+00
  1.40000000E+01  2.40000000E+01  0.00000000E+00
  1.40000000E+01  2.30000000E+01  0.00000000E+00
  1.40000000E+01  2.20000000E+01  0.00000000E+00
  1.40000000E+01  2.10000000E+01  0.00000000E+00
  1.40000000E+01  2.00000000E+01  0.00000000E+00
  1.40000000E+01  1.90000000E+01  0.00000000E+00
  1.40000000E+01  1.80000000E+01  0.00000000E+00
  1.40000000E+01  1.70000000E+01  0.00000000E+00
  1.40000000E+01  1.60000000E+01  0.00000000E+00
  1.40000000E+01  1.50000000E+01  0.00000000E+00
  1.40000000E+01  1.40000000E+01  0.00000000E+00
  1.40000000E+01  1.30000000E+01  0.00000000E+00
  1.40000000E+01  1.20000000E+01  0.00000000E+00
  1.40000000E+01  1.10000000E+01  0.00000000E+00
  1.40000000E+01  1.00000000E+01  0.00000000E+00
  1.40000000E+01  9.00000000E+00  0.00000000E+00
  1.40000000E+01  8.00000000E+00  0.00000000E+00
  1.40000000E+01  7.00000000E+00  0.00000000E+00
  1.40000000E+01  6.00000000E+00  0.00000000E+00
  1.40000000E+01  5.00000000E+00  0.00000000E+00
  1.40000000E+01  4.00000000E+00  0.00000000E+00
  1.40000000E+01  3.00000000E+00  0.00000000E+00
  1.40000000E+01  2.00000000E+00  0.00000000E+00
  1.40000000E+01  1.00000000E+00  0.00000000E+00
  1.40000000E+01 -2.66453526E-15  0.00000000E+00
  1.50000000E+01  2.40000000E+01  0.00000000E+00
  1.50000000E+01  2.30000000E+01  0.00000000E+00
  1.50000000E+01  2.20000000E+01  0.00000000E+00
  1.50000000E+01  2.10000000E+01  0.00000000E+00
  1.50000000E+01  2.00000000E+01  0.00000000E+00
  1.50000000E+01  1.90000000E+01  0.00000000E+00
  1.50000000E+01  1.80000000E+01  0.00000000E+00
  1.50000000E+01  1.70000000E+01  0.00000000E+00
  1.50000000E+01  1.60000000E+01  0.00000000E+00
  1.50000000E+01  1.50000000E+01  0.00000000E+00
  1.50000000E+01  1.40000000E+01  0.00000000E+00
  1.50000000E+01  1.30000000E+01  0.00000000E+00
  1.50000000E+01  1.20000000E+01  0.00000000E+00
  1.50000000E+01  1.10000000E+01  0.00000000E+00
  1.50000000E+01  1.00000000E+01  0.00000000E+00
  1.50000000E+01  9.00000000E+00  0.00000000E+00
  1.50000000E+01  8.00000000E+00  0.00000000E+00
  1.50000000E+01  7.00000000E+00  0.00000000E+00
  1.50000000E+01  6.00000000E+00  0.00000000E+00
  1.50000000E+01  5.00000000E+00  0.00000000E+00
  1.50000000E+01  4.00000000E+00  0.00000000E+00
  1.50000000E+01  3.00000000E+00  0.00000000E+00
  1.50000000E+01  2.00000000E+00  0.00000000E+00
  1.50000000E+01  1.00000000E+00  0.00000000E+00
  1.50000000E+01 -2.66453526E-15  0.00000000E+00
  1.60000000E+01  2.40000000E+01  0.00000000E+00
  1.60000000E+01  2.30000000E+01  0.00000000E+00
  1.60000000E+01  2.20000000E+01  0.00000000E+00
  1.60000000E+01  2.10000000E+01  0.00000000E+00
  1.60000000E+01  2.00000000E+01  0.00000000E+00
  1.60000000E+01  1.90000000E+01  0.00000000E+00
  1.60000000E+01  1.80000000E+01  0.00000000E+00
  1.60000000E+01  1.70000000E+01  0.00000000E+00
  1.60000000E+01  1.60000000E+01  0.00000000E+00
  1.60000000E+01  1.50000000E+01  0.00000000E+00
  1.60000000E+01  1.40000000E+01  0.00000000E+00
  1.60000000E+01  1.30000000E+01  0.00000000E+00
  1.60000000E+01  1.20000000E+01  0.00000000E+00
  1.60000000E+01  1.10000000E+01  0.00000000E+00
  1.60000000E+01  1.00000000E+01  0.00000000E+00
  1.60000000E+01  9.00000000E+00  0.00000000E+00
  1.60000000E+01  8.00000000E+00  0.00000000E+00
  1.60000000E+01  7.00000000E+00  0.00000000E+00
  1.60000000E+01  6.00000000E+00  0.00000000E+00
  1.60000000E+01  5.00000000E+00  0.00000000E+00
  1.60000000E+01  4.00000000E+00  0.00000000E+00
  1.60000000E+01  3.00000000E+00  0.00000000E+00
  1.60000000E+01  2.00000000E+00  0.00000000E+00
  1.60000000E+01  1.00000000E+00  0.00000000E+00
  1.60000000E+01 -2.66453526E-15  0.00000000E+00
  1.70000000E+01  2.40000000E+01  0.00000000E+00
  1.70000000E+01  2.30000000E+01  0.00000000E+00
  1.70000000E+01  2.20000000E+01  0.00000000E+00
  1.70000000E+01  2.10000000E+01  0.00000000E+00
  1.70000000E+01  2.00000000E+01  0.00000000E+00
  1.70000000E+01  1.90000000E+01  0.00000000E+00
  1.70000000E+01  1.80000000E+01  0.00000000E+00
  1.70000000E+01  1.70000000E+01  0.00000000E+00
  1.70000000E+01  1.60000000E+01  0.00000000E+00
  1.70000000E+01  1.50000000E+01  0.00000000E+00
  1.70000000E+01  1.40000000E+01  0.00000000E+00
  1.70000000E+01  1.30000000E+01  0.00000000E+00
  1.70000000E+01  1.20000000E+01  0.00000000E+00
  1.70000000E+01  1.10000000E+01  0.00000000E+00
  1.70000000E+01  1.00000000E+01  0.00000000E+00
  1.70000000E+01  9.00000000E+00  0.00000000E+00
  1.70000000E+01  8.00000000E+00  0.00000000E+00
  1.70000000E+01  7.00000000E+00  0.00000000E+00
  1.70000000E+01  6.00000000E+00  0.00000000E+00
  1.70000000E+01  5.00000000E+00  0.00000000E+00
  1.70000000E+01  4.00000000E+00  0.00000000E+00
  1.70000000E+01  3.00000000E+00  0.00000000E+00
  1.70000000E+01  2.00000000E+00  0.00000000E+00
  1.70000000E+01  1.00000000E+00  0.00000000E+00
  1.70000000E+01 -2.66453526E-15  0.00000000E+00
  1.80000000E+01  2.40000000E+01  0.00000000E+00
  1.80000000E+01  2.30000000E+01  0.00000000E+00
  1.80000000E+01  2.20000000E+01  0.00000000E+00
  1.80000000E+01  2.10000000E+01  0.00000000E+00
  1.80000000E+01  2.00000000E+01  0.00000000E+00
  1.80000000E+01  1.90000000E+01  0.00000000E+00
  1.80000000E+01  1.80000000E+01  0.00000000E+00
  1.80000000E+01  1.70000000E+01  0.00000000E+00
  1.80000000E+01  1.60000000E+01  0.00000000E+00
  1.80000000E+01  1.50000000E+01  0.00000000E+00
  1.80000000E+01  1.40000000E+01  0.00000000E+00
  1.80000000E+01  1.30000000E+01  0.00000000E+00
  1.80000000E+01  1.20000000E+01  0.00000000E+00
  1.80000000E+01  1.10000000E+01  0.00000000E+00
  1.80000000E+01  1.00000000E+01  0.00000000E+00
  1.80000000E+01  9.00000000E+00  0.00000000E+00
  1.80000000E+01  8.00000000E+00  0.00000000E+00
  1.80000000E+01  7.00000000E+00  0.00000000E+00
  1.80000000E+01  6.00000000E+00  0.00000000E+00
  1.80000000E+01  5.00000000E+00  0.00000000E+00
  1.80000000E+01  4.00000000E+00  0.00000000E+00
  1.80000000E+01  3.00000000E+00  0.00000000E+00
  1.80000000E+01  2.00000000E+00  0.00000000E+00
  1.80000000E+01  1.00000000E+00  0.00000000E+00
  1.80000000E+01 -2.66453526E-15  0.00000000E+00
  1.90000000E+01  2.40000000E+01  0.00000000E+00
  1.90000000E+01  2.30000000E+01  0.00000000E+00
  1.90000000E+01  2.20000000E+01  0.00000000E+00
  1.90000000E+01  2.10000000E+01  0.00000000E+00
  1.90000000E+01  2.00000000E+01  0.00000000E+00
  1.90000000E+01  1.90000000E+01  0.00000000E+00
  1.90000000E+01  1.80000000E+01  0.00000000E+00
  1.90000000E+01  1.70000000E+01  0.00000000E+00
  1.90000000E+01  1.60000000E+01  0.00000000E+00
  1.90000000E+01  1.50000000E+01  0.00000000E+00
  1.90000000E+01  1.40000000E+01  0.00000000E+00
  1.90000000E+01  1.30000000E+01  0.00000000E+00
  1.90000000E+01  1.20000000E+01  0.00000000E+00
  1.90000000E+01  1.10000000E+01  0.00000000E+00
  1.90000000E+01  1.00000000E+01  0.00000000E+00
  1.90000000E+01  9.00000000E+00  0.00000000E+00
  1.90000000E+01  8.00000000E+00  0.00000000E+00
  1.90000000E+01  7.00000000E+00  0.00000000E+00
  1.90000000E+01  6.00000000E+00  0.00000000E+00
  1.90000000E+01  5.00000000E+00  0.00000000E+00
  1.90000000E+01  4.00000000E+00  0.00000000E+00
  1.90000000E+01  3.00000000E+00  0.00000000E+00
  1.90000000E+01  2.00000000E+00  0.00000000E+00
  1.90000000E+01  1.00000000E+00  0.00000000E+00
  1.90000000E+01 -2.66453526E-15  0.00000000E+00
  2.00000000E+01  2.40000000E+01  0.00000000E+00
  2.00000000E+01  2.30000000E+01  0.00000000E+00
  2.00000000E+01  2.20000000E+01  0.00000000E+00
  2.00000000E+01  2.10000000E+01  0.00000000E+00
  2.00000000E+01  2.00000000E+01  0.00000000E+00
  2.00000000E+01  1.90000000E+01  0.00000000E+00
  2.00000000E+01  1.80000000E+01  0.00000000E+00
  2.00000000E+01  1.70000000E+01  0.00000000E+00
  2.00000000E+01  1.60000000E+01  0.00000000E+00
  2.00000000E+01  1.50000000E+01  0.00000000E+00
  2.00000000E+01  1.40000000E+01  0.00000000E+00
  2.00000000E+01  1.30000000E+01  0.00000000E+00
  2.00000000E+01  1.20000000E+01  0.00000000E+00
  2.00000000E+01  1.10000000E+01  0.00000000E+00
  2.00000000E+01  1.00000000E+01  0.00000000E+00
  2.00000000E+01  9.00000000E+00  0.00000000E+00
  2.00000000E+01  8.00000000E+00  0.00000000E+00
  2.00000000E+01  7.00000000E+00  0.00000000E+00
  2.00000000E+01  6.00000000E+00  0.00000000E+00
  2.00000000E+01  5.00000000E+00  0.00000000E+00
  2.00000000E+01  4.00000000E+00  0.00000000E+00
  2.00000000E+01  3.00000000E+00  0.00000000E+00
  2.00000000E+01  2.00000000E+00  0.00000000E+00
  2.00000000E+01  1.00000000E+00  0.00000000E+00
  2.00000000E+01 -2.66453526E-15  0.00000000E+00
  2.10000000E+01  2.40000000E+01  0.00000000E+00
  2.10000000E+01  2.30000000E+01  0.00000000E+00
  2.10000000E+01  2.20000000E+01  0.00000000E+00
  2.10000000E+01  2.10000000E+01  0.00000000E+00
  2.10000000E+01  2.00000000E+01  0.00000000E+00
  2.10000000E+01  1.90000000E+01  0.00000000E+00
  2.10000000E+01  1.80000000E+01  0.00000000E+00
  2.10000000E+01  1.70000000E+01  0.00000000E+00
  2.10000000E+01  1.60000000E+01  0.00000000E+00
  2.10000000E+01  1.50000000E+01  0.00000000E+00
  2.10000000E+01  1.40000000E+01  0.00000000E+00
  2.10000000E+01  1.30000000E+01  0.00000000E+00
  2.10000000E+01  1.20000000E+01  0.00000000E+00
  2.10000000E+01  1.10000000E+01  0.00000000E+00
  2.10000000E+01  1.00000000E+01  0.00000000E+00
  2.10000000E+01  9.00000000E+00  0.00000000E+00
  2.10000000E+01  8.00000000E+00  0.00000000E+00
  2.10000000E+01  7.00000000E+00  0.00000000E+00
  2.10000000E+01  6.00000000E+00  0.00000000E+00
  2.10000000E+01  5.00000000E+00  0.00000000E+00
  2.10000000E+01  4.00000000E+00  0.00000000E+00
  2.10000000E+01  3.00000000E+00  0.00000000E+00
  2.10000000E+01  2.00000000E+00  0.00000000E+00
  2.10000000E+01  1.00000000E+00  0.00000000E+00
  2.10000000E+01 -2.66453526E-15  0.00000000E+00
  2.20000000E+01  2.40000000E+01  0.00000000E+00
  2.20000000E+01  2.30000000E+01  0.00000000E+00
  2.20000000E+01  2.20000000E+01  0.00000000E+00
  2.20000000E+01  2.10000000E+01  0.00000000E+00
  2.20000000E+01  2.00000000E+01  0.00000000E+00
  2.20000000E+01  1.90000000E+01  0.00000000E+00
  2.20000000E+01  1.80000000E+01  0.00000000E+00
  2.20000000E+01  1.70000000E+01  0.00000000E+00
  2.20000000E+01  1.60000000E+01  0.00000000E+00
  2.20000000E+01  1.50000000E+01  0.00000000E+00
  2.20000000E+01  1.40000000E+01  0.00000000E+00
  2.20000000E+01  1.30000000E+01  0.00000000E+00
  2.20000000E+01  1.20000000E+01  0.00000000E+00
  2.20000000E+01  1.10000000E+01  0.00000000E+00
  2.20000000E+01  1.00000000E+01  0.00000000E+00
  2.20000000E+01  9.00000000E+00  0.00000000E+00
  2.20000000E+01  8.00000000E+00  0.00000000E+00
  2.20000000E+01  7.00000000E+00  0.00000000E+00
  2.20000000E+01  6.00000000E+00  0.00000000E+00
  2.20000000E+01  5.00000000E+00  0.00000000E+00
  2.20000000E+01  4.00000000E+00  0.00000000E+00
  2.20000000E+01  3.00000000E+00  0.00000000E+00
  2.20000000E+01  2.00000000E+00  0.00000000E+00
  2.20000000E+01  1.00000000E+00  0.00000000E+00
  2.20000000E+01 -2.66453526E-15  0.00000000E+00
  2.30000000E+01  2.40000000E+01  0.00000000E+00
  2.30000000E+01  2.30000000E+01  0.00000000E+00
  2.30000000E+01  2.20000000E+01  0.00000000E+00
  2.30000000E+01  2.10000000E+01  0.00000000E+00
  2.30000000E+01  2.00000000E+01  0.00000000E+00
  2.30000000E+01  1.90000000E+01  0.00000000E+00
  2.30000000E+01  1.80000000E+01  0.00000000E+00
  2.30000000E+01  1.70000000E+01  0.00000000E+00
  2.30000000E+01  1.60000000E+01  0.00000000E+00
  2.30000000E+01  1.50000000E+01  0.00000000E+00
  2.30000000E+01  1.40000000E+01  0.00000000E+00
  2.30000000E+01  1.30000000E+01  0.00000000E+00
  2.30000000E+01  1.20000000E+01  0.00000000E+00
  2.30000000E+01  1.10000000E+01  0.00000000E+00
  2.30000000E+01  1.00000000E+01  0.00000000E+00
  2.30000000E+01  9.00000000E+00  0.00000000E+00
  2.30000000E+01  8.00000000E+00  0.00000000E+00
  2.30000000E+01  7.00000000E+00  0.00000000E+00
  2.30000000E+01  6.00000000E+00  0.00000000E+00
  2.30000000E+01  5.00000000E+00  0.00000000E+00
  2.30000000E+01  4.00000000E+00  0.00000000E+00
  2.30000000E+01  3.00000000E+00  0.00000000E+00
  2.30000000E+01  2.00000000E+00  0.00000000E+00
  2.30000000E+01  1.00000000E+00  0.00000000E+00
  2.30000000E+01 -2.66453526E-15  0.00000000E+00
  2.40000000E+01  2.40000000E+01  0.00000000E+00
  2.40000000E+01  2.30000000E+01  0.00000000E+00
  2.40000000E+01  2.20000000E+01  0.00000000E+00
  2.40000000E+01  2.10000000E+01  0.00000000E+00
  2.40000000E+01  2.00000000E+01  0.00000000E+00
  2.40000000E+01  1.90000000E+01  0.00000000E+00
  2.40000000E+01  1.80000000E+01  0.00000000E+00
  2.40000000E+01  1.70000000E+01  0.00000000E+00
  2.40000000E+01  1.60000000E+01  0.00000000E+00
  2.40000000E+01  1.50000000E+01  0.00000000E+00
  2.40000000E+01  1.40000000E+01  0.00000000E+00
  2.40000000E+01  1.30000000E+01  0.00000000E+00
  2.40000000E+01  1.20000000E+01  0.00000000E+00
  2.40000000E+01  1.10000000E+01  0.00000000E+00
  2.40000000E+01  1.00000000E+01  0.00000000E+00
  2.40000000E+01  9.00000000E+00  0.00000000E+00
  2.40000000E+01  8.00000000E+00  0.00000000E+00
  2.40000000E+01  7.00000000E+00  0.00000000E+00
  2.40000000E+01  6.00000000E+00  0.00000000E+00
  2.40000000E+01  5.00000000E+00  0.00000000E+00
  2.40000000E+01  4.00000000E+00  0.00000000E+00
  2.40000000E+01  3.00000000E+00  0.00000000E+00
  2.40000000E+01  2.00000000E+00  0.00000000E+00
  2.40000000E+01  1.00000000E+00  0.00000000E+00
  2.40000000E+01 -2.66453526E-15  0.00000000E+00
  2.50000000E+01  2.40000000E+01  0.00000000E+00
  2.50000000E+01  2.30000000E+01  0.00000000E+00
  2.50000000E+01  2.20000000E+01  0.00000000E+00
  2.50000000E+01  2.10000000E+01  0.00000000E+00
  2.50000000E+01  2.00000000E+01  0.00000000E+00
  2.50000000E+01  1.90000000E+01  0.00000000E+00
  2.50000000E+01  1.80000000E+01  0.00000000E+00
  2.50000000E+01  1.70000000E+01  0.00000000E+00
  2.50000000E+01  1.60000000E+01  0.00000000E+00
  2.50000000E+01  1.50000000E+01  0.00000000E+00
  2.50000000E+01  1.40000000E+01  0.00000000E+00
  2.50000000E+01  1.30000000E+01  0.00000000E+00
  2.50000000E+01  1.20000000E+01  0.00000000E+00
  2.50000000E+01  1.10000000E+01  0.00000000E+00
  2.50000000E+01  1.00000000E+01  0.00000000E+00
  2.50000000E+01  9.00000000E+00  0.00000000E+00
  2.50000000E+01  8.00000000E+00  0.00000000E+00
  2.50000000E+01  7.00000000E+00  0.00000000E+00
  2.50000000E+01  6.00000000E+00  0.00000000E+00
  2.50000000E+01  5.00000000E+00  0.00000000E+00
  2.50000000E+01  4.00000000E+00  0.00000000E+00
  2.50000000E+01  3.00000000E+00  0.00000000E+00
  2.50000000E+01  2.00000000E+00  0.00000000E+00
  2.50000000E+01  1.00000000E+00  0.00000000E+00
  2.50000000E+01 -2.66453526E-15  0.00000000E+00
  2.60000000E+01  2.40000000E+01  0.00000000E+00
  2.60000000E+01  2.30000000E+01  0.00000000E+00
  2.60000000E+01  2.20000000E+01  0.00000000E+00
  2.60000000E+01  2.10000000E+01  0.00000000E+00
  2.60000000E+01  2.00000000E+01  0.00000000E+00
  2.60000000E+01  1.90000000E+01  0.00000000E+00
  2.60000000E+01  1.80000000E+01  0.00000000E+00
  2.60000000E+01  1.70000000E+01  0.00000000E+00
  2.60000000E+01  1.60000000E+01  0.00000000E+00
  2.60000000E+01  1.50000000E+01  0.00000000E+00
  2.60000000E+01  1.40000000E+01  0.00000000E+00
  2.60000000E+01  1.30000000E+01  0.00000000E+00
  2.60000000E+01  1.20000000E+01  0.00000000E+00
  2.60000000E+01  1.10000000E+01  0.00000000E+00
  2.60000000E+01  1.00000000E+01  0.00000000E+00
  2.60000000E+01  9.00000000E+00  0.00000000E+00
  2.60000000E+01  8.00000000E+00  0.00000000E+00
  2.60000000E+01  7.00000000E+00  0.00000000E+00
  2.60000000E+01  6.00000000E+00  0.00000000E+00
  2.60000000E+01  5.00000000E+00  0.00000000E+00
  2.60000000E+01  4.00000000E+00  0.00000000E+00
  2.60000000E+01  3.00000000E+00  0.00000000E+00
  2.60000000E+01  2.00000000E+00  0.00000000E+00
  2.60000000E+01  1.00000000E+00  0.00000000E+00
  2.60000000E+01 -2.66453526E-15  0.00000000E+00
  2.70000000E+01  2.40000000E+01  0.00000000E+00
  2.70000000E+01  2.30000000E+01  0.00000000E+00
  2.70000000E+01  2.20000000E+01  0.00000000E+00
  2.70000000E+01  2.10000000E+01  0.00000000E+00
  2.70000000E+01  2.00000000E+01  0.00000000E+00
  2.70000000E+01  1.90000000E+01  0.00000000E+00
  2.70000000E+01  1.80000000E+01  0.00000000E+00
  2.70000000E+01  1.70000000E+01  0.00000000E+00
  2.70000000E+01  1.60000000E+01  0.00000000E+00
  2.70000000E+01  1.50000000E+01  0.00000000E+00
  2.70000000E+01  1.40000000E+01  0.00000000E+00
  2.70000000E+01  1.30000000E+01  0.00000000E+00
  2.70000000E+01  1.20000000E+01  0.00000000E+00
  2.70000000E+01  1.10000000E+01  0.00000000E+00
  2.70000000E+01  1.00000000E+01  0.00000000E+00
  2.70000000E+01  9.00000000E+00  0.00000000E+00
  2.70000000E+01  8.00000000E+00  0.00000000E+00
  2.70000000E+01  7.00000000E+00  0.00000000E+00
  2.70000000E+01  6.00000000E+00  0.00000000E+00
  2.70000000E+01  5.00000000E+00  0.00000000E+00
  2.70000000E+01  4.00000000E+00  0.00000000E+00
  2.70000000E+01  3.00000000E+00  0.00000000E+00
  2.70000000E+01  2.00000000E+00  0.00000000E+00
  2.70000000E+01  1.00000000E+00  0.00000000E+00
  2.70000000E+01 -2.66453526E-15  0.00000000E+00
  2.80000000E+01  2.40000000E+01  0.00000000E+00
  2.80000000E+01  2.30000000E+01  0.00000000E+00
  2.80000000E+01  2.20000000E+01  0.00000000E+00
  2.80000000E+01  2.10000000E+01  0.00000000E+00
  2.80000000E+01  2.00000000E+01  0.00000000E+00
  2.80000000E+01  1.90000000E+01  0.00000000E+00
  2.80000000E+01  1.80000000E+01  0.00000000E+00
  2.80000000E+01  1.70000000E+01  0.00000000E+00
  2.80000000E+01  1.60000000E+01  0.00000000E+00
  2.80000000E+01  1.50000000E+01  0.00000000E+00
  2.80000000E+01  1.40000000E+01  0.00000000E+00
  2.80000000E+01  1.30000000E+01  0.00000000E+00
  2.80000000E+01  1.20000000E+01  0.00000000E+00
  2.80000000E+01  1.10000000E+01  0.00000000E+00
  2.80000000E+01  1.00000000E+01  0.00000000E+00
  2.80000000E+01  9.00000000E+00  0.00000000E+00
  2.80000000E+01  8.00000000E+00  0.00000000E+00
  2.80000000E+01  7.00000000E+00  0.00000000E+00
  2.80000000E+01  6.00000000E+00  0.00000000E+00
  2.80000000E+01  5.00000000E+00  0.00000000E+00
  2.80000000E+01  4.00000000E+00  0.00000000E+00
  2.80000000E+01  3.00000000E+00  0.00000000E+00
  2.80000000E+01  2.00000000E+00  0.00000000E+00
  2.80000000E+01  1.00000000E+00  0.00000000E+00
  2.80000000E+01 -2.66453526E-15  0.00000000E+00
  2.90000000E+01  2.40000000E+01  0.00000000E+00
  2.90000000E+01  2.30000000E+01  0.00000000E+00
  2.90000000E+01  2.20000000E+01  0.00000000E+00
  2.90000000E+01  2.10000000E+01  0.00000000E+00
  2.90000000E+01  2.00000000E+01  0.00000000E+00
  2.90000000E+01  1.90000000E+01  0.00000000E+00
  2.90000000E+01  1.80000000E+01  0.00000000E+00
  2.90000000E+01  1.70000000E+01  0.00000000E+00
  2.90000000E+01  1.60000000E+01  0.00000000E+00
  2.90000000E+01  1.50000000E+01  0.00000000E+00
  2.90000000E+01  1.40000000E+01  0.00000000E+00
  2.90000000E+01  1.30000000E+01  0.00000000E+00
  2.90000000E+01  1.20000000E+01  0.00000000E+00
  2.90000000E+01  1.10000000E+01  0.00000000E+00
  2.90000000E+01  1.00000000E+01  0.00000000E+00
  2.90000000E+01  9.00000000E+00  0.00000000E+00
  2.90000000E+01  8.00000000E+00  0.00000000E+00
  2.90000000E+01  7.00000000E+00  0.00000000E+00
  2.90000000E+01  6.00000000E+00  0.00000000E+00
  2.90000000E+01  5.00000000E+00  0.00000000E+00
  2.90000000E+01  4.00000000E+00  0.00000000E+00
  2.90000000E+01  3.00000000E+00  0.00000000E+00
  2.90000000E+01  2.00000000E+00  0.00000000E+00
  2.90000000E+01  1.00000000E+00  0.00000000E+00
  2.90000000E+01 -2.66453526E-15  0.00000000E+00
  3.00000000E+01  2.40000000E+01  0.00000000E+00
  3.00000000E+01  2.30000000E+01  0.00000000E+00
  3.00000000E+01  2.20000000E+01  0.00000000E+00
  3.00000000E+01  2.10000000E+01  0.00000000E+00
  3.00000000E+01  2.00000000E+01  0.00000000E+00
  3.00000000E+01  1.90000000E+01  0.00000000E+00
  3.00000000E+01  1.80000000E+01  0.00000000E+00
  3.00000000E+01  1.70000000E+01  0.00000000E+00
  3.00000000E+01  1.60000000E+01  0.00000000E+00
  3.00000000E+01  1.50000000E+01  0.00000000E+00
  3.00000000E+01  1.40000000E+01  0.00000000E+00
  3.00000000E+01  1.30000000E+01  0.00000000E+00
  3.00000000E+01  1.20000000E+01  0.00000000E+00
  3.00000000E+01  1.10000000E+01  0.00000000E+00
  3.00000000E+01  1.00000000E+01  0.00000000E+00
  3.00000000E+01  9.00000000E+00  0.00000000E+00
  3.00000000E+01  8.00000000E+00  0.00000000E+00
  3.00000000E+01  7.00000000E+00  0.00000000E+00
  3.00000000E+01  6.00000000E+00  0.00000000E+00
  3.00000000E+01  5.00000000E+00  0.00000000E+00
  3.00000000E+01  4.00000000E+00  0.00000000E+00
  3.00000000E+01  3.00000000E+00  0.00000000E+00
  3.00000000E+01  2.00000000E+00  0.00000000E+00
  3.00000000E+01  1.00000000E+00  0.00000000E+00
  3.00000000E+01 -2.66453526E-15  0.00000000E+00
  3.10000000E+01  2.40000000E+01  0.00000000E+00
  3.10000000E+01  2.30000000E+01  0.00000000E+00
  3.10000000E+01  2.20000000E+01  0.00000000E+00
  3.10000000E+01  2.10000000E+01  0.00000000E+00
  3.10000000E+01  2.00000000E+01  0.00000000E+00
  3.10000000E+01  1.90000000E+01  0.00000000E+00
  3.10000000E+01  1.80000000E+01  0.00000000E+00
  3.10000000E+01  1.70000000E+01  0.00000000E+00
  3.10000000E+01  1.60000000E+01  0.00000000E+00
  3.10000000E+01  1.50000000E+01  0.00000000E+00
  3.10000000E+01  1.40000000E+01  0.00000000E+00
  3.10000000E+01  1.30000000E+01  0.00000000E+00
  3.10000000E+01  1.20000000E+01  0.00000000E+00
  3.10000000E+01  1.10000000E+01  0.00000000E+00
  3.10000000E+01  1.00000000E+01  0.00000000E+00
  3.10000000E+01  9.00000000E+00  0.00000000E+00
  3.10000000E+01  8.00000000E+00  0.00000000E+00
  3.10000000E+01  7.00000000E+00  0.00000000E+00
  3.10000000E+01  6.00000000E+00  0.00000000E+00
  3.10000000E+01  5.00000000E+00  0.00000000E+00
  3.10000000E+01  4.00000000E+00  0.00000000E+00
  3.10000000E+01  3.00000000E+00  0.00000000E+00
  3.10000000E+01  2.00000000E+00  0.00000000E+00
  3.10000000E+01  1.00000000E+00  0.00000000E+00
  3.10000000E+01 -2.66453526E-15  0.00000000E+00
  3.20000000E+01  2.40000000E+01  0.00000000E+00
  3.20000000E+01  2.30000000E+01  0.00000000E+00
  3.20000000E+01  2.20000000E+01  0.00000000E+00
  3.20000000E+01  2.10000000E+01  0.00000000E+00
  3.20000000E+01  2.00000000E+01  0.00000000E+00
  3.20000000E+01  1.90000000E+01  0.00000000E+00
  3.20000000E+01  1.80000000E+01  0.00000000E+00
  3.20000000E+01  1.70000000E+01  0.00000000E+00
  3.20000000E+01  1.60000000E+01  0.00000000E+00
  3.20000000E+01  1.50000000E+01  0.00000000E+00
  3.20000000E+01  1.40000000E+01  0.00000000E+00
  3.20000000E+01  1.30000000E+01  0.00000000E+00
  3.20000000E+01  1.20000000E+01  0.00000000E+00
  3.20000000E+01  1.10000000E+01  0.00000000E+00
  3.20000000E+01  1.00000000E+01  0.00000000E+00
  3.20000000E+01  9.00000000E+00  0.00000000E+00
  3.20000000E+01  8.00000000E+00  0.00000000E+00
  3.20000000E+01  7.00000000E+00  0.00000000E+00
  3.20000000E+01  6.00000000E+00  0.00000000E+00
  3.20000000E+01  5.00000000E+00  0.00000000E+00
  3.20000000E+01  4.00000000E+00  0.00000000E+00
  3.20000000E+01  3.00000000E+00  0.00000000E+00
  3.20000000E+01  2.00000000E+00  0.00000000E+00
  3.20000000E+01  1.00000000E+00  0.00000000E+00
  3.20000000E+01 -2.66453526E-15  0.00000000E+00
  3.30000000E+01  2.40000000E+01  0.00000000E+00
  3.30000000E+01  2.30000000E+01  0.00000000E+00
  3.30000000E+01  2.20000000E+01  0.00000000E+00
  3.30000000E+01  2.10000000E+01  0.00000000E+00
  3.30000000E+01  2.00000000E+01  0.00000000E+00
  3.30000000E+01  1.90000000E+01  0.00000000E+00
  3.30000000E+01  1.80000000E+01  0.00000000E+00
  3.30000000E+01  1.70000000E+01  0.00000000E+00
  3.30000000E+01  1.60000000E+01  0.00000000E+00
  3.30000000E+01  1.50000000E+01  0.00000000E+00
  3.30000000E+01  1.40000000E+01  0.00000000E+00
  3.30000000E+01  1.30000000E+01  0.00000000E+00
  3.30000000E+01  1.20000000E+01  0.00000000E+00
  3.30000000E+01  1.10000000E+01  0.00000000E+00
  3.30000000E+01  1.00000000E+01  0.00000000E+00
  3.30000000E+01  9.00000000E+00  0.00000000E+00
  3.30000000E+01  8.00000000E+00  0.00000000E+00
  3.30000000E+01  7.00000000E+00  0.00000000E+00
  3.30000000E+01  6.00000000E+00  0.00000000E+00
  3.30000000E+01  5.00000000E+00  0.00000000E+00
  3.30000000E+01  4.00000000E+00  0.00000000E+00
  3.30000000E+01  3.00000000E+00  0.00000000E+00
  3.30000000E+01  2.00000000E+00  0.00000000E+00
  3.30000000E+01  1.00000000E+00  0.00000000E+00
  3.30000000E+01 -2.66453526E-15  0.00000000E+00
  3.40000000E+01  2.40000000E+01  0.00000000E+00
  3.40000000E+01  2.30000000E+01  0.00000000E+00
  3.40000000E+01  2.20000000E+01  0.00000000E+00
  3.40000000E+01  2.10000000E+01  0.00000000E+00
  3.40000000E+01  2.00000000E+01  0.00000000E+00
  3.40000000E+01  1.90000000E+01  0.00000000E+00
  3.40000000E+01  1.80000000E+01  0.00000000E+00
  3.40000000E+01  1.70000000E+01  0.00000000E+00
  3.40000000E+01  1.60000000E+01  0.00000000E+00
  3.40000000E+01  1.50000000E+01  0.00000000E+00
  3.40000000E+01  1.40000000E+01  0.00000000E+00
  3.40000000E+01  1.30000000E+01  0.00000000E+00
  3.40000000E+01  1.20000000E+01  0.00000000E+00
  3.40000000E+01  1.10000000E+01  0.00000000E+00
  3.40000000E+01  1.00000000E+01  0.00000000E+00
  3.40000000E+01  9.00000000E+00  0.00000000E+00
  3.40000000E+01  8.00000000E+00  0.00000000E+00
  3.40000000E+01  7.00000000E+00  0.00000000E+00
  3.40000000E+01  6.00000000E+00  0.00000000E+00
  3.40000000E+01  5.00000000E+00  0.00000000E+00
  3.40000000E+01  4.00000000E+00  0.00000000E+00
  3.40000000E+01  3.00000000E+00  0.00000000E+00
  3.40000000E+01  2.00000000E+00  0.00000000E+00
  3.40000000E+01  1.00000000E+00  0.00000000E+00
  3.40000000E+01 -2.66453526E-15  0.00000000E+00
  3.50000000E+01  2.40000000E+01  0.00000000E+00
  3.50000000E+01  2.30000000E+01  0.00000000E+00
  3.50000000E+01  2.20000000E+01  0.00000000E+00
  3.50000000E+01  2.10000000E+01  0.00000000E+00
  3.50000000E+01  2.00000000E+01  0.00000000E+00
  3.50000000E+01  1.90000000E+01  0.00000000E+00
  3.50000000E+01  1.80000000E+01  0.00000000E+00
  3.50000000E+01  1.70000000E+01  0.00000000E+00
  3.50000000E+01  1.60000000E+01  0.00000000E+00
  3.50000000E+01  1.50000000E+01  0.00000000E+00
  3.50000000E+01  1.40000000E+01  0.00000000E+00
  3.50000000E+01  1.30000000E+01  0.00000000E+00
  3.50000000E+01  1.20000000E+01  0.00000000E+00
  3.50000000E+01  1.10000000E+01  0.00000000E+00
  3.50000000E+01  1.00000000E+01  0.00000000E+00
  3.50000000E+01  9.00000000E+00  0.00000000E+00
  3.50000000E+01  8.00000000E+00  0.00000000E+00
  3.50000000E+01  7.00000000E+00  0.00000000E+00
  3.50000000E+01  6.00000000E+00  0.00000000E+00
  3.50000000E+01  5.00000000E+00  0.00000000E+00
  3.50000000E+01  4.00000000E+00  0.00000000E+00
  3.50000000E+01  3.00000000E+00  0.00000000E+00
  3.50000000E+01  2.00000000E+00  0.00000000E+00
  3.50000000E+01  1.00000000E+00  0.00000000E+00
  3.50000000E+01 -2.66453526E-15  0.00000000E+00
  3.60000000E+01  2.40000000E+01  0.00000000E+00
  3.60000000E+01  2.30000000E+01  0.00000000E+00
  3.60000000E+01  2.20000000E+01  0.00000000E+00
  3.60000000E+01  2.10000000E+01  0.00000000E+00
  3.60000000E+01  2.00000000E+01  0.00000000E+00
  3.60000000E+01  1.90000000E+01  0.00000000E+00
  3.60000000E+01  1.80000000E+01  0.00000000E+00
  3.60000000E+01  1.70000000E+01  0.00000000E+00
  3.60000000E+01  1.60000000E+01  0.00000000E+00
  3.60000000E+01  1.50000000E+01  0.00000000E+00
  3.60000000E+01  1.40000000E+01  0.00000000E+00
  3.60000000E+01  1.30000000E+01  0.00000000E+00
  3.60000000E+01  1.20000000E+01  0.00000000E+00
  3.60000000E+01  1.10000000E+01  0.00000000E+00
  3.60000000E+01  1.00000000E+01  0.00000000E+00
  3.60000000E+01  9.00000000E+00  0.00000000E+00
  3.60000000E+01  8.00000000E+00  0.00000000E+00
  3.60000000E+01  7.00000000E+00  0.00000000E+00
  3.60000000E+01  6.00000000E+00  0.00000000E+00
  3.60000000E+01  5.00000000E+00  0.00000000E+00
  3.60000000E+01  4.00000000E+00  0.00000000E+00
  3.60000000E+01  3.00000000E+00  0.00000000E+00
  3.60000000E+01  2.00000000E+00  0.00000000E+00
  3.60000000E+01  1.00000000E+00  0.00000000E+00
  3.60000000E+01 -2.66453526E-15  0.00000000E+00
  3.70000000E+01  2.40000000E+01  0.00000000E+00
  3.70000000E+01  2.30000000E+01  0.00000000E+00
  3.70000000E+01  2.20000000E+01  0.00000000E+00
  3.70000000E+01  2.10000000E+01  0.00000000E+00
  3.70000000E+01  2.00000000E+01  0.00000000E+00
  3.70000000E+01  1.90000000E+01  0.00000000E+00
  3.70000000E+01  1.80000000E+01  0.00000000E+00
  3.70000000E+01  1.70000000E+01  0.00000000E+00
  3.70000000E+01  1.60000000E+01  0.00000000E+00
  3.70000000E+01  1.50000000E+01  0.00000000E+00
  3.70000000E+01  1.40000000E+01  0.00000000E+00
  3.70000000E+01  1.30000000E+01  0.00000000E+00
  3.70000000E+01  1.20000000E+01  0.00000000E+00
  3.70000000E+01  1.10000000E+01  0.00000000E+00
  3.70000000E+01  1.00000000E+01  0.00000000E+00
  3.70000000E+01  9.00000000E+00  0.00000000E+00
  3.70000000E+01  8.00000000E+00  0.00000000E+00
  3.70000000E+01  7.00000000E+00  0.00000000E+00
  3.70000000E+01  6.00000000E+00  0.00000000E+00
  3.70000000E+01  5.00000000E+00  0.00000000E+00
  3.70000000E+01  4.00000000E+00  0.00000000E+00
  3.70000000E+01  3.00000000E+00  0.00000000E+00
  3.70000000E+01  2.00000000E+00  0.00000000E+00
  3.70000000E+01  1.00000000E+00  0.00000000E+00
  3.70000000E+01 -2.66453526E-15  0.00000000E+00
  3.80000000E+01  2.40000000E+01  0.00000000E+00
  3.80000000E+01  2.30000000E+01  0.00000000E+00
  3.80000000E+01  2.20000000E+01  0.00000000E+00
  3.80000000E+01  2.10000000E+01  0.00000000E+00
  3.80000000E+01  2.00000000E+01  0.00000000E+00
  3.80000000E+01  1.90000000E+01  0.00000000E+00
  3.80000000E+01  1.80000000E+01  0.00000000E+00
  3.80000000E+01  1.70000000E+01  0.00000000E+00
  3.80000000E+01  1.60000000E+01  0.00000000E+00
  3.80000000E+01  1.50000000E+01  0.00000000E+00
  3.80000000E+01  1.40000000E+01  0.00000000E+00
  3.80000000E+01  1.30000000E+01  0.00000000E+00
  3.80000000E+01  1.20000000E+01  0.00000000E+00
  3.80000000E+01  1.10000000E+01  0.00000000E+00
  3.80000000E+01  1.00000000E+01  0.00000000E+00
  3.80000000E+01  9.00000000E+00  0.00000000E+00
  3.80000000E+01  8.00000000E+00  0.00000000E+00
  3.80000000E+01  7.00000000E+00  0.00000000E+00
  3.80000000E+01  6.00000000E+00  0.00000000E+00
  3.80000000E+01  5.00000000E+00  0.00000000E+00
  3.80000000E+01  4.00000000E+00  0.00000000E+00
  3.80000000E+01  3.00000000E+00  0.00000000E+00
  3.80000000E+01  2.00000000E+00  0.00000000E+00
  3.80000000E+01  1.00000000E+00  0.00000000E+00
  3.80000000E+01 -2.66453526E-15  0.00000000E+00
  3.90000000E+01  2.40000000E+01  0.00000000E+00
  3.90000000E+01  2.30000000E+01  0.00000000E+00
  3.90000000E+01  2.20000000E+01  0.00000000E+00
  3.90000000E+01  2.10000000E+01  0.00000000E+00
  3.90000000E+01  2.00000000E+01  0.00000000E+00
  3.90000000E+01  1.90000000E+01  0.00000000E+00
  3.90000000E+01  1.80000000E+01  0.00000000E+00
  3.90000000E+01  1.70000000E+01  0.00000000E+00
  3.90000000E+01  1.60000000E+01  0.00000000E+00
  3.90000000E+01  1.50000000E+01  0.00000000E+00
  3.90000000E+01  1.40000000E+01  0.00000000E+00
  3.90000000E+01  1.30000000E+01  0.00000000E+00
  3.90000000E+01  1.20000000E+01  0.00000000E+00
  3.90000000E+01  1.10000000E+01  0.00000000E+00
  3.90000000E+01  1.00000000E+01  0.00000000E+00
  3.90000000E+01  9.00000000E+00  0.00000000E+00
  3.90000000E+01  8.00000000E+00  0.00000000E+00
  3.90000000E+01  7.00000000E+00  0.00000000E+00
  3.90000000E+01  6.00000000E+00  0.00000000E+00
  3.90000000E+01  5.00000000E+00  0.00000000E+00
  3.90000000E+01  4.00000000E+00  0.00000000E+00
  3.90000000E+01  3.00000000E+00  0.00000000E+00
  3.90000000E+01  2.00000000E+00  0.00000000E+00
  3.90000000E+01  1.00000000E+00  0.00000000E+00
  3.90000000E+01 -2.66453526E-15  0.00000000E+00
  4.00000000E+01  2.40000000E+01  0.00000000E+00
  4.00000000E+01  2.30000000E+01  0.00000000E+00
  4.00000000E+01  2.20000000E+01  0.00000000E+00
  4.00000000E+01  2.10000000E+01  0.00000000E+00
  4.00000000E+01  2.00000000E+01  0.00000000E+00
  4.00000000E+01  1.90000000E+01  0.00000000E+00
  4.00000000E+01  1.80000000E+01  0.00000000E+00
  4.00000000E+01  1.70000000E+01  0.00000000E+00
  4.00000000E+01  1.60000000E+01  0.00000000E+00
  4.00000000E+01  1.50000000E+01  0.00000000E+00
  4.00000000E+01  1.40000000E+01  0.00000000E+00
  4.00000000E+01  1.30000000E+01  0.00000000E+00
  4.00000000E+01  1.20000000E+01  0.00000000E+00
  4.00000000E+01  1.10000000E+01  0.00000000E+00
  4.00000000E+01  1.00000000E+01  0.00000000E+00
  4.00000000E+01  9.00000000E+00  0.00000000E+00
  4.00000000E+01  8.00000000E+00  0.00000000E+00
  4.00000000E+01  7.00000000E+00  0.00000000E+00
  4.00000000E+01  6.00000000E+00  0.00000000E+00
  4.00000000E+01  5.00000000E+00  0.00000000E+00
  4.00000000E+01  4.00000000E+00  0.00000000E+00
  4.00000000E+01  3.00000000E+00  0.00000000E+00
  4.00000000E+01  2.00000000E+00  0.00000000E+00
  4.00000000E+01  1.00000000E+00  0.00000000E+00
  4.00000000E+01 -2.66453526E-15  0.00000000E+00
  4.10000000E+01  2.40000000E+01  0.00000000E+00
  4.10000000E+01  2.30000000E+01  0.00000000E+00
  4.10000000E+01  2.20000000E+01  0.00000000E+00
  4.10000000E+01  2.10000000E+01  0.00000000E+00
  4.10000000E+01  2.00000000E+01  0.00000000E+00
  4.10000000E+01  1.90000000E+01  0.00000000E+00
  4.10000000E+01  1.80000000E+01  0.00000000E+00
  4.10000000E+01  1.70000000E+01  0.00000000E+00
  4.10000000E+01  1.60000000E+01  0.00000000E+00
  4.10000000E+01  1.50000000E+01  0.00000000E+00
  4.10000000E+01  1.40000000E+01  0.00000000E+00
  4.10000000E+01  1.30000000E+01  0.00000000E+00
  4.10000000E+01  1.20000000E+01  0.00000000E+00
  4.10000000E+01  1.10000000E+01  0.00000000E+00
  4.10000000E+01  1.00000000E+01  0.00000000E+00
  4.10000000E+01  9.00000000E+00  0.00000000E+00
  4.10000000E+01  8.00000000E+00  0.00000000E+00
  4.10000000E+01  7.00000000E+00  0.00000000E+00
  4.10000000E+01  6.00000000E+00  0.00000000E+00
  4.10000000E+01  5.00000000E+00  0.00000000E+00
  4.10000000E+01  4.00000000E+00  0.00000000E+00
  4.10000000E+01  3.00000000E+00  0.00000000E+00
  4.10000000E+01  2.00000000E+00  0.00000000E+00
  4.10000000E+01  1.00000000E+00  0.00000000E+00
  4.10000000E+01 -2.66453526E-15  0.00000000E+00
  4.20000000E+01  2.40000000E+01  0.00000000E+00
  4.20000000E+01  2.30000000E+01  0.00000000E+00
  4.20000000E+01  2.20000000E+01  0.00000000E+00
  4.20000000E+01  2.10000000E+01  0.00000000E+00
  4.20000000E+01  2.00000000E+01  0.00000000E+00
  4.20000000E+01  1.90000000E+01  0.00000000E+00
  4.20000000E+01  1.80000000E+01  0.00000000E+00
  4.20000000E+01  1.70000000E+01  0.00000000E+00
  4.20000000E+01  1.60000000E+01  0.00000000E+00
  4.20000000E+01  1.50000000E+01  0.00000000E+00
  4.20000000E+01  1.40000000E+01  0.00000000E+00
  4.20000000E+01  1.30000000E+01  0.00000000E+00
  4.20000000E+01  1.20000000E+01  0.00000000E+00
  4.20000000E+01  1.10000000E+01  0.00000000E+00
  4.20000000E+01  1.00000000E+01  0.00000000E+00
  4.20000000E+01  9.00000000E+00  0.00000000E+00
  4.20000000E+01  8.00000000E+00  0.00000000E+00
  4.20000000E+01  7.00000000E+00  0.00000000E+00
  4.20000000E+01  6.00000000E+00  0.00000000E+00
  4.20000000E+01  5.00000000E+00  0.00000000E+00
  4.20000000E+01  4.00000000E+00  0.00000000E+00
  4.20000000E+01  3.00000000E+00  0.00000000E+00
  4.20000000E+01  2.00000000E+00  0.00000000E+00
  4.20000000E+01  1.00000000E+00  0.00000000E+00
  4.20000000E+01 -2.66453526E-15  0.00000000E+00
  4.30000000E+01  2.40000000E+01  0.00000000E+00
  4.30000000E+01  2.30000000E+01  0.00000000E+00
  4.30000000E+01  2.20000000E+01  0.00000000E+00
  4.30000000E+01  2.10000000E+01  0.00000000E+00
  4.30000000E+01  2.00000000E+01  0.00000000E+00
  4.30000000E+01  1.90000000E+01  0.00000000E+00
  4.30000000E+01  1.80000000E+01  0.00000000E+00
  4.30000000E+01  1.70000000E+01  0.00000000E+00
  4.30000000E+01  1.60000000E+01  0.00000000E+00
  4.30000000E+01  1.50000000E+01  0.00000000E+00
  4.30000000E+01  1.40000000E+01  0.00000000E+00
  4.30000000E+01  1.30000000E+01  0.00000000E+00
  4.30000000E+01  1.20000000E+01  0.00000000E+00
  4.30000000E+01  1.10000000E+01  0.00000000E+00
  4.30000000E+01  1.00000000E+01  0.00000000E+00
  4.30000000E+01  9.00000000E+00  0.00000000E+00
  4.30000000E+01  8.00000000E+00  0.00000000E+00
  4.30000000E+01  7.00000000E+00  0.00000000E+00
  4.30000000E+01  6.00000000E+00  0.00000000E+00
  4.30000000E+01  5.00000000E+00  0.00000000E+00
  4.30000000E+01  4.00000000E+00  0.00000000E+00
  4.30000000E+01  3.00000000E+00  0.00000000E+00
  4.30000000E+01  2.00000000E+00  0.00000000E+00
  4.30000000E+01  1.00000000E+00  0.00000000E+00
  4.30000000E+01 -2.66453526E-15  0.00000000E+00
  4.40000000E+01  2.40000000E+01  0.00000000E+00
  4.40000000E+01  2.30000000E+01  0.00000000E+00
  4.40000000E+01  2.20000000E+01  0.00000000E+00
  4.40000000E+01  2.10000000E+01  0.00000000E+00
  4.40000000E+01  2.00000000E+01  0.00000000E+00
  4.40000000E+01  1.90000000E+01  0.00000000E+00
  4.40000000E+01  1.80000000E+01  0.00000000E+00
  4.40000000E+01  1.70000000E+01  0.00000000E+00
  4.40000000E+01  1.60000000E+01  0.00000000E+00
  4.40000000E+01  1.50000000E+01  0.00000000E+00
  4.40000000E+01  1.40000000E+01  0.00000000E+00
  4.40000000E+01  1.30000000E+01  0.00000000E+00
  4.40000000E+01  1.20000000E+01  0.00000000E+00
  4.40000000E+01  1.10000000E+01  0.00000000E+00
  4.40000000E+01  1.00000000E+01  0.00000000E+00
  4.40000000E+01  9.00000000E+00  0.00000000E+00
  4.40000000E+01  8.00000000E+00  0.00000000E+00
  4.40000000E+01  7.00000000E+00  0.00000000E+00
  4.40000000E+01  6.00000000E+00  0.00000000E+00
  4.40000000E+01  5.00000000E+00  0.00000000E+00
  4.40000000E+01  4.00000000E+00  0.00000000E+00
  4.40000000E+01  3.00000000E+00  0.00000000E+00
  4.40000000E+01  2.00000000E+00  0.00000000E+00
  4.40000000E+01  1.00000000E+00  0.00000000E+00
  4.40000000E+01 -2.66453526E-15  0.00000000E+00
  4.50000000E+01  2.40000000E+01  0.00000000E+00
  4.50000000E+01  2.30000000E+01  0.00000000E+00
  4.50000000E+01  2.20000000E+01  0.00000000E+00
  4.50000000E+01  2.10000000E+01  0.00000000E+00
  4.50000000E+01  2.00000000E+01  0.00000000E+00
  4.50000000E+01  1.90000000E+01  0.00000000E+00
  4.50000000E+01  1.80000000E+01  0.00000000E+00
  4.50000000E+01  1.70000000E+01  0.00000000E+00
  4.50000000E+01  1.60000000E+01  0.00000000E+00
  4.50000000E+01  1.50000000E+01  0.00000000E+00
  4.50000000E+01  1.40000000E+01  0.00000000E+00
  4.50000000E+01  1.30000000E+01  0.00000000E+00
  4.50000000E+01  1.20000000E+01  0.00000000E+00
  4.50000000E+01  1.10000000E+01  0.00000000E+00
  4.50000000E+01  1.00000000E+01  0.00000000E+00
  4.50000000E+01  9.00000000E+00  0.00000000E+00
  4.50000000E+01  8.00000000E+00  0.00000000E+00
  4.50000000E+01  7.00000000E+00  0.00000000E+00
  4.50000000E+01  6.00000000E+00  0.00000000E+00
  4.50000000E+01  5.00000000E+00  0.00000000E+00
  4.50000000E+01  4.00000000E+00  0.00000000E+00
  4.50000000E+01  3.00000000E+00  0.00000000E+00
  4.50000000E+01  2.00000000E+00  0.00000000E+00
  4.50000000E+01  1.00000000E+00  0.00000000E+00
  4.50000000E+01 -2.66453526E-15  0.00000000E+00
  4.60000000E+01  2.40000000E+01  0.00000000E+00
  4.60000000E+01  2.30000000E+01  0.00000000E+00
  4.60000000E+01  2.20000000E+01  0.00000000E+00
  4.60000000E+01  2.10000000E+01  0.00000000E+00
  4.60000000E+01  2.00000000E+01  0.00000000E+00
  4.60000000E+01  1.90000000E+01  0.00000000E+00
  4.60000000E+01  1.80000000E+01  0.00000000E+00
  4.60000000E+01  1.70000000E+01  0.00000000E+00
  4.60000000E+01  1.60000000E+01  0.00000000E+00
  4.60000000E+01  1.50000000E+01  0.00000000E+00
  4.60000000E+01  1.40000000E+01  0.00000000E+00
  4.60000000E+01  1.30000000E+01  0.00000000E+00
  4.60000000E+01  1.20000000E+01  0.00000000E+00
  4.60000000E+01  1.10000000E+01  0.00000000E+00
  4.60000000E+01  1.00000000E+01  0.00000000E+00
  4.60000000E+01  9.00000000E+00  0.00000000E+00
  4.60000000E+01  8.00000000E+00  0.00000000E+00
  4.60000000E+01  7.00000000E+00  0.00000000E+00
  4.60000000E+01  6.00000000E+00  0.00000000E+00
  4.60000000E+01  5.00000000E+00  0.00000000E+00
  4.60000000E+01  4.00000000E+00  0.00000000E+00
  4.60000000E+01  3.00000000E+00  0.00000000E+00
  4.60000000E+01  2.00000000E+00  0.00000000E+00
  4.60000000E+01  1.00000000E+00  0.00000000E+00
  4.60000000E+01 -2.66453526E-15  0.00000000E+00
  4.70000000E+01  2.40000000E+01  0.00000000E+00
  4.70000000E+01  2.30000000E+01  0.00000000E+00
  4.70000000E+01  2.20000000E+01  0.00000000E+00
  4.70000000E+01  2.10000000E+01  0.00000000E+00
  4.70000000E+01  2.00000000E+01  0.00000000E+00
  4.70000000E+01  1.90000000E+01  0.00000000E+00
  4.70000000E+01  1.80000000E+01  0.00000000E+00
  4.70000000E+01  1.70000000E+01  0.00000000E+00
  4.70000000E+01  1.60000000E+01  0.00000000E+00
  4.70000000E+01  1.50000000E+01  0.00000000E+00
  4.70000000E+01  1.40000000E+01  0.00000000E+00
  4.70000000E+01  1.30000000E+01  0.00000000E+00
  4.70000000E+01  1.20000000E+01  0.00000000E+00
  4.70000000E+01  1.10000000E+01  0.00000000E+00
  4.70000000E+01  1.00000000E+01  0.00000000E+00
  4.70000000E+01  9.00000000E+00  0.00000000E+00
  4.70000000E+01  8.00000000E+00  0.00000000E+00
  4.70000000E+01  7.00000000E+00  0.00000000E+00
  4.70000000E+01  6.00000000E+00  0.00000000E+00
  4.70000000E+01  5.00000000E+00  0.00000000E+00
  4.70000000E+01  4.00000000E+00  0.00000000E+00
  4.70000000E+01  3.00000000E+00  0.00000000E+00
  4.70000000E+01  2.00000000E+00  0.00000000E+00
  4.70000000E+01  1.00000000E+00  0.00000000E+00
  4.70000000E+01 -2.66453526E-15  0.00000000E+00
  4.80000000E+01  2.40000000E+01  0.00000000E+00
  4.80000000E+01  2.30000000E+01  0.00000000E+00
  4.80000000E+01  2.20000000E+01  0.00000000E+00
  4.80000000E+01  2.10000000E+01  0.00000000E+00
  4.80000000E+01  2.00000000E+01  0.00000000E+00
  4.80000000E+01  1.90000000E+01  0.00000000E+00
  4.80000000E+01  1.80000000E+01  0.00000000E+00
  4.80000000E+01  1.70000000E+01  0.00000000E+00
  4.80000000E+01  1.60000000E+01  0.00000000E+00
  4.80000000E+01  1.50000000E+01  0.00000000E+00
  4.80000000E+01  1.40000000E+01  0.00000000E+00
  4.80000000E+01  1.30000000E+01  0.00000000E+00
  4.80000000E+01  1.20000000E+01  0.00000000E+00
  4.80000000E+01  1.10000000E+01  0.00000000E+00
  4.80000000E+01  1.00000000E+01  0.00000000E+00
  4.80000000E+01  9.00000000E+00  0.00000000E+00
  4.80000000E+01  8.00000000E+00  0.00000000E+00
  4.80000000E+01  7.00000000E+00  0.00000000E+00
  4.80000000E+01  6.00000000E+00  0.00000000E+00
  4.80000000E+01  5.00000000E+00  0.00000000E+00
  4.80000000E+01  4.00000000E+00  0.00000000E+00
  4.80000000E+01  3.00000000E+00  0.00000000E+00
  4.80000000E+01  2.00000000E+00  0.00000000E+00
  4.80000000E+01  1.00000000E+00  0.00000000E+00
  4.80000000E+01 -2.66453526E-15  0.00000000E+00
CELLS      1152      5760
         4           0           1          26          25
         4           1           2          27          26
         4           2           3          28          27
         4           3           4          29          28
         4           4           5          30          29
         4           5           6          31          30
         4           6           7          32          31
         4           7           8          33          32
         4           8           9          34          33
         4           9          10          35          34
         4          10          11          36          35
         4          11          12          37          36
         4          12          13          38          37
         4          13          14          39          38
         4          14          15          40          39
         4          15          16          41          40
         4          16          17          42          41
         4          17          18          43          42
         4          18          19          44          43
         4          19          20          45          44
         4          20          21          46          45
         4          21          22          47          46
         4          22          23          48          47
         4          23          24          49          48
         4          25          26          51          50
         4          26          27          52          51
         4          27          28          53          52
         4          28          29          54          53
         4          29          30          55          54
         4          30          31          56          55
         4          31          32          57          56
         4          32          33          58          57
         4          33          34          59          58
         4          34          35          60          59
         4          35          36          61          60
         4          36          37          62          61
         4          37          38          63          62
         4          38          39          64          63
         4          39          40          65          64
         4          40          41          66          65
         4          41          42          67          66
         4          42          43          68          67
         4          43          44          69          68
         4          44          45          70          69
         4          45          46          71          70
         4          46          47          72          71
         4          47          48          73          72
         4          48          49          74          73
         4          50          51          76          75
         4          51          52          77          76
         4          52          53          78          77
         4          53          54          79          78
         4          54          55          80          79
         4          55          56          81          80
         4          56          57          82          81
         4          57          58          83          82
         4          58          59          84          83
         4          59          60          85          84
         4          60          61          86          85
         4          61          62          87          86
         4          62          63          88          87
         4          63          64          89          88
         4          64          65          90          89
         4          65          66          91          90
         4          66          67          92          91
         4          67          68          93          92
         4          68          69          94          93
         4          69          70          95          94
         4          70          71          96          95
         4          71          72          97          96
         4          72          73          98          97
         4          73          74          99          98
         4          75          76         101         100
         4          76          77         102         101
         4          77          78         103         102
         4          78          79         104         103
         4          79          80         105         104
         4          80          81         106         105
         4          81          82         107         106
         4          82          83         108         107
         4          83          84         109         108
         4          84          85         110         109
         4          85          86         111         110
         4          86          87         112         111
         4          87          88         113         112
         4          88          89         114         113
         4          89          90         115         114
         4          90          91         116         115
         4          91          92         117         116
         4          92          93         118         117
         4          93          94         119         118
         4          94          95         120         119
         4          95          96         121         120
         4          96          97         122         121
         4          97          98         123         122
         4          98          99         124         123
         4         100         101         126         125
         4         101         102         127         126
         4         102         103         128         127
         4         103         104         129         128
         4         104         105         130         129
         4         105         106         131         130
         4         106         107         132         131
         4         107         108         133         132
         4         108         109         134         133
         4         109         110         135         134
         4         110         111         136         135
         4         111         112         137         136
         4         112         113         138         137
         4         113         114         139         138
         4         114         115         140         139
         4         115         116         141         140
         4         116         117         142         141
         4         117         118         143         142
         4         118         119         144         143
         4         119         120         145         144
         4         120         121         146         145
         4         121         122         147         146
         4         122         123         148         147
         4         123         124         149         148
         4         125         126         151         150
         4         126         127         152         151
         4         127         128         153         152
         4         128         129         154         153
         4         129         130         155         154
         4         130         131         156         155
         4         131         132         157         156
         4         132         133         158         157
         4         133         134         159         158
         4         134         135         160         159
         4         135         136         161         160
         4         136         137         162         161
         4         137         138         163         162
         4         138         139         164         163
         4         139         140         165         164
         4         140         141         166         165
         4         141         142         167         166
         4         142         143         168         167
         4         143         144         169         168
         4         144         145         170         169
         4         145         146         171         170
         4         146         147         172         171
         4         147         148         173         172
         4         148         149         174         173
         4         150         151         176         175
         4         151         152         177         176
         4         152         153         178         177
         4         153         154         179         178
         4         154         155         180         179
         4         155         156         181         180
         4         156         157         182         181
         4         157         158         183         182
         4         158         159         184         183
         4         159         160         185         184
         4         160         161         186         185
         4         161         162         187         186
         4         162         163         188         187
         4         163         164         189         188
         4         164         165         190         189
         4         165         166         191         190
         4         166         167         192         191
         4         167         168         193         192
         4         168         169         194         193
         4         169         170         195         194
         4         170         171         196         195
         4         171         172         197         196
         4         172         173         198         197
         4         173         174         199         198
         4         175         176         201         200
         4         176         177         202         201
         4         177         178         203         202
         4         178         179         204         203
         4         179         180         205         204
         4         180         181         206         205
         4         181         182         207         206
         4         182         183         208         207
         4         183         184         209         208
         4         184         185         210         209
         4         185         186         211         210
         4         186         187         212         211
         4         187         188         213         212
         4         188         189         214         213
         4         189         190         215         214
         4         190         191         216         215
         4         191         192         217         216
         4         192         193         218         217
         4         193         194         219         218
         4         194         195         220         219
         4         195         196         221         220
         4         196         197         222         221
         4         197         198         223         222
         4         198         199         224         223
         4         200         201         226         225
         4         201         202         227         226
         4         202         203         228         227
         4         203         204         229         228
         4         204         205         230         229
         4         205         206         231         230
         4         206         207         232         231
         4         207         208         233         232
         4         208         209         234         233
         4         209         210         235         234
         4         210         211         236         235
         4         211         212         237         236
         4         212         213         238         237
         4         213         214         239         238
         4         214         215         240         239
         4         215         216         241         240
         4         216         217         242         241
         4         217         218         243         242
         4         218         219         244         243
         4         219         220         245         244
         4         220         221         246         245
         4         221         222         247         246
         4         222         223         248         247
         4         223         224         249         248
         4         225         226         251         250
         4         226         227         252         251
         4         227         228         253         252
         4         228         229         254         253
         4         229         230         255         254
         4         230         231         256         255
         4         231         232         257         256
         4         232         233         258         257
         4         233         234         259         258
         4         234         235         260         259
         4         235         236         261         260
         4         236         237         262         261
         4         237         238         263         262
         4         238         239         264         263
         4         239         240         265         264
         4         240         241         266         265
         4         241         242         267         266
         4         242         243         268         267
         4         243         244         269         268
         4         244         245         270         269
         4         245         246         271         270
         4         246         247         272         271
         4         247         248         273         272
         4         248         249         274         273
         4         250         251         276         275
         4         251         252         277         276
         4         252         253         278         277
         4         253         254         279         278
         4         254         255         280         279
         4         255         256         281         280
         4         256         257         282         281
         4         257         258         283         282
         4         258         259         284         283
         4         259         260         285         284
         4         260         261         286         285
         4         261         262         287         286
         4         262         263         288         287
         4         263         264         289         288
         4         264         265         290         289
         4         265         266         291         290
         4         266         267         292         291
         4         267         268         293         292
         4         268         269         294         293
         4         269         270         295         294
         4         270         271         296         295
         4         271         272         297         296
         4         272         273         298         297
         4         273         274         299         298
         4         275         276         301         300
         4         276         277         302         301
         4         277         278         303         302
         4         278         279         304         303
         4         279         280         305         304
         4         280         281         306         305
         4         281         282         307         306
         4         282         283         308         307
         4         283         284         309         308
         4         284         285         310         309
         4         285         286         311         310
         4         286         287         312         311
         4         287         288         313         312
         4         288         289         314         313
         4         289         290         315         314
         4         290         291         316         315
         4         291         292         317         316
         4         292         293         318         317
         4         293         294         319         318
         4         294         295         320         319
         4         295         296         321         320
         4         296         297         322         321
         4         297         298         323         322
         4         298         299         324         323
         4         300         301         326         325
         4         301         302         327         326
         4         302         303         328         327
         4         303         304         329         328
         4         304         305         330         329
         4         305         306         331         330
         4         306         307         332         331
         4         307         308         333         332
         4         308         309         334         333
         4         309         310         335         334
         4         310         311         336         335
         4         311         312         337         336
         4         312         313         338         337
         4         313         314         339         338
         4         314         315         340         339
         4         315         316         341         340
         4         316         317         342         341
         4         317         318         343         342
         4         318         319         344         343
         4         319         320         345         344
         4         320         321         346         345
         4         321         322         347         346
         4         322         323         348         347
         4         323         324         349         348
         4         325         326         351         350
         4         326         327         352         351
         4         327         328         353         352
         4         328         329         354         353
         4         329         330         355         354
         4         330         331         356         355
         4         331         332         357         356
         4         332         333         358         357
         4         333         334         359         358
         4         334         335         360         359
         4         335         336         361         360
         4         336         337         362         361
         4         337         338         363         362
         4         338         339         364         363
         4         339         340         365         364
         4         340         341         366         365
         4         341         342         367         366
         4         342         343         368         367
         4         343         344         369         368
         4         344         345         370         369
         4         345         346         371         370
         4         346         347         372         371
         4         347         348         373         372
         4         348         349         374         373
         4         350         351         376         375
         4         351         352         377         376
         4         352         353         378         377
         4         353         354         379         378
         4         354         355         380         379
         4         355         356         381         380
         4         356         357         382         381
         4         357         358         383         382
         4         358         359         384         383
         4         359         360         385         384
         4         360         361         386         385
         4         361         362         387         386
         4         362         363         388         387
         4         363         364         389         388
         4         364         365         390         389
         4         365         366         391         390
         4         366         367         392         391
         4         367         368         393         392
         4         368         369         394         393
         4         369         370         395         394
         4         370         371         396         395
         4         371         372         397         396
         4         372         373         398         397
         4         373         374         399         398
         4         375         376         401         400
         4         376         377         402         401
         4         377         378         403         402
         4         378         379         404         403
         4         379         380         405         404
         4         380         381         406         405
         4         381         382         407         406
         4         382         383         408         407
         4         383         384         409         408
         4         384         385         410         409
         4         385         386         411         410
         4         386         387         412         411
         4         387         388         413         412
         4         388         389         414         413
         4         389         390         415         414
         4         390         391         416         415
         4         391         392         417         416
         4         392         393         418         417
         4         393         394         419         418
         4         394         395         420         419
         4         395         396         421         420
         4         396         397         422         421
         4         397         398         423         422
         4         398         399         424         423
         4         400         401         426         425
         4         401         402         427         426
         4         402         403         428         427
         4         403         404         429         428
         4         404         405         430         429
         4         405         406         431         430
         4         406         407         432         431
         4         407         408         433         432
         4         408         409         434         433
         4         409         410         435         434
         4         410         411         436         435
         4         411         412         437         436
         4         412         413         438         437
         4         413         414         439         438
         4         414         415         440         439
         4         415         416         441         440
         4         416         417         442         441
         4         417         418         443         442
         4         418         419         444         443
         4         419         420         445         444
         4         420         421         446         445
         4         421         422         447         446
         4         422         423         448         447
         4         423         424         449         448
         4         425         426         451         450
         4         426         427         452         451
         4         427         428         453         452
         4         428         429         454         453
         4         429         430         455         454
         4         430         431         456         455
         4         431         432         457         456
         4         432         433         458         457
         4         433         434         459         458
         4         434         435         460         459
         4         435         436         461         460
         4         436         437         462         461
         4         437         438         463         462
         4         438         439         464         463
         4         439         440         465         464
         4         440         441         466         465
         4         441         442         467         466
         4         442         443         468         467
         4         443         444         469         468
         4         444         445         470         469
         4         445         446         471         470
         4         446         447         472         471
         4         447         448         473         472
         4         448         449         474         473
         4         450         451         476         475
         4         451         452         477         476
         4         452         453         478         477
         4         453         454         479         478
         4         454         455         480         479
         4         455         456         481         480
         4         456         457         482         481
         4         457         458         483         482
         4         458         459         484         483
         4         459         460         485         484
         4         460         461         486         485
         4         461         462         487         486
         4         462         463         488         487
         4         463         464         489         488
         4         464         465         490         489
         4         465         466         491         490
         4         466         467         492         491
         4         467         468         493         492
         4         468         469         494         493
         4         469         470         495         494
         4         470         471         496         495
         4         471         472         497         496
         4         472         473         498         497
         4         473         474         499         498
         4         475         476         501         500
         4         476         477         502         501
         4         477         478         503         502
         4         478         479         504         503
         4         479         480         505         504
         4         480         481         506         505
         4         481         482         507         506
         4         482         483         508         507
         4         483         484         509         508
         4         484         485         510         509
         4         485         486         511         510
         4         486         487         512         511
         4         487         488         513         512
         4         488         489         514         513
         4         489         490         515         514
         4         490         491         516         515
         4         491         492         517         516
         4         492         493         518         517
         4         493         494         519         518
         4         494         495         520         519
         4         495         496         521         520
         4         496         497         522         521
         4         497         498         523         522
         4         498         499         524         523
         4         500         501         526         525
         4         501         502         527         526
         4         502         503         528         527
         4         503         504         529         528
         4         504         505         530         529
         4         505         506         531         530
         4         506         507         532         531
         4         507         508         533         532
         4         508         509         534         533
         4         509         510         535         534
         4         510         511         536         535
         4         511         512         537         536
         4         512         513         538         537
         4         513         514         539         538
         4         514         515         540         539
         4         515         516         541         540
         4         516         517         542         541
         4         517         518         543         542
         4         518         519         544         543
         4         519         520         545         544
         4         520         521         546         545
         4         521         522         547         546
         4         522         523         548         547
         4         523         524         549         548
         4         525         526         551         550
         4         526         527         552         551
         4         527         528         553         552
         4         528         529         554         553
         4         529         530         555         554
         4         530         531         556         555
         4         531         532         557         556
         4         532         533         558         557
         4         533         534         559         558
         4         534         535         560         559
         4         535         536         561         560
         4         536         537         562         561
         4         537         538         563         562
         4         538         539         564         563
         4         539         540         565         564
         4         540         541         566         565
         4         541         542         567         566
         4         542         543         568         567
         4         543         544         569         568
         4         544         545         570         569
         4         545         546         571         570
         4         546         547         572         571
         4         547         548         573         572
         4         548         549         574         573
         4         550         551         576         575
         4         551         552         577         576
         4         552         553         578         577
         4         553         554         579         578
         4         554         555         580         579
         4         555         556         581         580
         4         556         557         582         581
         4         557         558         583         582
         4         558         559         584         583
         4         559         560         585         584
         4         560         561         586         585
         4         561         562         587         586
         4         562         563         588         587
         4         563         564         589         588
         4         564         565         590         589
         4         565         566         591         590
         4         566         567         592         591
         4         567         568         593         592
         4         568         569         594         593
         4         569         570         595         594
         4         570         571         596         595
         4         571         572         597         596
         4         572         573         598         597
         4         573         574         599         598
         4         575         576         601         600
         4         576         577         602         601
         4         577         578         603         602
         4         578         579         604         603
         4         579         580         605         604
         4         580         581         606         605
         4         581         582         607         606
         4         582         583         608         607
         4         583         584         609         608
         4         584         585         610         609
         4         585         586         611         610
         4         586         587         612         611
         4         587         588         613         612
         4         588         589         614         613
         4         589         590         615         614
         4         590         591         616         615
         4         591         592         617         616
         4         592         593         618         617
         4         593         594         619         618
         4         594         595         620         619
         4         595         596         621         620
         4         596         597         622         621
         4         597         598         623         622
         4         598         599         624         623
         4         600         601         626         625
         4         601         602         627         626
         4         602         603         628         627
         4         603         604         629         628
         4         604         605         630         629
         4         605         606         631         630
         4         606         607         632         631
         4         607         608         633         632
         4         608         609         634         633
         4         609         610         635         634
         4         610         611         636         635
         4         611         612         637         636
         4         612         613         638         637
         4         613         614         639         638
         4         614         615         640         639
         4         615         616         641         640
         4         616         617         642         641
         4         617         618         643         642
         4         618         619         644         643
         4         619         620         645         644
         4         620         621         646         645
         4         621         622         647         646
         4         622         623         648         647
         4         623         624         649         648
         4         625         626         651         650
         4         626         627         652         651
         4         627         628         653         652
         4         628         629         654         653
         4         629         630         655         654
         4         630         631         656         655
         4         631         632         657         656
         4         632         633         658         657
         4         633         634         659         658
         4         634         635         660         659
         4         635         636         661         660
         4         636         637         662         661
         4         637         638         663         662
         4         638         639         664         663
         4         639         640         665         664
         4         640         641         666         665
         4         641         642         667         666
         4         642         643         668         667
         4         643         644         669         668
         4         644         645         670         669
         4         645         646         671         670
         4         646         647         672         671
         4         647         648         673         672
         4         648         649         674         673
         4         650         651         676         675
         4         651         652         677         676
         4         652         653         678         677
         4         653         654         679         678
         4         654         655         680         679
         4         655         656         681         680
         4         656         657         682         681
         4         657         658         683         682
         4         658         659         684         683
         4         659         660         685         684
         4         660         661         686         685
         4         661         662         687         686
         4         662         663         688         687
         4         663         664         689         688
         4         664         665         690         689
         4         665         666         691         690
         4         666         667         692         691
         4         667         668         693         692
         4         668         669         694         693
         4         669         670         695         694
         4         670         671         696         695
         4         671         672         697         696
         4         672         673         698         697
         4         673         674         699         698
         4         675         676         701         700
         4         676         677         702         701
         4         677         678         703         702
         4         678         679         704         703
         4         679         680         705         704
         4         680         681         706         705
         4         681         682         707         706
         4         682         683         708         707
         4         683         684         709         708
         4         684         685         710         709
         4         685         686         711         710
         4         686         687         712         711
         4         687         688         713         712
         4         688         689         714         713
         4         689         690         715         714
         4         690         691         716         715
         4         691         692         717         716
         4         692         693         718         717
         4         693         694         719         718
         4         694         695         720         719
         4         695         696         721         720
         4         696         697         722         721
         4         697         698         723         722
         4         698         699         724         723
         4         700         701         726         725
         4         701         702         727         726
         4         702         703         728         727
         4         703         704         729         728
         4         704         705         730         729
         4         705         706         731         730
         4         706         707         732         731
         4         707         708         733         732
         4         708         709         734         733
         4         709         710         735         734
         4         710         711         736         735
         4         711         712         737         736
         4         712         713         738         737
         4         713         714         739         738
         4         714         715         740         739
         4         715         716         741         740
         4         716         717         742         741
         4         717         718         743         742
         4         718         719         744         743
         4         719         720         745         744
         4         720         721         746         745
         4         721         722         747         746
         4         722         723         748         747
         4         723         724         749         748
         4         725         726         751         750
         4         726         727         752         751
         4         727         728         753         752
         4         728         729         754         753
         4         729         730         755         754
         4         730         731         756         755
         4         731         732         757         756
         4         732         733         758         757
         4         733         734         759         758
         4         734         735         760         759
         4         735         736         761         760
         4         736         737         762         761
         4         737         738         763         762
         4         738         739         764         763
         4         739         740         765         764
         4         740         741         766         765
         4         741         742         767         766
         4         742         743         768         767
         4         743         744         769         768
         4         744         745         770         769
         4         745         746         771         770
         4         746         747         772         771
         4         747         748         773         772
         4         748         749         774         773
         4         750         751         776         775
         4         751         752         777         776
         4         752         753         778         777
         4         753         754         779         778
         4         754         755         780         779
         4         755         756         781         780
         4         756         757         782         781
         4         757         758         783         782
         4         758         759         784         783
         4         759         760         785         784
         4         760         761         786         785
         4         761         762         787         786
         4         762         763         788         787
         4         763         764         789         788
         4         764         765         790         789
         4         765         766         791         790
         4         766         767         792         791
         4         767         768         793         792
         4         768         769         794         793
         4         769         770         795         794
         4         770         771         796         795
         4         771         772         797         796
         4         772         773         798         797
         4         773         774         799         798
         4         775         776         801         800
         4         776         777         802         801
         4         777         778         803         802
         4         778         779         804         803
         4         779         780         805         804
         4         780         781         806         805
         4         781         782         807         806
         4         782         783         808         807
         4         783         784         809         808
         4         784         785         810         809
         4         785         786         811         810
         4         786         787         812         811
         4         787         788         813         812
         4         788         789         814         813
         4         789         790         815         814
         4         790         791         816         815
         4         791         792         817         816
         4         792         793         818         817
         4         793         794         819         818
         4         794         795         820         819
         4         795         796         821         820
         4         796         797         822         821
         4         797         798         823         822
         4         798         799         824         823
         4         800         801         826         825
         4         801         802         827         826
         4         802         803         828         827
         4         803         804         829         828
         4         804         805         830         829
         4         805         806         831         830
         4         806         807         832         831
         4         807         808         833         832
         4         808         809         834         833
         4         809         810         835         834
         4         810         811         836         835
         4         811         812         837         836
         4         812         813         838         837
         4         813         814         839         838
         4         814         815         840         839
         4         815         816         841         840
         4         816         817         842         841
         4         817         818         843         842
         4         818         819         844         843
         4         819         820         845         844
         4         820         821         846         845
         4         821         822         847         846
         4         822         823         848         847
         4         823         824         849         848
         4         825         826         851         850
         4         826         827         852         851
         4         827         828         853         852
         4         828         829         854         853
         4         829         830         855         854
         4         830         831         856         855
         4         831         832         857         856
         4         832         833         858         857
         4         833         834         859         858
         4         834         835         860         859
         4         835         836         861         860
         4         836         837         862         861
         4         837         838         863         862
         4         838         839         864         863
         4         839         840         865         864
         4         840         841         866         865
         4         841         842         867         866
         4         842         843         868         867
         4         843         844         869         868
         4         844         845         870         869
         4         845         846         871         870
         4         846         847         872         871
         4         847         848         873         872
         4         848         849         874         873
         4         850         851         876         875
         4         851         852         877         876
         4         852         853         878         877
         4         853         854         879         878
         4         854         855         880         879
         4         855         856         881         880
         4         856         857         882         881
         4         857         858         883         882
         4         858         859         884         883
         4         859         860         885         884
         4         860         861         886         885
         4         861         862         887         886
         4         862         863         888         887
         4         863         864         889         888
         4         864         865         890         889
         4         865         866         891         890
         4         866         867         892         891
         4         867         868         893         892
         4         868         869         894         893
         4         869         870         895         894
         4         870         871         896         895
         4         871         872         897         896
         4         872         873         898         897
         4         873         874         899         898
         4         875         876         901         900
         4         876         877         902         901
         4         877         878         903         902
         4         878         879         904         903
         4         879         880         905         904
         4         880         881         906         905
         4         881         882         907         906
         4         882         883         908         907
         4         883         884         909         908
         4         884         885         910         909
         4         885         886         911         910
         4         886         887         912         911
         4         887         888         913         912
         4         888         889         914         913
         4         889         890         915         914
         4         890         891         916         915
         4         891         892         917         916
         4         892         893         918         917
         4         893         894         919         918
         4         894         895         920         919
         4         895         896         921         920
         4         896         897         922         921
         4         897         898         923         922
         4         898         899         924         923
         4         900         901         926         925
         4         901         902         927         926
         4         902         903         928         927
         4         903         904         929         928
         4         904         905         930         929
         4         905         906         931         930
         4         906         907         932         931
         4         907         908         933         932
         4         908         909         934         933
         4         909         910         935         934
         4         910         911         936         935
         4         911         912         937         936
         4         912         913         938         937
         4         913         914         939         938
         4         914         915         940         939
         4         915         916         941         940
         4         916         917         942         941
         4         917         918         943         942
         4         918         919         944         943
         4         919         920         945         944
         4         920         921         946         945
         4         921         922         947         946
         4         922         923         948         947
         4         923         924         949         948
         4         925         926         951         950
         4         926         927         952         951
         4         927         928         953         952
         4         928         929         954         953
         4         929         930         955         954
         4         930         931         956         955
         4         931         932         957         956
         4         932         933         958         957
         4         933         934         959         958
         4         934         935         960         959
         4         935         936         961         960
         4         936         937         962         961
         4         937         938         963         962
         4         938         939         964         963
         4         939         940         965         964
         4         940         941         966         965
         4         941         942         967         966
         4         942         943         968         967
         4         943         944         969         968
         4         944         945         970         969
         4         945         946         971         970
         4         946         947         972         971
         4         947         948         973         972
         4         948         949         974         973
         4         950         951         976         975
         4         951         952         977         976
         4         952         953         978         977
         4         953         954         979         978
         4         954         955         980         979
         4         955         956         981         980
         4         956         957         982         981
         4         957         958         983         982
         4         958         959         984         983
         4         959         960         985         984
         4         960         961         986         985
         4         961         962         987         986
         4         962         963         988         987
         4         963         964         989         988
         4         964         965         990         989
         4         965         966         991         990
         4         966         967         992         991
         4         967         968         993         992
         4         968         969         994         993
         4         969         970         995         994
         4         970         971         996         995
         4         971         972         997         996
         4         972         973         998         997
         4         973         974         999         998
         4         975         976        1001        1000
         4         976         977        1002        1001
         4         977         978        1003        1002
         4         978         979        1004        1003
         4         979         980        1005        1004
         4         980         981        1006        1005
         4         981         982        1007        1006
         4         982         983        1008        1007
         4         983         984        1009        1008
         4         984         985        1010        1009
         4         985         986        1011        1010
         4         986         987        1012        1011
         4         987         988        1013        1012
         4         988         989        1014        1013
         4         989         990        1015        1014
         4         990         991        1016        1015
         4         991         992        1017        1016
         4         992         993        1018        1017
         4         993         994        1019        1018
         4         994         995        1020        1019
         4         995         996        1021        1020
         4         996         997        1022        1021
         4         997         998        1023        1022
         4         998         999        1024        1023
         4        1000        1001        1026        1025
         4        1001        1002        1027        1026
         4        1002        1003        1028        1027
         4        1003        1004        1029        1028
         4        1004        1005        1030        1029
         4        1005        1006        1031        1030
         4        1006        1007        1032        1031
         4        1007        1008        1033        1032
         4        1008        1009        1034        1033
         4        1009        1010        1035        1034
         4        1010        1011        1036        1035
         4        1011        1012        1037        1036
         4        1012        1013        1038        1037
         4        1013        1014        1039        1038
         4        1014        1015        1040        1039
         4        1015        1016        1041        1040
         4        1016        1017        1042        1041
         4        1017        1018        1043        1042
         4        1018        1019        1044        1043
         4        1019        1020        1045        1044
         4        1020        1021        1046        1045
         4        1021        1022        1047        1046
         4        1022        1023        1048        1047
         4        1023        1024        1049        1048
         4        1025        1026        1051        1050
         4        1026        1027        1052        1051
         4        1027        1028        1053        1052
         4        1028        1029        1054        1053
         4        1029        1030        1055        1054
         4        1030        1031        1056        1055
         4        1031        1032        1057        1056
         4        1032        1033        1058        1057
         4        1033        1034        1059        1058
         4        1034        1035        1060        1059
         4        1035        1036        1061        1060
         4        1036        1037        1062        1061
         4        1037        1038        1063        1062
         4        1038        1039        1064        1063
         4        1039        1040        1065        1064
         4        1040        1041        1066        1065
         4        1041        1042        1067        1066
         4        1042        1043        1068        1067
         4        1043        1044        1069        1068
         4        1044        1045        1070        1069
         4        1045        1046        1071        1070
         4        1046        1047        1072        1071
         4        1047        1048        1073        1072
         4        1048        1049        1074        1073
         4        1050        1051        1076        1075
         4        1051        1052        1077        1076
         4        1052        1053        1078        1077
         4        1053        1054        1079        1078
         4        1054        1055        1080        1079
         4        1055        1056        1081        1080
         4        1056        1057        1082        1081
         4        1057        1058        1083        1082
         4        1058        1059        1084        1083
         4        1059        1060        1085        1084
         4        1060        1061        1086        1085
         4        1061        1062        1087        1086
         4        1062        1063        1088        1087
         4        1063        1064        1089        1088
         4        1064        1065        1090        1089
         4        1065        1066        1091        1090
         4        1066        1067        1092        1091
         4        1067        1068        1093        1092
         4        1068        1069        1094        1093
         4        1069        1070        1095        1094
         4        1070        1071        1096        1095
         4        1071        1072        1097        1096
         4        1072        1073        1098        1097
         4        1073        1074        1099        1098
         4        1075        1076        1101        1100
         4        1076        1077        1102        1101
         4        1077        1078        1103        1102
         4        1078        1079        1104        1103
         4        1079        1080        1105        1104
         4        1080        1081        1106        1105
         4        1081        1082        1107        1106
         4        1082        1083        1108        1107
         4        1083        1084        1109        1108
         4        1084        1085        1110        1109
         4        1085        1086        1111        1110
         4        1086        1087        1112        1111
         4        1087        1088        1113        1112
         4        1088        1089        1114        1113
         4        1089        1090        1115        1114
         4        1090        1091        1116        1115
         4        1091        1092        1117        1116
         4        1092        1093        1118        1117
         4        1093        1094        1119        1118
         4        1094        1095        1120        1119
         4        1095        1096        1121        1120
         4        1096        1097        1122        1121
         4        1097        1098        1123        1122
         4        1098        1099        1124        1123
         4        1100        1101        1126        1125
         4        1101        1102        1127        1126
         4        1102        1103        1128        1127
         4        1103        1104        1129        1128
         4        1104        1105        1130        1129
         4        1105        1106        1131        1130
         4        1106        1107        1132        1131
         4        1107        1108        1133        1132
         4        1108        1109        1134        1133
         4        1109        1110        1135        1134
         4        1110        1111        1136        1135
         4        1111        1112        1137        1136
         4        1112        1113        1138        1137
         4        1113        1114        1139        1138
         4        1114        1115        1140        1139
         4        1115        1116        1141        1140
         4        1116        1117        1142        1141
         4        1117        1118        1143        1142
         4        1118        1119        1144        1143
         4        1119        1120        1145        1144
         4        1120        1121        1146        1145
         4        1121        1122        1147        1146
         4        1122        1123        1148        1147
         4        1123        1124        1149        1148
         4        1125        1126        1151        1150
         4        1126        1127        1152        1151
         4        1127        1128        1153        1152
         4        1128        1129        1154        1153
         4        1129        1130        1155        1154
         4        1130        1131        1156        1155
         4        1131        1132        1157        1156
         4        1132        1133        1158        1157
         4        1133        1134        1159        1158
         4        1134        1135        1160        1159
         4        1135        1136        1161        1160
         4        1136        1137        1162        1161
         4        1137        1138        1163        1162
         4        1138        1139        1164        1163
         4        1139        1140        1165        1164
         4        1140        1141        1166        1165
         4        1141        1142        1167        1166
         4        1142        1143        1168        1167
         4        1143        1144        1169        1168
         4        1144        1145        1170        1169
         4        1145        1146        1171        1170
         4        1146        1147        1172        1171
         4        1147        1148        1173        1172
         4        1148        1149        1174        1173
         4        1150        1151        1176        1175
         4        1151        1152        1177        1176
         4        1152        1153        1178        1177
         4        1153        1154        1179        1178
         4        1154        1155        1180        1179
         4        1155        1156        1181        1180
         4        1156        1157        1182        1181
         4        1157        1158        1183        1182
         4        1158        1159        1184        1183
         4        1159        1160        1185        1184
         4        1160        1161        1186        1185
         4        1161        1162        1187        1186
         4        1162        1163        1188        1187
         4        1163        1164        1189        1188
         4        1164        1165        1190        1189
         4        1165        1166        1191        1190
         4        1166        1167        1192        1191
         4        1167        1168        1193        1192
         4        1168        1169        1194        1193
         4        1169        1170        1195        1194
         4        1170        1171        1196        1195
         4        1171        1172        1197        1196
         4        1172        1173        1198        1197
         4        1173        1174        1199        1198
         4        1175        1176        1201        1200
         4        1176        1177        1202        1201
         4        1177        1178        1203        1202
         4        1178        1179        1204        1203
         4        1179        1180        1205        1204
         4        1180        1181        1206        1205
         4        1181        1182        1207        1206
         4        1182        1183        1208        1207
         4        1183        1184        1209        1208
         4        1184        1185        1210        1209
         4        1185        1186        1211        1210
         4        1186        1187        1212        1211
         4        1187        1188        1213        1212
         4        1188        1189        1214        1213
         4        1189        1190        1215        1214
         4        1190        1191        1216        1215
         4        1191        1192        1217        1216
         4        1192        1193        1218        1217
         4        1193        1194        1219        1218
         4        1194        1195        1220        1219
         4        1195        1196        1221        1220
         4        1196        1197        1222        1221
         4        1197        1198        1223        1222
         4        1198        1199        1224        1223
CELL_TYPES       1152
9
9
9
9
9
9
9
9
9
9
9
9
9
9
9
9
9
9
9
9
9
9
9
9
9
9
9
9
9
9
9
9
9
9
9
9
9
9
9
9
9
9
9
9
9
9
9
9
9
9
9
9
9
9
9
9
9
9
9
9
9
9
9
9
9
9
9
9
9
9
9
9
9
9
9
9
9
9
9
9
9
9
9
9
9
9
9
9
9
9
9
9
9
9
9
9
9
9
9
9
9
9
9
9
9
9
9
9
9
9
9
9
9
9
9
9
9
9
9
9
9
9
9
9
9
9
9
9
9
9
9
9
9
9
9
9
9
9
9
9
9
9
9
9
9
9
9
9
9
9
9
9
9
9
9
9
9
9
9
9
9
9
9
9
9
9
9
9
9
9
9
9
9
9
9
9
9
9
9
9
9
9
9
9
9
9
9
9
9
9
9
9
9
9
9
9
9
9
9
9
9
9
9
9
9
9
9
9
9
9
9
9
9
9
9
9
9
9
9
9
9
9
9
9
9
9
9
9
9
9
9
9
9
9
9
9
9
9
9
9
9
9
9
9
9
9
9
9
9
9
9
9
9
9
9
9
9
9
9
9
9
9
9
9
9
9
9
9
9
9
9
9
9
9
9
9
9
9
9
9
9
9
9
9
9
9
9
9
9
9
9
9
9
9
9
9
9
9
9
9
9
9
9
9
9
9
9
9
9
9
9
9
9
9
9
9
9
9
9
9
9
9
9
9
9
9
9
9
9
9
9
9
9
9
9
9
9
9
9
9
9
9
9
9
9
9
9
9
9
9
9
9
9
9
9
9
9
9
9
9
9
9
9
9
9
9
9
9
9
9
9
9
9
9
9
9
9
9
9
9
9
9
9
9
9
9
9
9
9
9
9
9
9
9
9
9
9
9
9
9
9
9
9
9
9
9
9
9
9
9
9
9
9
9
9
9
9
9
9
9
9
9
9
9
9
9
9
9
9
9
9
9
9
9
9
9
9
9
9
9
9
9
9
9
9
9
9
9
9
9
9
9
9
9
9
9
9
9
9
9
9
9
9
9
9
9
9
9
9
9
9
9
9
9
9
9
9
9
9
9
9
9
9
9
9
9
9
9
9
9
9
9
9
9
9
9
9
9
9
9
9
9
9
9
9
9
9
9
9
9
9
9
9
9
9
9
9
9
9
9
9
9
9
9
9
9
9
9
9
9
9
9
9
9
9
9
9
9
9
9
9
9
9
9
9
9
9
9
9
9
9
9
9
9
9
9
9
9
9
9
9
9
9
9
9
9
9
9
9
9
9
9
9
9
9
9
9
9
9
9
9
9
9
9
9
9
9
9
9
9
9
9
9
9
9
9
9
9
9
9
9
9
9
9
9
9
9
9
9
9
9
9
9
9
9
9
9
9
9
9
9
9
9
9
9
9
9
9
9
9
9
9
9
9
9
9
9
9
9
9
9
9
9
9
9
9
9
9
9
9
9
9
9
9
9
9
9
9
9
9
9
9
9
9
9
9
9
9
9
9
9
9
9
9
9
9
9
9
9
9
9
9
9
9
9
9
9
9
9
9
9
9
9
9
9
9
9
9
9
9
9
9
9
9
9
9
9
9
9
9
9
9
9
9
9
9
9
9
9
9
9
9
9
9
9
9
9
9
9
9
9
9
9
9
9
9
9
9
9
9
9
9
9
9
9
9
9
9
9
9
9
9
9
9
9
9
9
9
9
9
9
9
9
9
9
9
9
9
9
9
9
9
9
9
9
9
9
9
9
9
9
9
9
9
9
9
9
9
9
9
9
9
9
9
9
9
9
9
9
9
9
9
9
9
9
9
9
9
9
9
9
9
9
9
9
9
9
9
9
9
9
9
9
9
9
9
9
9
9
9
9
9
9
9
9
9
9
9
9
9
9
9
9
9
9
9
9
9
9
9
9
9
9
9
9
9
9
9
9
9
9
9
9
9
9
9
9
9
9
9
9
9
9
9
9
9
9
9
9
9
9
9
9
9
9
9
9
9
9
9
9
9
9
9
9
9
9
9
9
9
9
9
9
9
9
9
9
9
9
9
9
9
9
9
9
9
9
9
9
9
9
9
9
9
9
9
9
9
9
9
9
9
9
9
9
9
9
9
9
9
9
9
9
9
9
9
9
9
9
9
9
9
9
9
9
9
9
9
9
9
9
9
9
9
9
9
9
9
9
9
9
9
9
9
9
9
9
9
9
9
9
9
9
9
9
9
9
9
9
9
9
9
9
9
9
9
9
9
9
9
9
9
9
9
9
9
9
9
9
9
9
9
9
9
9
9
9
9
9
9
9
9
9
9
9
9
9
9
9
9
9
9
9
9
9
9
9
9
9
9
9
9
9
9
9
9
9
9
9
9
9
9
9
9
9
9
9
9
9
9
9
9
9
9
9
9
9
9
9
9
9
9
9
9
9
9
9
9
9
9
9
9
9
9
9
9
9
9
9
9
9
9
9
9
9
9
9
9
9
9
9
9
9
9
9
9
9
9
9
9
9
9
9
9
9
9
9
9
9
9
9
9
9
9
9
9
9
9
9
9
9
9
9
9
9
9
9
9
9
9
9
9
9
9
9
9
9
9
9
9
9
9
POINT_DATA      1225
SCALARS p double 
LOOKUP_TABLE default
  5.467647977567140E-016
  4.254529971100720E-016
  3.460503186269924E-016
  2.567472718621316E-016
  1.718367234698935E-016
  2.327655240374268E-016
  4.066050494994192E-016
  6.288707488464224E-016
  8.179198140344751E-016
  9.316085090645881E-016
  1.070220935217112E-015
  1.264553835884421E-015
  1.427326650838791E-015
  1.542723191557074E-015
  1.682203352585353E-015
  1.749212000498877E-015
  1.789240382322370E-015
  1.831933790700021E-015
  1.868253029970368E-015
  1.935585008098563E-015
  1.977256597846207E-015
  1.974050467520741E-015
  1.952953223477537E-015
  1.944734251059417E-015
  1.942222756172400E-015
  5.388740858305408E-016
  5.021485990130216E-016
  4.216266232721452E-016
  2.147693799822819E-016
  1.128918074380879E-016
  2.757201100766404E-016
  4.306169539130594E-016
  6.141262099992820E-016
  8.417583396003999E-016
  9.222217888739177E-016
  1.149085121229020E-015
  1.315408880501037E-015
  1.430726102247802E-015
  1.572959815172153E-015
  1.614410878977437E-015
  1.709536783533853E-015
  1.798453113014608E-015
  1.840877468790142E-015
  1.884433077708100E-015
  1.944285092542238E-015
  1.984721674792843E-015
  1.967367399786475E-015
  1.951028627885769E-015
  1.942378893369117E-015
  1.939398929891346E-015
  3.450364946937846E-016
  3.542098265845677E-016
  2.597035058547312E-016
  5.894593427802386E-017
  1.835144604052235E-016
  3.926857967657284E-016
  4.060007336681348E-016
  6.116191760628692E-016
  7.979693452085816E-016
  9.361308136509673E-016
  1.236171080780048E-015
  1.409589053442039E-015
  1.458386420992945E-015
  1.510648256770466E-015
  1.578535763585927E-015
  1.723407406461659E-015
  1.800290547090474E-015
  1.855383536644954E-015
  1.911963736391681E-015
  1.948109154181486E-015
  1.968478697338409E-015
  1.950831603049206E-015
  1.940940811428501E-015
  1.933514426738666E-015
  1.931713428191277E-015
  0.000000000000000E+000
  1.801148206249183E-016
  6.530092523949266E-017
 -8.611035275725454E-018
  2.515170199319189E-016
  4.032850227866861E-016
  4.682174749879483E-016
  6.219626375192707E-016
  7.872938141497402E-016
  9.871229960530096E-016
  1.254297223236842E-015
  1.411196123079404E-015
  1.438086566382316E-015
  1.545543742495615E-015
  1.611772356943385E-015
  1.722498566504557E-015
  1.809706168963064E-015
  1.860653302144585E-015
  1.918129300275677E-015
  1.933921743104016E-015
  1.932147996694704E-015
  1.927287567903619E-015
  1.921066302792584E-015
  1.920933515289304E-015
  1.920654674234691E-015
  0.000000000000000E+000
  9.377086661965675E-017
  9.783110546941940E-017
  1.208487290146171E-016
  2.887928761421305E-016
  4.052042802474537E-016
  4.632445149914410E-016
  6.578115062060796E-016
  8.653300053619134E-016
  1.030081877164987E-015
  1.259755015374257E-015
  1.380180337387166E-015
  1.424189592164282E-015
  1.569754859330867E-015
  1.655040454886046E-015
  1.742221421701558E-015
  1.817827593370425E-015
  1.829282321350619E-015
  1.867343140698351E-015
  1.887813229923620E-015
  1.894730503096650E-015
  1.893720347278522E-015
  1.899778750174777E-015
  1.908419920084956E-015
  1.907788017035756E-015
  0.000000000000000E+000
  6.543303671077185E-017
  1.443197874402340E-016
  2.305685067303857E-016
  3.230464479906761E-016
  4.976677798794901E-016
  5.463845418742160E-016
  6.507710478339739E-016
  8.515453269410854E-016
  9.880851817971146E-016
  1.174942236260978E-015
  1.308569892985451E-015
  1.388257702021727E-015
  1.492772714033336E-015
  1.584113099240425E-015
  1.677199119391550E-015
  1.755251185959811E-015
  1.801207996437287E-015
  1.805174814421856E-015
  1.832807440858369E-015
  1.858204089781135E-015
  1.855996911895071E-015
  1.883116811393680E-015
  1.895156824088347E-015
  1.892628742086357E-015
  0.000000000000000E+000
  8.720324031831394E-017
  1.474673111837852E-016
  2.599761299339869E-016
  3.629904880415826E-016
  4.790315829740285E-016
  5.208800675986295E-016
  6.172295736660522E-016
  8.547745652886187E-016
  9.796795914268112E-016
  1.089585118245039E-015
  1.215777954280793E-015
  1.316706671106914E-015
  1.427171606924820E-015
  1.517102685922675E-015
  1.620393988538860E-015
  1.709185110740860E-015
  1.745624054572242E-015
  1.762540305308043E-015
  1.789110431353637E-015
  1.820003057271254E-015
  1.841140028523501E-015
  1.861803578799608E-015
  1.875499097358990E-015
  1.874309085794762E-015
  0.000000000000000E+000
  1.160095298738770E-016
  1.888805523614882E-016
  2.800686233041379E-016
  4.146653077162068E-016
  4.647032662347978E-016
  4.885533425600636E-016
  6.318449972717522E-016
  8.156466876497628E-016
  9.680457813310089E-016
  1.051749214645866E-015
  1.125574760783044E-015
  1.241967197342156E-015
  1.378188659746941E-015
  1.452756783230104E-015
  1.552496987639668E-015
  1.648078704983726E-015
  1.704255918382720E-015
  1.724633660478120E-015
  1.754062438068004E-015
  1.788015843135667E-015
  1.813669045105410E-015
  1.834801690683597E-015
  1.851217574149479E-015
  1.852267097059739E-015
  0.000000000000000E+000
  1.150947372568099E-016
  2.033009188091131E-016
  2.879945638026289E-016
  4.517680665471939E-016
  5.245061582069671E-016
  5.473501825649451E-016
  6.265684686781041E-016
  7.157589213217491E-016
  8.989203331385083E-016
  1.024669409807185E-015
  1.096761087702369E-015
  1.203562614132592E-015
  1.295186943799355E-015
  1.420842861707382E-015
  1.512375458041912E-015
  1.574187139802137E-015
  1.652343091201393E-015
  1.689684838452117E-015
  1.724690382885775E-015
  1.766456150708480E-015
  1.782343303834368E-015
  1.801384553607601E-015
  1.814137368327566E-015
  1.817041747380758E-015
  0.000000000000000E+000
  1.062044958385743E-016
  1.874698479972124E-016
  2.976326671895216E-016
  4.643570891789162E-016
  5.589823568820141E-016
  6.031136676898080E-016
  6.602367809862250E-016
  7.619019799387342E-016
  8.558111824220358E-016
  9.700175647117027E-016
  1.072707733420259E-015
  1.160413252654977E-015
  1.258041152914949E-015
  1.363391699636286E-015
  1.469088579929097E-015
  1.545879364461545E-015
  1.607695945835191E-015
  1.657775040307636E-015
  1.686656746107063E-015
  1.728207204496841E-015
  1.751090955923713E-015
  1.760155101767354E-015
  1.771987056608341E-015
  1.775756348033500E-015
  0.000000000000000E+000
  1.384816523323396E-016
  1.981843914401010E-016
  2.934501712645238E-016
  4.618122221083514E-016
  5.411999328829161E-016
  6.234340508851508E-016
  7.018150432820595E-016
  7.646811050402014E-016
  8.311182682299242E-016
  9.087029260823320E-016
  1.012955205906546E-015
  1.124616885529952E-015
  1.209598461963997E-015
  1.333943471569231E-015
  1.455652077027065E-015
  1.526479053588591E-015
  1.584967016695770E-015
  1.618236862899686E-015
  1.642342051967504E-015
  1.668189046014727E-015
  1.698570155037979E-015
  1.715399191999440E-015
  1.729215376231608E-015
  1.732876469320944E-015
  0.000000000000000E+000
  1.059079600737103E-016
  2.190501534518264E-016
  2.981037330361899E-016
  4.189201361830445E-016
  5.261288157314715E-016
  5.804303824475066E-016
  6.449222476592060E-016
  7.530373508227811E-016
  8.276890824127730E-016
  8.796839844796131E-016
  9.831471611934224E-016
  1.081690429139684E-015
  1.180346582072106E-015
  1.327737543125453E-015
  1.432734441259978E-015
  1.484367815805873E-015
  1.536680705604766E-015
  1.580567319493356E-015
  1.614904005196199E-015
  1.632230692639184E-015
  1.645514920948479E-015
  1.665963886057753E-015
  1.678586612602866E-015
  1.687439978640983E-015
  0.000000000000000E+000
  9.694303071962922E-017
  1.974722729999484E-016
  2.910604353171045E-016
  3.826406174622983E-016
  4.614977605357153E-016
  5.186122236022943E-016
  6.140693439578723E-016
  7.423507085399577E-016
  8.285021974808429E-016
  8.787457110215668E-016
  9.632479478156017E-016
  1.051271470639989E-015
  1.160671296718671E-015
  1.287184261868439E-015
  1.364977649458820E-015
  1.444019652147373E-015
  1.495124884865901E-015
  1.541095471329343E-015
  1.565221425028179E-015
  1.593618065936413E-015
  1.599243642965610E-015
  1.620979457080340E-015
  1.631276359347695E-015
  1.636798500105204E-015
  0.000000000000000E+000
  9.050016696126871E-017
  1.738821354194768E-016
  2.640388787518184E-016
  3.666097950974842E-016
  4.469339539085900E-016
  5.059433917398838E-016
  5.866095080684870E-016
  7.245089159221528E-016
  8.145017997606872E-016
  8.773288856075235E-016
  9.586489616855971E-016
  1.054787242495472E-015
  1.149117467874193E-015
  1.260443170877406E-015
  1.323343812709477E-015
  1.393816255900901E-015
  1.451437517838300E-015
  1.486210650722279E-015
  1.513755129299248E-015
  1.548129638267761E-015
  1.566037087084134E-015
  1.579019988306110E-015
  1.587099544917064E-015
  1.590094772107853E-015
  0.000000000000000E+000
  8.120208155229125E-017
  1.841740326686095E-016
  2.648837965277878E-016
  3.810934301832523E-016
  4.494300603885396E-016
  5.036138567166928E-016
  5.981528205261517E-016
  6.990051367017804E-016
  7.808027721027777E-016
  8.524938440096022E-016
  9.519484697010500E-016
  1.064385570928877E-015
  1.152322793281092E-015
  1.225008597351634E-015
  1.294309291148268E-015
  1.363677366413567E-015
  1.421291323227908E-015
  1.434354405830562E-015
  1.467156287546541E-015
  1.495660374672596E-015
  1.517184210107814E-015
  1.531737042649786E-015
  1.538898493745605E-015
  1.540157448090624E-015
  0.000000000000000E+000
  7.686454769793003E-017
  1.904300597042577E-016
  2.826380587209195E-016
  3.760444527660896E-016
  4.459276723761152E-016
  5.143531678974056E-016
  5.948572425085688E-016
  6.842341019115132E-016
  7.711220186630697E-016
  8.407299119646153E-016
  9.657349884515133E-016
  1.070975864931852E-015
  1.154751931488222E-015
  1.211547268530537E-015
  1.267865968382394E-015
  1.317837833865031E-015
  1.371792164615068E-015
  1.404879050595827E-015
  1.419252803167721E-015
  1.445015569464830E-015
  1.460983447535044E-015
  1.476782933614915E-015
  1.488019589088777E-015
  1.491366491662753E-015
  0.000000000000000E+000
  7.726855333526509E-017
  1.722900290245256E-016
  2.703472127003369E-016
  3.670995089677527E-016
  4.529268995921641E-016
  5.294938981530455E-016
  5.890778382992816E-016
  6.644821844272772E-016
  7.704914836792524E-016
  8.741226642753844E-016
  9.848865503229420E-016
  1.070253667482151E-015
  1.137667589451663E-015
  1.174791781521561E-015
  1.224450977870816E-015
  1.276696864145126E-015
  1.321288205592958E-015
  1.352519230191771E-015
  1.378930643240797E-015
  1.411554922015626E-015
  1.422482505649405E-015
  1.436459891752619E-015
  1.443082625385428E-015
  1.447859894730489E-015
  0.000000000000000E+000
  7.838597386326556E-017
  1.524453590089273E-016
  2.517846494204101E-016
  3.601068854210812E-016
  4.509604295719283E-016
  5.170437798029448E-016
  5.704863362910780E-016
  6.633307181387868E-016
  7.688047096680550E-016
  8.638514880893129E-016
  9.609828433409851E-016
  1.035777978620329E-015
  1.072999606873465E-015
  1.123216452017844E-015
  1.184500496631996E-015
  1.243288005736407E-015
  1.276890986213555E-015
  1.298579402947732E-015
  1.343725497323844E-015
  1.373395758734456E-015
  1.383756425689122E-015
  1.397300018495234E-015
  1.402473640192540E-015
  1.402890680541860E-015
  0.000000000000000E+000
  7.454996120460786E-017
  1.555023752460490E-016
  2.535692731836134E-016
  3.507222051660104E-016
  4.260487238385320E-016
  4.976862228998094E-016
  5.640044605680872E-016
  6.493527381470533E-016
  7.412098444427806E-016
  8.371648359351861E-016
  9.134758158019329E-016
  9.586427382570418E-016
  1.021787454431729E-015
  1.091285963404307E-015
  1.144991874615186E-015
  1.210665247453640E-015
  1.256926815032765E-015
  1.294179201273460E-015
  1.316015514052844E-015
  1.329731665719274E-015
  1.346379534683291E-015
  1.354778183831302E-015
  1.357171459866402E-015
  1.358047456523945E-015
  0.000000000000000E+000
  7.552354102015233E-017
  1.568625780357410E-016
  2.465690431649596E-016
  3.293869949730713E-016
  4.135748622163129E-016
  4.894008081821699E-016
  5.531808440149607E-016
  6.270928914483832E-016
  7.211967822217066E-016
  7.945069481069312E-016
  8.588299168961187E-016
  9.140914182197109E-016
  9.831331632962879E-016
  1.052481658978532E-015
  1.118469773332113E-015
  1.178026323578623E-015
  1.232952739837736E-015
  1.273944867527379E-015
  1.303932990486962E-015
  1.314039354587865E-015
  1.310634127269302E-015
  1.310682177272422E-015
  1.312652062475775E-015
  1.314762997379588E-015
  0.000000000000000E+000
  7.920877832333919E-017
  1.545408201749915E-016
  2.316280486306089E-016
  3.088983445774432E-016
  3.912141592126301E-016
  4.673141142973416E-016
  5.332515212370568E-016
  6.052706881888214E-016
  6.831312617187154E-016
  7.549443072205024E-016
  8.148804250292442E-016
  8.759950913427569E-016
  9.516585177767681E-016
  1.024112947378151E-015
  1.092141173036695E-015
  1.148665546513732E-015
  1.192029100812822E-015
  1.230355708949608E-015
  1.260883925363016E-015
  1.275420084700105E-015
  1.271972137028332E-015
  1.267985196070982E-015
  1.270693555118295E-015
  1.272075456214034E-015
  0.000000000000000E+000
  7.324844948113547E-017
  1.465529024884843E-016
  2.226789214191664E-016
  2.949237644193929E-016
  3.676321050555298E-016
  4.442540495364591E-016
  5.162756443485306E-016
  5.859665491363306E-016
  6.485796064678441E-016
  7.155894544424526E-016
  7.723633615999407E-016
  8.371648724719735E-016
  9.104968746116582E-016
  9.868619251614554E-016
  1.059588341212640E-015
  1.111650819070926E-015
  1.156478414354970E-015
  1.183487648982881E-015
  1.205776913993396E-015
  1.222236282712832E-015
  1.230451365836467E-015
  1.229801303496258E-015
  1.228593619543312E-015
  1.228100452035838E-015
  0.000000000000000E+000
  6.681915282202100E-017
  1.378182769722525E-016
  2.098748448000677E-016
  2.785725031860659E-016
  3.483919885541407E-016
  4.178611102045580E-016
  4.857606912498378E-016
  5.499244023633163E-016
  6.179565812010570E-016
  6.813333769373772E-016
  7.400183493490236E-016
  8.018385936302806E-016
  8.741305593114063E-016
  9.536389997137303E-016
  1.015481988013823E-015
  1.073080545821475E-015
  1.117392003871606E-015
  1.146542964337552E-015
  1.169454335043029E-015
  1.183889212299320E-015
  1.184534459008360E-015
  1.182711425114333E-015
  1.180897206500334E-015
  1.181235633628429E-015
  0.000000000000000E+000
  6.403870164989327E-017
  1.295650667136637E-016
  1.958839041837816E-016
  2.621116070103649E-016
  3.308723940325390E-016
  3.971529968013831E-016
  4.586456967586395E-016
  5.198038165159708E-016
  5.882064637964667E-016
  6.520686018712092E-016
  7.123696086773995E-016
  7.762363744117965E-016
  8.355869150658121E-016
  9.019892425059153E-016
  9.675205226864925E-016
  1.019416229820224E-015
  1.064632083931696E-015
  1.091922821094416E-015
  1.115720139023074E-015
  1.128812738606405E-015
  1.129470329788639E-015
  1.131244110095276E-015
  1.131079062539244E-015
  1.131955086555905E-015
  0.000000000000000E+000
  6.178075171949627E-017
  1.253493738946613E-016
  1.881279412903929E-016
  2.515519549406648E-016
  3.157634432550253E-016
  3.778872557327874E-016
  4.441606393727290E-016
  5.093082901638209E-016
  5.649991185158947E-016
  6.262095092330531E-016
  6.842932464132141E-016
  7.426578118760468E-016
  8.053195304251315E-016
  8.633316813083053E-016
  9.232285757867669E-016
  9.670424160829780E-016
  1.008434799845044E-015
  1.035083393156073E-015
  1.048708304895543E-015
  1.059926779458847E-015
  1.071221834534859E-015
  1.078309481104663E-015
  1.084620721411954E-015
  1.085150926688830E-015
  0.000000000000000E+000
  5.909938799824337E-017
  1.203723686027917E-016
  1.835338223539059E-016
  2.454685159687099E-016
  3.053886311079459E-016
  3.670361972989853E-016
  4.267230446579452E-016
  4.869722913813049E-016
  5.464808753000206E-016
  6.027353769817099E-016
  6.552929800900121E-016
  7.162235917144724E-016
  7.804231967413580E-016
  8.296685943394951E-016
  8.696976049554076E-016
  9.108002854768205E-016
  9.510596841511661E-016
  9.804900965323231E-016
  9.965671979760670E-016
  1.006782556188431E-015
  1.020582249140418E-015
  1.031213115100359E-015
  1.035945199853938E-015
  1.036224880100697E-015
  0.000000000000000E+000
  5.584308972827723E-017
  1.135754678539937E-016
  1.724168503219069E-016
  2.313498574482773E-016
  2.941589794586045E-016
  3.559506994801923E-016
  4.088932184941257E-016
  4.667678838581456E-016
  5.249405990033605E-016
  5.757560916023651E-016
  6.299187678048396E-016
  6.835108296137391E-016
  7.361891676763833E-016
  7.758490162550067E-016
  8.111642520868315E-016
  8.492765913132188E-016
  8.883066489914512E-016
  9.200886503867244E-016
  9.432238521069515E-016
  9.605283693143686E-016
  9.747162342690078E-016
  9.838498455464201E-016
  9.865444780871441E-016
  9.884847584637582E-016
  0.000000000000000E+000
  5.387403898907554E-017
  1.089546447336320E-016
  1.638758818252981E-016
  2.227196447869688E-016
  2.839749055739560E-016
  3.424094167447116E-016
  3.990087141935869E-016
  4.500174552064493E-016
  5.043672984128044E-016
  5.577686806218851E-016
  6.079937328631956E-016
  6.510009264254326E-016
  6.982700287831631E-016
  7.394501774634598E-016
  7.830700523635658E-016
  8.157399715368881E-016
  8.426979498579264E-016
  8.663216923872498E-016
  8.872002360631311E-016
  9.096930981536086E-016
  9.278309640386550E-016
  9.349084927776547E-016
  9.395213377783357E-016
  9.413944308045607E-016
  0.000000000000000E+000
  5.168042678149205E-017
  1.046883485741005E-016
  1.617860606620630E-016
  2.160458142352911E-016
  2.737253754825932E-016
  3.287627252821766E-016
  3.843358023473597E-016
  4.340551468081856E-016
  4.830913293674991E-016
  5.338143931905549E-016
  5.875842486094617E-016
  6.330183448681441E-016
  6.762278577949040E-016
  7.188365475308987E-016
  7.583226250345679E-016
  7.878674355227490E-016
  8.064095138634003E-016
  8.198116018598534E-016
  8.415959087363278E-016
  8.620656633282085E-016
  8.835321221024187E-016
  8.906447062455969E-016
  8.957867680384318E-016
  8.969774520192998E-016
  0.000000000000000E+000
  5.110838780734862E-017
  1.005408313889749E-016
  1.535449700694489E-016
  2.067079723428785E-016
  2.616599629696305E-016
  3.160559880667113E-016
  3.694793627240028E-016
  4.257336950517729E-016
  4.685535754803929E-016
  5.140249328124414E-016
  5.627846913340897E-016
  6.158306251317749E-016
  6.586124676112138E-016
  7.011782238308231E-016
  7.234725652921234E-016
  7.443802370092662E-016
  7.667260862214161E-016
  7.909535042755641E-016
  8.089326950295888E-016
  8.264415895811726E-016
  8.422917373396942E-016
  8.495506185095058E-016
  8.552453259315267E-016
  8.565029521685478E-016
  0.000000000000000E+000
  5.017077349781436E-017
  9.684000637461043E-017
  1.473875610532692E-016
  2.000575729923761E-016
  2.535288542852803E-016
  3.070965806992535E-016
  3.637895939727646E-016
  4.141677316922404E-016
  4.626087921436476E-016
  5.051606085854376E-016
  5.444937103968763E-016
  5.945958563443888E-016
  6.407193943282535E-016
  6.800577273313463E-016
  6.974385266457257E-016
  7.136894992417614E-016
  7.347025023753010E-016
  7.577128260456598E-016
  7.763444523981901E-016
  7.918632731767431E-016
  8.025801245980537E-016
  8.121854389961075E-016
  8.162378969959782E-016
  8.168912696091837E-016
  0.000000000000000E+000
  4.845689551257596E-017
  9.739586909450790E-017
  1.479958109294913E-016
  2.003675526931975E-016
  2.472513932859063E-016
  2.996298331954507E-016
  3.519005355230715E-016
  4.017175730298999E-016
  4.495791396903937E-016
  4.882277939409265E-016
  5.246052172197036E-016
  5.665947585910232E-016
  6.109251347560905E-016
  6.431564028593057E-016
  6.719934701337700E-016
  6.971921768311952E-016
  7.094061391203058E-016
  7.192107538073063E-016
  7.381597659690886E-016
  7.545061442935091E-016
  7.639762484025755E-016
  7.722039289973885E-016
  7.772025549920930E-016
  7.780372387283340E-016
  0.000000000000000E+000
  4.774344029371323E-017
  9.975409392868752E-017
  1.479883606075639E-016
  1.959589759818621E-016
  2.424824023606648E-016
  2.895003408870596E-016
  3.367854292315068E-016
  3.836764592723582E-016
  4.253168410543173E-016
  4.623809129022241E-016
  5.003803267271936E-016
  5.379641674989960E-016
  5.751807812656059E-016
  6.051999946457137E-016
  6.420759752888741E-016
  6.689822674105219E-016
  6.796004833361568E-016
  6.920156519022670E-016
  7.053198705819660E-016
  7.186403359628939E-016
  7.269331862287138E-016
  7.322361234772299E-016
  7.380188024901932E-016
  7.400430666374256E-016
  0.000000000000000E+000
  4.957302407661698E-017
  9.965428157578134E-017
  1.443898238438046E-016
  1.883510891105771E-016
  2.342081404691133E-016
  2.796415994252082E-016
  3.225443173265402E-016
  3.637536220030306E-016
  4.004817718900164E-016
  4.341975682461960E-016
  4.715385946448136E-016
  5.073453172300854E-016
  5.414281827483095E-016
  5.753568224539437E-016
  6.063880099970179E-016
  6.274656708681071E-016
  6.460058455370399E-016
  6.634125079664127E-016
  6.791712245819548E-016
  6.871221103406663E-016
  6.932646646817943E-016
  6.989106736754854E-016
  7.029501979333438E-016
  7.043690668115647E-016
  0.000000000000000E+000
  4.573343291394790E-017
  9.117631849976591E-017
  1.383882302860450E-016
  1.834986333738969E-016
  2.284181051255887E-016
  2.684826345230845E-016
  3.073937390410991E-016
  3.494653442335053E-016
  3.842291949980945E-016
  4.179275628019579E-016
  4.471373721599656E-016
  4.840687810440222E-016
  5.169853562381412E-016
  5.460808276065873E-016
  5.706029958458883E-016
  5.945000325927873E-016
  6.139850294856605E-016
  6.329654383246517E-016
  6.465550580269436E-016
  6.539694565878659E-016
  6.600270473654680E-016
  6.680573051081821E-016
  6.716905372375629E-016
  6.727808813215129E-016
  0.000000000000000E+000
  4.212012591328775E-017
  8.489791760389127E-017
  1.286549495243732E-016
  1.719550732122599E-016
  2.146006691805617E-016
  2.537941176405087E-016
  2.948249143510163E-016
  3.329445958869274E-016
  3.698930663577858E-016
  4.026590865229300E-016
  4.318126863018273E-016
  4.618318732470648E-016
  4.937515927393235E-016
  5.197399909648828E-016
  5.453941476105890E-016
  5.710873637203458E-016
  5.860707081852335E-016
  6.033616018446375E-016
  6.153428458283433E-016
  6.244431886856333E-016
  6.319347953183512E-016
  6.388478592556647E-016
  6.425605891591783E-016
  6.435327007438457E-016
  0.000000000000000E+000
  3.705505900097239E-017
  7.734264640366809E-017
  1.186168932334176E-016
  1.574681143948448E-016
  1.987578248054697E-016
  2.408224458103311E-016
  2.784819391098830E-016
  3.147291802666953E-016
  3.496797021622461E-016
  3.837801880825738E-016
  4.127431097998571E-016
  4.406596252359155E-016
  4.718388855126274E-016
  5.017957482681852E-016
  5.251613881975364E-016
  5.456256172849117E-016
  5.632759706622948E-016
  5.766261613018944E-016
  5.885544782733559E-016
  5.981397978981806E-016
  6.053022027296281E-016
  6.110712841383594E-016
  6.144036845954762E-016
  6.154823748124661E-016
  0.000000000000000E+000
  3.546337870957664E-017
  7.277248636241160E-017
  1.112338884119184E-016
  1.498859124907147E-016
  1.919575116205278E-016
  2.304295048057127E-016
  2.646460732435372E-016
  2.978294212916760E-016
  3.306111995871605E-016
  3.669061450411550E-016
  3.963128831265400E-016
  4.233163403242292E-016
  4.537811218000300E-016
  4.771325454024247E-016
  4.993658269370940E-016
  5.184618196265458E-016
  5.358765766142222E-016
  5.495256588593991E-016
  5.621701712287306E-016
  5.708995733607013E-016
  5.791770045546361E-016
  5.839812175089276E-016
  5.878163423100389E-016
  5.887561059033995E-016
  0.000000000000000E+000
  3.703247568451796E-017
  7.378468303615613E-017
  1.079830469655944E-016
  1.448238719548687E-016
  1.837491065967990E-016
  2.211431405721831E-016
  2.543858697489388E-016
  2.860172816476028E-016
  3.158179444963807E-016
  3.477581666434216E-016
  3.804783358435856E-016
  4.090668342747266E-016
  4.356956563917000E-016
  4.567557128631109E-016
  4.763420157446983E-016
  4.932056615834670E-016
  5.087075506029035E-016
  5.247785553328921E-016
  5.377637008165593E-016
  5.488488193471373E-016
  5.564284606506392E-016
  5.605593279953285E-016
  5.632538025650242E-016
  5.642969858616926E-016
  0.000000000000000E+000
  3.679189965611163E-017
  7.108345964378719E-017
  1.029970624657290E-016
  1.406665855630358E-016
  1.757531876842737E-016
  2.113521168379467E-016
  2.465624082720118E-016
  2.756205404868632E-016
  3.046907109647158E-016
  3.321663024981771E-016
  3.627489178369845E-016
  3.954990114439553E-016
  4.218331868363880E-016
  4.418951514541509E-016
  4.587730004163690E-016
  4.751580049827795E-016
  4.899213031755141E-016
  5.041329316761416E-016
  5.180556293291298E-016
  5.282809797050058E-016
  5.344587656285095E-016
  5.394982428617714E-016
  5.419022588203633E-016
  5.427434767391768E-016
  0.000000000000000E+000
  3.604695778844187E-017
  6.816407909779624E-017
  1.012375626625829E-016
  1.368132077470347E-016
  1.696908180330581E-016
  2.041637688811646E-016
  2.370129718296351E-016
  2.670040538613260E-016
  2.952520430172362E-016
  3.204169335528303E-016
  3.492895513544650E-016
  3.788061045426011E-016
  4.057294910593582E-016
  4.245244079114091E-016
  4.409529804828319E-016
  4.601115645913486E-016
  4.766806338961333E-016
  4.893325412210195E-016
  4.994731355124782E-016
  5.080231324559485E-016
  5.151231627967755E-016
  5.204210360232255E-016
  5.231981823931554E-016
  5.242116475469530E-016
  0.000000000000000E+000
  3.409780385653656E-017
  6.619561490699532E-017
  9.806671819644904E-017
  1.312000727352472E-016
  1.642997923388570E-016
  1.965341558857245E-016
  2.281749870822881E-016
  2.589560322994083E-016
  2.823972967261005E-016
  3.100721667801343E-016
  3.369279432188129E-016
  3.633152763983370E-016
  3.880041626581193E-016
  4.078801469641017E-016
  4.269503896326258E-016
  4.433551390083104E-016
  4.594076865217680E-016
  4.736615383121224E-016
  4.836586005720164E-016
  4.915466391228095E-016
  4.995103478222395E-016
  5.048897734933645E-016
  5.073218831405891E-016
  5.082262019289425E-016
  0.000000000000000E+000
  3.116784312057359E-017
  6.137559922396967E-017
  9.545564709905355E-017
  1.275228732167782E-016
  1.592037939004488E-016
  1.897708764473073E-016
  2.204845197606675E-016
  2.489069185432136E-016
  2.767227012623973E-016
  3.016615968003131E-016
  3.260002357577220E-016
  3.511978104477251E-016
  3.746334229767013E-016
  3.953373520176518E-016
  4.131854372072592E-016
  4.305133554779868E-016
  4.463564213774167E-016
  4.588110420029325E-016
  4.695268886330269E-016
  4.774503850430171E-016
  4.853818439697842E-016
  4.907935801069934E-016
  4.936367869131993E-016
  4.944646355402857E-016
  0.000000000000000E+000
  3.054096925638507E-017
  6.156330682238481E-017
  9.433249316576057E-017
  1.257580307193147E-016
  1.554551813725470E-016
  1.852453251894211E-016
  2.156654576738639E-016
  2.435589722303519E-016
  2.712322189799269E-016
  2.962430537890009E-016
  3.175349507430320E-016
  3.405949448676546E-016
  3.641998212658500E-016
  3.865813796361945E-016
  4.035013253721935E-016
  4.206648589375639E-016
  4.354485474122057E-016
  4.476961595854620E-016
  4.569122159271571E-016
  4.653575164043872E-016
  4.729111876680214E-016
  4.783063623280691E-016
  4.816000570803234E-016
  4.826749407714882E-016
  0.000000000000000E+000
  3.059633631742723E-017
  6.114669966790142E-017
  9.391540047678516E-017
  1.260640131239922E-016
  1.546492085395724E-016
  1.824857813917893E-016
  2.120391854388288E-016
  2.391993241414730E-016
  2.650691541081642E-016
  2.901802557090610E-016
  3.130030783172746E-016
  3.351036557450594E-016
  3.573750605053326E-016
  3.791926899984941E-016
  3.967662586788783E-016
  4.136535775459859E-016
  4.282232508941268E-016
  4.390563023771647E-016
  4.478194803902903E-016
  4.562657182513195E-016
  4.632408328783269E-016
  4.687882100936695E-016
  4.720806402418710E-016
  4.731190881461606E-016
  0.000000000000000E+000
  2.868377833429700E-017
  6.131500075347606E-017
  9.411549240310344E-017
  1.231347423521192E-016
  1.515830190173689E-016
  1.810166904102164E-016
  2.098089619634938E-016
  2.373673831192373E-016
  2.627071076341381E-016
  2.858139286266130E-016
  3.076202538420408E-016
  3.303231734970917E-016
  3.536060723233157E-016
  3.737123542007756E-016
  3.917089251078735E-016
  4.074311402540523E-016
  4.209180726102616E-016
  4.324813634599430E-016
  4.418777317830447E-016
  4.500686839207301E-016
  4.570728551738581E-016
  4.619992059250185E-016
  4.647684908562426E-016
  4.657235466086012E-016
  0.000000000000000E+000
  2.808468979140170E-017
  5.887450490189576E-017
  9.301649360030774E-017
  1.235034885411609E-016
  1.511434418872701E-016
  1.802814968419490E-016
  2.088169759080502E-016
  2.357898492891306E-016
  2.593560806517666E-016
  2.804983916786358E-016
  3.033318812879138E-016
  3.275361483310905E-016
  3.507168896595458E-016
  3.708223398156346E-016
  3.877161216274640E-016
  4.029453701302801E-016
  4.165787808035062E-016
  4.277466101625192E-016
  4.375668642530504E-016
  4.456479918390366E-016
  4.522252100502681E-016
  4.568590629359744E-016
  4.596623799248415E-016
  4.606361877111793E-016
  0.000000000000000E+000
  3.006900193005044E-017
  5.905277374223105E-017
  9.080694440416411E-017
  1.227596919987245E-016
  1.514055187681465E-016
  1.795939985006430E-016
  2.082183253274161E-016
  2.353866579372658E-016
  2.571754725023805E-016
  2.779278779081848E-016
  3.016922057630137E-016
  3.248442157927749E-016
  3.482225357156683E-016
  3.692796760126188E-016
  3.864877755972798E-016
  4.013819277652697E-016
  4.137443022036679E-016
  4.248054174769535E-016
  4.348059724959460E-016
  4.431300879545848E-016
  4.494145786068593E-016
  4.539394823924402E-016
  4.567238681218722E-016
  4.576814147055319E-016
  0.000000000000000E+000
  3.028916770010846E-017
  5.938474395258029E-017
  8.820430308044248E-017
  1.207585255474771E-016
  1.509354655316421E-016
  1.784050176833520E-016
  2.073152782552993E-016
  2.339684862580521E-016
  2.558202555776245E-016
  2.783775926705249E-016
  3.018619951863289E-016
  3.234812856081871E-016
  3.470182381321058E-016
  3.682878796734507E-016
  3.860332898782980E-016
  4.008636930316711E-016
  4.131496080796380E-016
  4.241014889709610E-016
  4.340213290130222E-016
  4.423592731237784E-016
  4.485371190775392E-016
  4.529913826051367E-016
  4.557688573495475E-016
  4.566818948178971E-016
VECTORS u double 
    0.00000E+00        -0.44284E+00         0.00000E+00
    0.00000E+00        -0.41111E+00         0.00000E+00
    0.00000E+00        -0.37476E+00         0.00000E+00
    0.00000E+00        -0.33829E+00         0.00000E+00
    0.00000E+00        -0.30468E+00         0.00000E+00
    0.00000E+00        -0.27453E+00         0.00000E+00
    0.00000E+00        -0.24761E+00         0.00000E+00
    0.00000E+00        -0.22347E+00         0.00000E+00
    0.00000E+00        -0.20167E+00         0.00000E+00
    0.00000E+00        -0.18182E+00         0.00000E+00
    0.00000E+00        -0.16360E+00         0.00000E+00
    0.00000E+00        -0.14678E+00         0.00000E+00
    0.00000E+00        -0.13114E+00         0.00000E+00
    0.00000E+00        -0.11653E+00         0.00000E+00
    0.00000E+00        -0.10280E+00         0.00000E+00
    0.00000E+00        -0.89854E-01         0.00000E+00
    0.00000E+00        -0.77604E-01         0.00000E+00
    0.00000E+00        -0.65984E-01         0.00000E+00
    0.00000E+00        -0.54944E-01         0.00000E+00
    0.00000E+00        -0.44448E-01         0.00000E+00
    0.00000E+00        -0.34478E-01         0.00000E+00
    0.00000E+00        -0.25027E-01         0.00000E+00
    0.00000E+00        -0.16108E-01         0.00000E+00
    0.00000E+00        -0.77481E-02         0.00000E+00
    0.00000E+00         0.00000E+00         0.00000E+00
   -0.21284E-01        -0.43286E+00         0.00000E+00
   -0.30059E-02        -0.40120E+00         0.00000E+00
    0.73113E-02        -0.36508E+00         0.00000E+00
    0.11124E-01        -0.33026E+00         0.00000E+00
    0.12053E-01        -0.29840E+00         0.00000E+00
    0.11842E-01        -0.26967E+00         0.00000E+00
    0.11208E-01        -0.24383E+00         0.00000E+00
    0.10446E-01        -0.22050E+00         0.00000E+00
    0.96761E-02        -0.19930E+00         0.00000E+00
    0.89440E-02        -0.17990E+00         0.00000E+00
    0.82633E-02        -0.16205E+00         0.00000E+00
    0.76338E-02        -0.14551E+00         0.00000E+00
    0.70499E-02        -0.13010E+00         0.00000E+00
    0.65036E-02        -0.11566E+00         0.00000E+00
    0.59857E-02        -0.10209E+00         0.00000E+00
    0.54872E-02        -0.89266E-01         0.00000E+00
    0.49985E-02        -0.77123E-01         0.00000E+00
    0.45097E-02        -0.65596E-01         0.00000E+00
    0.40103E-02        -0.54636E-01         0.00000E+00
    0.34887E-02        -0.44210E-01         0.00000E+00
    0.29320E-02        -0.34302E-01         0.00000E+00
    0.23249E-02        -0.24905E-01         0.00000E+00
    0.16493E-02        -0.16033E-01         0.00000E+00
    0.88341E-03        -0.77142E-02         0.00000E+00
    0.00000E+00         0.00000E+00         0.00000E+00
   -0.41304E-01        -0.40152E+00         0.00000E+00
   -0.30221E-02        -0.36799E+00         0.00000E+00
    0.13731E-01        -0.33617E+00         0.00000E+00
    0.20227E-01        -0.30727E+00         0.00000E+00
    0.22177E-01        -0.28055E+00         0.00000E+00
    0.22109E-01        -0.25583E+00         0.00000E+00
    0.21190E-01        -0.23299E+00         0.00000E+00
    0.19949E-01        -0.21191E+00         0.00000E+00
    0.18624E-01        -0.19242E+00         0.00000E+00
    0.17319E-01        -0.17434E+00         0.00000E+00
    0.16077E-01        -0.15751E+00         0.00000E+00
    0.14908E-01        -0.14178E+00         0.00000E+00
    0.13808E-01        -0.12702E+00         0.00000E+00
    0.12768E-01        -0.11312E+00         0.00000E+00
    0.11773E-01        -0.99981E-01         0.00000E+00
    0.10809E-01        -0.87532E-01         0.00000E+00
    0.98576E-02        -0.75705E-01         0.00000E+00
    0.89018E-02        -0.64448E-01         0.00000E+00
    0.79216E-02        -0.53724E-01         0.00000E+00
    0.68949E-02        -0.43505E-01         0.00000E+00
    0.57966E-02        -0.33778E-01         0.00000E+00
    0.45972E-02        -0.24543E-01         0.00000E+00
    0.32615E-02        -0.15811E-01         0.00000E+00
    0.17468E-02        -0.76136E-02         0.00000E+00
    0.00000E+00         0.00000E+00         0.00000E+00
   -0.54951E-01        -0.32517E+00         0.00000E+00
   -0.39592E-02        -0.30932E+00         0.00000E+00
    0.16257E-01        -0.29181E+00         0.00000E+00
    0.25318E-01        -0.27318E+00         0.00000E+00
    0.28839E-01        -0.25406E+00         0.00000E+00
    0.29600E-01        -0.23504E+00         0.00000E+00
    0.28999E-01        -0.21650E+00         0.00000E+00
    0.27757E-01        -0.19870E+00         0.00000E+00
    0.26244E-01        -0.18172E+00         0.00000E+00
    0.24646E-01        -0.16561E+00         0.00000E+00
    0.23053E-01        -0.15033E+00         0.00000E+00
    0.21505E-01        -0.13585E+00         0.00000E+00
    0.20014E-01        -0.12210E+00         0.00000E+00
    0.18576E-01        -0.10903E+00         0.00000E+00
    0.17181E-01        -0.96595E-01         0.00000E+00
    0.15811E-01        -0.84735E-01         0.00000E+00
    0.14447E-01        -0.73411E-01         0.00000E+00
    0.13066E-01        -0.62590E-01         0.00000E+00
    0.11641E-01        -0.52245E-01         0.00000E+00
    0.10140E-01        -0.42360E-01         0.00000E+00
    0.85299E-02        -0.32928E-01         0.00000E+00
    0.67671E-02        -0.23953E-01         0.00000E+00
    0.48014E-02        -0.15450E-01         0.00000E+00
    0.25711E-02        -0.74496E-02         0.00000E+00
    0.00000E+00         0.00000E+00         0.00000E+00
   -0.58338E-01        -0.24437E+00         0.00000E+00
   -0.11222E-01        -0.24615E+00         0.00000E+00
    0.13215E-01        -0.24287E+00         0.00000E+00
    0.25557E-01        -0.23451E+00         0.00000E+00
    0.31467E-01        -0.22317E+00         0.00000E+00
    0.33803E-01        -0.21016E+00         0.00000E+00
    0.34163E-01        -0.19633E+00         0.00000E+00
    0.33447E-01        -0.18222E+00         0.00000E+00
    0.32164E-01        -0.16818E+00         0.00000E+00
    0.30600E-01        -0.15442E+00         0.00000E+00
    0.28913E-01        -0.14104E+00         0.00000E+00
    0.27187E-01        -0.12810E+00         0.00000E+00
    0.25462E-01        -0.11563E+00         0.00000E+00
    0.23752E-01        -0.10363E+00         0.00000E+00
    0.22057E-01        -0.92096E-01         0.00000E+00
    0.20365E-01        -0.81004E-01         0.00000E+00
    0.18656E-01        -0.70342E-01         0.00000E+00
    0.16906E-01        -0.60096E-01         0.00000E+00
    0.15085E-01        -0.50256E-01         0.00000E+00
    0.13156E-01        -0.40817E-01         0.00000E+00
    0.11075E-01        -0.31780E-01         0.00000E+00
    0.87895E-02        -0.23155E-01         0.00000E+00
    0.62370E-02        -0.14961E-01         0.00000E+00
    0.33392E-02        -0.72273E-02         0.00000E+00
    0.00000E+00         0.00000E+00         0.00000E+00
   -0.55389E-01        -0.19936E+00         0.00000E+00
   -0.18901E-01        -0.19914E+00         0.00000E+00
    0.69198E-02        -0.19992E+00         0.00000E+00
    0.22187E-01        -0.19758E+00         0.00000E+00
    0.30676E-01        -0.19202E+00         0.00000E+00
    0.34982E-01        -0.18406E+00         0.00000E+00
    0.36739E-01        -0.17451E+00         0.00000E+00
    0.36960E-01        -0.16397E+00         0.00000E+00
    0.36267E-01        -0.15289E+00         0.00000E+00
    0.35041E-01        -0.14157E+00         0.00000E+00
    0.33510E-01        -0.13023E+00         0.00000E+00
    0.31811E-01        -0.11900E+00         0.00000E+00
    0.30019E-01        -0.10797E+00         0.00000E+00
    0.28175E-01        -0.97189E-01         0.00000E+00
    0.26292E-01        -0.86694E-01         0.00000E+00
    0.24370E-01        -0.76502E-01         0.00000E+00
    0.22395E-01        -0.66623E-01         0.00000E+00
    0.20344E-01        -0.57065E-01         0.00000E+00
    0.18187E-01        -0.47832E-01         0.00000E+00
    0.15883E-01        -0.38932E-01         0.00000E+00
    0.13382E-01        -0.30375E-01         0.00000E+00
    0.10627E-01        -0.22177E-01         0.00000E+00
    0.75414E-02        -0.14359E-01         0.00000E+00
    0.40366E-02        -0.69534E-02         0.00000E+00
    0.00000E+00         0.00000E+00         0.00000E+00
   -0.51224E-01        -0.16553E+00         0.00000E+00
   -0.22397E-01        -0.16504E+00         0.00000E+00
    0.10354E-02        -0.16576E+00         0.00000E+00
    0.17423E-01        -0.16562E+00         0.00000E+00
    0.27812E-01        -0.16335E+00         0.00000E+00
    0.33938E-01        -0.15893E+00         0.00000E+00
    0.37186E-01        -0.15275E+00         0.00000E+00
    0.38540E-01        -0.14525E+00         0.00000E+00
    0.38664E-01        -0.13685E+00         0.00000E+00
    0.37997E-01        -0.12786E+00         0.00000E+00
    0.36825E-01        -0.11853E+00         0.00000E+00
    0.35331E-01        -0.10902E+00         0.00000E+00
    0.33626E-01        -0.99482E-01         0.00000E+00
    0.31777E-01        -0.89993E-01         0.00000E+00
    0.29819E-01        -0.80620E-01         0.00000E+00
    0.27762E-01        -0.71411E-01         0.00000E+00
    0.25604E-01        -0.62398E-01         0.00000E+00
    0.23325E-01        -0.53606E-01         0.00000E+00
    0.20896E-01        -0.45056E-01         0.00000E+00
    0.18277E-01        -0.36767E-01         0.00000E+00
    0.15416E-01        -0.28757E-01         0.00000E+00
    0.12249E-01        -0.21048E-01         0.00000E+00
    0.86936E-02        -0.13664E-01         0.00000E+00
    0.46518E-02        -0.66358E-02         0.00000E+00
    0.00000E+00         0.00000E+00         0.00000E+00
   -0.47086E-01        -0.13903E+00         0.00000E+00
   -0.23567E-01        -0.13820E+00         0.00000E+00
   -0.30188E-02        -0.13861E+00         0.00000E+00
    0.12905E-01        -0.13898E+00         0.00000E+00
    0.24179E-01        -0.13826E+00         0.00000E+00
    0.31604E-01        -0.13599E+00         0.00000E+00
    0.36140E-01        -0.13219E+00         0.00000E+00
    0.38604E-01        -0.12708E+00         0.00000E+00
    0.39616E-01        -0.12092E+00         0.00000E+00
    0.39625E-01        -0.11398E+00         0.00000E+00
    0.38944E-01        -0.10648E+00         0.00000E+00
    0.37784E-01        -0.98624E-01         0.00000E+00
    0.36289E-01        -0.90538E-01         0.00000E+00
    0.34548E-01        -0.82338E-01         0.00000E+00
    0.32613E-01        -0.74111E-01         0.00000E+00
    0.30512E-01        -0.65919E-01         0.00000E+00
    0.28249E-01        -0.57815E-01         0.00000E+00
    0.25814E-01        -0.49838E-01         0.00000E+00
    0.23181E-01        -0.42021E-01         0.00000E+00
    0.20310E-01        -0.34391E-01         0.00000E+00
    0.17151E-01        -0.26977E-01         0.00000E+00
    0.13635E-01        -0.19802E-01         0.00000E+00
    0.96786E-02        -0.12894E-01         0.00000E+00
    0.51768E-02        -0.62831E-02         0.00000E+00
    0.00000E+00         0.00000E+00         0.00000E+00
   -0.43048E-01        -0.11735E+00         0.00000E+00
   -0.23429E-01        -0.11636E+00         0.00000E+00
   -0.55475E-02        -0.11644E+00         0.00000E+00
    0.92659E-02        -0.11683E+00         0.00000E+00
    0.20608E-01        -0.11675E+00         0.00000E+00
    0.28739E-01        -0.11569E+00         0.00000E+00
    0.34208E-01        -0.11345E+00         0.00000E+00
    0.37608E-01        -0.11007E+00         0.00000E+00
    0.39453E-01        -0.10567E+00         0.00000E+00
    0.40154E-01        -0.10044E+00         0.00000E+00
    0.40019E-01        -0.94560E-01         0.00000E+00
    0.39271E-01        -0.88186E-01         0.00000E+00
    0.38069E-01        -0.81459E-01         0.00000E+00
    0.36519E-01        -0.74494E-01         0.00000E+00
    0.34690E-01        -0.67385E-01         0.00000E+00
    0.32620E-01        -0.60206E-01         0.00000E+00
    0.30325E-01        -0.53019E-01         0.00000E+00
    0.27800E-01        -0.45875E-01         0.00000E+00
    0.25027E-01        -0.38814E-01         0.00000E+00
    0.21967E-01        -0.31873E-01         0.00000E+00
    0.18572E-01        -0.25083E-01         0.00000E+00
    0.14774E-01        -0.18473E-01         0.00000E+00
    0.10488E-01        -0.12071E-01         0.00000E+00
    0.56072E-02        -0.59043E-02         0.00000E+00
    0.00000E+00         0.00000E+00         0.00000E+00
   -0.39149E-01        -0.99243E-01         0.00000E+00
   -0.22533E-01        -0.98163E-01         0.00000E+00
   -0.69596E-02        -0.98003E-01         0.00000E+00
    0.65394E-02        -0.98273E-01         0.00000E+00
    0.17476E-01        -0.98416E-01         0.00000E+00
    0.25828E-01        -0.97987E-01         0.00000E+00
    0.31861E-01        -0.96730E-01         0.00000E+00
    0.35955E-01        -0.94553E-01         0.00000E+00
    0.38498E-01        -0.91488E-01         0.00000E+00
    0.39833E-01        -0.87629E-01         0.00000E+00
    0.40237E-01        -0.83097E-01         0.00000E+00
    0.39926E-01        -0.78019E-01         0.00000E+00
    0.39061E-01        -0.72515E-01         0.00000E+00
    0.37757E-01        -0.66690E-01         0.00000E+00
    0.36092E-01        -0.60637E-01         0.00000E+00
    0.34114E-01        -0.54433E-01         0.00000E+00
    0.31846E-01        -0.48144E-01         0.00000E+00
    0.29292E-01        -0.41825E-01         0.00000E+00
    0.26436E-01        -0.35523E-01         0.00000E+00
    0.23248E-01        -0.29277E-01         0.00000E+00
    0.19679E-01        -0.23124E-01         0.00000E+00
    0.15664E-01        -0.17093E-01         0.00000E+00
    0.11120E-01        -0.11213E-01         0.00000E+00
    0.59420E-02        -0.55082E-02         0.00000E+00
    0.00000E+00         0.00000E+00         0.00000E+00
   -0.35403E-01        -0.83900E-01         0.00000E+00
   -0.21184E-01        -0.82784E-01         0.00000E+00
   -0.75853E-02        -0.82452E-01         0.00000E+00
    0.45937E-02        -0.82580E-01         0.00000E+00
    0.14881E-01        -0.82771E-01         0.00000E+00
    0.23124E-01        -0.82663E-01         0.00000E+00
    0.29410E-01        -0.82000E-01         0.00000E+00
    0.33956E-01        -0.80643E-01         0.00000E+00
    0.37029E-01        -0.78553E-01         0.00000E+00
    0.38894E-01        -0.75757E-01         0.00000E+00
    0.39786E-01        -0.72326E-01         0.00000E+00
    0.39896E-01        -0.68346E-01         0.00000E+00
    0.39379E-01        -0.63912E-01         0.00000E+00
    0.38347E-01        -0.59112E-01         0.00000E+00
    0.36882E-01        -0.54031E-01         0.00000E+00
    0.35039E-01        -0.48740E-01         0.00000E+00
    0.32845E-01        -0.43306E-01         0.00000E+00
    0.30311E-01        -0.37784E-01         0.00000E+00
    0.27426E-01        -0.32223E-01         0.00000E+00
    0.24163E-01        -0.26664E-01         0.00000E+00
    0.20478E-01        -0.21144E-01         0.00000E+00
    0.16309E-01        -0.15694E-01         0.00000E+00
    0.11578E-01        -0.10340E-01         0.00000E+00
    0.61829E-02        -0.51031E-02         0.00000E+00
    0.00000E+00         0.00000E+00         0.00000E+00
   -0.31820E-01        -0.70783E-01         0.00000E+00
   -0.19569E-01        -0.69662E-01         0.00000E+00
   -0.76614E-02        -0.69215E-01         0.00000E+00
    0.32703E-02        -0.69218E-01         0.00000E+00
    0.12802E-01        -0.69383E-01         0.00000E+00
    0.20732E-01        -0.69428E-01         0.00000E+00
    0.27038E-01        -0.69121E-01         0.00000E+00
    0.31824E-01        -0.68312E-01         0.00000E+00
    0.35260E-01        -0.66923E-01         0.00000E+00
    0.37537E-01        -0.64939E-01         0.00000E+00
    0.38838E-01        -0.62386E-01         0.00000E+00
    0.39328E-01        -0.59316E-01         0.00000E+00
    0.39141E-01        -0.55797E-01         0.00000E+00
    0.38384E-01        -0.51899E-01         0.00000E+00
    0.37137E-01        -0.47691E-01         0.00000E+00
    0.35455E-01        -0.43239E-01         0.00000E+00
    0.33369E-01        -0.38601E-01         0.00000E+00
    0.30894E-01        -0.33833E-01         0.00000E+00
    0.28022E-01        -0.28981E-01         0.00000E+00
    0.24732E-01        -0.24085E-01         0.00000E+00
    0.20984E-01        -0.19183E-01         0.00000E+00
    0.16722E-01        -0.14302E-01         0.00000E+00
    0.11870E-01        -0.94673E-02         0.00000E+00
    0.63346E-02        -0.46966E-02         0.00000E+00
    0.00000E+00         0.00000E+00         0.00000E+00
   -0.28408E-01        -0.59503E-01         0.00000E+00
   -0.17804E-01        -0.58400E-01         0.00000E+00
   -0.73563E-02        -0.57878E-01         0.00000E+00
    0.24275E-02        -0.57781E-01         0.00000E+00
    0.11176E-01        -0.57898E-01         0.00000E+00
    0.18672E-01        -0.58006E-01         0.00000E+00
    0.24837E-01        -0.57910E-01         0.00000E+00
    0.29697E-01        -0.57465E-01         0.00000E+00
    0.33348E-01        -0.56576E-01         0.00000E+00
    0.35917E-01        -0.55203E-01         0.00000E+00
    0.37541E-01        -0.53342E-01         0.00000E+00
    0.38351E-01        -0.51016E-01         0.00000E+00
    0.38460E-01        -0.48267E-01         0.00000E+00
    0.37964E-01        -0.45147E-01         0.00000E+00
    0.36935E-01        -0.41711E-01         0.00000E+00
    0.35427E-01        -0.38013E-01         0.00000E+00
    0.33471E-01        -0.34106E-01         0.00000E+00
    0.31083E-01        -0.30037E-01         0.00000E+00
    0.28261E-01        -0.25851E-01         0.00000E+00
    0.24985E-01        -0.21585E-01         0.00000E+00
    0.21221E-01        -0.17272E-01         0.00000E+00
    0.16918E-01        -0.12941E-01         0.00000E+00
    0.12008E-01        -0.86105E-02         0.00000E+00
    0.64034E-02        -0.42953E-02         0.00000E+00
    0.00000E+00         0.00000E+00         0.00000E+00
   -0.25176E-01        -0.49768E-01         0.00000E+00
   -0.15971E-01        -0.48697E-01         0.00000E+00
   -0.67908E-02        -0.48132E-01         0.00000E+00
    0.19494E-02        -0.47961E-01         0.00000E+00
    0.99269E-02        -0.48026E-01         0.00000E+00
    0.16928E-01        -0.48153E-01         0.00000E+00
    0.22845E-01        -0.48180E-01         0.00000E+00
    0.27654E-01        -0.47975E-01         0.00000E+00
    0.31397E-01        -0.47444E-01         0.00000E+00
    0.34151E-01        -0.46528E-01         0.00000E+00
    0.36012E-01        -0.45206E-01         0.00000E+00
    0.37078E-01        -0.43481E-01         0.00000E+00
    0.37440E-01        -0.41373E-01         0.00000E+00
    0.37178E-01        -0.38917E-01         0.00000E+00
    0.36356E-01        -0.36153E-01         0.00000E+00
    0.35022E-01        -0.33124E-01         0.00000E+00
    0.33207E-01        -0.29875E-01         0.00000E+00
    0.30927E-01        -0.26445E-01         0.00000E+00
    0.28181E-01        -0.22875E-01         0.00000E+00
    0.24954E-01        -0.19197E-01         0.00000E+00
    0.21215E-01        -0.15440E-01         0.00000E+00
    0.16919E-01        -0.11630E-01         0.00000E+00
    0.12006E-01        -0.77814E-02         0.00000E+00
    0.63972E-02        -0.39049E-02         0.00000E+00
    0.00000E+00         0.00000E+00         0.00000E+00
   -0.22127E-01        -0.41350E-01         0.00000E+00
   -0.14125E-01        -0.40321E-01         0.00000E+00
   -0.60531E-02        -0.39736E-01         0.00000E+00
    0.17434E-02        -0.39513E-01         0.00000E+00
    0.89835E-02        -0.39532E-01         0.00000E+00
    0.15465E-01        -0.39657E-01         0.00000E+00
    0.21067E-01        -0.39755E-01         0.00000E+00
    0.25737E-01        -0.39711E-01         0.00000E+00
    0.29477E-01        -0.39433E-01         0.00000E+00
    0.32325E-01        -0.38860E-01         0.00000E+00
    0.34343E-01        -0.37957E-01         0.00000E+00
    0.35600E-01        -0.36713E-01         0.00000E+00
    0.36167E-01        -0.35133E-01         0.00000E+00
    0.36107E-01        -0.33237E-01         0.00000E+00
    0.35473E-01        -0.31052E-01         0.00000E+00
    0.34307E-01        -0.28610E-01         0.00000E+00
    0.32636E-01        -0.25945E-01         0.00000E+00
    0.30475E-01        -0.23092E-01         0.00000E+00
    0.27826E-01        -0.20083E-01         0.00000E+00
    0.24674E-01        -0.16946E-01         0.00000E+00
    0.20995E-01        -0.13706E-01         0.00000E+00
    0.16748E-01        -0.10383E-01         0.00000E+00
    0.11881E-01        -0.69893E-02         0.00000E+00
    0.63251E-02        -0.35298E-02         0.00000E+00
    0.00000E+00         0.00000E+00         0.00000E+00
   -0.19266E-01        -0.34064E-01         0.00000E+00
   -0.12307E-01        -0.33085E-01         0.00000E+00
   -0.52082E-02        -0.32499E-01         0.00000E+00
    0.17369E-02        -0.32242E-01         0.00000E+00
    0.82833E-02        -0.32224E-01         0.00000E+00
    0.14244E-01        -0.32339E-01         0.00000E+00
    0.19494E-01        -0.32477E-01         0.00000E+00
    0.23963E-01        -0.32539E-01         0.00000E+00
    0.27626E-01        -0.32443E-01         0.00000E+00
    0.30494E-01        -0.32126E-01         0.00000E+00
    0.32601E-01        -0.31549E-01         0.00000E+00
    0.33991E-01        -0.30689E-01         0.00000E+00
    0.34716E-01        -0.29541E-01         0.00000E+00
    0.34822E-01        -0.28113E-01         0.00000E+00
    0.34352E-01        -0.26422E-01         0.00000E+00
    0.33341E-01        -0.24488E-01         0.00000E+00
    0.31811E-01        -0.22339E-01         0.00000E+00
    0.29776E-01        -0.19999E-01         0.00000E+00
    0.27237E-01        -0.17496E-01         0.00000E+00
    0.24182E-01        -0.14851E-01         0.00000E+00
    0.20591E-01        -0.12084E-01         0.00000E+00
    0.16428E-01        -0.92118E-02         0.00000E+00
    0.11649E-01        -0.62412E-02         0.00000E+00
    0.61963E-02        -0.31736E-02         0.00000E+00
    0.00000E+00         0.00000E+00         0.00000E+00
   -0.16594E-01        -0.27761E-01         0.00000E+00
   -0.10544E-01        -0.26838E-01         0.00000E+00
   -0.43052E-02        -0.26262E-01         0.00000E+00
    0.18725E-02        -0.25987E-01         0.00000E+00
    0.77733E-02        -0.25943E-01         0.00000E+00
    0.13226E-01        -0.26045E-01         0.00000E+00
    0.18106E-01        -0.26206E-01         0.00000E+00
    0.22333E-01        -0.26340E-01         0.00000E+00
    0.25868E-01        -0.26374E-01         0.00000E+00
    0.28698E-01        -0.26249E-01         0.00000E+00
    0.30836E-01        -0.25923E-01         0.00000E+00
    0.32308E-01        -0.25369E-01         0.00000E+00
    0.33146E-01        -0.24574E-01         0.00000E+00
    0.33384E-01        -0.23535E-01         0.00000E+00
    0.33053E-01        -0.22261E-01         0.00000E+00
    0.32181E-01        -0.20765E-01         0.00000E+00
    0.30785E-01        -0.19063E-01         0.00000E+00
    0.28877E-01        -0.17177E-01         0.00000E+00
    0.26456E-01        -0.15123E-01         0.00000E+00
    0.23514E-01        -0.12921E-01         0.00000E+00
    0.20033E-01        -0.10584E-01         0.00000E+00
    0.15985E-01        -0.81228E-02         0.00000E+00
    0.11329E-01        -0.55421E-02         0.00000E+00
    0.60201E-02        -0.28386E-02         0.00000E+00
    0.00000E+00         0.00000E+00         0.00000E+00
   -0.14112E-01        -0.22315E-01         0.00000E+00
   -0.88590E-02        -0.21452E-01         0.00000E+00
   -0.33807E-02        -0.20896E-01         0.00000E+00
    0.21054E-02        -0.20614E-01         0.00000E+00
    0.74093E-02        -0.20552E-01         0.00000E+00
    0.12374E-01        -0.20644E-01         0.00000E+00
    0.16880E-01        -0.20817E-01         0.00000E+00
    0.20844E-01        -0.21000E-01         0.00000E+00
    0.24212E-01        -0.21128E-01         0.00000E+00
    0.26960E-01        -0.21148E-01         0.00000E+00
    0.29084E-01        -0.21017E-01         0.00000E+00
    0.30593E-01        -0.20706E-01         0.00000E+00
    0.31505E-01        -0.20196E-01         0.00000E+00
    0.31842E-01        -0.19479E-01         0.00000E+00
    0.31626E-01        -0.18555E-01         0.00000E+00
    0.30875E-01        -0.17431E-01         0.00000E+00
    0.29603E-01        -0.16117E-01         0.00000E+00
    0.27819E-01        -0.14625E-01         0.00000E+00
    0.25522E-01        -0.12969E-01         0.00000E+00
    0.22705E-01        -0.11160E-01         0.00000E+00
    0.19352E-01        -0.92086E-02         0.00000E+00
    0.15440E-01        -0.71200E-02         0.00000E+00
    0.10937E-01        -0.48947E-02         0.00000E+00
    0.58056E-02        -0.25265E-02         0.00000E+00
    0.00000E+00         0.00000E+00         0.00000E+00
   -0.11819E-01        -0.17619E-01         0.00000E+00
   -0.72657E-02        -0.16817E-01         0.00000E+00
   -0.24628E-02        -0.16289E-01         0.00000E+00
    0.24004E-02        -0.16009E-01         0.00000E+00
    0.71550E-02        -0.15938E-01         0.00000E+00
    0.11658E-01        -0.16022E-01         0.00000E+00
    0.15795E-01        -0.16202E-01         0.00000E+00
    0.19482E-01        -0.16419E-01         0.00000E+00
    0.22660E-01        -0.16616E-01         0.00000E+00
    0.25295E-01        -0.16744E-01         0.00000E+00
    0.27368E-01        -0.16764E-01         0.00000E+00
    0.28878E-01        -0.16645E-01         0.00000E+00
    0.29831E-01        -0.16365E-01         0.00000E+00
    0.30238E-01        -0.15913E-01         0.00000E+00
    0.30112E-01        -0.15282E-01         0.00000E+00
    0.29465E-01        -0.14473E-01         0.00000E+00
    0.28307E-01        -0.13490E-01         0.00000E+00
    0.26642E-01        -0.12340E-01         0.00000E+00
    0.24470E-01        -0.11030E-01         0.00000E+00
    0.21784E-01        -0.95686E-02         0.00000E+00
    0.18572E-01        -0.79593E-02         0.00000E+00
    0.14815E-01        -0.62043E-02         0.00000E+00
    0.10488E-01        -0.43004E-02         0.00000E+00
    0.55613E-02        -0.22380E-02         0.00000E+00
    0.00000E+00         0.00000E+00         0.00000E+00
   -0.97112E-02        -0.13580E-01         0.00000E+00
   -0.57750E-02        -0.12841E-01         0.00000E+00
   -0.15722E-02        -0.12345E-01         0.00000E+00
    0.27299E-02        -0.12076E-01         0.00000E+00
    0.69807E-02        -0.12002E-01         0.00000E+00
    0.11050E-01        -0.12081E-01         0.00000E+00
    0.14830E-01        -0.12266E-01         0.00000E+00
    0.18238E-01        -0.12506E-01         0.00000E+00
    0.21211E-01        -0.12753E-01         0.00000E+00
    0.23708E-01        -0.12963E-01         0.00000E+00
    0.25704E-01        -0.13100E-01         0.00000E+00
    0.27187E-01        -0.13132E-01         0.00000E+00
    0.28152E-01        -0.13038E-01         0.00000E+00
    0.28604E-01        -0.12801E-01         0.00000E+00
    0.28547E-01        -0.12412E-01         0.00000E+00
    0.27987E-01        -0.11868E-01         0.00000E+00
    0.26931E-01        -0.11166E-01         0.00000E+00
    0.25380E-01        -0.10309E-01         0.00000E+00
    0.23332E-01        -0.93002E-02         0.00000E+00
    0.20782E-01        -0.81414E-02         0.00000E+00
    0.17721E-01        -0.68337E-02         0.00000E+00
    0.14132E-01        -0.53750E-02         0.00000E+00
    0.99974E-02        -0.37589E-02         0.00000E+00
    0.52950E-02        -0.19735E-02         0.00000E+00
    0.00000E+00         0.00000E+00         0.00000E+00
   -0.77863E-02        -0.10119E-01         0.00000E+00
   -0.43937E-02        -0.94424E-02         0.00000E+00
   -0.72487E-03        -0.89834E-02         0.00000E+00
    0.30722E-02        -0.87299E-02         0.00000E+00
    0.68625E-02        -0.86584E-02         0.00000E+00
    0.10527E-01        -0.87360E-02         0.00000E+00
    0.13966E-01        -0.89237E-02         0.00000E+00
    0.17097E-01        -0.91800E-02         0.00000E+00
    0.19858E-01        -0.94636E-02         0.00000E+00
    0.22204E-01        -0.97358E-02         0.00000E+00
    0.24103E-01        -0.99621E-02         0.00000E+00
    0.25535E-01        -0.10114E-01         0.00000E+00
    0.26491E-01        -0.10167E-01         0.00000E+00
    0.26966E-01        -0.10105E-01         0.00000E+00
    0.26959E-01        -0.99162E-02         0.00000E+00
    0.26472E-01        -0.95914E-02         0.00000E+00
    0.25506E-01        -0.91265E-02         0.00000E+00
    0.24062E-01        -0.85191E-02         0.00000E+00
    0.22136E-01        -0.77679E-02         0.00000E+00
    0.19724E-01        -0.68714E-02         0.00000E+00
    0.16818E-01        -0.58270E-02         0.00000E+00
    0.13407E-01        -0.46291E-02         0.00000E+00
    0.94774E-02        -0.32690E-02         0.00000E+00
    0.50137E-02        -0.17326E-02         0.00000E+00
    0.00000E+00         0.00000E+00         0.00000E+00
   -0.60394E-02        -0.71648E-02         0.00000E+00
   -0.31261E-02        -0.65507E-02         0.00000E+00
    0.67904E-04        -0.61304E-02         0.00000E+00
    0.34107E-02        -0.58967E-02         0.00000E+00
    0.67809E-02        -0.58321E-02         0.00000E+00
    0.10070E-01        -0.59108E-02         0.00000E+00
    0.13185E-01        -0.61015E-02         0.00000E+00
    0.16047E-01        -0.63695E-02         0.00000E+00
    0.18595E-01        -0.66796E-02         0.00000E+00
    0.20781E-01        -0.69976E-02         0.00000E+00
    0.22569E-01        -0.72924E-02         0.00000E+00
    0.23935E-01        -0.75368E-02         0.00000E+00
    0.24863E-01        -0.77078E-02         0.00000E+00
    0.25344E-01        -0.77870E-02         0.00000E+00
    0.25372E-01        -0.77603E-02         0.00000E+00
    0.24944E-01        -0.76172E-02         0.00000E+00
    0.24058E-01        -0.73499E-02         0.00000E+00
    0.22713E-01        -0.69526E-02         0.00000E+00
    0.20906E-01        -0.64208E-02         0.00000E+00
    0.18632E-01        -0.57494E-02         0.00000E+00
    0.15885E-01        -0.49328E-02         0.00000E+00
    0.12657E-01        -0.39630E-02         0.00000E+00
    0.89395E-02        -0.28287E-02         0.00000E+00
    0.47234E-02        -0.15146E-02         0.00000E+00
    0.00000E+00         0.00000E+00         0.00000E+00
   -0.44649E-02        -0.46558E-02         0.00000E+00
   -0.19739E-02        -0.41030E-02         0.00000E+00
    0.79790E-03        -0.37228E-02         0.00000E+00
    0.37325E-02        -0.35117E-02         0.00000E+00
    0.67206E-02        -0.34573E-02         0.00000E+00
    0.96631E-02        -0.35396E-02         0.00000E+00
    0.12473E-01        -0.37333E-02         0.00000E+00
    0.15078E-01        -0.40096E-02         0.00000E+00
    0.17415E-01        -0.43386E-02         0.00000E+00
    0.19437E-01        -0.46903E-02         0.00000E+00
    0.21105E-01        -0.50369E-02         0.00000E+00
    0.22393E-01        -0.53528E-02         0.00000E+00
    0.23281E-01        -0.56159E-02         0.00000E+00
    0.23754E-01        -0.58075E-02         0.00000E+00
    0.23803E-01        -0.59122E-02         0.00000E+00
    0.23422E-01        -0.59176E-02         0.00000E+00
    0.22608E-01        -0.58136E-02         0.00000E+00
    0.21355E-01        -0.55918E-02         0.00000E+00
    0.19662E-01        -0.52447E-02         0.00000E+00
    0.17524E-01        -0.47649E-02         0.00000E+00
    0.14936E-01        -0.41440E-02         0.00000E+00
    0.11894E-01        -0.33718E-02         0.00000E+00
    0.83934E-02        -0.24354E-02         0.00000E+00
    0.44294E-02        -0.13185E-02         0.00000E+00
    0.00000E+00         0.00000E+00         0.00000E+00
   -0.30566E-02        -0.25370E-02         0.00000E+00
   -0.93711E-03        -0.20439E-02         0.00000E+00
    0.14596E-02        -0.17043E-02         0.00000E+00
    0.40280E-02        -0.15179E-02         0.00000E+00
    0.66691E-02        -0.14761E-02         0.00000E+00
    0.92928E-02        -0.15638E-02         0.00000E+00
    0.11819E-01        -0.17606E-02         0.00000E+00
    0.14177E-01        -0.20428E-02         0.00000E+00
    0.16310E-01        -0.23849E-02         0.00000E+00
    0.18168E-01        -0.27609E-02         0.00000E+00
    0.19713E-01        -0.31457E-02         0.00000E+00
    0.20915E-01        -0.35159E-02         0.00000E+00
    0.21752E-01        -0.38502E-02         0.00000E+00
    0.22206E-01        -0.41302E-02         0.00000E+00
    0.22266E-01        -0.43398E-02         0.00000E+00
    0.21924E-01        -0.44652E-02         0.00000E+00
    0.21171E-01        -0.44947E-02         0.00000E+00
    0.20005E-01        -0.44179E-02         0.00000E+00
    0.18421E-01        -0.42252E-02         0.00000E+00
    0.16416E-01        -0.39068E-02         0.00000E+00
    0.13987E-01        -0.34525E-02         0.00000E+00
    0.11131E-01        -0.28503E-02         0.00000E+00
    0.78473E-02        -0.20861E-02         0.00000E+00
    0.41360E-02        -0.11430E-02         0.00000E+00
    0.00000E+00         0.00000E+00         0.00000E+00
   -0.18076E-02        -0.75965E-03         0.00000E+00
   -0.14395E-04        -0.32416E-03         0.00000E+00
    0.20497E-02        -0.25143E-04         0.00000E+00
    0.42900E-02         0.13547E-03         0.00000E+00
    0.66171E-02         0.16291E-03         0.00000E+00
    0.89486E-02         0.68523E-04         0.00000E+00
    0.11210E-01        -0.13159E-03         0.00000E+00
    0.13337E-01        -0.41786E-03         0.00000E+00
    0.15273E-01        -0.76864E-03         0.00000E+00
    0.16970E-01        -0.11614E-02         0.00000E+00
    0.18390E-01        -0.15736E-02         0.00000E+00
    0.19502E-01        -0.19839E-02         0.00000E+00
    0.20282E-01        -0.23723E-02         0.00000E+00
    0.20710E-01        -0.27206E-02         0.00000E+00
    0.20773E-01        -0.30126E-02         0.00000E+00
    0.20460E-01        -0.32337E-02         0.00000E+00
    0.19763E-01        -0.33711E-02         0.00000E+00
    0.18677E-01        -0.34127E-02         0.00000E+00
    0.17198E-01        -0.33473E-02         0.00000E+00
    0.15322E-01        -0.31637E-02         0.00000E+00
    0.13048E-01        -0.28499E-02         0.00000E+00
    0.10377E-01        -0.23929E-02         0.00000E+00
    0.73080E-02        -0.17776E-02         0.00000E+00
    0.38468E-02        -0.98676E-03         0.00000E+00
    0.00000E+00         0.00000E+00         0.00000E+00
   -0.71049E-03         0.71978E-03         0.00000E+00
    0.79686E-03         0.10999E-02         0.00000E+00
    0.25666E-02         0.13591E-02         0.00000E+00
    0.45135E-02         0.14933E-02         0.00000E+00
    0.65569E-02         0.15054E-02         0.00000E+00
    0.86217E-02         0.14033E-02         0.00000E+00
    0.10639E-01         0.11998E-02         0.00000E+00
    0.12549E-01         0.91090E-03         0.00000E+00
    0.14298E-01         0.55495E-03         0.00000E+00
    0.15839E-01         0.15150E-03         0.00000E+00
    0.17136E-01        -0.27950E-03         0.00000E+00
    0.18156E-01        -0.71846E-03         0.00000E+00
    0.18875E-01        -0.11467E-02         0.00000E+00
    0.19271E-01        -0.15466E-02         0.00000E+00
    0.19331E-01        -0.19020E-02         0.00000E+00
    0.19041E-01        -0.21981E-02         0.00000E+00
    0.18393E-01        -0.24212E-02         0.00000E+00
    0.17382E-01        -0.25582E-02         0.00000E+00
    0.16002E-01        -0.25968E-02         0.00000E+00
    0.14251E-01        -0.25244E-02         0.00000E+00
    0.12130E-01        -0.23281E-02         0.00000E+00
    0.96381E-02        -0.19940E-02         0.00000E+00
    0.67809E-02        -0.15065E-02         0.00000E+00
    0.35646E-02        -0.84843E-03         0.00000E+00
    0.00000E+00         0.00000E+00         0.00000E+00
    0.24253E-03         0.19401E-02         0.00000E+00
    0.15002E-02         0.22674E-02         0.00000E+00
    0.30099E-02         0.24877E-02         0.00000E+00
    0.46952E-02         0.25956E-02         0.00000E+00
    0.64831E-02         0.25916E-02         0.00000E+00
    0.83051E-02         0.24813E-02         0.00000E+00
    0.10098E-01         0.22744E-02         0.00000E+00
    0.11806E-01         0.19841E-02         0.00000E+00
    0.13378E-01         0.16258E-02         0.00000E+00
    0.14771E-01         0.12164E-02         0.00000E+00
    0.15947E-01         0.77367E-03         0.00000E+00
    0.16876E-01         0.31547E-03         0.00000E+00
    0.17532E-01        -0.14080E-03         0.00000E+00
    0.17893E-01        -0.57840E-03         0.00000E+00
    0.17944E-01        -0.98145E-03         0.00000E+00
    0.17673E-01        -0.13350E-02         0.00000E+00
    0.17070E-01        -0.16249E-02         0.00000E+00
    0.16127E-01        -0.18375E-02         0.00000E+00
    0.14842E-01        -0.19597E-02         0.00000E+00
    0.13212E-01        -0.19780E-02         0.00000E+00
    0.11238E-01        -0.18790E-02         0.00000E+00
    0.89217E-02        -0.16480E-02         0.00000E+00
    0.62700E-02        -0.12696E-02         0.00000E+00
    0.32917E-02        -0.72650E-03         0.00000E+00
    0.00000E+00         0.00000E+00         0.00000E+00
    0.10595E-02         0.29358E-02         0.00000E+00
    0.20997E-02         0.32131E-02         0.00000E+00
    0.33805E-02         0.33960E-02         0.00000E+00
    0.48331E-02         0.34779E-02         0.00000E+00
    0.63914E-02         0.34577E-02         0.00000E+00
    0.79933E-02         0.33388E-02         0.00000E+00
    0.95809E-02         0.31286E-02         0.00000E+00
    0.11102E-01         0.28378E-02         0.00000E+00
    0.12509E-01         0.24793E-02         0.00000E+00
    0.13761E-01         0.20679E-02         0.00000E+00
    0.14821E-01         0.16192E-02         0.00000E+00
    0.15661E-01         0.11494E-02         0.00000E+00
    0.16253E-01         0.67465E-03         0.00000E+00
    0.16578E-01         0.21091E-03         0.00000E+00
    0.16618E-01        -0.22648E-03         0.00000E+00
    0.16362E-01        -0.62268E-03         0.00000E+00
    0.15798E-01        -0.96339E-03         0.00000E+00
    0.14920E-01        -0.12347E-02         0.00000E+00
    0.13725E-01        -0.14229E-02         0.00000E+00
    0.12211E-01        -0.15143E-02         0.00000E+00
    0.10378E-01        -0.14948E-02         0.00000E+00
    0.82318E-02        -0.13497E-02         0.00000E+00
    0.57787E-02        -0.10635E-02         0.00000E+00
    0.30297E-02        -0.61955E-03         0.00000E+00
    0.00000E+00         0.00000E+00         0.00000E+00
    0.17485E-02         0.37379E-02         0.00000E+00
    0.26004E-02         0.39680E-02         0.00000E+00
    0.36802E-02         0.41151E-02         0.00000E+00
    0.49263E-02         0.41717E-02         0.00000E+00
    0.62791E-02         0.41354E-02         0.00000E+00
    0.76820E-02         0.40079E-02         0.00000E+00
    0.90821E-02         0.37946E-02         0.00000E+00
    0.10431E-01         0.35041E-02         0.00000E+00
    0.11684E-01         0.31473E-02         0.00000E+00
    0.12804E-01         0.27369E-02         0.00000E+00
    0.13755E-01         0.22867E-02         0.00000E+00
    0.14508E-01         0.18115E-02         0.00000E+00
    0.15039E-01         0.13262E-02         0.00000E+00
    0.15326E-01         0.84584E-03         0.00000E+00
    0.15354E-01         0.38514E-03         0.00000E+00
    0.15109E-01        -0.41362E-04         0.00000E+00
    0.14582E-01        -0.41943E-03         0.00000E+00
    0.13765E-01        -0.73509E-03         0.00000E+00
    0.12655E-01        -0.97444E-03         0.00000E+00
    0.11251E-01        -0.11236E-02         0.00000E+00
    0.95550E-02        -0.11682E-02         0.00000E+00
    0.75716E-02        -0.10939E-02         0.00000E+00
    0.53091E-02        -0.88516E-03         0.00000E+00
    0.27797E-02        -0.52615E-03         0.00000E+00
    0.00000E+00         0.00000E+00         0.00000E+00
    0.23178E-02         0.43739E-02         0.00000E+00
    0.30072E-02         0.45597E-02         0.00000E+00
    0.39113E-02         0.46727E-02         0.00000E+00
    0.49749E-02         0.47050E-02         0.00000E+00
    0.61443E-02         0.46530E-02         0.00000E+00
    0.73680E-02         0.45170E-02         0.00000E+00
    0.85978E-02         0.43009E-02         0.00000E+00
    0.97889E-02         0.40114E-02         0.00000E+00
    0.10901E-01         0.36577E-02         0.00000E+00
    0.11897E-01         0.32507E-02         0.00000E+00
    0.12744E-01         0.28028E-02         0.00000E+00
    0.13416E-01         0.23272E-02         0.00000E+00
    0.13887E-01         0.18377E-02         0.00000E+00
    0.14138E-01         0.13484E-02         0.00000E+00
    0.14152E-01         0.87350E-03         0.00000E+00
    0.13917E-01         0.42695E-03         0.00000E+00
    0.13423E-01         0.22777E-04         0.00000E+00
    0.12664E-01        -0.32515E-03         0.00000E+00
    0.11635E-01        -0.60298E-03         0.00000E+00
    0.10336E-01        -0.79680E-03         0.00000E+00
    0.87706E-02        -0.89252E-03         0.00000E+00
    0.69430E-02        -0.87573E-03         0.00000E+00
    0.48627E-02        -0.73164E-03         0.00000E+00
    0.25426E-02        -0.44497E-03         0.00000E+00
    0.00000E+00         0.00000E+00         0.00000E+00
    0.27756E-02         0.48681E-02         0.00000E+00
    0.33256E-02         0.50126E-02         0.00000E+00
    0.40768E-02         0.50936E-02         0.00000E+00
    0.49796E-02         0.51027E-02         0.00000E+00
    0.59858E-02         0.50355E-02         0.00000E+00
    0.70487E-02         0.48914E-02         0.00000E+00
    0.81245E-02         0.46727E-02         0.00000E+00
    0.91719E-02         0.43848E-02         0.00000E+00
    0.10153E-01         0.40353E-02         0.00000E+00
    0.11035E-01         0.36337E-02         0.00000E+00
    0.11786E-01         0.31909E-02         0.00000E+00
    0.12381E-01         0.27189E-02         0.00000E+00
    0.12795E-01         0.22304E-02         0.00000E+00
    0.13011E-01         0.17385E-02         0.00000E+00
    0.13012E-01         0.12567E-02         0.00000E+00
    0.12786E-01         0.79847E-03         0.00000E+00
    0.12323E-01         0.37751E-03         0.00000E+00
    0.11618E-01         0.73726E-05         0.00000E+00
    0.10666E-01        -0.29831E-03         0.00000E+00
    0.94682E-02        -0.52584E-03         0.00000E+00
    0.80266E-02        -0.66136E-03         0.00000E+00
    0.63474E-02        -0.69088E-03         0.00000E+00
    0.44403E-02        -0.60015E-03         0.00000E+00
    0.23186E-02        -0.37473E-03         0.00000E+00
    0.00000E+00         0.00000E+00         0.00000E+00
    0.31301E-02         0.52426E-02         0.00000E+00
    0.35613E-02         0.53486E-02         0.00000E+00
    0.41799E-02         0.53995E-02         0.00000E+00
    0.49417E-02         0.53867E-02         0.00000E+00
    0.58033E-02         0.53051E-02         0.00000E+00
    0.67225E-02         0.51532E-02         0.00000E+00
    0.76594E-02         0.49323E-02         0.00000E+00
    0.85765E-02         0.46465E-02         0.00000E+00
    0.94391E-02         0.43021E-02         0.00000E+00
    0.10216E-01         0.39074E-02         0.00000E+00
    0.10878E-01         0.34719E-02         0.00000E+00
    0.11401E-01         0.30065E-02         0.00000E+00
    0.11762E-01         0.25230E-02         0.00000E+00
    0.11945E-01         0.20335E-02         0.00000E+00
    0.11933E-01         0.15507E-02         0.00000E+00
    0.11715E-01         0.10877E-02         0.00000E+00
    0.11282E-01         0.65761E-03         0.00000E+00
    0.10628E-01         0.27353E-03         0.00000E+00
    0.97494E-02        -0.51184E-04         0.00000E+00
    0.86468E-02        -0.30319E-03         0.00000E+00
    0.73233E-02        -0.46903E-03         0.00000E+00
    0.57851E-02        -0.53521E-03         0.00000E+00
    0.40421E-02        -0.48814E-03         0.00000E+00
    0.21079E-02        -0.31424E-03         0.00000E+00
    0.00000E+00         0.00000E+00         0.00000E+00
    0.33891E-02         0.55164E-02         0.00000E+00
    0.37199E-02         0.55869E-02         0.00000E+00
    0.42243E-02         0.56099E-02         0.00000E+00
    0.48630E-02         0.55765E-02         0.00000E+00
    0.55969E-02         0.54813E-02         0.00000E+00
    0.63881E-02         0.53221E-02         0.00000E+00
    0.72005E-02         0.50993E-02         0.00000E+00
    0.79998E-02         0.48160E-02         0.00000E+00
    0.87543E-02         0.44774E-02         0.00000E+00
    0.94348E-02         0.40906E-02         0.00000E+00
    0.10015E-01         0.36641E-02         0.00000E+00
    0.10472E-01         0.32077E-02         0.00000E+00
    0.10785E-01         0.27322E-02         0.00000E+00
    0.10937E-01         0.22490E-02         0.00000E+00
    0.10913E-01         0.17701E-02         0.00000E+00
    0.10703E-01         0.13077E-02         0.00000E+00
    0.10298E-01         0.87454E-03         0.00000E+00
    0.96928E-02         0.48326E-03         0.00000E+00
    0.88840E-02         0.14675E-03         0.00000E+00
    0.78721E-02        -0.12209E-03         0.00000E+00
    0.66607E-02        -0.31031E-03         0.00000E+00
    0.52560E-02        -0.40498E-03         0.00000E+00
    0.36680E-02        -0.39324E-03         0.00000E+00
    0.19102E-02        -0.26238E-03         0.00000E+00
    0.00000E+00         0.00000E+00         0.00000E+00
    0.35603E-02         0.57067E-02         0.00000E+00
    0.38070E-02         0.57447E-02         0.00000E+00
    0.42137E-02         0.57417E-02         0.00000E+00
    0.47453E-02         0.56891E-02         0.00000E+00
    0.53670E-02         0.55812E-02         0.00000E+00
    0.60448E-02         0.54152E-02         0.00000E+00
    0.67460E-02         0.51908E-02         0.00000E+00
    0.74394E-02         0.49104E-02         0.00000E+00
    0.80961E-02         0.45780E-02         0.00000E+00
    0.86893E-02         0.41999E-02         0.00000E+00
    0.91949E-02         0.37836E-02         0.00000E+00
    0.95913E-02         0.33380E-02         0.00000E+00
    0.98596E-02         0.28729E-02         0.00000E+00
    0.99836E-02         0.23989E-02         0.00000E+00
    0.99501E-02         0.19274E-02         0.00000E+00
    0.97483E-02         0.14699E-02         0.00000E+00
    0.93705E-02         0.10385E-02         0.00000E+00
    0.88114E-02         0.64540E-03         0.00000E+00
    0.80687E-02         0.30294E-03         0.00000E+00
    0.71430E-02         0.23513E-04         0.00000E+00
    0.60377E-02        -0.18050E-03         0.00000E+00
    0.47593E-02        -0.29681E-03         0.00000E+00
    0.33175E-02        -0.31330E-03         0.00000E+00
    0.17254E-02        -0.21815E-03         0.00000E+00
    0.00000E+00         0.00000E+00         0.00000E+00
    0.36514E-02         0.58287E-02         0.00000E+00
    0.38283E-02         0.58367E-02         0.00000E+00
    0.41519E-02         0.58100E-02         0.00000E+00
    0.45910E-02         0.57397E-02         0.00000E+00
    0.51147E-02         0.56200E-02         0.00000E+00
    0.56923E-02         0.54477E-02         0.00000E+00
    0.62944E-02         0.52221E-02         0.00000E+00
    0.68930E-02         0.49446E-02         0.00000E+00
    0.74617E-02         0.46188E-02         0.00000E+00
    0.79761E-02         0.42499E-02         0.00000E+00
    0.84141E-02         0.38445E-02         0.00000E+00
    0.87557E-02         0.34108E-02         0.00000E+00
    0.89835E-02         0.29577E-02         0.00000E+00
    0.90826E-02         0.24952E-02         0.00000E+00
    0.90405E-02         0.20337E-02         0.00000E+00
    0.88474E-02         0.15844E-02         0.00000E+00
    0.84959E-02         0.11585E-02         0.00000E+00
    0.79814E-02         0.76780E-03         0.00000E+00
    0.73019E-02         0.42404E-03         0.00000E+00
    0.64580E-02         0.13905E-03         0.00000E+00
    0.54532E-02        -0.75391E-04         0.00000E+00
    0.42939E-02        -0.20765E-03         0.00000E+00
    0.29895E-02        -0.24637E-03         0.00000E+00
    0.15529E-02        -0.18060E-03         0.00000E+00
    0.00000E+00         0.00000E+00         0.00000E+00
    0.36693E-02         0.58955E-02         0.00000E+00
    0.37894E-02         0.58764E-02         0.00000E+00
    0.40429E-02         0.58278E-02         0.00000E+00
    0.44026E-02         0.57412E-02         0.00000E+00
    0.48408E-02         0.56107E-02         0.00000E+00
    0.53303E-02         0.54327E-02         0.00000E+00
    0.58448E-02         0.52062E-02         0.00000E+00
    0.63589E-02         0.49319E-02         0.00000E+00
    0.68488E-02         0.46128E-02         0.00000E+00
    0.72924E-02         0.42532E-02         0.00000E+00
    0.76695E-02         0.38593E-02         0.00000E+00
    0.79618E-02         0.34381E-02         0.00000E+00
    0.81533E-02         0.29982E-02         0.00000E+00
    0.82304E-02         0.25485E-02         0.00000E+00
    0.81815E-02         0.20990E-02         0.00000E+00
    0.79976E-02         0.16600E-02         0.00000E+00
    0.76720E-02         0.12425E-02         0.00000E+00
    0.72004E-02         0.85737E-03         0.00000E+00
    0.65811E-02         0.51590E-03         0.00000E+00
    0.58149E-02         0.22932E-03         0.00000E+00
    0.49052E-02         0.87852E-05         0.00000E+00
    0.38583E-02        -0.13475E-03         0.00000E+00
    0.26832E-02        -0.19068E-03         0.00000E+00
    0.13920E-02        -0.14890E-03         0.00000E+00
    0.00000E+00         0.00000E+00         0.00000E+00
    0.36212E-02         0.59189E-02         0.00000E+00
    0.36955E-02         0.58751E-02         0.00000E+00
    0.38906E-02         0.58067E-02         0.00000E+00
    0.41825E-02         0.57052E-02         0.00000E+00
    0.45468E-02         0.55648E-02         0.00000E+00
    0.49592E-02         0.53818E-02         0.00000E+00
    0.53963E-02         0.51545E-02         0.00000E+00
    0.58354E-02         0.48835E-02         0.00000E+00
    0.62551E-02         0.45710E-02         0.00000E+00
    0.66354E-02         0.42209E-02         0.00000E+00
    0.69579E-02         0.38384E-02         0.00000E+00
    0.72062E-02         0.34302E-02         0.00000E+00
    0.73656E-02         0.30039E-02         0.00000E+00
    0.74237E-02         0.25680E-02         0.00000E+00
    0.73699E-02         0.21316E-02         0.00000E+00
    0.71960E-02         0.17047E-02         0.00000E+00
    0.68958E-02         0.12974E-02         0.00000E+00
    0.64656E-02         0.92020E-03         0.00000E+00
    0.59039E-02         0.58371E-03         0.00000E+00
    0.52115E-02         0.29858E-03         0.00000E+00
    0.43919E-02         0.75358E-04         0.00000E+00
    0.34509E-02        -0.75686E-04         0.00000E+00
    0.23972E-02        -0.14467E-03         0.00000E+00
    0.12421E-02        -0.12229E-03         0.00000E+00
    0.00000E+00         0.00000E+00         0.00000E+00
    0.35135E-02         0.59089E-02         0.00000E+00
    0.35519E-02         0.58430E-02         0.00000E+00
    0.36988E-02         0.57566E-02         0.00000E+00
    0.39333E-02         0.56418E-02         0.00000E+00
    0.42339E-02         0.54924E-02         0.00000E+00
    0.45793E-02         0.53048E-02         0.00000E+00
    0.49484E-02         0.50771E-02         0.00000E+00
    0.53212E-02         0.48094E-02         0.00000E+00
    0.56785E-02         0.45034E-02         0.00000E+00
    0.60025E-02         0.41625E-02         0.00000E+00
    0.62765E-02         0.37914E-02         0.00000E+00
    0.64857E-02         0.33960E-02         0.00000E+00
    0.66170E-02         0.29835E-02         0.00000E+00
    0.66590E-02         0.25617E-02         0.00000E+00
    0.66021E-02         0.21391E-02         0.00000E+00
    0.64390E-02         0.17252E-02         0.00000E+00
    0.61640E-02         0.13293E-02         0.00000E+00
    0.57739E-02         0.96160E-03         0.00000E+00
    0.52673E-02         0.63199E-03         0.00000E+00
    0.46452E-02         0.35057E-03         0.00000E+00
    0.39108E-02         0.12727E-03         0.00000E+00
    0.30698E-02        -0.28290E-04         0.00000E+00
    0.21301E-02        -0.10692E-03         0.00000E+00
    0.11024E-02        -0.10007E-03         0.00000E+00
    0.00000E+00         0.00000E+00         0.00000E+00
    0.33527E-02         0.58743E-02         0.00000E+00
    0.33636E-02         0.57887E-02         0.00000E+00
    0.34714E-02         0.56863E-02         0.00000E+00
    0.36577E-02         0.55594E-02         0.00000E+00
    0.39038E-02         0.54020E-02         0.00000E+00
    0.41909E-02         0.52104E-02         0.00000E+00
    0.45006E-02         0.49824E-02         0.00000E+00
    0.48150E-02         0.47179E-02         0.00000E+00
    0.51172E-02         0.44182E-02         0.00000E+00
    0.53912E-02         0.40861E-02         0.00000E+00
    0.56223E-02         0.37260E-02         0.00000E+00
    0.57972E-02         0.33432E-02         0.00000E+00
    0.59040E-02         0.29443E-02         0.00000E+00
    0.59326E-02         0.25365E-02         0.00000E+00
    0.58746E-02         0.21279E-02         0.00000E+00
    0.57230E-02         0.17272E-02         0.00000E+00
    0.54731E-02         0.13435E-02         0.00000E+00
    0.51218E-02         0.98619E-03         0.00000E+00
    0.46682E-02         0.66470E-03         0.00000E+00
    0.41131E-02         0.38855E-03         0.00000E+00
    0.34596E-02         0.16710E-03         0.00000E+00
    0.27129E-02         0.93388E-05         0.00000E+00
    0.18806E-02        -0.76191E-04         0.00000E+00
    0.97222E-03        -0.81634E-04         0.00000E+00
    0.00000E+00         0.00000E+00         0.00000E+00
    0.31445E-02         0.58230E-02         0.00000E+00
    0.31354E-02         0.57199E-02         0.00000E+00
    0.32120E-02         0.56032E-02         0.00000E+00
    0.33582E-02         0.54655E-02         0.00000E+00
    0.35579E-02         0.53010E-02         0.00000E+00
    0.37948E-02         0.51059E-02         0.00000E+00
    0.40526E-02         0.48778E-02         0.00000E+00
    0.43158E-02         0.46164E-02         0.00000E+00
    0.45693E-02         0.43226E-02         0.00000E+00
    0.47992E-02         0.39990E-02         0.00000E+00
    0.49925E-02         0.36493E-02         0.00000E+00
    0.51373E-02         0.32785E-02         0.00000E+00
    0.52232E-02         0.28925E-02         0.00000E+00
    0.52412E-02         0.24983E-02         0.00000E+00
    0.51835E-02         0.21034E-02         0.00000E+00
    0.50444E-02         0.17160E-02         0.00000E+00
    0.48195E-02         0.13445E-02         0.00000E+00
    0.45061E-02         0.99794E-03         0.00000E+00
    0.41033E-02         0.68524E-03         0.00000E+00
    0.36122E-02         0.41536E-03         0.00000E+00
    0.30356E-02         0.19709E-03         0.00000E+00
    0.23783E-02         0.38866E-04         0.00000E+00
    0.16470E-02        -0.51390E-04         0.00000E+00
    0.85058E-03        -0.66454E-04         0.00000E+00
    0.00000E+00         0.00000E+00         0.00000E+00
    0.28948E-02         0.57613E-02         0.00000E+00
    0.28721E-02         0.56429E-02         0.00000E+00
    0.29242E-02         0.55137E-02         0.00000E+00
    0.30375E-02         0.53666E-02         0.00000E+00
    0.31979E-02         0.51958E-02         0.00000E+00
    0.33915E-02         0.49976E-02         0.00000E+00
    0.36042E-02         0.47695E-02         0.00000E+00
    0.38224E-02         0.45110E-02         0.00000E+00
    0.40333E-02         0.42227E-02         0.00000E+00
    0.42244E-02         0.39069E-02         0.00000E+00
    0.43845E-02         0.35669E-02         0.00000E+00
    0.45032E-02         0.32073E-02         0.00000E+00
    0.45713E-02         0.28337E-02         0.00000E+00
    0.45809E-02         0.24523E-02         0.00000E+00
    0.45254E-02         0.20704E-02         0.00000E+00
    0.43995E-02         0.16957E-02         0.00000E+00
    0.41995E-02         0.13362E-02         0.00000E+00
    0.39230E-02         0.10003E-02         0.00000E+00
    0.35694E-02         0.69657E-03         0.00000E+00
    0.31397E-02         0.43345E-03         0.00000E+00
    0.26363E-02         0.21920E-03         0.00000E+00
    0.20637E-02         0.61740E-04         0.00000E+00
    0.14278E-02        -0.31562E-04         0.00000E+00
    0.73667E-03        -0.54052E-04         0.00000E+00
    0.00000E+00         0.00000E+00         0.00000E+00
    0.26089E-02         0.56950E-02         0.00000E+00
    0.25781E-02         0.55633E-02         0.00000E+00
    0.26116E-02         0.54232E-02         0.00000E+00
    0.26980E-02         0.52679E-02         0.00000E+00
    0.28254E-02         0.50917E-02         0.00000E+00
    0.29818E-02         0.48908E-02         0.00000E+00
    0.31553E-02         0.46629E-02         0.00000E+00
    0.33342E-02         0.44070E-02         0.00000E+00
    0.35075E-02         0.41238E-02         0.00000E+00
    0.36645E-02         0.38151E-02         0.00000E+00
    0.37955E-02         0.34839E-02         0.00000E+00
    0.38916E-02         0.31346E-02         0.00000E+00
    0.39448E-02         0.27722E-02         0.00000E+00
    0.39483E-02         0.24027E-02         0.00000E+00
    0.38964E-02         0.20329E-02         0.00000E+00
    0.37845E-02         0.16700E-02         0.00000E+00
    0.36093E-02         0.13218E-02         0.00000E+00
    0.33690E-02         0.99618E-03         0.00000E+00
    0.30631E-02         0.70120E-03         0.00000E+00
    0.26922E-02         0.44490E-03         0.00000E+00
    0.22589E-02         0.23509E-03         0.00000E+00
    0.17668E-02         0.79206E-04         0.00000E+00
    0.12214E-02        -0.15879E-04         0.00000E+00
    0.62964E-03        -0.44019E-04         0.00000E+00
    0.00000E+00         0.00000E+00         0.00000E+00
    0.22919E-02         0.56287E-02         0.00000E+00
    0.22575E-02         0.54857E-02         0.00000E+00
    0.22775E-02         0.53363E-02         0.00000E+00
    0.23422E-02         0.51739E-02         0.00000E+00
    0.24419E-02         0.49931E-02         0.00000E+00
    0.25664E-02         0.47901E-02         0.00000E+00
    0.27058E-02         0.45623E-02         0.00000E+00
    0.28503E-02         0.43089E-02         0.00000E+00
    0.29905E-02         0.40301E-02         0.00000E+00
    0.31176E-02         0.37277E-02         0.00000E+00
    0.32231E-02         0.34044E-02         0.00000E+00
    0.32997E-02         0.30642E-02         0.00000E+00
    0.33405E-02         0.27118E-02         0.00000E+00
    0.33398E-02         0.23531E-02         0.00000E+00
    0.32928E-02         0.19942E-02         0.00000E+00
    0.31955E-02         0.16421E-02         0.00000E+00
    0.30453E-02         0.13042E-02         0.00000E+00
    0.28406E-02         0.98803E-03         0.00000E+00
    0.25808E-02         0.70125E-03         0.00000E+00
    0.22668E-02         0.45150E-03         0.00000E+00
    0.19006E-02         0.24619E-03         0.00000E+00
    0.14856E-02         0.92328E-04         0.00000E+00
    0.10262E-02        -0.36370E-05         0.00000E+00
    0.52860E-03        -0.36002E-04         0.00000E+00
    0.00000E+00         0.00000E+00         0.00000E+00
    0.19489E-02         0.55663E-02         0.00000E+00
    0.19147E-02         0.54139E-02         0.00000E+00
    0.19252E-02         0.52568E-02         0.00000E+00
    0.19727E-02         0.50886E-02         0.00000E+00
    0.20491E-02         0.49039E-02         0.00000E+00
    0.21462E-02         0.46990E-02         0.00000E+00
    0.22558E-02         0.44714E-02         0.00000E+00
    0.23700E-02         0.42201E-02         0.00000E+00
    0.24810E-02         0.39452E-02         0.00000E+00
    0.25815E-02         0.36483E-02         0.00000E+00
    0.26648E-02         0.33318E-02         0.00000E+00
    0.27245E-02         0.29995E-02         0.00000E+00
    0.27551E-02         0.26559E-02         0.00000E+00
    0.27520E-02         0.23064E-02         0.00000E+00
    0.27109E-02         0.19570E-02         0.00000E+00
    0.26289E-02         0.16145E-02         0.00000E+00
    0.25037E-02         0.12857E-02         0.00000E+00
    0.23339E-02         0.97789E-03         0.00000E+00
    0.21192E-02         0.69848E-03         0.00000E+00
    0.18603E-02         0.45473E-03         0.00000E+00
    0.15588E-02         0.25368E-03         0.00000E+00
    0.12177E-02         0.10200E-03         0.00000E+00
    0.84062E-03         0.57596E-05         0.00000E+00
    0.43270E-03        -0.29702E-04         0.00000E+00
    0.00000E+00         0.00000E+00         0.00000E+00
    0.15843E-02         0.55111E-02         0.00000E+00
    0.15534E-02         0.53511E-02         0.00000E+00
    0.15579E-02         0.51878E-02         0.00000E+00
    0.15917E-02         0.50148E-02         0.00000E+00
    0.16485E-02         0.48270E-02         0.00000E+00
    0.17219E-02         0.46206E-02         0.00000E+00
    0.18053E-02         0.43933E-02         0.00000E+00
    0.18926E-02         0.41437E-02         0.00000E+00
    0.19776E-02         0.38720E-02         0.00000E+00
    0.20545E-02         0.35796E-02         0.00000E+00
    0.21180E-02         0.32688E-02         0.00000E+00
    0.21631E-02         0.29431E-02         0.00000E+00
    0.21854E-02         0.26068E-02         0.00000E+00
    0.21812E-02         0.22651E-02         0.00000E+00
    0.21472E-02         0.19238E-02         0.00000E+00
    0.20809E-02         0.15892E-02         0.00000E+00
    0.19807E-02         0.12681E-02         0.00000E+00
    0.18454E-02         0.96744E-03         0.00000E+00
    0.16748E-02         0.69434E-03         0.00000E+00
    0.14694E-02         0.45579E-03         0.00000E+00
    0.12307E-02         0.25853E-03         0.00000E+00
    0.96084E-03         0.10894E-03         0.00000E+00
    0.66297E-03         0.12801E-04         0.00000E+00
    0.34106E-03        -0.24875E-04         0.00000E+00
    0.00000E+00         0.00000E+00         0.00000E+00
    0.12029E-02         0.54656E-02         0.00000E+00
    0.11777E-02         0.52998E-02         0.00000E+00
    0.11787E-02         0.51316E-02         0.00000E+00
    0.12017E-02         0.49550E-02         0.00000E+00
    0.12418E-02         0.47648E-02         0.00000E+00
    0.12943E-02         0.45573E-02         0.00000E+00
    0.13544E-02         0.43301E-02         0.00000E+00
    0.14175E-02         0.40820E-02         0.00000E+00
    0.14790E-02         0.38129E-02         0.00000E+00
    0.15347E-02         0.35240E-02         0.00000E+00
    0.15805E-02         0.32177E-02         0.00000E+00
    0.16127E-02         0.28972E-02         0.00000E+00
    0.16282E-02         0.25666E-02         0.00000E+00
    0.16240E-02         0.22311E-02         0.00000E+00
    0.15978E-02         0.18961E-02         0.00000E+00
    0.15477E-02         0.15679E-02         0.00000E+00
    0.14725E-02         0.12529E-02         0.00000E+00
    0.13714E-02         0.95799E-03         0.00000E+00
    0.12441E-02         0.68997E-03         0.00000E+00
    0.10911E-02         0.45564E-03         0.00000E+00
    0.91347E-03         0.26153E-03         0.00000E+00
    0.71289E-03         0.11376E-03         0.00000E+00
    0.49167E-03         0.17881E-04         0.00000E+00
    0.25282E-03        -0.21321E-04         0.00000E+00
    0.00000E+00         0.00000E+00         0.00000E+00
    0.80884E-03         0.54318E-02         0.00000E+00
    0.79107E-03         0.52618E-02         0.00000E+00
    0.79072E-03         0.50902E-02         0.00000E+00
    0.80485E-03         0.49110E-02         0.00000E+00
    0.83039E-03         0.47191E-02         0.00000E+00
    0.86420E-03         0.45109E-02         0.00000E+00
    0.90313E-03         0.42838E-02         0.00000E+00
    0.94408E-03         0.40367E-02         0.00000E+00
    0.98404E-03         0.37694E-02         0.00000E+00
    0.10202E-02         0.34831E-02         0.00000E+00
    0.10498E-02         0.31800E-02         0.00000E+00
    0.10706E-02         0.28632E-02         0.00000E+00
    0.10803E-02         0.25369E-02         0.00000E+00
    0.10770E-02         0.22058E-02         0.00000E+00
    0.10592E-02         0.18754E-02         0.00000E+00
    0.10257E-02         0.15518E-02         0.00000E+00
    0.97550E-03         0.12413E-02         0.00000E+00
    0.90820E-03         0.95054E-03         0.00000E+00
    0.82367E-03         0.68625E-03         0.00000E+00
    0.72218E-03         0.45503E-03         0.00000E+00
    0.60444E-03         0.26325E-03         0.00000E+00
    0.47157E-03         0.11688E-03         0.00000E+00
    0.32514E-03         0.21298E-04         0.00000E+00
    0.16714E-03        -0.18889E-04         0.00000E+00
    0.00000E+00         0.00000E+00         0.00000E+00
    0.40649E-03         0.54110E-02         0.00000E+00
    0.39732E-03         0.52385E-02         0.00000E+00
    0.39682E-03         0.50649E-02         0.00000E+00
    0.40355E-03         0.48841E-02         0.00000E+00
    0.41596E-03         0.46912E-02         0.00000E+00
    0.43251E-03         0.44825E-02         0.00000E+00
    0.45163E-03         0.42555E-02         0.00000E+00
    0.47176E-03         0.40090E-02         0.00000E+00
    0.49143E-03         0.37428E-02         0.00000E+00
    0.50921E-03         0.34581E-02         0.00000E+00
    0.52378E-03         0.31569E-02         0.00000E+00
    0.53394E-03         0.28424E-02         0.00000E+00
    0.53859E-03         0.25186E-02         0.00000E+00
    0.53681E-03         0.21902E-02         0.00000E+00
    0.52781E-03         0.18626E-02         0.00000E+00
    0.51099E-03         0.15418E-02         0.00000E+00
    0.48590E-03         0.12340E-02         0.00000E+00
    0.45229E-03         0.94579E-03         0.00000E+00
    0.41012E-03         0.68377E-03         0.00000E+00
    0.35953E-03         0.45446E-03         0.00000E+00
    0.30086E-03         0.26412E-03         0.00000E+00
    0.23468E-03         0.11863E-03         0.00000E+00
    0.16178E-03         0.23264E-04         0.00000E+00
    0.83145E-04        -0.17472E-04         0.00000E+00
    0.00000E+00         0.00000E+00         0.00000E+00
    0.00000E+00         0.54039E-02         0.00000E+00
    0.00000E+00         0.52306E-02         0.00000E+00
    0.00000E+00         0.50564E-02         0.00000E+00
    0.00000E+00         0.48751E-02         0.00000E+00
    0.00000E+00         0.46818E-02         0.00000E+00
    0.00000E+00         0.44730E-02         0.00000E+00
    0.00000E+00         0.42460E-02         0.00000E+00
    0.00000E+00         0.39997E-02         0.00000E+00
    0.00000E+00         0.37339E-02         0.00000E+00
    0.00000E+00         0.34497E-02         0.00000E+00
    0.00000E+00         0.31492E-02         0.00000E+00
    0.00000E+00         0.28354E-02         0.00000E+00
    0.00000E+00         0.25124E-02         0.00000E+00
    0.00000E+00         0.21849E-02         0.00000E+00
    0.00000E+00         0.18583E-02         0.00000E+00
    0.00000E+00         0.15384E-02         0.00000E+00
    0.00000E+00         0.12315E-02         0.00000E+00
    0.00000E+00         0.94417E-03         0.00000E+00
    0.00000E+00         0.68291E-03         0.00000E+00
    0.00000E+00         0.45423E-03         0.00000E+00
    0.00000E+00         0.26439E-03         0.00000E+00
    0.00000E+00         0.11920E-03         0.00000E+00
    0.00000E+00         0.23906E-04         0.00000E+00
    0.00000E+00        -0.17007E-04         0.00000E+00
    0.00000E+00         0.00000E+00         0.00000E+00
CELL_DATA       1152
VECTORS vDarcy double 
   -0.34402E-21        -0.79019E-21         0.00000E+00
   -0.76136E-21        -0.79962E-21         0.00000E+00
   -0.16799E-21        -0.14808E-20         0.00000E+00
    0.50461E-21        -0.93394E-21         0.00000E+00
    0.79952E-22         0.11188E-20         0.00000E+00
   -0.33483E-21         0.16437E-20         0.00000E+00
   -0.46337E-22         0.20289E-20         0.00000E+00
   -0.45470E-22         0.20834E-20         0.00000E+00
   -0.72259E-22         0.97076E-21         0.00000E+00
   -0.34739E-21         0.18274E-20         0.00000E+00
   -0.64860E-21         0.18033E-20         0.00000E+00
   -0.27127E-21         0.13905E-20         0.00000E+00
   -0.16818E-21         0.12882E-20         0.00000E+00
    0.18778E-21         0.90466E-21         0.00000E+00
    0.53734E-21         0.81067E-21         0.00000E+00
    0.15231E-21         0.64472E-21         0.00000E+00
   -0.90782E-22         0.42559E-21         0.00000E+00
   -0.12562E-21         0.39937E-21         0.00000E+00
   -0.12440E-21         0.63592E-21         0.00000E+00
   -0.80826E-22         0.41054E-21         0.00000E+00
   -0.39100E-23        -0.10280E-21         0.00000E+00
    0.43038E-22        -0.18718E-21         0.00000E+00
    0.21400E-22        -0.84344E-22         0.00000E+00
    0.25896E-22        -0.27457E-22         0.00000E+00
    0.17089E-20        -0.13776E-21         0.00000E+00
    0.15493E-20        -0.87514E-21         0.00000E+00
    0.15887E-20        -0.20381E-20         0.00000E+00
    0.42600E-21         0.11345E-21         0.00000E+00
   -0.93794E-21         0.18600E-20         0.00000E+00
   -0.46175E-21         0.84106E-21         0.00000E+00
    0.13562E-21         0.19456E-20         0.00000E+00
    0.23148E-21         0.20699E-20         0.00000E+00
    0.14940E-21         0.10931E-20         0.00000E+00
   -0.50497E-21         0.26345E-20         0.00000E+00
   -0.90633E-21         0.16987E-20         0.00000E+00
   -0.60920E-21         0.82057E-21         0.00000E+00
    0.17326E-21         0.97248E-21         0.00000E+00
    0.49093E-21         0.54669E-21         0.00000E+00
    0.11002E-21         0.12000E-20         0.00000E+00
   -0.78540E-22         0.82900E-21         0.00000E+00
   -0.81718E-22         0.48759E-21         0.00000E+00
   -0.21018E-21         0.50068E-21         0.00000E+00
   -0.15677E-21         0.47999E-21         0.00000E+00
    0.62095E-22         0.30403E-21         0.00000E+00
    0.16389E-21        -0.17501E-21         0.00000E+00
    0.13312E-21        -0.13115E-21         0.00000E+00
    0.94761E-22        -0.80381E-22         0.00000E+00
    0.82750E-22        -0.23905E-22         0.00000E+00
    0.25957E-20         0.94644E-21         0.00000E+00
    0.18425E-20        -0.10466E-20         0.00000E+00
    0.13098E-20        -0.13733E-20         0.00000E+00
   -0.22279E-23         0.19235E-20         0.00000E+00
   -0.39301E-21         0.18047E-20         0.00000E+00
   -0.36408E-21         0.39124E-21         0.00000E+00
   -0.36280E-21         0.17968E-20         0.00000E+00
    0.16603E-23         0.17584E-20         0.00000E+00
   -0.20158E-21         0.16900E-20         0.00000E+00
   -0.34559E-21         0.28361E-20         0.00000E+00
   -0.98666E-22         0.16516E-20         0.00000E+00
    0.93464E-22         0.37844E-21         0.00000E+00
   -0.72978E-22         0.79860E-21         0.00000E+00
   -0.34066E-21         0.67058E-21         0.00000E+00
   -0.16164E-21         0.12780E-20         0.00000E+00
   -0.42534E-22         0.82045E-21         0.00000E+00
   -0.73427E-22         0.53020E-21         0.00000E+00
   -0.57177E-22         0.57028E-21         0.00000E+00
    0.40109E-22         0.25969E-21         0.00000E+00
    0.25259E-21         0.92979E-22         0.00000E+00
    0.29937E-21        -0.11254E-21         0.00000E+00
    0.21709E-21        -0.80560E-22         0.00000E+00
    0.16228E-21        -0.37796E-22         0.00000E+00
    0.11820E-21        -0.10399E-22         0.00000E+00
    0.43172E-21         0.13694E-20         0.00000E+00
    0.26907E-21        -0.55377E-21         0.00000E+00
   -0.80995E-21        -0.25447E-21         0.00000E+00
   -0.83368E-21         0.21404E-20         0.00000E+00
   -0.19598E-21         0.13409E-20         0.00000E+00
    0.15269E-22         0.61486E-21         0.00000E+00
   -0.15438E-21         0.17416E-20         0.00000E+00
   -0.56943E-21         0.18642E-20         0.00000E+00
   -0.60498E-21         0.18229E-20         0.00000E+00
   -0.24208E-21         0.24842E-20         0.00000E+00
    0.12779E-21         0.13866E-20         0.00000E+00
    0.22456E-21         0.35450E-21         0.00000E+00
   -0.51571E-22         0.12651E-20         0.00000E+00
   -0.33740E-21         0.75757E-21         0.00000E+00
   -0.31495E-21         0.98954E-21         0.00000E+00
   -0.13922E-21         0.81407E-21         0.00000E+00
    0.11625E-21         0.31201E-21         0.00000E+00
    0.41079E-21         0.47768E-21         0.00000E+00
    0.48447E-21         0.18131E-21         0.00000E+00
    0.41763E-21         0.25718E-22         0.00000E+00
    0.35492E-21        -0.29353E-22         0.00000E+00
    0.27427E-21        -0.81431E-24         0.00000E+00
    0.16901E-21         0.42542E-22         0.00000E+00
    0.12690E-21        -0.45537E-23         0.00000E+00
    0.14169E-21         0.79602E-21         0.00000E+00
   -0.90754E-22         0.41473E-21         0.00000E+00
   -0.78104E-21         0.54633E-21         0.00000E+00
   -0.71987E-21         0.13021E-20         0.00000E+00
   -0.63359E-21         0.14552E-20         0.00000E+00
   -0.87802E-21         0.53378E-21         0.00000E+00
   -0.38050E-21         0.14948E-20         0.00000E+00
    0.10413E-21         0.20415E-20         0.00000E+00
    0.27891E-21         0.15065E-20         0.00000E+00
    0.63405E-21         0.20827E-20         0.00000E+00
    0.78212E-21         0.12703E-20         0.00000E+00
    0.53771E-21         0.61849E-21         0.00000E+00
    0.56457E-21         0.12504E-20         0.00000E+00
    0.73955E-21         0.88313E-21         0.00000E+00
    0.67975E-21         0.90133E-21         0.00000E+00
    0.63799E-21         0.76829E-21         0.00000E+00
    0.45325E-21         0.28706E-21         0.00000E+00
    0.45121E-21         0.21014E-21         0.00000E+00
    0.58587E-21         0.24051E-21         0.00000E+00
    0.45766E-21         0.16157E-21         0.00000E+00
    0.37125E-21        -0.16087E-22         0.00000E+00
    0.27193E-21         0.16589E-21         0.00000E+00
    0.14963E-21         0.10341E-21         0.00000E+00
    0.14211E-21        -0.15800E-22         0.00000E+00
   -0.10885E-21         0.76318E-21         0.00000E+00
   -0.12459E-21         0.69575E-21         0.00000E+00
   -0.16278E-21         0.99379E-21         0.00000E+00
   -0.34676E-21         0.97746E-21         0.00000E+00
   -0.10654E-21         0.14533E-20         0.00000E+00
    0.22070E-21         0.45283E-21         0.00000E+00
    0.29523E-21         0.10037E-20         0.00000E+00
    0.15156E-21         0.21916E-20         0.00000E+00
    0.25882E-22         0.13072E-20         0.00000E+00
    0.46881E-21         0.14838E-20         0.00000E+00
    0.89075E-21         0.12991E-20         0.00000E+00
    0.82171E-21         0.90308E-21         0.00000E+00
    0.68576E-21         0.10749E-20         0.00000E+00
    0.66306E-21         0.90636E-21         0.00000E+00
    0.61908E-21         0.98189E-21         0.00000E+00
    0.51436E-21         0.83422E-21         0.00000E+00
    0.50825E-21         0.41198E-21         0.00000E+00
    0.49109E-21         0.10442E-21         0.00000E+00
    0.43166E-21         0.27101E-21         0.00000E+00
    0.40949E-21         0.28145E-21         0.00000E+00
    0.26529E-21         0.94649E-22         0.00000E+00
    0.18085E-21         0.23892E-21         0.00000E+00
    0.20485E-21         0.12868E-21         0.00000E+00
    0.18989E-21        -0.18590E-22         0.00000E+00
   -0.14403E-21         0.10161E-20         0.00000E+00
   -0.35110E-21         0.66568E-21         0.00000E+00
   -0.30753E-21         0.10185E-20         0.00000E+00
   -0.35884E-21         0.11881E-20         0.00000E+00
   -0.18673E-21         0.83040E-21         0.00000E+00
    0.23328E-21         0.32849E-21         0.00000E+00
    0.88557E-22         0.11982E-20         0.00000E+00
    0.12256E-21         0.21067E-20         0.00000E+00
    0.25381E-21         0.13865E-20         0.00000E+00
    0.24735E-21         0.96804E-21         0.00000E+00
    0.64020E-21         0.10001E-20         0.00000E+00
    0.82471E-21         0.10866E-20         0.00000E+00
    0.61861E-21         0.12334E-20         0.00000E+00
    0.56664E-21         0.82250E-21         0.00000E+00
    0.66121E-21         0.10152E-20         0.00000E+00
    0.64502E-21         0.92186E-21         0.00000E+00
    0.51237E-21         0.46308E-21         0.00000E+00
    0.39637E-21         0.18647E-21         0.00000E+00
    0.36477E-21         0.27999E-21         0.00000E+00
    0.33518E-21         0.32423E-21         0.00000E+00
    0.29729E-21         0.23395E-21         0.00000E+00
    0.27236E-21         0.20898E-21         0.00000E+00
    0.25642E-21         0.15056E-21         0.00000E+00
    0.23162E-21        -0.70244E-24         0.00000E+00
    0.45740E-23         0.11555E-20         0.00000E+00
   -0.67528E-22         0.80539E-21         0.00000E+00
   -0.11173E-21         0.87941E-21         0.00000E+00
   -0.22514E-21         0.14919E-20         0.00000E+00
   -0.48453E-21         0.61388E-21         0.00000E+00
   -0.59300E-21         0.23347E-21         0.00000E+00
   -0.26760E-21         0.11125E-20         0.00000E+00
    0.52582E-21         0.13650E-20         0.00000E+00
    0.84507E-21         0.16778E-20         0.00000E+00
    0.48103E-21         0.10473E-20         0.00000E+00
    0.27947E-21         0.72959E-21         0.00000E+00
    0.33609E-21         0.11160E-20         0.00000E+00
    0.60703E-21         0.11392E-20         0.00000E+00
    0.57458E-21         0.10011E-20         0.00000E+00
    0.36018E-21         0.95636E-21         0.00000E+00
    0.57007E-21         0.78697E-21         0.00000E+00
    0.62902E-21         0.67167E-21         0.00000E+00
    0.43431E-21         0.28860E-21         0.00000E+00
    0.32160E-21         0.32217E-21         0.00000E+00
    0.25466E-21         0.37860E-21         0.00000E+00
    0.26443E-21         0.20770E-21         0.00000E+00
    0.32371E-21         0.20087E-21         0.00000E+00
    0.35249E-21         0.14584E-21         0.00000E+00
    0.36153E-21         0.19770E-22         0.00000E+00
    0.44451E-22         0.11065E-20         0.00000E+00
    0.12361E-21         0.84736E-21         0.00000E+00
    0.30965E-22         0.97428E-21         0.00000E+00
   -0.11114E-21         0.16525E-20         0.00000E+00
   -0.23533E-21         0.83682E-21         0.00000E+00
   -0.45120E-21         0.33488E-21         0.00000E+00
   -0.44716E-21         0.68171E-21         0.00000E+00
   -0.39906E-21         0.95428E-21         0.00000E+00
   -0.15170E-22         0.13854E-20         0.00000E+00
    0.48880E-21         0.11998E-20         0.00000E+00
    0.39353E-21         0.87391E-21         0.00000E+00
    0.33601E-21         0.97254E-21         0.00000E+00
    0.40148E-21         0.94626E-21         0.00000E+00
    0.47298E-21         0.11550E-20         0.00000E+00
    0.50369E-21         0.98615E-21         0.00000E+00
    0.35797E-21         0.69301E-21         0.00000E+00
    0.36477E-21         0.69986E-21         0.00000E+00
    0.38278E-21         0.43710E-21         0.00000E+00
    0.34972E-21         0.31944E-21         0.00000E+00
    0.38141E-21         0.41658E-21         0.00000E+00
    0.34751E-21         0.19385E-21         0.00000E+00
    0.36241E-21         0.14053E-21         0.00000E+00
    0.41690E-21         0.12292E-21         0.00000E+00
    0.41718E-21         0.33368E-22         0.00000E+00
   -0.16139E-21         0.12234E-20         0.00000E+00
   -0.21496E-21         0.70484E-21         0.00000E+00
   -0.32660E-22         0.10271E-20         0.00000E+00
    0.33637E-22         0.16754E-20         0.00000E+00
    0.10164E-21         0.87006E-21         0.00000E+00
   -0.12690E-22         0.63183E-21         0.00000E+00
   -0.30949E-21         0.67752E-21         0.00000E+00
   -0.22179E-21         0.82266E-21         0.00000E+00
    0.10957E-21         0.80173E-21         0.00000E+00
    0.43004E-21         0.95896E-21         0.00000E+00
    0.60534E-21         0.10347E-20         0.00000E+00
    0.47774E-21         0.99684E-21         0.00000E+00
    0.42120E-21         0.91305E-21         0.00000E+00
    0.38945E-21         0.11485E-20         0.00000E+00
    0.21442E-21         0.11370E-20         0.00000E+00
    0.16418E-21         0.73809E-21         0.00000E+00
    0.21065E-21         0.60152E-21         0.00000E+00
    0.31134E-21         0.41674E-21         0.00000E+00
    0.41926E-21         0.26493E-21         0.00000E+00
    0.52166E-21         0.33699E-21         0.00000E+00
    0.56269E-21         0.26632E-21         0.00000E+00
    0.48638E-21         0.12947E-21         0.00000E+00
    0.43764E-21         0.12824E-21         0.00000E+00
    0.42826E-21         0.37152E-22         0.00000E+00
    0.16287E-21         0.12219E-20         0.00000E+00
    0.58540E-22         0.86422E-21         0.00000E+00
   -0.12760E-21         0.87160E-21         0.00000E+00
    0.19119E-21         0.14459E-20         0.00000E+00
    0.28982E-21         0.93298E-21         0.00000E+00
    0.29037E-21         0.68268E-21         0.00000E+00
    0.49948E-21         0.71436E-21         0.00000E+00
    0.34268E-21         0.85491E-21         0.00000E+00
    0.75365E-22         0.70544E-21         0.00000E+00
    0.16224E-21         0.64790E-21         0.00000E+00
    0.29413E-21         0.10386E-20         0.00000E+00
    0.36367E-21         0.10510E-20         0.00000E+00
    0.36089E-21         0.91819E-21         0.00000E+00
    0.17729E-21         0.13587E-20         0.00000E+00
    0.14562E-21         0.11335E-20         0.00000E+00
    0.32514E-21         0.61230E-21         0.00000E+00
    0.45199E-21         0.55400E-21         0.00000E+00
    0.42978E-21         0.38578E-21         0.00000E+00
    0.32554E-21         0.29221E-21         0.00000E+00
    0.31698E-21         0.21587E-21         0.00000E+00
    0.44507E-21         0.21833E-21         0.00000E+00
    0.51245E-21         0.18639E-21         0.00000E+00
    0.50032E-21         0.13219E-21         0.00000E+00
    0.48033E-21         0.62572E-22         0.00000E+00
    0.44825E-22         0.10143E-20         0.00000E+00
    0.15271E-21         0.10684E-20         0.00000E+00
    0.14311E-21         0.86321E-21         0.00000E+00
    0.21661E-21         0.10620E-20         0.00000E+00
    0.50455E-21         0.93033E-21         0.00000E+00
    0.63225E-21         0.55708E-21         0.00000E+00
    0.46336E-21         0.79974E-21         0.00000E+00
    0.20770E-21         0.11820E-20         0.00000E+00
    0.49368E-22         0.80402E-21         0.00000E+00
    0.62579E-24         0.51119E-21         0.00000E+00
    0.10419E-21         0.93983E-21         0.00000E+00
    0.25159E-21         0.93283E-21         0.00000E+00
    0.25047E-21         0.10403E-20         0.00000E+00
    0.30114E-21         0.13695E-20         0.00000E+00
    0.54155E-21         0.91395E-21         0.00000E+00
    0.54052E-21         0.65338E-21         0.00000E+00
    0.40952E-21         0.51709E-21         0.00000E+00
    0.40514E-21         0.44929E-21         0.00000E+00
    0.44577E-21         0.29231E-21         0.00000E+00
    0.44148E-21         0.22862E-21         0.00000E+00
    0.42442E-21         0.94549E-22         0.00000E+00
    0.45628E-21         0.21092E-21         0.00000E+00
    0.46147E-21         0.11460E-21         0.00000E+00
    0.48976E-21         0.71878E-22         0.00000E+00
    0.32214E-22         0.93722E-21         0.00000E+00
    0.15017E-21         0.91956E-21         0.00000E+00
    0.25306E-21         0.91872E-21         0.00000E+00
    0.21526E-21         0.97076E-21         0.00000E+00
    0.15297E-21         0.79591E-21         0.00000E+00
    0.13616E-21         0.58062E-21         0.00000E+00
    0.20064E-21         0.88062E-21         0.00000E+00
    0.22651E-21         0.13309E-20         0.00000E+00
    0.15921E-21         0.88072E-21         0.00000E+00
    0.77086E-22         0.56535E-21         0.00000E+00
    0.30079E-22         0.82911E-21         0.00000E+00
    0.54161E-23         0.92081E-21         0.00000E+00
    0.40190E-22         0.10187E-20         0.00000E+00
    0.19147E-21         0.11892E-20         0.00000E+00
    0.34187E-21         0.70347E-21         0.00000E+00
    0.45919E-21         0.74757E-21         0.00000E+00
    0.46945E-21         0.54363E-21         0.00000E+00
    0.49286E-21         0.40372E-21         0.00000E+00
    0.53176E-21         0.25835E-21         0.00000E+00
    0.48477E-21         0.31386E-21         0.00000E+00
    0.39347E-21         0.11767E-21         0.00000E+00
    0.37583E-21         0.17359E-21         0.00000E+00
    0.43068E-21         0.91882E-22         0.00000E+00
    0.45440E-21         0.42587E-22         0.00000E+00
    0.46490E-22         0.85851E-21         0.00000E+00
   -0.49691E-23         0.93177E-21         0.00000E+00
   -0.55684E-22         0.85433E-21         0.00000E+00
   -0.76643E-22         0.10939E-20         0.00000E+00
   -0.84899E-22         0.74330E-21         0.00000E+00
   -0.83286E-24         0.56597E-21         0.00000E+00
   -0.46069E-22         0.87603E-21         0.00000E+00
    0.69802E-22         0.11938E-20         0.00000E+00
    0.29601E-21         0.85895E-21         0.00000E+00
    0.29267E-21         0.67259E-21         0.00000E+00
    0.15768E-21         0.90387E-21         0.00000E+00
   -0.14489E-22         0.10429E-20         0.00000E+00
   -0.64018E-22         0.91134E-21         0.00000E+00
    0.16115E-21         0.92006E-21         0.00000E+00
    0.32235E-21         0.66101E-21         0.00000E+00
    0.29587E-21         0.69920E-21         0.00000E+00
    0.30143E-21         0.57618E-21         0.00000E+00
    0.41001E-21         0.23918E-21         0.00000E+00
    0.49228E-21         0.30173E-21         0.00000E+00
    0.49534E-21         0.31439E-21         0.00000E+00
    0.50661E-21         0.19716E-21         0.00000E+00
    0.48068E-21         0.13768E-21         0.00000E+00
    0.47742E-21         0.76205E-22         0.00000E+00
    0.49069E-21         0.21271E-22         0.00000E+00
    0.21688E-22         0.79033E-21         0.00000E+00
   -0.95925E-23         0.10827E-20         0.00000E+00
   -0.12005E-21         0.86459E-21         0.00000E+00
   -0.63526E-22         0.10481E-20         0.00000E+00
    0.42757E-22         0.69110E-21         0.00000E+00
   -0.36185E-22         0.61305E-21         0.00000E+00
   -0.37219E-22         0.87522E-21         0.00000E+00
    0.90333E-22         0.95115E-21         0.00000E+00
    0.12226E-21         0.84343E-21         0.00000E+00
    0.10722E-21         0.70649E-21         0.00000E+00
   -0.10113E-22         0.11223E-20         0.00000E+00
   -0.10188E-21         0.10884E-20         0.00000E+00
   -0.45097E-22         0.85857E-21         0.00000E+00
    0.55161E-22         0.64741E-21         0.00000E+00
    0.19952E-21         0.62810E-21         0.00000E+00
    0.36141E-21         0.59670E-21         0.00000E+00
    0.47669E-21         0.55784E-21         0.00000E+00
    0.39487E-21         0.23075E-21         0.00000E+00
    0.38689E-21         0.23588E-21         0.00000E+00
    0.49274E-21         0.27133E-21         0.00000E+00
    0.53423E-21         0.18746E-21         0.00000E+00
    0.55577E-21         0.15176E-21         0.00000E+00
    0.52917E-21         0.91991E-22         0.00000E+00
    0.49835E-21         0.23029E-22         0.00000E+00
   -0.20200E-23         0.77067E-21         0.00000E+00
    0.88680E-22         0.10429E-20         0.00000E+00
    0.15215E-21         0.95133E-21         0.00000E+00
    0.10618E-21         0.95079E-21         0.00000E+00
    0.97286E-23         0.77855E-21         0.00000E+00
   -0.11070E-21         0.72496E-21         0.00000E+00
   -0.46807E-22         0.70044E-21         0.00000E+00
    0.12766E-21         0.82391E-21         0.00000E+00
    0.10191E-21         0.96449E-21         0.00000E+00
   -0.16381E-21         0.86620E-21         0.00000E+00
   -0.26272E-21         0.11788E-20         0.00000E+00
   -0.92147E-22         0.95304E-21         0.00000E+00
    0.89033E-22         0.75595E-21         0.00000E+00
    0.26920E-21         0.46960E-21         0.00000E+00
    0.40085E-21         0.52989E-21         0.00000E+00
    0.42278E-21         0.51109E-21         0.00000E+00
    0.45822E-21         0.49273E-21         0.00000E+00
    0.51432E-21         0.32159E-21         0.00000E+00
    0.46341E-21         0.20393E-21         0.00000E+00
    0.36891E-21         0.29194E-21         0.00000E+00
    0.35981E-21         0.13448E-21         0.00000E+00
    0.39412E-21         0.14888E-21         0.00000E+00
    0.42630E-21         0.89297E-22         0.00000E+00
    0.44222E-21         0.40621E-22         0.00000E+00
   -0.55871E-23         0.77827E-21         0.00000E+00
    0.93636E-22         0.84540E-21         0.00000E+00
    0.19204E-21         0.98698E-21         0.00000E+00
    0.12778E-21         0.10254E-20         0.00000E+00
    0.44795E-22         0.88340E-21         0.00000E+00
    0.72083E-22         0.71325E-21         0.00000E+00
    0.15521E-21         0.56513E-21         0.00000E+00
    0.98715E-22         0.84124E-21         0.00000E+00
    0.14191E-22         0.10574E-20         0.00000E+00
    0.59790E-22         0.99339E-21         0.00000E+00
    0.17087E-21         0.10395E-20         0.00000E+00
    0.29190E-21         0.80081E-21         0.00000E+00
    0.49572E-21         0.52318E-21         0.00000E+00
    0.58122E-21         0.43671E-21         0.00000E+00
    0.45763E-21         0.55472E-21         0.00000E+00
    0.36680E-21         0.55517E-21         0.00000E+00
    0.38903E-21         0.39097E-21         0.00000E+00
    0.49169E-21         0.26460E-21         0.00000E+00
    0.44572E-21         0.35779E-21         0.00000E+00
    0.36682E-21         0.31147E-21         0.00000E+00
    0.38443E-21         0.10644E-21         0.00000E+00
    0.38943E-21         0.13760E-21         0.00000E+00
    0.39884E-21         0.58982E-22         0.00000E+00
    0.42789E-21         0.25972E-22         0.00000E+00
    0.19180E-22         0.76468E-21         0.00000E+00
    0.38950E-23         0.77506E-21         0.00000E+00
   -0.24208E-22         0.98703E-21         0.00000E+00
    0.38000E-22         0.10274E-20         0.00000E+00
    0.17148E-21         0.83090E-21         0.00000E+00
    0.22135E-21         0.68860E-21         0.00000E+00
    0.12920E-21         0.59880E-21         0.00000E+00
    0.10230E-21         0.89096E-21         0.00000E+00
    0.20786E-21         0.98666E-21         0.00000E+00
    0.27141E-21         0.95501E-21         0.00000E+00
    0.37097E-21         0.86721E-21         0.00000E+00
    0.62321E-21         0.59981E-21         0.00000E+00
    0.64174E-21         0.50183E-21         0.00000E+00
    0.41571E-21         0.59858E-21         0.00000E+00
    0.35720E-21         0.57495E-21         0.00000E+00
    0.36066E-21         0.62230E-21         0.00000E+00
    0.26293E-21         0.39932E-21         0.00000E+00
    0.12182E-21         0.29470E-21         0.00000E+00
    0.16055E-21         0.33491E-21         0.00000E+00
    0.35687E-21         0.21693E-21         0.00000E+00
    0.40520E-21         0.13504E-21         0.00000E+00
    0.39949E-21         0.10971E-21         0.00000E+00
    0.43912E-21         0.37834E-22         0.00000E+00
    0.45073E-21         0.64652E-23         0.00000E+00
   -0.48679E-23         0.75037E-21         0.00000E+00
   -0.11669E-22         0.81146E-21         0.00000E+00
    0.28200E-22         0.93887E-21         0.00000E+00
    0.14168E-21         0.89985E-21         0.00000E+00
    0.16905E-21         0.79757E-21         0.00000E+00
    0.10380E-21         0.73732E-21         0.00000E+00
    0.95545E-22         0.65049E-21         0.00000E+00
    0.16542E-21         0.79630E-21         0.00000E+00
    0.21136E-21         0.92980E-21         0.00000E+00
    0.31335E-21         0.84633E-21         0.00000E+00
    0.48652E-21         0.70317E-21         0.00000E+00
    0.49599E-21         0.50214E-21         0.00000E+00
    0.41603E-21         0.66093E-21         0.00000E+00
    0.38729E-21         0.69424E-21         0.00000E+00
    0.32663E-21         0.59847E-21         0.00000E+00
    0.29581E-21         0.62615E-21         0.00000E+00
    0.28306E-21         0.50594E-21         0.00000E+00
    0.22104E-21         0.39122E-21         0.00000E+00
    0.16158E-21         0.25912E-21         0.00000E+00
    0.13887E-21         0.11911E-21         0.00000E+00
    0.25719E-21         0.66213E-22         0.00000E+00
    0.39921E-21         0.42233E-22         0.00000E+00
    0.44308E-21         0.21816E-22         0.00000E+00
    0.43902E-21         0.14935E-22         0.00000E+00
   -0.18426E-22         0.77366E-21         0.00000E+00
   -0.68174E-23         0.78336E-21         0.00000E+00
    0.86314E-22         0.83397E-21         0.00000E+00
    0.17715E-21         0.80044E-21         0.00000E+00
    0.21425E-21         0.83252E-21         0.00000E+00
    0.22224E-21         0.75963E-21         0.00000E+00
    0.21008E-21         0.64859E-21         0.00000E+00
    0.20876E-21         0.72966E-21         0.00000E+00
    0.29944E-21         0.85982E-21         0.00000E+00
    0.38814E-21         0.72562E-21         0.00000E+00
    0.41756E-21         0.62130E-21         0.00000E+00
    0.41023E-21         0.58188E-21         0.00000E+00
    0.34785E-21         0.72353E-21         0.00000E+00
    0.29922E-21         0.70901E-21         0.00000E+00
    0.27349E-21         0.67008E-21         0.00000E+00
    0.27845E-21         0.58040E-21         0.00000E+00
    0.35142E-21         0.49145E-21         0.00000E+00
    0.42256E-21         0.39659E-21         0.00000E+00
    0.43319E-21         0.30258E-21         0.00000E+00
    0.40834E-21         0.12321E-21         0.00000E+00
    0.38641E-21        -0.34266E-22         0.00000E+00
    0.40679E-21        -0.19694E-22         0.00000E+00
    0.42328E-21         0.23391E-22         0.00000E+00
    0.42323E-21         0.17464E-22         0.00000E+00
    0.29802E-22         0.76229E-21         0.00000E+00
    0.69741E-22         0.74318E-21         0.00000E+00
    0.84685E-22         0.76607E-21         0.00000E+00
    0.11462E-21         0.74758E-21         0.00000E+00
    0.18778E-21         0.77512E-21         0.00000E+00
    0.23321E-21         0.76361E-21         0.00000E+00
    0.20018E-21         0.68980E-21         0.00000E+00
    0.18140E-21         0.70855E-21         0.00000E+00
    0.26928E-21         0.70237E-21         0.00000E+00
    0.36953E-21         0.69411E-21         0.00000E+00
    0.40936E-21         0.58355E-21         0.00000E+00
    0.40674E-21         0.62958E-21         0.00000E+00
    0.39996E-21         0.74498E-21         0.00000E+00
    0.39206E-21         0.74410E-21         0.00000E+00
    0.34902E-21         0.70377E-21         0.00000E+00
    0.34784E-21         0.54293E-21         0.00000E+00
    0.36283E-21         0.44096E-21         0.00000E+00
    0.41209E-21         0.32668E-21         0.00000E+00
    0.50988E-21         0.26409E-21         0.00000E+00
    0.54145E-21         0.15498E-21         0.00000E+00
    0.47352E-21         0.23836E-22         0.00000E+00
    0.39852E-21        -0.23185E-22         0.00000E+00
    0.40142E-21         0.75034E-23         0.00000E+00
    0.43037E-21         0.44437E-23         0.00000E+00
    0.32146E-22         0.70034E-21         0.00000E+00
    0.75820E-22         0.72152E-21         0.00000E+00
    0.10769E-21         0.74091E-21         0.00000E+00
    0.14578E-21         0.70471E-21         0.00000E+00
    0.17796E-21         0.71264E-21         0.00000E+00
    0.22817E-21         0.73046E-21         0.00000E+00
    0.28454E-21         0.69961E-21         0.00000E+00
    0.33279E-21         0.66927E-21         0.00000E+00
    0.33333E-21         0.65323E-21         0.00000E+00
    0.32440E-21         0.65193E-21         0.00000E+00
    0.33301E-21         0.57729E-21         0.00000E+00
    0.33836E-21         0.63311E-21         0.00000E+00
    0.35846E-21         0.72812E-21         0.00000E+00
    0.34795E-21         0.77937E-21         0.00000E+00
    0.38665E-21         0.67285E-21         0.00000E+00
    0.41338E-21         0.54831E-21         0.00000E+00
    0.38828E-21         0.44570E-21         0.00000E+00
    0.38016E-21         0.28080E-21         0.00000E+00
    0.36634E-21         0.22600E-21         0.00000E+00
    0.37335E-21         0.15447E-21         0.00000E+00
    0.42132E-21         0.44302E-22         0.00000E+00
    0.46503E-21        -0.12365E-22         0.00000E+00
    0.47393E-21        -0.15110E-22         0.00000E+00
    0.47281E-21        -0.77370E-24         0.00000E+00
    0.13902E-22         0.65429E-21         0.00000E+00
    0.55168E-22         0.68263E-21         0.00000E+00
    0.11122E-21         0.69188E-21         0.00000E+00
    0.15226E-21         0.67463E-21         0.00000E+00
    0.16990E-21         0.69290E-21         0.00000E+00
    0.19114E-21         0.67875E-21         0.00000E+00
    0.23912E-21         0.64696E-21         0.00000E+00
    0.28618E-21         0.62661E-21         0.00000E+00
    0.29935E-21         0.68217E-21         0.00000E+00
    0.29507E-21         0.63619E-21         0.00000E+00
    0.28457E-21         0.59493E-21         0.00000E+00
    0.26625E-21         0.62844E-21         0.00000E+00
    0.32073E-21         0.65821E-21         0.00000E+00
    0.45097E-21         0.72955E-21         0.00000E+00
    0.49806E-21         0.63687E-21         0.00000E+00
    0.50813E-21         0.54747E-21         0.00000E+00
    0.53212E-21         0.44764E-21         0.00000E+00
    0.53690E-21         0.28221E-21         0.00000E+00
    0.54177E-21         0.23354E-21         0.00000E+00
    0.54405E-21         0.13764E-21         0.00000E+00
    0.55070E-21         0.65142E-23         0.00000E+00
    0.53266E-21        -0.24627E-24         0.00000E+00
    0.50643E-21        -0.98963E-23         0.00000E+00
    0.49549E-21         0.60723E-23         0.00000E+00
    0.11290E-22         0.62910E-21         0.00000E+00
    0.32368E-22         0.64547E-21         0.00000E+00
    0.59858E-22         0.64549E-21         0.00000E+00
    0.91578E-22         0.64826E-21         0.00000E+00
    0.12834E-21         0.66486E-21         0.00000E+00
    0.17187E-21         0.64202E-21         0.00000E+00
    0.16875E-21         0.63883E-21         0.00000E+00
    0.12490E-21         0.63153E-21         0.00000E+00
    0.16851E-21         0.62047E-21         0.00000E+00
    0.24533E-21         0.62536E-21         0.00000E+00
    0.26968E-21         0.59192E-21         0.00000E+00
    0.30827E-21         0.61116E-21         0.00000E+00
    0.31923E-21         0.61006E-21         0.00000E+00
    0.34462E-21         0.62207E-21         0.00000E+00
    0.41475E-21         0.62714E-21         0.00000E+00
    0.48333E-21         0.47855E-21         0.00000E+00
    0.54286E-21         0.43304E-21         0.00000E+00
    0.56518E-21         0.26970E-21         0.00000E+00
    0.61926E-21         0.18711E-21         0.00000E+00
    0.67949E-21         0.12156E-21         0.00000E+00
    0.63567E-21         0.59763E-22         0.00000E+00
    0.55592E-21         0.44307E-22         0.00000E+00
    0.49696E-21         0.30731E-22         0.00000E+00
    0.46631E-21         0.70311E-23         0.00000E+00
    0.13407E-22         0.60440E-21         0.00000E+00
    0.38292E-22         0.62421E-21         0.00000E+00
    0.47856E-22         0.62970E-21         0.00000E+00
    0.53388E-22         0.62679E-21         0.00000E+00
    0.82291E-22         0.62066E-21         0.00000E+00
    0.10613E-21         0.61886E-21         0.00000E+00
    0.14144E-21         0.62980E-21         0.00000E+00
    0.19887E-21         0.62698E-21         0.00000E+00
    0.20427E-21         0.57600E-21         0.00000E+00
    0.20996E-21         0.58732E-21         0.00000E+00
    0.26237E-21         0.55321E-21         0.00000E+00
    0.27717E-21         0.59648E-21         0.00000E+00
    0.25665E-21         0.63431E-21         0.00000E+00
    0.29280E-21         0.53629E-21         0.00000E+00
    0.43597E-21         0.49963E-21         0.00000E+00
    0.54887E-21         0.42458E-21         0.00000E+00
    0.56809E-21         0.40826E-21         0.00000E+00
    0.55984E-21         0.28040E-21         0.00000E+00
    0.53367E-21         0.14851E-21         0.00000E+00
    0.52643E-21         0.10717E-21         0.00000E+00
    0.51892E-21         0.12547E-21         0.00000E+00
    0.48868E-21         0.88593E-22         0.00000E+00
    0.47886E-21         0.55217E-22         0.00000E+00
    0.48801E-21         0.40494E-23         0.00000E+00
    0.16281E-22         0.57471E-21         0.00000E+00
    0.50266E-22         0.59503E-21         0.00000E+00
    0.89569E-22         0.61001E-21         0.00000E+00
    0.12618E-21         0.60434E-21         0.00000E+00
    0.12674E-21         0.61365E-21         0.00000E+00
    0.11158E-21         0.61720E-21         0.00000E+00
    0.14458E-21         0.56315E-21         0.00000E+00
    0.19017E-21         0.59062E-21         0.00000E+00
    0.20872E-21         0.58841E-21         0.00000E+00
    0.24260E-21         0.53535E-21         0.00000E+00
    0.26177E-21         0.53360E-21         0.00000E+00
    0.29043E-21         0.57261E-21         0.00000E+00
    0.38473E-21         0.58439E-21         0.00000E+00
    0.49027E-21         0.44453E-21         0.00000E+00
    0.56176E-21         0.37672E-21         0.00000E+00
    0.60029E-21         0.39608E-21         0.00000E+00
    0.62138E-21         0.39645E-21         0.00000E+00
    0.61577E-21         0.30606E-21         0.00000E+00
    0.56872E-21         0.19606E-21         0.00000E+00
    0.49799E-21         0.13760E-21         0.00000E+00
    0.46060E-21         0.13994E-21         0.00000E+00
    0.46615E-21         0.98822E-22         0.00000E+00
    0.48382E-21         0.37134E-22         0.00000E+00
    0.48570E-21         0.11100E-22         0.00000E+00
    0.98453E-23         0.54859E-21         0.00000E+00
    0.32949E-22         0.56406E-21         0.00000E+00
    0.65809E-22         0.56881E-21         0.00000E+00
    0.85856E-22         0.58888E-21         0.00000E+00
    0.94071E-22         0.62032E-21         0.00000E+00
    0.11863E-21         0.60113E-21         0.00000E+00
    0.11713E-21         0.54771E-21         0.00000E+00
    0.13317E-21         0.54442E-21         0.00000E+00
    0.18662E-21         0.56261E-21         0.00000E+00
    0.19280E-21         0.52108E-21         0.00000E+00
    0.19956E-21         0.52194E-21         0.00000E+00
    0.27217E-21         0.48300E-21         0.00000E+00
    0.35215E-21         0.49974E-21         0.00000E+00
    0.37159E-21         0.40420E-21         0.00000E+00
    0.32247E-21         0.39468E-21         0.00000E+00
    0.30815E-21         0.35391E-21         0.00000E+00
    0.39573E-21         0.32994E-21         0.00000E+00
    0.49688E-21         0.27703E-21         0.00000E+00
    0.54895E-21         0.22007E-21         0.00000E+00
    0.53429E-21         0.19899E-21         0.00000E+00
    0.48860E-21         0.16163E-21         0.00000E+00
    0.47913E-21         0.81056E-22         0.00000E+00
    0.47982E-21         0.36537E-22         0.00000E+00
    0.47057E-21         0.19067E-22         0.00000E+00
    0.10968E-22         0.52777E-21         0.00000E+00
    0.32300E-22         0.54044E-21         0.00000E+00
    0.31781E-22         0.56009E-21         0.00000E+00
    0.43818E-22         0.56552E-21         0.00000E+00
    0.84617E-22         0.59467E-21         0.00000E+00
    0.11948E-21         0.56736E-21         0.00000E+00
    0.14160E-21         0.56086E-21         0.00000E+00
    0.15318E-21         0.50364E-21         0.00000E+00
    0.18619E-21         0.51693E-21         0.00000E+00
    0.22615E-21         0.52062E-21         0.00000E+00
    0.22182E-21         0.51997E-21         0.00000E+00
    0.19196E-21         0.44221E-21         0.00000E+00
    0.20012E-21         0.45239E-21         0.00000E+00
    0.21328E-21         0.41894E-21         0.00000E+00
    0.22681E-21         0.41553E-21         0.00000E+00
    0.26310E-21         0.31107E-21         0.00000E+00
    0.32080E-21         0.22750E-21         0.00000E+00
    0.41399E-21         0.18513E-21         0.00000E+00
    0.46057E-21         0.21331E-21         0.00000E+00
    0.46616E-21         0.21481E-21         0.00000E+00
    0.45963E-21         0.19802E-21         0.00000E+00
    0.44281E-21         0.70951E-22         0.00000E+00
    0.43999E-21         0.48775E-22         0.00000E+00
    0.44076E-21         0.15319E-22         0.00000E+00
    0.28602E-23         0.51394E-21         0.00000E+00
    0.23598E-22         0.51220E-21         0.00000E+00
    0.61943E-22         0.55051E-21         0.00000E+00
    0.87895E-22         0.53711E-21         0.00000E+00
    0.10702E-21         0.56316E-21         0.00000E+00
    0.12386E-21         0.54717E-21         0.00000E+00
    0.13782E-21         0.54498E-21         0.00000E+00
    0.11589E-21         0.52987E-21         0.00000E+00
    0.11430E-21         0.45928E-21         0.00000E+00
    0.17164E-21         0.48097E-21         0.00000E+00
    0.22295E-21         0.51265E-21         0.00000E+00
    0.20994E-21         0.49240E-21         0.00000E+00
    0.17402E-21         0.42996E-21         0.00000E+00
    0.17637E-21         0.42587E-21         0.00000E+00
    0.26254E-21         0.30890E-21         0.00000E+00
    0.39169E-21         0.25226E-21         0.00000E+00
    0.41585E-21         0.20444E-21         0.00000E+00
    0.34271E-21         0.18815E-21         0.00000E+00
    0.30761E-21         0.19882E-21         0.00000E+00
    0.34144E-21         0.18989E-21         0.00000E+00
    0.38432E-21         0.18658E-21         0.00000E+00
    0.41167E-21         0.71857E-22         0.00000E+00
    0.40818E-21         0.54184E-22         0.00000E+00
    0.40508E-21         0.12242E-22         0.00000E+00
    0.46881E-23         0.50640E-21         0.00000E+00
    0.23192E-22         0.48051E-21         0.00000E+00
    0.49291E-22         0.51776E-21         0.00000E+00
    0.64039E-22         0.52917E-21         0.00000E+00
    0.73908E-22         0.54212E-21         0.00000E+00
    0.85453E-22         0.53982E-21         0.00000E+00
    0.73246E-22         0.55058E-21         0.00000E+00
    0.86279E-22         0.53316E-21         0.00000E+00
    0.87554E-22         0.45630E-21         0.00000E+00
    0.74046E-22         0.44012E-21         0.00000E+00
    0.13578E-21         0.44046E-21         0.00000E+00
    0.19763E-21         0.51574E-21         0.00000E+00
    0.19564E-21         0.44453E-21         0.00000E+00
    0.19507E-21         0.40952E-21         0.00000E+00
    0.23577E-21         0.19838E-21         0.00000E+00
    0.28362E-21         0.18579E-21         0.00000E+00
    0.31357E-21         0.21679E-21         0.00000E+00
    0.32632E-21         0.23619E-21         0.00000E+00
    0.32914E-21         0.18305E-21         0.00000E+00
    0.33583E-21         0.16514E-21         0.00000E+00
    0.37145E-21         0.13283E-21         0.00000E+00
    0.38538E-21         0.84321E-22         0.00000E+00
    0.38186E-21         0.48736E-22         0.00000E+00
    0.39310E-21         0.95550E-23         0.00000E+00
    0.85694E-23         0.49314E-21         0.00000E+00
    0.57901E-23         0.47804E-21         0.00000E+00
   -0.58206E-23         0.50574E-21         0.00000E+00
   -0.45911E-23         0.52521E-21         0.00000E+00
    0.29837E-22         0.50178E-21         0.00000E+00
    0.68721E-22         0.52973E-21         0.00000E+00
    0.96779E-22         0.54482E-21         0.00000E+00
    0.12170E-21         0.50098E-21         0.00000E+00
    0.12740E-21         0.48151E-21         0.00000E+00
    0.14981E-21         0.40600E-21         0.00000E+00
    0.18411E-21         0.37855E-21         0.00000E+00
    0.23945E-21         0.46046E-21         0.00000E+00
    0.28898E-21         0.45227E-21         0.00000E+00
    0.33348E-21         0.35785E-21         0.00000E+00
    0.31173E-21         0.23109E-21         0.00000E+00
    0.20971E-21         0.20725E-21         0.00000E+00
    0.20897E-21         0.16613E-21         0.00000E+00
    0.31899E-21         0.16407E-21         0.00000E+00
    0.38343E-21         0.18790E-21         0.00000E+00
    0.37771E-21         0.15933E-21         0.00000E+00
    0.37981E-21         0.10093E-21         0.00000E+00
    0.39293E-21         0.89165E-22         0.00000E+00
    0.39508E-21         0.45255E-22         0.00000E+00
    0.38945E-21         0.74403E-23         0.00000E+00
    0.35673E-23         0.48100E-21         0.00000E+00
   -0.82238E-23         0.50475E-21         0.00000E+00
   -0.11754E-22         0.49417E-21         0.00000E+00
    0.22080E-22         0.50171E-21         0.00000E+00
    0.45888E-22         0.46704E-21         0.00000E+00
    0.74492E-22         0.49698E-21         0.00000E+00
    0.12622E-21         0.49778E-21         0.00000E+00
    0.16578E-21         0.48354E-21         0.00000E+00
    0.21152E-21         0.44751E-21         0.00000E+00
    0.25055E-21         0.37856E-21         0.00000E+00
    0.25036E-21         0.37188E-21         0.00000E+00
    0.26428E-21         0.39787E-21         0.00000E+00
    0.32187E-21         0.40773E-21         0.00000E+00
    0.36850E-21         0.31125E-21         0.00000E+00
    0.33937E-21         0.32857E-21         0.00000E+00
    0.29064E-21         0.26052E-21         0.00000E+00
    0.29008E-21         0.11416E-21         0.00000E+00
    0.28500E-21         0.11110E-21         0.00000E+00
    0.30017E-21         0.16127E-21         0.00000E+00
    0.34353E-21         0.14833E-21         0.00000E+00
    0.36454E-21         0.88815E-22         0.00000E+00
    0.38505E-21         0.67653E-22         0.00000E+00
    0.39576E-21         0.53907E-22         0.00000E+00
    0.38589E-21         0.14295E-22         0.00000E+00
   -0.91479E-23         0.48658E-21         0.00000E+00
   -0.86489E-23         0.51046E-21         0.00000E+00
    0.18492E-22         0.46485E-21         0.00000E+00
    0.56032E-22         0.45966E-21         0.00000E+00
    0.79411E-22         0.46190E-21         0.00000E+00
    0.90665E-22         0.46226E-21         0.00000E+00
    0.12050E-21         0.45094E-21         0.00000E+00
    0.17082E-21         0.44050E-21         0.00000E+00
    0.22379E-21         0.39184E-21         0.00000E+00
    0.26509E-21         0.35390E-21         0.00000E+00
    0.28513E-21         0.37670E-21         0.00000E+00
    0.29730E-21         0.36695E-21         0.00000E+00
    0.32186E-21         0.35650E-21         0.00000E+00
    0.31798E-21         0.31974E-21         0.00000E+00
    0.32766E-21         0.33954E-21         0.00000E+00
    0.38602E-21         0.23992E-21         0.00000E+00
    0.37556E-21         0.14579E-21         0.00000E+00
    0.31099E-21         0.14911E-21         0.00000E+00
    0.27376E-21         0.14531E-21         0.00000E+00
    0.28833E-21         0.10636E-21         0.00000E+00
    0.32593E-21         0.72177E-22         0.00000E+00
    0.33497E-21         0.54745E-22         0.00000E+00
    0.34197E-21         0.49111E-22         0.00000E+00
    0.35371E-21         0.17216E-22         0.00000E+00
    0.19198E-22         0.47653E-21         0.00000E+00
    0.61588E-22         0.47762E-21         0.00000E+00
    0.72398E-22         0.45974E-21         0.00000E+00
    0.54270E-22         0.44536E-21         0.00000E+00
    0.53212E-22         0.45388E-21         0.00000E+00
    0.84745E-22         0.42749E-21         0.00000E+00
    0.13155E-21         0.40907E-21         0.00000E+00
    0.14719E-21         0.41640E-21         0.00000E+00
    0.15270E-21         0.35746E-21         0.00000E+00
    0.16261E-21         0.33707E-21         0.00000E+00
    0.20336E-21         0.33275E-21         0.00000E+00
    0.23839E-21         0.36369E-21         0.00000E+00
    0.23860E-21         0.33500E-21         0.00000E+00
    0.26859E-21         0.31512E-21         0.00000E+00
    0.32531E-21         0.27777E-21         0.00000E+00
    0.34375E-21         0.22487E-21         0.00000E+00
    0.32493E-21         0.19013E-21         0.00000E+00
    0.31234E-21         0.18194E-21         0.00000E+00
    0.31532E-21         0.14674E-21         0.00000E+00
    0.32884E-21         0.76826E-22         0.00000E+00
    0.33195E-21         0.61001E-22         0.00000E+00
    0.32045E-21         0.68381E-22         0.00000E+00
    0.31057E-21         0.38364E-22         0.00000E+00
    0.31424E-21         0.12546E-22         0.00000E+00
    0.18067E-22         0.43927E-21         0.00000E+00
    0.49459E-22         0.44110E-21         0.00000E+00
    0.80058E-22         0.45484E-21         0.00000E+00
    0.10638E-21         0.44205E-21         0.00000E+00
    0.12680E-21         0.43783E-21         0.00000E+00
    0.14253E-21         0.39629E-21         0.00000E+00
    0.13629E-21         0.39971E-21         0.00000E+00
    0.14545E-21         0.40096E-21         0.00000E+00
    0.15428E-21         0.35856E-21         0.00000E+00
    0.14802E-21         0.33232E-21         0.00000E+00
    0.15297E-21         0.29182E-21         0.00000E+00
    0.18781E-21         0.33475E-21         0.00000E+00
    0.22735E-21         0.32418E-21         0.00000E+00
    0.24787E-21         0.27542E-21         0.00000E+00
    0.25775E-21         0.25088E-21         0.00000E+00
    0.24311E-21         0.24795E-21         0.00000E+00
    0.25663E-21         0.17234E-21         0.00000E+00
    0.28759E-21         0.18136E-21         0.00000E+00
    0.30408E-21         0.12785E-21         0.00000E+00
    0.30369E-21         0.82574E-22         0.00000E+00
    0.28809E-21         0.67746E-22         0.00000E+00
    0.28651E-21         0.74717E-22         0.00000E+00
    0.29170E-21         0.36730E-22         0.00000E+00
    0.29189E-21         0.10312E-22         0.00000E+00
    0.25325E-22         0.39588E-21         0.00000E+00
    0.63102E-22         0.41533E-21         0.00000E+00
    0.87967E-22         0.42516E-21         0.00000E+00
    0.12263E-21         0.41076E-21         0.00000E+00
    0.15165E-21         0.41968E-21         0.00000E+00
    0.14407E-21         0.40629E-21         0.00000E+00
    0.14657E-21         0.39345E-21         0.00000E+00
    0.17279E-21         0.37183E-21         0.00000E+00
    0.19214E-21         0.35949E-21         0.00000E+00
    0.19546E-21         0.33433E-21         0.00000E+00
    0.18974E-21         0.29058E-21         0.00000E+00
    0.20121E-21         0.28968E-21         0.00000E+00
    0.21542E-21         0.31549E-21         0.00000E+00
    0.19928E-21         0.27973E-21         0.00000E+00
    0.19089E-21         0.24510E-21         0.00000E+00
    0.22847E-21         0.23079E-21         0.00000E+00
    0.24128E-21         0.16317E-21         0.00000E+00
    0.24765E-21         0.15321E-21         0.00000E+00
    0.26762E-21         0.11955E-21         0.00000E+00
    0.26546E-21         0.93428E-22         0.00000E+00
    0.26468E-21         0.73270E-22         0.00000E+00
    0.27205E-21         0.63411E-22         0.00000E+00
    0.27967E-21         0.35226E-22         0.00000E+00
    0.28104E-21         0.10254E-22         0.00000E+00
    0.79584E-23         0.36259E-21         0.00000E+00
    0.30809E-22         0.38798E-21         0.00000E+00
    0.59766E-22         0.39868E-21         0.00000E+00
    0.74826E-22         0.38752E-21         0.00000E+00
    0.71913E-22         0.41681E-21         0.00000E+00
    0.85966E-22         0.40268E-21         0.00000E+00
    0.12114E-21         0.35938E-21         0.00000E+00
    0.15368E-21         0.34715E-21         0.00000E+00
    0.17984E-21         0.33866E-21         0.00000E+00
    0.17971E-21         0.35198E-21         0.00000E+00
    0.16652E-21         0.29185E-21         0.00000E+00
    0.16887E-21         0.27460E-21         0.00000E+00
    0.17701E-21         0.30822E-21         0.00000E+00
    0.21360E-21         0.26654E-21         0.00000E+00
    0.25229E-21         0.22799E-21         0.00000E+00
    0.26480E-21         0.19780E-21         0.00000E+00
    0.27282E-21         0.17533E-21         0.00000E+00
    0.27250E-21         0.13500E-21         0.00000E+00
    0.26742E-21         0.12286E-21         0.00000E+00
    0.26812E-21         0.91574E-22         0.00000E+00
    0.26683E-21         0.77199E-22         0.00000E+00
    0.26608E-21         0.52866E-22         0.00000E+00
    0.26839E-21         0.35838E-22         0.00000E+00
    0.26657E-21         0.10092E-22         0.00000E+00
   -0.78455E-23         0.36248E-21         0.00000E+00
   -0.12906E-22         0.37031E-21         0.00000E+00
    0.11193E-22         0.36330E-21         0.00000E+00
    0.41564E-22         0.37746E-21         0.00000E+00
    0.66352E-22         0.40498E-21         0.00000E+00
    0.87474E-22         0.37933E-21         0.00000E+00
    0.97733E-22         0.33730E-21         0.00000E+00
    0.11036E-21         0.32407E-21         0.00000E+00
    0.13303E-21         0.31291E-21         0.00000E+00
    0.16971E-21         0.34118E-21         0.00000E+00
    0.17491E-21         0.31063E-21         0.00000E+00
    0.15042E-21         0.27796E-21         0.00000E+00
    0.16167E-21         0.28547E-21         0.00000E+00
    0.19231E-21         0.22206E-21         0.00000E+00
    0.21700E-21         0.20910E-21         0.00000E+00
    0.24140E-21         0.17980E-21         0.00000E+00
    0.26213E-21         0.16458E-21         0.00000E+00
    0.25958E-21         0.14860E-21         0.00000E+00
    0.24577E-21         0.12815E-21         0.00000E+00
    0.23229E-21         0.99073E-22         0.00000E+00
    0.22400E-21         0.79285E-22         0.00000E+00
    0.23085E-21         0.44675E-22         0.00000E+00
    0.23992E-21         0.32648E-22         0.00000E+00
    0.24511E-21         0.99147E-23         0.00000E+00
    0.12029E-23         0.36912E-21         0.00000E+00
    0.14709E-22         0.35522E-21         0.00000E+00
    0.38436E-22         0.33056E-21         0.00000E+00
    0.45716E-22         0.37255E-21         0.00000E+00
    0.60766E-22         0.37006E-21         0.00000E+00
    0.88935E-22         0.36496E-21         0.00000E+00
    0.88072E-22         0.34227E-21         0.00000E+00
    0.91101E-22         0.30345E-21         0.00000E+00
    0.10762E-21         0.29435E-21         0.00000E+00
    0.13360E-21         0.29708E-21         0.00000E+00
    0.16661E-21         0.31651E-21         0.00000E+00
    0.15649E-21         0.30669E-21         0.00000E+00
    0.13715E-21         0.26481E-21         0.00000E+00
    0.14362E-21         0.20561E-21         0.00000E+00
    0.16215E-21         0.18232E-21         0.00000E+00
    0.17808E-21         0.16624E-21         0.00000E+00
    0.18417E-21         0.15133E-21         0.00000E+00
    0.19716E-21         0.15141E-21         0.00000E+00
    0.20177E-21         0.13454E-21         0.00000E+00
    0.20138E-21         0.10655E-21         0.00000E+00
    0.21269E-21         0.68787E-22         0.00000E+00
    0.21515E-21         0.45852E-22         0.00000E+00
    0.21206E-21         0.25492E-22         0.00000E+00
    0.21453E-21         0.94220E-23         0.00000E+00
    0.37247E-23         0.36419E-21         0.00000E+00
    0.18322E-22         0.33204E-21         0.00000E+00
    0.23394E-22         0.32494E-21         0.00000E+00
    0.28064E-22         0.36623E-21         0.00000E+00
    0.49579E-22         0.33982E-21         0.00000E+00
    0.66254E-22         0.35036E-21         0.00000E+00
    0.83689E-22         0.34030E-21         0.00000E+00
    0.90830E-22         0.29525E-21         0.00000E+00
    0.90276E-22         0.28659E-21         0.00000E+00
    0.10594E-21         0.26320E-21         0.00000E+00
    0.12604E-21         0.29728E-21         0.00000E+00
    0.15076E-21         0.31133E-21         0.00000E+00
    0.16398E-21         0.26629E-21         0.00000E+00
    0.16737E-21         0.19428E-21         0.00000E+00
    0.17595E-21         0.16653E-21         0.00000E+00
    0.16433E-21         0.17772E-21         0.00000E+00
    0.14144E-21         0.15666E-21         0.00000E+00
    0.14021E-21         0.13432E-21         0.00000E+00
    0.16691E-21         0.12032E-21         0.00000E+00
    0.19420E-21         0.93877E-22         0.00000E+00
    0.19797E-21         0.66389E-22         0.00000E+00
    0.19206E-21         0.51687E-22         0.00000E+00
    0.18891E-21         0.25906E-22         0.00000E+00
    0.18618E-21         0.92734E-23         0.00000E+00
    0.97458E-23         0.35072E-21         0.00000E+00
    0.19588E-22         0.32107E-21         0.00000E+00
    0.25697E-22         0.32472E-21         0.00000E+00
    0.43920E-22         0.34354E-21         0.00000E+00
    0.55021E-22         0.32989E-21         0.00000E+00
    0.65103E-22         0.33354E-21         0.00000E+00
    0.82338E-22         0.32245E-21         0.00000E+00
    0.84430E-22         0.30386E-21         0.00000E+00
    0.10451E-21         0.25845E-21         0.00000E+00
    0.11600E-21         0.26420E-21         0.00000E+00
    0.11353E-21         0.27864E-21         0.00000E+00
    0.13926E-21         0.27952E-21         0.00000E+00
    0.16608E-21         0.25806E-21         0.00000E+00
    0.17185E-21         0.19335E-21         0.00000E+00
    0.15323E-21         0.17749E-21         0.00000E+00
    0.15380E-21         0.17782E-21         0.00000E+00
    0.17015E-21         0.16311E-21         0.00000E+00
    0.16472E-21         0.13453E-21         0.00000E+00
    0.15743E-21         0.10069E-21         0.00000E+00
    0.16146E-21         0.82190E-22         0.00000E+00
    0.16045E-21         0.75319E-22         0.00000E+00
    0.15572E-21         0.53386E-22         0.00000E+00
    0.15704E-21         0.26046E-22         0.00000E+00
    0.15931E-21         0.95889E-23         0.00000E+00
    0.14650E-22         0.32633E-21         0.00000E+00
    0.38750E-22         0.31153E-21         0.00000E+00
    0.37155E-22         0.32976E-21         0.00000E+00
    0.31441E-22         0.32600E-21         0.00000E+00
    0.43866E-22         0.32390E-21         0.00000E+00
    0.59296E-22         0.31401E-21         0.00000E+00
    0.72269E-22         0.31177E-21         0.00000E+00
    0.88698E-22         0.29602E-21         0.00000E+00
    0.78619E-22         0.25629E-21         0.00000E+00
    0.70426E-22         0.26307E-21         0.00000E+00
    0.96691E-22         0.25597E-21         0.00000E+00
    0.11523E-21         0.25792E-21         0.00000E+00
    0.12744E-21         0.24062E-21         0.00000E+00
    0.12957E-21         0.20290E-21         0.00000E+00
    0.13154E-21         0.18459E-21         0.00000E+00
    0.13303E-21         0.16866E-21         0.00000E+00
    0.12947E-21         0.15948E-21         0.00000E+00
    0.13951E-21         0.13354E-21         0.00000E+00
    0.14491E-21         0.10356E-21         0.00000E+00
    0.14114E-21         0.79058E-22         0.00000E+00
    0.14112E-21         0.79476E-22         0.00000E+00
    0.14112E-21         0.53956E-22         0.00000E+00
    0.13891E-21         0.26377E-22         0.00000E+00
    0.13723E-21         0.86608E-23         0.00000E+00
    0.31344E-23         0.30854E-21         0.00000E+00
    0.21958E-23         0.30615E-21         0.00000E+00
    0.46772E-23         0.33425E-21         0.00000E+00
    0.14440E-22         0.31746E-21         0.00000E+00
    0.27567E-22         0.30689E-21         0.00000E+00
    0.41371E-22         0.30179E-21         0.00000E+00
    0.46723E-22         0.30567E-21         0.00000E+00
    0.50835E-22         0.28158E-21         0.00000E+00
    0.54192E-22         0.27745E-21         0.00000E+00
    0.54545E-22         0.24975E-21         0.00000E+00
    0.69419E-22         0.22815E-21         0.00000E+00
    0.95341E-22         0.24129E-21         0.00000E+00
    0.10518E-21         0.23520E-21         0.00000E+00
    0.95948E-22         0.21543E-21         0.00000E+00
    0.92200E-22         0.17384E-21         0.00000E+00
    0.97663E-22         0.17246E-21         0.00000E+00
    0.10378E-21         0.15313E-21         0.00000E+00
    0.11011E-21         0.12351E-21         0.00000E+00
    0.11865E-21         0.99660E-22         0.00000E+00
    0.12354E-21         0.81844E-22         0.00000E+00
    0.12282E-21         0.77426E-22         0.00000E+00
    0.12479E-21         0.54035E-22         0.00000E+00
    0.12262E-21         0.30685E-22         0.00000E+00
    0.11913E-21         0.95137E-23         0.00000E+00
   -0.27684E-24         0.30569E-21         0.00000E+00
    0.18062E-23         0.30786E-21         0.00000E+00
    0.41685E-23         0.32769E-21         0.00000E+00
    0.55555E-24         0.31787E-21         0.00000E+00
    0.25000E-23         0.29141E-21         0.00000E+00
    0.17828E-22         0.28813E-21         0.00000E+00
    0.31929E-22         0.29987E-21         0.00000E+00
    0.39930E-22         0.27527E-21         0.00000E+00
    0.52614E-22         0.26772E-21         0.00000E+00
    0.61129E-22         0.25061E-21         0.00000E+00
    0.52973E-22         0.22057E-21         0.00000E+00
    0.50116E-22         0.22580E-21         0.00000E+00
    0.61580E-22         0.22938E-21         0.00000E+00
    0.71067E-22         0.22100E-21         0.00000E+00
    0.70619E-22         0.17247E-21         0.00000E+00
    0.68732E-22         0.17025E-21         0.00000E+00
    0.71183E-22         0.14677E-21         0.00000E+00
    0.79326E-22         0.11540E-21         0.00000E+00
    0.88663E-22         0.89896E-22         0.00000E+00
    0.90923E-22         0.84458E-22         0.00000E+00
    0.93811E-22         0.72644E-22         0.00000E+00
    0.95943E-22         0.54713E-22         0.00000E+00
    0.95188E-22         0.32931E-22         0.00000E+00
    0.95376E-22         0.10567E-22         0.00000E+00
    0.95628E-23         0.29640E-21         0.00000E+00
    0.87213E-23         0.31591E-21         0.00000E+00
   -0.18420E-23         0.32785E-21         0.00000E+00
    0.13646E-22         0.30584E-21         0.00000E+00
    0.29977E-22         0.28517E-21         0.00000E+00
    0.22676E-22         0.28635E-21         0.00000E+00
    0.18497E-22         0.29173E-21         0.00000E+00
    0.20311E-22         0.27359E-21         0.00000E+00
    0.20970E-22         0.25605E-21         0.00000E+00
    0.33642E-22         0.24109E-21         0.00000E+00
    0.48746E-22         0.22315E-21         0.00000E+00
    0.50817E-22         0.22402E-21         0.00000E+00
    0.42747E-22         0.22777E-21         0.00000E+00
    0.46247E-22         0.20962E-21         0.00000E+00
    0.52688E-22         0.17785E-21         0.00000E+00
    0.56399E-22         0.16305E-21         0.00000E+00
    0.67638E-22         0.14028E-21         0.00000E+00
    0.69401E-22         0.11198E-21         0.00000E+00
    0.62583E-22         0.90798E-22         0.00000E+00
    0.60694E-22         0.83186E-22         0.00000E+00
    0.61825E-22         0.69896E-22         0.00000E+00
    0.64785E-22         0.52369E-22         0.00000E+00
    0.70506E-22         0.30309E-22         0.00000E+00
    0.73538E-22         0.99675E-23         0.00000E+00
    0.29954E-23         0.28384E-21         0.00000E+00
    0.15198E-22         0.31711E-21         0.00000E+00
    0.17697E-22         0.33471E-21         0.00000E+00
    0.36513E-23         0.29753E-21         0.00000E+00
    0.35415E-24         0.28044E-21         0.00000E+00
    0.58739E-23         0.29286E-21         0.00000E+00
    0.86359E-23         0.28664E-21         0.00000E+00
    0.12848E-22         0.27266E-21         0.00000E+00
    0.24643E-22         0.24453E-21         0.00000E+00
    0.43333E-22         0.22125E-21         0.00000E+00
    0.48020E-22         0.22320E-21         0.00000E+00
    0.35377E-22         0.23454E-21         0.00000E+00
    0.28381E-22         0.23232E-21         0.00000E+00
    0.28896E-22         0.20106E-21         0.00000E+00
    0.34414E-22         0.17445E-21         0.00000E+00
    0.42393E-22         0.15476E-21         0.00000E+00
    0.44125E-22         0.13560E-21         0.00000E+00
    0.45370E-22         0.11366E-21         0.00000E+00
    0.45228E-22         0.96083E-22         0.00000E+00
    0.43658E-22         0.81360E-22         0.00000E+00
    0.46342E-22         0.67907E-22         0.00000E+00
    0.49939E-22         0.47801E-22         0.00000E+00
    0.51231E-22         0.27863E-22         0.00000E+00
    0.50967E-22         0.96443E-23         0.00000E+00
   -0.99216E-23         0.29077E-21         0.00000E+00
   -0.10813E-22         0.29887E-21         0.00000E+00
    0.10156E-22         0.32948E-21         0.00000E+00
    0.14767E-22         0.31220E-21         0.00000E+00
    0.24086E-23         0.28143E-21         0.00000E+00
    0.21271E-23         0.28663E-21         0.00000E+00
    0.64307E-23         0.28580E-21         0.00000E+00
    0.50092E-23         0.27071E-21         0.00000E+00
    0.12919E-22         0.22678E-21         0.00000E+00
    0.23756E-22         0.20947E-21         0.00000E+00
    0.21051E-22         0.23299E-21         0.00000E+00
    0.21658E-22         0.23678E-21         0.00000E+00
    0.25931E-22         0.23280E-21         0.00000E+00
    0.20185E-22         0.20581E-21         0.00000E+00
    0.13855E-22         0.17051E-21         0.00000E+00
    0.13959E-22         0.15062E-21         0.00000E+00
    0.21990E-22         0.12998E-21         0.00000E+00
    0.28878E-22         0.11114E-21         0.00000E+00
    0.28510E-22         0.99104E-22         0.00000E+00
    0.26394E-22         0.82026E-22         0.00000E+00
    0.26643E-22         0.64309E-22         0.00000E+00
    0.28651E-22         0.45794E-22         0.00000E+00
    0.29290E-22         0.27939E-22         0.00000E+00
    0.29466E-22         0.96568E-23         0.00000E+00
   -0.11008E-23         0.30179E-21         0.00000E+00
   -0.27607E-23         0.29040E-21         0.00000E+00
    0.11353E-22         0.30287E-21         0.00000E+00
    0.23019E-22         0.32253E-21         0.00000E+00
    0.12356E-22         0.29411E-21         0.00000E+00
    0.82952E-23         0.27829E-21         0.00000E+00
    0.10460E-22         0.28767E-21         0.00000E+00
    0.11606E-22         0.26911E-21         0.00000E+00
    0.13867E-22         0.21820E-21         0.00000E+00
    0.45275E-23         0.21655E-21         0.00000E+00
   -0.30975E-23         0.23624E-21         0.00000E+00
    0.59657E-23         0.22386E-21         0.00000E+00
    0.12836E-22         0.23458E-21         0.00000E+00
    0.10980E-22         0.21163E-21         0.00000E+00
    0.72314E-23         0.17477E-21         0.00000E+00
    0.48636E-23         0.14862E-21         0.00000E+00
    0.55646E-23         0.12324E-21         0.00000E+00
    0.64931E-23         0.11006E-21         0.00000E+00
    0.74429E-23         0.99602E-22         0.00000E+00
    0.77773E-23         0.83310E-22         0.00000E+00
    0.82414E-23         0.62312E-22         0.00000E+00
    0.91278E-23         0.44896E-22         0.00000E+00
    0.95156E-23         0.27809E-22         0.00000E+00
    0.97727E-23         0.93529E-23         0.00000E+00
POINT_DATA       1225
VECTORS vDarcyNodal double 
    0.78907E-22        -0.12131E-20         0.00000E+00
   -0.76696E-21        -0.10036E-20         0.00000E+00
   -0.75576E-21        -0.84353E-21         0.00000E+00
    0.41978E-21        -0.87107E-21         0.00000E+00
    0.58945E-21        -0.11991E-21         0.00000E+00
   -0.42955E-21         0.11738E-20         0.00000E+00
   -0.24012E-21         0.19805E-20         0.00000E+00
    0.14745E-21         0.20566E-20         0.00000E+00
   -0.23839E-21         0.15137E-20         0.00000E+00
    0.93867E-22         0.12615E-20         0.00000E+00
   -0.78864E-21         0.16647E-20         0.00000E+00
   -0.50855E-21         0.17855E-20         0.00000E+00
   -0.33995E-22         0.13908E-20         0.00000E+00
   -0.30237E-21         0.12744E-20         0.00000E+00
    0.67792E-21         0.10324E-20         0.00000E+00
    0.39675E-21         0.53519E-21         0.00000E+00
   -0.92127E-22         0.41361E-21         0.00000E+00
   -0.89437E-22         0.39506E-21         0.00000E+00
   -0.16180E-21         0.51826E-21         0.00000E+00
   -0.87001E-22         0.54502E-21         0.00000E+00
   -0.74651E-22         0.19233E-21         0.00000E+00
    0.66831E-22        -0.12152E-21         0.00000E+00
    0.19246E-22        -0.14658E-21         0.00000E+00
    0.23554E-22        -0.53652E-22         0.00000E+00
    0.28238E-22        -0.25115E-22         0.00000E+00
    0.10086E-20        -0.36725E-21         0.00000E+00
    0.35622E-21        -0.58624E-21         0.00000E+00
    0.43173E-21        -0.14369E-20         0.00000E+00
    0.98901E-21        -0.15437E-20         0.00000E+00
   -0.58389E-22         0.30475E-21         0.00000E+00
   -0.79960E-21         0.15886E-20         0.00000E+00
    0.30216E-23         0.16920E-20         0.00000E+00
    0.86258E-22         0.20557E-20         0.00000E+00
    0.99752E-22         0.15405E-20         0.00000E+00
   -0.22612E-22         0.15366E-20         0.00000E+00
   -0.82975E-21         0.19659E-20         0.00000E+00
   -0.72518E-21         0.14082E-20         0.00000E+00
   -0.15530E-21         0.12878E-20         0.00000E+00
    0.16037E-21         0.91842E-21         0.00000E+00
    0.51834E-21         0.68288E-21         0.00000E+00
    0.12902E-21         0.92021E-21         0.00000E+00
   -0.55251E-22         0.65670E-21         0.00000E+00
   -0.11725E-21         0.42990E-21         0.00000E+00
   -0.21855E-21         0.51704E-21         0.00000E+00
   -0.62621E-22         0.50144E-21         0.00000E+00
    0.43890E-22         0.11541E-21         0.00000E+00
    0.11609E-21        -0.16847E-21         0.00000E+00
    0.60062E-22        -0.12494E-21         0.00000E+00
    0.56099E-22        -0.58148E-22         0.00000E+00
    0.52547E-22        -0.29800E-22         0.00000E+00
    0.26944E-20         0.91733E-22         0.00000E+00
    0.16102E-20        -0.42666E-21         0.00000E+00
    0.17816E-20        -0.14763E-20         0.00000E+00
    0.11169E-20        -0.38095E-21         0.00000E+00
   -0.69313E-21         0.16687E-20         0.00000E+00
   -0.63782E-21         0.11124E-20         0.00000E+00
   -0.18800E-21         0.10947E-20         0.00000E+00
   -0.39182E-22         0.19598E-20         0.00000E+00
    0.27232E-21         0.16226E-20         0.00000E+00
   -0.32451E-21         0.21910E-20         0.00000E+00
   -0.52606E-21         0.23673E-20         0.00000E+00
   -0.47894E-21         0.11111E-20         0.00000E+00
   -0.36802E-22         0.50530E-21         0.00000E+00
    0.13708E-21         0.60075E-21         0.00000E+00
    0.13193E-22         0.10638E-20         0.00000E+00
   -0.64809E-22         0.11088E-20         0.00000E+00
   -0.56265E-22         0.65988E-21         0.00000E+00
   -0.98879E-22         0.55837E-21         0.00000E+00
   -0.16848E-21         0.46363E-21         0.00000E+00
    0.51817E-22         0.28257E-21         0.00000E+00
    0.26287E-21         0.13612E-22         0.00000E+00
    0.20040E-21        -0.13769E-21         0.00000E+00
    0.14981E-21        -0.86586E-22         0.00000E+00
    0.10723E-21        -0.46137E-22         0.00000E+00
    0.93721E-22        -0.18010E-22         0.00000E+00
    0.17252E-20         0.18011E-20         0.00000E+00
    0.13022E-20         0.32650E-21         0.00000E+00
    0.80936E-21        -0.94363E-21         0.00000E+00
   -0.30951E-21         0.93108E-21         0.00000E+00
   -0.52639E-21         0.20595E-20         0.00000E+00
   -0.62592E-22         0.10835E-20         0.00000E+00
   -0.28622E-21         0.10934E-20         0.00000E+00
   -0.23096E-21         0.15954E-20         0.00000E+00
   -0.33680E-21         0.18258E-20         0.00000E+00
   -0.46976E-21         0.23350E-20         0.00000E+00
   -0.11792E-21         0.21204E-20         0.00000E+00
    0.14704E-21         0.91895E-21         0.00000E+00
    0.17098E-21         0.67174E-21         0.00000E+00
   -0.29553E-21         0.86843E-21         0.00000E+00
   -0.38252E-21         0.88477E-21         0.00000E+00
   -0.94070E-22         0.98967E-21         0.00000E+00
   -0.87685E-22         0.69077E-21         0.00000E+00
    0.13051E-21         0.54212E-21         0.00000E+00
    0.22310E-21         0.36634E-21         0.00000E+00
    0.30148E-21         0.70093E-22         0.00000E+00
    0.36874E-21        -0.33171E-22         0.00000E+00
    0.28556E-21        -0.55408E-22         0.00000E+00
    0.20581E-21        -0.31770E-22         0.00000E+00
    0.12547E-21        -0.20581E-23         0.00000E+00
    0.11963E-21        -0.27884E-23         0.00000E+00
    0.00000E+00         0.93771E-21         0.00000E+00
    0.57341E-21         0.48916E-21         0.00000E+00
   -0.39509E-21         0.13539E-21         0.00000E+00
   -0.11959E-20         0.95481E-21         0.00000E+00
   -0.35765E-21         0.14218E-20         0.00000E+00
   -0.47191E-21         0.87226E-21         0.00000E+00
   -0.39084E-21         0.12630E-20         0.00000E+00
   -0.14404E-21         0.20104E-20         0.00000E+00
   -0.32126E-21         0.18614E-20         0.00000E+00
   -0.48109E-23         0.19721E-20         0.00000E+00
    0.39677E-21         0.17505E-20         0.00000E+00
    0.51313E-21         0.82217E-21         0.00000E+00
    0.24914E-21         0.94787E-21         0.00000E+00
    0.26386E-21         0.11543E-20         0.00000E+00
    0.13830E-21         0.86233E-21         0.00000E+00
    0.22650E-21         0.81394E-21         0.00000E+00
    0.27227E-21         0.43530E-21         0.00000E+00
    0.29723E-21         0.24758E-21         0.00000E+00
    0.56477E-21         0.29265E-21         0.00000E+00
    0.50557E-21         0.13694E-21         0.00000E+00
    0.36972E-21         0.29536E-22         0.00000E+00
    0.35645E-21         0.25241E-22         0.00000E+00
    0.18975E-21         0.73498E-22         0.00000E+00
    0.12888E-21         0.40046E-22         0.00000E+00
    0.14013E-21        -0.63190E-23         0.00000E+00
    0.00000E+00         0.65433E-21         0.00000E+00
    0.32838E-22         0.72160E-21         0.00000E+00
   -0.24818E-21         0.82568E-21         0.00000E+00
   -0.69564E-21         0.89363E-21         0.00000E+00
   -0.37099E-21         0.13355E-20         0.00000E+00
   -0.36914E-21         0.11167E-20         0.00000E+00
   -0.28818E-21         0.76552E-21         0.00000E+00
    0.20291E-21         0.15258E-20         0.00000E+00
    0.52777E-22         0.16866E-20         0.00000E+00
    0.25201E-21         0.16170E-20         0.00000E+00
    0.85085E-21         0.16024E-20         0.00000E+00
    0.82201E-21         0.10666E-20         0.00000E+00
    0.53741E-21         0.92101E-21         0.00000E+00
    0.71292E-21         0.97928E-21         0.00000E+00
    0.68969E-21         0.92213E-21         0.00000E+00
    0.60914E-21         0.85569E-21         0.00000E+00
    0.54321E-21         0.62004E-21         0.00000E+00
    0.41829E-21         0.24962E-21         0.00000E+00
    0.52401E-21         0.15800E-21         0.00000E+00
    0.49351E-21         0.26515E-21         0.00000E+00
    0.37364E-21         0.11595E-21         0.00000E+00
    0.26290E-21         0.12456E-21         0.00000E+00
    0.18988E-21         0.19580E-21         0.00000E+00
    0.16460E-21         0.47560E-22         0.00000E+00
    0.16739E-21        -0.25281E-22         0.00000E+00
    0.15490E-35         0.87203E-21         0.00000E+00
   -0.25288E-21         0.73734E-21         0.00000E+00
   -0.22280E-21         0.86386E-21         0.00000E+00
   -0.24750E-21         0.10776E-20         0.00000E+00
   -0.45809E-21         0.10953E-20         0.00000E+00
    0.16482E-21         0.78945E-21         0.00000E+00
    0.28916E-21         0.69099E-21         0.00000E+00
    0.94630E-22         0.16695E-20         0.00000E+00
    0.17949E-21         0.18123E-20         0.00000E+00
    0.10020E-21         0.11741E-20         0.00000E+00
    0.61597E-21         0.11805E-20         0.00000E+00
    0.91498E-21         0.11356E-20         0.00000E+00
    0.73145E-21         0.10570E-20         0.00000E+00
    0.57292E-21         0.10020E-20         0.00000E+00
    0.65678E-21         0.96611E-21         0.00000E+00
    0.62351E-21         0.96041E-21         0.00000E+00
    0.53586E-21         0.62615E-21         0.00000E+00
    0.48476E-21         0.26678E-21         0.00000E+00
    0.40271E-21         0.21743E-21         0.00000E+00
    0.39373E-21         0.28731E-21         0.00000E+00
    0.35094E-21         0.26015E-21         0.00000E+00
    0.21164E-21         0.20900E-21         0.00000E+00
    0.24158E-21         0.17180E-21         0.00000E+00
    0.21970E-21         0.62528E-22         0.00000E+00
    0.20181E-21        -0.11900E-22         0.00000E+00
    0.00000E+00         0.11601E-20         0.00000E+00
   -0.13946E-21         0.94440E-21         0.00000E+00
   -0.27917E-21         0.82030E-21         0.00000E+00
   -0.14009E-21         0.11289E-20         0.00000E+00
   -0.44389E-21         0.92317E-21         0.00000E+00
   -0.22737E-21         0.36944E-21         0.00000E+00
   -0.13235E-21         0.83571E-21         0.00000E+00
   -0.46694E-22         0.16355E-20         0.00000E+00
    0.69508E-21         0.16810E-20         0.00000E+00
    0.40380E-21         0.11805E-20         0.00000E+00
    0.32458E-21         0.78764E-21         0.00000E+00
    0.59508E-21         0.95109E-21         0.00000E+00
    0.56572E-21         0.12631E-20         0.00000E+00
    0.65992E-21         0.10539E-20         0.00000E+00
    0.48130E-21         0.87154E-21         0.00000E+00
    0.54009E-21         0.97661E-21         0.00000E+00
    0.67499E-21         0.75879E-21         0.00000E+00
    0.46640E-21         0.38277E-21         0.00000E+00
    0.36428E-21         0.24903E-21         0.00000E+00
    0.32210E-21         0.31691E-21         0.00000E+00
    0.26773E-21         0.29803E-21         0.00000E+00
    0.29398E-21         0.23393E-21         0.00000E+00
    0.30210E-21         0.18774E-21         0.00000E+00
    0.30681E-21         0.87327E-22         0.00000E+00
    0.28634E-21         0.10495E-22         0.00000E+00
   -0.40890E-35         0.11509E-20         0.00000E+00
    0.49025E-22         0.10165E-20         0.00000E+00
    0.70535E-23         0.86450E-21         0.00000E+00
   -0.87820E-22         0.12423E-20         0.00000E+00
   -0.24846E-21         0.11826E-20         0.00000E+00
   -0.47140E-21         0.47791E-21         0.00000E+00
   -0.57280E-21         0.51031E-21         0.00000E+00
   -0.14196E-21         0.84204E-21         0.00000E+00
    0.26872E-21         0.13618E-20         0.00000E+00
    0.56117E-21         0.15446E-20         0.00000E+00
    0.40866E-21         0.98920E-21         0.00000E+00
    0.26434E-21         0.89447E-21         0.00000E+00
    0.40777E-21         0.99213E-21         0.00000E+00
    0.60074E-21         0.10864E-20         0.00000E+00
    0.44683E-21         0.10859E-20         0.00000E+00
    0.41704E-21         0.76672E-21         0.00000E+00
    0.51100E-21         0.69984E-21         0.00000E+00
    0.48280E-21         0.57749E-21         0.00000E+00
    0.33429E-21         0.36174E-21         0.00000E+00
    0.33703E-21         0.38386E-21         0.00000E+00
    0.29904E-21         0.28826E-21         0.00000E+00
    0.31289E-21         0.17464E-21         0.00000E+00
    0.37323E-21         0.15897E-21         0.00000E+00
    0.39615E-21         0.78286E-22         0.00000E+00
    0.38255E-21         0.29044E-22         0.00000E+00
    0.36751E-50         0.10620E-20         0.00000E+00
   -0.11693E-21         0.93735E-21         0.00000E+00
    0.25583E-22         0.95714E-21         0.00000E+00
   -0.27278E-22         0.13844E-20         0.00000E+00
   -0.50221E-22         0.13067E-20         0.00000E+00
   -0.83469E-22         0.69378E-21         0.00000E+00
   -0.38042E-21         0.50627E-21         0.00000E+00
   -0.37623E-21         0.79394E-21         0.00000E+00
   -0.24461E-21         0.97787E-21         0.00000E+00
    0.33901E-21         0.10406E-20         0.00000E+00
    0.57983E-21         0.10845E-20         0.00000E+00
    0.41903E-21         0.95198E-21         0.00000E+00
    0.39473E-21         0.92667E-21         0.00000E+00
    0.42794E-21         0.10149E-20         0.00000E+00
    0.43450E-21         0.10552E-20         0.00000E+00
    0.28362E-21         0.91244E-21         0.00000E+00
    0.23854E-21         0.69304E-21         0.00000E+00
    0.33688E-21         0.55948E-21         0.00000E+00
    0.35724E-21         0.39480E-21         0.00000E+00
    0.41174E-21         0.35216E-21         0.00000E+00
    0.49134E-21         0.32217E-21         0.00000E+00
    0.41887E-21         0.15974E-21         0.00000E+00
    0.42993E-21         0.10448E-21         0.00000E+00
    0.42461E-21         0.78006E-22         0.00000E+00
    0.42083E-21         0.37693E-22         0.00000E+00
    0.24599E-35         0.13848E-20         0.00000E+00
    0.14827E-23         0.99092E-21         0.00000E+00
   -0.15790E-21         0.77484E-21         0.00000E+00
   -0.23553E-23         0.13181E-20         0.00000E+00
    0.22718E-21         0.12387E-20         0.00000E+00
    0.16427E-21         0.80811E-21         0.00000E+00
    0.11342E-21         0.80308E-21         0.00000E+00
    0.76573E-22         0.70624E-21         0.00000E+00
    0.44323E-22         0.64652E-21         0.00000E+00
    0.14061E-21         0.72011E-21         0.00000E+00
    0.45167E-21         0.90918E-21         0.00000E+00
    0.44780E-21         0.10796E-20         0.00000E+00
    0.39361E-21         0.98322E-21         0.00000E+00
    0.38847E-21         0.10466E-20         0.00000E+00
    0.17827E-21         0.12303E-20         0.00000E+00
    0.18177E-21         0.96268E-21         0.00000E+00
    0.30756E-21         0.64657E-21         0.00000E+00
    0.35508E-21         0.45879E-21         0.00000E+00
    0.38604E-21         0.28688E-21         0.00000E+00
    0.35876E-21         0.24976E-21         0.00000E+00
    0.47988E-21         0.28114E-21         0.00000E+00
    0.52788E-21         0.23605E-21         0.00000E+00
    0.47096E-21         0.15323E-21         0.00000E+00
    0.46700E-21         0.87386E-22         0.00000E+00
    0.44158E-21         0.36611E-22         0.00000E+00
    0.00000E+00         0.10591E-20         0.00000E+00
    0.20769E-21         0.10953E-20         0.00000E+00
    0.35606E-23         0.96098E-21         0.00000E+00
    0.11949E-22         0.99935E-21         0.00000E+00
    0.39586E-21         0.11401E-20         0.00000E+00
    0.39851E-21         0.80755E-21         0.00000E+00
    0.52411E-21         0.59397E-21         0.00000E+00
    0.43873E-21         0.86303E-21         0.00000E+00
    0.11165E-21         0.91383E-21         0.00000E+00
    0.13080E-22         0.63323E-21         0.00000E+00
    0.14979E-21         0.77729E-21         0.00000E+00
    0.24854E-21         0.10100E-20         0.00000E+00
    0.36673E-21         0.98600E-21         0.00000E+00
    0.24464E-21         0.12302E-20         0.00000E+00
    0.23380E-21         0.12619E-20         0.00000E+00
    0.45337E-21         0.78315E-21         0.00000E+00
    0.41230E-21         0.51973E-21         0.00000E+00
    0.44921E-21         0.48100E-21         0.00000E+00
    0.38571E-21         0.39112E-21         0.00000E+00
    0.38560E-21         0.25832E-21         0.00000E+00
    0.37285E-21         0.15305E-21         0.00000E+00
    0.49663E-21         0.16867E-21         0.00000E+00
    0.47210E-21         0.16536E-21         0.00000E+00
    0.48970E-21         0.10738E-21         0.00000E+00
    0.48039E-21         0.88534E-22         0.00000E+00
    0.00000E+00         0.96943E-21         0.00000E+00
    0.77039E-22         0.98736E-21         0.00000E+00
    0.22584E-21         0.97059E-21         0.00000E+00
    0.17032E-21         0.92584E-21         0.00000E+00
    0.26155E-21         0.85219E-21         0.00000E+00
    0.39597E-21         0.67986E-21         0.00000E+00
    0.37243E-21         0.76286E-21         0.00000E+00
    0.29156E-21         0.11187E-20         0.00000E+00
    0.14264E-21         0.10722E-20         0.00000E+00
    0.65936E-22         0.68198E-21         0.00000E+00
    0.11775E-22         0.67373E-21         0.00000E+00
    0.12249E-21         0.86263E-21         0.00000E+00
    0.13452E-21         0.98712E-21         0.00000E+00
    0.15615E-21         0.11796E-20         0.00000E+00
    0.33647E-21         0.10215E-20         0.00000E+00
    0.54695E-21         0.78418E-21         0.00000E+00
    0.45276E-21         0.65074E-21         0.00000E+00
    0.42622E-21         0.48538E-21         0.00000E+00
    0.47178E-21         0.35048E-21         0.00000E+00
    0.50574E-21         0.26261E-21         0.00000E+00
    0.42051E-21         0.17011E-21         0.00000E+00
    0.39739E-21         0.13681E-21         0.00000E+00
    0.43472E-21         0.16016E-21         0.00000E+00
    0.45744E-21         0.79095E-22         0.00000E+00
    0.48673E-21         0.55221E-22         0.00000E+00
    0.00000E+00         0.90500E-21         0.00000E+00
    0.78705E-22         0.86941E-21         0.00000E+00
    0.66491E-22         0.86769E-21         0.00000E+00
    0.13088E-21         0.96364E-21         0.00000E+00
    0.77359E-23         0.91448E-21         0.00000E+00
    0.60339E-22         0.69667E-21         0.00000E+00
    0.74992E-22         0.69838E-21         0.00000E+00
    0.79583E-22         0.10928E-20         0.00000E+00
    0.21673E-21         0.11395E-20         0.00000E+00
    0.23850E-21         0.76410E-21         0.00000E+00
    0.13126E-21         0.72074E-21         0.00000E+00
    0.56497E-22         0.88729E-21         0.00000E+00
   -0.65571E-22         0.95234E-21         0.00000E+00
    0.41743E-22         0.10283E-20         0.00000E+00
    0.31088E-21         0.87113E-21         0.00000E+00
    0.35334E-21         0.66687E-21         0.00000E+00
    0.40171E-21         0.64047E-21         0.00000E+00
    0.36917E-21         0.46197E-21         0.00000E+00
    0.53371E-21         0.31159E-21         0.00000E+00
    0.49033E-21         0.30959E-21         0.00000E+00
    0.48979E-21         0.26141E-21         0.00000E+00
    0.41030E-21         0.15445E-21         0.00000E+00
    0.44621E-21         0.10531E-21         0.00000E+00
    0.46189E-21         0.55374E-22         0.00000E+00
    0.48321E-21         0.29952E-22         0.00000E+00
    0.00000E+00         0.81202E-21         0.00000E+00
    0.68178E-22         0.92087E-21         0.00000E+00
   -0.82740E-22         0.91841E-21         0.00000E+00
   -0.92996E-22         0.98460E-21         0.00000E+00
   -0.47173E-22         0.92273E-21         0.00000E+00
    0.50314E-23         0.61260E-21         0.00000E+00
   -0.42049E-22         0.74361E-21         0.00000E+00
   -0.41239E-22         0.97696E-21         0.00000E+00
    0.20137E-21         0.91325E-21         0.00000E+00
    0.21690E-21         0.76744E-21         0.00000E+00
    0.18299E-21         0.85573E-21         0.00000E+00
   -0.35430E-22         0.10595E-20         0.00000E+00
   -0.80943E-22         0.10019E-20         0.00000E+00
   -0.28172E-22         0.80312E-21         0.00000E+00
    0.24448E-21         0.70993E-21         0.00000E+00
    0.27739E-21         0.69334E-21         0.00000E+00
    0.37989E-21         0.63491E-21         0.00000E+00
    0.39823E-21         0.35339E-21         0.00000E+00
    0.40666E-21         0.22932E-21         0.00000E+00
    0.47251E-21         0.30653E-21         0.00000E+00
    0.51557E-21         0.25014E-21         0.00000E+00
    0.52527E-21         0.18038E-21         0.00000E+00
    0.51119E-21         0.10857E-21         0.00000E+00
    0.49540E-21         0.42102E-22         0.00000E+00
    0.49364E-21         0.12590E-22         0.00000E+00
    0.00000E+00         0.76865E-21         0.00000E+00
    0.19668E-22         0.95215E-21         0.00000E+00
    0.59420E-22         0.10289E-20         0.00000E+00
   -0.27317E-22         0.92807E-21         0.00000E+00
    0.69970E-22         0.81645E-21         0.00000E+00
   -0.17484E-22         0.69154E-21         0.00000E+00
   -0.12940E-21         0.74465E-21         0.00000E+00
    0.45375E-22         0.84940E-21         0.00000E+00
    0.17261E-21         0.88132E-21         0.00000E+00
    0.51556E-22         0.78248E-21         0.00000E+00
   -0.10814E-21         0.97306E-21         0.00000E+00
   -0.16469E-21         0.11512E-20         0.00000E+00
   -0.29340E-22         0.94508E-21         0.00000E+00
    0.73276E-22         0.70286E-21         0.00000E+00
    0.25108E-21         0.56557E-21         0.00000E+00
    0.34929E-21         0.53145E-21         0.00000E+00
    0.43490E-21         0.51963E-21         0.00000E+00
    0.50002E-21         0.43521E-21         0.00000E+00
    0.40918E-21         0.23730E-21         0.00000E+00
    0.44113E-21         0.20068E-21         0.00000E+00
    0.42053E-21         0.20865E-21         0.00000E+00
    0.47351E-21         0.15884E-21         0.00000E+00
    0.47639E-21         0.13518E-21         0.00000E+00
    0.47908E-21         0.72918E-22         0.00000E+00
    0.46149E-21         0.33469E-22         0.00000E+00
    0.00000E+00         0.77269E-21         0.00000E+00
   -0.76071E-23         0.86145E-21         0.00000E+00
    0.18992E-21         0.96539E-21         0.00000E+00
    0.15427E-21         0.97405E-21         0.00000E+00
    0.79688E-22         0.91290E-21         0.00000E+00
   -0.25164E-22         0.81197E-21         0.00000E+00
   -0.13453E-22         0.68075E-21         0.00000E+00
    0.12185E-21         0.67494E-21         0.00000E+00
    0.10452E-21         0.90707E-21         0.00000E+00
    0.11587E-22         0.10482E-20         0.00000E+00
   -0.11561E-21         0.10720E-20         0.00000E+00
    0.23761E-22         0.98066E-21         0.00000E+00
    0.17599E-21         0.76391E-21         0.00000E+00
    0.40876E-21         0.52269E-21         0.00000E+00
    0.44165E-21         0.43392E-21         0.00000E+00
    0.41683E-21         0.50953E-21         0.00000E+00
    0.37275E-21         0.48419E-21         0.00000E+00
    0.47451E-21         0.37911E-21         0.00000E+00
    0.53150E-21         0.28821E-21         0.00000E+00
    0.37764E-21         0.29518E-21         0.00000E+00
    0.35810E-21         0.21776E-21         0.00000E+00
    0.38614E-21         0.12452E-21         0.00000E+00
    0.39741E-21         0.10300E-21         0.00000E+00
    0.42773E-21         0.57000E-22         0.00000E+00
    0.44238E-21         0.47773E-22         0.00000E+00
    0.00000E+00         0.78386E-21         0.00000E+00
    0.13593E-22         0.76223E-21         0.00000E+00
    0.83938E-22         0.86699E-21         0.00000E+00
    0.83890E-22         0.10383E-20         0.00000E+00
    0.81887E-22         0.99588E-21         0.00000E+00
    0.13439E-21         0.78468E-21         0.00000E+00
    0.15904E-21         0.59763E-21         0.00000E+00
    0.12537E-21         0.73143E-21         0.00000E+00
    0.75647E-22         0.99159E-21         0.00000E+00
    0.14641E-21         0.10026E-20         0.00000E+00
    0.18479E-21         0.96089E-21         0.00000E+00
    0.35705E-21         0.85963E-21         0.00000E+00
    0.55805E-21         0.56008E-21         0.00000E+00
    0.57940E-21         0.43719E-21         0.00000E+00
    0.41753E-21         0.55750E-21         0.00000E+00
    0.39730E-21         0.60036E-21         0.00000E+00
    0.33016E-21         0.46195E-21         0.00000E+00
    0.32181E-21         0.27646E-21         0.00000E+00
    0.29170E-21         0.33417E-21         0.00000E+00
    0.31458E-21         0.37408E-21         0.00000E+00
    0.40912E-21         0.20015E-21         0.00000E+00
    0.38051E-21         0.11952E-21         0.00000E+00
    0.40841E-21         0.93586E-22         0.00000E+00
    0.42956E-21         0.27953E-22         0.00000E+00
    0.44906E-21         0.41704E-23         0.00000E+00
    0.00000E+00         0.74550E-21         0.00000E+00
    0.14312E-22         0.77751E-21         0.00000E+00
   -0.22086E-22         0.89510E-21         0.00000E+00
    0.26078E-22         0.97610E-21         0.00000E+00
    0.15360E-21         0.86240E-21         0.00000E+00
    0.18693E-21         0.73482E-21         0.00000E+00
    0.13821E-21         0.68978E-21         0.00000E+00
    0.86527E-22         0.75833E-21         0.00000E+00
    0.18119E-21         0.88603E-21         0.00000E+00
    0.23804E-21         0.93906E-21         0.00000E+00
    0.34672E-21         0.86133E-21         0.00000E+00
    0.51076E-21         0.60739E-21         0.00000E+00
    0.60843E-21         0.54156E-21         0.00000E+00
    0.44933E-21         0.66322E-21         0.00000E+00
    0.35367E-21         0.61602E-21         0.00000E+00
    0.33015E-21         0.59690E-21         0.00000E+00
    0.32631E-21         0.55967E-21         0.00000E+00
    0.21969E-21         0.41757E-21         0.00000E+00
    0.12317E-21         0.29544E-21         0.00000E+00
    0.19896E-21         0.17776E-21         0.00000E+00
    0.29678E-21         0.15182E-21         0.00000E+00
    0.36561E-21         0.12523E-21         0.00000E+00
    0.43309E-21         0.53960E-22         0.00000E+00
    0.44911E-21         0.16346E-22         0.00000E+00
    0.44064E-21         0.87600E-23         0.00000E+00
    0.00000E+00         0.75524E-21         0.00000E+00
   -0.23294E-22         0.78431E-21         0.00000E+00
    0.48078E-23         0.85523E-21         0.00000E+00
    0.10971E-21         0.86262E-21         0.00000E+00
    0.20912E-21         0.83503E-21         0.00000E+00
    0.17417E-21         0.80007E-21         0.00000E+00
    0.15186E-21         0.69803E-21         0.00000E+00
    0.15376E-21         0.68846E-21         0.00000E+00
    0.22041E-21         0.84008E-21         0.00000E+00
    0.29039E-21         0.83707E-21         0.00000E+00
    0.41110E-21         0.68817E-21         0.00000E+00
    0.49298E-21         0.59792E-21         0.00000E+00
    0.41324E-21         0.62152E-21         0.00000E+00
    0.35064E-21         0.69195E-21         0.00000E+00
    0.33587E-21         0.67668E-21         0.00000E+00
    0.26425E-21         0.62772E-21         0.00000E+00
    0.31000E-21         0.57241E-21         0.00000E+00
    0.32449E-21         0.47959E-21         0.00000E+00
    0.31912E-21         0.35490E-21         0.00000E+00
    0.27566E-21         0.20047E-21         0.00000E+00
    0.27156E-21         0.33506E-22         0.00000E+00
    0.37204E-21        -0.16786E-22         0.00000E+00
    0.43396E-21         0.10090E-22         0.00000E+00
    0.43239E-21         0.20404E-22         0.00000E+00
    0.42986E-21         0.21109E-22         0.00000E+00
    0.00000E+00         0.79209E-21         0.00000E+00
    0.11375E-22         0.77270E-21         0.00000E+00
    0.51548E-22         0.76210E-21         0.00000E+00
    0.11945E-21         0.77179E-21         0.00000E+00
    0.17232E-21         0.79793E-21         0.00000E+00
    0.22971E-21         0.79208E-21         0.00000E+00
    0.22573E-21         0.71019E-21         0.00000E+00
    0.18453E-21         0.68978E-21         0.00000E+00
    0.20563E-21         0.74940E-21         0.00000E+00
    0.36309E-21         0.74837E-21         0.00000E+00
    0.39459E-21         0.65875E-21         0.00000E+00
    0.43233E-21         0.60525E-21         0.00000E+00
    0.38463E-21         0.68389E-21         0.00000E+00
    0.36318E-21         0.74059E-21         0.00000E+00
    0.32810E-21         0.70241E-21         0.00000E+00
    0.29441E-21         0.62276E-21         0.00000E+00
    0.33188E-21         0.49944E-21         0.00000E+00
    0.38237E-21         0.40845E-21         0.00000E+00
    0.45229E-21         0.34427E-21         0.00000E+00
    0.49078E-21         0.22532E-21         0.00000E+00
    0.45902E-21         0.55441E-22         0.00000E+00
    0.40091E-21        -0.37174E-22         0.00000E+00
    0.40440E-21        -0.63929E-23         0.00000E+00
    0.42029E-21         0.20451E-22         0.00000E+00
    0.43331E-21         0.13819E-22         0.00000E+00
    0.00000E+00         0.73248E-21         0.00000E+00
    0.61948E-22         0.73276E-21         0.00000E+00
    0.83613E-22         0.74715E-21         0.00000E+00
    0.10877E-21         0.74185E-21         0.00000E+00
    0.15163E-21         0.72477E-21         0.00000E+00
    0.21411E-21         0.74665E-21         0.00000E+00
    0.24727E-21         0.74322E-21         0.00000E+00
    0.23745E-21         0.70856E-21         0.00000E+00
    0.27673E-21         0.66152E-21         0.00000E+00
    0.32587E-21         0.64811E-21         0.00000E+00
    0.36805E-21         0.61892E-21         0.00000E+00
    0.37431E-21         0.60788E-21         0.00000E+00
    0.37078E-21         0.69067E-21         0.00000E+00
    0.38764E-21         0.74849E-21         0.00000E+00
    0.35237E-21         0.74546E-21         0.00000E+00
    0.38330E-21         0.62394E-21         0.00000E+00
    0.37793E-21         0.48445E-21         0.00000E+00
    0.37319E-21         0.35918E-21         0.00000E+00
    0.41906E-21         0.24649E-21         0.00000E+00
    0.45715E-21         0.19374E-21         0.00000E+00
    0.45765E-21         0.12337E-21         0.00000E+00
    0.43719E-21         0.37825E-22         0.00000E+00
    0.42637E-21        -0.92887E-23         0.00000E+00
    0.44898E-21        -0.85043E-23         0.00000E+00
    0.45420E-21        -0.49317E-23         0.00000E+00
    0.00000E+00         0.66819E-21         0.00000E+00
    0.46049E-22         0.68909E-21         0.00000E+00
    0.84939E-22         0.71528E-21         0.00000E+00
    0.13398E-21         0.70377E-21         0.00000E+00
    0.16406E-21         0.69259E-21         0.00000E+00
    0.18380E-21         0.69644E-21         0.00000E+00
    0.23551E-21         0.68684E-21         0.00000E+00
    0.28815E-21         0.66032E-21         0.00000E+00
    0.33081E-21         0.66098E-21         0.00000E+00
    0.30187E-21         0.65704E-21         0.00000E+00
    0.31760E-21         0.61031E-21         0.00000E+00
    0.29997E-21         0.60253E-21         0.00000E+00
    0.30464E-21         0.67056E-21         0.00000E+00
    0.37455E-21         0.75900E-21         0.00000E+00
    0.42436E-21         0.70676E-21         0.00000E+00
    0.46034E-21         0.59721E-21         0.00000E+00
    0.46117E-21         0.50955E-21         0.00000E+00
    0.45923E-21         0.36731E-21         0.00000E+00
    0.45782E-21         0.26031E-21         0.00000E+00
    0.45028E-21         0.18673E-21         0.00000E+00
    0.46712E-21         0.75401E-22         0.00000E+00
    0.50491E-21        -0.58889E-23         0.00000E+00
    0.49279E-21        -0.18186E-22         0.00000E+00
    0.48757E-21        -0.73790E-23         0.00000E+00
    0.48073E-21         0.33843E-23         0.00000E+00
    0.00000E+00         0.64039E-21         0.00000E+00
    0.25192E-22         0.64783E-21         0.00000E+00
    0.62345E-22         0.65923E-21         0.00000E+00
    0.10873E-21         0.66273E-21         0.00000E+00
    0.13510E-21         0.67494E-21         0.00000E+00
    0.16314E-21         0.67521E-21         0.00000E+00
    0.19987E-21         0.63887E-21         0.00000E+00
    0.20800E-21         0.61325E-21         0.00000E+00
    0.20308E-21         0.64780E-21         0.00000E+00
    0.26479E-21         0.66132E-21         0.00000E+00
    0.27562E-21         0.62082E-21         0.00000E+00
    0.27863E-21         0.62084E-21         0.00000E+00
    0.29590E-21         0.61609E-21         0.00000E+00
    0.34406E-21         0.62876E-21         0.00000E+00
    0.45154E-21         0.65967E-21         0.00000E+00
    0.46127E-21         0.58713E-21         0.00000E+00
    0.53019E-21         0.48556E-21         0.00000E+00
    0.54479E-21         0.36253E-21         0.00000E+00
    0.55730E-21         0.25544E-21         0.00000E+00
    0.60373E-21         0.18445E-21         0.00000E+00
    0.61981E-21         0.68751E-22         0.00000E+00
    0.56656E-21         0.12157E-22         0.00000E+00
    0.52201E-21         0.80437E-23         0.00000E+00
    0.48138E-21         0.35549E-23         0.00000E+00
    0.48042E-21         0.87602E-23         0.00000E+00
    0.00000E+00         0.61781E-21         0.00000E+00
    0.24697E-22         0.62675E-21         0.00000E+00
    0.45963E-22         0.63174E-21         0.00000E+00
    0.61750E-22         0.63101E-21         0.00000E+00
    0.83215E-22         0.63818E-21         0.00000E+00
    0.12742E-21         0.63168E-21         0.00000E+00
    0.15058E-21         0.64199E-21         0.00000E+00
    0.15961E-21         0.65711E-21         0.00000E+00
    0.16416E-21         0.60419E-21         0.00000E+00
    0.20863E-21         0.58451E-21         0.00000E+00
    0.24667E-21         0.59647E-21         0.00000E+00
    0.28538E-21         0.58224E-21         0.00000E+00
    0.30006E-21         0.60513E-21         0.00000E+00
    0.27582E-21         0.60337E-21         0.00000E+00
    0.36160E-21         0.58955E-21         0.00000E+00
    0.48911E-21         0.51855E-21         0.00000E+00
    0.54308E-21         0.42603E-21         0.00000E+00
    0.56786E-21         0.34020E-21         0.00000E+00
    0.55716E-21         0.20137E-21         0.00000E+00
    0.59576E-21         0.12422E-21         0.00000E+00
    0.61015E-21         0.11257E-21         0.00000E+00
    0.54444E-21         0.91914E-22         0.00000E+00
    0.50015E-21         0.66994E-22         0.00000E+00
    0.47567E-21         0.34207E-22         0.00000E+00
    0.47865E-21         0.53021E-23         0.00000E+00
    0.00000E+00         0.59099E-21         0.00000E+00
    0.29688E-22         0.60186E-21         0.00000E+00
    0.58870E-22         0.62217E-21         0.00000E+00
    0.78555E-22         0.62548E-21         0.00000E+00
    0.10101E-21         0.60927E-21         0.00000E+00
    0.10802E-21         0.60784E-21         0.00000E+00
    0.10968E-21         0.60667E-21         0.00000E+00
    0.17634E-21         0.59968E-21         0.00000E+00
    0.21270E-21         0.59879E-21         0.00000E+00
    0.20029E-21         0.57882E-21         0.00000E+00
    0.25227E-21         0.54406E-21         0.00000E+00
    0.27187E-21         0.56744E-21         0.00000E+00
    0.29573E-21         0.62565E-21         0.00000E+00
    0.34565E-21         0.56723E-21         0.00000E+00
    0.43741E-21         0.44637E-21         0.00000E+00
    0.56032E-21         0.40566E-21         0.00000E+00
    0.58883E-21         0.40681E-21         0.00000E+00
    0.60064E-21         0.34845E-21         0.00000E+00
    0.57497E-21         0.22754E-21         0.00000E+00
    0.52742E-21         0.13146E-21         0.00000E+00
    0.49699E-21         0.12008E-21         0.00000E+00
    0.48253E-21         0.12215E-21         0.00000E+00
    0.47230E-21         0.76815E-22         0.00000E+00
    0.49038E-21         0.25059E-22         0.00000E+00
    0.48333E-21         0.27968E-23         0.00000E+00
    0.00000E+00         0.55843E-21         0.00000E+00
    0.26127E-22         0.56788E-21         0.00000E+00
    0.57089E-22         0.58287E-21         0.00000E+00
    0.98290E-22         0.58887E-21         0.00000E+00
    0.11374E-21         0.60871E-21         0.00000E+00
    0.10707E-21         0.62300E-21         0.00000E+00
    0.12313E-21         0.57367E-21         0.00000E+00
    0.13857E-21         0.55409E-21         0.00000E+00
    0.18477E-21         0.58024E-21         0.00000E+00
    0.21057E-21         0.54494E-21         0.00000E+00
    0.22483E-21         0.52489E-21         0.00000E+00
    0.23650E-21         0.53877E-21         0.00000E+00
    0.32611E-21         0.53135E-21         0.00000E+00
    0.41077E-21         0.46169E-21         0.00000E+00
    0.45109E-21         0.37488E-21         0.00000E+00
    0.43314E-21         0.36714E-21         0.00000E+00
    0.47530E-21         0.38571E-21         0.00000E+00
    0.54181E-21         0.35406E-21         0.00000E+00
    0.57084E-21         0.27459E-21         0.00000E+00
    0.54683E-21         0.20220E-21         0.00000E+00
    0.48545E-21         0.15746E-21         0.00000E+00
    0.46376E-21         0.11661E-21         0.00000E+00
    0.48152E-21         0.59141E-22         0.00000E+00
    0.48212E-21         0.23175E-22         0.00000E+00
    0.47415E-21         0.19403E-22         0.00000E+00
    0.00000E+00         0.53874E-21         0.00000E+00
    0.20813E-22         0.54477E-21         0.00000E+00
    0.44436E-22         0.55001E-21         0.00000E+00
    0.53154E-22         0.56883E-21         0.00000E+00
    0.76520E-22         0.60050E-21         0.00000E+00
    0.10217E-21         0.59845E-21         0.00000E+00
    0.13594E-21         0.57517E-21         0.00000E+00
    0.12279E-21         0.53804E-21         0.00000E+00
    0.16356E-21         0.52679E-21         0.00000E+00
    0.20925E-21         0.53876E-21         0.00000E+00
    0.20971E-21         0.51813E-21         0.00000E+00
    0.21167E-21         0.46616E-21         0.00000E+00
    0.25246E-21         0.45138E-21         0.00000E+00
    0.29981E-21         0.44225E-21         0.00000E+00
    0.28506E-21         0.42400E-21         0.00000E+00
    0.26421E-21         0.38145E-21         0.00000E+00
    0.30705E-21         0.29814E-21         0.00000E+00
    0.40949E-21         0.25291E-21         0.00000E+00
    0.50139E-21         0.22251E-21         0.00000E+00
    0.50814E-21         0.21686E-21         0.00000E+00
    0.49231E-21         0.20315E-21         0.00000E+00
    0.45592E-21         0.12608E-21         0.00000E+00
    0.46603E-21         0.58452E-22         0.00000E+00
    0.45379E-21         0.32430E-22         0.00000E+00
    0.45754E-21         0.18731E-22         0.00000E+00
    0.00000E+00         0.51680E-21         0.00000E+00
    0.13828E-22         0.52344E-21         0.00000E+00
    0.42069E-22         0.55053E-21         0.00000E+00
    0.51655E-22         0.55679E-21         0.00000E+00
    0.80058E-22         0.55970E-21         0.00000E+00
    0.11157E-21         0.56358E-21         0.00000E+00
    0.13177E-21         0.55305E-21         0.00000E+00
    0.14765E-21         0.52646E-21         0.00000E+00
    0.12142E-21         0.49378E-21         0.00000E+00
    0.17907E-21         0.49880E-21         0.00000E+00
    0.21872E-21         0.52246E-21         0.00000E+00
    0.22605E-21         0.49602E-21         0.00000E+00
    0.17585E-21         0.44322E-21         0.00000E+00
    0.19829E-21         0.42909E-21         0.00000E+00
    0.19136E-21         0.41047E-21         0.00000E+00
    0.29799E-21         0.34515E-21         0.00000E+00
    0.35680E-21         0.24043E-21         0.00000E+00
    0.37986E-21         0.15972E-21         0.00000E+00
    0.37684E-21         0.17593E-21         0.00000E+00
    0.39134E-21         0.21127E-21         0.00000E+00
    0.41626E-21         0.20968E-21         0.00000E+00
    0.42770E-21         0.14290E-21         0.00000E+00
    0.42679E-21         0.61273E-22         0.00000E+00
    0.42138E-21         0.31664E-22         0.00000E+00
    0.42446E-21         0.11907E-22         0.00000E+00
    0.00000E+00         0.51108E-21         0.00000E+00
    0.75483E-23         0.50270E-21         0.00000E+00
    0.39242E-22         0.51218E-21         0.00000E+00
    0.71992E-22         0.53084E-21         0.00000E+00
    0.79941E-22         0.54057E-21         0.00000E+00
    0.10098E-21         0.54674E-21         0.00000E+00
    0.10833E-21         0.53910E-21         0.00000E+00
    0.10273E-21         0.54839E-21         0.00000E+00
    0.99437E-22         0.49537E-21         0.00000E+00
    0.10241E-21         0.44146E-21         0.00000E+00
    0.14327E-21         0.47116E-21         0.00000E+00
    0.21545E-21         0.50903E-21         0.00000E+00
    0.19211E-21         0.47914E-21         0.00000E+00
    0.17754E-21         0.42674E-21         0.00000E+00
    0.19389E-21         0.32430E-21         0.00000E+00
    0.30442E-21         0.21601E-21         0.00000E+00
    0.37089E-21         0.21627E-21         0.00000E+00
    0.35854E-21         0.23287E-21         0.00000E+00
    0.31049E-21         0.21103E-21         0.00000E+00
    0.32626E-21         0.17744E-21         0.00000E+00
    0.35101E-21         0.16680E-21         0.00000E+00
    0.40476E-21         0.11555E-21         0.00000E+00
    0.39230E-21         0.64768E-22         0.00000E+00
    0.39774E-21         0.34762E-22         0.00000E+00
    0.40043E-21         0.12576E-22         0.00000E+00
    0.00000E+00         0.50171E-21         0.00000E+00
    0.13257E-22         0.48420E-21         0.00000E+00
    0.15725E-22         0.48608E-21         0.00000E+00
    0.27746E-22         0.51609E-21         0.00000E+00
    0.31702E-22         0.53071E-21         0.00000E+00
    0.72043E-22         0.53520E-21         0.00000E+00
    0.82131E-22         0.55130E-21         0.00000E+00
    0.87894E-22         0.53536E-21         0.00000E+00
    0.12008E-21         0.49410E-21         0.00000E+00
    0.94872E-22         0.45496E-21         0.00000E+00
    0.12899E-21         0.40942E-21         0.00000E+00
    0.19090E-21         0.44718E-21         0.00000E+00
    0.24618E-21         0.48113E-21         0.00000E+00
    0.23844E-21         0.42731E-21         0.00000E+00
    0.29011E-21         0.28360E-21         0.00000E+00
    0.25740E-21         0.16816E-21         0.00000E+00
    0.23594E-21         0.18632E-21         0.00000E+00
    0.28660E-21         0.22012E-21         0.00000E+00
    0.35871E-21         0.20821E-21         0.00000E+00
    0.35386E-21         0.17075E-21         0.00000E+00
    0.35968E-21         0.13118E-21         0.00000E+00
    0.39158E-21         0.10161E-21         0.00000E+00
    0.38673E-21         0.68289E-22         0.00000E+00
    0.39021E-21         0.23529E-22         0.00000E+00
    0.39233E-21         0.65337E-23         0.00000E+00
    0.00000E+00         0.48457E-21         0.00000E+00
    0.12137E-22         0.48698E-21         0.00000E+00
   -0.14570E-22         0.49769E-21         0.00000E+00
   -0.30040E-23         0.51486E-21         0.00000E+00
    0.20493E-22         0.49628E-21         0.00000E+00
    0.55232E-22         0.49631E-21         0.00000E+00
    0.87981E-22         0.52325E-21         0.00000E+00
    0.13502E-21         0.51044E-21         0.00000E+00
    0.15246E-21         0.48839E-21         0.00000E+00
    0.18646E-21         0.43255E-21         0.00000E+00
    0.21390E-21         0.37513E-21         0.00000E+00
    0.22057E-21         0.39183E-21         0.00000E+00
    0.28316E-21         0.43160E-21         0.00000E+00
    0.32769E-21         0.38281E-21         0.00000E+00
    0.37429E-21         0.30534E-21         0.00000E+00
    0.27681E-21         0.27018E-21         0.00000E+00
    0.22354E-21         0.18706E-21         0.00000E+00
    0.27551E-21         0.11009E-21         0.00000E+00
    0.32849E-21         0.14377E-21         0.00000E+00
    0.35512E-21         0.17648E-21         0.00000E+00
    0.36611E-21         0.12908E-21         0.00000E+00
    0.37823E-21         0.88489E-22         0.00000E+00
    0.39975E-21         0.66132E-22         0.00000E+00
    0.39110E-21         0.29167E-22         0.00000E+00
    0.38424E-21         0.83468E-23         0.00000E+00
    0.00000E+00         0.47743E-21         0.00000E+00
   -0.55806E-23         0.49877E-21         0.00000E+00
   -0.11292E-22         0.50122E-21         0.00000E+00
    0.18030E-22         0.48102E-21         0.00000E+00
    0.60082E-22         0.47247E-21         0.00000E+00
    0.65216E-22         0.46771E-21         0.00000E+00
    0.99941E-22         0.47152E-21         0.00000E+00
    0.14678E-21         0.47088E-21         0.00000E+00
    0.18982E-21         0.44266E-21         0.00000E+00
    0.24549E-21         0.39352E-21         0.00000E+00
    0.27015E-21         0.37532E-21         0.00000E+00
    0.26533E-21         0.37792E-21         0.00000E+00
    0.29625E-21         0.37400E-21         0.00000E+00
    0.34748E-21         0.33618E-21         0.00000E+00
    0.33900E-21         0.33448E-21         0.00000E+00
    0.32803E-21         0.31891E-21         0.00000E+00
    0.34863E-21         0.18762E-21         0.00000E+00
    0.31700E-21         0.11517E-21         0.00000E+00
    0.27899E-21         0.12860E-21         0.00000E+00
    0.29494E-21         0.13312E-21         0.00000E+00
    0.33692E-21         0.10807E-21         0.00000E+00
    0.35356E-21         0.67979E-22         0.00000E+00
    0.36647E-21         0.55428E-22         0.00000E+00
    0.37126E-21         0.39035E-22         0.00000E+00
    0.36834E-21         0.20243E-22         0.00000E+00
    0.00000E+00         0.49573E-21         0.00000E+00
    0.10050E-22         0.49827E-21         0.00000E+00
    0.42889E-22         0.47408E-21         0.00000E+00
    0.48001E-22         0.44348E-21         0.00000E+00
    0.62302E-22         0.44909E-21         0.00000E+00
    0.70321E-22         0.45645E-21         0.00000E+00
    0.10509E-21         0.44168E-21         0.00000E+00
    0.14696E-21         0.42056E-21         0.00000E+00
    0.17106E-21         0.38969E-21         0.00000E+00
    0.20544E-21         0.35222E-21         0.00000E+00
    0.22227E-21         0.35528E-21         0.00000E+00
    0.26621E-21         0.36574E-21         0.00000E+00
    0.26948E-21         0.34945E-21         0.00000E+00
    0.29098E-21         0.34006E-21         0.00000E+00
    0.29560E-21         0.32480E-21         0.00000E+00
    0.35736E-21         0.26054E-21         0.00000E+00
    0.37241E-21         0.19809E-21         0.00000E+00
    0.32808E-21         0.17973E-21         0.00000E+00
    0.29525E-21         0.16583E-21         0.00000E+00
    0.29382E-21         0.11855E-21         0.00000E+00
    0.32335E-21         0.70467E-22         0.00000E+00
    0.33453E-21         0.58943E-22         0.00000E+00
    0.32089E-21         0.48428E-22         0.00000E+00
    0.33164E-21         0.27292E-22         0.00000E+00
    0.33631E-21         0.14189E-22         0.00000E+00
    0.00000E+00         0.45733E-21         0.00000E+00
    0.37264E-22         0.45588E-21         0.00000E+00
    0.73782E-22         0.46327E-21         0.00000E+00
    0.78674E-22         0.46161E-21         0.00000E+00
    0.81980E-22         0.45015E-21         0.00000E+00
    0.98037E-22         0.42492E-21         0.00000E+00
    0.12924E-21         0.39488E-21         0.00000E+00
    0.13860E-21         0.40491E-21         0.00000E+00
    0.15405E-21         0.38418E-21         0.00000E+00
    0.15294E-21         0.34231E-21         0.00000E+00
    0.15769E-21         0.31454E-21         0.00000E+00
    0.19863E-21         0.33071E-21         0.00000E+00
    0.22757E-21         0.34924E-21         0.00000E+00
    0.23838E-21         0.31006E-21         0.00000E+00
    0.27808E-21         0.26809E-21         0.00000E+00
    0.30497E-21         0.24210E-21         0.00000E+00
    0.28189E-21         0.21691E-21         0.00000E+00
    0.29968E-21         0.19233E-21         0.00000E+00
    0.30025E-21         0.16285E-21         0.00000E+00
    0.31914E-21         0.10502E-21         0.00000E+00
    0.31339E-21         0.67360E-22         0.00000E+00
    0.30665E-21         0.70439E-22         0.00000E+00
    0.30031E-21         0.58317E-22         0.00000E+00
    0.30195E-21         0.23618E-22         0.00000E+00
    0.30418E-21         0.10903E-22         0.00000E+00
    0.74820E-36         0.42120E-21         0.00000E+00
    0.43392E-22         0.42449E-21         0.00000E+00
    0.69168E-22         0.43267E-21         0.00000E+00
    0.98857E-22         0.43529E-21         0.00000E+00
    0.13015E-21         0.42973E-21         0.00000E+00
    0.14830E-21         0.40920E-21         0.00000E+00
    0.13830E-21         0.40112E-21         0.00000E+00
    0.14456E-21         0.39575E-21         0.00000E+00
    0.17368E-21         0.37534E-21         0.00000E+00
    0.17275E-21         0.34857E-21         0.00000E+00
    0.17074E-21         0.30960E-21         0.00000E+00
    0.17197E-21         0.29586E-21         0.00000E+00
    0.21705E-21         0.30969E-21         0.00000E+00
    0.22573E-21         0.28954E-21         0.00000E+00
    0.22143E-21         0.25821E-21         0.00000E+00
    0.22721E-21         0.25674E-21         0.00000E+00
    0.24437E-21         0.20338E-21         0.00000E+00
    0.25355E-21         0.16137E-21         0.00000E+00
    0.28170E-21         0.14636E-21         0.00000E+00
    0.29000E-21         0.10541E-21         0.00000E+00
    0.27915E-21         0.82960E-22         0.00000E+00
    0.27362E-21         0.72023E-22         0.00000E+00
    0.28493E-21         0.53129E-22         0.00000E+00
    0.28643E-21         0.23424E-22         0.00000E+00
    0.28649E-21         0.97211E-23         0.00000E+00
    0.93547E-50         0.37055E-21         0.00000E+00
    0.33284E-22         0.38671E-21         0.00000E+00
    0.60627E-22         0.40781E-21         0.00000E+00
    0.87105E-22         0.40063E-21         0.00000E+00
    0.11035E-21         0.40070E-21         0.00000E+00
    0.11322E-21         0.41677E-21         0.00000E+00
    0.11682E-21         0.39862E-21         0.00000E+00
    0.15089E-21         0.36953E-21         0.00000E+00
    0.17558E-21         0.35599E-21         0.00000E+00
    0.19641E-21         0.34526E-21         0.00000E+00
    0.17876E-21         0.31532E-21         0.00000E+00
    0.17750E-21         0.28440E-21         0.00000E+00
    0.19258E-21         0.29548E-21         0.00000E+00
    0.19985E-21         0.30568E-21         0.00000E+00
    0.21304E-21         0.26661E-21         0.00000E+00
    0.23014E-21         0.21915E-21         0.00000E+00
    0.26313E-21         0.19057E-21         0.00000E+00
    0.25097E-21         0.15500E-21         0.00000E+00
    0.26918E-21         0.12639E-21         0.00000E+00
    0.26586E-21         0.10757E-21         0.00000E+00
    0.26772E-21         0.83739E-22         0.00000E+00
    0.26379E-21         0.64657E-22         0.00000E+00
    0.27433E-21         0.45507E-22         0.00000E+00
    0.27372E-21         0.22055E-22         0.00000E+00
    0.27388E-21         0.10787E-22         0.00000E+00
   -0.62996E-36         0.35463E-21         0.00000E+00
    0.11292E-24         0.36386E-21         0.00000E+00
    0.17790E-22         0.37885E-21         0.00000E+00
    0.53169E-22         0.38557E-21         0.00000E+00
    0.63221E-22         0.40362E-21         0.00000E+00
    0.75044E-22         0.40272E-21         0.00000E+00
    0.98397E-22         0.36344E-21         0.00000E+00
    0.12048E-21         0.33700E-21         0.00000E+00
    0.14356E-21         0.32983E-21         0.00000E+00
    0.16931E-21         0.34538E-21         0.00000E+00
    0.18011E-21         0.32851E-21         0.00000E+00
    0.16132E-21         0.28205E-21         0.00000E+00
    0.15796E-21         0.28734E-21         0.00000E+00
    0.18072E-21         0.26908E-21         0.00000E+00
    0.22520E-21         0.22792E-21         0.00000E+00
    0.24410E-21         0.20665E-21         0.00000E+00
    0.26210E-21         0.18255E-21         0.00000E+00
    0.27284E-21         0.15532E-21         0.00000E+00
    0.25924E-21         0.13147E-21         0.00000E+00
    0.25395E-21         0.10687E-21         0.00000E+00
    0.24645E-21         0.85034E-22         0.00000E+00
    0.24437E-21         0.65408E-22         0.00000E+00
    0.25256E-21         0.43197E-22         0.00000E+00
    0.25575E-21         0.23874E-22         0.00000E+00
    0.25593E-21         0.93976E-23         0.00000E+00
    0.00000E+00         0.37032E-21         0.00000E+00
   -0.66426E-23         0.36892E-21         0.00000E+00
    0.84451E-23         0.35475E-21         0.00000E+00
    0.41184E-22         0.35520E-21         0.00000E+00
    0.46097E-22         0.37883E-21         0.00000E+00
    0.81022E-22         0.38160E-21         0.00000E+00
    0.95387E-22         0.35318E-21         0.00000E+00
    0.90418E-22         0.32437E-21         0.00000E+00
    0.11104E-21         0.30716E-21         0.00000E+00
    0.12960E-21         0.30870E-21         0.00000E+00
    0.17370E-21         0.32330E-21         0.00000E+00
    0.16782E-21         0.30654E-21         0.00000E+00
    0.13909E-21         0.27609E-21         0.00000E+00
    0.15974E-21         0.23844E-21         0.00000E+00
    0.17619E-21         0.20323E-21         0.00000E+00
    0.20296E-21         0.18225E-21         0.00000E+00
    0.21652E-21         0.16183E-21         0.00000E+00
    0.22978E-21         0.15786E-21         0.00000E+00
    0.22696E-21         0.14528E-21         0.00000E+00
    0.22057E-21         0.12035E-21         0.00000E+00
    0.21309E-21         0.93324E-22         0.00000E+00
    0.22359E-21         0.58553E-22         0.00000E+00
    0.22241E-21         0.34127E-22         0.00000E+00
    0.22957E-21         0.18688E-22         0.00000E+00
    0.23006E-21         0.10432E-22         0.00000E+00
    0.00000E+00         0.36792E-21         0.00000E+00
    0.49276E-23         0.35542E-21         0.00000E+00
    0.28103E-22         0.33103E-21         0.00000E+00
    0.33727E-22         0.34792E-21         0.00000E+00
    0.40053E-22         0.36378E-21         0.00000E+00
    0.70291E-22         0.35343E-21         0.00000E+00
    0.84897E-22         0.35405E-21         0.00000E+00
    0.86864E-22         0.32134E-21         0.00000E+00
    0.95066E-22         0.29064E-21         0.00000E+00
    0.10283E-21         0.28273E-21         0.00000E+00
    0.13671E-21         0.29029E-21         0.00000E+00
    0.15594E-21         0.31666E-21         0.00000E+00
    0.15130E-21         0.29542E-21         0.00000E+00
    0.14983E-21         0.23198E-21         0.00000E+00
    0.16116E-21         0.18470E-21         0.00000E+00
    0.17695E-21         0.16631E-21         0.00000E+00
    0.16547E-21         0.15574E-21         0.00000E+00
    0.16013E-21         0.14487E-21         0.00000E+00
    0.17723E-21         0.14067E-21         0.00000E+00
    0.19145E-21         0.12074E-21         0.00000E+00
    0.20413E-21         0.82016E-22         0.00000E+00
    0.20653E-21         0.56086E-22         0.00000E+00
    0.20069E-21         0.37217E-22         0.00000E+00
    0.20028E-21         0.16226E-22         0.00000E+00
    0.20043E-21         0.84122E-23         0.00000E+00
    0.00000E+00         0.36047E-21         0.00000E+00
    0.13470E-22         0.34082E-21         0.00000E+00
    0.24439E-22         0.32595E-21         0.00000E+00
    0.24652E-22         0.34325E-21         0.00000E+00
    0.47333E-22         0.34227E-21         0.00000E+00
    0.57267E-22         0.33675E-21         0.00000E+00
    0.74090E-22         0.33661E-21         0.00000E+00
    0.91937E-22         0.31420E-21         0.00000E+00
    0.83323E-22         0.29120E-21         0.00000E+00
    0.11147E-21         0.26706E-21         0.00000E+00
    0.11047E-21         0.27019E-21         0.00000E+00
    0.12910E-21         0.29195E-21         0.00000E+00
    0.16092E-21         0.28220E-21         0.00000E+00
    0.16915E-21         0.22859E-21         0.00000E+00
    0.17008E-21         0.17612E-21         0.00000E+00
    0.15911E-21         0.17794E-21         0.00000E+00
    0.15901E-21         0.17864E-21         0.00000E+00
    0.15257E-21         0.14610E-21         0.00000E+00
    0.15236E-21         0.11396E-21         0.00000E+00
    0.17199E-21         0.93453E-22         0.00000E+00
    0.18367E-21         0.78250E-22         0.00000E+00
    0.17474E-21         0.61990E-22         0.00000E+00
    0.17304E-21         0.40375E-22         0.00000E+00
    0.17290E-21         0.18953E-22         0.00000E+00
    0.17259E-21         0.10135E-22         0.00000E+00
    0.00000E+00         0.34098E-21         0.00000E+00
    0.24396E-22         0.33098E-21         0.00000E+00
    0.33942E-22         0.31984E-21         0.00000E+00
    0.28910E-22         0.32502E-21         0.00000E+00
    0.46452E-22         0.33117E-21         0.00000E+00
    0.52435E-22         0.32667E-21         0.00000E+00
    0.71964E-22         0.31938E-21         0.00000E+00
    0.82642E-22         0.31211E-21         0.00000E+00
    0.90486E-22         0.27111E-21         0.00000E+00
    0.92647E-22         0.25558E-21         0.00000E+00
    0.93777E-22         0.27265E-21         0.00000E+00
    0.11645E-21         0.26622E-21         0.00000E+00
    0.13804E-21         0.25538E-21         0.00000E+00
    0.15548E-21         0.22282E-21         0.00000E+00
    0.14594E-21         0.19473E-21         0.00000E+00
    0.13884E-21         0.17737E-21         0.00000E+00
    0.14799E-21         0.16229E-21         0.00000E+00
    0.15162E-21         0.15153E-21         0.00000E+00
    0.15261E-21         0.12125E-21         0.00000E+00
    0.14973E-21         0.89426E-22         0.00000E+00
    0.15286E-21         0.79259E-22         0.00000E+00
    0.14871E-21         0.66716E-22         0.00000E+00
    0.14814E-21         0.39058E-22         0.00000E+00
    0.14781E-21         0.16682E-22         0.00000E+00
    0.14874E-21         0.90432E-23         0.00000E+00
    0.00000E+00         0.31168E-21         0.00000E+00
    0.17784E-22         0.30688E-21         0.00000E+00
    0.23162E-22         0.32144E-21         0.00000E+00
    0.18671E-22         0.33074E-21         0.00000E+00
    0.27210E-22         0.31874E-21         0.00000E+00
    0.44223E-22         0.31124E-21         0.00000E+00
    0.56444E-22         0.30640E-21         0.00000E+00
    0.62548E-22         0.29568E-21         0.00000E+00
    0.76985E-22         0.28119E-21         0.00000E+00
    0.55825E-22         0.26377E-21         0.00000E+00
    0.69146E-22         0.24639E-21         0.00000E+00
    0.96965E-22         0.24768E-21         0.00000E+00
    0.11360E-21         0.24317E-21         0.00000E+00
    0.11902E-21         0.22070E-21         0.00000E+00
    0.10649E-21         0.19276E-21         0.00000E+00
    0.11725E-21         0.17588E-21         0.00000E+00
    0.11345E-21         0.16585E-21         0.00000E+00
    0.11980E-21         0.14149E-21         0.00000E+00
    0.12983E-21         0.11585E-21         0.00000E+00
    0.13373E-21         0.93197E-22         0.00000E+00
    0.13095E-21         0.79275E-22         0.00000E+00
    0.13300E-21         0.66716E-22         0.00000E+00
    0.13292E-21         0.41275E-22         0.00000E+00
    0.12861E-21         0.18355E-22         0.00000E+00
    0.12776E-21         0.82785E-23         0.00000E+00
    0.00000E+00         0.30541E-21         0.00000E+00
    0.28575E-23         0.30782E-21         0.00000E+00
    0.11445E-23         0.31896E-21         0.00000E+00
    0.77012E-23         0.32097E-21         0.00000E+00
    0.72943E-23         0.30561E-21         0.00000E+00
    0.22773E-22         0.29744E-21         0.00000E+00
    0.36425E-22         0.30105E-21         0.00000E+00
    0.42227E-22         0.29157E-21         0.00000E+00
    0.48538E-22         0.27783E-21         0.00000E+00
    0.58268E-22         0.26342E-21         0.00000E+00
    0.57407E-22         0.23151E-21         0.00000E+00
    0.64986E-22         0.22176E-21         0.00000E+00
    0.80471E-22         0.23332E-21         0.00000E+00
    0.86292E-22         0.22993E-21         0.00000E+00
    0.80723E-22         0.19651E-21         0.00000E+00
    0.82096E-22         0.17042E-21         0.00000E+00
    0.84299E-22         0.15974E-21         0.00000E+00
    0.90666E-22         0.13516E-21         0.00000E+00
    0.98774E-22         0.10732E-21         0.00000E+00
    0.10854E-21         0.88307E-22         0.00000E+00
    0.10592E-21         0.79995E-22         0.00000E+00
    0.11071E-21         0.64744E-22         0.00000E+00
    0.11003E-21         0.43444E-22         0.00000E+00
    0.10778E-21         0.21843E-22         0.00000E+00
    0.10673E-21         0.10749E-22         0.00000E+00
    0.00000E+00         0.30596E-21         0.00000E+00
    0.92860E-23         0.30573E-21         0.00000E+00
    0.12415E-23         0.31660E-21         0.00000E+00
    0.10850E-23         0.32459E-21         0.00000E+00
    0.13116E-22         0.30367E-21         0.00000E+00
    0.19361E-22         0.28211E-21         0.00000E+00
    0.21143E-22         0.28695E-21         0.00000E+00
    0.29282E-22         0.28357E-21         0.00000E+00
    0.30958E-22         0.26515E-21         0.00000E+00
    0.42626E-22         0.25490E-21         0.00000E+00
    0.52146E-22         0.23967E-21         0.00000E+00
    0.49573E-22         0.22462E-21         0.00000E+00
    0.51359E-22         0.22186E-21         0.00000E+00
    0.52969E-22         0.22045E-21         0.00000E+00
    0.64345E-22         0.19696E-21         0.00000E+00
    0.58962E-22         0.17230E-21         0.00000E+00
    0.66169E-22         0.15728E-21         0.00000E+00
    0.72652E-22         0.12701E-21         0.00000E+00
    0.76074E-22         0.97981E-22         0.00000E+00
    0.75172E-22         0.86047E-22         0.00000E+00
    0.76444E-22         0.77107E-22         0.00000E+00
    0.79192E-22         0.62612E-22         0.00000E+00
    0.81536E-22         0.44199E-22         0.00000E+00
    0.84158E-22         0.21654E-22         0.00000E+00
    0.84757E-22         0.10384E-22         0.00000E+00
    0.00000E+00         0.28684E-21         0.00000E+00
    0.12558E-22         0.30658E-21         0.00000E+00
    0.11361E-22         0.32716E-21         0.00000E+00
    0.44945E-23         0.30910E-21         0.00000E+00
    0.12803E-22         0.28734E-21         0.00000E+00
    0.17529E-22         0.28941E-21         0.00000E+00
    0.11021E-22         0.29113E-21         0.00000E+00
    0.16111E-22         0.28175E-21         0.00000E+00
    0.17047E-22         0.26449E-21         0.00000E+00
    0.28565E-22         0.24223E-21         0.00000E+00
    0.48409E-22         0.22457E-21         0.00000E+00
    0.48356E-22         0.22255E-21         0.00000E+00
    0.37838E-22         0.22993E-21         0.00000E+00
    0.33291E-22         0.21695E-21         0.00000E+00
    0.41852E-22         0.19051E-21         0.00000E+00
    0.45251E-22         0.16859E-21         0.00000E+00
    0.53541E-22         0.14605E-21         0.00000E+00
    0.58222E-22         0.12525E-21         0.00000E+00
    0.56548E-22         0.10480E-21         0.00000E+00
    0.51263E-22         0.87937E-22         0.00000E+00
    0.53089E-22         0.75976E-22         0.00000E+00
    0.55078E-22         0.59653E-22         0.00000E+00
    0.59646E-22         0.38478E-22         0.00000E+00
    0.62091E-22         0.18622E-22         0.00000E+00
    0.62415E-22         0.95506E-23         0.00000E+00
    0.00000E+00         0.28085E-21         0.00000E+00
   -0.69261E-23         0.29437E-21         0.00000E+00
    0.11311E-22         0.32466E-21         0.00000E+00
    0.16543E-22         0.32314E-21         0.00000E+00
    0.18753E-23         0.29063E-21         0.00000E+00
    0.88750E-24         0.28389E-21         0.00000E+00
    0.71135E-23         0.28837E-21         0.00000E+00
    0.79532E-23         0.27754E-21         0.00000E+00
    0.99036E-23         0.25270E-21         0.00000E+00
    0.27658E-22         0.22354E-21         0.00000E+00
    0.39430E-22         0.21988E-21         0.00000E+00
    0.29640E-22         0.23519E-21         0.00000E+00
    0.27395E-22         0.23693E-21         0.00000E+00
    0.26918E-22         0.21643E-21         0.00000E+00
    0.22163E-22         0.18500E-21         0.00000E+00
    0.26106E-22         0.16062E-21         0.00000E+00
    0.30246E-22         0.14431E-21         0.00000E+00
    0.35869E-22         0.12401E-21         0.00000E+00
    0.38380E-22         0.10494E-21         0.00000E+00
    0.35359E-22         0.89507E-22         0.00000E+00
    0.34693E-22         0.73292E-22         0.00000E+00
    0.38291E-22         0.56055E-22         0.00000E+00
    0.40299E-22         0.37186E-22         0.00000E+00
    0.40223E-22         0.18886E-22         0.00000E+00
    0.40211E-22         0.97381E-23         0.00000E+00
    0.00000E+00         0.30069E-21         0.00000E+00
   -0.11022E-22         0.29526E-21         0.00000E+00
   -0.25512E-23         0.30369E-21         0.00000E+00
    0.24061E-22         0.31853E-21         0.00000E+00
    0.13725E-22         0.30299E-21         0.00000E+00
    0.10399E-23         0.28417E-21         0.00000E+00
    0.93824E-23         0.28406E-21         0.00000E+00
    0.75085E-23         0.27896E-21         0.00000E+00
    0.91068E-23         0.24479E-21         0.00000E+00
    0.17679E-22         0.21271E-21         0.00000E+00
    0.10604E-22         0.22258E-21         0.00000E+00
    0.73494E-23         0.23458E-21         0.00000E+00
    0.20274E-22         0.23265E-21         0.00000E+00
    0.18493E-22         0.22218E-21         0.00000E+00
    0.12672E-22         0.19133E-21         0.00000E+00
    0.84142E-23         0.16051E-21         0.00000E+00
    0.10408E-22         0.13628E-21         0.00000E+00
    0.17146E-22         0.11712E-21         0.00000E+00
    0.18226E-22         0.10531E-21         0.00000E+00
    0.17728E-22         0.91623E-22         0.00000E+00
    0.16444E-22         0.73043E-22         0.00000E+00
    0.18440E-22         0.54047E-22         0.00000E+00
    0.19338E-22         0.36546E-22         0.00000E+00
    0.19468E-22         0.18710E-22         0.00000E+00
    0.19771E-22         0.95755E-23         0.00000E+00
    0.00000E+00         0.30289E-21         0.00000E+00
   -0.22017E-23         0.29692E-21         0.00000E+00
   -0.33197E-23         0.28958E-21         0.00000E+00
    0.26026E-22         0.30687E-21         0.00000E+00
    0.20012E-22         0.31366E-21         0.00000E+00
    0.47005E-23         0.28823E-21         0.00000E+00
    0.11890E-22         0.28190E-21         0.00000E+00
    0.90305E-23         0.27782E-21         0.00000E+00
    0.14182E-22         0.24252E-21         0.00000E+00
    0.13552E-22         0.22205E-21         0.00000E+00
   -0.44971E-23         0.23021E-21         0.00000E+00
   -0.16979E-23         0.22552E-21         0.00000E+00
    0.13629E-22         0.22578E-21         0.00000E+00
    0.12043E-22         0.22403E-21         0.00000E+00
    0.99180E-23         0.19508E-21         0.00000E+00
    0.45449E-23         0.16288E-21         0.00000E+00
    0.51823E-23         0.13558E-21         0.00000E+00
    0.59469E-23         0.11619E-21         0.00000E+00
    0.70393E-23         0.10436E-21         0.00000E+00
    0.78464E-23         0.91289E-22         0.00000E+00
    0.77081E-23         0.72579E-22         0.00000E+00
    0.87746E-23         0.53161E-22         0.00000E+00
    0.94810E-23         0.36159E-22         0.00000E+00
    0.95501E-23         0.18453E-22         0.00000E+00
    0.99952E-23         0.91304E-23         0.00000E+00
CELL_DATA       1152
TENSORS stressef double 
   -0.69268E+05         0.61812E+03         0.00000E+00
    0.61812E+03        -0.99344E+05         0.00000E+00
    0.00000E+00         0.00000E+00        -0.50584E+05
 
   -0.36011E+05         0.35672E+04         0.00000E+00
    0.35672E+04        -0.95065E+05         0.00000E+00
    0.00000E+00         0.00000E+00        -0.39323E+05
 
   -0.16312E+05         0.53464E+04         0.00000E+00
    0.53464E+04        -0.85331E+05         0.00000E+00
    0.00000E+00         0.00000E+00        -0.30493E+05
 
   -0.65784E+04         0.51471E+04         0.00000E+00
    0.51471E+04        -0.74779E+05         0.00000E+00
    0.00000E+00         0.00000E+00        -0.24407E+05
 
   -0.17946E+04         0.43655E+04         0.00000E+00
    0.43655E+04        -0.65457E+05         0.00000E+00
    0.00000E+00         0.00000E+00        -0.20176E+05
 
    0.59132E+03         0.35678E+04         0.00000E+00
    0.35678E+04        -0.57722E+05         0.00000E+00
    0.00000E+00         0.00000E+00        -0.17139E+05
 
    0.17586E+04         0.28931E+04         0.00000E+00
    0.28931E+04        -0.51418E+05         0.00000E+00
    0.00000E+00         0.00000E+00        -0.14898E+05
 
    0.22749E+04         0.23539E+04         0.00000E+00
    0.23539E+04        -0.46287E+05         0.00000E+00
    0.00000E+00         0.00000E+00        -0.13204E+05
 
    0.24247E+04         0.19294E+04         0.00000E+00
    0.19294E+04        -0.42086E+05         0.00000E+00
    0.00000E+00         0.00000E+00        -0.11899E+05
 
    0.23569E+04         0.15951E+04         0.00000E+00
    0.15951E+04        -0.38622E+05         0.00000E+00
    0.00000E+00         0.00000E+00        -0.10879E+05
 
    0.21519E+04         0.13299E+04         0.00000E+00
    0.13299E+04        -0.35741E+05         0.00000E+00
    0.00000E+00         0.00000E+00        -0.10077E+05
 
    0.18536E+04         0.11176E+04         0.00000E+00
    0.11176E+04        -0.33326E+05         0.00000E+00
    0.00000E+00         0.00000E+00        -0.94416E+04
 
    0.14857E+04         0.94618E+03         0.00000E+00
    0.94618E+03        -0.31286E+05         0.00000E+00
    0.00000E+00         0.00000E+00        -0.89401E+04
 
    0.10595E+04         0.80664E+03         0.00000E+00
    0.80664E+03        -0.29552E+05         0.00000E+00
    0.00000E+00         0.00000E+00        -0.85476E+04
 
    0.57902E+03         0.69240E+03         0.00000E+00
    0.69240E+03        -0.28067E+05         0.00000E+00
    0.00000E+00         0.00000E+00        -0.82463E+04
 
    0.42690E+02         0.59865E+03         0.00000E+00
    0.59865E+03        -0.26787E+05         0.00000E+00
    0.00000E+00         0.00000E+00        -0.80232E+04
 
   -0.55501E+03         0.52194E+03         0.00000E+00
    0.52194E+03        -0.25675E+05         0.00000E+00
    0.00000E+00         0.00000E+00        -0.78690E+04
 
   -0.12232E+04         0.45980E+03         0.00000E+00
    0.45980E+03        -0.24700E+05         0.00000E+00
    0.00000E+00         0.00000E+00        -0.77770E+04
 
   -0.19745E+04         0.41065E+03         0.00000E+00
    0.41065E+03        -0.23836E+05         0.00000E+00
    0.00000E+00         0.00000E+00        -0.77430E+04
 
   -0.28255E+04         0.37360E+03         0.00000E+00
    0.37360E+03        -0.23056E+05         0.00000E+00
    0.00000E+00         0.00000E+00        -0.77645E+04
 
   -0.37968E+04         0.34843E+03         0.00000E+00
    0.34843E+03        -0.22338E+05         0.00000E+00
    0.00000E+00         0.00000E+00        -0.78406E+04
 
   -0.49148E+04         0.33562E+03         0.00000E+00
    0.33562E+03        -0.21658E+05         0.00000E+00
    0.00000E+00         0.00000E+00        -0.79719E+04
 
   -0.62125E+04         0.33637E+03         0.00000E+00
    0.33637E+03        -0.20990E+05         0.00000E+00
    0.00000E+00         0.00000E+00        -0.81608E+04
 
   -0.77313E+04         0.35280E+03         0.00000E+00
    0.35280E+03        -0.20305E+05         0.00000E+00
    0.00000E+00         0.00000E+00        -0.84109E+04
 
   -0.64581E+05         0.30733E+04         0.00000E+00
    0.30733E+04        -0.99316E+05         0.00000E+00
    0.00000E+00         0.00000E+00        -0.49169E+05
 
   -0.30576E+05         0.13481E+05         0.00000E+00
    0.13481E+05        -0.87764E+05         0.00000E+00
    0.00000E+00         0.00000E+00        -0.35502E+05
 
   -0.15864E+05         0.15997E+05         0.00000E+00
    0.15997E+05        -0.76817E+05         0.00000E+00
    0.00000E+00         0.00000E+00        -0.27804E+05
 
   -0.79189E+04         0.14598E+05         0.00000E+00
    0.14598E+05        -0.67775E+05         0.00000E+00
    0.00000E+00         0.00000E+00        -0.22708E+05
 
   -0.33863E+04         0.12296E+05         0.00000E+00
    0.12296E+05        -0.60185E+05         0.00000E+00
    0.00000E+00         0.00000E+00        -0.19071E+05
 
   -0.82163E+03         0.10092E+05         0.00000E+00
    0.10092E+05        -0.53839E+05         0.00000E+00
    0.00000E+00         0.00000E+00        -0.16398E+05
 
    0.60624E+03         0.82403E+04         0.00000E+00
    0.82403E+04        -0.48548E+05         0.00000E+00
    0.00000E+00         0.00000E+00        -0.14383E+05
 
    0.13593E+04         0.67507E+04         0.00000E+00
    0.67507E+04        -0.44137E+05         0.00000E+00
    0.00000E+00         0.00000E+00        -0.12833E+05
 
    0.17006E+04         0.55668E+04         0.00000E+00
    0.55668E+04        -0.40449E+05         0.00000E+00
    0.00000E+00         0.00000E+00        -0.11625E+05
 
    0.17820E+04         0.46256E+04         0.00000E+00
    0.46256E+04        -0.37352E+05         0.00000E+00
    0.00000E+00         0.00000E+00        -0.10671E+05
 
    0.16919E+04         0.38730E+04         0.00000E+00
    0.38730E+04        -0.34739E+05         0.00000E+00
    0.00000E+00         0.00000E+00        -0.99140E+04
 
    0.14824E+04         0.32663E+04         0.00000E+00
    0.32663E+04        -0.32521E+05         0.00000E+00
    0.00000E+00         0.00000E+00        -0.93115E+04
 
    0.11837E+04         0.27735E+04         0.00000E+00
    0.27735E+04        -0.30629E+05         0.00000E+00
    0.00000E+00         0.00000E+00        -0.88336E+04
 
    0.81227E+03         0.23704E+04         0.00000E+00
    0.23704E+04        -0.29007E+05         0.00000E+00
    0.00000E+00         0.00000E+00        -0.84583E+04
 
    0.37585E+03         0.20391E+04         0.00000E+00
    0.20391E+04        -0.27607E+05         0.00000E+00
    0.00000E+00         0.00000E+00        -0.81695E+04
 
   -0.12420E+03         0.17664E+04         0.00000E+00
    0.17664E+04        -0.26394E+05         0.00000E+00
    0.00000E+00         0.00000E+00        -0.79554E+04
 
   -0.69121E+03         0.15426E+04         0.00000E+00
    0.15426E+04        -0.25334E+05         0.00000E+00
    0.00000E+00         0.00000E+00        -0.78075E+04
 
   -0.13325E+04         0.13611E+04         0.00000E+00
    0.13611E+04        -0.24400E+05         0.00000E+00
    0.00000E+00         0.00000E+00        -0.77198E+04
 
   -0.20594E+04         0.12173E+04         0.00000E+00
    0.12173E+04        -0.23568E+05         0.00000E+00
    0.00000E+00         0.00000E+00        -0.76882E+04
 
   -0.28868E+04         0.11089E+04         0.00000E+00
    0.11089E+04        -0.22815E+05         0.00000E+00
    0.00000E+00         0.00000E+00        -0.77105E+04
 
   -0.38343E+04         0.10354E+04         0.00000E+00
    0.10354E+04        -0.22118E+05         0.00000E+00
    0.00000E+00         0.00000E+00        -0.77858E+04
 
   -0.49269E+04         0.99828E+03         0.00000E+00
    0.99828E+03        -0.21457E+05         0.00000E+00
    0.00000E+00         0.00000E+00        -0.79150E+04
 
   -0.61959E+04         0.10012E+04         0.00000E+00
    0.10012E+04        -0.20805E+05         0.00000E+00
    0.00000E+00         0.00000E+00        -0.81002E+04
 
   -0.76807E+04         0.10503E+04         0.00000E+00
    0.10503E+04        -0.20135E+05         0.00000E+00
    0.00000E+00         0.00000E+00        -0.83448E+04
 
   -0.48122E+05         0.17594E+05         0.00000E+00
    0.17594E+05        -0.74889E+05         0.00000E+00
    0.00000E+00         0.00000E+00        -0.36903E+05
 
   -0.26322E+05         0.25407E+05         0.00000E+00
    0.25407E+05        -0.65491E+05         0.00000E+00
    0.00000E+00         0.00000E+00        -0.27544E+05
 
   -0.17169E+05         0.24191E+05         0.00000E+00
    0.24191E+05        -0.59592E+05         0.00000E+00
    0.00000E+00         0.00000E+00        -0.23028E+05
 
   -0.10622E+05         0.21198E+05         0.00000E+00
    0.21198E+05        -0.54922E+05         0.00000E+00
    0.00000E+00         0.00000E+00        -0.19663E+05
 
   -0.61871E+04         0.17918E+05         0.00000E+00
    0.17918E+05        -0.50728E+05         0.00000E+00
    0.00000E+00         0.00000E+00        -0.17074E+05
 
   -0.32687E+04         0.14922E+05         0.00000E+00
    0.14922E+05        -0.46857E+05         0.00000E+00
    0.00000E+00         0.00000E+00        -0.15038E+05
 
   -0.14113E+04         0.12380E+05         0.00000E+00
    0.12380E+05        -0.43337E+05         0.00000E+00
    0.00000E+00         0.00000E+00        -0.13424E+05
 
   -0.26890E+03         0.10288E+05         0.00000E+00
    0.10288E+05        -0.40189E+05         0.00000E+00
    0.00000E+00         0.00000E+00        -0.12137E+05
 
    0.39331E+03         0.85882E+04         0.00000E+00
    0.85882E+04        -0.37409E+05         0.00000E+00
    0.00000E+00         0.00000E+00        -0.11105E+05
 
    0.72979E+03         0.72088E+04         0.00000E+00
    0.72088E+04        -0.34972E+05         0.00000E+00
    0.00000E+00         0.00000E+00        -0.10273E+05
 
    0.84026E+03         0.60866E+04         0.00000E+00
    0.60866E+04        -0.32844E+05         0.00000E+00
    0.00000E+00         0.00000E+00        -0.96011E+04
 
    0.78849E+03         0.51691E+04         0.00000E+00
    0.51691E+04        -0.30989E+05         0.00000E+00
    0.00000E+00         0.00000E+00        -0.90600E+04
 
    0.61470E+03         0.44149E+04         0.00000E+00
    0.44149E+04        -0.29370E+05         0.00000E+00
    0.00000E+00         0.00000E+00        -0.86267E+04
 
    0.34344E+03         0.37919E+04         0.00000E+00
    0.37919E+04        -0.27957E+05         0.00000E+00
    0.00000E+00         0.00000E+00        -0.82840E+04
 
   -0.11429E+02         0.32759E+04         0.00000E+00
    0.32759E+04        -0.26719E+05         0.00000E+00
    0.00000E+00         0.00000E+00        -0.80191E+04
 
   -0.44366E+03         0.28484E+04         0.00000E+00
    0.28484E+04        -0.25631E+05         0.00000E+00
    0.00000E+00         0.00000E+00        -0.78224E+04
 
   -0.95275E+03         0.24959E+04         0.00000E+00
    0.24959E+04        -0.24670E+05         0.00000E+00
    0.00000E+00         0.00000E+00        -0.76868E+04
 
   -0.15430E+04         0.22089E+04         0.00000E+00
    0.22089E+04        -0.23814E+05         0.00000E+00
    0.00000E+00         0.00000E+00        -0.76071E+04
 
   -0.22228E+04         0.19811E+04         0.00000E+00
    0.19811E+04        -0.23044E+05         0.00000E+00
    0.00000E+00         0.00000E+00        -0.75801E+04
 
   -0.30048E+04         0.18094E+04         0.00000E+00
    0.18094E+04        -0.22341E+05         0.00000E+00
    0.00000E+00         0.00000E+00        -0.76039E+04
 
   -0.39062E+04         0.16934E+04         0.00000E+00
    0.16934E+04        -0.21687E+05         0.00000E+00
    0.00000E+00         0.00000E+00        -0.76779E+04
 
   -0.49492E+04         0.16357E+04         0.00000E+00
    0.16357E+04        -0.21060E+05         0.00000E+00
    0.00000E+00         0.00000E+00        -0.78028E+04
 
   -0.61621E+04         0.16424E+04         0.00000E+00
    0.16424E+04        -0.20440E+05         0.00000E+00
    0.00000E+00         0.00000E+00        -0.79807E+04
 
   -0.75807E+04         0.17238E+04         0.00000E+00
    0.17238E+04        -0.19802E+05         0.00000E+00
    0.00000E+00         0.00000E+00        -0.82148E+04
 
   -0.22457E+05         0.17640E+05         0.00000E+00
    0.17640E+05        -0.25090E+05         0.00000E+00
    0.00000E+00         0.00000E+00        -0.14264E+05
 
   -0.25864E+05         0.25944E+05         0.00000E+00
    0.25944E+05        -0.33925E+05         0.00000E+00
    0.00000E+00         0.00000E+00        -0.17937E+05
 
   -0.19351E+05         0.25462E+05         0.00000E+00
    0.25462E+05        -0.37966E+05         0.00000E+00
    0.00000E+00         0.00000E+00        -0.17195E+05
 
   -0.13710E+05         0.23127E+05         0.00000E+00
    0.23127E+05        -0.39342E+05         0.00000E+00
    0.00000E+00         0.00000E+00        -0.15916E+05
 
   -0.92865E+04         0.20259E+05         0.00000E+00
    0.20259E+05        -0.39182E+05         0.00000E+00
    0.00000E+00         0.00000E+00        -0.14540E+05
 
   -0.60619E+04         0.17422E+05         0.00000E+00
    0.17422E+05        -0.38161E+05         0.00000E+00
    0.00000E+00         0.00000E+00        -0.13267E+05
 
   -0.38002E+04         0.14850E+05         0.00000E+00
    0.14850E+05        -0.36697E+05         0.00000E+00
    0.00000E+00         0.00000E+00        -0.12149E+05
 
   -0.22636E+04         0.12620E+05         0.00000E+00
    0.12620E+05        -0.35050E+05         0.00000E+00
    0.00000E+00         0.00000E+00        -0.11194E+05
 
   -0.12555E+04         0.10729E+05         0.00000E+00
    0.10729E+05        -0.33376E+05         0.00000E+00
    0.00000E+00         0.00000E+00        -0.10389E+05
 
   -0.62967E+03         0.91414E+04         0.00000E+00
    0.91414E+04        -0.31762E+05         0.00000E+00
    0.00000E+00         0.00000E+00        -0.97175E+04
 
   -0.28216E+03         0.78138E+04         0.00000E+00
    0.78138E+04        -0.30253E+05         0.00000E+00
    0.00000E+00         0.00000E+00        -0.91606E+04
 
   -0.14109E+03         0.67039E+04         0.00000E+00
    0.67039E+04        -0.28868E+05         0.00000E+00
    0.00000E+00         0.00000E+00        -0.87028E+04
 
   -0.15778E+03         0.57748E+04         0.00000E+00
    0.57748E+04        -0.27611E+05         0.00000E+00
    0.00000E+00         0.00000E+00        -0.83307E+04
 
   -0.30007E+03         0.49961E+04         0.00000E+00
    0.49961E+04        -0.26477E+05         0.00000E+00
    0.00000E+00         0.00000E+00        -0.80331E+04
 
   -0.54769E+03         0.43432E+04         0.00000E+00
    0.43432E+04        -0.25458E+05         0.00000E+00
    0.00000E+00         0.00000E+00        -0.78016E+04
 
   -0.88909E+03         0.37973E+04         0.00000E+00
    0.37973E+04        -0.24541E+05         0.00000E+00
    0.00000E+00         0.00000E+00        -0.76291E+04
 
   -0.13193E+04         0.33438E+04         0.00000E+00
    0.33438E+04        -0.23716E+05         0.00000E+00
    0.00000E+00         0.00000E+00        -0.75106E+04
 
   -0.18389E+04         0.29727E+04         0.00000E+00
    0.29727E+04        -0.22969E+05         0.00000E+00
    0.00000E+00         0.00000E+00        -0.74423E+04
 
   -0.24529E+04         0.26773E+04         0.00000E+00
    0.26773E+04        -0.22286E+05         0.00000E+00
    0.00000E+00         0.00000E+00        -0.74217E+04
 
   -0.31707E+04         0.24546E+04         0.00000E+00
    0.24546E+04        -0.21654E+05         0.00000E+00
    0.00000E+00         0.00000E+00        -0.74475E+04
 
   -0.40062E+04         0.23049E+04         0.00000E+00
    0.23049E+04        -0.21058E+05         0.00000E+00
    0.00000E+00         0.00000E+00        -0.75194E+04
 
   -0.49781E+04         0.22325E+04         0.00000E+00
    0.22325E+04        -0.20482E+05         0.00000E+00
    0.00000E+00         0.00000E+00        -0.76381E+04
 
   -0.61103E+04         0.22459E+04         0.00000E+00
    0.22459E+04        -0.19908E+05         0.00000E+00
    0.00000E+00         0.00000E+00        -0.78055E+04
 
   -0.74335E+04         0.23587E+04         0.00000E+00
    0.23587E+04        -0.19314E+05         0.00000E+00
    0.00000E+00         0.00000E+00        -0.80243E+04
 
   -0.54729E+04         0.32381E+04         0.00000E+00
    0.32381E+04        -0.64123E+03         0.00000E+00
    0.00000E+00         0.00000E+00        -0.18342E+04
 
   -0.20250E+05         0.15274E+05         0.00000E+00
    0.15274E+05        -0.11420E+05         0.00000E+00
    0.00000E+00         0.00000E+00        -0.95010E+04
 
   -0.19185E+05         0.20104E+05         0.00000E+00
    0.20104E+05        -0.19980E+05         0.00000E+00
    0.00000E+00         0.00000E+00        -0.11750E+05
 
   -0.15355E+05         0.20644E+05         0.00000E+00
    0.20644E+05        -0.25158E+05         0.00000E+00
    0.00000E+00         0.00000E+00        -0.12154E+05
 
   -0.11573E+05         0.19462E+05         0.00000E+00
    0.19462E+05        -0.27999E+05         0.00000E+00
    0.00000E+00         0.00000E+00        -0.11872E+05
 
   -0.84367E+04         0.17615E+05         0.00000E+00
    0.17615E+05        -0.29315E+05         0.00000E+00
    0.00000E+00         0.00000E+00        -0.11325E+05
 
   -0.60220E+04         0.15604E+05         0.00000E+00
    0.15604E+05        -0.29664E+05         0.00000E+00
    0.00000E+00         0.00000E+00        -0.10706E+05
 
   -0.42404E+04         0.13665E+05         0.00000E+00
    0.13665E+05        -0.29422E+05         0.00000E+00
    0.00000E+00         0.00000E+00        -0.10099E+05
 
   -0.29697E+04         0.11898E+05         0.00000E+00
    0.11898E+05        -0.28835E+05         0.00000E+00
    0.00000E+00         0.00000E+00        -0.95415E+04
 
   -0.20966E+04         0.10335E+05         0.00000E+00
    0.10335E+05        -0.28064E+05         0.00000E+00
    0.00000E+00         0.00000E+00        -0.90483E+04
 
   -0.15295E+04         0.89743E+04         0.00000E+00
    0.89743E+04        -0.27211E+05         0.00000E+00
    0.00000E+00         0.00000E+00        -0.86221E+04
 
   -0.11988E+04         0.78009E+04         0.00000E+00
    0.78009E+04        -0.26338E+05         0.00000E+00
    0.00000E+00         0.00000E+00        -0.82610E+04
 
   -0.10536E+04         0.67939E+04         0.00000E+00
    0.67939E+04        -0.25482E+05         0.00000E+00
    0.00000E+00         0.00000E+00        -0.79608E+04
 
   -0.10579E+04         0.59329E+04         0.00000E+00
    0.59329E+04        -0.24666E+05         0.00000E+00
    0.00000E+00         0.00000E+00        -0.77171E+04
 
   -0.11870E+04         0.51996E+04         0.00000E+00
    0.51996E+04        -0.23898E+05         0.00000E+00
    0.00000E+00         0.00000E+00        -0.75256E+04
 
   -0.14253E+04         0.45786E+04         0.00000E+00
    0.45786E+04        -0.23183E+05         0.00000E+00
    0.00000E+00         0.00000E+00        -0.73824E+04
 
   -0.17638E+04         0.40579E+04         0.00000E+00
    0.40579E+04        -0.22519E+05         0.00000E+00
    0.00000E+00         0.00000E+00        -0.72847E+04
 
   -0.21994E+04         0.36288E+04         0.00000E+00
    0.36288E+04        -0.21901E+05         0.00000E+00
    0.00000E+00         0.00000E+00        -0.72302E+04
 
   -0.27336E+04         0.32860E+04         0.00000E+00
    0.32860E+04        -0.21324E+05         0.00000E+00
    0.00000E+00         0.00000E+00        -0.72174E+04
 
   -0.33725E+04         0.30277E+04         0.00000E+00
    0.30277E+04        -0.20779E+05         0.00000E+00
    0.00000E+00         0.00000E+00        -0.72455E+04
 
   -0.41261E+04         0.28557E+04         0.00000E+00
    0.28557E+04        -0.20256E+05         0.00000E+00
    0.00000E+00         0.00000E+00        -0.73145E+04
 
   -0.50087E+04         0.27759E+04         0.00000E+00
    0.27759E+04        -0.19742E+05         0.00000E+00
    0.00000E+00         0.00000E+00        -0.74253E+04
 
   -0.60395E+04         0.27991E+04         0.00000E+00
    0.27991E+04        -0.19225E+05         0.00000E+00
    0.00000E+00         0.00000E+00        -0.75793E+04
 
   -0.72424E+04         0.29422E+04         0.00000E+00
    0.29422E+04        -0.18687E+05         0.00000E+00
    0.00000E+00         0.00000E+00        -0.77788E+04
 
    0.48349E+03         0.10065E+04         0.00000E+00
    0.10065E+04        -0.58769E+03         0.00000E+00
    0.00000E+00         0.00000E+00        -0.31258E+02
 
   -0.11757E+05         0.73085E+04         0.00000E+00
    0.73085E+04        -0.33812E+04         0.00000E+00
    0.00000E+00         0.00000E+00        -0.45414E+04
 
   -0.15764E+05         0.13257E+05         0.00000E+00
    0.13257E+05        -0.94797E+04         0.00000E+00
    0.00000E+00         0.00000E+00        -0.75730E+04
 
   -0.14785E+05         0.16060E+05         0.00000E+00
    0.16060E+05        -0.14942E+05         0.00000E+00
    0.00000E+00         0.00000E+00        -0.89181E+04
 
   -0.12401E+05         0.16680E+05         0.00000E+00
    0.16680E+05        -0.18915E+05         0.00000E+00
    0.00000E+00         0.00000E+00        -0.93948E+04
 
   -0.98842E+04         0.16111E+05         0.00000E+00
    0.16111E+05        -0.21533E+05         0.00000E+00
    0.00000E+00         0.00000E+00        -0.94250E+04
 
   -0.76752E+04         0.14962E+05         0.00000E+00
    0.14962E+05        -0.23107E+05         0.00000E+00
    0.00000E+00         0.00000E+00        -0.92346E+04
 
   -0.58872E+04         0.13584E+05         0.00000E+00
    0.13584E+05        -0.23933E+05         0.00000E+00
    0.00000E+00         0.00000E+00        -0.89461E+04
 
   -0.45086E+04         0.12167E+05         0.00000E+00
    0.12167E+05        -0.24245E+05         0.00000E+00
    0.00000E+00         0.00000E+00        -0.86261E+04
 
   -0.34866E+04         0.10813E+05         0.00000E+00
    0.10813E+05        -0.24215E+05         0.00000E+00
    0.00000E+00         0.00000E+00        -0.83105E+04
 
   -0.27606E+04         0.95666E+04         0.00000E+00
    0.95666E+04        -0.23966E+05         0.00000E+00
    0.00000E+00         0.00000E+00        -0.80180E+04
 
   -0.22764E+04         0.84456E+04         0.00000E+00
    0.84456E+04        -0.23584E+05         0.00000E+00
    0.00000E+00         0.00000E+00        -0.77581E+04
 
   -0.19894E+04         0.74521E+04         0.00000E+00
    0.74521E+04        -0.23126E+05         0.00000E+00
    0.00000E+00         0.00000E+00        -0.75347E+04
 
   -0.18654E+04         0.65809E+04         0.00000E+00
    0.65809E+04        -0.22632E+05         0.00000E+00
    0.00000E+00         0.00000E+00        -0.73492E+04
 
   -0.18791E+04         0.58239E+04         0.00000E+00
    0.58239E+04        -0.22126E+05         0.00000E+00
    0.00000E+00         0.00000E+00        -0.72014E+04
 
   -0.20128E+04         0.51728E+04         0.00000E+00
    0.51728E+04        -0.21623E+05         0.00000E+00
    0.00000E+00         0.00000E+00        -0.70906E+04
 
   -0.22551E+04         0.46204E+04         0.00000E+00
    0.46204E+04        -0.21131E+05         0.00000E+00
    0.00000E+00         0.00000E+00        -0.70160E+04
 
   -0.26002E+04         0.41615E+04         0.00000E+00
    0.41615E+04        -0.20656E+05         0.00000E+00
    0.00000E+00         0.00000E+00        -0.69767E+04
 
   -0.30464E+04         0.37935E+04         0.00000E+00
    0.37935E+04        -0.20195E+05         0.00000E+00
    0.00000E+00         0.00000E+00        -0.69724E+04
 
   -0.35962E+04         0.35166E+04         0.00000E+00
    0.35166E+04        -0.19746E+05         0.00000E+00
    0.00000E+00         0.00000E+00        -0.70028E+04
 
   -0.42560E+04         0.33346E+04         0.00000E+00
    0.33346E+04        -0.19305E+05         0.00000E+00
    0.00000E+00         0.00000E+00        -0.70683E+04
 
   -0.50356E+04         0.32555E+04         0.00000E+00
    0.32555E+04        -0.18863E+05         0.00000E+00
    0.00000E+00         0.00000E+00        -0.71695E+04
 
   -0.59484E+04         0.32921E+04         0.00000E+00
    0.32921E+04        -0.18411E+05         0.00000E+00
    0.00000E+00         0.00000E+00        -0.73079E+04
 
   -0.70118E+04         0.34638E+04         0.00000E+00
    0.34638E+04        -0.17938E+05         0.00000E+00
    0.00000E+00         0.00000E+00        -0.74850E+04
 
    0.32281E+04         0.38100E+03         0.00000E+00
    0.38100E+03        -0.78819E+02         0.00000E+00
    0.00000E+00         0.00000E+00         0.94478E+03
 
   -0.63738E+04         0.38495E+04         0.00000E+00
    0.38495E+04        -0.14772E+04         0.00000E+00
    0.00000E+00         0.00000E+00        -0.23553E+04
 
   -0.11415E+05         0.82619E+04         0.00000E+00
    0.82619E+04        -0.46528E+04         0.00000E+00
    0.00000E+00         0.00000E+00        -0.48203E+04
 
   -0.12696E+05         0.11567E+05         0.00000E+00
    0.11567E+05        -0.87216E+04         0.00000E+00
    0.00000E+00         0.00000E+00        -0.64252E+04
 
   -0.11889E+05         0.13263E+05         0.00000E+00
    0.13263E+05        -0.12441E+05         0.00000E+00
    0.00000E+00         0.00000E+00        -0.72991E+04
 
   -0.10311E+05         0.13734E+05         0.00000E+00
    0.13734E+05        -0.15390E+05         0.00000E+00
    0.00000E+00         0.00000E+00        -0.77103E+04
 
   -0.85983E+04         0.13429E+05         0.00000E+00
    0.13429E+05        -0.17543E+05         0.00000E+00
    0.00000E+00         0.00000E+00        -0.78425E+04
 
   -0.70324E+04         0.12684E+05         0.00000E+00
    0.12684E+05        -0.19016E+05         0.00000E+00
    0.00000E+00         0.00000E+00        -0.78145E+04
 
   -0.57149E+04         0.11723E+05         0.00000E+00
    0.11723E+05        -0.19953E+05         0.00000E+00
    0.00000E+00         0.00000E+00        -0.77004E+04
 
   -0.46640E+04         0.10685E+05         0.00000E+00
    0.10685E+05        -0.20490E+05         0.00000E+00
    0.00000E+00         0.00000E+00        -0.75462E+04
 
   -0.38626E+04         0.96526E+04         0.00000E+00
    0.96526E+04        -0.20736E+05         0.00000E+00
    0.00000E+00         0.00000E+00        -0.73796E+04
 
   -0.32815E+04         0.86711E+04         0.00000E+00
    0.86711E+04        -0.20777E+05         0.00000E+00
    0.00000E+00         0.00000E+00        -0.72177E+04
 
   -0.28904E+04         0.77649E+04         0.00000E+00
    0.77649E+04        -0.20677E+05         0.00000E+00
    0.00000E+00         0.00000E+00        -0.70703E+04
 
   -0.26624E+04         0.69449E+04         0.00000E+00
    0.69449E+04        -0.20482E+05         0.00000E+00
    0.00000E+00         0.00000E+00        -0.69433E+04
 
   -0.25754E+04         0.62150E+04         0.00000E+00
    0.62150E+04        -0.20225E+05         0.00000E+00
    0.00000E+00         0.00000E+00        -0.68402E+04
 
   -0.26126E+04         0.55754E+04         0.00000E+00
    0.55754E+04        -0.19930E+05         0.00000E+00
    0.00000E+00         0.00000E+00        -0.67627E+04
 
   -0.27622E+04         0.50252E+04         0.00000E+00
    0.50252E+04        -0.19611E+05         0.00000E+00
    0.00000E+00         0.00000E+00        -0.67120E+04
 
   -0.30164E+04         0.45640E+04         0.00000E+00
    0.45640E+04        -0.19279E+05         0.00000E+00
    0.00000E+00         0.00000E+00        -0.66885E+04
 
   -0.33715E+04         0.41926E+04         0.00000E+00
    0.41926E+04        -0.18938E+05         0.00000E+00
    0.00000E+00         0.00000E+00        -0.66928E+04
 
   -0.38270E+04         0.39142E+04         0.00000E+00
    0.39142E+04        -0.18590E+05         0.00000E+00
    0.00000E+00         0.00000E+00        -0.67252E+04
 
   -0.43857E+04         0.37347E+04         0.00000E+00
    0.37347E+04        -0.18236E+05         0.00000E+00
    0.00000E+00         0.00000E+00        -0.67864E+04
 
   -0.50528E+04         0.36643E+04         0.00000E+00
    0.36643E+04        -0.17870E+05         0.00000E+00
    0.00000E+00         0.00000E+00        -0.68770E+04
 
   -0.58363E+04         0.37176E+04         0.00000E+00
    0.37176E+04        -0.17490E+05         0.00000E+00
    0.00000E+00         0.00000E+00        -0.69979E+04
 
   -0.67464E+04         0.39159E+04         0.00000E+00
    0.39159E+04        -0.17088E+05         0.00000E+00
    0.00000E+00         0.00000E+00        -0.71503E+04
 
    0.45669E+04         0.14594E+03         0.00000E+00
    0.14594E+03        -0.52071E+02         0.00000E+00
    0.00000E+00         0.00000E+00         0.13545E+04
 
   -0.29309E+04         0.21453E+04         0.00000E+00
    0.21453E+04        -0.70813E+03         0.00000E+00
    0.00000E+00         0.00000E+00        -0.10917E+04
 
   -0.78677E+04         0.52211E+04         0.00000E+00
    0.52211E+04        -0.25444E+04         0.00000E+00
    0.00000E+00         0.00000E+00        -0.31236E+04
 
   -0.10168E+05         0.80895E+04         0.00000E+00
    0.80895E+04        -0.52415E+04         0.00000E+00
    0.00000E+00         0.00000E+00        -0.46230E+04
 
   -0.10582E+05         0.10099E+05         0.00000E+00
    0.10099E+05        -0.81899E+04         0.00000E+00
    0.00000E+00         0.00000E+00        -0.56315E+04
 
   -0.99391E+04         0.11170E+05         0.00000E+00
    0.11170E+05        -0.10892E+05         0.00000E+00
    0.00000E+00         0.00000E+00        -0.62492E+04
 
   -0.88464E+04         0.11495E+05         0.00000E+00
    0.11495E+05        -0.13134E+05         0.00000E+00
    0.00000E+00         0.00000E+00        -0.65941E+04
 
   -0.76499E+04         0.11305E+05         0.00000E+00
    0.11305E+05        -0.14878E+05         0.00000E+00
    0.00000E+00         0.00000E+00        -0.67584E+04
 
   -0.65270E+04         0.10795E+05         0.00000E+00
    0.10795E+05        -0.16168E+05         0.00000E+00
    0.00000E+00         0.00000E+00        -0.68086E+04
 
   -0.55561E+04         0.10106E+05         0.00000E+00
    0.10106E+05        -0.17078E+05         0.00000E+00
    0.00000E+00         0.00000E+00        -0.67902E+04
 
   -0.47634E+04         0.93341E+04         0.00000E+00
    0.93341E+04        -0.17684E+05         0.00000E+00
    0.00000E+00         0.00000E+00        -0.67342E+04
 
   -0.41482E+04         0.85438E+04         0.00000E+00
    0.85438E+04        -0.18055E+05         0.00000E+00
    0.00000E+00         0.00000E+00        -0.66611E+04
 
   -0.36987E+04         0.77747E+04         0.00000E+00
    0.77747E+04        -0.18249E+05         0.00000E+00
    0.00000E+00         0.00000E+00        -0.65844E+04
 
   -0.33992E+04         0.70514E+04         0.00000E+00
    0.70514E+04        -0.18311E+05         0.00000E+00
    0.00000E+00         0.00000E+00        -0.65131E+04
 
   -0.32341E+04         0.63885E+04         0.00000E+00
    0.63885E+04        -0.18276E+05         0.00000E+00
    0.00000E+00         0.00000E+00        -0.64530E+04
 
   -0.31899E+04         0.57950E+04         0.00000E+00
    0.57950E+04        -0.18170E+05         0.00000E+00
    0.00000E+00         0.00000E+00        -0.64080E+04
 
   -0.32561E+04         0.52763E+04         0.00000E+00
    0.52763E+04        -0.18013E+05         0.00000E+00
    0.00000E+00         0.00000E+00        -0.63806E+04
 
   -0.34246E+04         0.48372E+04         0.00000E+00
    0.48372E+04        -0.17817E+05         0.00000E+00
    0.00000E+00         0.00000E+00        -0.63726E+04
 
   -0.36904E+04         0.44824E+04         0.00000E+00
    0.44824E+04        -0.17593E+05         0.00000E+00
    0.00000E+00         0.00000E+00        -0.63850E+04
 
   -0.40507E+04         0.42181E+04         0.00000E+00
    0.42181E+04        -0.17346E+05         0.00000E+00
    0.00000E+00         0.00000E+00        -0.64190E+04
 
   -0.45051E+04         0.40527E+04         0.00000E+00
    0.40527E+04        -0.17079E+05         0.00000E+00
    0.00000E+00         0.00000E+00        -0.64751E+04
 
   -0.50549E+04         0.39983E+04         0.00000E+00
    0.39983E+04        -0.16792E+05         0.00000E+00
    0.00000E+00         0.00000E+00        -0.65541E+04
 
   -0.57026E+04         0.40712E+04         0.00000E+00
    0.40712E+04        -0.16486E+05         0.00000E+00
    0.00000E+00         0.00000E+00        -0.66565E+04
 
   -0.64517E+04         0.42934E+04         0.00000E+00
    0.42934E+04        -0.16158E+05         0.00000E+00
    0.00000E+00         0.00000E+00        -0.67828E+04
 
    0.52585E+04         0.27342E+02         0.00000E+00
    0.27342E+02        -0.24802E+02         0.00000E+00
    0.00000E+00         0.00000E+00         0.15701E+04
 
   -0.73847E+03         0.12238E+04         0.00000E+00
    0.12238E+04        -0.40043E+03         0.00000E+00
    0.00000E+00         0.00000E+00        -0.34167E+03
 
   -0.51908E+04         0.33417E+04         0.00000E+00
    0.33417E+04        -0.15001E+04         0.00000E+00
    0.00000E+00         0.00000E+00        -0.20073E+04
 
   -0.78533E+04         0.56212E+04         0.00000E+00
    0.56212E+04        -0.33012E+04         0.00000E+00
    0.00000E+00         0.00000E+00        -0.33463E+04
 
   -0.89950E+04         0.75193E+04         0.00000E+00
    0.75193E+04        -0.54927E+04         0.00000E+00
    0.00000E+00         0.00000E+00        -0.43463E+04
 
   -0.90935E+04         0.88149E+04         0.00000E+00
    0.88149E+04        -0.77363E+04         0.00000E+00
    0.00000E+00         0.00000E+00        -0.50489E+04
 
   -0.85924E+04         0.95157E+04         0.00000E+00
    0.95157E+04        -0.97929E+04         0.00000E+00
    0.00000E+00         0.00000E+00        -0.55156E+04
 
   -0.78144E+04         0.97335E+04         0.00000E+00
    0.97335E+04        -0.11548E+05         0.00000E+00
    0.00000E+00         0.00000E+00        -0.58086E+04
 
   -0.69613E+04         0.96006E+04         0.00000E+00
    0.96006E+04        -0.12971E+05         0.00000E+00
    0.00000E+00         0.00000E+00        -0.59796E+04
 
   -0.61478E+04         0.92343E+04         0.00000E+00
    0.92343E+04        -0.14079E+05         0.00000E+00
    0.00000E+00         0.00000E+00        -0.60681E+04
 
   -0.54322E+04         0.87268E+04         0.00000E+00
    0.87268E+04        -0.14912E+05         0.00000E+00
    0.00000E+00         0.00000E+00        -0.61034E+04
 
   -0.48398E+04         0.81458E+04         0.00000E+00
    0.81458E+04        -0.15515E+05         0.00000E+00
    0.00000E+00         0.00000E+00        -0.61064E+04
 
   -0.43769E+04         0.75393E+04         0.00000E+00
    0.75393E+04        -0.15930E+05         0.00000E+00
    0.00000E+00         0.00000E+00        -0.60921E+04
 
   -0.40404E+04         0.69405E+04         0.00000E+00
    0.69405E+04        -0.16196E+05         0.00000E+00
    0.00000E+00         0.00000E+00        -0.60709E+04
 
   -0.38232E+04         0.63723E+04         0.00000E+00
    0.63723E+04        -0.16345E+05         0.00000E+00
    0.00000E+00         0.00000E+00        -0.60503E+04
 
   -0.37166E+04         0.58502E+04         0.00000E+00
    0.58502E+04        -0.16401E+05         0.00000E+00
    0.00000E+00         0.00000E+00        -0.60354E+04
 
   -0.37127E+04         0.53860E+04         0.00000E+00
    0.53860E+04        -0.16386E+05         0.00000E+00
    0.00000E+00         0.00000E+00        -0.60297E+04
 
   -0.38045E+04         0.49888E+04         0.00000E+00
    0.49888E+04        -0.16315E+05         0.00000E+00
    0.00000E+00         0.00000E+00        -0.60360E+04
 
   -0.39865E+04         0.46672E+04         0.00000E+00
    0.46672E+04        -0.16199E+05         0.00000E+00
    0.00000E+00         0.00000E+00        -0.60558E+04
 
   -0.42546E+04         0.44303E+04         0.00000E+00
    0.44303E+04        -0.16047E+05         0.00000E+00
    0.00000E+00         0.00000E+00        -0.60905E+04
 
   -0.46056E+04         0.42890E+04         0.00000E+00
    0.42890E+04        -0.15865E+05         0.00000E+00
    0.00000E+00         0.00000E+00        -0.61410E+04
 
   -0.50373E+04         0.42568E+04         0.00000E+00
    0.42568E+04        -0.15655E+05         0.00000E+00
    0.00000E+00         0.00000E+00        -0.62078E+04
 
   -0.55475E+04         0.43511E+04         0.00000E+00
    0.43511E+04        -0.15423E+05         0.00000E+00
    0.00000E+00         0.00000E+00        -0.62911E+04
 
   -0.61335E+04         0.45944E+04         0.00000E+00
    0.45944E+04        -0.15170E+05         0.00000E+00
    0.00000E+00         0.00000E+00        -0.63910E+04
 
    0.55916E+04        -0.42965E+02         0.00000E+00
   -0.42965E+02        -0.16511E+02         0.00000E+00
    0.00000E+00         0.00000E+00         0.16725E+04
 
    0.68875E+03         0.67650E+03         0.00000E+00
    0.67650E+03        -0.24594E+03         0.00000E+00
    0.00000E+00         0.00000E+00         0.13285E+03
 
   -0.32320E+04         0.21408E+04         0.00000E+00
    0.21408E+04        -0.94805E+03         0.00000E+00
    0.00000E+00         0.00000E+00        -0.12540E+04
 
   -0.59202E+04         0.38902E+04         0.00000E+00
    0.38902E+04        -0.21706E+04         0.00000E+00
    0.00000E+00         0.00000E+00        -0.24272E+04
 
   -0.74420E+04         0.55283E+04         0.00000E+00
    0.55283E+04        -0.37781E+04         0.00000E+00
    0.00000E+00         0.00000E+00        -0.33660E+04
 
   -0.80466E+04         0.68213E+04         0.00000E+00
    0.68213E+04        -0.55591E+04         0.00000E+00
    0.00000E+00         0.00000E+00        -0.40817E+04
 
   -0.80288E+04         0.76921E+04         0.00000E+00
    0.76921E+04        -0.73233E+04         0.00000E+00
    0.00000E+00         0.00000E+00        -0.46056E+04
 
   -0.76441E+04         0.81648E+04         0.00000E+00
    0.81648E+04        -0.89417E+04         0.00000E+00
    0.00000E+00         0.00000E+00        -0.49758E+04
 
   -0.70811E+04         0.83104E+04         0.00000E+00
    0.83104E+04        -0.10348E+05         0.00000E+00
    0.00000E+00         0.00000E+00        -0.52288E+04
 
   -0.64649E+04         0.82105E+04         0.00000E+00
    0.82105E+04        -0.11522E+05         0.00000E+00
    0.00000E+00         0.00000E+00        -0.53960E+04
 
   -0.58720E+04         0.79400E+04         0.00000E+00
    0.79400E+04        -0.12470E+05         0.00000E+00
    0.00000E+00         0.00000E+00        -0.55025E+04
 
   -0.53456E+04         0.75610E+04         0.00000E+00
    0.75610E+04        -0.13212E+05         0.00000E+00
    0.00000E+00         0.00000E+00        -0.55674E+04
 
   -0.49072E+04         0.71220E+04         0.00000E+00
    0.71220E+04        -0.13778E+05         0.00000E+00
    0.00000E+00         0.00000E+00        -0.56054E+04
 
   -0.45655E+04         0.66594E+04         0.00000E+00
    0.66594E+04        -0.14193E+05         0.00000E+00
    0.00000E+00         0.00000E+00        -0.56274E+04
 
   -0.43215E+04         0.62007E+04         0.00000E+00
    0.62007E+04        -0.14483E+05         0.00000E+00
    0.00000E+00         0.00000E+00        -0.56413E+04
 
   -0.41724E+04         0.57663E+04         0.00000E+00
    0.57663E+04        -0.14671E+05         0.00000E+00
    0.00000E+00         0.00000E+00        -0.56530E+04
 
   -0.41137E+04         0.53722E+04         0.00000E+00
    0.53722E+04        -0.14775E+05         0.00000E+00
    0.00000E+00         0.00000E+00        -0.56667E+04
 
   -0.41402E+04         0.50313E+04         0.00000E+00
    0.50313E+04        -0.14811E+05         0.00000E+00
    0.00000E+00         0.00000E+00        -0.56855E+04
 
   -0.42467E+04         0.47556E+04         0.00000E+00
    0.47556E+04        -0.14792E+05         0.00000E+00
    0.00000E+00         0.00000E+00        -0.57115E+04
 
   -0.44282E+04         0.45566E+04         0.00000E+00
    0.45566E+04        -0.14726E+05         0.00000E+00
    0.00000E+00         0.00000E+00        -0.57462E+04
 
   -0.46799E+04         0.44470E+04         0.00000E+00
    0.44470E+04        -0.14622E+05         0.00000E+00
    0.00000E+00         0.00000E+00        -0.57905E+04
 
   -0.49964E+04         0.44416E+04         0.00000E+00
    0.44416E+04        -0.14487E+05         0.00000E+00
    0.00000E+00         0.00000E+00        -0.58449E+04
 
   -0.53716E+04         0.45583E+04         0.00000E+00
    0.45583E+04        -0.14326E+05         0.00000E+00
    0.00000E+00         0.00000E+00        -0.59091E+04
 
   -0.57975E+04         0.48192E+04         0.00000E+00
    0.48192E+04        -0.14145E+05         0.00000E+00
    0.00000E+00         0.00000E+00        -0.59828E+04
 
    0.57083E+04        -0.88766E+02         0.00000E+00
   -0.88766E+02        -0.11153E+02         0.00000E+00
    0.00000E+00         0.00000E+00         0.17091E+04
 
    0.16225E+04         0.32784E+03         0.00000E+00
    0.32784E+03        -0.16179E+03         0.00000E+00
    0.00000E+00         0.00000E+00         0.43821E+03
 
   -0.18083E+04         0.13418E+04         0.00000E+00
    0.13418E+04        -0.63066E+03         0.00000E+00
    0.00000E+00         0.00000E+00        -0.73169E+03
 
   -0.43736E+04         0.26656E+04         0.00000E+00
    0.26656E+04        -0.14827E+04         0.00000E+00
    0.00000E+00         0.00000E+00        -0.17569E+04
 
   -0.60552E+04         0.40190E+04         0.00000E+00
    0.40190E+04        -0.26645E+04         0.00000E+00
    0.00000E+00         0.00000E+00        -0.26159E+04
 
   -0.69736E+04         0.52009E+04         0.00000E+00
    0.52009E+04        -0.40536E+04         0.00000E+00
    0.00000E+00         0.00000E+00        -0.33082E+04
 
   -0.73123E+04         0.61069E+04         0.00000E+00
    0.61069E+04        -0.55142E+04         0.00000E+00
    0.00000E+00         0.00000E+00        -0.38480E+04
 
   -0.72576E+04         0.67121E+04         0.00000E+00
    0.67121E+04        -0.69341E+04         0.00000E+00
    0.00000E+00         0.00000E+00        -0.42575E+04
 
   -0.69661E+04         0.70409E+04         0.00000E+00
    0.70409E+04        -0.82383E+04         0.00000E+00
    0.00000E+00         0.00000E+00        -0.45613E+04
 
   -0.65555E+04         0.71407E+04         0.00000E+00
    0.71407E+04        -0.93861E+04         0.00000E+00
    0.00000E+00         0.00000E+00        -0.47825E+04
 
   -0.61074E+04         0.70652E+04         0.00000E+00
    0.70652E+04        -0.10363E+05         0.00000E+00
    0.00000E+00         0.00000E+00        -0.49412E+04
 
   -0.56743E+04         0.68649E+04         0.00000E+00
    0.68649E+04        -0.11172E+05         0.00000E+00
    0.00000E+00         0.00000E+00        -0.50539E+04
 
   -0.52882E+04         0.65830E+04         0.00000E+00
    0.65830E+04        -0.11824E+05         0.00000E+00
    0.00000E+00         0.00000E+00        -0.51338E+04
 
   -0.49667E+04         0.62554E+04         0.00000E+00
    0.62554E+04        -0.12337E+05         0.00000E+00
    0.00000E+00         0.00000E+00        -0.51912E+04
 
   -0.47182E+04         0.59105E+04         0.00000E+00
    0.59105E+04        -0.12728E+05         0.00000E+00
    0.00000E+00         0.00000E+00        -0.52340E+04
 
   -0.45453E+04         0.55712E+04         0.00000E+00
    0.55712E+04        -0.13015E+05         0.00000E+00
    0.00000E+00         0.00000E+00        -0.52682E+04
 
   -0.44471E+04         0.52560E+04         0.00000E+00
    0.52560E+04        -0.13214E+05         0.00000E+00
    0.00000E+00         0.00000E+00        -0.52983E+04
 
   -0.44204E+04         0.49806E+04         0.00000E+00
    0.49806E+04        -0.13338E+05         0.00000E+00
    0.00000E+00         0.00000E+00        -0.53276E+04
 
   -0.44612E+04         0.47591E+04         0.00000E+00
    0.47591E+04        -0.13400E+05         0.00000E+00
    0.00000E+00         0.00000E+00        -0.53583E+04
 
   -0.45640E+04         0.46050E+04         0.00000E+00
    0.46050E+04        -0.13410E+05         0.00000E+00
    0.00000E+00         0.00000E+00        -0.53921E+04
 
   -0.47228E+04         0.45324E+04         0.00000E+00
    0.45324E+04        -0.13377E+05         0.00000E+00
    0.00000E+00         0.00000E+00        -0.54299E+04
 
   -0.49301E+04         0.45567E+04         0.00000E+00
    0.45567E+04        -0.13309E+05         0.00000E+00
    0.00000E+00         0.00000E+00        -0.54718E+04
 
   -0.51764E+04         0.46958E+04         0.00000E+00
    0.46958E+04        -0.13215E+05         0.00000E+00
    0.00000E+00         0.00000E+00        -0.55175E+04
 
   -0.54495E+04         0.49708E+04         0.00000E+00
    0.49708E+04        -0.13104E+05         0.00000E+00
    0.00000E+00         0.00000E+00        -0.55662E+04
 
    0.56842E+04        -0.12027E+03         0.00000E+00
   -0.12027E+03        -0.79328E+01         0.00000E+00
    0.00000E+00         0.00000E+00         0.17029E+04
 
    0.22266E+04         0.93866E+02         0.00000E+00
    0.93866E+02        -0.11111E+03         0.00000E+00
    0.00000E+00         0.00000E+00         0.63463E+03
 
   -0.77774E+03         0.79121E+03         0.00000E+00
    0.79121E+03        -0.43617E+03         0.00000E+00
    0.00000E+00         0.00000E+00        -0.36417E+03
 
   -0.31607E+04         0.17849E+04         0.00000E+00
    0.17849E+04        -0.10442E+04         0.00000E+00
    0.00000E+00         0.00000E+00        -0.12615E+04
 
   -0.48738E+04         0.28777E+04         0.00000E+00
    0.28777E+04        -0.19213E+04         0.00000E+00
    0.00000E+00         0.00000E+00        -0.20385E+04
 
   -0.59673E+04         0.39084E+04         0.00000E+00
    0.39084E+04        -0.29991E+04         0.00000E+00
    0.00000E+00         0.00000E+00        -0.26899E+04
 
   -0.65502E+04         0.47736E+04         0.00000E+00
    0.47736E+04        -0.41865E+04         0.00000E+00
    0.00000E+00         0.00000E+00        -0.32210E+04
 
   -0.67513E+04         0.54259E+04         0.00000E+00
    0.54259E+04        -0.53958E+04         0.00000E+00
    0.00000E+00         0.00000E+00        -0.36441E+04
 
   -0.66923E+04         0.58603E+04         0.00000E+00
    0.58603E+04        -0.65578E+04         0.00000E+00
    0.00000E+00         0.00000E+00        -0.39750E+04
 
   -0.64741E+04         0.60976E+04         0.00000E+00
    0.60976E+04        -0.76260E+04         0.00000E+00
    0.00000E+00         0.00000E+00        -0.42300E+04
 
   -0.61739E+04         0.61714E+04         0.00000E+00
    0.61714E+04        -0.85745E+04         0.00000E+00
    0.00000E+00         0.00000E+00        -0.44245E+04
 
   -0.58468E+04         0.61186E+04         0.00000E+00
    0.61186E+04        -0.93931E+04         0.00000E+00
    0.00000E+00         0.00000E+00        -0.45720E+04
 
   -0.55299E+04         0.59749E+04         0.00000E+00
    0.59749E+04        -0.10082E+05         0.00000E+00
    0.00000E+00         0.00000E+00        -0.46836E+04
 
   -0.52468E+04         0.57719E+04         0.00000E+00
    0.57719E+04        -0.10649E+05         0.00000E+00
    0.00000E+00         0.00000E+00        -0.47687E+04
 
   -0.50112E+04         0.55370E+04         0.00000E+00
    0.55370E+04        -0.11104E+05         0.00000E+00
    0.00000E+00         0.00000E+00        -0.48346E+04
 
   -0.48303E+04         0.52930E+04         0.00000E+00
    0.52930E+04        -0.11460E+05         0.00000E+00
    0.00000E+00         0.00000E+00        -0.48870E+04
 
   -0.47064E+04         0.50596E+04         0.00000E+00
    0.50596E+04        -0.11728E+05         0.00000E+00
    0.00000E+00         0.00000E+00        -0.49303E+04
 
   -0.46387E+04         0.48537E+04         0.00000E+00
    0.48537E+04        -0.11921E+05         0.00000E+00
    0.00000E+00         0.00000E+00        -0.49678E+04
 
   -0.46239E+04         0.46908E+04         0.00000E+00
    0.46908E+04        -0.12049E+05         0.00000E+00
    0.00000E+00         0.00000E+00        -0.50019E+04
 
   -0.46571E+04         0.45855E+04         0.00000E+00
    0.45855E+04        -0.12123E+05         0.00000E+00
    0.00000E+00         0.00000E+00        -0.50339E+04
 
   -0.47313E+04         0.45526E+04         0.00000E+00
    0.45526E+04        -0.12151E+05         0.00000E+00
    0.00000E+00         0.00000E+00        -0.50648E+04
 
   -0.48375E+04         0.46078E+04         0.00000E+00
    0.46078E+04        -0.12144E+05         0.00000E+00
    0.00000E+00         0.00000E+00        -0.50946E+04
 
   -0.49639E+04         0.47682E+04         0.00000E+00
    0.47682E+04        -0.12112E+05         0.00000E+00
    0.00000E+00         0.00000E+00        -0.51227E+04
 
   -0.50950E+04         0.50535E+04         0.00000E+00
    0.50535E+04        -0.12065E+05         0.00000E+00
    0.00000E+00         0.00000E+00        -0.51479E+04
 
    0.55641E+04        -0.14254E+03         0.00000E+00
   -0.14254E+03        -0.56653E+01         0.00000E+00
    0.00000E+00         0.00000E+00         0.16675E+04
 
    0.26022E+04        -0.68971E+02         0.00000E+00
   -0.68971E+02        -0.78385E+02         0.00000E+00
    0.00000E+00         0.00000E+00         0.75714E+03
 
   -0.36790E+02         0.40077E+03         0.00000E+00
    0.40077E+03        -0.30986E+03         0.00000E+00
    0.00000E+00         0.00000E+00        -0.10399E+03
 
   -0.22207E+04         0.11409E+04         0.00000E+00
    0.11409E+04        -0.75255E+03         0.00000E+00
    0.00000E+00         0.00000E+00        -0.89198E+03
 
   -0.38936E+04         0.20109E+04         0.00000E+00
    0.20109E+04        -0.14104E+04         0.00000E+00
    0.00000E+00         0.00000E+00        -0.15912E+04
 
   -0.50685E+04         0.28855E+04         0.00000E+00
    0.28855E+04        -0.22472E+04         0.00000E+00
    0.00000E+00         0.00000E+00        -0.21947E+04
 
   -0.58070E+04         0.36727E+04         0.00000E+00
    0.36727E+04        -0.32037E+04         0.00000E+00
    0.00000E+00         0.00000E+00        -0.27032E+04
 
   -0.61949E+04         0.43186E+04         0.00000E+00
    0.43186E+04        -0.42154E+04         0.00000E+00
    0.00000E+00         0.00000E+00        -0.31231E+04
 
   -0.63224E+04         0.48018E+04         0.00000E+00
    0.48018E+04        -0.52243E+04         0.00000E+00
    0.00000E+00         0.00000E+00        -0.34640E+04
 
   -0.62714E+04         0.51251E+04         0.00000E+00
    0.51251E+04        -0.61861E+04         0.00000E+00
    0.00000E+00         0.00000E+00        -0.37373E+04
 
   -0.61096E+04         0.53057E+04         0.00000E+00
    0.53057E+04        -0.70706E+04         0.00000E+00
    0.00000E+00         0.00000E+00        -0.39541E+04
 
   -0.58895E+04         0.53682E+04         0.00000E+00
    0.53682E+04        -0.78605E+04         0.00000E+00
    0.00000E+00         0.00000E+00        -0.41250E+04
 
   -0.56493E+04         0.53395E+04         0.00000E+00
    0.53395E+04        -0.85485E+04         0.00000E+00
    0.00000E+00         0.00000E+00        -0.42593E+04
 
   -0.54154E+04         0.52459E+04         0.00000E+00
    0.52459E+04        -0.91343E+04         0.00000E+00
    0.00000E+00         0.00000E+00        -0.43649E+04
 
   -0.52050E+04         0.51114E+04         0.00000E+00
    0.51114E+04        -0.96224E+04         0.00000E+00
    0.00000E+00         0.00000E+00        -0.44482E+04
 
   -0.50283E+04         0.49578E+04         0.00000E+00
    0.49578E+04        -0.10020E+05         0.00000E+00
    0.00000E+00         0.00000E+00        -0.45145E+04
 
   -0.48905E+04         0.48042E+04         0.00000E+00
    0.48042E+04        -0.10336E+05         0.00000E+00
    0.00000E+00         0.00000E+00        -0.45678E+04
 
   -0.47926E+04         0.46677E+04         0.00000E+00
    0.46677E+04        -0.10578E+05         0.00000E+00
    0.00000E+00         0.00000E+00        -0.46113E+04
 
   -0.47324E+04         0.45643E+04         0.00000E+00
    0.45643E+04        -0.10758E+05         0.00000E+00
    0.00000E+00         0.00000E+00        -0.46471E+04
 
   -0.47055E+04         0.45089E+04         0.00000E+00
    0.45089E+04        -0.10883E+05         0.00000E+00
    0.00000E+00         0.00000E+00        -0.46766E+04
 
   -0.47044E+04         0.45162E+04         0.00000E+00
    0.45162E+04        -0.10964E+05         0.00000E+00
    0.00000E+00         0.00000E+00        -0.47005E+04
 
   -0.47193E+04         0.46017E+04         0.00000E+00
    0.46017E+04        -0.11010E+05         0.00000E+00
    0.00000E+00         0.00000E+00        -0.47188E+04
 
   -0.47367E+04         0.47816E+04         0.00000E+00
    0.47816E+04        -0.11032E+05         0.00000E+00
    0.00000E+00         0.00000E+00        -0.47306E+04
 
   -0.47391E+04         0.50735E+04         0.00000E+00
    0.50735E+04        -0.11042E+05         0.00000E+00
    0.00000E+00         0.00000E+00        -0.47344E+04
 
    0.53767E+04        -0.15836E+03         0.00000E+00
   -0.15836E+03        -0.39766E+01         0.00000E+00
    0.00000E+00         0.00000E+00         0.16118E+04
 
    0.28151E+04        -0.18495E+03         0.00000E+00
   -0.18495E+03        -0.55905E+02         0.00000E+00
    0.00000E+00         0.00000E+00         0.82777E+03
 
    0.48856E+03         0.11804E+03         0.00000E+00
    0.11804E+03        -0.22366E+03         0.00000E+00
    0.00000E+00         0.00000E+00         0.79470E+02
 
   -0.14991E+04         0.66310E+03         0.00000E+00
    0.66310E+03        -0.55078E+03         0.00000E+00
    0.00000E+00         0.00000E+00        -0.61496E+03
 
   -0.30935E+04         0.13485E+04         0.00000E+00
    0.13485E+04        -0.10488E+04         0.00000E+00
    0.00000E+00         0.00000E+00        -0.12427E+04
 
   -0.42888E+04         0.20777E+04         0.00000E+00
    0.20777E+04        -0.17001E+04         0.00000E+00
    0.00000E+00         0.00000E+00        -0.17967E+04
 
   -0.51172E+04         0.27732E+04         0.00000E+00
    0.27732E+04        -0.24673E+04         0.00000E+00
    0.00000E+00         0.00000E+00        -0.22754E+04
 
   -0.56339E+04         0.33820E+04         0.00000E+00
    0.33820E+04        -0.33043E+04         0.00000E+00
    0.00000E+00         0.00000E+00        -0.26814E+04
 
   -0.59035E+04         0.38758E+04         0.00000E+00
    0.38758E+04        -0.41654E+04         0.00000E+00
    0.00000E+00         0.00000E+00        -0.30207E+04
 
   -0.59900E+04         0.42459E+04         0.00000E+00
    0.42459E+04        -0.50117E+04         0.00000E+00
    0.00000E+00         0.00000E+00        -0.33005E+04
 
   -0.59498E+04         0.44978E+04         0.00000E+00
    0.44978E+04        -0.58135E+04         0.00000E+00
    0.00000E+00         0.00000E+00        -0.35290E+04
 
   -0.58298E+04         0.46457E+04         0.00000E+00
    0.46457E+04        -0.65506E+04         0.00000E+00
    0.00000E+00         0.00000E+00        -0.37141E+04
 
   -0.56663E+04         0.47085E+04         0.00000E+00
    0.47085E+04        -0.72112E+04         0.00000E+00
    0.00000E+00         0.00000E+00        -0.38632E+04
 
   -0.54862E+04         0.47065E+04         0.00000E+00
    0.47065E+04        -0.77899E+04         0.00000E+00
    0.00000E+00         0.00000E+00        -0.39828E+04
 
   -0.53082E+04         0.46600E+04         0.00000E+00
    0.46600E+04        -0.82864E+04         0.00000E+00
    0.00000E+00         0.00000E+00        -0.40784E+04
 
   -0.51446E+04         0.45883E+04         0.00000E+00
    0.45883E+04        -0.87038E+04         0.00000E+00
    0.00000E+00         0.00000E+00        -0.41545E+04
 
   -0.50020E+04         0.45090E+04         0.00000E+00
    0.45090E+04        -0.90474E+04         0.00000E+00
    0.00000E+00         0.00000E+00        -0.42148E+04
 
   -0.48832E+04         0.44387E+04         0.00000E+00
    0.44387E+04        -0.93238E+04         0.00000E+00
    0.00000E+00         0.00000E+00        -0.42621E+04
 
   -0.47870E+04         0.43927E+04         0.00000E+00
    0.43927E+04        -0.95406E+04         0.00000E+00
    0.00000E+00         0.00000E+00        -0.42983E+04
 
   -0.47093E+04         0.43856E+04         0.00000E+00
    0.43856E+04        -0.97061E+04         0.00000E+00
    0.00000E+00         0.00000E+00        -0.43246E+04
 
   -0.46428E+04         0.44320E+04         0.00000E+00
    0.44320E+04        -0.98293E+04         0.00000E+00
    0.00000E+00         0.00000E+00        -0.43416E+04
 
   -0.45770E+04         0.45461E+04         0.00000E+00
    0.45461E+04        -0.99199E+04         0.00000E+00
    0.00000E+00         0.00000E+00        -0.43491E+04
 
   -0.44978E+04         0.47427E+04         0.00000E+00
    0.47427E+04        -0.99891E+04         0.00000E+00
    0.00000E+00         0.00000E+00        -0.43460E+04
 
   -0.43864E+04         0.50375E+04         0.00000E+00
    0.50375E+04        -0.10050E+05         0.00000E+00
    0.00000E+00         0.00000E+00        -0.43309E+04
 
    0.51414E+04        -0.16939E+03         0.00000E+00
   -0.16939E+03        -0.26433E+01         0.00000E+00
    0.00000E+00         0.00000E+00         0.15416E+04
 
    0.29098E+04        -0.26846E+03         0.00000E+00
   -0.26846E+03        -0.39662E+02         0.00000E+00
    0.00000E+00         0.00000E+00         0.86105E+03
 
    0.85162E+03        -0.89490E+02         0.00000E+00
   -0.89490E+02        -0.16226E+03         0.00000E+00
    0.00000E+00         0.00000E+00         0.20681E+03
 
   -0.95074E+03         0.30481E+03         0.00000E+00
    0.30481E+03        -0.40624E+03         0.00000E+00
    0.00000E+00         0.00000E+00        -0.40709E+03
 
   -0.24480E+04         0.83950E+03         0.00000E+00
    0.83950E+03        -0.78576E+03         0.00000E+00
    0.00000E+00         0.00000E+00        -0.97012E+03
 
   -0.36252E+04         0.14401E+04         0.00000E+00
    0.14401E+04        -0.12939E+04         0.00000E+00
    0.00000E+00         0.00000E+00        -0.14757E+04
 
   -0.44964E+04         0.20427E+04         0.00000E+00
    0.20427E+04        -0.19078E+04         0.00000E+00
    0.00000E+00         0.00000E+00        -0.19212E+04
 
   -0.50958E+04         0.25993E+04         0.00000E+00
    0.25993E+04        -0.25951E+04         0.00000E+00
    0.00000E+00         0.00000E+00        -0.23073E+04
 
   -0.54686E+04         0.30794E+04         0.00000E+00
    0.30794E+04        -0.33212E+04         0.00000E+00
    0.00000E+00         0.00000E+00        -0.26369E+04
 
   -0.56629E+04         0.34682E+04         0.00000E+00
    0.34682E+04        -0.40537E+04         0.00000E+00
    0.00000E+00         0.00000E+00        -0.29150E+04
 
   -0.57243E+04         0.37633E+04         0.00000E+00
    0.37633E+04        -0.47657E+04         0.00000E+00
    0.00000E+00         0.00000E+00        -0.31470E+04
 
   -0.56928E+04         0.39711E+04         0.00000E+00
    0.39711E+04        -0.54368E+04         0.00000E+00
    0.00000E+00         0.00000E+00        -0.33389E+04
 
   -0.56010E+04         0.41036E+04         0.00000E+00
    0.41036E+04        -0.60532E+04         0.00000E+00
    0.00000E+00         0.00000E+00        -0.34963E+04
 
   -0.54746E+04         0.41757E+04         0.00000E+00
    0.41757E+04        -0.66065E+04         0.00000E+00
    0.00000E+00         0.00000E+00        -0.36243E+04
 
   -0.53323E+04         0.42034E+04         0.00000E+00
    0.42034E+04        -0.70932E+04         0.00000E+00
    0.00000E+00         0.00000E+00        -0.37276E+04
 
   -0.51869E+04         0.42031E+04         0.00000E+00
    0.42031E+04        -0.75131E+04         0.00000E+00
    0.00000E+00         0.00000E+00        -0.38100E+04
 
   -0.50465E+04         0.41905E+04         0.00000E+00
    0.41905E+04        -0.78688E+04         0.00000E+00
    0.00000E+00         0.00000E+00        -0.38746E+04
 
   -0.49143E+04         0.41807E+04         0.00000E+00
    0.41807E+04        -0.81647E+04         0.00000E+00
    0.00000E+00         0.00000E+00        -0.39237E+04
 
   -0.47903E+04         0.41880E+04         0.00000E+00
    0.41880E+04        -0.84066E+04         0.00000E+00
    0.00000E+00         0.00000E+00        -0.39591E+04
 
   -0.46707E+04         0.42261E+04         0.00000E+00
    0.42261E+04        -0.86017E+04         0.00000E+00
    0.00000E+00         0.00000E+00        -0.39817E+04
 
   -0.45486E+04         0.43085E+04         0.00000E+00
    0.43085E+04        -0.87581E+04         0.00000E+00
    0.00000E+00         0.00000E+00        -0.39920E+04
 
   -0.44132E+04         0.44484E+04         0.00000E+00
    0.44484E+04        -0.88852E+04         0.00000E+00
    0.00000E+00         0.00000E+00        -0.39895E+04
 
   -0.42503E+04         0.46588E+04         0.00000E+00
    0.46588E+04        -0.89942E+04         0.00000E+00
    0.00000E+00         0.00000E+00        -0.39734E+04
 
   -0.40408E+04         0.49529E+04         0.00000E+00
    0.49529E+04        -0.90981E+04         0.00000E+00
    0.00000E+00         0.00000E+00        -0.39417E+04
 
    0.48721E+04        -0.17668E+03         0.00000E+00
   -0.17668E+03        -0.15516E+01         0.00000E+00
    0.00000E+00         0.00000E+00         0.14612E+04
 
    0.29174E+04        -0.32847E+03         0.00000E+00
   -0.32847E+03        -0.27430E+02         0.00000E+00
    0.00000E+00         0.00000E+00         0.86698E+03
 
    0.10913E+04        -0.24271E+03         0.00000E+00
   -0.24271E+03        -0.11691E+03         0.00000E+00
    0.00000E+00         0.00000E+00         0.29232E+03
 
   -0.53974E+03         0.34477E+02         0.00000E+00
    0.34477E+02        -0.29946E+03         0.00000E+00
    0.00000E+00         0.00000E+00        -0.25176E+03
 
   -0.19323E+04         0.44692E+03         0.00000E+00
    0.44692E+03        -0.58957E+03         0.00000E+00
    0.00000E+00         0.00000E+00        -0.75657E+03
 
   -0.30676E+04         0.93684E+03         0.00000E+00
    0.93684E+03        -0.98645E+03         0.00000E+00
    0.00000E+00         0.00000E+00        -0.12162E+04
 
   -0.39488E+04         0.14520E+04         0.00000E+00
    0.14520E+04        -0.14765E+04         0.00000E+00
    0.00000E+00         0.00000E+00        -0.16276E+04
 
   -0.45958E+04         0.19506E+04         0.00000E+00
    0.19506E+04        -0.20378E+04         0.00000E+00
    0.00000E+00         0.00000E+00        -0.19901E+04
 
   -0.50392E+04         0.24029E+04         0.00000E+00
    0.24029E+04        -0.26445E+04         0.00000E+00
    0.00000E+00         0.00000E+00        -0.23051E+04
 
   -0.53145E+04         0.27914E+04         0.00000E+00
    0.27914E+04        -0.32706E+04         0.00000E+00
    0.00000E+00         0.00000E+00        -0.25755E+04
 
   -0.54572E+04         0.31087E+04         0.00000E+00
    0.31087E+04        -0.38930E+04         0.00000E+00
    0.00000E+00         0.00000E+00        -0.28051E+04
 
   -0.55004E+04         0.33558E+04         0.00000E+00
    0.33558E+04        -0.44927E+04         0.00000E+00
    0.00000E+00         0.00000E+00        -0.29979E+04
 
   -0.54723E+04         0.35391E+04         0.00000E+00
    0.35391E+04        -0.50555E+04         0.00000E+00
    0.00000E+00         0.00000E+00        -0.31583E+04
 
   -0.53961E+04         0.36688E+04         0.00000E+00
    0.36688E+04        -0.55717E+04         0.00000E+00
    0.00000E+00         0.00000E+00        -0.32903E+04
 
   -0.52894E+04         0.37571E+04         0.00000E+00
    0.37571E+04        -0.60357E+04         0.00000E+00
    0.00000E+00         0.00000E+00        -0.33975E+04
 
   -0.51650E+04         0.38171E+04         0.00000E+00
    0.38171E+04        -0.64452E+04         0.00000E+00
    0.00000E+00         0.00000E+00        -0.34831E+04
 
   -0.50310E+04         0.38623E+04         0.00000E+00
    0.38623E+04        -0.68006E+04         0.00000E+00
    0.00000E+00         0.00000E+00        -0.35495E+04
 
   -0.48915E+04         0.39060E+04         0.00000E+00
    0.39060E+04        -0.71044E+04         0.00000E+00
    0.00000E+00         0.00000E+00        -0.35988E+04
 
   -0.47468E+04         0.39609E+04         0.00000E+00
    0.39609E+04        -0.73610E+04         0.00000E+00
    0.00000E+00         0.00000E+00        -0.36323E+04
 
   -0.45935E+04         0.40397E+04         0.00000E+00
    0.40397E+04        -0.75763E+04         0.00000E+00
    0.00000E+00         0.00000E+00        -0.36510E+04
 
   -0.44251E+04         0.41542E+04         0.00000E+00
    0.41542E+04        -0.77576E+04         0.00000E+00
    0.00000E+00         0.00000E+00        -0.36548E+04
 
   -0.42312E+04         0.43163E+04         0.00000E+00
    0.43163E+04        -0.79137E+04         0.00000E+00
    0.00000E+00         0.00000E+00        -0.36435E+04
 
   -0.39976E+04         0.45371E+04         0.00000E+00
    0.45371E+04        -0.80552E+04         0.00000E+00
    0.00000E+00         0.00000E+00        -0.36159E+04
 
   -0.37057E+04         0.48274E+04         0.00000E+00
    0.48274E+04        -0.81949E+04         0.00000E+00
    0.00000E+00         0.00000E+00        -0.35702E+04
 
    0.45794E+04        -0.18096E+03         0.00000E+00
   -0.18096E+03        -0.63613E+00         0.00000E+00
    0.00000E+00         0.00000E+00         0.13736E+04
 
    0.28602E+04        -0.37088E+03         0.00000E+00
   -0.37088E+03        -0.17915E+02         0.00000E+00
    0.00000E+00         0.00000E+00         0.85270E+03
 
    0.12365E+04        -0.35554E+03         0.00000E+00
   -0.35554E+03        -0.82386E+02         0.00000E+00
    0.00000E+00         0.00000E+00         0.34625E+03
 
   -0.23766E+03        -0.16968E+03         0.00000E+00
   -0.16968E+03        -0.21847E+03         0.00000E+00
    0.00000E+00         0.00000E+00        -0.13684E+03
 
   -0.15245E+04         0.14390E+03         0.00000E+00
    0.14390E+03        -0.43999E+03         0.00000E+00
    0.00000E+00         0.00000E+00        -0.58934E+03
 
   -0.26038E+04         0.54001E+03         0.00000E+00
    0.54001E+03        -0.74952E+03         0.00000E+00
    0.00000E+00         0.00000E+00        -0.10060E+04
 
   -0.34725E+04         0.97622E+03         0.00000E+00
    0.97622E+03        -0.11397E+04         0.00000E+00
    0.00000E+00         0.00000E+00        -0.13837E+04
 
   -0.41408E+04         0.14166E+04         0.00000E+00
    0.14166E+04        -0.15957E+04         0.00000E+00
    0.00000E+00         0.00000E+00        -0.17210E+04
 
   -0.46288E+04         0.18339E+04         0.00000E+00
    0.18339E+04        -0.20987E+04         0.00000E+00
    0.00000E+00         0.00000E+00        -0.20183E+04
 
   -0.49617E+04         0.22098E+04         0.00000E+00
    0.22098E+04        -0.26285E+04         0.00000E+00
    0.00000E+00         0.00000E+00        -0.22771E+04
 
   -0.51669E+04         0.25343E+04         0.00000E+00
    0.25343E+04        -0.31658E+04         0.00000E+00
    0.00000E+00         0.00000E+00        -0.24998E+04
 
   -0.52706E+04         0.28046E+04         0.00000E+00
    0.28046E+04        -0.36938E+04         0.00000E+00
    0.00000E+00         0.00000E+00        -0.26893E+04
 
   -0.52966E+04         0.30230E+04         0.00000E+00
    0.30230E+04        -0.41990E+04         0.00000E+00
    0.00000E+00         0.00000E+00        -0.28487E+04
 
   -0.52650E+04         0.31958E+04         0.00000E+00
    0.31958E+04        -0.46715E+04         0.00000E+00
    0.00000E+00         0.00000E+00        -0.29809E+04
 
   -0.51918E+04         0.33318E+04         0.00000E+00
    0.33318E+04        -0.51045E+04         0.00000E+00
    0.00000E+00         0.00000E+00        -0.30889E+04
 
   -0.50888E+04         0.34411E+04         0.00000E+00
    0.34411E+04        -0.54945E+04         0.00000E+00
    0.00000E+00         0.00000E+00        -0.31750E+04
 
   -0.49640E+04         0.35349E+04         0.00000E+00
    0.35349E+04        -0.58402E+04         0.00000E+00
    0.00000E+00         0.00000E+00        -0.32413E+04
 
   -0.48215E+04         0.36243E+04         0.00000E+00
    0.36243E+04        -0.61430E+04         0.00000E+00
    0.00000E+00         0.00000E+00        -0.32893E+04
 
   -0.46618E+04         0.37205E+04         0.00000E+00
    0.37205E+04        -0.64058E+04         0.00000E+00
    0.00000E+00         0.00000E+00        -0.33203E+04
 
   -0.44822E+04         0.38345E+04         0.00000E+00
    0.38345E+04        -0.66334E+04         0.00000E+00
    0.00000E+00         0.00000E+00        -0.33347E+04
 
   -0.42763E+04         0.39766E+04         0.00000E+00
    0.39766E+04        -0.68322E+04         0.00000E+00
    0.00000E+00         0.00000E+00        -0.33326E+04
 
   -0.40344E+04         0.41569E+04         0.00000E+00
    0.41569E+04        -0.70103E+04         0.00000E+00
    0.00000E+00         0.00000E+00        -0.33134E+04
 
   -0.37428E+04         0.43847E+04         0.00000E+00
    0.43847E+04        -0.71775E+04         0.00000E+00
    0.00000E+00         0.00000E+00        -0.32761E+04
 
   -0.33839E+04         0.46684E+04         0.00000E+00
    0.46684E+04        -0.73459E+04         0.00000E+00
    0.00000E+00         0.00000E+00        -0.32189E+04
 
    0.42713E+04        -0.18275E+03         0.00000E+00
   -0.18275E+03         0.14148E+00         0.00000E+00
    0.00000E+00         0.00000E+00         0.12814E+04
 
    0.27552E+04        -0.39971E+03         0.00000E+00
   -0.39971E+03        -0.10335E+02         0.00000E+00
    0.00000E+00         0.00000E+00         0.82345E+03
 
    0.13092E+04        -0.43760E+03         0.00000E+00
   -0.43760E+03        -0.55472E+02         0.00000E+00
    0.00000E+00         0.00000E+00         0.37611E+03
 
   -0.22012E+02        -0.32311E+03         0.00000E+00
   -0.32311E+03        -0.15570E+03         0.00000E+00
    0.00000E+00         0.00000E+00        -0.53314E+02
 
   -0.12054E+04        -0.89323E+02         0.00000E+00
   -0.89323E+02        -0.32379E+03         0.00000E+00
    0.00000E+00         0.00000E+00        -0.45876E+03
 
   -0.22212E+04         0.22808E+03         0.00000E+00
    0.22808E+03        -0.56412E+03         0.00000E+00
    0.00000E+00         0.00000E+00        -0.83558E+03
 
   -0.30623E+04         0.59459E+03         0.00000E+00
    0.59459E+03        -0.87330E+03         0.00000E+00
    0.00000E+00         0.00000E+00        -0.11807E+04
 
   -0.37327E+04         0.97979E+03         0.00000E+00
    0.97979E+03        -0.12418E+04         0.00000E+00
    0.00000E+00         0.00000E+00        -0.14923E+04
 
   -0.42448E+04         0.13592E+04         0.00000E+00
    0.13592E+04        -0.16559E+04         0.00000E+00
    0.00000E+00         0.00000E+00        -0.17702E+04
 
   -0.46161E+04         0.17152E+04         0.00000E+00
    0.17152E+04        -0.21003E+04         0.00000E+00
    0.00000E+00         0.00000E+00        -0.20149E+04
 
   -0.48668E+04         0.20364E+04         0.00000E+00
    0.20364E+04        -0.25592E+04         0.00000E+00
    0.00000E+00         0.00000E+00        -0.22278E+04
 
   -0.50176E+04         0.23178E+04         0.00000E+00
    0.23178E+04        -0.30184E+04         0.00000E+00
    0.00000E+00         0.00000E+00        -0.24108E+04
 
   -0.50878E+04         0.25586E+04         0.00000E+00
    0.25586E+04        -0.34657E+04         0.00000E+00
    0.00000E+00         0.00000E+00        -0.25660E+04
 
   -0.50942E+04         0.27623E+04         0.00000E+00
    0.27623E+04        -0.38915E+04         0.00000E+00
    0.00000E+00         0.00000E+00        -0.26957E+04
 
   -0.50508E+04         0.29345E+04         0.00000E+00
    0.29345E+04        -0.42889E+04         0.00000E+00
    0.00000E+00         0.00000E+00        -0.28019E+04
 
   -0.49683E+04         0.30829E+04         0.00000E+00
    0.30829E+04        -0.46534E+04         0.00000E+00
    0.00000E+00         0.00000E+00        -0.28865E+04
 
   -0.48538E+04         0.32162E+04         0.00000E+00
    0.32162E+04        -0.49831E+04         0.00000E+00
    0.00000E+00         0.00000E+00        -0.29511E+04
 
   -0.47113E+04         0.33435E+04         0.00000E+00
    0.33435E+04        -0.52781E+04         0.00000E+00
    0.00000E+00         0.00000E+00        -0.29968E+04
 
   -0.45416E+04         0.34742E+04         0.00000E+00
    0.34742E+04        -0.55404E+04         0.00000E+00
    0.00000E+00         0.00000E+00        -0.30246E+04
 
   -0.43420E+04         0.36176E+04         0.00000E+00
    0.36176E+04        -0.57738E+04         0.00000E+00
    0.00000E+00         0.00000E+00        -0.30347E+04
 
   -0.41067E+04         0.37823E+04         0.00000E+00
    0.37823E+04        -0.59838E+04         0.00000E+00
    0.00000E+00         0.00000E+00        -0.30271E+04
 
   -0.38266E+04         0.39767E+04         0.00000E+00
    0.39767E+04        -0.61775E+04         0.00000E+00
    0.00000E+00         0.00000E+00        -0.30012E+04
 
   -0.34891E+04         0.42082E+04         0.00000E+00
    0.42082E+04        -0.63642E+04         0.00000E+00
    0.00000E+00         0.00000E+00        -0.29560E+04
 
   -0.30776E+04         0.44828E+04         0.00000E+00
    0.44828E+04        -0.65547E+04         0.00000E+00
    0.00000E+00         0.00000E+00        -0.28897E+04
 
    0.39544E+04        -0.18246E+03         0.00000E+00
   -0.18246E+03         0.80479E+00         0.00000E+00
    0.00000E+00         0.00000E+00         0.11866E+04
 
    0.26149E+04        -0.41783E+03         0.00000E+00
   -0.41783E+03        -0.41974E+01         0.00000E+00
    0.00000E+00         0.00000E+00         0.78322E+03
 
    0.13260E+04        -0.49573E+03         0.00000E+00
   -0.49573E+03        -0.34114E+02         0.00000E+00
    0.00000E+00         0.00000E+00         0.38757E+03
 
    0.12502E+03        -0.43697E+03         0.00000E+00
   -0.43697E+03        -0.10623E+03         0.00000E+00
    0.00000E+00         0.00000E+00         0.56367E+01
 
   -0.95923E+03        -0.26749E+03         0.00000E+00
   -0.26749E+03        -0.23215E+03         0.00000E+00
    0.00000E+00         0.00000E+00        -0.35742E+03
 
   -0.19078E+04        -0.15700E+02         0.00000E+00
   -0.15700E+02        -0.41717E+03         0.00000E+00
    0.00000E+00         0.00000E+00        -0.69749E+03
 
   -0.27116E+04         0.29026E+03         0.00000E+00
    0.29026E+03        -0.66047E+03         0.00000E+00
    0.00000E+00         0.00000E+00        -0.10116E+04
 
   -0.33703E+04         0.62478E+03         0.00000E+00
    0.62478E+03        -0.95616E+03         0.00000E+00
    0.00000E+00         0.00000E+00        -0.12979E+04
 
   -0.38908E+04         0.96633E+03         0.00000E+00
    0.96633E+03        -0.12947E+04         0.00000E+00
    0.00000E+00         0.00000E+00        -0.15556E+04
 
   -0.42847E+04         0.12984E+04         0.00000E+00
    0.12984E+04        -0.16643E+04         0.00000E+00
    0.00000E+00         0.00000E+00        -0.17847E+04
 
   -0.45667E+04         0.16095E+04         0.00000E+00
    0.16095E+04        -0.20527E+04         0.00000E+00
    0.00000E+00         0.00000E+00        -0.19858E+04
 
   -0.47524E+04         0.18930E+04         0.00000E+00
    0.18930E+04        -0.24479E+04         0.00000E+00
    0.00000E+00         0.00000E+00        -0.21601E+04
 
   -0.48571E+04         0.21465E+04         0.00000E+00
    0.21465E+04        -0.28393E+04         0.00000E+00
    0.00000E+00         0.00000E+00        -0.23089E+04
 
   -0.48947E+04         0.23707E+04         0.00000E+00
    0.23707E+04        -0.32182E+04         0.00000E+00
    0.00000E+00         0.00000E+00        -0.24339E+04
 
   -0.48768E+04         0.25693E+04         0.00000E+00
    0.25693E+04        -0.35779E+04         0.00000E+00
    0.00000E+00         0.00000E+00        -0.25364E+04
 
   -0.48127E+04         0.27475E+04         0.00000E+00
    0.27475E+04        -0.39137E+04         0.00000E+00
    0.00000E+00         0.00000E+00        -0.26179E+04
 
   -0.47087E+04         0.29117E+04         0.00000E+00
    0.29117E+04        -0.42231E+04         0.00000E+00
    0.00000E+00         0.00000E+00        -0.26795E+04
 
   -0.45684E+04         0.30694E+04         0.00000E+00
    0.30694E+04        -0.45055E+04         0.00000E+00
    0.00000E+00         0.00000E+00        -0.27222E+04
 
   -0.43924E+04         0.32279E+04         0.00000E+00
    0.32279E+04        -0.47622E+04         0.00000E+00
    0.00000E+00         0.00000E+00        -0.27464E+04
 
   -0.41782E+04         0.33948E+04         0.00000E+00
    0.33948E+04        -0.49961E+04         0.00000E+00
    0.00000E+00         0.00000E+00        -0.27523E+04
 
   -0.39208E+04         0.35772E+04         0.00000E+00
    0.35772E+04        -0.52119E+04         0.00000E+00
    0.00000E+00         0.00000E+00        -0.27398E+04
 
   -0.36116E+04         0.37817E+04         0.00000E+00
    0.37817E+04        -0.54160E+04         0.00000E+00
    0.00000E+00         0.00000E+00        -0.27083E+04
 
   -0.32390E+04         0.40136E+04         0.00000E+00
    0.40136E+04        -0.56164E+04         0.00000E+00
    0.00000E+00         0.00000E+00        -0.26566E+04
 
   -0.27882E+04         0.42772E+04         0.00000E+00
    0.42772E+04        -0.58231E+04         0.00000E+00
    0.00000E+00         0.00000E+00        -0.25834E+04
 
    0.36337E+04        -0.18041E+03         0.00000E+00
   -0.18041E+03         0.13691E+01         0.00000E+00
    0.00000E+00         0.00000E+00         0.10905E+04
 
    0.24494E+04        -0.42739E+03         0.00000E+00
   -0.42739E+03         0.81650E+00         0.00000E+00
    0.00000E+00         0.00000E+00         0.73506E+03
 
    0.13001E+04        -0.53497E+03         0.00000E+00
   -0.53497E+03        -0.16960E+02         0.00000E+00
    0.00000E+00         0.00000E+00         0.38495E+03
 
    0.21766E+03        -0.51957E+03         0.00000E+00
   -0.51957E+03        -0.66745E+02         0.00000E+00
    0.00000E+00         0.00000E+00         0.45275E+02
 
   -0.77268E+03        -0.40179E+03         0.00000E+00
   -0.40179E+03        -0.15905E+03         0.00000E+00
    0.00000E+00         0.00000E+00        -0.27952E+03
 
   -0.16531E+04        -0.20442E+03         0.00000E+00
   -0.20442E+03        -0.29952E+03         0.00000E+00
    0.00000E+00         0.00000E+00        -0.58579E+03
 
   -0.24135E+04         0.49506E+02         0.00000E+00
    0.49506E+02        -0.48902E+03         0.00000E+00
    0.00000E+00         0.00000E+00        -0.87076E+03
 
   -0.30508E+04         0.33846E+03         0.00000E+00
    0.33846E+03        -0.72424E+03         0.00000E+00
    0.00000E+00         0.00000E+00        -0.11325E+04
 
   -0.35679E+04         0.64372E+03         0.00000E+00
    0.64372E+03        -0.99862E+03         0.00000E+00
    0.00000E+00         0.00000E+00        -0.13699E+04
 
   -0.39719E+04         0.95022E+03         0.00000E+00
    0.95022E+03        -0.13035E+04         0.00000E+00
    0.00000E+00         0.00000E+00        -0.15826E+04
 
   -0.42732E+04         0.12468E+04         0.00000E+00
    0.12468E+04        -0.16293E+04         0.00000E+00
    0.00000E+00         0.00000E+00        -0.17707E+04
 
   -0.44832E+04         0.15262E+04         0.00000E+00
    0.15262E+04        -0.19662E+04         0.00000E+00
    0.00000E+00         0.00000E+00        -0.19348E+04
 
   -0.46136E+04         0.17847E+04         0.00000E+00
    0.17847E+04        -0.23054E+04         0.00000E+00
    0.00000E+00         0.00000E+00        -0.20757E+04
 
   -0.46756E+04         0.20213E+04         0.00000E+00
    0.20213E+04        -0.26390E+04         0.00000E+00
    0.00000E+00         0.00000E+00        -0.21944E+04
 
   -0.46787E+04         0.22379E+04         0.00000E+00
    0.22379E+04        -0.29608E+04         0.00000E+00
    0.00000E+00         0.00000E+00        -0.22919E+04
 
   -0.46305E+04         0.24376E+04         0.00000E+00
    0.24376E+04        -0.32664E+04         0.00000E+00
    0.00000E+00         0.00000E+00        -0.23691E+04
 
   -0.45365E+04         0.26252E+04         0.00000E+00
    0.26252E+04        -0.35531E+04         0.00000E+00
    0.00000E+00         0.00000E+00        -0.24269E+04
 
   -0.43996E+04         0.28061E+04         0.00000E+00
    0.28061E+04        -0.38198E+04         0.00000E+00
    0.00000E+00         0.00000E+00        -0.24658E+04
 
   -0.42202E+04         0.29861E+04         0.00000E+00
    0.29861E+04        -0.40672E+04         0.00000E+00
    0.00000E+00         0.00000E+00        -0.24862E+04
 
   -0.39963E+04         0.31710E+04         0.00000E+00
    0.31710E+04        -0.42975E+04         0.00000E+00
    0.00000E+00         0.00000E+00        -0.24882E+04
 
   -0.37230E+04         0.33663E+04         0.00000E+00
    0.33663E+04        -0.45149E+04         0.00000E+00
    0.00000E+00         0.00000E+00        -0.24714E+04
 
   -0.33927E+04         0.35769E+04         0.00000E+00
    0.35769E+04        -0.47246E+04         0.00000E+00
    0.00000E+00         0.00000E+00        -0.24352E+04
 
   -0.29951E+04         0.38065E+04         0.00000E+00
    0.38065E+04        -0.49338E+04         0.00000E+00
    0.00000E+00         0.00000E+00        -0.23787E+04
 
   -0.25169E+04         0.40576E+04         0.00000E+00
    0.40576E+04        -0.51514E+04         0.00000E+00
    0.00000E+00         0.00000E+00        -0.23005E+04
 
    0.33135E+04        -0.17690E+03         0.00000E+00
   -0.17690E+03         0.18453E+01         0.00000E+00
    0.00000E+00         0.00000E+00         0.99460E+03
 
    0.22663E+04        -0.43004E+03         0.00000E+00
   -0.43004E+03         0.49241E+01         0.00000E+00
    0.00000E+00         0.00000E+00         0.68137E+03
 
    0.12418E+04        -0.55911E+03         0.00000E+00
   -0.55911E+03        -0.30894E+01         0.00000E+00
    0.00000E+00         0.00000E+00         0.37162E+03
 
    0.26735E+03        -0.57722E+03         0.00000E+00
   -0.57722E+03        -0.34987E+02         0.00000E+00
    0.00000E+00         0.00000E+00         0.69708E+02
 
   -0.63472E+03        -0.50085E+03         0.00000E+00
   -0.50085E+03        -0.10027E+03         0.00000E+00
    0.00000E+00         0.00000E+00        -0.22049E+03
 
   -0.14478E+04        -0.34842E+03         0.00000E+00
   -0.34842E+03        -0.20465E+03         0.00000E+00
    0.00000E+00         0.00000E+00        -0.49574E+03
 
   -0.21614E+04        -0.13888E+03         0.00000E+00
   -0.13888E+03        -0.35008E+03         0.00000E+00
    0.00000E+00         0.00000E+00        -0.75344E+03
 
   -0.27706E+04         0.10970E+03         0.00000E+00
    0.10970E+03        -0.53505E+03         0.00000E+00
    0.00000E+00         0.00000E+00        -0.99169E+03
 
   -0.32755E+04         0.38113E+03         0.00000E+00
    0.38113E+03        -0.75526E+03         0.00000E+00
    0.00000E+00         0.00000E+00        -0.12092E+04
 
   -0.36800E+04         0.66190E+03         0.00000E+00
    0.66190E+03        -0.10045E+04         0.00000E+00
    0.00000E+00         0.00000E+00        -0.14053E+04
 
   -0.39907E+04         0.94147E+03         0.00000E+00
    0.94147E+03        -0.12753E+04         0.00000E+00
    0.00000E+00         0.00000E+00        -0.15798E+04
 
   -0.42160E+04         0.12124E+04         0.00000E+00
    0.12124E+04        -0.15600E+04         0.00000E+00
    0.00000E+00         0.00000E+00        -0.17328E+04
 
   -0.43644E+04         0.14702E+04         0.00000E+00
    0.14702E+04        -0.18512E+04         0.00000E+00
    0.00000E+00         0.00000E+00        -0.18647E+04
 
   -0.44447E+04         0.17127E+04         0.00000E+00
    0.17127E+04        -0.21422E+04         0.00000E+00
    0.00000E+00         0.00000E+00        -0.19761E+04
 
   -0.44642E+04         0.19403E+04         0.00000E+00
    0.19403E+04        -0.24275E+04         0.00000E+00
    0.00000E+00         0.00000E+00        -0.20675E+04
 
   -0.44293E+04         0.21546E+04         0.00000E+00
    0.21546E+04        -0.27029E+04         0.00000E+00
    0.00000E+00         0.00000E+00        -0.21396E+04
 
   -0.43441E+04         0.23587E+04         0.00000E+00
    0.23587E+04        -0.29657E+04         0.00000E+00
    0.00000E+00         0.00000E+00        -0.21930E+04
 
   -0.42113E+04         0.25564E+04         0.00000E+00
    0.25564E+04        -0.32148E+04         0.00000E+00
    0.00000E+00         0.00000E+00        -0.22278E+04
 
   -0.40310E+04         0.27520E+04         0.00000E+00
    0.27520E+04        -0.34504E+04         0.00000E+00
    0.00000E+00         0.00000E+00        -0.22444E+04
 
   -0.38011E+04         0.29497E+04         0.00000E+00
    0.29497E+04        -0.36742E+04         0.00000E+00
    0.00000E+00         0.00000E+00        -0.22426E+04
 
   -0.35175E+04         0.31535E+04         0.00000E+00
    0.31535E+04        -0.38895E+04         0.00000E+00
    0.00000E+00         0.00000E+00        -0.22221E+04
 
   -0.31733E+04         0.33667E+04         0.00000E+00
    0.33667E+04        -0.41011E+04         0.00000E+00
    0.00000E+00         0.00000E+00        -0.21823E+04
 
   -0.27594E+04         0.35916E+04         0.00000E+00
    0.35916E+04        -0.43150E+04         0.00000E+00
    0.00000E+00         0.00000E+00        -0.21223E+04
 
   -0.22642E+04         0.38289E+04         0.00000E+00
    0.38289E+04        -0.45388E+04         0.00000E+00
    0.00000E+00         0.00000E+00        -0.20409E+04
 
    0.29973E+04        -0.17217E+03         0.00000E+00
   -0.17217E+03         0.22415E+01         0.00000E+00
    0.00000E+00         0.00000E+00         0.89987E+03
 
    0.20719E+04        -0.42709E+03         0.00000E+00
   -0.42709E+03         0.82788E+01         0.00000E+00
    0.00000E+00         0.00000E+00         0.62406E+03
 
    0.11593E+04        -0.57112E+03         0.00000E+00
   -0.57112E+03         0.81422E+01         0.00000E+00
    0.00000E+00         0.00000E+00         0.35024E+03
 
    0.28331E+03        -0.61481E+03         0.00000E+00
   -0.61481E+03        -0.93509E+01         0.00000E+00
    0.00000E+00         0.00000E+00         0.82186E+02
 
   -0.53620E+03        -0.57142E+03         0.00000E+00
   -0.57142E+03        -0.52802E+02         0.00000E+00
    0.00000E+00         0.00000E+00        -0.17670E+03
 
   -0.12838E+04        -0.45597E+03         0.00000E+00
   -0.45597E+03        -0.12785E+03         0.00000E+00
    0.00000E+00         0.00000E+00        -0.42350E+03
 
   -0.19490E+04        -0.28405E+03         0.00000E+00
   -0.28405E+03        -0.23709E+03         0.00000E+00
    0.00000E+00         0.00000E+00        -0.65583E+03
 
   -0.25257E+04        -0.70892E+02         0.00000E+00
   -0.70892E+02        -0.38029E+03         0.00000E+00
    0.00000E+00         0.00000E+00        -0.87181E+03
 
   -0.30121E+04         0.16958E+03         0.00000E+00
    0.16958E+03        -0.55488E+03         0.00000E+00
    0.00000E+00         0.00000E+00        -0.10701E+04
 
   -0.34096E+04         0.42536E+03         0.00000E+00
    0.42536E+03        -0.75646E+03         0.00000E+00
    0.00000E+00         0.00000E+00        -0.12498E+04
 
   -0.37221E+04         0.68669E+03         0.00000E+00
    0.68669E+03        -0.97951E+03         0.00000E+00
    0.00000E+00         0.00000E+00        -0.14105E+04
 
   -0.39551E+04         0.94628E+03         0.00000E+00
    0.94628E+03        -0.12180E+04         0.00000E+00
    0.00000E+00         0.00000E+00        -0.15519E+04
 
   -0.41149E+04         0.11992E+04         0.00000E+00
    0.11992E+04        -0.14659E+04         0.00000E+00
    0.00000E+00         0.00000E+00        -0.16742E+04
 
   -0.42078E+04         0.14425E+04         0.00000E+00
    0.14425E+04        -0.17176E+04         0.00000E+00
    0.00000E+00         0.00000E+00        -0.17776E+04
 
   -0.42397E+04         0.16755E+04         0.00000E+00
    0.16755E+04        -0.19684E+04         0.00000E+00
    0.00000E+00         0.00000E+00        -0.18624E+04
 
   -0.42152E+04         0.18985E+04         0.00000E+00
    0.18985E+04        -0.22146E+04         0.00000E+00
    0.00000E+00         0.00000E+00        -0.19289E+04
 
   -0.41379E+04         0.21132E+04         0.00000E+00
    0.21132E+04        -0.24536E+04         0.00000E+00
    0.00000E+00         0.00000E+00        -0.19774E+04
 
   -0.40094E+04         0.23222E+04         0.00000E+00
    0.23222E+04        -0.26842E+04         0.00000E+00
    0.00000E+00         0.00000E+00        -0.20081E+04
 
   -0.38299E+04         0.25281E+04         0.00000E+00
    0.25281E+04        -0.29063E+04         0.00000E+00
    0.00000E+00         0.00000E+00        -0.20209E+04
 
   -0.35974E+04         0.27339E+04         0.00000E+00
    0.27339E+04        -0.31214E+04         0.00000E+00
    0.00000E+00         0.00000E+00        -0.20156E+04
 
   -0.33081E+04         0.29422E+04         0.00000E+00
    0.29422E+04        -0.33321E+04         0.00000E+00
    0.00000E+00         0.00000E+00        -0.19920E+04
 
   -0.29561E+04         0.31549E+04         0.00000E+00
    0.31549E+04        -0.35423E+04         0.00000E+00
    0.00000E+00         0.00000E+00        -0.19495E+04
 
   -0.25335E+04         0.33729E+04         0.00000E+00
    0.33729E+04        -0.37573E+04         0.00000E+00
    0.00000E+00         0.00000E+00        -0.18872E+04
 
   -0.20303E+04         0.35958E+04         0.00000E+00
    0.35958E+04        -0.39834E+04         0.00000E+00
    0.00000E+00         0.00000E+00        -0.18041E+04
 
    0.26880E+04        -0.16644E+03         0.00000E+00
   -0.16644E+03         0.25647E+01         0.00000E+00
    0.00000E+00         0.00000E+00         0.80716E+03
 
    0.18712E+04        -0.41960E+03         0.00000E+00
   -0.41960E+03         0.10994E+02         0.00000E+00
    0.00000E+00         0.00000E+00         0.56465E+03
 
    0.10592E+04        -0.57336E+03         0.00000E+00
   -0.57336E+03         0.17205E+02         0.00000E+00
    0.00000E+00         0.00000E+00         0.32293E+03
 
    0.27303E+03        -0.63621E+03         0.00000E+00
   -0.63621E+03         0.11327E+02         0.00000E+00
    0.00000E+00         0.00000E+00         0.85308E+02
 
   -0.46955E+03        -0.61891E+03         0.00000E+00
   -0.61891E+03        -0.14456E+02         0.00000E+00
    0.00000E+00         0.00000E+00        -0.14520E+03
 
   -0.11543E+04        -0.53371E+03         0.00000E+00
   -0.53371E+03        -0.65595E+02         0.00000E+00
    0.00000E+00         0.00000E+00        -0.36596E+03
 
   -0.17708E+04        -0.39355E+03         0.00000E+00
   -0.39355E+03        -0.14509E+03         0.00000E+00
    0.00000E+00         0.00000E+00        -0.57476E+03
 
   -0.23124E+04        -0.21123E+03         0.00000E+00
   -0.21123E+03        -0.25363E+03         0.00000E+00
    0.00000E+00         0.00000E+00        -0.76980E+03
 
   -0.27758E+04         0.12645E+01         0.00000E+00
    0.12645E+01        -0.38988E+03         0.00000E+00
    0.00000E+00         0.00000E+00        -0.94970E+03
 
   -0.31607E+04         0.23333E+03         0.00000E+00
    0.23333E+03        -0.55091E+03         0.00000E+00
    0.00000E+00         0.00000E+00        -0.11135E+04
 
   -0.34688E+04         0.47609E+03         0.00000E+00
    0.47609E+03        -0.73271E+03         0.00000E+00
    0.00000E+00         0.00000E+00        -0.12604E+04
 
   -0.37035E+04         0.72252E+03         0.00000E+00
    0.72252E+03        -0.93065E+03         0.00000E+00
    0.00000E+00         0.00000E+00        -0.13903E+04
 
   -0.38691E+04         0.96753E+03         0.00000E+00
    0.96753E+03        -0.11400E+04         0.00000E+00
    0.00000E+00         0.00000E+00        -0.15027E+04
 
   -0.39700E+04         0.12078E+04         0.00000E+00
    0.12078E+04        -0.13561E+04         0.00000E+00
    0.00000E+00         0.00000E+00        -0.15978E+04
 
   -0.40104E+04         0.14416E+04         0.00000E+00
    0.14416E+04        -0.15750E+04         0.00000E+00
    0.00000E+00         0.00000E+00        -0.16756E+04
 
   -0.39939E+04         0.16684E+04         0.00000E+00
    0.16684E+04        -0.17935E+04         0.00000E+00
    0.00000E+00         0.00000E+00        -0.17362E+04
 
   -0.39230E+04         0.18888E+04         0.00000E+00
    0.18888E+04        -0.20094E+04         0.00000E+00
    0.00000E+00         0.00000E+00        -0.17797E+04
 
   -0.37989E+04         0.21041E+04         0.00000E+00
    0.21041E+04        -0.22213E+04         0.00000E+00
    0.00000E+00         0.00000E+00        -0.18061E+04
 
   -0.36216E+04         0.23158E+04         0.00000E+00
    0.23158E+04        -0.24292E+04         0.00000E+00
    0.00000E+00         0.00000E+00        -0.18152E+04
 
   -0.33891E+04         0.25256E+04         0.00000E+00
    0.25256E+04        -0.26341E+04         0.00000E+00
    0.00000E+00         0.00000E+00        -0.18069E+04
 
   -0.30981E+04         0.27349E+04         0.00000E+00
    0.27349E+04        -0.28381E+04         0.00000E+00
    0.00000E+00         0.00000E+00        -0.17808E+04
 
   -0.27435E+04         0.29444E+04         0.00000E+00
    0.29444E+04        -0.30445E+04         0.00000E+00
    0.00000E+00         0.00000E+00        -0.17364E+04
 
   -0.23186E+04         0.31539E+04         0.00000E+00
    0.31539E+04        -0.32576E+04         0.00000E+00
    0.00000E+00         0.00000E+00        -0.16729E+04
 
   -0.18150E+04         0.33619E+04         0.00000E+00
    0.33619E+04        -0.34827E+04         0.00000E+00
    0.00000E+00         0.00000E+00        -0.15893E+04
 
    0.23877E+04        -0.15989E+03         0.00000E+00
   -0.15989E+03         0.28210E+01         0.00000E+00
    0.00000E+00         0.00000E+00         0.71716E+03
 
    0.16681E+04        -0.40846E+03         0.00000E+00
   -0.40846E+03         0.13158E+02         0.00000E+00
    0.00000E+00         0.00000E+00         0.50437E+03
 
    0.94685E+03        -0.56773E+03         0.00000E+00
   -0.56773E+03         0.24453E+02         0.00000E+00
    0.00000E+00         0.00000E+00         0.29139E+03
 
    0.24264E+03        -0.64455E+03         0.00000E+00
   -0.64455E+03         0.27920E+02         0.00000E+00
    0.00000E+00         0.00000E+00         0.81167E+02
 
   -0.42847E+03        -0.64765E+03         0.00000E+00
   -0.64765E+03         0.16430E+02         0.00000E+00
    0.00000E+00         0.00000E+00        -0.12361E+03
 
   -0.10533E+04        -0.58708E+03         0.00000E+00
   -0.58708E+03        -0.15238E+02         0.00000E+00
    0.00000E+00         0.00000E+00        -0.32056E+03
 
   -0.16218E+04        -0.47360E+03         0.00000E+00
   -0.47360E+03        -0.70316E+02         0.00000E+00
    0.00000E+00         0.00000E+00        -0.50763E+03
 
   -0.21268E+04        -0.31800E+03         0.00000E+00
   -0.31800E+03        -0.15012E+03         0.00000E+00
    0.00000E+00         0.00000E+00        -0.68309E+03
 
   -0.25643E+04        -0.13057E+03         0.00000E+00
   -0.13057E+03        -0.25424E+03         0.00000E+00
    0.00000E+00         0.00000E+00        -0.84558E+03
 
   -0.29325E+04         0.79361E+02         0.00000E+00
    0.79361E+02        -0.38092E+03         0.00000E+00
    0.00000E+00         0.00000E+00        -0.99403E+03
 
   -0.32316E+04         0.30376E+03         0.00000E+00
    0.30376E+03        -0.52732E+03         0.00000E+00
    0.00000E+00         0.00000E+00        -0.11277E+04
 
   -0.34632E+04         0.53602E+03         0.00000E+00
    0.53602E+03        -0.69001E+03         0.00000E+00
    0.00000E+00         0.00000E+00        -0.12460E+04
 
   -0.36300E+04         0.77108E+03         0.00000E+00
    0.77108E+03        -0.86529E+03         0.00000E+00
    0.00000E+00         0.00000E+00        -0.13486E+04
 
   -0.37348E+04         0.10053E+04         0.00000E+00
    0.10053E+04        -0.10495E+04         0.00000E+00
    0.00000E+00         0.00000E+00        -0.14353E+04
 
   -0.37806E+04         0.12364E+04         0.00000E+00
    0.12364E+04        -0.12394E+04         0.00000E+00
    0.00000E+00         0.00000E+00        -0.15060E+04
 
   -0.37698E+04         0.14630E+04         0.00000E+00
    0.14630E+04        -0.14323E+04         0.00000E+00
    0.00000E+00         0.00000E+00        -0.15606E+04
 
   -0.37041E+04         0.16850E+04         0.00000E+00
    0.16850E+04        -0.16261E+04         0.00000E+00
    0.00000E+00         0.00000E+00        -0.15991E+04
 
   -0.35844E+04         0.19025E+04         0.00000E+00
    0.19025E+04        -0.18198E+04         0.00000E+00
    0.00000E+00         0.00000E+00        -0.16212E+04
 
   -0.34101E+04         0.21161E+04         0.00000E+00
    0.21161E+04        -0.20131E+04         0.00000E+00
    0.00000E+00         0.00000E+00        -0.16270E+04
 
   -0.31798E+04         0.23264E+04         0.00000E+00
    0.23264E+04        -0.22069E+04         0.00000E+00
    0.00000E+00         0.00000E+00        -0.16160E+04
 
   -0.28904E+04         0.25337E+04         0.00000E+00
    0.25337E+04        -0.24027E+04         0.00000E+00
    0.00000E+00         0.00000E+00        -0.15879E+04
 
   -0.25376E+04         0.27378E+04         0.00000E+00
    0.27378E+04        -0.26033E+04         0.00000E+00
    0.00000E+00         0.00000E+00        -0.15423E+04
 
   -0.21157E+04         0.29375E+04         0.00000E+00
    0.29375E+04        -0.28123E+04         0.00000E+00
    0.00000E+00         0.00000E+00        -0.14784E+04
 
   -0.16180E+04         0.31304E+04         0.00000E+00
    0.31304E+04        -0.30338E+04         0.00000E+00
    0.00000E+00         0.00000E+00        -0.13955E+04
 
    0.20984E+04        -0.15272E+03         0.00000E+00
   -0.15272E+03         0.30163E+01         0.00000E+00
    0.00000E+00         0.00000E+00         0.63043E+03
 
    0.14658E+04        -0.39444E+03         0.00000E+00
   -0.39444E+03         0.14843E+02         0.00000E+00
    0.00000E+00         0.00000E+00         0.44419E+03
 
    0.82649E+03        -0.55582E+03         0.00000E+00
   -0.55582E+03         0.30164E+02         0.00000E+00
    0.00000E+00         0.00000E+00         0.25700E+03
 
    0.19711E+03        -0.64238E+03         0.00000E+00
   -0.64238E+03         0.41102E+02         0.00000E+00
    0.00000E+00         0.00000E+00         0.71464E+02
 
   -0.40776E+03        -0.66119E+03         0.00000E+00
   -0.66119E+03         0.41131E+02         0.00000E+00
    0.00000E+00         0.00000E+00        -0.10999E+03
 
   -0.97590E+03        -0.62055E+03         0.00000E+00
   -0.62055E+03         0.25281E+02         0.00000E+00
    0.00000E+00         0.00000E+00        -0.28518E+03
 
   -0.14976E+04        -0.52940E+03         0.00000E+00
   -0.52940E+03        -0.97911E+01         0.00000E+00
    0.00000E+00         0.00000E+00        -0.45222E+03
 
   -0.19658E+04        -0.39685E+03         0.00000E+00
   -0.39685E+03        -0.65834E+02         0.00000E+00
    0.00000E+00         0.00000E+00        -0.60948E+03
 
   -0.23755E+04        -0.23174E+03         0.00000E+00
   -0.23174E+03        -0.14315E+03         0.00000E+00
    0.00000E+00         0.00000E+00        -0.75560E+03
 
   -0.27241E+04        -0.42255E+02         0.00000E+00
   -0.42255E+02        -0.24084E+03         0.00000E+00
    0.00000E+00         0.00000E+00        -0.88949E+03
 
   -0.30107E+04         0.16437E+03         0.00000E+00
    0.16437E+03        -0.35704E+03         0.00000E+00
    0.00000E+00         0.00000E+00        -0.10103E+04
 
   -0.32355E+04         0.38201E+03         0.00000E+00
    0.38201E+03        -0.48931E+03         0.00000E+00
    0.00000E+00         0.00000E+00        -0.11174E+04
 
   -0.33998E+04         0.60572E+03         0.00000E+00
    0.60572E+03        -0.63484E+03         0.00000E+00
    0.00000E+00         0.00000E+00        -0.12104E+04
 
   -0.35052E+04         0.83172E+03         0.00000E+00
    0.83172E+03        -0.79080E+03         0.00000E+00
    0.00000E+00         0.00000E+00        -0.12888E+04
 
   -0.35536E+04         0.10573E+04         0.00000E+00
    0.10573E+04        -0.95458E+03         0.00000E+00
    0.00000E+00         0.00000E+00        -0.13525E+04
 
   -0.35465E+04         0.12807E+04         0.00000E+00
    0.12807E+04        -0.11239E+04         0.00000E+00
    0.00000E+00         0.00000E+00        -0.14011E+04
 
   -0.34850E+04         0.15008E+04         0.00000E+00
    0.15008E+04        -0.12972E+04         0.00000E+00
    0.00000E+00         0.00000E+00        -0.14347E+04
 
   -0.33693E+04         0.17171E+04         0.00000E+00
    0.17171E+04        -0.14734E+04         0.00000E+00
    0.00000E+00         0.00000E+00        -0.14528E+04
 
   -0.31990E+04         0.19293E+04         0.00000E+00
    0.19293E+04        -0.16523E+04         0.00000E+00
    0.00000E+00         0.00000E+00        -0.14554E+04
 
   -0.29726E+04         0.21371E+04         0.00000E+00
    0.21371E+04        -0.18345E+04         0.00000E+00
    0.00000E+00         0.00000E+00        -0.14421E+04
 
   -0.26874E+04         0.23400E+04         0.00000E+00
    0.23400E+04        -0.20212E+04         0.00000E+00
    0.00000E+00         0.00000E+00        -0.14126E+04
 
   -0.23399E+04         0.25368E+04         0.00000E+00
    0.25368E+04        -0.22146E+04         0.00000E+00
    0.00000E+00         0.00000E+00        -0.13663E+04
 
   -0.19254E+04         0.27258E+04         0.00000E+00
    0.27258E+04        -0.24174E+04         0.00000E+00
    0.00000E+00         0.00000E+00        -0.13029E+04
 
   -0.14386E+04         0.29037E+04         0.00000E+00
    0.29037E+04        -0.26332E+04         0.00000E+00
    0.00000E+00         0.00000E+00        -0.12216E+04
 
    0.18215E+04        -0.14507E+03         0.00000E+00
   -0.14507E+03         0.31565E+01         0.00000E+00
    0.00000E+00         0.00000E+00         0.54739E+03
 
    0.12669E+04        -0.37817E+03         0.00000E+00
   -0.37817E+03         0.16110E+02         0.00000E+00
    0.00000E+00         0.00000E+00         0.38491E+03
 
    0.70161E+03        -0.53895E+03         0.00000E+00
   -0.53895E+03         0.34563E+02         0.00000E+00
    0.00000E+00         0.00000E+00         0.22085E+03
 
    0.14053E+03        -0.63180E+03         0.00000E+00
   -0.63180E+03         0.51410E+02         0.00000E+00
    0.00000E+00         0.00000E+00         0.57582E+02
 
   -0.40307E+03        -0.66249E+03         0.00000E+00
   -0.66249E+03         0.60658E+02         0.00000E+00
    0.00000E+00         0.00000E+00        -0.10272E+03
 
   -0.91785E+03        -0.63783E+03         0.00000E+00
   -0.63783E+03         0.57592E+02         0.00000E+00
    0.00000E+00         0.00000E+00        -0.25808E+03
 
   -0.13946E+04        -0.56528E+03         0.00000E+00
   -0.56528E+03         0.38840E+02         0.00000E+00
    0.00000E+00         0.00000E+00        -0.40672E+03
 
   -0.18260E+04        -0.45255E+03         0.00000E+00
   -0.45255E+03         0.23566E+01         0.00000E+00
    0.00000E+00         0.00000E+00        -0.54710E+03
 
   -0.22071E+04        -0.30724E+03         0.00000E+00
   -0.30724E+03        -0.52678E+02         0.00000E+00
    0.00000E+00         0.00000E+00        -0.67793E+03
 
   -0.25343E+04        -0.13650E+03         0.00000E+00
   -0.13650E+03        -0.12603E+03         0.00000E+00
    0.00000E+00         0.00000E+00        -0.79811E+03
 
   -0.28059E+04         0.53171E+02         0.00000E+00
    0.53171E+02        -0.21663E+03         0.00000E+00
    0.00000E+00         0.00000E+00        -0.90675E+03
 
   -0.30210E+04         0.25612E+03         0.00000E+00
    0.25612E+03        -0.32280E+03         0.00000E+00
    0.00000E+00         0.00000E+00        -0.10032E+04
 
   -0.31800E+04         0.46762E+03         0.00000E+00
    0.46762E+03        -0.44252E+03         0.00000E+00
    0.00000E+00         0.00000E+00        -0.10868E+04
 
   -0.32834E+04         0.68385E+03         0.00000E+00
    0.68385E+03        -0.57366E+03         0.00000E+00
    0.00000E+00         0.00000E+00        -0.11571E+04
 
   -0.33322E+04         0.90185E+03         0.00000E+00
    0.90185E+03        -0.71417E+03         0.00000E+00
    0.00000E+00         0.00000E+00        -0.12139E+04
 
   -0.33271E+04         0.11194E+04         0.00000E+00
    0.11194E+04        -0.86227E+03         0.00000E+00
    0.00000E+00         0.00000E+00        -0.12568E+04
 
   -0.32687E+04         0.13350E+04         0.00000E+00
    0.13350E+04        -0.10166E+04         0.00000E+00
    0.00000E+00         0.00000E+00        -0.12856E+04
 
   -0.31569E+04         0.15473E+04         0.00000E+00
    0.15473E+04        -0.11763E+04         0.00000E+00
    0.00000E+00         0.00000E+00        -0.13000E+04
 
   -0.29910E+04         0.17554E+04         0.00000E+00
    0.17554E+04        -0.13412E+04         0.00000E+00
    0.00000E+00         0.00000E+00        -0.12997E+04
 
   -0.27698E+04         0.19583E+04         0.00000E+00
    0.19583E+04        -0.15116E+04         0.00000E+00
    0.00000E+00         0.00000E+00        -0.12844E+04
 
   -0.24910E+04         0.21548E+04         0.00000E+00
    0.21548E+04        -0.16885E+04         0.00000E+00
    0.00000E+00         0.00000E+00        -0.12538E+04
 
   -0.21516E+04         0.23430E+04         0.00000E+00
    0.23430E+04        -0.18737E+04         0.00000E+00
    0.00000E+00         0.00000E+00        -0.12076E+04
 
   -0.17480E+04         0.25206E+04         0.00000E+00
    0.25206E+04        -0.20691E+04         0.00000E+00
    0.00000E+00         0.00000E+00        -0.11451E+04
 
   -0.12760E+04         0.26839E+04         0.00000E+00
    0.26839E+04        -0.22775E+04         0.00000E+00
    0.00000E+00         0.00000E+00        -0.10661E+04
 
    0.15580E+04        -0.13709E+03         0.00000E+00
   -0.13709E+03         0.32472E+01         0.00000E+00
    0.00000E+00         0.00000E+00         0.46837E+03
 
    0.10735E+04        -0.36020E+03         0.00000E+00
   -0.36020E+03         0.17012E+02         0.00000E+00
    0.00000E+00         0.00000E+00         0.32714E+03
 
    0.57503E+03        -0.51821E+03         0.00000E+00
   -0.51821E+03         0.37838E+02         0.00000E+00
    0.00000E+00         0.00000E+00         0.18386E+03
 
    0.76234E+02        -0.61458E+03         0.00000E+00
   -0.61458E+03         0.59283E+02         0.00000E+00
    0.00000E+00         0.00000E+00         0.40655E+02
 
   -0.41082E+03        -0.65397E+03         0.00000E+00
   -0.65397E+03         0.75830E+02         0.00000E+00
    0.00000E+00         0.00000E+00        -0.10050E+03
 
   -0.87562E+03        -0.64200E+03         0.00000E+00
   -0.64200E+03         0.83016E+02         0.00000E+00
    0.00000E+00         0.00000E+00        -0.23778E+03
 
   -0.13093E+04        -0.58489E+03         0.00000E+00
   -0.58489E+03         0.77492E+02         0.00000E+00
    0.00000E+00         0.00000E+00        -0.36956E+03
 
   -0.17050E+04        -0.48916E+03         0.00000E+00
   -0.48916E+03         0.57024E+02         0.00000E+00
    0.00000E+00         0.00000E+00        -0.49438E+03
 
   -0.20571E+04        -0.36135E+03         0.00000E+00
   -0.36135E+03         0.20413E+02         0.00000E+00
    0.00000E+00         0.00000E+00        -0.61099E+03
 
   -0.23618E+04        -0.20772E+03         0.00000E+00
   -0.20772E+03        -0.32624E+02         0.00000E+00
    0.00000E+00         0.00000E+00        -0.71832E+03
 
   -0.26166E+04        -0.34073E+02         0.00000E+00
   -0.34073E+02        -0.10162E+03         0.00000E+00
    0.00000E+00         0.00000E+00        -0.81547E+03
 
   -0.28201E+04         0.15440E+03         0.00000E+00
    0.15440E+03        -0.18556E+03         0.00000E+00
    0.00000E+00         0.00000E+00        -0.90170E+03
 
   -0.29716E+04         0.35322E+03         0.00000E+00
    0.35322E+03        -0.28305E+03         0.00000E+00
    0.00000E+00         0.00000E+00        -0.97639E+03
 
   -0.30709E+04         0.55861E+03         0.00000E+00
    0.55861E+03        -0.39255E+03         0.00000E+00
    0.00000E+00         0.00000E+00        -0.10390E+04
 
   -0.31183E+04         0.76748E+03         0.00000E+00
    0.76748E+03        -0.51251E+03         0.00000E+00
    0.00000E+00         0.00000E+00        -0.10892E+04
 
   -0.31139E+04         0.97734E+03         0.00000E+00
    0.97734E+03        -0.64156E+03         0.00000E+00
    0.00000E+00         0.00000E+00        -0.11266E+04
 
   -0.30577E+04         0.11862E+04         0.00000E+00
    0.11862E+04        -0.77863E+03         0.00000E+00
    0.00000E+00         0.00000E+00        -0.11509E+04
 
   -0.29495E+04         0.13923E+04         0.00000E+00
    0.13923E+04        -0.92301E+03         0.00000E+00
    0.00000E+00         0.00000E+00        -0.11618E+04
 
   -0.27885E+04         0.15942E+04         0.00000E+00
    0.15942E+04        -0.10745E+04         0.00000E+00
    0.00000E+00         0.00000E+00        -0.11589E+04
 
   -0.25735E+04         0.17903E+04         0.00000E+00
    0.17903E+04        -0.12332E+04         0.00000E+00
    0.00000E+00         0.00000E+00        -0.11420E+04
 
   -0.23027E+04         0.19788E+04         0.00000E+00
    0.19788E+04        -0.14001E+04         0.00000E+00
    0.00000E+00         0.00000E+00        -0.11108E+04
 
   -0.19736E+04         0.21574E+04         0.00000E+00
    0.21574E+04        -0.15762E+04         0.00000E+00
    0.00000E+00         0.00000E+00        -0.10650E+04
 
   -0.15835E+04         0.23232E+04         0.00000E+00
    0.23232E+04        -0.17633E+04         0.00000E+00
    0.00000E+00         0.00000E+00        -0.10040E+04
 
   -0.11293E+04         0.24724E+04         0.00000E+00
    0.24724E+04        -0.19631E+04         0.00000E+00
    0.00000E+00         0.00000E+00        -0.92772E+03
 
    0.13087E+04        -0.12891E+03         0.00000E+00
   -0.12891E+03         0.32940E+01         0.00000E+00
    0.00000E+00         0.00000E+00         0.39360E+03
 
    0.88699E+03        -0.34102E+03         0.00000E+00
   -0.34102E+03         0.17598E+02         0.00000E+00
    0.00000E+00         0.00000E+00         0.27138E+03
 
    0.44898E+03        -0.49455E+03         0.00000E+00
   -0.49455E+03         0.40151E+02         0.00000E+00
    0.00000E+00         0.00000E+00         0.14674E+03
 
    0.69425E+01        -0.59219E+03         0.00000E+00
   -0.59219E+03         0.65091E+02         0.00000E+00
    0.00000E+00         0.00000E+00         0.21610E+02
 
   -0.42804E+03        -0.63769E+03         0.00000E+00
   -0.63769E+03         0.87326E+02         0.00000E+00
    0.00000E+00         0.00000E+00        -0.10221E+03
 
   -0.84618E+03        -0.63565E+03         0.00000E+00
   -0.63565E+03         0.10264E+03         0.00000E+00
    0.00000E+00         0.00000E+00        -0.22306E+03
 
   -0.12392E+04        -0.59129E+03         0.00000E+00
   -0.59129E+03         0.10775E+03         0.00000E+00
    0.00000E+00         0.00000E+00        -0.33942E+03
 
   -0.16001E+04        -0.51011E+03         0.00000E+00
   -0.51011E+03         0.10030E+03         0.00000E+00
    0.00000E+00         0.00000E+00        -0.44994E+03
 
   -0.19235E+04        -0.39775E+03         0.00000E+00
   -0.39775E+03         0.78821E+02         0.00000E+00
    0.00000E+00         0.00000E+00        -0.55341E+03
 
   -0.22053E+04        -0.25967E+03         0.00000E+00
   -0.25967E+03         0.42640E+02         0.00000E+00
    0.00000E+00         0.00000E+00        -0.64878E+03
 
   -0.24423E+04        -0.10107E+03         0.00000E+00
   -0.10107E+03        -0.82569E+01         0.00000E+00
    0.00000E+00         0.00000E+00        -0.73518E+03
 
   -0.26327E+04         0.73320E+02         0.00000E+00
    0.73320E+02        -0.73368E+02         0.00000E+00
    0.00000E+00         0.00000E+00        -0.81183E+03
 
   -0.27751E+04         0.25929E+03         0.00000E+00
    0.25929E+03        -0.15183E+03         0.00000E+00
    0.00000E+00         0.00000E+00        -0.87809E+03
 
   -0.28689E+04         0.45316E+03         0.00000E+00
    0.45316E+03        -0.24260E+03         0.00000E+00
    0.00000E+00         0.00000E+00        -0.93343E+03
 
   -0.29134E+04         0.65179E+03         0.00000E+00
    0.65179E+03        -0.34455E+03         0.00000E+00
    0.00000E+00         0.00000E+00        -0.97739E+03
 
   -0.29086E+04         0.85250E+03         0.00000E+00
    0.85250E+03        -0.45667E+03         0.00000E+00
    0.00000E+00         0.00000E+00        -0.10096E+04
 
   -0.28540E+04         0.10530E+04         0.00000E+00
    0.10530E+04        -0.57812E+03         0.00000E+00
    0.00000E+00         0.00000E+00        -0.10296E+04
 
   -0.27491E+04         0.12512E+04         0.00000E+00
    0.12512E+04        -0.70834E+03         0.00000E+00
    0.00000E+00         0.00000E+00        -0.10372E+04
 
   -0.25933E+04         0.14452E+04         0.00000E+00
    0.14452E+04        -0.84712E+03         0.00000E+00
    0.00000E+00         0.00000E+00        -0.10321E+04
 
   -0.23852E+04         0.16330E+04         0.00000E+00
    0.16330E+04        -0.99460E+03         0.00000E+00
    0.00000E+00         0.00000E+00        -0.10140E+04
 
   -0.21236E+04         0.18124E+04         0.00000E+00
    0.18124E+04        -0.11513E+04         0.00000E+00
    0.00000E+00         0.00000E+00        -0.98247E+03
 
   -0.18065E+04         0.19807E+04         0.00000E+00
    0.19807E+04        -0.13181E+04         0.00000E+00
    0.00000E+00         0.00000E+00        -0.93737E+03
 
   -0.14319E+04         0.21347E+04         0.00000E+00
    0.21347E+04        -0.14960E+04         0.00000E+00
    0.00000E+00         0.00000E+00        -0.87836E+03
 
   -0.99744E+03         0.22703E+04         0.00000E+00
    0.22703E+04        -0.16865E+04         0.00000E+00
    0.00000E+00         0.00000E+00        -0.80518E+03
 
    0.10741E+04        -0.12063E+03         0.00000E+00
   -0.12063E+03         0.33025E+01         0.00000E+00
    0.00000E+00         0.00000E+00         0.32322E+03
 
    0.70871E+03        -0.32103E+03         0.00000E+00
   -0.32103E+03         0.17911E+02         0.00000E+00
    0.00000E+00         0.00000E+00         0.21799E+03
 
    0.32525E+03        -0.46876E+03         0.00000E+00
   -0.46876E+03         0.41643E+02         0.00000E+00
    0.00000E+00         0.00000E+00         0.11007E+03
 
   -0.65136E+02        -0.56586E+03         0.00000E+00
   -0.56586E+03         0.69149E+02         0.00000E+00
    0.00000E+00         0.00000E+00         0.12039E+01
 
   -0.45226E+03        -0.61534E+03         0.00000E+00
   -0.61534E+03         0.95721E+02         0.00000E+00
    0.00000E+00         0.00000E+00        -0.10696E+03
 
   -0.82704E+03        -0.62096E+03         0.00000E+00
   -0.62096E+03         0.11738E+03         0.00000E+00
    0.00000E+00         0.00000E+00        -0.21290E+03
 
   -0.11816E+04        -0.58706E+03         0.00000E+00
   -0.58706E+03         0.13094E+03         0.00000E+00
    0.00000E+00         0.00000E+00        -0.31520E+03
 
   -0.15093E+04        -0.51832E+03         0.00000E+00
   -0.51832E+03         0.13397E+03         0.00000E+00
    0.00000E+00         0.00000E+00        -0.41261E+03
 
   -0.18047E+04        -0.41957E+03         0.00000E+00
   -0.41957E+03         0.12483E+03         0.00000E+00
    0.00000E+00         0.00000E+00        -0.50397E+03
 
   -0.20635E+04        -0.29562E+03         0.00000E+00
   -0.29562E+03         0.10253E+03         0.00000E+00
    0.00000E+00         0.00000E+00        -0.58828E+03
 
   -0.22823E+04        -0.15108E+03         0.00000E+00
   -0.15108E+03         0.66706E+02         0.00000E+00
    0.00000E+00         0.00000E+00        -0.66467E+03
 
   -0.24587E+04         0.97455E+01         0.00000E+00
    0.97455E+01         0.17433E+02         0.00000E+00
    0.00000E+00         0.00000E+00        -0.73238E+03
 
   -0.25910E+04         0.18291E+03         0.00000E+00
    0.18291E+03        -0.44852E+02         0.00000E+00
    0.00000E+00         0.00000E+00        -0.79076E+03
 
   -0.26780E+04         0.36488E+03         0.00000E+00
    0.36488E+03        -0.11950E+03         0.00000E+00
    0.00000E+00         0.00000E+00        -0.83924E+03
 
   -0.27187E+04         0.55253E+03         0.00000E+00
    0.55253E+03        -0.20577E+03         0.00000E+00
    0.00000E+00         0.00000E+00        -0.87734E+03
 
   -0.27126E+04         0.74307E+03         0.00000E+00
    0.74307E+03        -0.30293E+03         0.00000E+00
    0.00000E+00         0.00000E+00        -0.90466E+03
 
   -0.26590E+04         0.93401E+03         0.00000E+00
    0.93401E+03        -0.41037E+03         0.00000E+00
    0.00000E+00         0.00000E+00        -0.92081E+03
 
   -0.25573E+04         0.11230E+04         0.00000E+00
    0.11230E+04        -0.52765E+03         0.00000E+00
    0.00000E+00         0.00000E+00        -0.92549E+03
 
   -0.24067E+04         0.13079E+04         0.00000E+00
    0.13079E+04        -0.65458E+03         0.00000E+00
    0.00000E+00         0.00000E+00        -0.91838E+03
 
   -0.22062E+04         0.14863E+04         0.00000E+00
    0.14863E+04        -0.79121E+03         0.00000E+00
    0.00000E+00         0.00000E+00        -0.89921E+03
 
   -0.19546E+04         0.16557E+04         0.00000E+00
    0.16557E+04        -0.93785E+03         0.00000E+00
    0.00000E+00         0.00000E+00        -0.86772E+03
 
   -0.16506E+04         0.18132E+04         0.00000E+00
    0.18132E+04        -0.10951E+04         0.00000E+00
    0.00000E+00         0.00000E+00        -0.82368E+03
 
   -0.12927E+04         0.19555E+04         0.00000E+00
    0.19555E+04        -0.12635E+04         0.00000E+00
    0.00000E+00         0.00000E+00        -0.76687E+03
 
   -0.87951E+03         0.20783E+04         0.00000E+00
    0.20783E+04        -0.14441E+04         0.00000E+00
    0.00000E+00         0.00000E+00        -0.69708E+03
 
    0.85446E+03        -0.11235E+03         0.00000E+00
   -0.11235E+03         0.32781E+01         0.00000E+00
    0.00000E+00         0.00000E+00         0.25732E+03
 
    0.53950E+03        -0.30057E+03         0.00000E+00
   -0.30057E+03         0.17992E+02         0.00000E+00
    0.00000E+00         0.00000E+00         0.16725E+03
 
    0.20522E+03        -0.44150E+03         0.00000E+00
   -0.44150E+03         0.42441E+02         0.00000E+00
    0.00000E+00         0.00000E+00         0.74299E+02
 
   -0.13822E+03        -0.53665E+03         0.00000E+00
   -0.53665E+03         0.71731E+02         0.00000E+00
    0.00000E+00         0.00000E+00        -0.19945E+02
 
   -0.48146E+03        -0.58837E+03         0.00000E+00
   -0.58837E+03         0.10151E+03         0.00000E+00
    0.00000E+00         0.00000E+00        -0.11399E+03
 
   -0.81608E+03        -0.59975E+03         0.00000E+00
   -0.59975E+03         0.12802E+03         0.00000E+00
    0.00000E+00         0.00000E+00        -0.20642E+03
 
   -0.11347E+04        -0.57439E+03         0.00000E+00
   -0.57439E+03         0.14818E+03         0.00000E+00
    0.00000E+00         0.00000E+00        -0.29594E+03
 
   -0.14308E+04        -0.51626E+03         0.00000E+00
   -0.51626E+03         0.15956E+03         0.00000E+00
    0.00000E+00         0.00000E+00        -0.38137E+03
 
   -0.16991E+04        -0.42952E+03         0.00000E+00
   -0.42952E+03         0.16037E+03         0.00000E+00
    0.00000E+00         0.00000E+00        -0.46162E+03
 
   -0.19352E+04        -0.31837E+03         0.00000E+00
   -0.31837E+03         0.14943E+03         0.00000E+00
    0.00000E+00         0.00000E+00        -0.53575E+03
 
   -0.21357E+04        -0.18691E+03         0.00000E+00
   -0.18691E+03         0.12605E+03         0.00000E+00
    0.00000E+00         0.00000E+00        -0.60289E+03
 
   -0.22977E+04        -0.39070E+02         0.00000E+00
   -0.39070E+02         0.90017E+02         0.00000E+00
    0.00000E+00         0.00000E+00        -0.66230E+03
 
   -0.24192E+04         0.12150E+03         0.00000E+00
    0.12150E+03         0.41404E+02         0.00000E+00
    0.00000E+00         0.00000E+00        -0.71334E+03
 
   -0.24987E+04         0.29142E+03         0.00000E+00
    0.29142E+03        -0.19468E+02         0.00000E+00
    0.00000E+00         0.00000E+00        -0.75544E+03
 
   -0.25348E+04         0.46762E+03         0.00000E+00
    0.46762E+03        -0.92159E+02         0.00000E+00
    0.00000E+00         0.00000E+00        -0.78810E+03
 
   -0.25268E+04         0.64730E+03         0.00000E+00
    0.64730E+03        -0.17619E+03         0.00000E+00
    0.00000E+00         0.00000E+00        -0.81091E+03
 
   -0.24738E+04         0.82783E+03         0.00000E+00
    0.82783E+03        -0.27113E+03         0.00000E+00
    0.00000E+00         0.00000E+00        -0.82349E+03
 
   -0.23751E+04         0.10067E+04         0.00000E+00
    0.10067E+04        -0.37666E+03         0.00000E+00
    0.00000E+00         0.00000E+00        -0.82552E+03
 
   -0.22297E+04         0.11816E+04         0.00000E+00
    0.11816E+04        -0.49259E+03         0.00000E+00
    0.00000E+00         0.00000E+00        -0.81670E+03
 
   -0.20370E+04         0.13498E+04         0.00000E+00
    0.13498E+04        -0.61890E+03         0.00000E+00
    0.00000E+00         0.00000E+00        -0.79678E+03
 
   -0.17961E+04         0.15088E+04         0.00000E+00
    0.15088E+04        -0.75575E+03         0.00000E+00
    0.00000E+00         0.00000E+00        -0.76555E+03
 
   -0.15059E+04         0.16553E+04         0.00000E+00
    0.16553E+04        -0.90342E+03         0.00000E+00
    0.00000E+00         0.00000E+00        -0.72279E+03
 
   -0.11656E+04         0.17860E+04         0.00000E+00
    0.17860E+04        -0.10623E+04         0.00000E+00
    0.00000E+00         0.00000E+00        -0.66836E+03
 
   -0.77443E+03         0.18967E+04         0.00000E+00
    0.18967E+04        -0.12327E+04         0.00000E+00
    0.00000E+00         0.00000E+00        -0.60213E+03
 
    0.64986E+03        -0.10415E+03         0.00000E+00
   -0.10415E+03         0.32261E+01         0.00000E+00
    0.00000E+00         0.00000E+00         0.19593E+03
 
    0.37999E+03        -0.27993E+03         0.00000E+00
   -0.27993E+03         0.17878E+02         0.00000E+00
    0.00000E+00         0.00000E+00         0.11936E+03
 
    0.89992E+02        -0.41334E+03         0.00000E+00
   -0.41334E+03         0.42657E+02         0.00000E+00
    0.00000E+00         0.00000E+00         0.39795E+02
 
   -0.21087E+03        -0.50541E+03         0.00000E+00
   -0.50541E+03         0.73081E+02         0.00000E+00
    0.00000E+00         0.00000E+00        -0.41336E+02
 
   -0.51399E+03        -0.55798E+03         0.00000E+00
   -0.55798E+03         0.10511E+03         0.00000E+00
    0.00000E+00         0.00000E+00        -0.12266E+03
 
   -0.81154E+03        -0.57355E+03         0.00000E+00
   -0.57355E+03         0.13523E+03         0.00000E+00
    0.00000E+00         0.00000E+00        -0.20289E+03
 
   -0.10965E+04        -0.55511E+03         0.00000E+00
   -0.55511E+03         0.16046E+03         0.00000E+00
    0.00000E+00         0.00000E+00        -0.28082E+03
 
   -0.13629E+04        -0.50602E+03         0.00000E+00
   -0.50602E+03         0.17838E+03         0.00000E+00
    0.00000E+00         0.00000E+00        -0.35535E+03
 
   -0.16053E+04        -0.42986E+03         0.00000E+00
   -0.42986E+03         0.18713E+03         0.00000E+00
    0.00000E+00         0.00000E+00        -0.42546E+03
 
   -0.18195E+04        -0.33030E+03         0.00000E+00
   -0.33030E+03         0.18537E+03         0.00000E+00
    0.00000E+00         0.00000E+00        -0.49024E+03
 
   -0.20018E+04        -0.21101E+03         0.00000E+00
   -0.21101E+03         0.17221E+03         0.00000E+00
    0.00000E+00         0.00000E+00        -0.54887E+03
 
   -0.21493E+04        -0.75525E+02         0.00000E+00
   -0.75525E+02         0.14715E+03         0.00000E+00
    0.00000E+00         0.00000E+00        -0.60064E+03
 
   -0.22597E+04         0.72761E+02         0.00000E+00
    0.72761E+02         0.11002E+03         0.00000E+00
    0.00000E+00         0.00000E+00        -0.64490E+03
 
   -0.23312E+04         0.23066E+03         0.00000E+00
    0.23066E+03         0.60852E+02         0.00000E+00
    0.00000E+00         0.00000E+00        -0.68109E+03
 
   -0.23623E+04         0.39520E+03         0.00000E+00
    0.39520E+03        -0.14835E+00         0.00000E+00
    0.00000E+00         0.00000E+00        -0.70874E+03
 
   -0.23520E+04         0.56358E+03         0.00000E+00
    0.56358E+03        -0.72716E+02         0.00000E+00
    0.00000E+00         0.00000E+00        -0.72741E+03
 
   -0.22992E+04         0.73314E+03         0.00000E+00
    0.73314E+03        -0.15657E+03         0.00000E+00
    0.00000E+00         0.00000E+00        -0.73674E+03
 
   -0.22032E+04         0.90131E+03         0.00000E+00
    0.90131E+03        -0.25148E+03         0.00000E+00
    0.00000E+00         0.00000E+00        -0.73640E+03
 
   -0.20632E+04         0.10655E+04         0.00000E+00
    0.10655E+04        -0.35727E+03         0.00000E+00
    0.00000E+00         0.00000E+00        -0.72613E+03
 
   -0.18785E+04         0.12231E+04         0.00000E+00
    0.12231E+04        -0.47387E+03         0.00000E+00
    0.00000E+00         0.00000E+00        -0.70570E+03
 
   -0.16484E+04         0.13713E+04         0.00000E+00
    0.13713E+04        -0.60129E+03         0.00000E+00
    0.00000E+00         0.00000E+00        -0.67490E+03
 
   -0.13724E+04         0.15069E+04         0.00000E+00
    0.15069E+04        -0.73958E+03         0.00000E+00
    0.00000E+00         0.00000E+00        -0.63359E+03
 
   -0.10500E+04         0.16263E+04         0.00000E+00
    0.16263E+04        -0.88883E+03         0.00000E+00
    0.00000E+00         0.00000E+00        -0.58166E+03
 
   -0.68115E+03         0.17258E+04         0.00000E+00
    0.17258E+04        -0.10490E+04         0.00000E+00
    0.00000E+00         0.00000E+00        -0.51906E+03
 
    0.46021E+03        -0.96092E+02         0.00000E+00
   -0.96092E+02         0.31513E+01         0.00000E+00
    0.00000E+00         0.00000E+00         0.13901E+03
 
    0.23057E+03        -0.25937E+03         0.00000E+00
   -0.25937E+03         0.17604E+02         0.00000E+00
    0.00000E+00         0.00000E+00         0.74453E+02
 
   -0.19636E+02        -0.38474E+03         0.00000E+00
   -0.38474E+03         0.42394E+02         0.00000E+00
    0.00000E+00         0.00000E+00         0.68272E+01
 
   -0.28196E+03        -0.47287E+03         0.00000E+00
   -0.47287E+03         0.73412E+02         0.00000E+00
    0.00000E+00         0.00000E+00        -0.62563E+02
 
   -0.54848E+03        -0.52517E+03         0.00000E+00
   -0.52517E+03         0.10692E+03         0.00000E+00
    0.00000E+00         0.00000E+00        -0.13247E+03
 
   -0.81193E+03        -0.54364E+03         0.00000E+00
   -0.54364E+03         0.13960E+03         0.00000E+00
    0.00000E+00         0.00000E+00        -0.20170E+03
 
   -0.10658E+04        -0.53075E+03         0.00000E+00
   -0.53075E+03         0.16861E+03         0.00000E+00
    0.00000E+00         0.00000E+00        -0.26915E+03
 
   -0.13042E+04        -0.48935E+03         0.00000E+00
   -0.48935E+03         0.19156E+03         0.00000E+00
    0.00000E+00         0.00000E+00        -0.33378E+03
 
   -0.15221E+04        -0.42252E+03         0.00000E+00
   -0.42252E+03         0.20655E+03         0.00000E+00
    0.00000E+00         0.00000E+00        -0.39466E+03
 
   -0.17152E+04        -0.33348E+03         0.00000E+00
   -0.33348E+03         0.21214E+03         0.00000E+00
    0.00000E+00         0.00000E+00        -0.45091E+03
 
   -0.18798E+04        -0.22547E+03         0.00000E+00
   -0.22547E+03         0.20727E+03         0.00000E+00
    0.00000E+00         0.00000E+00        -0.50176E+03
 
   -0.20129E+04        -0.10170E+03         0.00000E+00
   -0.10170E+03         0.19125E+03         0.00000E+00
    0.00000E+00         0.00000E+00        -0.54651E+03
 
   -0.21122E+04         0.34700E+02         0.00000E+00
    0.34700E+02         0.16369E+03         0.00000E+00
    0.00000E+00         0.00000E+00        -0.58455E+03
 
   -0.21755E+04         0.18074E+03         0.00000E+00
    0.18074E+03         0.12442E+03         0.00000E+00
    0.00000E+00         0.00000E+00        -0.61533E+03
 
   -0.22013E+04         0.33357E+03         0.00000E+00
    0.33357E+03         0.73429E+02         0.00000E+00
    0.00000E+00         0.00000E+00        -0.63837E+03
 
   -0.21884E+04         0.49044E+03         0.00000E+00
    0.49044E+03         0.10827E+02         0.00000E+00
    0.00000E+00         0.00000E+00        -0.65327E+03
 
   -0.21356E+04         0.64870E+03         0.00000E+00
    0.64870E+03        -0.63238E+02         0.00000E+00
    0.00000E+00         0.00000E+00        -0.65966E+03
 
   -0.20422E+04         0.80577E+03         0.00000E+00
    0.80577E+03        -0.14860E+03         0.00000E+00
    0.00000E+00         0.00000E+00        -0.65724E+03
 
   -0.19074E+04         0.95900E+03         0.00000E+00
    0.95900E+03        -0.24510E+03         0.00000E+00
    0.00000E+00         0.00000E+00        -0.64575E+03
 
   -0.17307E+04         0.11057E+04         0.00000E+00
    0.11057E+04        -0.35262E+03         0.00000E+00
    0.00000E+00         0.00000E+00        -0.62498E+03
 
   -0.15116E+04         0.12430E+04         0.00000E+00
    0.12430E+04        -0.47105E+03         0.00000E+00
    0.00000E+00         0.00000E+00        -0.59478E+03
 
   -0.12498E+04         0.13677E+04         0.00000E+00
    0.13677E+04        -0.60026E+03         0.00000E+00
    0.00000E+00         0.00000E+00        -0.55502E+03
 
   -0.94543E+03         0.14765E+04         0.00000E+00
    0.14765E+04        -0.74009E+03         0.00000E+00
    0.00000E+00         0.00000E+00        -0.50566E+03
 
   -0.59869E+03         0.15654E+04         0.00000E+00
    0.15654E+04        -0.89023E+03         0.00000E+00
    0.00000E+00         0.00000E+00        -0.44667E+03
 
    0.28528E+03        -0.88238E+02         0.00000E+00
   -0.88238E+02         0.30586E+01         0.00000E+00
    0.00000E+00         0.00000E+00         0.86500E+02
 
    0.91464E+02        -0.23908E+03         0.00000E+00
   -0.23908E+03         0.17202E+02         0.00000E+00
    0.00000E+00         0.00000E+00         0.32600E+02
 
   -0.12307E+03        -0.35609E+03         0.00000E+00
   -0.35609E+03         0.41744E+02         0.00000E+00
    0.00000E+00         0.00000E+00        -0.24398E+02
 
   -0.35059E+03        -0.43964E+03         0.00000E+00
   -0.43964E+03         0.72916E+02         0.00000E+00
    0.00000E+00         0.00000E+00        -0.83304E+02
 
   -0.58383E+03        -0.49077E+03         0.00000E+00
   -0.49077E+03         0.10725E+03         0.00000E+00
    0.00000E+00         0.00000E+00        -0.14297E+03
 
   -0.81605E+03        -0.51108E+03         0.00000E+00
   -0.51108E+03         0.14164E+03         0.00000E+00
    0.00000E+00         0.00000E+00        -0.20232E+03
 
   -0.10411E+04        -0.50260E+03         0.00000E+00
   -0.50260E+03         0.17336E+03         0.00000E+00
    0.00000E+00         0.00000E+00        -0.26032E+03
 
   -0.12535E+04        -0.46774E+03         0.00000E+00
   -0.46774E+03         0.20008E+03         0.00000E+00
    0.00000E+00         0.00000E+00        -0.31601E+03
 
   -0.14483E+04        -0.40915E+03         0.00000E+00
   -0.40915E+03         0.21990E+03         0.00000E+00
    0.00000E+00         0.00000E+00        -0.36851E+03
 
   -0.16213E+04        -0.32964E+03         0.00000E+00
   -0.32964E+03         0.23128E+03         0.00000E+00
    0.00000E+00         0.00000E+00        -0.41701E+03
 
   -0.17690E+04        -0.23208E+03         0.00000E+00
   -0.23208E+03         0.23307E+03         0.00000E+00
    0.00000E+00         0.00000E+00        -0.46077E+03
 
   -0.18882E+04        -0.11939E+03         0.00000E+00
   -0.11939E+03         0.22443E+03         0.00000E+00
    0.00000E+00         0.00000E+00        -0.49912E+03
 
   -0.19764E+04         0.55698E+01         0.00000E+00
    0.55698E+01         0.20480E+03         0.00000E+00
    0.00000E+00         0.00000E+00        -0.53148E+03
 
   -0.20316E+04         0.14001E+03         0.00000E+00
    0.14001E+03         0.17383E+03         0.00000E+00
    0.00000E+00         0.00000E+00        -0.55732E+03
 
   -0.20520E+04         0.28122E+03         0.00000E+00
    0.28122E+03         0.13138E+03         0.00000E+00
    0.00000E+00         0.00000E+00        -0.57618E+03
 
   -0.20363E+04         0.42654E+03         0.00000E+00
    0.42654E+03         0.77399E+02         0.00000E+00
    0.00000E+00         0.00000E+00        -0.58766E+03
 
   -0.19833E+04         0.57339E+03         0.00000E+00
    0.57339E+03         0.11946E+02         0.00000E+00
    0.00000E+00         0.00000E+00        -0.59141E+03
 
   -0.18923E+04         0.71917E+03         0.00000E+00
    0.71917E+03        -0.64874E+02         0.00000E+00
    0.00000E+00         0.00000E+00        -0.58716E+03
 
   -0.17626E+04         0.86128E+03         0.00000E+00
    0.86128E+03        -0.15292E+03         0.00000E+00
    0.00000E+00         0.00000E+00        -0.57466E+03
 
   -0.15938E+04         0.99700E+03         0.00000E+00
    0.99700E+03        -0.25201E+03         0.00000E+00
    0.00000E+00         0.00000E+00        -0.55373E+03
 
   -0.13855E+04         0.11235E+04         0.00000E+00
    0.11235E+04        -0.36194E+03         0.00000E+00
    0.00000E+00         0.00000E+00        -0.52424E+03
 
   -0.11379E+04         0.12377E+04         0.00000E+00
    0.12377E+04        -0.48245E+03         0.00000E+00
    0.00000E+00         0.00000E+00        -0.48610E+03
 
   -0.85116E+03         0.13362E+04         0.00000E+00
    0.13362E+04        -0.61315E+03         0.00000E+00
    0.00000E+00         0.00000E+00        -0.43929E+03
 
   -0.52605E+03         0.14153E+04         0.00000E+00
    0.14153E+04        -0.75351E+03         0.00000E+00
    0.00000E+00         0.00000E+00        -0.38387E+03
 
    0.12473E+03        -0.80627E+02         0.00000E+00
   -0.80627E+02         0.29523E+01         0.00000E+00
    0.00000E+00         0.00000E+00         0.38305E+02
 
   -0.37270E+02        -0.21921E+03         0.00000E+00
   -0.21921E+03         0.16701E+02         0.00000E+00
    0.00000E+00         0.00000E+00        -0.61708E+01
 
   -0.21990E+03        -0.32768E+03         0.00000E+00
   -0.32768E+03         0.40791E+02         0.00000E+00
    0.00000E+00         0.00000E+00        -0.53733E+02
 
   -0.41610E+03        -0.40619E+03         0.00000E+00
   -0.40619E+03         0.71764E+02         0.00000E+00
    0.00000E+00         0.00000E+00        -0.10330E+03
 
   -0.61917E+03        -0.45546E+03         0.00000E+00
   -0.45546E+03         0.10641E+03         0.00000E+00
    0.00000E+00         0.00000E+00        -0.15383E+03
 
   -0.82287E+03        -0.47674E+03         0.00000E+00
   -0.47674E+03         0.14181E+03         0.00000E+00
    0.00000E+00         0.00000E+00        -0.20432E+03
 
   -0.10214E+04        -0.47172E+03         0.00000E+00
   -0.47172E+03         0.17536E+03         0.00000E+00
    0.00000E+00         0.00000E+00        -0.25383E+03
 
   -0.12097E+04        -0.44242E+03         0.00000E+00
   -0.44242E+03         0.20481E+03         0.00000E+00
    0.00000E+00         0.00000E+00        -0.30146E+03
 
   -0.13829E+04        -0.39111E+03         0.00000E+00
   -0.39111E+03         0.22826E+03         0.00000E+00
    0.00000E+00         0.00000E+00        -0.34640E+03
 
   -0.15371E+04        -0.32024E+03         0.00000E+00
   -0.32024E+03         0.24414E+03         0.00000E+00
    0.00000E+00         0.00000E+00        -0.38788E+03
 
   -0.16686E+04        -0.23238E+03         0.00000E+00
   -0.23238E+03         0.25122E+03         0.00000E+00
    0.00000E+00         0.00000E+00        -0.42521E+03
 
   -0.17744E+04        -0.13014E+03         0.00000E+00
   -0.13014E+03         0.24854E+03         0.00000E+00
    0.00000E+00         0.00000E+00        -0.45776E+03
 
   -0.18520E+04        -0.16136E+02         0.00000E+00
   -0.16136E+02         0.23542E+03         0.00000E+00
    0.00000E+00         0.00000E+00        -0.48496E+03
 
   -0.18991E+04         0.10704E+03         0.00000E+00
    0.10704E+03         0.21140E+03         0.00000E+00
    0.00000E+00         0.00000E+00        -0.50632E+03
 
   -0.19141E+04         0.23683E+03         0.00000E+00
    0.23683E+03         0.17618E+03         0.00000E+00
    0.00000E+00         0.00000E+00        -0.52139E+03
 
   -0.18956E+04         0.37070E+03         0.00000E+00
    0.37070E+03         0.12963E+03         0.00000E+00
    0.00000E+00         0.00000E+00        -0.52979E+03
 
   -0.18424E+04         0.50614E+03         0.00000E+00
    0.50614E+03         0.71720E+02         0.00000E+00
    0.00000E+00         0.00000E+00        -0.53120E+03
 
   -0.17537E+04         0.64064E+03         0.00000E+00
    0.64064E+03         0.25118E+01         0.00000E+00
    0.00000E+00         0.00000E+00        -0.52535E+03
 
   -0.16289E+04         0.77162E+03         0.00000E+00
    0.77162E+03        -0.77856E+02         0.00000E+00
    0.00000E+00         0.00000E+00        -0.51202E+03
 
   -0.14677E+04         0.89645E+03         0.00000E+00
    0.89645E+03        -0.16917E+03         0.00000E+00
    0.00000E+00         0.00000E+00        -0.49106E+03
 
   -0.12700E+04         0.10123E+04         0.00000E+00
    0.10123E+04        -0.27115E+03         0.00000E+00
    0.00000E+00         0.00000E+00        -0.46236E+03
 
   -0.10361E+04         0.11163E+04         0.00000E+00
    0.11163E+04        -0.38339E+03         0.00000E+00
    0.00000E+00         0.00000E+00        -0.42586E+03
 
   -0.76657E+03         0.12051E+04         0.00000E+00
    0.12051E+04        -0.50536E+03         0.00000E+00
    0.00000E+00         0.00000E+00        -0.38158E+03
 
   -0.46233E+03         0.12753E+04         0.00000E+00
    0.12753E+04        -0.63633E+03         0.00000E+00
    0.00000E+00         0.00000E+00        -0.32960E+03
 
   -0.21837E+02        -0.73289E+02         0.00000E+00
   -0.73289E+02         0.28366E+01         0.00000E+00
    0.00000E+00         0.00000E+00        -0.57002E+01
 
   -0.15568E+03        -0.19988E+03         0.00000E+00
   -0.19988E+03         0.16128E+02         0.00000E+00
    0.00000E+00         0.00000E+00        -0.41866E+02
 
   -0.30987E+03        -0.29978E+03         0.00000E+00
   -0.29978E+03         0.39609E+02         0.00000E+00
    0.00000E+00         0.00000E+00        -0.81079E+02
 
   -0.47796E+03        -0.37291E+03         0.00000E+00
   -0.37291E+03         0.70110E+02         0.00000E+00
    0.00000E+00         0.00000E+00        -0.12236E+03
 
   -0.65379E+03        -0.41977E+03         0.00000E+00
   -0.41977E+03         0.10465E+03         0.00000E+00
    0.00000E+00         0.00000E+00        -0.16474E+03
 
   -0.83158E+03        -0.44134E+03         0.00000E+00
   -0.44134E+03         0.14049E+03         0.00000E+00
    0.00000E+00         0.00000E+00        -0.20733E+03
 
   -0.10059E+04        -0.43898E+03         0.00000E+00
   -0.43898E+03         0.17517E+03         0.00000E+00
    0.00000E+00         0.00000E+00        -0.24923E+03
 
   -0.11719E+04        -0.41439E+03         0.00000E+00
   -0.41439E+03         0.20650E+03         0.00000E+00
    0.00000E+00         0.00000E+00        -0.28964E+03
 
   -0.13252E+04        -0.36952E+03         0.00000E+00
   -0.36952E+03         0.23260E+03         0.00000E+00
    0.00000E+00         0.00000E+00        -0.32778E+03
 
   -0.14617E+04        -0.30652E+03         0.00000E+00
   -0.30652E+03         0.25190E+03         0.00000E+00
    0.00000E+00         0.00000E+00        -0.36293E+03
 
   -0.15780E+04        -0.22765E+03         0.00000E+00
   -0.22765E+03         0.26311E+03         0.00000E+00
    0.00000E+00         0.00000E+00        -0.39446E+03
 
   -0.16711E+04        -0.13525E+03         0.00000E+00
   -0.13525E+03         0.26520E+03         0.00000E+00
    0.00000E+00         0.00000E+00        -0.42177E+03
 
   -0.17384E+04        -0.31714E+02         0.00000E+00
   -0.31714E+02         0.25740E+03         0.00000E+00
    0.00000E+00         0.00000E+00        -0.44431E+03
 
   -0.17779E+04         0.80576E+02         0.00000E+00
    0.80576E+02         0.23913E+03         0.00000E+00
    0.00000E+00         0.00000E+00        -0.46162E+03
 
   -0.17876E+04         0.19922E+03         0.00000E+00
    0.19922E+03         0.21002E+03         0.00000E+00
    0.00000E+00         0.00000E+00        -0.47328E+03
 
   -0.17663E+04         0.32183E+03         0.00000E+00
    0.32183E+03         0.16985E+03         0.00000E+00
    0.00000E+00         0.00000E+00        -0.47893E+03
 
   -0.17127E+04         0.44601E+03         0.00000E+00
    0.44601E+03         0.11852E+03         0.00000E+00
    0.00000E+00         0.00000E+00        -0.47827E+03
 
   -0.16262E+04         0.56934E+03         0.00000E+00
    0.56934E+03         0.56065E+02         0.00000E+00
    0.00000E+00         0.00000E+00        -0.47104E+03
 
   -0.15061E+04         0.68933E+03         0.00000E+00
    0.68933E+03        -0.17377E+02         0.00000E+00
    0.00000E+00         0.00000E+00        -0.45705E+03
 
   -0.13523E+04         0.80344E+03         0.00000E+00
    0.80344E+03        -0.10157E+03         0.00000E+00
    0.00000E+00         0.00000E+00        -0.43616E+03
 
   -0.11648E+04         0.90897E+03         0.00000E+00
    0.90897E+03        -0.19614E+03         0.00000E+00
    0.00000E+00         0.00000E+00        -0.40829E+03
 
   -0.94414E+03         0.10031E+04         0.00000E+00
    0.10031E+04        -0.30062E+03         0.00000E+00
    0.00000E+00         0.00000E+00        -0.37343E+03
 
   -0.69100E+03         0.10828E+04         0.00000E+00
    0.10828E+04        -0.41432E+03         0.00000E+00
    0.00000E+00         0.00000E+00        -0.33160E+03
 
   -0.40666E+03         0.11448E+04         0.00000E+00
    0.11448E+04        -0.53638E+03         0.00000E+00
    0.00000E+00         0.00000E+00        -0.28291E+03
 
   -0.15491E+03        -0.66247E+02         0.00000E+00
   -0.66247E+02         0.27151E+01         0.00000E+00
    0.00000E+00         0.00000E+00        -0.45659E+02
 
   -0.26391E+03        -0.18119E+03         0.00000E+00
   -0.18119E+03         0.15506E+02         0.00000E+00
    0.00000E+00         0.00000E+00        -0.74522E+02
 
   -0.39284E+03        -0.27254E+03         0.00000E+00
   -0.27254E+03         0.38268E+02         0.00000E+00
    0.00000E+00         0.00000E+00        -0.10637E+03
 
   -0.53580E+03        -0.34010E+03         0.00000E+00
   -0.34010E+03         0.68088E+02         0.00000E+00
    0.00000E+00         0.00000E+00        -0.14032E+03
 
   -0.68714E+03        -0.38415E+03         0.00000E+00
   -0.38415E+03         0.10220E+03         0.00000E+00
    0.00000E+00         0.00000E+00        -0.17548E+03
 
   -0.84147E+03        -0.40544E+03         0.00000E+00
   -0.40544E+03         0.13805E+03         0.00000E+00
    0.00000E+00         0.00000E+00        -0.21103E+03
 
   -0.99379E+03        -0.40508E+03         0.00000E+00
   -0.40508E+03         0.17328E+03         0.00000E+00
    0.00000E+00         0.00000E+00        -0.24615E+03
 
   -0.11395E+04        -0.38449E+03         0.00000E+00
   -0.38449E+03         0.20580E+03         0.00000E+00
    0.00000E+00         0.00000E+00        -0.28010E+03
 
   -0.12743E+04        -0.34535E+03         0.00000E+00
   -0.34535E+03         0.23376E+03         0.00000E+00
    0.00000E+00         0.00000E+00        -0.31215E+03
 
   -0.13944E+04        -0.28950E+03         0.00000E+00
   -0.28950E+03         0.25559E+03         0.00000E+00
    0.00000E+00         0.00000E+00        -0.34164E+03
 
   -0.14965E+04        -0.21897E+03         0.00000E+00
   -0.21897E+03         0.26998E+03         0.00000E+00
    0.00000E+00         0.00000E+00        -0.36796E+03
 
   -0.15777E+04        -0.13584E+03         0.00000E+00
   -0.13584E+03         0.27584E+03         0.00000E+00
    0.00000E+00         0.00000E+00        -0.39056E+03
 
   -0.16354E+04        -0.42269E+02         0.00000E+00
   -0.42269E+02         0.27233E+03         0.00000E+00
    0.00000E+00         0.00000E+00        -0.40892E+03
 
   -0.16675E+04         0.59541E+02         0.00000E+00
    0.59541E+02         0.25881E+03         0.00000E+00
    0.00000E+00         0.00000E+00        -0.42260E+03
 
   -0.16722E+04         0.16737E+03         0.00000E+00
    0.16737E+03         0.23482E+03         0.00000E+00
    0.00000E+00         0.00000E+00        -0.43121E+03
 
   -0.16481E+04         0.27899E+03         0.00000E+00
    0.27899E+03         0.20010E+03         0.00000E+00
    0.00000E+00         0.00000E+00        -0.43441E+03
 
   -0.15942E+04         0.39213E+03         0.00000E+00
    0.39213E+03         0.15449E+03         0.00000E+00
    0.00000E+00         0.00000E+00        -0.43192E+03
 
   -0.15097E+04         0.50449E+03         0.00000E+00
    0.50449E+03         0.98009E+02         0.00000E+00
    0.00000E+00         0.00000E+00        -0.42350E+03
 
   -0.13941E+04         0.61372E+03         0.00000E+00
    0.61372E+03         0.30787E+02         0.00000E+00
    0.00000E+00         0.00000E+00        -0.40899E+03
 
   -0.12473E+04         0.71737E+03         0.00000E+00
    0.71737E+03        -0.46906E+02         0.00000E+00
    0.00000E+00         0.00000E+00        -0.38826E+03
 
   -0.10695E+04         0.81291E+03         0.00000E+00
    0.81291E+03        -0.13466E+03         0.00000E+00
    0.00000E+00         0.00000E+00        -0.36126E+03
 
   -0.86138E+03         0.89766E+03         0.00000E+00
    0.89766E+03        -0.23189E+03         0.00000E+00
    0.00000E+00         0.00000E+00        -0.32798E+03
 
   -0.62380E+03         0.96880E+03         0.00000E+00
    0.96880E+03        -0.33785E+03         0.00000E+00
    0.00000E+00         0.00000E+00        -0.28849E+03
 
   -0.35822E+03         0.10233E+04         0.00000E+00
    0.10233E+04        -0.45154E+03         0.00000E+00
    0.00000E+00         0.00000E+00        -0.24293E+03
 
   -0.27501E+03        -0.59510E+02         0.00000E+00
   -0.59510E+02         0.25913E+01         0.00000E+00
    0.00000E+00         0.00000E+00        -0.81725E+02
 
   -0.36219E+03        -0.16319E+03         0.00000E+00
   -0.16319E+03         0.14859E+02         0.00000E+00
    0.00000E+00         0.00000E+00        -0.10420E+03
 
   -0.46877E+03        -0.24612E+03         0.00000E+00
   -0.24612E+03         0.36826E+02         0.00000E+00
    0.00000E+00         0.00000E+00        -0.12958E+03
 
   -0.58937E+03        -0.30798E+03         0.00000E+00
   -0.30798E+03         0.65819E+02         0.00000E+00
    0.00000E+00         0.00000E+00        -0.15706E+03
 
   -0.71877E+03        -0.34892E+03         0.00000E+00
   -0.34892E+03         0.99276E+02         0.00000E+00
    0.00000E+00         0.00000E+00        -0.18585E+03
 
   -0.85201E+03        -0.36949E+03         0.00000E+00
   -0.36949E+03         0.13479E+03         0.00000E+00
    0.00000E+00         0.00000E+00        -0.21517E+03
 
   -0.98439E+03        -0.37059E+03         0.00000E+00
   -0.37059E+03         0.17013E+03         0.00000E+00
    0.00000E+00         0.00000E+00        -0.24428E+03
 
   -0.11116E+04        -0.35339E+03         0.00000E+00
   -0.35339E+03         0.20329E+03         0.00000E+00
    0.00000E+00         0.00000E+00        -0.27248E+03
 
   -0.12295E+04        -0.31933E+03         0.00000E+00
   -0.31933E+03         0.23247E+03         0.00000E+00
    0.00000E+00         0.00000E+00        -0.29910E+03
 
   -0.13346E+04        -0.27002E+03         0.00000E+00
   -0.27002E+03         0.25612E+03         0.00000E+00
    0.00000E+00         0.00000E+00        -0.32354E+03
 
   -0.14236E+04        -0.20723E+03         0.00000E+00
   -0.20723E+03         0.27289E+03         0.00000E+00
    0.00000E+00         0.00000E+00        -0.34521E+03
 
   -0.14937E+04        -0.13282E+03         0.00000E+00
   -0.13282E+03         0.28168E+03         0.00000E+00
    0.00000E+00         0.00000E+00        -0.36360E+03
 
   -0.15424E+04        -0.48742E+02         0.00000E+00
   -0.48742E+02         0.28161E+03         0.00000E+00
    0.00000E+00         0.00000E+00        -0.37822E+03
 
   -0.15675E+04         0.43011E+02         0.00000E+00
    0.43011E+02         0.27197E+03         0.00000E+00
    0.00000E+00         0.00000E+00        -0.38867E+03
 
   -0.15675E+04         0.14039E+03         0.00000E+00
    0.14039E+03         0.25227E+03         0.00000E+00
    0.00000E+00         0.00000E+00        -0.39457E+03
 
   -0.15409E+04         0.24134E+03         0.00000E+00
    0.24134E+03         0.22218E+03         0.00000E+00
    0.00000E+00         0.00000E+00        -0.39561E+03
 
   -0.14866E+04         0.34372E+03         0.00000E+00
    0.34372E+03         0.18153E+03         0.00000E+00
    0.00000E+00         0.00000E+00        -0.39151E+03
 
   -0.14039E+04         0.44539E+03         0.00000E+00
    0.44539E+03         0.13030E+03         0.00000E+00
    0.00000E+00         0.00000E+00        -0.38209E+03
 
   -0.12925E+04         0.54414E+03         0.00000E+00
    0.54414E+03         0.68636E+02         0.00000E+00
    0.00000E+00         0.00000E+00        -0.36717E+03
 
   -0.11524E+04         0.63766E+03         0.00000E+00
    0.63766E+03        -0.31745E+01         0.00000E+00
    0.00000E+00         0.00000E+00        -0.34666E+03
 
   -0.98373E+03         0.72359E+03         0.00000E+00
    0.72359E+03        -0.84675E+02         0.00000E+00
    0.00000E+00         0.00000E+00        -0.32052E+03
 
   -0.78736E+03         0.79943E+03         0.00000E+00
    0.79943E+03        -0.17523E+03         0.00000E+00
    0.00000E+00         0.00000E+00        -0.28878E+03
 
   -0.56435E+03         0.86258E+03         0.00000E+00
    0.86258E+03        -0.27399E+03         0.00000E+00
    0.00000E+00         0.00000E+00        -0.25150E+03
 
   -0.31628E+03         0.91029E+03         0.00000E+00
    0.91029E+03        -0.37989E+03         0.00000E+00
    0.00000E+00         0.00000E+00        -0.20885E+03
 
   -0.38266E+03        -0.53082E+02         0.00000E+00
   -0.53082E+02         0.24682E+01         0.00000E+00
    0.00000E+00         0.00000E+00        -0.11406E+03
 
   -0.45077E+03        -0.14591E+03         0.00000E+00
   -0.14591E+03         0.14204E+02         0.00000E+00
    0.00000E+00         0.00000E+00        -0.13097E+03
 
   -0.53768E+03        -0.22058E+03         0.00000E+00
   -0.22058E+03         0.35338E+02         0.00000E+00
    0.00000E+00         0.00000E+00        -0.15070E+03
 
   -0.63848E+03        -0.27671E+03         0.00000E+00
   -0.27671E+03         0.63411E+02         0.00000E+00
    0.00000E+00         0.00000E+00        -0.17252E+03
 
   -0.74837E+03        -0.31433E+03         0.00000E+00
   -0.31433E+03         0.96044E+02         0.00000E+00
    0.00000E+00         0.00000E+00        -0.19570E+03
 
   -0.86273E+03        -0.33383E+03         0.00000E+00
   -0.33383E+03         0.13098E+03         0.00000E+00
    0.00000E+00         0.00000E+00        -0.21953E+03
 
   -0.97719E+03        -0.33593E+03         0.00000E+00
   -0.33593E+03         0.16610E+03         0.00000E+00
    0.00000E+00         0.00000E+00        -0.24333E+03
 
   -0.10876E+04        -0.32161E+03         0.00000E+00
   -0.32161E+03         0.19948E+03         0.00000E+00
    0.00000E+00         0.00000E+00        -0.26645E+03
 
   -0.11903E+04        -0.29209E+03         0.00000E+00
   -0.29209E+03         0.22938E+03         0.00000E+00
    0.00000E+00         0.00000E+00        -0.28827E+03
 
   -0.12817E+04        -0.24876E+03         0.00000E+00
   -0.24876E+03         0.25425E+03         0.00000E+00
    0.00000E+00         0.00000E+00        -0.30822E+03
 
   -0.13587E+04        -0.19317E+03         0.00000E+00
   -0.19317E+03         0.27277E+03         0.00000E+00
    0.00000E+00         0.00000E+00        -0.32577E+03
 
   -0.14185E+04        -0.12698E+03         0.00000E+00
   -0.12698E+03         0.28382E+03         0.00000E+00
    0.00000E+00         0.00000E+00        -0.34042E+03
 
   -0.14589E+04        -0.51922E+02         0.00000E+00
   -0.51922E+02         0.28646E+03         0.00000E+00
    0.00000E+00         0.00000E+00        -0.35173E+03
 
   -0.14777E+04         0.30194E+02         0.00000E+00
    0.30194E+02         0.27998E+03         0.00000E+00
    0.00000E+00         0.00000E+00        -0.35931E+03
 
   -0.14732E+04         0.11751E+03         0.00000E+00
    0.11751E+03         0.26384E+03         0.00000E+00
    0.00000E+00         0.00000E+00        -0.36282E+03
 
   -0.14442E+04         0.20812E+03         0.00000E+00
    0.20812E+03         0.23768E+03         0.00000E+00
    0.00000E+00         0.00000E+00        -0.36195E+03
 
   -0.13895E+04         0.30007E+03         0.00000E+00
    0.30007E+03         0.20129E+03         0.00000E+00
    0.00000E+00         0.00000E+00        -0.35647E+03
 
   -0.13086E+04         0.39137E+03         0.00000E+00
    0.39137E+03         0.15466E+03         0.00000E+00
    0.00000E+00         0.00000E+00        -0.34618E+03
 
   -0.12011E+04         0.47996E+03         0.00000E+00
    0.47996E+03         0.97935E+02         0.00000E+00
    0.00000E+00         0.00000E+00        -0.33096E+03
 
   -0.10671E+04         0.56371E+03         0.00000E+00
    0.56371E+03         0.31414E+02         0.00000E+00
    0.00000E+00         0.00000E+00        -0.31071E+03
 
   -0.90699E+03         0.64044E+03         0.00000E+00
    0.64044E+03        -0.44408E+02         0.00000E+00
    0.00000E+00         0.00000E+00        -0.28542E+03
 
   -0.72156E+03         0.70784E+03         0.00000E+00
    0.70784E+03        -0.12885E+03         0.00000E+00
    0.00000E+00         0.00000E+00        -0.25512E+03
 
   -0.51205E+03         0.76353E+03         0.00000E+00
    0.76353E+03        -0.22100E+03         0.00000E+00
    0.00000E+00         0.00000E+00        -0.21991E+03
 
   -0.28013E+03         0.80503E+03         0.00000E+00
    0.80503E+03        -0.31973E+03         0.00000E+00
    0.00000E+00         0.00000E+00        -0.17996E+03
 
   -0.47843E+03        -0.46960E+02         0.00000E+00
   -0.46960E+02         0.23485E+01         0.00000E+00
    0.00000E+00         0.00000E+00        -0.14282E+03
 
   -0.52995E+03        -0.12935E+03         0.00000E+00
   -0.12935E+03         0.13560E+02         0.00000E+00
    0.00000E+00         0.00000E+00        -0.15492E+03
 
   -0.59966E+03        -0.19597E+03         0.00000E+00
   -0.19597E+03         0.33850E+02         0.00000E+00
    0.00000E+00         0.00000E+00        -0.16974E+03
 
   -0.68304E+03        -0.24639E+03         0.00000E+00
   -0.24639E+03         0.60956E+02         0.00000E+00
    0.00000E+00         0.00000E+00        -0.18663E+03
 
   -0.77568E+03        -0.28054E+03         0.00000E+00
   -0.28054E+03         0.92665E+02         0.00000E+00
    0.00000E+00         0.00000E+00        -0.20490E+03
 
   -0.87328E+03        -0.29870E+03         0.00000E+00
   -0.29870E+03         0.12685E+03         0.00000E+00
    0.00000E+00         0.00000E+00        -0.22393E+03
 
   -0.97175E+03        -0.30143E+03         0.00000E+00
   -0.30143E+03         0.16152E+03         0.00000E+00
    0.00000E+00         0.00000E+00        -0.24307E+03
 
   -0.10672E+04        -0.28956E+03         0.00000E+00
   -0.28956E+03         0.19480E+03         0.00000E+00
    0.00000E+00         0.00000E+00        -0.26173E+03
 
   -0.11561E+04        -0.26410E+03         0.00000E+00
   -0.26410E+03         0.22503E+03         0.00000E+00
    0.00000E+00         0.00000E+00        -0.27932E+03
 
   -0.12351E+04        -0.22627E+03         0.00000E+00
   -0.22627E+03         0.25068E+03         0.00000E+00
    0.00000E+00         0.00000E+00        -0.29533E+03
 
   -0.13012E+04        -0.17740E+03         0.00000E+00
   -0.17740E+03         0.27043E+03         0.00000E+00
    0.00000E+00         0.00000E+00        -0.30924E+03
 
   -0.13518E+04        -0.11895E+03         0.00000E+00
   -0.11895E+03         0.28317E+03         0.00000E+00
    0.00000E+00         0.00000E+00        -0.32060E+03
 
   -0.13846E+04        -0.52472E+02         0.00000E+00
   -0.52472E+02         0.28795E+03         0.00000E+00
    0.00000E+00         0.00000E+00        -0.32899E+03
 
   -0.13975E+04         0.20420E+02         0.00000E+00
    0.20420E+02         0.28401E+03         0.00000E+00
    0.00000E+00         0.00000E+00        -0.33405E+03
 
   -0.13890E+04         0.98046E+02         0.00000E+00
    0.98046E+02         0.27081E+03         0.00000E+00
    0.00000E+00         0.00000E+00        -0.33545E+03
 
   -0.13577E+04         0.17868E+03         0.00000E+00
    0.17868E+03         0.24795E+03         0.00000E+00
    0.00000E+00         0.00000E+00        -0.33293E+03
 
   -0.13027E+04         0.26054E+03         0.00000E+00
    0.26054E+03         0.21522E+03         0.00000E+00
    0.00000E+00         0.00000E+00        -0.32625E+03
 
   -0.12234E+04         0.34181E+03         0.00000E+00
    0.34181E+03         0.17260E+03         0.00000E+00
    0.00000E+00         0.00000E+00        -0.31524E+03
 
   -0.11195E+04         0.42059E+03         0.00000E+00
    0.42059E+03         0.12023E+03         0.00000E+00
    0.00000E+00         0.00000E+00        -0.29979E+03
 
   -0.99119E+03         0.49496E+03         0.00000E+00
    0.49496E+03         0.58423E+02         0.00000E+00
    0.00000E+00         0.00000E+00        -0.27983E+03
 
   -0.83889E+03         0.56289E+03         0.00000E+00
    0.56289E+03        -0.12288E+02         0.00000E+00
    0.00000E+00         0.00000E+00        -0.25535E+03
 
   -0.66350E+03         0.62231E+03         0.00000E+00
    0.62231E+03        -0.91185E+02         0.00000E+00
    0.00000E+00         0.00000E+00        -0.22641E+03
 
   -0.46634E+03         0.67106E+03         0.00000E+00
    0.67106E+03        -0.17733E+03         0.00000E+00
    0.00000E+00         0.00000E+00        -0.19310E+03
 
   -0.24918E+03         0.70691E+03         0.00000E+00
    0.70691E+03        -0.26953E+03         0.00000E+00
    0.00000E+00         0.00000E+00        -0.15561E+03
 
   -0.56284E+03        -0.41131E+02         0.00000E+00
   -0.41131E+02         0.22345E+01         0.00000E+00
    0.00000E+00         0.00000E+00        -0.16818E+03
 
   -0.60005E+03        -0.11352E+03         0.00000E+00
   -0.11352E+03         0.12941E+02         0.00000E+00
    0.00000E+00         0.00000E+00        -0.17613E+03
 
   -0.65482E+03        -0.17231E+03         0.00000E+00
   -0.17231E+03         0.32405E+02         0.00000E+00
    0.00000E+00         0.00000E+00        -0.18673E+03
 
   -0.72301E+03        -0.21706E+03         0.00000E+00
   -0.21706E+03         0.58537E+02         0.00000E+00
    0.00000E+00         0.00000E+00        -0.19934E+03
 
   -0.80052E+03        -0.24765E+03         0.00000E+00
   -0.24765E+03         0.89275E+02         0.00000E+00
    0.00000E+00         0.00000E+00        -0.21337E+03
 
   -0.88336E+03        -0.26426E+03         0.00000E+00
   -0.26426E+03         0.12262E+03         0.00000E+00
    0.00000E+00         0.00000E+00        -0.22822E+03
 
   -0.96770E+03        -0.26733E+03         0.00000E+00
   -0.26733E+03         0.15666E+03         0.00000E+00
    0.00000E+00         0.00000E+00        -0.24331E+03
 
   -0.10499E+04        -0.25754E+03         0.00000E+00
   -0.25754E+03         0.18964E+03         0.00000E+00
    0.00000E+00         0.00000E+00        -0.25808E+03
 
   -0.11265E+04        -0.23574E+03         0.00000E+00
   -0.23574E+03         0.21990E+03         0.00000E+00
    0.00000E+00         0.00000E+00        -0.27199E+03
 
   -0.11944E+04        -0.20297E+03         0.00000E+00
   -0.20297E+03         0.24598E+03         0.00000E+00
    0.00000E+00         0.00000E+00        -0.28454E+03
 
   -0.12508E+04        -0.16038E+03         0.00000E+00
   -0.16038E+03         0.26657E+03         0.00000E+00
    0.00000E+00         0.00000E+00        -0.29527E+03
 
   -0.12931E+04        -0.10925E+03         0.00000E+00
   -0.10925E+03         0.28055E+03         0.00000E+00
    0.00000E+00         0.00000E+00        -0.30376E+03
 
   -0.13190E+04        -0.50941E+02         0.00000E+00
   -0.50941E+02         0.28697E+03         0.00000E+00
    0.00000E+00         0.00000E+00        -0.30960E+03
 
   -0.13266E+04         0.13119E+02         0.00000E+00
    0.13119E+02         0.28508E+03         0.00000E+00
    0.00000E+00         0.00000E+00        -0.31246E+03
 
   -0.13144E+04         0.81431E+02         0.00000E+00
    0.81431E+02         0.27428E+03         0.00000E+00
    0.00000E+00         0.00000E+00        -0.31204E+03
 
   -0.12811E+04         0.15245E+03         0.00000E+00
    0.15245E+03         0.25419E+03         0.00000E+00
    0.00000E+00         0.00000E+00        -0.30808E+03
 
   -0.12258E+04         0.22457E+03         0.00000E+00
    0.22457E+03         0.22458E+03         0.00000E+00
    0.00000E+00         0.00000E+00        -0.30037E+03
 
   -0.11480E+04         0.29615E+03         0.00000E+00
    0.29615E+03         0.18541E+03         0.00000E+00
    0.00000E+00         0.00000E+00        -0.28876E+03
 
   -0.10474E+04         0.36549E+03         0.00000E+00
    0.36549E+03         0.13685E+03         0.00000E+00
    0.00000E+00         0.00000E+00        -0.27315E+03
 
   -0.92418E+03         0.43083E+03         0.00000E+00
    0.43083E+03         0.79217E+02         0.00000E+00
    0.00000E+00         0.00000E+00        -0.25349E+03
 
   -0.77898E+03         0.49038E+03         0.00000E+00
    0.49038E+03         0.13061E+02         0.00000E+00
    0.00000E+00         0.00000E+00        -0.22978E+03
 
   -0.61270E+03         0.54225E+03         0.00000E+00
    0.54225E+03        -0.60873E+02         0.00000E+00
    0.00000E+00         0.00000E+00        -0.20207E+03
 
   -0.42672E+03         0.58453E+03         0.00000E+00
    0.58453E+03        -0.14161E+03         0.00000E+00
    0.00000E+00         0.00000E+00        -0.17050E+03
 
   -0.22286E+03         0.61525E+03         0.00000E+00
    0.61525E+03        -0.22793E+03         0.00000E+00
    0.00000E+00         0.00000E+00        -0.13524E+03
 
   -0.63641E+03        -0.35579E+02         0.00000E+00
   -0.35579E+02         0.21285E+01         0.00000E+00
    0.00000E+00         0.00000E+00        -0.19029E+03
 
   -0.66140E+03        -0.98363E+02         0.00000E+00
   -0.98363E+02         0.12360E+02         0.00000E+00
    0.00000E+00         0.00000E+00        -0.19471E+03
 
   -0.70332E+03        -0.14956E+03         0.00000E+00
   -0.14956E+03         0.31037E+02         0.00000E+00
    0.00000E+00         0.00000E+00        -0.20169E+03
 
   -0.75838E+03        -0.18872E+03         0.00000E+00
   -0.18872E+03         0.56225E+02         0.00000E+00
    0.00000E+00         0.00000E+00        -0.21065E+03
 
   -0.82277E+03        -0.21570E+03         0.00000E+00
   -0.21570E+03         0.85991E+02         0.00000E+00
    0.00000E+00         0.00000E+00        -0.22103E+03
 
   -0.89276E+03        -0.23061E+03         0.00000E+00
   -0.23061E+03         0.11845E+03         0.00000E+00
    0.00000E+00         0.00000E+00        -0.23229E+03
 
   -0.96474E+03        -0.23378E+03         0.00000E+00
   -0.23378E+03         0.15179E+03         0.00000E+00
    0.00000E+00         0.00000E+00        -0.24389E+03
 
   -0.10353E+04        -0.22576E+03         0.00000E+00
   -0.22576E+03         0.18430E+03         0.00000E+00
    0.00000E+00         0.00000E+00        -0.25529E+03
 
   -0.11011E+04        -0.20728E+03         0.00000E+00
   -0.20728E+03         0.21441E+03         0.00000E+00
    0.00000E+00         0.00000E+00        -0.26602E+03
 
   -0.11593E+04        -0.17919E+03         0.00000E+00
   -0.17919E+03         0.24066E+03         0.00000E+00
    0.00000E+00         0.00000E+00        -0.27559E+03
 
   -0.12070E+04        -0.14250E+03         0.00000E+00
   -0.14250E+03         0.26178E+03         0.00000E+00
    0.00000E+00         0.00000E+00        -0.28358E+03
 
   -0.12419E+04        -0.98306E+02         0.00000E+00
   -0.98306E+02         0.27665E+03         0.00000E+00
    0.00000E+00         0.00000E+00        -0.28957E+03
 
   -0.12617E+04        -0.47782E+02         0.00000E+00
   -0.47782E+02         0.28433E+03         0.00000E+00
    0.00000E+00         0.00000E+00        -0.29322E+03
 
   -0.12646E+04         0.78132E+01         0.00000E+00
    0.78132E+01         0.28404E+03         0.00000E+00
    0.00000E+00         0.00000E+00        -0.29418E+03
 
   -0.12491E+04         0.67167E+02         0.00000E+00
    0.67167E+02         0.27521E+03         0.00000E+00
    0.00000E+00         0.00000E+00        -0.29218E+03
 
   -0.12140E+04         0.12891E+03         0.00000E+00
    0.12891E+03         0.25741E+03         0.00000E+00
    0.00000E+00         0.00000E+00        -0.28699E+03
 
   -0.11585E+04         0.19163E+03         0.00000E+00
    0.19163E+03         0.23043E+03         0.00000E+00
    0.00000E+00         0.00000E+00        -0.27842E+03
 
   -0.10819E+04         0.25386E+03         0.00000E+00
    0.25386E+03         0.19423E+03         0.00000E+00
    0.00000E+00         0.00000E+00        -0.26631E+03
 
   -0.98428E+03         0.31410E+03         0.00000E+00
    0.31410E+03         0.14896E+03         0.00000E+00
    0.00000E+00         0.00000E+00        -0.25060E+03
 
   -0.86572E+03         0.37080E+03         0.00000E+00
    0.37080E+03         0.94975E+02         0.00000E+00
    0.00000E+00         0.00000E+00        -0.23122E+03
 
   -0.72686E+03         0.42233E+03         0.00000E+00
    0.42233E+03         0.32827E+02         0.00000E+00
    0.00000E+00         0.00000E+00        -0.20821E+03
 
   -0.56871E+03         0.46708E+03         0.00000E+00
    0.46708E+03        -0.36717E+02         0.00000E+00
    0.00000E+00         0.00000E+00        -0.18163E+03
 
   -0.39270E+03         0.50333E+03         0.00000E+00
    0.50333E+03        -0.11266E+03         0.00000E+00
    0.00000E+00         0.00000E+00        -0.15161E+03
 
   -0.20066E+03         0.52936E+03         0.00000E+00
    0.52936E+03        -0.19377E+03         0.00000E+00
    0.00000E+00         0.00000E+00        -0.11833E+03
 
   -0.69963E+03        -0.30283E+02         0.00000E+00
   -0.30283E+02         0.20321E+01         0.00000E+00
    0.00000E+00         0.00000E+00        -0.20928E+03
 
   -0.71429E+03        -0.83847E+02         0.00000E+00
   -0.83847E+02         0.11829E+02         0.00000E+00
    0.00000E+00         0.00000E+00        -0.21074E+03
 
   -0.74532E+03        -0.12768E+03         0.00000E+00
   -0.12768E+03         0.29779E+02         0.00000E+00
    0.00000E+00         0.00000E+00        -0.21466E+03
 
   -0.78917E+03        -0.16135E+03         0.00000E+00
   -0.16135E+03         0.54078E+02         0.00000E+00
    0.00000E+00         0.00000E+00        -0.22053E+03
 
   -0.84232E+03        -0.18470E+03         0.00000E+00
   -0.18470E+03         0.82915E+02         0.00000E+00
    0.00000E+00         0.00000E+00        -0.22782E+03
 
   -0.90127E+03        -0.19778E+03         0.00000E+00
   -0.19778E+03         0.11450E+03         0.00000E+00
    0.00000E+00         0.00000E+00        -0.23603E+03
 
   -0.96262E+03        -0.20085E+03         0.00000E+00
   -0.20085E+03         0.14710E+03         0.00000E+00
    0.00000E+00         0.00000E+00        -0.24465E+03
 
   -0.10231E+04        -0.19436E+03         0.00000E+00
   -0.19436E+03         0.17908E+03         0.00000E+00
    0.00000E+00         0.00000E+00        -0.25320E+03
 
   -0.10796E+04        -0.17889E+03         0.00000E+00
   -0.17889E+03         0.20890E+03         0.00000E+00
    0.00000E+00         0.00000E+00        -0.26121E+03
 
   -0.11293E+04        -0.15518E+03         0.00000E+00
   -0.15518E+03         0.23515E+03         0.00000E+00
    0.00000E+00         0.00000E+00        -0.26825E+03
 
   -0.11695E+04        -0.12405E+03         0.00000E+00
   -0.12405E+03         0.25657E+03         0.00000E+00
    0.00000E+00         0.00000E+00        -0.27389E+03
 
   -0.11979E+04        -0.86442E+02         0.00000E+00
   -0.86442E+02         0.27206E+03         0.00000E+00
    0.00000E+00         0.00000E+00        -0.27776E+03
 
   -0.12124E+04        -0.43366E+02         0.00000E+00
   -0.43366E+02         0.28068E+03         0.00000E+00
    0.00000E+00         0.00000E+00        -0.27952E+03
 
   -0.12112E+04         0.41009E+01         0.00000E+00
    0.41009E+01         0.28165E+03         0.00000E+00
    0.00000E+00         0.00000E+00        -0.27887E+03
 
   -0.11929E+04         0.54825E+02         0.00000E+00
    0.54825E+02         0.27439E+03         0.00000E+00
    0.00000E+00         0.00000E+00        -0.27554E+03
 
   -0.11562E+04         0.10762E+03         0.00000E+00
    0.10762E+03         0.25848E+03         0.00000E+00
    0.00000E+00         0.00000E+00        -0.26931E+03
 
   -0.11004E+04         0.16126E+03         0.00000E+00
    0.16126E+03         0.23370E+03         0.00000E+00
    0.00000E+00         0.00000E+00        -0.26001E+03
 
   -0.10250E+04         0.21447E+03         0.00000E+00
    0.21447E+03         0.20000E+03         0.00000E+00
    0.00000E+00         0.00000E+00        -0.24750E+03
 
   -0.92993E+03         0.26594E+03         0.00000E+00
    0.26594E+03         0.15755E+03         0.00000E+00
    0.00000E+00         0.00000E+00        -0.23171E+03
 
   -0.81543E+03         0.31432E+03         0.00000E+00
    0.31432E+03         0.10671E+03         0.00000E+00
    0.00000E+00         0.00000E+00        -0.21262E+03
 
   -0.68216E+03         0.35821E+03         0.00000E+00
    0.35821E+03         0.48033E+02         0.00000E+00
    0.00000E+00         0.00000E+00        -0.19024E+03
 
   -0.53115E+03         0.39619E+03         0.00000E+00
    0.39619E+03        -0.17690E+02         0.00000E+00
    0.00000E+00         0.00000E+00        -0.16465E+03
 
   -0.36386E+03         0.42680E+03         0.00000E+00
    0.42680E+03        -0.89452E+02         0.00000E+00
    0.00000E+00         0.00000E+00        -0.13599E+03
 
   -0.18217E+03         0.44856E+03         0.00000E+00
    0.44856E+03        -0.16601E+03         0.00000E+00
    0.00000E+00         0.00000E+00        -0.10446E+03
 
   -0.75294E+03        -0.25216E+02         0.00000E+00
   -0.25216E+02         0.19468E+01         0.00000E+00
    0.00000E+00         0.00000E+00        -0.22530E+03
 
   -0.75903E+03        -0.69909E+02         0.00000E+00
   -0.69909E+02         0.11358E+02         0.00000E+00
    0.00000E+00         0.00000E+00        -0.22430E+03
 
   -0.78096E+03        -0.10659E+03         0.00000E+00
   -0.10659E+03         0.28654E+02         0.00000E+00
    0.00000E+00         0.00000E+00        -0.22569E+03
 
   -0.81543E+03        -0.13487E+03         0.00000E+00
   -0.13487E+03         0.52150E+02         0.00000E+00
    0.00000E+00         0.00000E+00        -0.22898E+03
 
   -0.85914E+03        -0.15458E+03         0.00000E+00
   -0.15458E+03         0.80130E+02         0.00000E+00
    0.00000E+00         0.00000E+00        -0.23370E+03
 
   -0.90878E+03        -0.16576E+03         0.00000E+00
   -0.16576E+03         0.11089E+03         0.00000E+00
    0.00000E+00         0.00000E+00        -0.23937E+03
 
   -0.96113E+03        -0.16858E+03         0.00000E+00
   -0.16858E+03         0.14278E+03         0.00000E+00
    0.00000E+00         0.00000E+00        -0.24551E+03
 
   -0.10131E+04        -0.16341E+03         0.00000E+00
   -0.16341E+03         0.17420E+03         0.00000E+00
    0.00000E+00         0.00000E+00        -0.25166E+03
 
   -0.10617E+04        -0.15071E+03         0.00000E+00
   -0.15071E+03         0.20366E+03         0.00000E+00
    0.00000E+00         0.00000E+00        -0.25740E+03
 
   -0.11041E+04        -0.13109E+03         0.00000E+00
   -0.13109E+03         0.22980E+03         0.00000E+00
    0.00000E+00         0.00000E+00        -0.26230E+03
 
   -0.11380E+04        -0.10524E+03         0.00000E+00
   -0.10524E+03         0.25137E+03         0.00000E+00
    0.00000E+00         0.00000E+00        -0.26598E+03
 
   -0.11609E+04        -0.73921E+02         0.00000E+00
   -0.73921E+02         0.26727E+03         0.00000E+00
    0.00000E+00         0.00000E+00        -0.26807E+03
 
   -0.11708E+04        -0.37992E+02         0.00000E+00
   -0.37992E+02         0.27658E+03         0.00000E+00
    0.00000E+00         0.00000E+00        -0.26826E+03
 
   -0.11661E+04         0.16461E+01         0.00000E+00
    0.16461E+01         0.27852E+03         0.00000E+00
    0.00000E+00         0.00000E+00        -0.26626E+03
 
   -0.11452E+04         0.44037E+02         0.00000E+00
    0.44037E+02         0.27251E+03         0.00000E+00
    0.00000E+00         0.00000E+00        -0.26181E+03
 
   -0.11072E+04         0.88180E+02         0.00000E+00
    0.88180E+02         0.25813E+03         0.00000E+00
    0.00000E+00         0.00000E+00        -0.25472E+03
 
   -0.10512E+04         0.13303E+03         0.00000E+00
    0.13303E+03         0.23515E+03         0.00000E+00
    0.00000E+00         0.00000E+00        -0.24482E+03
 
   -0.97683E+03         0.17752E+03         0.00000E+00
    0.17752E+03         0.20354E+03         0.00000E+00
    0.00000E+00         0.00000E+00        -0.23199E+03
 
   -0.88399E+03         0.22052E+03         0.00000E+00
    0.22052E+03         0.16346E+03         0.00000E+00
    0.00000E+00         0.00000E+00        -0.21616E+03
 
   -0.77299E+03         0.26090E+03         0.00000E+00
    0.26090E+03         0.11527E+03         0.00000E+00
    0.00000E+00         0.00000E+00        -0.19732E+03
 
   -0.64452E+03         0.29746E+03         0.00000E+00
    0.29746E+03         0.59543E+02         0.00000E+00
    0.00000E+00         0.00000E+00        -0.17549E+03
 
   -0.49964E+03         0.32902E+03         0.00000E+00
    0.32902E+03        -0.29216E+01         0.00000E+00
    0.00000E+00         0.00000E+00        -0.15077E+03
 
   -0.33984E+03         0.35433E+03         0.00000E+00
    0.35433E+03        -0.71111E+02         0.00000E+00
    0.00000E+00         0.00000E+00        -0.12329E+03
 
   -0.16701E+03         0.37215E+03         0.00000E+00
    0.37215E+03        -0.14378E+03         0.00000E+00
    0.00000E+00         0.00000E+00        -0.93235E+02
 
   -0.79674E+03        -0.20349E+02         0.00000E+00
   -0.20349E+02         0.18739E+01         0.00000E+00
    0.00000E+00         0.00000E+00        -0.23846E+03
 
   -0.79588E+03        -0.56477E+02         0.00000E+00
   -0.56477E+02         0.10953E+02         0.00000E+00
    0.00000E+00         0.00000E+00        -0.23548E+03
 
   -0.81040E+03        -0.86198E+02         0.00000E+00
   -0.86198E+02         0.27686E+02         0.00000E+00
    0.00000E+00         0.00000E+00        -0.23481E+03
 
   -0.83721E+03        -0.10918E+03         0.00000E+00
   -0.10918E+03         0.50481E+02         0.00000E+00
    0.00000E+00         0.00000E+00        -0.23602E+03
 
   -0.87318E+03        -0.12528E+03         0.00000E+00
   -0.12528E+03         0.77707E+02         0.00000E+00
    0.00000E+00         0.00000E+00        -0.23864E+03
 
   -0.91517E+03        -0.13448E+03         0.00000E+00
   -0.13448E+03         0.10773E+03         0.00000E+00
    0.00000E+00         0.00000E+00        -0.24223E+03
 
   -0.96011E+03        -0.13694E+03         0.00000E+00
   -0.13694E+03         0.13896E+03         0.00000E+00
    0.00000E+00         0.00000E+00        -0.24635E+03
 
   -0.10050E+04        -0.13292E+03         0.00000E+00
   -0.13292E+03         0.16985E+03         0.00000E+00
    0.00000E+00         0.00000E+00        -0.25055E+03
 
   -0.10471E+04        -0.12279E+03         0.00000E+00
   -0.12279E+03         0.19895E+03         0.00000E+00
    0.00000E+00         0.00000E+00        -0.25443E+03
 
   -0.10836E+04        -0.10704E+03         0.00000E+00
   -0.10704E+03         0.22491E+03         0.00000E+00
    0.00000E+00         0.00000E+00        -0.25759E+03
 
   -0.11121E+04        -0.86215E+02         0.00000E+00
   -0.86215E+02         0.24652E+03         0.00000E+00
    0.00000E+00         0.00000E+00        -0.25966E+03
 
   -0.11304E+04        -0.60940E+02         0.00000E+00
   -0.60940E+02         0.26269E+03         0.00000E+00
    0.00000E+00         0.00000E+00        -0.26031E+03
 
   -0.11365E+04        -0.31900E+02         0.00000E+00
   -0.31900E+02         0.27250E+03         0.00000E+00
    0.00000E+00         0.00000E+00        -0.25921E+03
 
   -0.11289E+04         0.16742E+00         0.00000E+00
    0.16742E+00         0.27517E+03         0.00000E+00
    0.00000E+00         0.00000E+00        -0.25611E+03
 
   -0.11060E+04         0.34484E+02         0.00000E+00
    0.34484E+02         0.27013E+03         0.00000E+00
    0.00000E+00         0.00000E+00        -0.25075E+03
 
   -0.10668E+04         0.70232E+02         0.00000E+00
    0.70232E+02         0.25696E+03         0.00000E+00
    0.00000E+00         0.00000E+00        -0.24296E+03
 
   -0.10107E+04         0.10656E+03         0.00000E+00
    0.10656E+03         0.23544E+03         0.00000E+00
    0.00000E+00         0.00000E+00        -0.23257E+03
 
   -0.93714E+03         0.14258E+03         0.00000E+00
    0.14258E+03         0.20552E+03         0.00000E+00
    0.00000E+00         0.00000E+00        -0.21949E+03
 
   -0.84617E+03         0.17738E+03         0.00000E+00
    0.17738E+03         0.16737E+03         0.00000E+00
    0.00000E+00         0.00000E+00        -0.20364E+03
 
   -0.73810E+03         0.21003E+03         0.00000E+00
    0.21003E+03         0.12136E+03         0.00000E+00
    0.00000E+00         0.00000E+00        -0.18502E+03
 
   -0.61364E+03         0.23955E+03         0.00000E+00
    0.23955E+03         0.68080E+02         0.00000E+00
    0.00000E+00         0.00000E+00        -0.16367E+03
 
   -0.47388E+03         0.26496E+03         0.00000E+00
    0.26496E+03         0.83165E+01         0.00000E+00
    0.00000E+00         0.00000E+00        -0.13967E+03
 
   -0.32031E+03         0.28527E+03         0.00000E+00
    0.28527E+03        -0.56906E+02         0.00000E+00
    0.00000E+00         0.00000E+00        -0.11317E+03
 
   -0.15485E+03         0.29946E+03         0.00000E+00
    0.29946E+03        -0.12634E+03         0.00000E+00
    0.00000E+00         0.00000E+00        -0.84355E+02
 
   -0.83135E+03        -0.15649E+02         0.00000E+00
   -0.15649E+02         0.18144E+01         0.00000E+00
    0.00000E+00         0.00000E+00        -0.24886E+03
 
   -0.82507E+03        -0.43471E+02         0.00000E+00
   -0.43471E+02         0.10622E+02         0.00000E+00
    0.00000E+00         0.00000E+00        -0.24433E+03
 
   -0.83377E+03        -0.66404E+02         0.00000E+00
   -0.66404E+02         0.26891E+02         0.00000E+00
    0.00000E+00         0.00000E+00        -0.24206E+03
 
   -0.85455E+03        -0.84182E+02         0.00000E+00
   -0.84182E+02         0.49106E+02         0.00000E+00
    0.00000E+00         0.00000E+00        -0.24163E+03
 
   -0.88442E+03        -0.96672E+02         0.00000E+00
   -0.96672E+02         0.75704E+02         0.00000E+00
    0.00000E+00         0.00000E+00        -0.24261E+03
 
   -0.92037E+03        -0.10387E+03         0.00000E+00
   -0.10387E+03         0.10511E+03         0.00000E+00
    0.00000E+00         0.00000E+00        -0.24458E+03
 
   -0.95944E+03        -0.10586E+03         0.00000E+00
   -0.10586E+03         0.13577E+03         0.00000E+00
    0.00000E+00         0.00000E+00        -0.24710E+03
 
   -0.99877E+03        -0.10286E+03         0.00000E+00
   -0.10286E+03         0.16620E+03         0.00000E+00
    0.00000E+00         0.00000E+00        -0.24977E+03
 
   -0.10356E+04        -0.95151E+02         0.00000E+00
   -0.95151E+02         0.19496E+03         0.00000E+00
    0.00000E+00         0.00000E+00        -0.25219E+03
 
   -0.10673E+04        -0.83085E+02         0.00000E+00
   -0.83085E+02         0.22073E+03         0.00000E+00
    0.00000E+00         0.00000E+00        -0.25398E+03
 
   -0.10916E+04        -0.67090E+02         0.00000E+00
   -0.67090E+02         0.24231E+03         0.00000E+00
    0.00000E+00         0.00000E+00        -0.25479E+03
 
   -0.11063E+04        -0.47647E+02         0.00000E+00
   -0.47647E+02         0.25864E+03         0.00000E+00
    0.00000E+00         0.00000E+00        -0.25429E+03
 
   -0.11094E+04        -0.25285E+02         0.00000E+00
   -0.25285E+02         0.26880E+03         0.00000E+00
    0.00000E+00         0.00000E+00        -0.25219E+03
 
   -0.10994E+04        -0.57127E+00         0.00000E+00
   -0.57127E+00         0.27201E+03         0.00000E+00
    0.00000E+00         0.00000E+00        -0.24822E+03
 
   -0.10749E+04         0.25889E+02         0.00000E+00
    0.25889E+02         0.26771E+03         0.00000E+00
    0.00000E+00         0.00000E+00        -0.24215E+03
 
   -0.10348E+04         0.53459E+02         0.00000E+00
    0.53459E+02         0.25547E+03         0.00000E+00
    0.00000E+00         0.00000E+00        -0.23381E+03
 
   -0.97856E+03         0.81478E+02         0.00000E+00
    0.81478E+02         0.23506E+03         0.00000E+00
    0.00000E+00         0.00000E+00        -0.22305E+03
 
   -0.90570E+03         0.10926E+03         0.00000E+00
    0.10926E+03         0.20647E+03         0.00000E+00
    0.00000E+00         0.00000E+00        -0.20977E+03
 
   -0.81623E+03         0.13608E+03         0.00000E+00
    0.13608E+03         0.16985E+03         0.00000E+00
    0.00000E+00         0.00000E+00        -0.19391E+03
 
   -0.71050E+03         0.16123E+03         0.00000E+00
    0.16123E+03         0.12557E+03         0.00000E+00
    0.00000E+00         0.00000E+00        -0.17548E+03
 
   -0.58925E+03         0.18394E+03         0.00000E+00
    0.18394E+03         0.74228E+02         0.00000E+00
    0.00000E+00         0.00000E+00        -0.15451E+03
 
   -0.45359E+03         0.20345E+03         0.00000E+00
    0.20345E+03         0.16616E+02         0.00000E+00
    0.00000E+00         0.00000E+00        -0.13109E+03
 
   -0.30501E+03         0.21900E+03         0.00000E+00
    0.21900E+03        -0.46240E+02         0.00000E+00
    0.00000E+00         0.00000E+00        -0.10538E+03
 
   -0.14543E+03         0.22978E+03         0.00000E+00
    0.22978E+03        -0.11309E+03         0.00000E+00
    0.00000E+00         0.00000E+00        -0.77556E+02
 
   -0.85707E+03        -0.11082E+02         0.00000E+00
   -0.11082E+02         0.17691E+01         0.00000E+00
    0.00000E+00         0.00000E+00        -0.25659E+03
 
   -0.84678E+03        -0.30804E+02         0.00000E+00
   -0.30804E+02         0.10370E+02         0.00000E+00
    0.00000E+00         0.00000E+00        -0.25092E+03
 
   -0.85119E+03        -0.47085E+02         0.00000E+00
   -0.47085E+02         0.26284E+02         0.00000E+00
    0.00000E+00         0.00000E+00        -0.24747E+03
 
   -0.86751E+03        -0.59727E+02         0.00000E+00
   -0.59727E+02         0.48052E+02         0.00000E+00
    0.00000E+00         0.00000E+00        -0.24584E+03
 
   -0.89285E+03        -0.68633E+02         0.00000E+00
   -0.68633E+02         0.74163E+02         0.00000E+00
    0.00000E+00         0.00000E+00        -0.24561E+03
 
   -0.92431E+03        -0.73788E+02         0.00000E+00
   -0.73788E+02         0.10309E+03         0.00000E+00
    0.00000E+00         0.00000E+00        -0.24637E+03
 
   -0.95902E+03        -0.75260E+02         0.00000E+00
   -0.75260E+02         0.13330E+03         0.00000E+00
    0.00000E+00         0.00000E+00        -0.24772E+03
 
   -0.99419E+03        -0.73184E+02         0.00000E+00
   -0.73184E+02         0.16335E+03         0.00000E+00
    0.00000E+00         0.00000E+00        -0.24925E+03
 
   -0.10271E+04        -0.67761E+02         0.00000E+00
   -0.67761E+02         0.19183E+03         0.00000E+00
    0.00000E+00         0.00000E+00        -0.25059E+03
 
   -0.10553E+04        -0.59241E+02         0.00000E+00
   -0.59241E+02         0.21743E+03         0.00000E+00
    0.00000E+00         0.00000E+00        -0.25137E+03
 
   -0.10765E+04        -0.47925E+02         0.00000E+00
   -0.47925E+02         0.23897E+03         0.00000E+00
    0.00000E+00         0.00000E+00        -0.25124E+03
 
   -0.10884E+04        -0.34153E+02         0.00000E+00
   -0.34153E+02         0.25539E+03         0.00000E+00
    0.00000E+00         0.00000E+00        -0.24990E+03
 
   -0.10893E+04        -0.18300E+02         0.00000E+00
   -0.18300E+02         0.26578E+03         0.00000E+00
    0.00000E+00         0.00000E+00        -0.24704E+03
 
   -0.10775E+04        -0.77051E+00         0.00000E+00
   -0.77051E+00         0.26937E+03         0.00000E+00
    0.00000E+00         0.00000E+00        -0.24243E+03
 
   -0.10517E+04         0.18005E+02         0.00000E+00
    0.18005E+02         0.26559E+03         0.00000E+00
    0.00000E+00         0.00000E+00        -0.23584E+03
 
   -0.10110E+04         0.37572E+02         0.00000E+00
    0.37572E+02         0.25402E+03         0.00000E+00
    0.00000E+00         0.00000E+00        -0.22710E+03
 
   -0.95465E+03         0.57457E+02         0.00000E+00
    0.57457E+02         0.23444E+03         0.00000E+00
    0.00000E+00         0.00000E+00        -0.21606E+03
 
   -0.88230E+03         0.77170E+02         0.00000E+00
    0.77170E+02         0.20682E+03         0.00000E+00
    0.00000E+00         0.00000E+00        -0.20264E+03
 
   -0.79395E+03         0.96201E+02         0.00000E+00
    0.96201E+02         0.17133E+03         0.00000E+00
    0.00000E+00         0.00000E+00        -0.18679E+03
 
   -0.68999E+03         0.11403E+03         0.00000E+00
    0.11403E+03         0.12834E+03         0.00000E+00
    0.00000E+00         0.00000E+00        -0.16849E+03
 
   -0.57116E+03         0.13012E+03         0.00000E+00
    0.13012E+03         0.78446E+02         0.00000E+00
    0.00000E+00         0.00000E+00        -0.14781E+03
 
   -0.43856E+03         0.14392E+03         0.00000E+00
    0.14392E+03         0.22443E+02         0.00000E+00
    0.00000E+00         0.00000E+00        -0.12484E+03
 
   -0.29373E+03         0.15488E+03         0.00000E+00
    0.15488E+03        -0.38643E+02         0.00000E+00
    0.00000E+00         0.00000E+00        -0.99711E+02
 
   -0.13855E+03         0.16246E+03         0.00000E+00
    0.16246E+03        -0.10356E+03         0.00000E+00
    0.00000E+00         0.00000E+00        -0.72633E+02
 
   -0.87409E+03        -0.66105E+01         0.00000E+00
   -0.66105E+01         0.17386E+01         0.00000E+00
    0.00000E+00         0.00000E+00        -0.26171E+03
 
   -0.86117E+03        -0.18383E+02         0.00000E+00
   -0.18383E+02         0.10199E+02         0.00000E+00
    0.00000E+00         0.00000E+00        -0.25529E+03
 
   -0.86276E+03        -0.28111E+02         0.00000E+00
   -0.28111E+02         0.25873E+02         0.00000E+00
    0.00000E+00         0.00000E+00        -0.25107E+03
 
   -0.87612E+03        -0.35674E+02         0.00000E+00
   -0.35674E+02         0.47339E+02         0.00000E+00
    0.00000E+00         0.00000E+00        -0.24864E+03
 
   -0.89847E+03        -0.41010E+02         0.00000E+00
   -0.41010E+02         0.73118E+02         0.00000E+00
    0.00000E+00         0.00000E+00        -0.24761E+03
 
   -0.92696E+03        -0.44109E+02         0.00000E+00
   -0.44109E+02         0.10171E+03         0.00000E+00
    0.00000E+00         0.00000E+00        -0.24757E+03
 
   -0.95878E+03        -0.45010E+02         0.00000E+00
   -0.45010E+02         0.13162E+03         0.00000E+00
    0.00000E+00         0.00000E+00        -0.24815E+03
 
   -0.99119E+03        -0.43791E+02         0.00000E+00
   -0.43791E+02         0.16141E+03         0.00000E+00
    0.00000E+00         0.00000E+00        -0.24893E+03
 
   -0.10216E+04        -0.40571E+02         0.00000E+00
   -0.40571E+02         0.18968E+03         0.00000E+00
    0.00000E+00         0.00000E+00        -0.24956E+03
 
   -0.10474E+04        -0.35498E+02         0.00000E+00
   -0.35498E+02         0.21516E+03         0.00000E+00
    0.00000E+00         0.00000E+00        -0.24967E+03
 
   -0.10664E+04        -0.28752E+02         0.00000E+00
   -0.28752E+02         0.23665E+03         0.00000E+00
    0.00000E+00         0.00000E+00        -0.24893E+03
 
   -0.10765E+04        -0.20535E+02         0.00000E+00
   -0.20535E+02         0.25312E+03         0.00000E+00
    0.00000E+00         0.00000E+00        -0.24702E+03
 
   -0.10759E+04        -0.11072E+02         0.00000E+00
   -0.11072E+02         0.26365E+03         0.00000E+00
    0.00000E+00         0.00000E+00        -0.24367E+03
 
   -0.10629E+04        -0.60350E+00         0.00000E+00
   -0.60350E+00         0.26748E+03         0.00000E+00
    0.00000E+00         0.00000E+00        -0.23864E+03
 
   -0.10364E+04         0.10611E+02         0.00000E+00
    0.10611E+02         0.26403E+03         0.00000E+00
    0.00000E+00         0.00000E+00        -0.23170E+03
 
   -0.99522E+03         0.22301E+02         0.00000E+00
    0.22301E+02         0.25290E+03         0.00000E+00
    0.00000E+00         0.00000E+00        -0.22269E+03
 
   -0.93880E+03         0.34181E+02         0.00000E+00
    0.34181E+02         0.23386E+03         0.00000E+00
    0.00000E+00         0.00000E+00        -0.21148E+03
 
   -0.86678E+03         0.45956E+02         0.00000E+00
    0.45956E+02         0.20689E+03         0.00000E+00
    0.00000E+00         0.00000E+00        -0.19797E+03
 
   -0.77919E+03         0.57322E+02         0.00000E+00
    0.57322E+02         0.17214E+03         0.00000E+00
    0.00000E+00         0.00000E+00        -0.18211E+03
 
   -0.67641E+03         0.67964E+02         0.00000E+00
    0.67964E+02         0.13001E+03         0.00000E+00
    0.00000E+00         0.00000E+00        -0.16392E+03
 
   -0.55918E+03         0.77563E+02         0.00000E+00
    0.77563E+02         0.81073E+02         0.00000E+00
    0.00000E+00         0.00000E+00        -0.14343E+03
 
   -0.42864E+03         0.85790E+02         0.00000E+00
    0.85790E+02         0.26139E+02         0.00000E+00
    0.00000E+00         0.00000E+00        -0.12075E+03
 
   -0.28629E+03         0.92315E+02         0.00000E+00
    0.92315E+02        -0.33769E+02         0.00000E+00
    0.00000E+00         0.00000E+00        -0.96018E+02
 
   -0.13404E+03         0.96807E+02         0.00000E+00
    0.96807E+02        -0.97405E+02         0.00000E+00
    0.00000E+00         0.00000E+00        -0.69435E+02
 
   -0.88257E+03        -0.21970E+01         0.00000E+00
   -0.21970E+01         0.17233E+01         0.00000E+00
    0.00000E+00         0.00000E+00        -0.26425E+03
 
   -0.86835E+03        -0.61111E+01         0.00000E+00
   -0.61111E+01         0.10114E+02         0.00000E+00
    0.00000E+00         0.00000E+00        -0.25747E+03
 
   -0.86852E+03        -0.93468E+01         0.00000E+00
   -0.93468E+01         0.25666E+02         0.00000E+00
    0.00000E+00         0.00000E+00        -0.25286E+03
 
   -0.88042E+03        -0.11864E+02         0.00000E+00
   -0.11864E+02         0.46979E+02         0.00000E+00
    0.00000E+00         0.00000E+00        -0.25003E+03
 
   -0.90128E+03        -0.13641E+02         0.00000E+00
   -0.13641E+02         0.72590E+02         0.00000E+00
    0.00000E+00         0.00000E+00        -0.24861E+03
 
   -0.92829E+03        -0.14675E+02         0.00000E+00
   -0.14675E+02         0.10101E+03         0.00000E+00
    0.00000E+00         0.00000E+00        -0.24818E+03
 
   -0.95867E+03        -0.14979E+02         0.00000E+00
   -0.14979E+02         0.13077E+03         0.00000E+00
    0.00000E+00         0.00000E+00        -0.24837E+03
 
   -0.98970E+03        -0.14577E+02         0.00000E+00
   -0.14577E+02         0.16042E+03         0.00000E+00
    0.00000E+00         0.00000E+00        -0.24878E+03
 
   -0.10188E+04        -0.13509E+02         0.00000E+00
   -0.13509E+02         0.18859E+03         0.00000E+00
    0.00000E+00         0.00000E+00        -0.24906E+03
 
   -0.10434E+04        -0.11825E+02         0.00000E+00
   -0.11825E+02         0.21400E+03         0.00000E+00
    0.00000E+00         0.00000E+00        -0.24883E+03
 
   -0.10614E+04        -0.95832E+01         0.00000E+00
   -0.95832E+01         0.23547E+03         0.00000E+00
    0.00000E+00         0.00000E+00        -0.24778E+03
 
   -0.10706E+04        -0.68520E+01         0.00000E+00
   -0.68520E+01         0.25195E+03         0.00000E+00
    0.00000E+00         0.00000E+00        -0.24560E+03
 
   -0.10692E+04        -0.37055E+01         0.00000E+00
   -0.37055E+01         0.26255E+03         0.00000E+00
    0.00000E+00         0.00000E+00        -0.24201E+03
 
   -0.10557E+04        -0.22432E+00         0.00000E+00
   -0.22432E+00         0.26649E+03         0.00000E+00
    0.00000E+00         0.00000E+00        -0.23676E+03
 
   -0.10287E+04         0.35055E+01         0.00000E+00
    0.35055E+01         0.26321E+03         0.00000E+00
    0.00000E+00         0.00000E+00        -0.22965E+03
 
   -0.98735E+03         0.73935E+01         0.00000E+00
    0.73935E+01         0.25230E+03         0.00000E+00
    0.00000E+00         0.00000E+00        -0.22051E+03
 
   -0.93089E+03         0.11345E+02         0.00000E+00
    0.11345E+02         0.23353E+03         0.00000E+00
    0.00000E+00         0.00000E+00        -0.20921E+03
 
   -0.85905E+03         0.15261E+02         0.00000E+00
    0.15261E+02         0.20687E+03         0.00000E+00
    0.00000E+00         0.00000E+00        -0.19565E+03
 
   -0.77184E+03         0.19041E+02         0.00000E+00
    0.19041E+02         0.17250E+03         0.00000E+00
    0.00000E+00         0.00000E+00        -0.17980E+03
 
   -0.66964E+03         0.22580E+02         0.00000E+00
    0.22580E+02         0.13079E+03         0.00000E+00
    0.00000E+00         0.00000E+00        -0.16166E+03
 
   -0.55322E+03         0.25770E+02         0.00000E+00
    0.25770E+02         0.82331E+02         0.00000E+00
    0.00000E+00         0.00000E+00        -0.14127E+03
 
   -0.42370E+03         0.28503E+02         0.00000E+00
    0.28503E+02         0.27931E+02         0.00000E+00
    0.00000E+00         0.00000E+00        -0.11873E+03
 
   -0.28260E+03         0.30669E+02         0.00000E+00
    0.30669E+02        -0.31389E+02         0.00000E+00
    0.00000E+00         0.00000E+00        -0.94196E+02
 
   -0.13182E+03         0.32158E+02         0.00000E+00
    0.32158E+02        -0.94383E+02         0.00000E+00
    0.00000E+00         0.00000E+00        -0.67860E+02
 
TENSORS stresstot double 
   -0.69268E+05         0.61812E+03         0.00000E+00
    0.61812E+03        -0.99344E+05         0.00000E+00
    0.00000E+00         0.00000E+00        -0.50584E+05
 
   -0.36011E+05         0.35672E+04         0.00000E+00
    0.35672E+04        -0.95065E+05         0.00000E+00
    0.00000E+00         0.00000E+00        -0.39323E+05
 
   -0.16312E+05         0.53464E+04         0.00000E+00
    0.53464E+04        -0.85331E+05         0.00000E+00
    0.00000E+00         0.00000E+00        -0.30493E+05
 
   -0.65784E+04         0.51471E+04         0.00000E+00
    0.51471E+04        -0.74779E+05         0.00000E+00
    0.00000E+00         0.00000E+00        -0.24407E+05
 
   -0.17946E+04         0.43655E+04         0.00000E+00
    0.43655E+04        -0.65457E+05         0.00000E+00
    0.00000E+00         0.00000E+00        -0.20176E+05
 
    0.59132E+03         0.35678E+04         0.00000E+00
    0.35678E+04        -0.57722E+05         0.00000E+00
    0.00000E+00         0.00000E+00        -0.17139E+05
 
    0.17586E+04         0.28931E+04         0.00000E+00
    0.28931E+04        -0.51418E+05         0.00000E+00
    0.00000E+00         0.00000E+00        -0.14898E+05
 
    0.22749E+04         0.23539E+04         0.00000E+00
    0.23539E+04        -0.46287E+05         0.00000E+00
    0.00000E+00         0.00000E+00        -0.13204E+05
 
    0.24247E+04         0.19294E+04         0.00000E+00
    0.19294E+04        -0.42086E+05         0.00000E+00
    0.00000E+00         0.00000E+00        -0.11899E+05
 
    0.23569E+04         0.15951E+04         0.00000E+00
    0.15951E+04        -0.38622E+05         0.00000E+00
    0.00000E+00         0.00000E+00        -0.10879E+05
 
    0.21519E+04         0.13299E+04         0.00000E+00
    0.13299E+04        -0.35741E+05         0.00000E+00
    0.00000E+00         0.00000E+00        -0.10077E+05
 
    0.18536E+04         0.11176E+04         0.00000E+00
    0.11176E+04        -0.33326E+05         0.00000E+00
    0.00000E+00         0.00000E+00        -0.94416E+04
 
    0.14857E+04         0.94618E+03         0.00000E+00
    0.94618E+03        -0.31286E+05         0.00000E+00
    0.00000E+00         0.00000E+00        -0.89401E+04
 
    0.10595E+04         0.80664E+03         0.00000E+00
    0.80664E+03        -0.29552E+05         0.00000E+00
    0.00000E+00         0.00000E+00        -0.85476E+04
 
    0.57902E+03         0.69240E+03         0.00000E+00
    0.69240E+03        -0.28067E+05         0.00000E+00
    0.00000E+00         0.00000E+00        -0.82463E+04
 
    0.42690E+02         0.59865E+03         0.00000E+00
    0.59865E+03        -0.26787E+05         0.00000E+00
    0.00000E+00         0.00000E+00        -0.80232E+04
 
   -0.55501E+03         0.52194E+03         0.00000E+00
    0.52194E+03        -0.25675E+05         0.00000E+00
    0.00000E+00         0.00000E+00        -0.78690E+04
 
   -0.12232E+04         0.45980E+03         0.00000E+00
    0.45980E+03        -0.24700E+05         0.00000E+00
    0.00000E+00         0.00000E+00        -0.77770E+04
 
   -0.19745E+04         0.41065E+03         0.00000E+00
    0.41065E+03        -0.23836E+05         0.00000E+00
    0.00000E+00         0.00000E+00        -0.77430E+04
 
   -0.28255E+04         0.37360E+03         0.00000E+00
    0.37360E+03        -0.23056E+05         0.00000E+00
    0.00000E+00         0.00000E+00        -0.77645E+04
 
   -0.37968E+04         0.34843E+03         0.00000E+00
    0.34843E+03        -0.22338E+05         0.00000E+00
    0.00000E+00         0.00000E+00        -0.78406E+04
 
   -0.49148E+04         0.33562E+03         0.00000E+00
    0.33562E+03        -0.21658E+05         0.00000E+00
    0.00000E+00         0.00000E+00        -0.79719E+04
 
   -0.62125E+04         0.33637E+03         0.00000E+00
    0.33637E+03        -0.20990E+05         0.00000E+00
    0.00000E+00         0.00000E+00        -0.81608E+04
 
   -0.77313E+04         0.35280E+03         0.00000E+00
    0.35280E+03        -0.20305E+05         0.00000E+00
    0.00000E+00         0.00000E+00        -0.84109E+04
 
   -0.64581E+05         0.30733E+04         0.00000E+00
    0.30733E+04        -0.99316E+05         0.00000E+00
    0.00000E+00         0.00000E+00        -0.49169E+05
 
   -0.30576E+05         0.13481E+05         0.00000E+00
    0.13481E+05        -0.87764E+05         0.00000E+00
    0.00000E+00         0.00000E+00        -0.35502E+05
 
   -0.15864E+05         0.15997E+05         0.00000E+00
    0.15997E+05        -0.76817E+05         0.00000E+00
    0.00000E+00         0.00000E+00        -0.27804E+05
 
   -0.79189E+04         0.14598E+05         0.00000E+00
    0.14598E+05        -0.67775E+05         0.00000E+00
    0.00000E+00         0.00000E+00        -0.22708E+05
 
   -0.33863E+04         0.12296E+05         0.00000E+00
    0.12296E+05        -0.60185E+05         0.00000E+00
    0.00000E+00         0.00000E+00        -0.19071E+05
 
   -0.82163E+03         0.10092E+05         0.00000E+00
    0.10092E+05        -0.53839E+05         0.00000E+00
    0.00000E+00         0.00000E+00        -0.16398E+05
 
    0.60624E+03         0.82403E+04         0.00000E+00
    0.82403E+04        -0.48548E+05         0.00000E+00
    0.00000E+00         0.00000E+00        -0.14383E+05
 
    0.13593E+04         0.67507E+04         0.00000E+00
    0.67507E+04        -0.44137E+05         0.00000E+00
    0.00000E+00         0.00000E+00        -0.12833E+05
 
    0.17006E+04         0.55668E+04         0.00000E+00
    0.55668E+04        -0.40449E+05         0.00000E+00
    0.00000E+00         0.00000E+00        -0.11625E+05
 
    0.17820E+04         0.46256E+04         0.00000E+00
    0.46256E+04        -0.37352E+05         0.00000E+00
    0.00000E+00         0.00000E+00        -0.10671E+05
 
    0.16919E+04         0.38730E+04         0.00000E+00
    0.38730E+04        -0.34739E+05         0.00000E+00
    0.00000E+00         0.00000E+00        -0.99140E+04
 
    0.14824E+04         0.32663E+04         0.00000E+00
    0.32663E+04        -0.32521E+05         0.00000E+00
    0.00000E+00         0.00000E+00        -0.93115E+04
 
    0.11837E+04         0.27735E+04         0.00000E+00
    0.27735E+04        -0.30629E+05         0.00000E+00
    0.00000E+00         0.00000E+00        -0.88336E+04
 
    0.81227E+03         0.23704E+04         0.00000E+00
    0.23704E+04        -0.29007E+05         0.00000E+00
    0.00000E+00         0.00000E+00        -0.84583E+04
 
    0.37585E+03         0.20391E+04         0.00000E+00
    0.20391E+04        -0.27607E+05         0.00000E+00
    0.00000E+00         0.00000E+00        -0.81695E+04
 
   -0.12420E+03         0.17664E+04         0.00000E+00
    0.17664E+04        -0.26394E+05         0.00000E+00
    0.00000E+00         0.00000E+00        -0.79554E+04
 
   -0.69121E+03         0.15426E+04         0.00000E+00
    0.15426E+04        -0.25334E+05         0.00000E+00
    0.00000E+00         0.00000E+00        -0.78075E+04
 
   -0.13325E+04         0.13611E+04         0.00000E+00
    0.13611E+04        -0.24400E+05         0.00000E+00
    0.00000E+00         0.00000E+00        -0.77198E+04
 
   -0.20594E+04         0.12173E+04         0.00000E+00
    0.12173E+04        -0.23568E+05         0.00000E+00
    0.00000E+00         0.00000E+00        -0.76882E+04
 
   -0.28868E+04         0.11089E+04         0.00000E+00
    0.11089E+04        -0.22815E+05         0.00000E+00
    0.00000E+00         0.00000E+00        -0.77105E+04
 
   -0.38343E+04         0.10354E+04         0.00000E+00
    0.10354E+04        -0.22118E+05         0.00000E+00
    0.00000E+00         0.00000E+00        -0.77858E+04
 
   -0.49269E+04         0.99828E+03         0.00000E+00
    0.99828E+03        -0.21457E+05         0.00000E+00
    0.00000E+00         0.00000E+00        -0.79150E+04
 
   -0.61959E+04         0.10012E+04         0.00000E+00
    0.10012E+04        -0.20805E+05         0.00000E+00
    0.00000E+00         0.00000E+00        -0.81002E+04
 
   -0.76807E+04         0.10503E+04         0.00000E+00
    0.10503E+04        -0.20135E+05         0.00000E+00
    0.00000E+00         0.00000E+00        -0.83448E+04
 
   -0.48122E+05         0.17594E+05         0.00000E+00
    0.17594E+05        -0.74889E+05         0.00000E+00
    0.00000E+00         0.00000E+00        -0.36903E+05
 
   -0.26322E+05         0.25407E+05         0.00000E+00
    0.25407E+05        -0.65491E+05         0.00000E+00
    0.00000E+00         0.00000E+00        -0.27544E+05
 
   -0.17169E+05         0.24191E+05         0.00000E+00
    0.24191E+05        -0.59592E+05         0.00000E+00
    0.00000E+00         0.00000E+00        -0.23028E+05
 
   -0.10622E+05         0.21198E+05         0.00000E+00
    0.21198E+05        -0.54922E+05         0.00000E+00
    0.00000E+00         0.00000E+00        -0.19663E+05
 
   -0.61871E+04         0.17918E+05         0.00000E+00
    0.17918E+05        -0.50728E+05         0.00000E+00
    0.00000E+00         0.00000E+00        -0.17074E+05
 
   -0.32687E+04         0.14922E+05         0.00000E+00
    0.14922E+05        -0.46857E+05         0.00000E+00
    0.00000E+00         0.00000E+00        -0.15038E+05
 
   -0.14113E+04         0.12380E+05         0.00000E+00
    0.12380E+05        -0.43337E+05         0.00000E+00
    0.00000E+00         0.00000E+00        -0.13424E+05
 
   -0.26890E+03         0.10288E+05         0.00000E+00
    0.10288E+05        -0.40189E+05         0.00000E+00
    0.00000E+00         0.00000E+00        -0.12137E+05
 
    0.39331E+03         0.85882E+04         0.00000E+00
    0.85882E+04        -0.37409E+05         0.00000E+00
    0.00000E+00         0.00000E+00        -0.11105E+05
 
    0.72979E+03         0.72088E+04         0.00000E+00
    0.72088E+04        -0.34972E+05         0.00000E+00
    0.00000E+00         0.00000E+00        -0.10273E+05
 
    0.84026E+03         0.60866E+04         0.00000E+00
    0.60866E+04        -0.32844E+05         0.00000E+00
    0.00000E+00         0.00000E+00        -0.96011E+04
 
    0.78849E+03         0.51691E+04         0.00000E+00
    0.51691E+04        -0.30989E+05         0.00000E+00
    0.00000E+00         0.00000E+00        -0.90600E+04
 
    0.61470E+03         0.44149E+04         0.00000E+00
    0.44149E+04        -0.29370E+05         0.00000E+00
    0.00000E+00         0.00000E+00        -0.86267E+04
 
    0.34344E+03         0.37919E+04         0.00000E+00
    0.37919E+04        -0.27957E+05         0.00000E+00
    0.00000E+00         0.00000E+00        -0.82840E+04
 
   -0.11429E+02         0.32759E+04         0.00000E+00
    0.32759E+04        -0.26719E+05         0.00000E+00
    0.00000E+00         0.00000E+00        -0.80191E+04
 
   -0.44366E+03         0.28484E+04         0.00000E+00
    0.28484E+04        -0.25631E+05         0.00000E+00
    0.00000E+00         0.00000E+00        -0.78224E+04
 
   -0.95275E+03         0.24959E+04         0.00000E+00
    0.24959E+04        -0.24670E+05         0.00000E+00
    0.00000E+00         0.00000E+00        -0.76868E+04
 
   -0.15430E+04         0.22089E+04         0.00000E+00
    0.22089E+04        -0.23814E+05         0.00000E+00
    0.00000E+00         0.00000E+00        -0.76071E+04
 
   -0.22228E+04         0.19811E+04         0.00000E+00
    0.19811E+04        -0.23044E+05         0.00000E+00
    0.00000E+00         0.00000E+00        -0.75801E+04
 
   -0.30048E+04         0.18094E+04         0.00000E+00
    0.18094E+04        -0.22341E+05         0.00000E+00
    0.00000E+00         0.00000E+00        -0.76039E+04
 
   -0.39062E+04         0.16934E+04         0.00000E+00
    0.16934E+04        -0.21687E+05         0.00000E+00
    0.00000E+00         0.00000E+00        -0.76779E+04
 
   -0.49492E+04         0.16357E+04         0.00000E+00
    0.16357E+04        -0.21060E+05         0.00000E+00
    0.00000E+00         0.00000E+00        -0.78028E+04
 
   -0.61621E+04         0.16424E+04         0.00000E+00
    0.16424E+04        -0.20440E+05         0.00000E+00
    0.00000E+00         0.00000E+00        -0.79807E+04
 
   -0.75807E+04         0.17238E+04         0.00000E+00
    0.17238E+04        -0.19802E+05         0.00000E+00
    0.00000E+00         0.00000E+00        -0.82148E+04
 
   -0.22457E+05         0.17640E+05         0.00000E+00
    0.17640E+05        -0.25090E+05         0.00000E+00
    0.00000E+00         0.00000E+00        -0.14264E+05
 
   -0.25864E+05         0.25944E+05         0.00000E+00
    0.25944E+05        -0.33925E+05         0.00000E+00
    0.00000E+00         0.00000E+00        -0.17937E+05
 
   -0.19351E+05         0.25462E+05         0.00000E+00
    0.25462E+05        -0.37966E+05         0.00000E+00
    0.00000E+00         0.00000E+00        -0.17195E+05
 
   -0.13710E+05         0.23127E+05         0.00000E+00
    0.23127E+05        -0.39342E+05         0.00000E+00
    0.00000E+00         0.00000E+00        -0.15916E+05
 
   -0.92865E+04         0.20259E+05         0.00000E+00
    0.20259E+05        -0.39182E+05         0.00000E+00
    0.00000E+00         0.00000E+00        -0.14540E+05
 
   -0.60619E+04         0.17422E+05         0.00000E+00
    0.17422E+05        -0.38161E+05         0.00000E+00
    0.00000E+00         0.00000E+00        -0.13267E+05
 
   -0.38002E+04         0.14850E+05         0.00000E+00
    0.14850E+05        -0.36697E+05         0.00000E+00
    0.00000E+00         0.00000E+00        -0.12149E+05
 
   -0.22636E+04         0.12620E+05         0.00000E+00
    0.12620E+05        -0.35050E+05         0.00000E+00
    0.00000E+00         0.00000E+00        -0.11194E+05
 
   -0.12555E+04         0.10729E+05         0.00000E+00
    0.10729E+05        -0.33376E+05         0.00000E+00
    0.00000E+00         0.00000E+00        -0.10389E+05
 
   -0.62967E+03         0.91414E+04         0.00000E+00
    0.91414E+04        -0.31762E+05         0.00000E+00
    0.00000E+00         0.00000E+00        -0.97175E+04
 
   -0.28216E+03         0.78138E+04         0.00000E+00
    0.78138E+04        -0.30253E+05         0.00000E+00
    0.00000E+00         0.00000E+00        -0.91606E+04
 
   -0.14109E+03         0.67039E+04         0.00000E+00
    0.67039E+04        -0.28868E+05         0.00000E+00
    0.00000E+00         0.00000E+00        -0.87028E+04
 
   -0.15778E+03         0.57748E+04         0.00000E+00
    0.57748E+04        -0.27611E+05         0.00000E+00
    0.00000E+00         0.00000E+00        -0.83307E+04
 
   -0.30007E+03         0.49961E+04         0.00000E+00
    0.49961E+04        -0.26477E+05         0.00000E+00
    0.00000E+00         0.00000E+00        -0.80331E+04
 
   -0.54769E+03         0.43432E+04         0.00000E+00
    0.43432E+04        -0.25458E+05         0.00000E+00
    0.00000E+00         0.00000E+00        -0.78016E+04
 
   -0.88909E+03         0.37973E+04         0.00000E+00
    0.37973E+04        -0.24541E+05         0.00000E+00
    0.00000E+00         0.00000E+00        -0.76291E+04
 
   -0.13193E+04         0.33438E+04         0.00000E+00
    0.33438E+04        -0.23716E+05         0.00000E+00
    0.00000E+00         0.00000E+00        -0.75106E+04
 
   -0.18389E+04         0.29727E+04         0.00000E+00
    0.29727E+04        -0.22969E+05         0.00000E+00
    0.00000E+00         0.00000E+00        -0.74423E+04
 
   -0.24529E+04         0.26773E+04         0.00000E+00
    0.26773E+04        -0.22286E+05         0.00000E+00
    0.00000E+00         0.00000E+00        -0.74217E+04
 
   -0.31707E+04         0.24546E+04         0.00000E+00
    0.24546E+04        -0.21654E+05         0.00000E+00
    0.00000E+00         0.00000E+00        -0.74475E+04
 
   -0.40062E+04         0.23049E+04         0.00000E+00
    0.23049E+04        -0.21058E+05         0.00000E+00
    0.00000E+00         0.00000E+00        -0.75194E+04
 
   -0.49781E+04         0.22325E+04         0.00000E+00
    0.22325E+04        -0.20482E+05         0.00000E+00
    0.00000E+00         0.00000E+00        -0.76381E+04
 
   -0.61103E+04         0.22459E+04         0.00000E+00
    0.22459E+04        -0.19908E+05         0.00000E+00
    0.00000E+00         0.00000E+00        -0.78055E+04
 
   -0.74335E+04         0.23587E+04         0.00000E+00
    0.23587E+04        -0.19314E+05         0.00000E+00
    0.00000E+00         0.00000E+00        -0.80243E+04
 
   -0.54729E+04         0.32381E+04         0.00000E+00
    0.32381E+04        -0.64123E+03         0.00000E+00
    0.00000E+00         0.00000E+00        -0.18342E+04
 
   -0.20250E+05         0.15274E+05         0.00000E+00
    0.15274E+05        -0.11420E+05         0.00000E+00
    0.00000E+00         0.00000E+00        -0.95010E+04
 
   -0.19185E+05         0.20104E+05         0.00000E+00
    0.20104E+05        -0.19980E+05         0.00000E+00
    0.00000E+00         0.00000E+00        -0.11750E+05
 
   -0.15355E+05         0.20644E+05         0.00000E+00
    0.20644E+05        -0.25158E+05         0.00000E+00
    0.00000E+00         0.00000E+00        -0.12154E+05
 
   -0.11573E+05         0.19462E+05         0.00000E+00
    0.19462E+05        -0.27999E+05         0.00000E+00
    0.00000E+00         0.00000E+00        -0.11872E+05
 
   -0.84367E+04         0.17615E+05         0.00000E+00
    0.17615E+05        -0.29315E+05         0.00000E+00
    0.00000E+00         0.00000E+00        -0.11325E+05
 
   -0.60220E+04         0.15604E+05         0.00000E+00
    0.15604E+05        -0.29664E+05         0.00000E+00
    0.00000E+00         0.00000E+00        -0.10706E+05
 
   -0.42404E+04         0.13665E+05         0.00000E+00
    0.13665E+05        -0.29422E+05         0.00000E+00
    0.00000E+00         0.00000E+00        -0.10099E+05
 
   -0.29697E+04         0.11898E+05         0.00000E+00
    0.11898E+05        -0.28835E+05         0.00000E+00
    0.00000E+00         0.00000E+00        -0.95415E+04
 
   -0.20966E+04         0.10335E+05         0.00000E+00
    0.10335E+05        -0.28064E+05         0.00000E+00
    0.00000E+00         0.00000E+00        -0.90483E+04
 
   -0.15295E+04         0.89743E+04         0.00000E+00
    0.89743E+04        -0.27211E+05         0.00000E+00
    0.00000E+00         0.00000E+00        -0.86221E+04
 
   -0.11988E+04         0.78009E+04         0.00000E+00
    0.78009E+04        -0.26338E+05         0.00000E+00
    0.00000E+00         0.00000E+00        -0.82610E+04
 
   -0.10536E+04         0.67939E+04         0.00000E+00
    0.67939E+04        -0.25482E+05         0.00000E+00
    0.00000E+00         0.00000E+00        -0.79608E+04
 
   -0.10579E+04         0.59329E+04         0.00000E+00
    0.59329E+04        -0.24666E+05         0.00000E+00
    0.00000E+00         0.00000E+00        -0.77171E+04
 
   -0.11870E+04         0.51996E+04         0.00000E+00
    0.51996E+04        -0.23898E+05         0.00000E+00
    0.00000E+00         0.00000E+00        -0.75256E+04
 
   -0.14253E+04         0.45786E+04         0.00000E+00
    0.45786E+04        -0.23183E+05         0.00000E+00
    0.00000E+00         0.00000E+00        -0.73824E+04
 
   -0.17638E+04         0.40579E+04         0.00000E+00
    0.40579E+04        -0.22519E+05         0.00000E+00
    0.00000E+00         0.00000E+00        -0.72847E+04
 
   -0.21994E+04         0.36288E+04         0.00000E+00
    0.36288E+04        -0.21901E+05         0.00000E+00
    0.00000E+00         0.00000E+00        -0.72302E+04
 
   -0.27336E+04         0.32860E+04         0.00000E+00
    0.32860E+04        -0.21324E+05         0.00000E+00
    0.00000E+00         0.00000E+00        -0.72174E+04
 
   -0.33725E+04         0.30277E+04         0.00000E+00
    0.30277E+04        -0.20779E+05         0.00000E+00
    0.00000E+00         0.00000E+00        -0.72455E+04
 
   -0.41261E+04         0.28557E+04         0.00000E+00
    0.28557E+04        -0.20256E+05         0.00000E+00
    0.00000E+00         0.00000E+00        -0.73145E+04
 
   -0.50087E+04         0.27759E+04         0.00000E+00
    0.27759E+04        -0.19742E+05         0.00000E+00
    0.00000E+00         0.00000E+00        -0.74253E+04
 
   -0.60395E+04         0.27991E+04         0.00000E+00
    0.27991E+04        -0.19225E+05         0.00000E+00
    0.00000E+00         0.00000E+00        -0.75793E+04
 
   -0.72424E+04         0.29422E+04         0.00000E+00
    0.29422E+04        -0.18687E+05         0.00000E+00
    0.00000E+00         0.00000E+00        -0.77788E+04
 
    0.48349E+03         0.10065E+04         0.00000E+00
    0.10065E+04        -0.58769E+03         0.00000E+00
    0.00000E+00         0.00000E+00        -0.31258E+02
 
   -0.11757E+05         0.73085E+04         0.00000E+00
    0.73085E+04        -0.33812E+04         0.00000E+00
    0.00000E+00         0.00000E+00        -0.45414E+04
 
   -0.15764E+05         0.13257E+05         0.00000E+00
    0.13257E+05        -0.94797E+04         0.00000E+00
    0.00000E+00         0.00000E+00        -0.75730E+04
 
   -0.14785E+05         0.16060E+05         0.00000E+00
    0.16060E+05        -0.14942E+05         0.00000E+00
    0.00000E+00         0.00000E+00        -0.89181E+04
 
   -0.12401E+05         0.16680E+05         0.00000E+00
    0.16680E+05        -0.18915E+05         0.00000E+00
    0.00000E+00         0.00000E+00        -0.93948E+04
 
   -0.98842E+04         0.16111E+05         0.00000E+00
    0.16111E+05        -0.21533E+05         0.00000E+00
    0.00000E+00         0.00000E+00        -0.94250E+04
 
   -0.76752E+04         0.14962E+05         0.00000E+00
    0.14962E+05        -0.23107E+05         0.00000E+00
    0.00000E+00         0.00000E+00        -0.92346E+04
 
   -0.58872E+04         0.13584E+05         0.00000E+00
    0.13584E+05        -0.23933E+05         0.00000E+00
    0.00000E+00         0.00000E+00        -0.89461E+04
 
   -0.45086E+04         0.12167E+05         0.00000E+00
    0.12167E+05        -0.24245E+05         0.00000E+00
    0.00000E+00         0.00000E+00        -0.86261E+04
 
   -0.34866E+04         0.10813E+05         0.00000E+00
    0.10813E+05        -0.24215E+05         0.00000E+00
    0.00000E+00         0.00000E+00        -0.83105E+04
 
   -0.27606E+04         0.95666E+04         0.00000E+00
    0.95666E+04        -0.23966E+05         0.00000E+00
    0.00000E+00         0.00000E+00        -0.80180E+04
 
   -0.22764E+04         0.84456E+04         0.00000E+00
    0.84456E+04        -0.23584E+05         0.00000E+00
    0.00000E+00         0.00000E+00        -0.77581E+04
 
   -0.19894E+04         0.74521E+04         0.00000E+00
    0.74521E+04        -0.23126E+05         0.00000E+00
    0.00000E+00         0.00000E+00        -0.75347E+04
 
   -0.18654E+04         0.65809E+04         0.00000E+00
    0.65809E+04        -0.22632E+05         0.00000E+00
    0.00000E+00         0.00000E+00        -0.73492E+04
 
   -0.18791E+04         0.58239E+04         0.00000E+00
    0.58239E+04        -0.22126E+05         0.00000E+00
    0.00000E+00         0.00000E+00        -0.72014E+04
 
   -0.20128E+04         0.51728E+04         0.00000E+00
    0.51728E+04        -0.21623E+05         0.00000E+00
    0.00000E+00         0.00000E+00        -0.70906E+04
 
   -0.22551E+04         0.46204E+04         0.00000E+00
    0.46204E+04        -0.21131E+05         0.00000E+00
    0.00000E+00         0.00000E+00        -0.70160E+04
 
   -0.26002E+04         0.41615E+04         0.00000E+00
    0.41615E+04        -0.20656E+05         0.00000E+00
    0.00000E+00         0.00000E+00        -0.69767E+04
 
   -0.30464E+04         0.37935E+04         0.00000E+00
    0.37935E+04        -0.20195E+05         0.00000E+00
    0.00000E+00         0.00000E+00        -0.69724E+04
 
   -0.35962E+04         0.35166E+04         0.00000E+00
    0.35166E+04        -0.19746E+05         0.00000E+00
    0.00000E+00         0.00000E+00        -0.70028E+04
 
   -0.42560E+04         0.33346E+04         0.00000E+00
    0.33346E+04        -0.19305E+05         0.00000E+00
    0.00000E+00         0.00000E+00        -0.70683E+04
 
   -0.50356E+04         0.32555E+04         0.00000E+00
    0.32555E+04        -0.18863E+05         0.00000E+00
    0.00000E+00         0.00000E+00        -0.71695E+04
 
   -0.59484E+04         0.32921E+04         0.00000E+00
    0.32921E+04        -0.18411E+05         0.00000E+00
    0.00000E+00         0.00000E+00        -0.73079E+04
 
   -0.70118E+04         0.34638E+04         0.00000E+00
    0.34638E+04        -0.17938E+05         0.00000E+00
    0.00000E+00         0.00000E+00        -0.74850E+04
 
    0.32281E+04         0.38100E+03         0.00000E+00
    0.38100E+03        -0.78819E+02         0.00000E+00
    0.00000E+00         0.00000E+00         0.94478E+03
 
   -0.63738E+04         0.38495E+04         0.00000E+00
    0.38495E+04        -0.14772E+04         0.00000E+00
    0.00000E+00         0.00000E+00        -0.23553E+04
 
   -0.11415E+05         0.82619E+04         0.00000E+00
    0.82619E+04        -0.46528E+04         0.00000E+00
    0.00000E+00         0.00000E+00        -0.48203E+04
 
   -0.12696E+05         0.11567E+05         0.00000E+00
    0.11567E+05        -0.87216E+04         0.00000E+00
    0.00000E+00         0.00000E+00        -0.64252E+04
 
   -0.11889E+05         0.13263E+05         0.00000E+00
    0.13263E+05        -0.12441E+05         0.00000E+00
    0.00000E+00         0.00000E+00        -0.72991E+04
 
   -0.10311E+05         0.13734E+05         0.00000E+00
    0.13734E+05        -0.15390E+05         0.00000E+00
    0.00000E+00         0.00000E+00        -0.77103E+04
 
   -0.85983E+04         0.13429E+05         0.00000E+00
    0.13429E+05        -0.17543E+05         0.00000E+00
    0.00000E+00         0.00000E+00        -0.78425E+04
 
   -0.70324E+04         0.12684E+05         0.00000E+00
    0.12684E+05        -0.19016E+05         0.00000E+00
    0.00000E+00         0.00000E+00        -0.78145E+04
 
   -0.57149E+04         0.11723E+05         0.00000E+00
    0.11723E+05        -0.19953E+05         0.00000E+00
    0.00000E+00         0.00000E+00        -0.77004E+04
 
   -0.46640E+04         0.10685E+05         0.00000E+00
    0.10685E+05        -0.20490E+05         0.00000E+00
    0.00000E+00         0.00000E+00        -0.75462E+04
 
   -0.38626E+04         0.96526E+04         0.00000E+00
    0.96526E+04        -0.20736E+05         0.00000E+00
    0.00000E+00         0.00000E+00        -0.73796E+04
 
   -0.32815E+04         0.86711E+04         0.00000E+00
    0.86711E+04        -0.20777E+05         0.00000E+00
    0.00000E+00         0.00000E+00        -0.72177E+04
 
   -0.28904E+04         0.77649E+04         0.00000E+00
    0.77649E+04        -0.20677E+05         0.00000E+00
    0.00000E+00         0.00000E+00        -0.70703E+04
 
   -0.26624E+04         0.69449E+04         0.00000E+00
    0.69449E+04        -0.20482E+05         0.00000E+00
    0.00000E+00         0.00000E+00        -0.69433E+04
 
   -0.25754E+04         0.62150E+04         0.00000E+00
    0.62150E+04        -0.20225E+05         0.00000E+00
    0.00000E+00         0.00000E+00        -0.68402E+04
 
   -0.26126E+04         0.55754E+04         0.00000E+00
    0.55754E+04        -0.19930E+05         0.00000E+00
    0.00000E+00         0.00000E+00        -0.67627E+04
 
   -0.27622E+04         0.50252E+04         0.00000E+00
    0.50252E+04        -0.19611E+05         0.00000E+00
    0.00000E+00         0.00000E+00        -0.67120E+04
 
   -0.30164E+04         0.45640E+04         0.00000E+00
    0.45640E+04        -0.19279E+05         0.00000E+00
    0.00000E+00         0.00000E+00        -0.66885E+04
 
   -0.33715E+04         0.41926E+04         0.00000E+00
    0.41926E+04        -0.18938E+05         0.00000E+00
    0.00000E+00         0.00000E+00        -0.66928E+04
 
   -0.38270E+04         0.39142E+04         0.00000E+00
    0.39142E+04        -0.18590E+05         0.00000E+00
    0.00000E+00         0.00000E+00        -0.67252E+04
 
   -0.43857E+04         0.37347E+04         0.00000E+00
    0.37347E+04        -0.18236E+05         0.00000E+00
    0.00000E+00         0.00000E+00        -0.67864E+04
 
   -0.50528E+04         0.36643E+04         0.00000E+00
    0.36643E+04        -0.17870E+05         0.00000E+00
    0.00000E+00         0.00000E+00        -0.68770E+04
 
   -0.58363E+04         0.37176E+04         0.00000E+00
    0.37176E+04        -0.17490E+05         0.00000E+00
    0.00000E+00         0.00000E+00        -0.69979E+04
 
   -0.67464E+04         0.39159E+04         0.00000E+00
    0.39159E+04        -0.17088E+05         0.00000E+00
    0.00000E+00         0.00000E+00        -0.71503E+04
 
    0.45669E+04         0.14594E+03         0.00000E+00
    0.14594E+03        -0.52071E+02         0.00000E+00
    0.00000E+00         0.00000E+00         0.13545E+04
 
   -0.29309E+04         0.21453E+04         0.00000E+00
    0.21453E+04        -0.70813E+03         0.00000E+00
    0.00000E+00         0.00000E+00        -0.10917E+04
 
   -0.78677E+04         0.52211E+04         0.00000E+00
    0.52211E+04        -0.25444E+04         0.00000E+00
    0.00000E+00         0.00000E+00        -0.31236E+04
 
   -0.10168E+05         0.80895E+04         0.00000E+00
    0.80895E+04        -0.52415E+04         0.00000E+00
    0.00000E+00         0.00000E+00        -0.46230E+04
 
   -0.10582E+05         0.10099E+05         0.00000E+00
    0.10099E+05        -0.81899E+04         0.00000E+00
    0.00000E+00         0.00000E+00        -0.56315E+04
 
   -0.99391E+04         0.11170E+05         0.00000E+00
    0.11170E+05        -0.10892E+05         0.00000E+00
    0.00000E+00         0.00000E+00        -0.62492E+04
 
   -0.88464E+04         0.11495E+05         0.00000E+00
    0.11495E+05        -0.13134E+05         0.00000E+00
    0.00000E+00         0.00000E+00        -0.65941E+04
 
   -0.76499E+04         0.11305E+05         0.00000E+00
    0.11305E+05        -0.14878E+05         0.00000E+00
    0.00000E+00         0.00000E+00        -0.67584E+04
 
   -0.65270E+04         0.10795E+05         0.00000E+00
    0.10795E+05        -0.16168E+05         0.00000E+00
    0.00000E+00         0.00000E+00        -0.68086E+04
 
   -0.55561E+04         0.10106E+05         0.00000E+00
    0.10106E+05        -0.17078E+05         0.00000E+00
    0.00000E+00         0.00000E+00        -0.67902E+04
 
   -0.47634E+04         0.93341E+04         0.00000E+00
    0.93341E+04        -0.17684E+05         0.00000E+00
    0.00000E+00         0.00000E+00        -0.67342E+04
 
   -0.41482E+04         0.85438E+04         0.00000E+00
    0.85438E+04        -0.18055E+05         0.00000E+00
    0.00000E+00         0.00000E+00        -0.66611E+04
 
   -0.36987E+04         0.77747E+04         0.00000E+00
    0.77747E+04        -0.18249E+05         0.00000E+00
    0.00000E+00         0.00000E+00        -0.65844E+04
 
   -0.33992E+04         0.70514E+04         0.00000E+00
    0.70514E+04        -0.18311E+05         0.00000E+00
    0.00000E+00         0.00000E+00        -0.65131E+04
 
   -0.32341E+04         0.63885E+04         0.00000E+00
    0.63885E+04        -0.18276E+05         0.00000E+00
    0.00000E+00         0.00000E+00        -0.64530E+04
 
   -0.31899E+04         0.57950E+04         0.00000E+00
    0.57950E+04        -0.18170E+05         0.00000E+00
    0.00000E+00         0.00000E+00        -0.64080E+04
 
   -0.32561E+04         0.52763E+04         0.00000E+00
    0.52763E+04        -0.18013E+05         0.00000E+00
    0.00000E+00         0.00000E+00        -0.63806E+04
 
   -0.34246E+04         0.48372E+04         0.00000E+00
    0.48372E+04        -0.17817E+05         0.00000E+00
    0.00000E+00         0.00000E+00        -0.63726E+04
 
   -0.36904E+04         0.44824E+04         0.00000E+00
    0.44824E+04        -0.17593E+05         0.00000E+00
    0.00000E+00         0.00000E+00        -0.63850E+04
 
   -0.40507E+04         0.42181E+04         0.00000E+00
    0.42181E+04        -0.17346E+05         0.00000E+00
    0.00000E+00         0.00000E+00        -0.64190E+04
 
   -0.45051E+04         0.40527E+04         0.00000E+00
    0.40527E+04        -0.17079E+05         0.00000E+00
    0.00000E+00         0.00000E+00        -0.64751E+04
 
   -0.50549E+04         0.39983E+04         0.00000E+00
    0.39983E+04        -0.16792E+05         0.00000E+00
    0.00000E+00         0.00000E+00        -0.65541E+04
 
   -0.57026E+04         0.40712E+04         0.00000E+00
    0.40712E+04        -0.16486E+05         0.00000E+00
    0.00000E+00         0.00000E+00        -0.66565E+04
 
   -0.64517E+04         0.42934E+04         0.00000E+00
    0.42934E+04        -0.16158E+05         0.00000E+00
    0.00000E+00         0.00000E+00        -0.67828E+04
 
    0.52585E+04         0.27342E+02         0.00000E+00
    0.27342E+02        -0.24802E+02         0.00000E+00
    0.00000E+00         0.00000E+00         0.15701E+04
 
   -0.73847E+03         0.12238E+04         0.00000E+00
    0.12238E+04        -0.40043E+03         0.00000E+00
    0.00000E+00         0.00000E+00        -0.34167E+03
 
   -0.51908E+04         0.33417E+04         0.00000E+00
    0.33417E+04        -0.15001E+04         0.00000E+00
    0.00000E+00         0.00000E+00        -0.20073E+04
 
   -0.78533E+04         0.56212E+04         0.00000E+00
    0.56212E+04        -0.33012E+04         0.00000E+00
    0.00000E+00         0.00000E+00        -0.33463E+04
 
   -0.89950E+04         0.75193E+04         0.00000E+00
    0.75193E+04        -0.54927E+04         0.00000E+00
    0.00000E+00         0.00000E+00        -0.43463E+04
 
   -0.90935E+04         0.88149E+04         0.00000E+00
    0.88149E+04        -0.77363E+04         0.00000E+00
    0.00000E+00         0.00000E+00        -0.50489E+04
 
   -0.85924E+04         0.95157E+04         0.00000E+00
    0.95157E+04        -0.97929E+04         0.00000E+00
    0.00000E+00         0.00000E+00        -0.55156E+04
 
   -0.78144E+04         0.97335E+04         0.00000E+00
    0.97335E+04        -0.11548E+05         0.00000E+00
    0.00000E+00         0.00000E+00        -0.58086E+04
 
   -0.69613E+04         0.96006E+04         0.00000E+00
    0.96006E+04        -0.12971E+05         0.00000E+00
    0.00000E+00         0.00000E+00        -0.59796E+04
 
   -0.61478E+04         0.92343E+04         0.00000E+00
    0.92343E+04        -0.14079E+05         0.00000E+00
    0.00000E+00         0.00000E+00        -0.60681E+04
 
   -0.54322E+04         0.87268E+04         0.00000E+00
    0.87268E+04        -0.14912E+05         0.00000E+00
    0.00000E+00         0.00000E+00        -0.61034E+04
 
   -0.48398E+04         0.81458E+04         0.00000E+00
    0.81458E+04        -0.15515E+05         0.00000E+00
    0.00000E+00         0.00000E+00        -0.61064E+04
 
   -0.43769E+04         0.75393E+04         0.00000E+00
    0.75393E+04        -0.15930E+05         0.00000E+00
    0.00000E+00         0.00000E+00        -0.60921E+04
 
   -0.40404E+04         0.69405E+04         0.00000E+00
    0.69405E+04        -0.16196E+05         0.00000E+00
    0.00000E+00         0.00000E+00        -0.60709E+04
 
   -0.38232E+04         0.63723E+04         0.00000E+00
    0.63723E+04        -0.16345E+05         0.00000E+00
    0.00000E+00         0.00000E+00        -0.60503E+04
 
   -0.37166E+04         0.58502E+04         0.00000E+00
    0.58502E+04        -0.16401E+05         0.00000E+00
    0.00000E+00         0.00000E+00        -0.60354E+04
 
   -0.37127E+04         0.53860E+04         0.00000E+00
    0.53860E+04        -0.16386E+05         0.00000E+00
    0.00000E+00         0.00000E+00        -0.60297E+04
 
   -0.38045E+04         0.49888E+04         0.00000E+00
    0.49888E+04        -0.16315E+05         0.00000E+00
    0.00000E+00         0.00000E+00        -0.60360E+04
 
   -0.39865E+04         0.46672E+04         0.00000E+00
    0.46672E+04        -0.16199E+05         0.00000E+00
    0.00000E+00         0.00000E+00        -0.60558E+04
 
   -0.42546E+04         0.44303E+04         0.00000E+00
    0.44303E+04        -0.16047E+05         0.00000E+00
    0.00000E+00         0.00000E+00        -0.60905E+04
 
   -0.46056E+04         0.42890E+04         0.00000E+00
    0.42890E+04        -0.15865E+05         0.00000E+00
    0.00000E+00         0.00000E+00        -0.61410E+04
 
   -0.50373E+04         0.42568E+04         0.00000E+00
    0.42568E+04        -0.15655E+05         0.00000E+00
    0.00000E+00         0.00000E+00        -0.62078E+04
 
   -0.55475E+04         0.43511E+04         0.00000E+00
    0.43511E+04        -0.15423E+05         0.00000E+00
    0.00000E+00         0.00000E+00        -0.62911E+04
 
   -0.61335E+04         0.45944E+04         0.00000E+00
    0.45944E+04        -0.15170E+05         0.00000E+00
    0.00000E+00         0.00000E+00        -0.63910E+04
 
    0.55916E+04        -0.42965E+02         0.00000E+00
   -0.42965E+02        -0.16511E+02         0.00000E+00
    0.00000E+00         0.00000E+00         0.16725E+04
 
    0.68875E+03         0.67650E+03         0.00000E+00
    0.67650E+03        -0.24594E+03         0.00000E+00
    0.00000E+00         0.00000E+00         0.13285E+03
 
   -0.32320E+04         0.21408E+04         0.00000E+00
    0.21408E+04        -0.94805E+03         0.00000E+00
    0.00000E+00         0.00000E+00        -0.12540E+04
 
   -0.59202E+04         0.38902E+04         0.00000E+00
    0.38902E+04        -0.21706E+04         0.00000E+00
    0.00000E+00         0.00000E+00        -0.24272E+04
 
   -0.74420E+04         0.55283E+04         0.00000E+00
    0.55283E+04        -0.37781E+04         0.00000E+00
    0.00000E+00         0.00000E+00        -0.33660E+04
 
   -0.80466E+04         0.68213E+04         0.00000E+00
    0.68213E+04        -0.55591E+04         0.00000E+00
    0.00000E+00         0.00000E+00        -0.40817E+04
 
   -0.80288E+04         0.76921E+04         0.00000E+00
    0.76921E+04        -0.73233E+04         0.00000E+00
    0.00000E+00         0.00000E+00        -0.46056E+04
 
   -0.76441E+04         0.81648E+04         0.00000E+00
    0.81648E+04        -0.89417E+04         0.00000E+00
    0.00000E+00         0.00000E+00        -0.49758E+04
 
   -0.70811E+04         0.83104E+04         0.00000E+00
    0.83104E+04        -0.10348E+05         0.00000E+00
    0.00000E+00         0.00000E+00        -0.52288E+04
 
   -0.64649E+04         0.82105E+04         0.00000E+00
    0.82105E+04        -0.11522E+05         0.00000E+00
    0.00000E+00         0.00000E+00        -0.53960E+04
 
   -0.58720E+04         0.79400E+04         0.00000E+00
    0.79400E+04        -0.12470E+05         0.00000E+00
    0.00000E+00         0.00000E+00        -0.55025E+04
 
   -0.53456E+04         0.75610E+04         0.00000E+00
    0.75610E+04        -0.13212E+05         0.00000E+00
    0.00000E+00         0.00000E+00        -0.55674E+04
 
   -0.49072E+04         0.71220E+04         0.00000E+00
    0.71220E+04        -0.13778E+05         0.00000E+00
    0.00000E+00         0.00000E+00        -0.56054E+04
 
   -0.45655E+04         0.66594E+04         0.00000E+00
    0.66594E+04        -0.14193E+05         0.00000E+00
    0.00000E+00         0.00000E+00        -0.56274E+04
 
   -0.43215E+04         0.62007E+04         0.00000E+00
    0.62007E+04        -0.14483E+05         0.00000E+00
    0.00000E+00         0.00000E+00        -0.56413E+04
 
   -0.41724E+04         0.57663E+04         0.00000E+00
    0.57663E+04        -0.14671E+05         0.00000E+00
    0.00000E+00         0.00000E+00        -0.56530E+04
 
   -0.41137E+04         0.53722E+04         0.00000E+00
    0.53722E+04        -0.14775E+05         0.00000E+00
    0.00000E+00         0.00000E+00        -0.56667E+04
 
   -0.41402E+04         0.50313E+04         0.00000E+00
    0.50313E+04        -0.14811E+05         0.00000E+00
    0.00000E+00         0.00000E+00        -0.56855E+04
 
   -0.42467E+04         0.47556E+04         0.00000E+00
    0.47556E+04        -0.14792E+05         0.00000E+00
    0.00000E+00         0.00000E+00        -0.57115E+04
 
   -0.44282E+04         0.45566E+04         0.00000E+00
    0.45566E+04        -0.14726E+05         0.00000E+00
    0.00000E+00         0.00000E+00        -0.57462E+04
 
   -0.46799E+04         0.44470E+04         0.00000E+00
    0.44470E+04        -0.14622E+05         0.00000E+00
    0.00000E+00         0.00000E+00        -0.57905E+04
 
   -0.49964E+04         0.44416E+04         0.00000E+00
    0.44416E+04        -0.14487E+05         0.00000E+00
    0.00000E+00         0.00000E+00        -0.58449E+04
 
   -0.53716E+04         0.45583E+04         0.00000E+00
    0.45583E+04        -0.14326E+05         0.00000E+00
    0.00000E+00         0.00000E+00        -0.59091E+04
 
   -0.57975E+04         0.48192E+04         0.00000E+00
    0.48192E+04        -0.14145E+05         0.00000E+00
    0.00000E+00         0.00000E+00        -0.59828E+04
 
    0.57083E+04        -0.88766E+02         0.00000E+00
   -0.88766E+02        -0.11153E+02         0.00000E+00
    0.00000E+00         0.00000E+00         0.17091E+04
 
    0.16225E+04         0.32784E+03         0.00000E+00
    0.32784E+03        -0.16179E+03         0.00000E+00
    0.00000E+00         0.00000E+00         0.43821E+03
 
   -0.18083E+04         0.13418E+04         0.00000E+00
    0.13418E+04        -0.63066E+03         0.00000E+00
    0.00000E+00         0.00000E+00        -0.73169E+03
 
   -0.43736E+04         0.26656E+04         0.00000E+00
    0.26656E+04        -0.14827E+04         0.00000E+00
    0.00000E+00         0.00000E+00        -0.17569E+04
 
   -0.60552E+04         0.40190E+04         0.00000E+00
    0.40190E+04        -0.26645E+04         0.00000E+00
    0.00000E+00         0.00000E+00        -0.26159E+04
 
   -0.69736E+04         0.52009E+04         0.00000E+00
    0.52009E+04        -0.40536E+04         0.00000E+00
    0.00000E+00         0.00000E+00        -0.33082E+04
 
   -0.73123E+04         0.61069E+04         0.00000E+00
    0.61069E+04        -0.55142E+04         0.00000E+00
    0.00000E+00         0.00000E+00        -0.38480E+04
 
   -0.72576E+04         0.67121E+04         0.00000E+00
    0.67121E+04        -0.69341E+04         0.00000E+00
    0.00000E+00         0.00000E+00        -0.42575E+04
 
   -0.69661E+04         0.70409E+04         0.00000E+00
    0.70409E+04        -0.82383E+04         0.00000E+00
    0.00000E+00         0.00000E+00        -0.45613E+04
 
   -0.65555E+04         0.71407E+04         0.00000E+00
    0.71407E+04        -0.93861E+04         0.00000E+00
    0.00000E+00         0.00000E+00        -0.47825E+04
 
   -0.61074E+04         0.70652E+04         0.00000E+00
    0.70652E+04        -0.10363E+05         0.00000E+00
    0.00000E+00         0.00000E+00        -0.49412E+04
 
   -0.56743E+04         0.68649E+04         0.00000E+00
    0.68649E+04        -0.11172E+05         0.00000E+00
    0.00000E+00         0.00000E+00        -0.50539E+04
 
   -0.52882E+04         0.65830E+04         0.00000E+00
    0.65830E+04        -0.11824E+05         0.00000E+00
    0.00000E+00         0.00000E+00        -0.51338E+04
 
   -0.49667E+04         0.62554E+04         0.00000E+00
    0.62554E+04        -0.12337E+05         0.00000E+00
    0.00000E+00         0.00000E+00        -0.51912E+04
 
   -0.47182E+04         0.59105E+04         0.00000E+00
    0.59105E+04        -0.12728E+05         0.00000E+00
    0.00000E+00         0.00000E+00        -0.52340E+04
 
   -0.45453E+04         0.55712E+04         0.00000E+00
    0.55712E+04        -0.13015E+05         0.00000E+00
    0.00000E+00         0.00000E+00        -0.52682E+04
 
   -0.44471E+04         0.52560E+04         0.00000E+00
    0.52560E+04        -0.13214E+05         0.00000E+00
    0.00000E+00         0.00000E+00        -0.52983E+04
 
   -0.44204E+04         0.49806E+04         0.00000E+00
    0.49806E+04        -0.13338E+05         0.00000E+00
    0.00000E+00         0.00000E+00        -0.53276E+04
 
   -0.44612E+04         0.47591E+04         0.00000E+00
    0.47591E+04        -0.13400E+05         0.00000E+00
    0.00000E+00         0.00000E+00        -0.53583E+04
 
   -0.45640E+04         0.46050E+04         0.00000E+00
    0.46050E+04        -0.13410E+05         0.00000E+00
    0.00000E+00         0.00000E+00        -0.53921E+04
 
   -0.47228E+04         0.45324E+04         0.00000E+00
    0.45324E+04        -0.13377E+05         0.00000E+00
    0.00000E+00         0.00000E+00        -0.54299E+04
 
   -0.49301E+04         0.45567E+04         0.00000E+00
    0.45567E+04        -0.13309E+05         0.00000E+00
    0.00000E+00         0.00000E+00        -0.54718E+04
 
   -0.51764E+04         0.46958E+04         0.00000E+00
    0.46958E+04        -0.13215E+05         0.00000E+00
    0.00000E+00         0.00000E+00        -0.55175E+04
 
   -0.54495E+04         0.49708E+04         0.00000E+00
    0.49708E+04        -0.13104E+05         0.00000E+00
    0.00000E+00         0.00000E+00        -0.55662E+04
 
    0.56842E+04        -0.12027E+03         0.00000E+00
   -0.12027E+03        -0.79328E+01         0.00000E+00
    0.00000E+00         0.00000E+00         0.17029E+04
 
    0.22266E+04         0.93866E+02         0.00000E+00
    0.93866E+02        -0.11111E+03         0.00000E+00
    0.00000E+00         0.00000E+00         0.63463E+03
 
   -0.77774E+03         0.79121E+03         0.00000E+00
    0.79121E+03        -0.43617E+03         0.00000E+00
    0.00000E+00         0.00000E+00        -0.36417E+03
 
   -0.31607E+04         0.17849E+04         0.00000E+00
    0.17849E+04        -0.10442E+04         0.00000E+00
    0.00000E+00         0.00000E+00        -0.12615E+04
 
   -0.48738E+04         0.28777E+04         0.00000E+00
    0.28777E+04        -0.19213E+04         0.00000E+00
    0.00000E+00         0.00000E+00        -0.20385E+04
 
   -0.59673E+04         0.39084E+04         0.00000E+00
    0.39084E+04        -0.29991E+04         0.00000E+00
    0.00000E+00         0.00000E+00        -0.26899E+04
 
   -0.65502E+04         0.47736E+04         0.00000E+00
    0.47736E+04        -0.41865E+04         0.00000E+00
    0.00000E+00         0.00000E+00        -0.32210E+04
 
   -0.67513E+04         0.54259E+04         0.00000E+00
    0.54259E+04        -0.53958E+04         0.00000E+00
    0.00000E+00         0.00000E+00        -0.36441E+04
 
   -0.66923E+04         0.58603E+04         0.00000E+00
    0.58603E+04        -0.65578E+04         0.00000E+00
    0.00000E+00         0.00000E+00        -0.39750E+04
 
   -0.64741E+04         0.60976E+04         0.00000E+00
    0.60976E+04        -0.76260E+04         0.00000E+00
    0.00000E+00         0.00000E+00        -0.42300E+04
 
   -0.61739E+04         0.61714E+04         0.00000E+00
    0.61714E+04        -0.85745E+04         0.00000E+00
    0.00000E+00         0.00000E+00        -0.44245E+04
 
   -0.58468E+04         0.61186E+04         0.00000E+00
    0.61186E+04        -0.93931E+04         0.00000E+00
    0.00000E+00         0.00000E+00        -0.45720E+04
 
   -0.55299E+04         0.59749E+04         0.00000E+00
    0.59749E+04        -0.10082E+05         0.00000E+00
    0.00000E+00         0.00000E+00        -0.46836E+04
 
   -0.52468E+04         0.57719E+04         0.00000E+00
    0.57719E+04        -0.10649E+05         0.00000E+00
    0.00000E+00         0.00000E+00        -0.47687E+04
 
   -0.50112E+04         0.55370E+04         0.00000E+00
    0.55370E+04        -0.11104E+05         0.00000E+00
    0.00000E+00         0.00000E+00        -0.48346E+04
 
   -0.48303E+04         0.52930E+04         0.00000E+00
    0.52930E+04        -0.11460E+05         0.00000E+00
    0.00000E+00         0.00000E+00        -0.48870E+04
 
   -0.47064E+04         0.50596E+04         0.00000E+00
    0.50596E+04        -0.11728E+05         0.00000E+00
    0.00000E+00         0.00000E+00        -0.49303E+04
 
   -0.46387E+04         0.48537E+04         0.00000E+00
    0.48537E+04        -0.11921E+05         0.00000E+00
    0.00000E+00         0.00000E+00        -0.49678E+04
 
   -0.46239E+04         0.46908E+04         0.00000E+00
    0.46908E+04        -0.12049E+05         0.00000E+00
    0.00000E+00         0.00000E+00        -0.50019E+04
 
   -0.46571E+04         0.45855E+04         0.00000E+00
    0.45855E+04        -0.12123E+05         0.00000E+00
    0.00000E+00         0.00000E+00        -0.50339E+04
 
   -0.47313E+04         0.45526E+04         0.00000E+00
    0.45526E+04        -0.12151E+05         0.00000E+00
    0.00000E+00         0.00000E+00        -0.50648E+04
 
   -0.48375E+04         0.46078E+04         0.00000E+00
    0.46078E+04        -0.12144E+05         0.00000E+00
    0.00000E+00         0.00000E+00        -0.50946E+04
 
   -0.49639E+04         0.47682E+04         0.00000E+00
    0.47682E+04        -0.12112E+05         0.00000E+00
    0.00000E+00         0.00000E+00        -0.51227E+04
 
   -0.50950E+04         0.50535E+04         0.00000E+00
    0.50535E+04        -0.12065E+05         0.00000E+00
    0.00000E+00         0.00000E+00        -0.51479E+04
 
    0.55641E+04        -0.14254E+03         0.00000E+00
   -0.14254E+03        -0.56653E+01         0.00000E+00
    0.00000E+00         0.00000E+00         0.16675E+04
 
    0.26022E+04        -0.68971E+02         0.00000E+00
   -0.68971E+02        -0.78385E+02         0.00000E+00
    0.00000E+00         0.00000E+00         0.75714E+03
 
   -0.36790E+02         0.40077E+03         0.00000E+00
    0.40077E+03        -0.30986E+03         0.00000E+00
    0.00000E+00         0.00000E+00        -0.10399E+03
 
   -0.22207E+04         0.11409E+04         0.00000E+00
    0.11409E+04        -0.75255E+03         0.00000E+00
    0.00000E+00         0.00000E+00        -0.89198E+03
 
   -0.38936E+04         0.20109E+04         0.00000E+00
    0.20109E+04        -0.14104E+04         0.00000E+00
    0.00000E+00         0.00000E+00        -0.15912E+04
 
   -0.50685E+04         0.28855E+04         0.00000E+00
    0.28855E+04        -0.22472E+04         0.00000E+00
    0.00000E+00         0.00000E+00        -0.21947E+04
 
   -0.58070E+04         0.36727E+04         0.00000E+00
    0.36727E+04        -0.32037E+04         0.00000E+00
    0.00000E+00         0.00000E+00        -0.27032E+04
 
   -0.61949E+04         0.43186E+04         0.00000E+00
    0.43186E+04        -0.42154E+04         0.00000E+00
    0.00000E+00         0.00000E+00        -0.31231E+04
 
   -0.63224E+04         0.48018E+04         0.00000E+00
    0.48018E+04        -0.52243E+04         0.00000E+00
    0.00000E+00         0.00000E+00        -0.34640E+04
 
   -0.62714E+04         0.51251E+04         0.00000E+00
    0.51251E+04        -0.61861E+04         0.00000E+00
    0.00000E+00         0.00000E+00        -0.37373E+04
 
   -0.61096E+04         0.53057E+04         0.00000E+00
    0.53057E+04        -0.70706E+04         0.00000E+00
    0.00000E+00         0.00000E+00        -0.39541E+04
 
   -0.58895E+04         0.53682E+04         0.00000E+00
    0.53682E+04        -0.78605E+04         0.00000E+00
    0.00000E+00         0.00000E+00        -0.41250E+04
 
   -0.56493E+04         0.53395E+04         0.00000E+00
    0.53395E+04        -0.85485E+04         0.00000E+00
    0.00000E+00         0.00000E+00        -0.42593E+04
 
   -0.54154E+04         0.52459E+04         0.00000E+00
    0.52459E+04        -0.91343E+04         0.00000E+00
    0.00000E+00         0.00000E+00        -0.43649E+04
 
   -0.52050E+04         0.51114E+04         0.00000E+00
    0.51114E+04        -0.96224E+04         0.00000E+00
    0.00000E+00         0.00000E+00        -0.44482E+04
 
   -0.50283E+04         0.49578E+04         0.00000E+00
    0.49578E+04        -0.10020E+05         0.00000E+00
    0.00000E+00         0.00000E+00        -0.45145E+04
 
   -0.48905E+04         0.48042E+04         0.00000E+00
    0.48042E+04        -0.10336E+05         0.00000E+00
    0.00000E+00         0.00000E+00        -0.45678E+04
 
   -0.47926E+04         0.46677E+04         0.00000E+00
    0.46677E+04        -0.10578E+05         0.00000E+00
    0.00000E+00         0.00000E+00        -0.46113E+04
 
   -0.47324E+04         0.45643E+04         0.00000E+00
    0.45643E+04        -0.10758E+05         0.00000E+00
    0.00000E+00         0.00000E+00        -0.46471E+04
 
   -0.47055E+04         0.45089E+04         0.00000E+00
    0.45089E+04        -0.10883E+05         0.00000E+00
    0.00000E+00         0.00000E+00        -0.46766E+04
 
   -0.47044E+04         0.45162E+04         0.00000E+00
    0.45162E+04        -0.10964E+05         0.00000E+00
    0.00000E+00         0.00000E+00        -0.47005E+04
 
   -0.47193E+04         0.46017E+04         0.00000E+00
    0.46017E+04        -0.11010E+05         0.00000E+00
    0.00000E+00         0.00000E+00        -0.47188E+04
 
   -0.47367E+04         0.47816E+04         0.00000E+00
    0.47816E+04        -0.11032E+05         0.00000E+00
    0.00000E+00         0.00000E+00        -0.47306E+04
 
   -0.47391E+04         0.50735E+04         0.00000E+00
    0.50735E+04        -0.11042E+05         0.00000E+00
    0.00000E+00         0.00000E+00        -0.47344E+04
 
    0.53767E+04        -0.15836E+03         0.00000E+00
   -0.15836E+03        -0.39766E+01         0.00000E+00
    0.00000E+00         0.00000E+00         0.16118E+04
 
    0.28151E+04        -0.18495E+03         0.00000E+00
   -0.18495E+03        -0.55905E+02         0.00000E+00
    0.00000E+00         0.00000E+00         0.82777E+03
 
    0.48856E+03         0.11804E+03         0.00000E+00
    0.11804E+03        -0.22366E+03         0.00000E+00
    0.00000E+00         0.00000E+00         0.79470E+02
 
   -0.14991E+04         0.66310E+03         0.00000E+00
    0.66310E+03        -0.55078E+03         0.00000E+00
    0.00000E+00         0.00000E+00        -0.61496E+03
 
   -0.30935E+04         0.13485E+04         0.00000E+00
    0.13485E+04        -0.10488E+04         0.00000E+00
    0.00000E+00         0.00000E+00        -0.12427E+04
 
   -0.42888E+04         0.20777E+04         0.00000E+00
    0.20777E+04        -0.17001E+04         0.00000E+00
    0.00000E+00         0.00000E+00        -0.17967E+04
 
   -0.51172E+04         0.27732E+04         0.00000E+00
    0.27732E+04        -0.24673E+04         0.00000E+00
    0.00000E+00         0.00000E+00        -0.22754E+04
 
   -0.56339E+04         0.33820E+04         0.00000E+00
    0.33820E+04        -0.33043E+04         0.00000E+00
    0.00000E+00         0.00000E+00        -0.26814E+04
 
   -0.59035E+04         0.38758E+04         0.00000E+00
    0.38758E+04        -0.41654E+04         0.00000E+00
    0.00000E+00         0.00000E+00        -0.30207E+04
 
   -0.59900E+04         0.42459E+04         0.00000E+00
    0.42459E+04        -0.50117E+04         0.00000E+00
    0.00000E+00         0.00000E+00        -0.33005E+04
 
   -0.59498E+04         0.44978E+04         0.00000E+00
    0.44978E+04        -0.58135E+04         0.00000E+00
    0.00000E+00         0.00000E+00        -0.35290E+04
 
   -0.58298E+04         0.46457E+04         0.00000E+00
    0.46457E+04        -0.65506E+04         0.00000E+00
    0.00000E+00         0.00000E+00        -0.37141E+04
 
   -0.56663E+04         0.47085E+04         0.00000E+00
    0.47085E+04        -0.72112E+04         0.00000E+00
    0.00000E+00         0.00000E+00        -0.38632E+04
 
   -0.54862E+04         0.47065E+04         0.00000E+00
    0.47065E+04        -0.77899E+04         0.00000E+00
    0.00000E+00         0.00000E+00        -0.39828E+04
 
   -0.53082E+04         0.46600E+04         0.00000E+00
    0.46600E+04        -0.82864E+04         0.00000E+00
    0.00000E+00         0.00000E+00        -0.40784E+04
 
   -0.51446E+04         0.45883E+04         0.00000E+00
    0.45883E+04        -0.87038E+04         0.00000E+00
    0.00000E+00         0.00000E+00        -0.41545E+04
 
   -0.50020E+04         0.45090E+04         0.00000E+00
    0.45090E+04        -0.90474E+04         0.00000E+00
    0.00000E+00         0.00000E+00        -0.42148E+04
 
   -0.48832E+04         0.44387E+04         0.00000E+00
    0.44387E+04        -0.93238E+04         0.00000E+00
    0.00000E+00         0.00000E+00        -0.42621E+04
 
   -0.47870E+04         0.43927E+04         0.00000E+00
    0.43927E+04        -0.95406E+04         0.00000E+00
    0.00000E+00         0.00000E+00        -0.42983E+04
 
   -0.47093E+04         0.43856E+04         0.00000E+00
    0.43856E+04        -0.97061E+04         0.00000E+00
    0.00000E+00         0.00000E+00        -0.43246E+04
 
   -0.46428E+04         0.44320E+04         0.00000E+00
    0.44320E+04        -0.98293E+04         0.00000E+00
    0.00000E+00         0.00000E+00        -0.43416E+04
 
   -0.45770E+04         0.45461E+04         0.00000E+00
    0.45461E+04        -0.99199E+04         0.00000E+00
    0.00000E+00         0.00000E+00        -0.43491E+04
 
   -0.44978E+04         0.47427E+04         0.00000E+00
    0.47427E+04        -0.99891E+04         0.00000E+00
    0.00000E+00         0.00000E+00        -0.43460E+04
 
   -0.43864E+04         0.50375E+04         0.00000E+00
    0.50375E+04        -0.10050E+05         0.00000E+00
    0.00000E+00         0.00000E+00        -0.43309E+04
 
    0.51414E+04        -0.16939E+03         0.00000E+00
   -0.16939E+03        -0.26433E+01         0.00000E+00
    0.00000E+00         0.00000E+00         0.15416E+04
 
    0.29098E+04        -0.26846E+03         0.00000E+00
   -0.26846E+03        -0.39662E+02         0.00000E+00
    0.00000E+00         0.00000E+00         0.86105E+03
 
    0.85162E+03        -0.89490E+02         0.00000E+00
   -0.89490E+02        -0.16226E+03         0.00000E+00
    0.00000E+00         0.00000E+00         0.20681E+03
 
   -0.95074E+03         0.30481E+03         0.00000E+00
    0.30481E+03        -0.40624E+03         0.00000E+00
    0.00000E+00         0.00000E+00        -0.40709E+03
 
   -0.24480E+04         0.83950E+03         0.00000E+00
    0.83950E+03        -0.78576E+03         0.00000E+00
    0.00000E+00         0.00000E+00        -0.97012E+03
 
   -0.36252E+04         0.14401E+04         0.00000E+00
    0.14401E+04        -0.12939E+04         0.00000E+00
    0.00000E+00         0.00000E+00        -0.14757E+04
 
   -0.44964E+04         0.20427E+04         0.00000E+00
    0.20427E+04        -0.19078E+04         0.00000E+00
    0.00000E+00         0.00000E+00        -0.19212E+04
 
   -0.50958E+04         0.25993E+04         0.00000E+00
    0.25993E+04        -0.25951E+04         0.00000E+00
    0.00000E+00         0.00000E+00        -0.23073E+04
 
   -0.54686E+04         0.30794E+04         0.00000E+00
    0.30794E+04        -0.33212E+04         0.00000E+00
    0.00000E+00         0.00000E+00        -0.26369E+04
 
   -0.56629E+04         0.34682E+04         0.00000E+00
    0.34682E+04        -0.40537E+04         0.00000E+00
    0.00000E+00         0.00000E+00        -0.29150E+04
 
   -0.57243E+04         0.37633E+04         0.00000E+00
    0.37633E+04        -0.47657E+04         0.00000E+00
    0.00000E+00         0.00000E+00        -0.31470E+04
 
   -0.56928E+04         0.39711E+04         0.00000E+00
    0.39711E+04        -0.54368E+04         0.00000E+00
    0.00000E+00         0.00000E+00        -0.33389E+04
 
   -0.56010E+04         0.41036E+04         0.00000E+00
    0.41036E+04        -0.60532E+04         0.00000E+00
    0.00000E+00         0.00000E+00        -0.34963E+04
 
   -0.54746E+04         0.41757E+04         0.00000E+00
    0.41757E+04        -0.66065E+04         0.00000E+00
    0.00000E+00         0.00000E+00        -0.36243E+04
 
   -0.53323E+04         0.42034E+04         0.00000E+00
    0.42034E+04        -0.70932E+04         0.00000E+00
    0.00000E+00         0.00000E+00        -0.37276E+04
 
   -0.51869E+04         0.42031E+04         0.00000E+00
    0.42031E+04        -0.75131E+04         0.00000E+00
    0.00000E+00         0.00000E+00        -0.38100E+04
 
   -0.50465E+04         0.41905E+04         0.00000E+00
    0.41905E+04        -0.78688E+04         0.00000E+00
    0.00000E+00         0.00000E+00        -0.38746E+04
 
   -0.49143E+04         0.41807E+04         0.00000E+00
    0.41807E+04        -0.81647E+04         0.00000E+00
    0.00000E+00         0.00000E+00        -0.39237E+04
 
   -0.47903E+04         0.41880E+04         0.00000E+00
    0.41880E+04        -0.84066E+04         0.00000E+00
    0.00000E+00         0.00000E+00        -0.39591E+04
 
   -0.46707E+04         0.42261E+04         0.00000E+00
    0.42261E+04        -0.86017E+04         0.00000E+00
    0.00000E+00         0.00000E+00        -0.39817E+04
 
   -0.45486E+04         0.43085E+04         0.00000E+00
    0.43085E+04        -0.87581E+04         0.00000E+00
    0.00000E+00         0.00000E+00        -0.39920E+04
 
   -0.44132E+04         0.44484E+04         0.00000E+00
    0.44484E+04        -0.88852E+04         0.00000E+00
    0.00000E+00         0.00000E+00        -0.39895E+04
 
   -0.42503E+04         0.46588E+04         0.00000E+00
    0.46588E+04        -0.89942E+04         0.00000E+00
    0.00000E+00         0.00000E+00        -0.39734E+04
 
   -0.40408E+04         0.49529E+04         0.00000E+00
    0.49529E+04        -0.90981E+04         0.00000E+00
    0.00000E+00         0.00000E+00        -0.39417E+04
 
    0.48721E+04        -0.17668E+03         0.00000E+00
   -0.17668E+03        -0.15516E+01         0.00000E+00
    0.00000E+00         0.00000E+00         0.14612E+04
 
    0.29174E+04        -0.32847E+03         0.00000E+00
   -0.32847E+03        -0.27430E+02         0.00000E+00
    0.00000E+00         0.00000E+00         0.86698E+03
 
    0.10913E+04        -0.24271E+03         0.00000E+00
   -0.24271E+03        -0.11691E+03         0.00000E+00
    0.00000E+00         0.00000E+00         0.29232E+03
 
   -0.53974E+03         0.34477E+02         0.00000E+00
    0.34477E+02        -0.29946E+03         0.00000E+00
    0.00000E+00         0.00000E+00        -0.25176E+03
 
   -0.19323E+04         0.44692E+03         0.00000E+00
    0.44692E+03        -0.58957E+03         0.00000E+00
    0.00000E+00         0.00000E+00        -0.75657E+03
 
   -0.30676E+04         0.93684E+03         0.00000E+00
    0.93684E+03        -0.98645E+03         0.00000E+00
    0.00000E+00         0.00000E+00        -0.12162E+04
 
   -0.39488E+04         0.14520E+04         0.00000E+00
    0.14520E+04        -0.14765E+04         0.00000E+00
    0.00000E+00         0.00000E+00        -0.16276E+04
 
   -0.45958E+04         0.19506E+04         0.00000E+00
    0.19506E+04        -0.20378E+04         0.00000E+00
    0.00000E+00         0.00000E+00        -0.19901E+04
 
   -0.50392E+04         0.24029E+04         0.00000E+00
    0.24029E+04        -0.26445E+04         0.00000E+00
    0.00000E+00         0.00000E+00        -0.23051E+04
 
   -0.53145E+04         0.27914E+04         0.00000E+00
    0.27914E+04        -0.32706E+04         0.00000E+00
    0.00000E+00         0.00000E+00        -0.25755E+04
 
   -0.54572E+04         0.31087E+04         0.00000E+00
    0.31087E+04        -0.38930E+04         0.00000E+00
    0.00000E+00         0.00000E+00        -0.28051E+04
 
   -0.55004E+04         0.33558E+04         0.00000E+00
    0.33558E+04        -0.44927E+04         0.00000E+00
    0.00000E+00         0.00000E+00        -0.29979E+04
 
   -0.54723E+04         0.35391E+04         0.00000E+00
    0.35391E+04        -0.50555E+04         0.00000E+00
    0.00000E+00         0.00000E+00        -0.31583E+04
 
   -0.53961E+04         0.36688E+04         0.00000E+00
    0.36688E+04        -0.55717E+04         0.00000E+00
    0.00000E+00         0.00000E+00        -0.32903E+04
 
   -0.52894E+04         0.37571E+04         0.00000E+00
    0.37571E+04        -0.60357E+04         0.00000E+00
    0.00000E+00         0.00000E+00        -0.33975E+04
 
   -0.51650E+04         0.38171E+04         0.00000E+00
    0.38171E+04        -0.64452E+04         0.00000E+00
    0.00000E+00         0.00000E+00        -0.34831E+04
 
   -0.50310E+04         0.38623E+04         0.00000E+00
    0.38623E+04        -0.68006E+04         0.00000E+00
    0.00000E+00         0.00000E+00        -0.35495E+04
 
   -0.48915E+04         0.39060E+04         0.00000E+00
    0.39060E+04        -0.71044E+04         0.00000E+00
    0.00000E+00         0.00000E+00        -0.35988E+04
 
   -0.47468E+04         0.39609E+04         0.00000E+00
    0.39609E+04        -0.73610E+04         0.00000E+00
    0.00000E+00         0.00000E+00        -0.36323E+04
 
   -0.45935E+04         0.40397E+04         0.00000E+00
    0.40397E+04        -0.75763E+04         0.00000E+00
    0.00000E+00         0.00000E+00        -0.36510E+04
 
   -0.44251E+04         0.41542E+04         0.00000E+00
    0.41542E+04        -0.77576E+04         0.00000E+00
    0.00000E+00         0.00000E+00        -0.36548E+04
 
   -0.42312E+04         0.43163E+04         0.00000E+00
    0.43163E+04        -0.79137E+04         0.00000E+00
    0.00000E+00         0.00000E+00        -0.36435E+04
 
   -0.39976E+04         0.45371E+04         0.00000E+00
    0.45371E+04        -0.80552E+04         0.00000E+00
    0.00000E+00         0.00000E+00        -0.36159E+04
 
   -0.37057E+04         0.48274E+04         0.00000E+00
    0.48274E+04        -0.81949E+04         0.00000E+00
    0.00000E+00         0.00000E+00        -0.35702E+04
 
    0.45794E+04        -0.18096E+03         0.00000E+00
   -0.18096E+03        -0.63613E+00         0.00000E+00
    0.00000E+00         0.00000E+00         0.13736E+04
 
    0.28602E+04        -0.37088E+03         0.00000E+00
   -0.37088E+03        -0.17915E+02         0.00000E+00
    0.00000E+00         0.00000E+00         0.85270E+03
 
    0.12365E+04        -0.35554E+03         0.00000E+00
   -0.35554E+03        -0.82386E+02         0.00000E+00
    0.00000E+00         0.00000E+00         0.34625E+03
 
   -0.23766E+03        -0.16968E+03         0.00000E+00
   -0.16968E+03        -0.21847E+03         0.00000E+00
    0.00000E+00         0.00000E+00        -0.13684E+03
 
   -0.15245E+04         0.14390E+03         0.00000E+00
    0.14390E+03        -0.43999E+03         0.00000E+00
    0.00000E+00         0.00000E+00        -0.58934E+03
 
   -0.26038E+04         0.54001E+03         0.00000E+00
    0.54001E+03        -0.74952E+03         0.00000E+00
    0.00000E+00         0.00000E+00        -0.10060E+04
 
   -0.34725E+04         0.97622E+03         0.00000E+00
    0.97622E+03        -0.11397E+04         0.00000E+00
    0.00000E+00         0.00000E+00        -0.13837E+04
 
   -0.41408E+04         0.14166E+04         0.00000E+00
    0.14166E+04        -0.15957E+04         0.00000E+00
    0.00000E+00         0.00000E+00        -0.17210E+04
 
   -0.46288E+04         0.18339E+04         0.00000E+00
    0.18339E+04        -0.20987E+04         0.00000E+00
    0.00000E+00         0.00000E+00        -0.20183E+04
 
   -0.49617E+04         0.22098E+04         0.00000E+00
    0.22098E+04        -0.26285E+04         0.00000E+00
    0.00000E+00         0.00000E+00        -0.22771E+04
 
   -0.51669E+04         0.25343E+04         0.00000E+00
    0.25343E+04        -0.31658E+04         0.00000E+00
    0.00000E+00         0.00000E+00        -0.24998E+04
 
   -0.52706E+04         0.28046E+04         0.00000E+00
    0.28046E+04        -0.36938E+04         0.00000E+00
    0.00000E+00         0.00000E+00        -0.26893E+04
 
   -0.52966E+04         0.30230E+04         0.00000E+00
    0.30230E+04        -0.41990E+04         0.00000E+00
    0.00000E+00         0.00000E+00        -0.28487E+04
 
   -0.52650E+04         0.31958E+04         0.00000E+00
    0.31958E+04        -0.46715E+04         0.00000E+00
    0.00000E+00         0.00000E+00        -0.29809E+04
 
   -0.51918E+04         0.33318E+04         0.00000E+00
    0.33318E+04        -0.51045E+04         0.00000E+00
    0.00000E+00         0.00000E+00        -0.30889E+04
 
   -0.50888E+04         0.34411E+04         0.00000E+00
    0.34411E+04        -0.54945E+04         0.00000E+00
    0.00000E+00         0.00000E+00        -0.31750E+04
 
   -0.49640E+04         0.35349E+04         0.00000E+00
    0.35349E+04        -0.58402E+04         0.00000E+00
    0.00000E+00         0.00000E+00        -0.32413E+04
 
   -0.48215E+04         0.36243E+04         0.00000E+00
    0.36243E+04        -0.61430E+04         0.00000E+00
    0.00000E+00         0.00000E+00        -0.32893E+04
 
   -0.46618E+04         0.37205E+04         0.00000E+00
    0.37205E+04        -0.64058E+04         0.00000E+00
    0.00000E+00         0.00000E+00        -0.33203E+04
 
   -0.44822E+04         0.38345E+04         0.00000E+00
    0.38345E+04        -0.66334E+04         0.00000E+00
    0.00000E+00         0.00000E+00        -0.33347E+04
 
   -0.42763E+04         0.39766E+04         0.00000E+00
    0.39766E+04        -0.68322E+04         0.00000E+00
    0.00000E+00         0.00000E+00        -0.33326E+04
 
   -0.40344E+04         0.41569E+04         0.00000E+00
    0.41569E+04        -0.70103E+04         0.00000E+00
    0.00000E+00         0.00000E+00        -0.33134E+04
 
   -0.37428E+04         0.43847E+04         0.00000E+00
    0.43847E+04        -0.71775E+04         0.00000E+00
    0.00000E+00         0.00000E+00        -0.32761E+04
 
   -0.33839E+04         0.46684E+04         0.00000E+00
    0.46684E+04        -0.73459E+04         0.00000E+00
    0.00000E+00         0.00000E+00        -0.32189E+04
 
    0.42713E+04        -0.18275E+03         0.00000E+00
   -0.18275E+03         0.14148E+00         0.00000E+00
    0.00000E+00         0.00000E+00         0.12814E+04
 
    0.27552E+04        -0.39971E+03         0.00000E+00
   -0.39971E+03        -0.10335E+02         0.00000E+00
    0.00000E+00         0.00000E+00         0.82345E+03
 
    0.13092E+04        -0.43760E+03         0.00000E+00
   -0.43760E+03        -0.55472E+02         0.00000E+00
    0.00000E+00         0.00000E+00         0.37611E+03
 
   -0.22012E+02        -0.32311E+03         0.00000E+00
   -0.32311E+03        -0.15570E+03         0.00000E+00
    0.00000E+00         0.00000E+00        -0.53314E+02
 
   -0.12054E+04        -0.89323E+02         0.00000E+00
   -0.89323E+02        -0.32379E+03         0.00000E+00
    0.00000E+00         0.00000E+00        -0.45876E+03
 
   -0.22212E+04         0.22808E+03         0.00000E+00
    0.22808E+03        -0.56412E+03         0.00000E+00
    0.00000E+00         0.00000E+00        -0.83558E+03
 
   -0.30623E+04         0.59459E+03         0.00000E+00
    0.59459E+03        -0.87330E+03         0.00000E+00
    0.00000E+00         0.00000E+00        -0.11807E+04
 
   -0.37327E+04         0.97979E+03         0.00000E+00
    0.97979E+03        -0.12418E+04         0.00000E+00
    0.00000E+00         0.00000E+00        -0.14923E+04
 
   -0.42448E+04         0.13592E+04         0.00000E+00
    0.13592E+04        -0.16559E+04         0.00000E+00
    0.00000E+00         0.00000E+00        -0.17702E+04
 
   -0.46161E+04         0.17152E+04         0.00000E+00
    0.17152E+04        -0.21003E+04         0.00000E+00
    0.00000E+00         0.00000E+00        -0.20149E+04
 
   -0.48668E+04         0.20364E+04         0.00000E+00
    0.20364E+04        -0.25592E+04         0.00000E+00
    0.00000E+00         0.00000E+00        -0.22278E+04
 
   -0.50176E+04         0.23178E+04         0.00000E+00
    0.23178E+04        -0.30184E+04         0.00000E+00
    0.00000E+00         0.00000E+00        -0.24108E+04
 
   -0.50878E+04         0.25586E+04         0.00000E+00
    0.25586E+04        -0.34657E+04         0.00000E+00
    0.00000E+00         0.00000E+00        -0.25660E+04
 
   -0.50942E+04         0.27623E+04         0.00000E+00
    0.27623E+04        -0.38915E+04         0.00000E+00
    0.00000E+00         0.00000E+00        -0.26957E+04
 
   -0.50508E+04         0.29345E+04         0.00000E+00
    0.29345E+04        -0.42889E+04         0.00000E+00
    0.00000E+00         0.00000E+00        -0.28019E+04
 
   -0.49683E+04         0.30829E+04         0.00000E+00
    0.30829E+04        -0.46534E+04         0.00000E+00
    0.00000E+00         0.00000E+00        -0.28865E+04
 
   -0.48538E+04         0.32162E+04         0.00000E+00
    0.32162E+04        -0.49831E+04         0.00000E+00
    0.00000E+00         0.00000E+00        -0.29511E+04
 
   -0.47113E+04         0.33435E+04         0.00000E+00
    0.33435E+04        -0.52781E+04         0.00000E+00
    0.00000E+00         0.00000E+00        -0.29968E+04
 
   -0.45416E+04         0.34742E+04         0.00000E+00
    0.34742E+04        -0.55404E+04         0.00000E+00
    0.00000E+00         0.00000E+00        -0.30246E+04
 
   -0.43420E+04         0.36176E+04         0.00000E+00
    0.36176E+04        -0.57738E+04         0.00000E+00
    0.00000E+00         0.00000E+00        -0.30347E+04
 
   -0.41067E+04         0.37823E+04         0.00000E+00
    0.37823E+04        -0.59838E+04         0.00000E+00
    0.00000E+00         0.00000E+00        -0.30271E+04
 
   -0.38266E+04         0.39767E+04         0.00000E+00
    0.39767E+04        -0.61775E+04         0.00000E+00
    0.00000E+00         0.00000E+00        -0.30012E+04
 
   -0.34891E+04         0.42082E+04         0.00000E+00
    0.42082E+04        -0.63642E+04         0.00000E+00
    0.00000E+00         0.00000E+00        -0.29560E+04
 
   -0.30776E+04         0.44828E+04         0.00000E+00
    0.44828E+04        -0.65547E+04         0.00000E+00
    0.00000E+00         0.00000E+00        -0.28897E+04
 
    0.39544E+04        -0.18246E+03         0.00000E+00
   -0.18246E+03         0.80479E+00         0.00000E+00
    0.00000E+00         0.00000E+00         0.11866E+04
 
    0.26149E+04        -0.41783E+03         0.00000E+00
   -0.41783E+03        -0.41974E+01         0.00000E+00
    0.00000E+00         0.00000E+00         0.78322E+03
 
    0.13260E+04        -0.49573E+03         0.00000E+00
   -0.49573E+03        -0.34114E+02         0.00000E+00
    0.00000E+00         0.00000E+00         0.38757E+03
 
    0.12502E+03        -0.43697E+03         0.00000E+00
   -0.43697E+03        -0.10623E+03         0.00000E+00
    0.00000E+00         0.00000E+00         0.56367E+01
 
   -0.95923E+03        -0.26749E+03         0.00000E+00
   -0.26749E+03        -0.23215E+03         0.00000E+00
    0.00000E+00         0.00000E+00        -0.35742E+03
 
   -0.19078E+04        -0.15700E+02         0.00000E+00
   -0.15700E+02        -0.41717E+03         0.00000E+00
    0.00000E+00         0.00000E+00        -0.69749E+03
 
   -0.27116E+04         0.29026E+03         0.00000E+00
    0.29026E+03        -0.66047E+03         0.00000E+00
    0.00000E+00         0.00000E+00        -0.10116E+04
 
   -0.33703E+04         0.62478E+03         0.00000E+00
    0.62478E+03        -0.95616E+03         0.00000E+00
    0.00000E+00         0.00000E+00        -0.12979E+04
 
   -0.38908E+04         0.96633E+03         0.00000E+00
    0.96633E+03        -0.12947E+04         0.00000E+00
    0.00000E+00         0.00000E+00        -0.15556E+04
 
   -0.42847E+04         0.12984E+04         0.00000E+00
    0.12984E+04        -0.16643E+04         0.00000E+00
    0.00000E+00         0.00000E+00        -0.17847E+04
 
   -0.45667E+04         0.16095E+04         0.00000E+00
    0.16095E+04        -0.20527E+04         0.00000E+00
    0.00000E+00         0.00000E+00        -0.19858E+04
 
   -0.47524E+04         0.18930E+04         0.00000E+00
    0.18930E+04        -0.24479E+04         0.00000E+00
    0.00000E+00         0.00000E+00        -0.21601E+04
 
   -0.48571E+04         0.21465E+04         0.00000E+00
    0.21465E+04        -0.28393E+04         0.00000E+00
    0.00000E+00         0.00000E+00        -0.23089E+04
 
   -0.48947E+04         0.23707E+04         0.00000E+00
    0.23707E+04        -0.32182E+04         0.00000E+00
    0.00000E+00         0.00000E+00        -0.24339E+04
 
   -0.48768E+04         0.25693E+04         0.00000E+00
    0.25693E+04        -0.35779E+04         0.00000E+00
    0.00000E+00         0.00000E+00        -0.25364E+04
 
   -0.48127E+04         0.27475E+04         0.00000E+00
    0.27475E+04        -0.39137E+04         0.00000E+00
    0.00000E+00         0.00000E+00        -0.26179E+04
 
   -0.47087E+04         0.29117E+04         0.00000E+00
    0.29117E+04        -0.42231E+04         0.00000E+00
    0.00000E+00         0.00000E+00        -0.26795E+04
 
   -0.45684E+04         0.30694E+04         0.00000E+00
    0.30694E+04        -0.45055E+04         0.00000E+00
    0.00000E+00         0.00000E+00        -0.27222E+04
 
   -0.43924E+04         0.32279E+04         0.00000E+00
    0.32279E+04        -0.47622E+04         0.00000E+00
    0.00000E+00         0.00000E+00        -0.27464E+04
 
   -0.41782E+04         0.33948E+04         0.00000E+00
    0.33948E+04        -0.49961E+04         0.00000E+00
    0.00000E+00         0.00000E+00        -0.27523E+04
 
   -0.39208E+04         0.35772E+04         0.00000E+00
    0.35772E+04        -0.52119E+04         0.00000E+00
    0.00000E+00         0.00000E+00        -0.27398E+04
 
   -0.36116E+04         0.37817E+04         0.00000E+00
    0.37817E+04        -0.54160E+04         0.00000E+00
    0.00000E+00         0.00000E+00        -0.27083E+04
 
   -0.32390E+04         0.40136E+04         0.00000E+00
    0.40136E+04        -0.56164E+04         0.00000E+00
    0.00000E+00         0.00000E+00        -0.26566E+04
 
   -0.27882E+04         0.42772E+04         0.00000E+00
    0.42772E+04        -0.58231E+04         0.00000E+00
    0.00000E+00         0.00000E+00        -0.25834E+04
 
    0.36337E+04        -0.18041E+03         0.00000E+00
   -0.18041E+03         0.13691E+01         0.00000E+00
    0.00000E+00         0.00000E+00         0.10905E+04
 
    0.24494E+04        -0.42739E+03         0.00000E+00
   -0.42739E+03         0.81650E+00         0.00000E+00
    0.00000E+00         0.00000E+00         0.73506E+03
 
    0.13001E+04        -0.53497E+03         0.00000E+00
   -0.53497E+03        -0.16960E+02         0.00000E+00
    0.00000E+00         0.00000E+00         0.38495E+03
 
    0.21766E+03        -0.51957E+03         0.00000E+00
   -0.51957E+03        -0.66745E+02         0.00000E+00
    0.00000E+00         0.00000E+00         0.45275E+02
 
   -0.77268E+03        -0.40179E+03         0.00000E+00
   -0.40179E+03        -0.15905E+03         0.00000E+00
    0.00000E+00         0.00000E+00        -0.27952E+03
 
   -0.16531E+04        -0.20442E+03         0.00000E+00
   -0.20442E+03        -0.29952E+03         0.00000E+00
    0.00000E+00         0.00000E+00        -0.58579E+03
 
   -0.24135E+04         0.49506E+02         0.00000E+00
    0.49506E+02        -0.48902E+03         0.00000E+00
    0.00000E+00         0.00000E+00        -0.87076E+03
 
   -0.30508E+04         0.33846E+03         0.00000E+00
    0.33846E+03        -0.72424E+03         0.00000E+00
    0.00000E+00         0.00000E+00        -0.11325E+04
 
   -0.35679E+04         0.64372E+03         0.00000E+00
    0.64372E+03        -0.99862E+03         0.00000E+00
    0.00000E+00         0.00000E+00        -0.13699E+04
 
   -0.39719E+04         0.95022E+03         0.00000E+00
    0.95022E+03        -0.13035E+04         0.00000E+00
    0.00000E+00         0.00000E+00        -0.15826E+04
 
   -0.42732E+04         0.12468E+04         0.00000E+00
    0.12468E+04        -0.16293E+04         0.00000E+00
    0.00000E+00         0.00000E+00        -0.17707E+04
 
   -0.44832E+04         0.15262E+04         0.00000E+00
    0.15262E+04        -0.19662E+04         0.00000E+00
    0.00000E+00         0.00000E+00        -0.19348E+04
 
   -0.46136E+04         0.17847E+04         0.00000E+00
    0.17847E+04        -0.23054E+04         0.00000E+00
    0.00000E+00         0.00000E+00        -0.20757E+04
 
   -0.46756E+04         0.20213E+04         0.00000E+00
    0.20213E+04        -0.26390E+04         0.00000E+00
    0.00000E+00         0.00000E+00        -0.21944E+04
 
   -0.46787E+04         0.22379E+04         0.00000E+00
    0.22379E+04        -0.29608E+04         0.00000E+00
    0.00000E+00         0.00000E+00        -0.22919E+04
 
   -0.46305E+04         0.24376E+04         0.00000E+00
    0.24376E+04        -0.32664E+04         0.00000E+00
    0.00000E+00         0.00000E+00        -0.23691E+04
 
   -0.45365E+04         0.26252E+04         0.00000E+00
    0.26252E+04        -0.35531E+04         0.00000E+00
    0.00000E+00         0.00000E+00        -0.24269E+04
 
   -0.43996E+04         0.28061E+04         0.00000E+00
    0.28061E+04        -0.38198E+04         0.00000E+00
    0.00000E+00         0.00000E+00        -0.24658E+04
 
   -0.42202E+04         0.29861E+04         0.00000E+00
    0.29861E+04        -0.40672E+04         0.00000E+00
    0.00000E+00         0.00000E+00        -0.24862E+04
 
   -0.39963E+04         0.31710E+04         0.00000E+00
    0.31710E+04        -0.42975E+04         0.00000E+00
    0.00000E+00         0.00000E+00        -0.24882E+04
 
   -0.37230E+04         0.33663E+04         0.00000E+00
    0.33663E+04        -0.45149E+04         0.00000E+00
    0.00000E+00         0.00000E+00        -0.24714E+04
 
   -0.33927E+04         0.35769E+04         0.00000E+00
    0.35769E+04        -0.47246E+04         0.00000E+00
    0.00000E+00         0.00000E+00        -0.24352E+04
 
   -0.29951E+04         0.38065E+04         0.00000E+00
    0.38065E+04        -0.49338E+04         0.00000E+00
    0.00000E+00         0.00000E+00        -0.23787E+04
 
   -0.25169E+04         0.40576E+04         0.00000E+00
    0.40576E+04        -0.51514E+04         0.00000E+00
    0.00000E+00         0.00000E+00        -0.23005E+04
 
    0.33135E+04        -0.17690E+03         0.00000E+00
   -0.17690E+03         0.18453E+01         0.00000E+00
    0.00000E+00         0.00000E+00         0.99460E+03
 
    0.22663E+04        -0.43004E+03         0.00000E+00
   -0.43004E+03         0.49241E+01         0.00000E+00
    0.00000E+00         0.00000E+00         0.68137E+03
 
    0.12418E+04        -0.55911E+03         0.00000E+00
   -0.55911E+03        -0.30894E+01         0.00000E+00
    0.00000E+00         0.00000E+00         0.37162E+03
 
    0.26735E+03        -0.57722E+03         0.00000E+00
   -0.57722E+03        -0.34987E+02         0.00000E+00
    0.00000E+00         0.00000E+00         0.69708E+02
 
   -0.63472E+03        -0.50085E+03         0.00000E+00
   -0.50085E+03        -0.10027E+03         0.00000E+00
    0.00000E+00         0.00000E+00        -0.22049E+03
 
   -0.14478E+04        -0.34842E+03         0.00000E+00
   -0.34842E+03        -0.20465E+03         0.00000E+00
    0.00000E+00         0.00000E+00        -0.49574E+03
 
   -0.21614E+04        -0.13888E+03         0.00000E+00
   -0.13888E+03        -0.35008E+03         0.00000E+00
    0.00000E+00         0.00000E+00        -0.75344E+03
 
   -0.27706E+04         0.10970E+03         0.00000E+00
    0.10970E+03        -0.53505E+03         0.00000E+00
    0.00000E+00         0.00000E+00        -0.99169E+03
 
   -0.32755E+04         0.38113E+03         0.00000E+00
    0.38113E+03        -0.75526E+03         0.00000E+00
    0.00000E+00         0.00000E+00        -0.12092E+04
 
   -0.36800E+04         0.66190E+03         0.00000E+00
    0.66190E+03        -0.10045E+04         0.00000E+00
    0.00000E+00         0.00000E+00        -0.14053E+04
 
   -0.39907E+04         0.94147E+03         0.00000E+00
    0.94147E+03        -0.12753E+04         0.00000E+00
    0.00000E+00         0.00000E+00        -0.15798E+04
 
   -0.42160E+04         0.12124E+04         0.00000E+00
    0.12124E+04        -0.15600E+04         0.00000E+00
    0.00000E+00         0.00000E+00        -0.17328E+04
 
   -0.43644E+04         0.14702E+04         0.00000E+00
    0.14702E+04        -0.18512E+04         0.00000E+00
    0.00000E+00         0.00000E+00        -0.18647E+04
 
   -0.44447E+04         0.17127E+04         0.00000E+00
    0.17127E+04        -0.21422E+04         0.00000E+00
    0.00000E+00         0.00000E+00        -0.19761E+04
 
   -0.44642E+04         0.19403E+04         0.00000E+00
    0.19403E+04        -0.24275E+04         0.00000E+00
    0.00000E+00         0.00000E+00        -0.20675E+04
 
   -0.44293E+04         0.21546E+04         0.00000E+00
    0.21546E+04        -0.27029E+04         0.00000E+00
    0.00000E+00         0.00000E+00        -0.21396E+04
 
   -0.43441E+04         0.23587E+04         0.00000E+00
    0.23587E+04        -0.29657E+04         0.00000E+00
    0.00000E+00         0.00000E+00        -0.21930E+04
 
   -0.42113E+04         0.25564E+04         0.00000E+00
    0.25564E+04        -0.32148E+04         0.00000E+00
    0.00000E+00         0.00000E+00        -0.22278E+04
 
   -0.40310E+04         0.27520E+04         0.00000E+00
    0.27520E+04        -0.34504E+04         0.00000E+00
    0.00000E+00         0.00000E+00        -0.22444E+04
 
   -0.38011E+04         0.29497E+04         0.00000E+00
    0.29497E+04        -0.36742E+04         0.00000E+00
    0.00000E+00         0.00000E+00        -0.22426E+04
 
   -0.35175E+04         0.31535E+04         0.00000E+00
    0.31535E+04        -0.38895E+04         0.00000E+00
    0.00000E+00         0.00000E+00        -0.22221E+04
 
   -0.31733E+04         0.33667E+04         0.00000E+00
    0.33667E+04        -0.41011E+04         0.00000E+00
    0.00000E+00         0.00000E+00        -0.21823E+04
 
   -0.27594E+04         0.35916E+04         0.00000E+00
    0.35916E+04        -0.43150E+04         0.00000E+00
    0.00000E+00         0.00000E+00        -0.21223E+04
 
   -0.22642E+04         0.38289E+04         0.00000E+00
    0.38289E+04        -0.45388E+04         0.00000E+00
    0.00000E+00         0.00000E+00        -0.20409E+04
 
    0.29973E+04        -0.17217E+03         0.00000E+00
   -0.17217E+03         0.22415E+01         0.00000E+00
    0.00000E+00         0.00000E+00         0.89987E+03
 
    0.20719E+04        -0.42709E+03         0.00000E+00
   -0.42709E+03         0.82788E+01         0.00000E+00
    0.00000E+00         0.00000E+00         0.62406E+03
 
    0.11593E+04        -0.57112E+03         0.00000E+00
   -0.57112E+03         0.81422E+01         0.00000E+00
    0.00000E+00         0.00000E+00         0.35024E+03
 
    0.28331E+03        -0.61481E+03         0.00000E+00
   -0.61481E+03        -0.93509E+01         0.00000E+00
    0.00000E+00         0.00000E+00         0.82186E+02
 
   -0.53620E+03        -0.57142E+03         0.00000E+00
   -0.57142E+03        -0.52802E+02         0.00000E+00
    0.00000E+00         0.00000E+00        -0.17670E+03
 
   -0.12838E+04        -0.45597E+03         0.00000E+00
   -0.45597E+03        -0.12785E+03         0.00000E+00
    0.00000E+00         0.00000E+00        -0.42350E+03
 
   -0.19490E+04        -0.28405E+03         0.00000E+00
   -0.28405E+03        -0.23709E+03         0.00000E+00
    0.00000E+00         0.00000E+00        -0.65583E+03
 
   -0.25257E+04        -0.70892E+02         0.00000E+00
   -0.70892E+02        -0.38029E+03         0.00000E+00
    0.00000E+00         0.00000E+00        -0.87181E+03
 
   -0.30121E+04         0.16958E+03         0.00000E+00
    0.16958E+03        -0.55488E+03         0.00000E+00
    0.00000E+00         0.00000E+00        -0.10701E+04
 
   -0.34096E+04         0.42536E+03         0.00000E+00
    0.42536E+03        -0.75646E+03         0.00000E+00
    0.00000E+00         0.00000E+00        -0.12498E+04
 
   -0.37221E+04         0.68669E+03         0.00000E+00
    0.68669E+03        -0.97951E+03         0.00000E+00
    0.00000E+00         0.00000E+00        -0.14105E+04
 
   -0.39551E+04         0.94628E+03         0.00000E+00
    0.94628E+03        -0.12180E+04         0.00000E+00
    0.00000E+00         0.00000E+00        -0.15519E+04
 
   -0.41149E+04         0.11992E+04         0.00000E+00
    0.11992E+04        -0.14659E+04         0.00000E+00
    0.00000E+00         0.00000E+00        -0.16742E+04
 
   -0.42078E+04         0.14425E+04         0.00000E+00
    0.14425E+04        -0.17176E+04         0.00000E+00
    0.00000E+00         0.00000E+00        -0.17776E+04
 
   -0.42397E+04         0.16755E+04         0.00000E+00
    0.16755E+04        -0.19684E+04         0.00000E+00
    0.00000E+00         0.00000E+00        -0.18624E+04
 
   -0.42152E+04         0.18985E+04         0.00000E+00
    0.18985E+04        -0.22146E+04         0.00000E+00
    0.00000E+00         0.00000E+00        -0.19289E+04
 
   -0.41379E+04         0.21132E+04         0.00000E+00
    0.21132E+04        -0.24536E+04         0.00000E+00
    0.00000E+00         0.00000E+00        -0.19774E+04
 
   -0.40094E+04         0.23222E+04         0.00000E+00
    0.23222E+04        -0.26842E+04         0.00000E+00
    0.00000E+00         0.00000E+00        -0.20081E+04
 
   -0.38299E+04         0.25281E+04         0.00000E+00
    0.25281E+04        -0.29063E+04         0.00000E+00
    0.00000E+00         0.00000E+00        -0.20209E+04
 
   -0.35974E+04         0.27339E+04         0.00000E+00
    0.27339E+04        -0.31214E+04         0.00000E+00
    0.00000E+00         0.00000E+00        -0.20156E+04
 
   -0.33081E+04         0.29422E+04         0.00000E+00
    0.29422E+04        -0.33321E+04         0.00000E+00
    0.00000E+00         0.00000E+00        -0.19920E+04
 
   -0.29561E+04         0.31549E+04         0.00000E+00
    0.31549E+04        -0.35423E+04         0.00000E+00
    0.00000E+00         0.00000E+00        -0.19495E+04
 
   -0.25335E+04         0.33729E+04         0.00000E+00
    0.33729E+04        -0.37573E+04         0.00000E+00
    0.00000E+00         0.00000E+00        -0.18872E+04
 
   -0.20303E+04         0.35958E+04         0.00000E+00
    0.35958E+04        -0.39834E+04         0.00000E+00
    0.00000E+00         0.00000E+00        -0.18041E+04
 
    0.26880E+04        -0.16644E+03         0.00000E+00
   -0.16644E+03         0.25647E+01         0.00000E+00
    0.00000E+00         0.00000E+00         0.80716E+03
 
    0.18712E+04        -0.41960E+03         0.00000E+00
   -0.41960E+03         0.10994E+02         0.00000E+00
    0.00000E+00         0.00000E+00         0.56465E+03
 
    0.10592E+04        -0.57336E+03         0.00000E+00
   -0.57336E+03         0.17205E+02         0.00000E+00
    0.00000E+00         0.00000E+00         0.32293E+03
 
    0.27303E+03        -0.63621E+03         0.00000E+00
   -0.63621E+03         0.11327E+02         0.00000E+00
    0.00000E+00         0.00000E+00         0.85308E+02
 
   -0.46955E+03        -0.61891E+03         0.00000E+00
   -0.61891E+03        -0.14456E+02         0.00000E+00
    0.00000E+00         0.00000E+00        -0.14520E+03
 
   -0.11543E+04        -0.53371E+03         0.00000E+00
   -0.53371E+03        -0.65595E+02         0.00000E+00
    0.00000E+00         0.00000E+00        -0.36596E+03
 
   -0.17708E+04        -0.39355E+03         0.00000E+00
   -0.39355E+03        -0.14509E+03         0.00000E+00
    0.00000E+00         0.00000E+00        -0.57476E+03
 
   -0.23124E+04        -0.21123E+03         0.00000E+00
   -0.21123E+03        -0.25363E+03         0.00000E+00
    0.00000E+00         0.00000E+00        -0.76980E+03
 
   -0.27758E+04         0.12645E+01         0.00000E+00
    0.12645E+01        -0.38988E+03         0.00000E+00
    0.00000E+00         0.00000E+00        -0.94970E+03
 
   -0.31607E+04         0.23333E+03         0.00000E+00
    0.23333E+03        -0.55091E+03         0.00000E+00
    0.00000E+00         0.00000E+00        -0.11135E+04
 
   -0.34688E+04         0.47609E+03         0.00000E+00
    0.47609E+03        -0.73271E+03         0.00000E+00
    0.00000E+00         0.00000E+00        -0.12604E+04
 
   -0.37035E+04         0.72252E+03         0.00000E+00
    0.72252E+03        -0.93065E+03         0.00000E+00
    0.00000E+00         0.00000E+00        -0.13903E+04
 
   -0.38691E+04         0.96753E+03         0.00000E+00
    0.96753E+03        -0.11400E+04         0.00000E+00
    0.00000E+00         0.00000E+00        -0.15027E+04
 
   -0.39700E+04         0.12078E+04         0.00000E+00
    0.12078E+04        -0.13561E+04         0.00000E+00
    0.00000E+00         0.00000E+00        -0.15978E+04
 
   -0.40104E+04         0.14416E+04         0.00000E+00
    0.14416E+04        -0.15750E+04         0.00000E+00
    0.00000E+00         0.00000E+00        -0.16756E+04
 
   -0.39939E+04         0.16684E+04         0.00000E+00
    0.16684E+04        -0.17935E+04         0.00000E+00
    0.00000E+00         0.00000E+00        -0.17362E+04
 
   -0.39230E+04         0.18888E+04         0.00000E+00
    0.18888E+04        -0.20094E+04         0.00000E+00
    0.00000E+00         0.00000E+00        -0.17797E+04
 
   -0.37989E+04         0.21041E+04         0.00000E+00
    0.21041E+04        -0.22213E+04         0.00000E+00
    0.00000E+00         0.00000E+00        -0.18061E+04
 
   -0.36216E+04         0.23158E+04         0.00000E+00
    0.23158E+04        -0.24292E+04         0.00000E+00
    0.00000E+00         0.00000E+00        -0.18152E+04
 
   -0.33891E+04         0.25256E+04         0.00000E+00
    0.25256E+04        -0.26341E+04         0.00000E+00
    0.00000E+00         0.00000E+00        -0.18069E+04
 
   -0.30981E+04         0.27349E+04         0.00000E+00
    0.27349E+04        -0.28381E+04         0.00000E+00
    0.00000E+00         0.00000E+00        -0.17808E+04
 
   -0.27435E+04         0.29444E+04         0.00000E+00
    0.29444E+04        -0.30445E+04         0.00000E+00
    0.00000E+00         0.00000E+00        -0.17364E+04
 
   -0.23186E+04         0.31539E+04         0.00000E+00
    0.31539E+04        -0.32576E+04         0.00000E+00
    0.00000E+00         0.00000E+00        -0.16729E+04
 
   -0.18150E+04         0.33619E+04         0.00000E+00
    0.33619E+04        -0.34827E+04         0.00000E+00
    0.00000E+00         0.00000E+00        -0.15893E+04
 
    0.23877E+04        -0.15989E+03         0.00000E+00
   -0.15989E+03         0.28210E+01         0.00000E+00
    0.00000E+00         0.00000E+00         0.71716E+03
 
    0.16681E+04        -0.40846E+03         0.00000E+00
   -0.40846E+03         0.13158E+02         0.00000E+00
    0.00000E+00         0.00000E+00         0.50437E+03
 
    0.94685E+03        -0.56773E+03         0.00000E+00
   -0.56773E+03         0.24453E+02         0.00000E+00
    0.00000E+00         0.00000E+00         0.29139E+03
 
    0.24264E+03        -0.64455E+03         0.00000E+00
   -0.64455E+03         0.27920E+02         0.00000E+00
    0.00000E+00         0.00000E+00         0.81167E+02
 
   -0.42847E+03        -0.64765E+03         0.00000E+00
   -0.64765E+03         0.16430E+02         0.00000E+00
    0.00000E+00         0.00000E+00        -0.12361E+03
 
   -0.10533E+04        -0.58708E+03         0.00000E+00
   -0.58708E+03        -0.15238E+02         0.00000E+00
    0.00000E+00         0.00000E+00        -0.32056E+03
 
   -0.16218E+04        -0.47360E+03         0.00000E+00
   -0.47360E+03        -0.70316E+02         0.00000E+00
    0.00000E+00         0.00000E+00        -0.50763E+03
 
   -0.21268E+04        -0.31800E+03         0.00000E+00
   -0.31800E+03        -0.15012E+03         0.00000E+00
    0.00000E+00         0.00000E+00        -0.68309E+03
 
   -0.25643E+04        -0.13057E+03         0.00000E+00
   -0.13057E+03        -0.25424E+03         0.00000E+00
    0.00000E+00         0.00000E+00        -0.84558E+03
 
   -0.29325E+04         0.79361E+02         0.00000E+00
    0.79361E+02        -0.38092E+03         0.00000E+00
    0.00000E+00         0.00000E+00        -0.99403E+03
 
   -0.32316E+04         0.30376E+03         0.00000E+00
    0.30376E+03        -0.52732E+03         0.00000E+00
    0.00000E+00         0.00000E+00        -0.11277E+04
 
   -0.34632E+04         0.53602E+03         0.00000E+00
    0.53602E+03        -0.69001E+03         0.00000E+00
    0.00000E+00         0.00000E+00        -0.12460E+04
 
   -0.36300E+04         0.77108E+03         0.00000E+00
    0.77108E+03        -0.86529E+03         0.00000E+00
    0.00000E+00         0.00000E+00        -0.13486E+04
 
   -0.37348E+04         0.10053E+04         0.00000E+00
    0.10053E+04        -0.10495E+04         0.00000E+00
    0.00000E+00         0.00000E+00        -0.14353E+04
 
   -0.37806E+04         0.12364E+04         0.00000E+00
    0.12364E+04        -0.12394E+04         0.00000E+00
    0.00000E+00         0.00000E+00        -0.15060E+04
 
   -0.37698E+04         0.14630E+04         0.00000E+00
    0.14630E+04        -0.14323E+04         0.00000E+00
    0.00000E+00         0.00000E+00        -0.15606E+04
 
   -0.37041E+04         0.16850E+04         0.00000E+00
    0.16850E+04        -0.16261E+04         0.00000E+00
    0.00000E+00         0.00000E+00        -0.15991E+04
 
   -0.35844E+04         0.19025E+04         0.00000E+00
    0.19025E+04        -0.18198E+04         0.00000E+00
    0.00000E+00         0.00000E+00        -0.16212E+04
 
   -0.34101E+04         0.21161E+04         0.00000E+00
    0.21161E+04        -0.20131E+04         0.00000E+00
    0.00000E+00         0.00000E+00        -0.16270E+04
 
   -0.31798E+04         0.23264E+04         0.00000E+00
    0.23264E+04        -0.22069E+04         0.00000E+00
    0.00000E+00         0.00000E+00        -0.16160E+04
 
   -0.28904E+04         0.25337E+04         0.00000E+00
    0.25337E+04        -0.24027E+04         0.00000E+00
    0.00000E+00         0.00000E+00        -0.15879E+04
 
   -0.25376E+04         0.27378E+04         0.00000E+00
    0.27378E+04        -0.26033E+04         0.00000E+00
    0.00000E+00         0.00000E+00        -0.15423E+04
 
   -0.21157E+04         0.29375E+04         0.00000E+00
    0.29375E+04        -0.28123E+04         0.00000E+00
    0.00000E+00         0.00000E+00        -0.14784E+04
 
   -0.16180E+04         0.31304E+04         0.00000E+00
    0.31304E+04        -0.30338E+04         0.00000E+00
    0.00000E+00         0.00000E+00        -0.13955E+04
 
    0.20984E+04        -0.15272E+03         0.00000E+00
   -0.15272E+03         0.30163E+01         0.00000E+00
    0.00000E+00         0.00000E+00         0.63043E+03
 
    0.14658E+04        -0.39444E+03         0.00000E+00
   -0.39444E+03         0.14843E+02         0.00000E+00
    0.00000E+00         0.00000E+00         0.44419E+03
 
    0.82649E+03        -0.55582E+03         0.00000E+00
   -0.55582E+03         0.30164E+02         0.00000E+00
    0.00000E+00         0.00000E+00         0.25700E+03
 
    0.19711E+03        -0.64238E+03         0.00000E+00
   -0.64238E+03         0.41102E+02         0.00000E+00
    0.00000E+00         0.00000E+00         0.71464E+02
 
   -0.40776E+03        -0.66119E+03         0.00000E+00
   -0.66119E+03         0.41131E+02         0.00000E+00
    0.00000E+00         0.00000E+00        -0.10999E+03
 
   -0.97590E+03        -0.62055E+03         0.00000E+00
   -0.62055E+03         0.25281E+02         0.00000E+00
    0.00000E+00         0.00000E+00        -0.28518E+03
 
   -0.14976E+04        -0.52940E+03         0.00000E+00
   -0.52940E+03        -0.97911E+01         0.00000E+00
    0.00000E+00         0.00000E+00        -0.45222E+03
 
   -0.19658E+04        -0.39685E+03         0.00000E+00
   -0.39685E+03        -0.65834E+02         0.00000E+00
    0.00000E+00         0.00000E+00        -0.60948E+03
 
   -0.23755E+04        -0.23174E+03         0.00000E+00
   -0.23174E+03        -0.14315E+03         0.00000E+00
    0.00000E+00         0.00000E+00        -0.75560E+03
 
   -0.27241E+04        -0.42255E+02         0.00000E+00
   -0.42255E+02        -0.24084E+03         0.00000E+00
    0.00000E+00         0.00000E+00        -0.88949E+03
 
   -0.30107E+04         0.16437E+03         0.00000E+00
    0.16437E+03        -0.35704E+03         0.00000E+00
    0.00000E+00         0.00000E+00        -0.10103E+04
 
   -0.32355E+04         0.38201E+03         0.00000E+00
    0.38201E+03        -0.48931E+03         0.00000E+00
    0.00000E+00         0.00000E+00        -0.11174E+04
 
   -0.33998E+04         0.60572E+03         0.00000E+00
    0.60572E+03        -0.63484E+03         0.00000E+00
    0.00000E+00         0.00000E+00        -0.12104E+04
 
   -0.35052E+04         0.83172E+03         0.00000E+00
    0.83172E+03        -0.79080E+03         0.00000E+00
    0.00000E+00         0.00000E+00        -0.12888E+04
 
   -0.35536E+04         0.10573E+04         0.00000E+00
    0.10573E+04        -0.95458E+03         0.00000E+00
    0.00000E+00         0.00000E+00        -0.13525E+04
 
   -0.35465E+04         0.12807E+04         0.00000E+00
    0.12807E+04        -0.11239E+04         0.00000E+00
    0.00000E+00         0.00000E+00        -0.14011E+04
 
   -0.34850E+04         0.15008E+04         0.00000E+00
    0.15008E+04        -0.12972E+04         0.00000E+00
    0.00000E+00         0.00000E+00        -0.14347E+04
 
   -0.33693E+04         0.17171E+04         0.00000E+00
    0.17171E+04        -0.14734E+04         0.00000E+00
    0.00000E+00         0.00000E+00        -0.14528E+04
 
   -0.31990E+04         0.19293E+04         0.00000E+00
    0.19293E+04        -0.16523E+04         0.00000E+00
    0.00000E+00         0.00000E+00        -0.14554E+04
 
   -0.29726E+04         0.21371E+04         0.00000E+00
    0.21371E+04        -0.18345E+04         0.00000E+00
    0.00000E+00         0.00000E+00        -0.14421E+04
 
   -0.26874E+04         0.23400E+04         0.00000E+00
    0.23400E+04        -0.20212E+04         0.00000E+00
    0.00000E+00         0.00000E+00        -0.14126E+04
 
   -0.23399E+04         0.25368E+04         0.00000E+00
    0.25368E+04        -0.22146E+04         0.00000E+00
    0.00000E+00         0.00000E+00        -0.13663E+04
 
   -0.19254E+04         0.27258E+04         0.00000E+00
    0.27258E+04        -0.24174E+04         0.00000E+00
    0.00000E+00         0.00000E+00        -0.13029E+04
 
   -0.14386E+04         0.29037E+04         0.00000E+00
    0.29037E+04        -0.26332E+04         0.00000E+00
    0.00000E+00         0.00000E+00        -0.12216E+04
 
    0.18215E+04        -0.14507E+03         0.00000E+00
   -0.14507E+03         0.31565E+01         0.00000E+00
    0.00000E+00         0.00000E+00         0.54739E+03
 
    0.12669E+04        -0.37817E+03         0.00000E+00
   -0.37817E+03         0.16110E+02         0.00000E+00
    0.00000E+00         0.00000E+00         0.38491E+03
 
    0.70161E+03        -0.53895E+03         0.00000E+00
   -0.53895E+03         0.34563E+02         0.00000E+00
    0.00000E+00         0.00000E+00         0.22085E+03
 
    0.14053E+03        -0.63180E+03         0.00000E+00
   -0.63180E+03         0.51410E+02         0.00000E+00
    0.00000E+00         0.00000E+00         0.57582E+02
 
   -0.40307E+03        -0.66249E+03         0.00000E+00
   -0.66249E+03         0.60658E+02         0.00000E+00
    0.00000E+00         0.00000E+00        -0.10272E+03
 
   -0.91785E+03        -0.63783E+03         0.00000E+00
   -0.63783E+03         0.57592E+02         0.00000E+00
    0.00000E+00         0.00000E+00        -0.25808E+03
 
   -0.13946E+04        -0.56528E+03         0.00000E+00
   -0.56528E+03         0.38840E+02         0.00000E+00
    0.00000E+00         0.00000E+00        -0.40672E+03
 
   -0.18260E+04        -0.45255E+03         0.00000E+00
   -0.45255E+03         0.23566E+01         0.00000E+00
    0.00000E+00         0.00000E+00        -0.54710E+03
 
   -0.22071E+04        -0.30724E+03         0.00000E+00
   -0.30724E+03        -0.52678E+02         0.00000E+00
    0.00000E+00         0.00000E+00        -0.67793E+03
 
   -0.25343E+04        -0.13650E+03         0.00000E+00
   -0.13650E+03        -0.12603E+03         0.00000E+00
    0.00000E+00         0.00000E+00        -0.79811E+03
 
   -0.28059E+04         0.53171E+02         0.00000E+00
    0.53171E+02        -0.21663E+03         0.00000E+00
    0.00000E+00         0.00000E+00        -0.90675E+03
 
   -0.30210E+04         0.25612E+03         0.00000E+00
    0.25612E+03        -0.32280E+03         0.00000E+00
    0.00000E+00         0.00000E+00        -0.10032E+04
 
   -0.31800E+04         0.46762E+03         0.00000E+00
    0.46762E+03        -0.44252E+03         0.00000E+00
    0.00000E+00         0.00000E+00        -0.10868E+04
 
   -0.32834E+04         0.68385E+03         0.00000E+00
    0.68385E+03        -0.57366E+03         0.00000E+00
    0.00000E+00         0.00000E+00        -0.11571E+04
 
   -0.33322E+04         0.90185E+03         0.00000E+00
    0.90185E+03        -0.71417E+03         0.00000E+00
    0.00000E+00         0.00000E+00        -0.12139E+04
 
   -0.33271E+04         0.11194E+04         0.00000E+00
    0.11194E+04        -0.86227E+03         0.00000E+00
    0.00000E+00         0.00000E+00        -0.12568E+04
 
   -0.32687E+04         0.13350E+04         0.00000E+00
    0.13350E+04        -0.10166E+04         0.00000E+00
    0.00000E+00         0.00000E+00        -0.12856E+04
 
   -0.31569E+04         0.15473E+04         0.00000E+00
    0.15473E+04        -0.11763E+04         0.00000E+00
    0.00000E+00         0.00000E+00        -0.13000E+04
 
   -0.29910E+04         0.17554E+04         0.00000E+00
    0.17554E+04        -0.13412E+04         0.00000E+00
    0.00000E+00         0.00000E+00        -0.12997E+04
 
   -0.27698E+04         0.19583E+04         0.00000E+00
    0.19583E+04        -0.15116E+04         0.00000E+00
    0.00000E+00         0.00000E+00        -0.12844E+04
 
   -0.24910E+04         0.21548E+04         0.00000E+00
    0.21548E+04        -0.16885E+04         0.00000E+00
    0.00000E+00         0.00000E+00        -0.12538E+04
 
   -0.21516E+04         0.23430E+04         0.00000E+00
    0.23430E+04        -0.18737E+04         0.00000E+00
    0.00000E+00         0.00000E+00        -0.12076E+04
 
   -0.17480E+04         0.25206E+04         0.00000E+00
    0.25206E+04        -0.20691E+04         0.00000E+00
    0.00000E+00         0.00000E+00        -0.11451E+04
 
   -0.12760E+04         0.26839E+04         0.00000E+00
    0.26839E+04        -0.22775E+04         0.00000E+00
    0.00000E+00         0.00000E+00        -0.10661E+04
 
    0.15580E+04        -0.13709E+03         0.00000E+00
   -0.13709E+03         0.32472E+01         0.00000E+00
    0.00000E+00         0.00000E+00         0.46837E+03
 
    0.10735E+04        -0.36020E+03         0.00000E+00
   -0.36020E+03         0.17012E+02         0.00000E+00
    0.00000E+00         0.00000E+00         0.32714E+03
 
    0.57503E+03        -0.51821E+03         0.00000E+00
   -0.51821E+03         0.37838E+02         0.00000E+00
    0.00000E+00         0.00000E+00         0.18386E+03
 
    0.76234E+02        -0.61458E+03         0.00000E+00
   -0.61458E+03         0.59283E+02         0.00000E+00
    0.00000E+00         0.00000E+00         0.40655E+02
 
   -0.41082E+03        -0.65397E+03         0.00000E+00
   -0.65397E+03         0.75830E+02         0.00000E+00
    0.00000E+00         0.00000E+00        -0.10050E+03
 
   -0.87562E+03        -0.64200E+03         0.00000E+00
   -0.64200E+03         0.83016E+02         0.00000E+00
    0.00000E+00         0.00000E+00        -0.23778E+03
 
   -0.13093E+04        -0.58489E+03         0.00000E+00
   -0.58489E+03         0.77492E+02         0.00000E+00
    0.00000E+00         0.00000E+00        -0.36956E+03
 
   -0.17050E+04        -0.48916E+03         0.00000E+00
   -0.48916E+03         0.57024E+02         0.00000E+00
    0.00000E+00         0.00000E+00        -0.49438E+03
 
   -0.20571E+04        -0.36135E+03         0.00000E+00
   -0.36135E+03         0.20413E+02         0.00000E+00
    0.00000E+00         0.00000E+00        -0.61099E+03
 
   -0.23618E+04        -0.20772E+03         0.00000E+00
   -0.20772E+03        -0.32624E+02         0.00000E+00
    0.00000E+00         0.00000E+00        -0.71832E+03
 
   -0.26166E+04        -0.34073E+02         0.00000E+00
   -0.34073E+02        -0.10162E+03         0.00000E+00
    0.00000E+00         0.00000E+00        -0.81547E+03
 
   -0.28201E+04         0.15440E+03         0.00000E+00
    0.15440E+03        -0.18556E+03         0.00000E+00
    0.00000E+00         0.00000E+00        -0.90170E+03
 
   -0.29716E+04         0.35322E+03         0.00000E+00
    0.35322E+03        -0.28305E+03         0.00000E+00
    0.00000E+00         0.00000E+00        -0.97639E+03
 
   -0.30709E+04         0.55861E+03         0.00000E+00
    0.55861E+03        -0.39255E+03         0.00000E+00
    0.00000E+00         0.00000E+00        -0.10390E+04
 
   -0.31183E+04         0.76748E+03         0.00000E+00
    0.76748E+03        -0.51251E+03         0.00000E+00
    0.00000E+00         0.00000E+00        -0.10892E+04
 
   -0.31139E+04         0.97734E+03         0.00000E+00
    0.97734E+03        -0.64156E+03         0.00000E+00
    0.00000E+00         0.00000E+00        -0.11266E+04
 
   -0.30577E+04         0.11862E+04         0.00000E+00
    0.11862E+04        -0.77863E+03         0.00000E+00
    0.00000E+00         0.00000E+00        -0.11509E+04
 
   -0.29495E+04         0.13923E+04         0.00000E+00
    0.13923E+04        -0.92301E+03         0.00000E+00
    0.00000E+00         0.00000E+00        -0.11618E+04
 
   -0.27885E+04         0.15942E+04         0.00000E+00
    0.15942E+04        -0.10745E+04         0.00000E+00
    0.00000E+00         0.00000E+00        -0.11589E+04
 
   -0.25735E+04         0.17903E+04         0.00000E+00
    0.17903E+04        -0.12332E+04         0.00000E+00
    0.00000E+00         0.00000E+00        -0.11420E+04
 
   -0.23027E+04         0.19788E+04         0.00000E+00
    0.19788E+04        -0.14001E+04         0.00000E+00
    0.00000E+00         0.00000E+00        -0.11108E+04
 
   -0.19736E+04         0.21574E+04         0.00000E+00
    0.21574E+04        -0.15762E+04         0.00000E+00
    0.00000E+00         0.00000E+00        -0.10650E+04
 
   -0.15835E+04         0.23232E+04         0.00000E+00
    0.23232E+04        -0.17633E+04         0.00000E+00
    0.00000E+00         0.00000E+00        -0.10040E+04
 
   -0.11293E+04         0.24724E+04         0.00000E+00
    0.24724E+04        -0.19631E+04         0.00000E+00
    0.00000E+00         0.00000E+00        -0.92772E+03
 
    0.13087E+04        -0.12891E+03         0.00000E+00
   -0.12891E+03         0.32940E+01         0.00000E+00
    0.00000E+00         0.00000E+00         0.39360E+03
 
    0.88699E+03        -0.34102E+03         0.00000E+00
   -0.34102E+03         0.17598E+02         0.00000E+00
    0.00000E+00         0.00000E+00         0.27138E+03
 
    0.44898E+03        -0.49455E+03         0.00000E+00
   -0.49455E+03         0.40151E+02         0.00000E+00
    0.00000E+00         0.00000E+00         0.14674E+03
 
    0.69425E+01        -0.59219E+03         0.00000E+00
   -0.59219E+03         0.65091E+02         0.00000E+00
    0.00000E+00         0.00000E+00         0.21610E+02
 
   -0.42804E+03        -0.63769E+03         0.00000E+00
   -0.63769E+03         0.87326E+02         0.00000E+00
    0.00000E+00         0.00000E+00        -0.10221E+03
 
   -0.84618E+03        -0.63565E+03         0.00000E+00
   -0.63565E+03         0.10264E+03         0.00000E+00
    0.00000E+00         0.00000E+00        -0.22306E+03
 
   -0.12392E+04        -0.59129E+03         0.00000E+00
   -0.59129E+03         0.10775E+03         0.00000E+00
    0.00000E+00         0.00000E+00        -0.33942E+03
 
   -0.16001E+04        -0.51011E+03         0.00000E+00
   -0.51011E+03         0.10030E+03         0.00000E+00
    0.00000E+00         0.00000E+00        -0.44994E+03
 
   -0.19235E+04        -0.39775E+03         0.00000E+00
   -0.39775E+03         0.78821E+02         0.00000E+00
    0.00000E+00         0.00000E+00        -0.55341E+03
 
   -0.22053E+04        -0.25967E+03         0.00000E+00
   -0.25967E+03         0.42640E+02         0.00000E+00
    0.00000E+00         0.00000E+00        -0.64878E+03
 
   -0.24423E+04        -0.10107E+03         0.00000E+00
   -0.10107E+03        -0.82569E+01         0.00000E+00
    0.00000E+00         0.00000E+00        -0.73518E+03
 
   -0.26327E+04         0.73320E+02         0.00000E+00
    0.73320E+02        -0.73368E+02         0.00000E+00
    0.00000E+00         0.00000E+00        -0.81183E+03
 
   -0.27751E+04         0.25929E+03         0.00000E+00
    0.25929E+03        -0.15183E+03         0.00000E+00
    0.00000E+00         0.00000E+00        -0.87809E+03
 
   -0.28689E+04         0.45316E+03         0.00000E+00
    0.45316E+03        -0.24260E+03         0.00000E+00
    0.00000E+00         0.00000E+00        -0.93343E+03
 
   -0.29134E+04         0.65179E+03         0.00000E+00
    0.65179E+03        -0.34455E+03         0.00000E+00
    0.00000E+00         0.00000E+00        -0.97739E+03
 
   -0.29086E+04         0.85250E+03         0.00000E+00
    0.85250E+03        -0.45667E+03         0.00000E+00
    0.00000E+00         0.00000E+00        -0.10096E+04
 
   -0.28540E+04         0.10530E+04         0.00000E+00
    0.10530E+04        -0.57812E+03         0.00000E+00
    0.00000E+00         0.00000E+00        -0.10296E+04
 
   -0.27491E+04         0.12512E+04         0.00000E+00
    0.12512E+04        -0.70834E+03         0.00000E+00
    0.00000E+00         0.00000E+00        -0.10372E+04
 
   -0.25933E+04         0.14452E+04         0.00000E+00
    0.14452E+04        -0.84712E+03         0.00000E+00
    0.00000E+00         0.00000E+00        -0.10321E+04
 
   -0.23852E+04         0.16330E+04         0.00000E+00
    0.16330E+04        -0.99460E+03         0.00000E+00
    0.00000E+00         0.00000E+00        -0.10140E+04
 
   -0.21236E+04         0.18124E+04         0.00000E+00
    0.18124E+04        -0.11513E+04         0.00000E+00
    0.00000E+00         0.00000E+00        -0.98247E+03
 
   -0.18065E+04         0.19807E+04         0.00000E+00
    0.19807E+04        -0.13181E+04         0.00000E+00
    0.00000E+00         0.00000E+00        -0.93737E+03
 
   -0.14319E+04         0.21347E+04         0.00000E+00
    0.21347E+04        -0.14960E+04         0.00000E+00
    0.00000E+00         0.00000E+00        -0.87836E+03
 
   -0.99744E+03         0.22703E+04         0.00000E+00
    0.22703E+04        -0.16865E+04         0.00000E+00
    0.00000E+00         0.00000E+00        -0.80518E+03
 
    0.10741E+04        -0.12063E+03         0.00000E+00
   -0.12063E+03         0.33025E+01         0.00000E+00
    0.00000E+00         0.00000E+00         0.32322E+03
 
    0.70871E+03        -0.32103E+03         0.00000E+00
   -0.32103E+03         0.17911E+02         0.00000E+00
    0.00000E+00         0.00000E+00         0.21799E+03
 
    0.32525E+03        -0.46876E+03         0.00000E+00
   -0.46876E+03         0.41643E+02         0.00000E+00
    0.00000E+00         0.00000E+00         0.11007E+03
 
   -0.65136E+02        -0.56586E+03         0.00000E+00
   -0.56586E+03         0.69149E+02         0.00000E+00
    0.00000E+00         0.00000E+00         0.12039E+01
 
   -0.45226E+03        -0.61534E+03         0.00000E+00
   -0.61534E+03         0.95721E+02         0.00000E+00
    0.00000E+00         0.00000E+00        -0.10696E+03
 
   -0.82704E+03        -0.62096E+03         0.00000E+00
   -0.62096E+03         0.11738E+03         0.00000E+00
    0.00000E+00         0.00000E+00        -0.21290E+03
 
   -0.11816E+04        -0.58706E+03         0.00000E+00
   -0.58706E+03         0.13094E+03         0.00000E+00
    0.00000E+00         0.00000E+00        -0.31520E+03
 
   -0.15093E+04        -0.51832E+03         0.00000E+00
   -0.51832E+03         0.13397E+03         0.00000E+00
    0.00000E+00         0.00000E+00        -0.41261E+03
 
   -0.18047E+04        -0.41957E+03         0.00000E+00
   -0.41957E+03         0.12483E+03         0.00000E+00
    0.00000E+00         0.00000E+00        -0.50397E+03
 
   -0.20635E+04        -0.29562E+03         0.00000E+00
   -0.29562E+03         0.10253E+03         0.00000E+00
    0.00000E+00         0.00000E+00        -0.58828E+03
 
   -0.22823E+04        -0.15108E+03         0.00000E+00
   -0.15108E+03         0.66706E+02         0.00000E+00
    0.00000E+00         0.00000E+00        -0.66467E+03
 
   -0.24587E+04         0.97455E+01         0.00000E+00
    0.97455E+01         0.17433E+02         0.00000E+00
    0.00000E+00         0.00000E+00        -0.73238E+03
 
   -0.25910E+04         0.18291E+03         0.00000E+00
    0.18291E+03        -0.44852E+02         0.00000E+00
    0.00000E+00         0.00000E+00        -0.79076E+03
 
   -0.26780E+04         0.36488E+03         0.00000E+00
    0.36488E+03        -0.11950E+03         0.00000E+00
    0.00000E+00         0.00000E+00        -0.83924E+03
 
   -0.27187E+04         0.55253E+03         0.00000E+00
    0.55253E+03        -0.20577E+03         0.00000E+00
    0.00000E+00         0.00000E+00        -0.87734E+03
 
   -0.27126E+04         0.74307E+03         0.00000E+00
    0.74307E+03        -0.30293E+03         0.00000E+00
    0.00000E+00         0.00000E+00        -0.90466E+03
 
   -0.26590E+04         0.93401E+03         0.00000E+00
    0.93401E+03        -0.41037E+03         0.00000E+00
    0.00000E+00         0.00000E+00        -0.92081E+03
 
   -0.25573E+04         0.11230E+04         0.00000E+00
    0.11230E+04        -0.52765E+03         0.00000E+00
    0.00000E+00         0.00000E+00        -0.92549E+03
 
   -0.24067E+04         0.13079E+04         0.00000E+00
    0.13079E+04        -0.65458E+03         0.00000E+00
    0.00000E+00         0.00000E+00        -0.91838E+03
 
   -0.22062E+04         0.14863E+04         0.00000E+00
    0.14863E+04        -0.79121E+03         0.00000E+00
    0.00000E+00         0.00000E+00        -0.89921E+03
 
   -0.19546E+04         0.16557E+04         0.00000E+00
    0.16557E+04        -0.93785E+03         0.00000E+00
    0.00000E+00         0.00000E+00        -0.86772E+03
 
   -0.16506E+04         0.18132E+04         0.00000E+00
    0.18132E+04        -0.10951E+04         0.00000E+00
    0.00000E+00         0.00000E+00        -0.82368E+03
 
   -0.12927E+04         0.19555E+04         0.00000E+00
    0.19555E+04        -0.12635E+04         0.00000E+00
    0.00000E+00         0.00000E+00        -0.76687E+03
 
   -0.87951E+03         0.20783E+04         0.00000E+00
    0.20783E+04        -0.14441E+04         0.00000E+00
    0.00000E+00         0.00000E+00        -0.69708E+03
 
    0.85446E+03        -0.11235E+03         0.00000E+00
   -0.11235E+03         0.32781E+01         0.00000E+00
    0.00000E+00         0.00000E+00         0.25732E+03
 
    0.53950E+03        -0.30057E+03         0.00000E+00
   -0.30057E+03         0.17992E+02         0.00000E+00
    0.00000E+00         0.00000E+00         0.16725E+03
 
    0.20522E+03        -0.44150E+03         0.00000E+00
   -0.44150E+03         0.42441E+02         0.00000E+00
    0.00000E+00         0.00000E+00         0.74299E+02
 
   -0.13822E+03        -0.53665E+03         0.00000E+00
   -0.53665E+03         0.71731E+02         0.00000E+00
    0.00000E+00         0.00000E+00        -0.19945E+02
 
   -0.48146E+03        -0.58837E+03         0.00000E+00
   -0.58837E+03         0.10151E+03         0.00000E+00
    0.00000E+00         0.00000E+00        -0.11399E+03
 
   -0.81608E+03        -0.59975E+03         0.00000E+00
   -0.59975E+03         0.12802E+03         0.00000E+00
    0.00000E+00         0.00000E+00        -0.20642E+03
 
   -0.11347E+04        -0.57439E+03         0.00000E+00
   -0.57439E+03         0.14818E+03         0.00000E+00
    0.00000E+00         0.00000E+00        -0.29594E+03
 
   -0.14308E+04        -0.51626E+03         0.00000E+00
   -0.51626E+03         0.15956E+03         0.00000E+00
    0.00000E+00         0.00000E+00        -0.38137E+03
 
   -0.16991E+04        -0.42952E+03         0.00000E+00
   -0.42952E+03         0.16037E+03         0.00000E+00
    0.00000E+00         0.00000E+00        -0.46162E+03
 
   -0.19352E+04        -0.31837E+03         0.00000E+00
   -0.31837E+03         0.14943E+03         0.00000E+00
    0.00000E+00         0.00000E+00        -0.53575E+03
 
   -0.21357E+04        -0.18691E+03         0.00000E+00
   -0.18691E+03         0.12605E+03         0.00000E+00
    0.00000E+00         0.00000E+00        -0.60289E+03
 
   -0.22977E+04        -0.39070E+02         0.00000E+00
   -0.39070E+02         0.90017E+02         0.00000E+00
    0.00000E+00         0.00000E+00        -0.66230E+03
 
   -0.24192E+04         0.12150E+03         0.00000E+00
    0.12150E+03         0.41404E+02         0.00000E+00
    0.00000E+00         0.00000E+00        -0.71334E+03
 
   -0.24987E+04         0.29142E+03         0.00000E+00
    0.29142E+03        -0.19468E+02         0.00000E+00
    0.00000E+00         0.00000E+00        -0.75544E+03
 
   -0.25348E+04         0.46762E+03         0.00000E+00
    0.46762E+03        -0.92159E+02         0.00000E+00
    0.00000E+00         0.00000E+00        -0.78810E+03
 
   -0.25268E+04         0.64730E+03         0.00000E+00
    0.64730E+03        -0.17619E+03         0.00000E+00
    0.00000E+00         0.00000E+00        -0.81091E+03
 
   -0.24738E+04         0.82783E+03         0.00000E+00
    0.82783E+03        -0.27113E+03         0.00000E+00
    0.00000E+00         0.00000E+00        -0.82349E+03
 
   -0.23751E+04         0.10067E+04         0.00000E+00
    0.10067E+04        -0.37666E+03         0.00000E+00
    0.00000E+00         0.00000E+00        -0.82552E+03
 
   -0.22297E+04         0.11816E+04         0.00000E+00
    0.11816E+04        -0.49259E+03         0.00000E+00
    0.00000E+00         0.00000E+00        -0.81670E+03
 
   -0.20370E+04         0.13498E+04         0.00000E+00
    0.13498E+04        -0.61890E+03         0.00000E+00
    0.00000E+00         0.00000E+00        -0.79678E+03
 
   -0.17961E+04         0.15088E+04         0.00000E+00
    0.15088E+04        -0.75575E+03         0.00000E+00
    0.00000E+00         0.00000E+00        -0.76555E+03
 
   -0.15059E+04         0.16553E+04         0.00000E+00
    0.16553E+04        -0.90342E+03         0.00000E+00
    0.00000E+00         0.00000E+00        -0.72279E+03
 
   -0.11656E+04         0.17860E+04         0.00000E+00
    0.17860E+04        -0.10623E+04         0.00000E+00
    0.00000E+00         0.00000E+00        -0.66836E+03
 
   -0.77443E+03         0.18967E+04         0.00000E+00
    0.18967E+04        -0.12327E+04         0.00000E+00
    0.00000E+00         0.00000E+00        -0.60213E+03
 
    0.64986E+03        -0.10415E+03         0.00000E+00
   -0.10415E+03         0.32261E+01         0.00000E+00
    0.00000E+00         0.00000E+00         0.19593E+03
 
    0.37999E+03        -0.27993E+03         0.00000E+00
   -0.27993E+03         0.17878E+02         0.00000E+00
    0.00000E+00         0.00000E+00         0.11936E+03
 
    0.89992E+02        -0.41334E+03         0.00000E+00
   -0.41334E+03         0.42657E+02         0.00000E+00
    0.00000E+00         0.00000E+00         0.39795E+02
 
   -0.21087E+03        -0.50541E+03         0.00000E+00
   -0.50541E+03         0.73081E+02         0.00000E+00
    0.00000E+00         0.00000E+00        -0.41336E+02
 
   -0.51399E+03        -0.55798E+03         0.00000E+00
   -0.55798E+03         0.10511E+03         0.00000E+00
    0.00000E+00         0.00000E+00        -0.12266E+03
 
   -0.81154E+03        -0.57355E+03         0.00000E+00
   -0.57355E+03         0.13523E+03         0.00000E+00
    0.00000E+00         0.00000E+00        -0.20289E+03
 
   -0.10965E+04        -0.55511E+03         0.00000E+00
   -0.55511E+03         0.16046E+03         0.00000E+00
    0.00000E+00         0.00000E+00        -0.28082E+03
 
   -0.13629E+04        -0.50602E+03         0.00000E+00
   -0.50602E+03         0.17838E+03         0.00000E+00
    0.00000E+00         0.00000E+00        -0.35535E+03
 
   -0.16053E+04        -0.42986E+03         0.00000E+00
   -0.42986E+03         0.18713E+03         0.00000E+00
    0.00000E+00         0.00000E+00        -0.42546E+03
 
   -0.18195E+04        -0.33030E+03         0.00000E+00
   -0.33030E+03         0.18537E+03         0.00000E+00
    0.00000E+00         0.00000E+00        -0.49024E+03
 
   -0.20018E+04        -0.21101E+03         0.00000E+00
   -0.21101E+03         0.17221E+03         0.00000E+00
    0.00000E+00         0.00000E+00        -0.54887E+03
 
   -0.21493E+04        -0.75525E+02         0.00000E+00
   -0.75525E+02         0.14715E+03         0.00000E+00
    0.00000E+00         0.00000E+00        -0.60064E+03
 
   -0.22597E+04         0.72761E+02         0.00000E+00
    0.72761E+02         0.11002E+03         0.00000E+00
    0.00000E+00         0.00000E+00        -0.64490E+03
 
   -0.23312E+04         0.23066E+03         0.00000E+00
    0.23066E+03         0.60852E+02         0.00000E+00
    0.00000E+00         0.00000E+00        -0.68109E+03
 
   -0.23623E+04         0.39520E+03         0.00000E+00
    0.39520E+03        -0.14835E+00         0.00000E+00
    0.00000E+00         0.00000E+00        -0.70874E+03
 
   -0.23520E+04         0.56358E+03         0.00000E+00
    0.56358E+03        -0.72716E+02         0.00000E+00
    0.00000E+00         0.00000E+00        -0.72741E+03
 
   -0.22992E+04         0.73314E+03         0.00000E+00
    0.73314E+03        -0.15657E+03         0.00000E+00
    0.00000E+00         0.00000E+00        -0.73674E+03
 
   -0.22032E+04         0.90131E+03         0.00000E+00
    0.90131E+03        -0.25148E+03         0.00000E+00
    0.00000E+00         0.00000E+00        -0.73640E+03
 
   -0.20632E+04         0.10655E+04         0.00000E+00
    0.10655E+04        -0.35727E+03         0.00000E+00
    0.00000E+00         0.00000E+00        -0.72613E+03
 
   -0.18785E+04         0.12231E+04         0.00000E+00
    0.12231E+04        -0.47387E+03         0.00000E+00
    0.00000E+00         0.00000E+00        -0.70570E+03
 
   -0.16484E+04         0.13713E+04         0.00000E+00
    0.13713E+04        -0.60129E+03         0.00000E+00
    0.00000E+00         0.00000E+00        -0.67490E+03
 
   -0.13724E+04         0.15069E+04         0.00000E+00
    0.15069E+04        -0.73958E+03         0.00000E+00
    0.00000E+00         0.00000E+00        -0.63359E+03
 
   -0.10500E+04         0.16263E+04         0.00000E+00
    0.16263E+04        -0.88883E+03         0.00000E+00
    0.00000E+00         0.00000E+00        -0.58166E+03
 
   -0.68115E+03         0.17258E+04         0.00000E+00
    0.17258E+04        -0.10490E+04         0.00000E+00
    0.00000E+00         0.00000E+00        -0.51906E+03
 
    0.46021E+03        -0.96092E+02         0.00000E+00
   -0.96092E+02         0.31513E+01         0.00000E+00
    0.00000E+00         0.00000E+00         0.13901E+03
 
    0.23057E+03        -0.25937E+03         0.00000E+00
   -0.25937E+03         0.17604E+02         0.00000E+00
    0.00000E+00         0.00000E+00         0.74453E+02
 
   -0.19636E+02        -0.38474E+03         0.00000E+00
   -0.38474E+03         0.42394E+02         0.00000E+00
    0.00000E+00         0.00000E+00         0.68272E+01
 
   -0.28196E+03        -0.47287E+03         0.00000E+00
   -0.47287E+03         0.73412E+02         0.00000E+00
    0.00000E+00         0.00000E+00        -0.62563E+02
 
   -0.54848E+03        -0.52517E+03         0.00000E+00
   -0.52517E+03         0.10692E+03         0.00000E+00
    0.00000E+00         0.00000E+00        -0.13247E+03
 
   -0.81193E+03        -0.54364E+03         0.00000E+00
   -0.54364E+03         0.13960E+03         0.00000E+00
    0.00000E+00         0.00000E+00        -0.20170E+03
 
   -0.10658E+04        -0.53075E+03         0.00000E+00
   -0.53075E+03         0.16861E+03         0.00000E+00
    0.00000E+00         0.00000E+00        -0.26915E+03
 
   -0.13042E+04        -0.48935E+03         0.00000E+00
   -0.48935E+03         0.19156E+03         0.00000E+00
    0.00000E+00         0.00000E+00        -0.33378E+03
 
   -0.15221E+04        -0.42252E+03         0.00000E+00
   -0.42252E+03         0.20655E+03         0.00000E+00
    0.00000E+00         0.00000E+00        -0.39466E+03
 
   -0.17152E+04        -0.33348E+03         0.00000E+00
   -0.33348E+03         0.21214E+03         0.00000E+00
    0.00000E+00         0.00000E+00        -0.45091E+03
 
   -0.18798E+04        -0.22547E+03         0.00000E+00
   -0.22547E+03         0.20727E+03         0.00000E+00
    0.00000E+00         0.00000E+00        -0.50176E+03
 
   -0.20129E+04        -0.10170E+03         0.00000E+00
   -0.10170E+03         0.19125E+03         0.00000E+00
    0.00000E+00         0.00000E+00        -0.54651E+03
 
   -0.21122E+04         0.34700E+02         0.00000E+00
    0.34700E+02         0.16369E+03         0.00000E+00
    0.00000E+00         0.00000E+00        -0.58455E+03
 
   -0.21755E+04         0.18074E+03         0.00000E+00
    0.18074E+03         0.12442E+03         0.00000E+00
    0.00000E+00         0.00000E+00        -0.61533E+03
 
   -0.22013E+04         0.33357E+03         0.00000E+00
    0.33357E+03         0.73429E+02         0.00000E+00
    0.00000E+00         0.00000E+00        -0.63837E+03
 
   -0.21884E+04         0.49044E+03         0.00000E+00
    0.49044E+03         0.10827E+02         0.00000E+00
    0.00000E+00         0.00000E+00        -0.65327E+03
 
   -0.21356E+04         0.64870E+03         0.00000E+00
    0.64870E+03        -0.63238E+02         0.00000E+00
    0.00000E+00         0.00000E+00        -0.65966E+03
 
   -0.20422E+04         0.80577E+03         0.00000E+00
    0.80577E+03        -0.14860E+03         0.00000E+00
    0.00000E+00         0.00000E+00        -0.65724E+03
 
   -0.19074E+04         0.95900E+03         0.00000E+00
    0.95900E+03        -0.24510E+03         0.00000E+00
    0.00000E+00         0.00000E+00        -0.64575E+03
 
   -0.17307E+04         0.11057E+04         0.00000E+00
    0.11057E+04        -0.35262E+03         0.00000E+00
    0.00000E+00         0.00000E+00        -0.62498E+03
 
   -0.15116E+04         0.12430E+04         0.00000E+00
    0.12430E+04        -0.47105E+03         0.00000E+00
    0.00000E+00         0.00000E+00        -0.59478E+03
 
   -0.12498E+04         0.13677E+04         0.00000E+00
    0.13677E+04        -0.60026E+03         0.00000E+00
    0.00000E+00         0.00000E+00        -0.55502E+03
 
   -0.94543E+03         0.14765E+04         0.00000E+00
    0.14765E+04        -0.74009E+03         0.00000E+00
    0.00000E+00         0.00000E+00        -0.50566E+03
 
   -0.59869E+03         0.15654E+04         0.00000E+00
    0.15654E+04        -0.89023E+03         0.00000E+00
    0.00000E+00         0.00000E+00        -0.44667E+03
 
    0.28528E+03        -0.88238E+02         0.00000E+00
   -0.88238E+02         0.30586E+01         0.00000E+00
    0.00000E+00         0.00000E+00         0.86500E+02
 
    0.91464E+02        -0.23908E+03         0.00000E+00
   -0.23908E+03         0.17202E+02         0.00000E+00
    0.00000E+00         0.00000E+00         0.32600E+02
 
   -0.12307E+03        -0.35609E+03         0.00000E+00
   -0.35609E+03         0.41744E+02         0.00000E+00
    0.00000E+00         0.00000E+00        -0.24398E+02
 
   -0.35059E+03        -0.43964E+03         0.00000E+00
   -0.43964E+03         0.72916E+02         0.00000E+00
    0.00000E+00         0.00000E+00        -0.83304E+02
 
   -0.58383E+03        -0.49077E+03         0.00000E+00
   -0.49077E+03         0.10725E+03         0.00000E+00
    0.00000E+00         0.00000E+00        -0.14297E+03
 
   -0.81605E+03        -0.51108E+03         0.00000E+00
   -0.51108E+03         0.14164E+03         0.00000E+00
    0.00000E+00         0.00000E+00        -0.20232E+03
 
   -0.10411E+04        -0.50260E+03         0.00000E+00
   -0.50260E+03         0.17336E+03         0.00000E+00
    0.00000E+00         0.00000E+00        -0.26032E+03
 
   -0.12535E+04        -0.46774E+03         0.00000E+00
   -0.46774E+03         0.20008E+03         0.00000E+00
    0.00000E+00         0.00000E+00        -0.31601E+03
 
   -0.14483E+04        -0.40915E+03         0.00000E+00
   -0.40915E+03         0.21990E+03         0.00000E+00
    0.00000E+00         0.00000E+00        -0.36851E+03
 
   -0.16213E+04        -0.32964E+03         0.00000E+00
   -0.32964E+03         0.23128E+03         0.00000E+00
    0.00000E+00         0.00000E+00        -0.41701E+03
 
   -0.17690E+04        -0.23208E+03         0.00000E+00
   -0.23208E+03         0.23307E+03         0.00000E+00
    0.00000E+00         0.00000E+00        -0.46077E+03
 
   -0.18882E+04        -0.11939E+03         0.00000E+00
   -0.11939E+03         0.22443E+03         0.00000E+00
    0.00000E+00         0.00000E+00        -0.49912E+03
 
   -0.19764E+04         0.55698E+01         0.00000E+00
    0.55698E+01         0.20480E+03         0.00000E+00
    0.00000E+00         0.00000E+00        -0.53148E+03
 
   -0.20316E+04         0.14001E+03         0.00000E+00
    0.14001E+03         0.17383E+03         0.00000E+00
    0.00000E+00         0.00000E+00        -0.55732E+03
 
   -0.20520E+04         0.28122E+03         0.00000E+00
    0.28122E+03         0.13138E+03         0.00000E+00
    0.00000E+00         0.00000E+00        -0.57618E+03
 
   -0.20363E+04         0.42654E+03         0.00000E+00
    0.42654E+03         0.77399E+02         0.00000E+00
    0.00000E+00         0.00000E+00        -0.58766E+03
 
   -0.19833E+04         0.57339E+03         0.00000E+00
    0.57339E+03         0.11946E+02         0.00000E+00
    0.00000E+00         0.00000E+00        -0.59141E+03
 
   -0.18923E+04         0.71917E+03         0.00000E+00
    0.71917E+03        -0.64874E+02         0.00000E+00
    0.00000E+00         0.00000E+00        -0.58716E+03
 
   -0.17626E+04         0.86128E+03         0.00000E+00
    0.86128E+03        -0.15292E+03         0.00000E+00
    0.00000E+00         0.00000E+00        -0.57466E+03
 
   -0.15938E+04         0.99700E+03         0.00000E+00
    0.99700E+03        -0.25201E+03         0.00000E+00
    0.00000E+00         0.00000E+00        -0.55373E+03
 
   -0.13855E+04         0.11235E+04         0.00000E+00
    0.11235E+04        -0.36194E+03         0.00000E+00
    0.00000E+00         0.00000E+00        -0.52424E+03
 
   -0.11379E+04         0.12377E+04         0.00000E+00
    0.12377E+04        -0.48245E+03         0.00000E+00
    0.00000E+00         0.00000E+00        -0.48610E+03
 
   -0.85116E+03         0.13362E+04         0.00000E+00
    0.13362E+04        -0.61315E+03         0.00000E+00
    0.00000E+00         0.00000E+00        -0.43929E+03
 
   -0.52605E+03         0.14153E+04         0.00000E+00
    0.14153E+04        -0.75351E+03         0.00000E+00
    0.00000E+00         0.00000E+00        -0.38387E+03
 
    0.12473E+03        -0.80627E+02         0.00000E+00
   -0.80627E+02         0.29523E+01         0.00000E+00
    0.00000E+00         0.00000E+00         0.38305E+02
 
   -0.37270E+02        -0.21921E+03         0.00000E+00
   -0.21921E+03         0.16701E+02         0.00000E+00
    0.00000E+00         0.00000E+00        -0.61708E+01
 
   -0.21990E+03        -0.32768E+03         0.00000E+00
   -0.32768E+03         0.40791E+02         0.00000E+00
    0.00000E+00         0.00000E+00        -0.53733E+02
 
   -0.41610E+03        -0.40619E+03         0.00000E+00
   -0.40619E+03         0.71764E+02         0.00000E+00
    0.00000E+00         0.00000E+00        -0.10330E+03
 
   -0.61917E+03        -0.45546E+03         0.00000E+00
   -0.45546E+03         0.10641E+03         0.00000E+00
    0.00000E+00         0.00000E+00        -0.15383E+03
 
   -0.82287E+03        -0.47674E+03         0.00000E+00
   -0.47674E+03         0.14181E+03         0.00000E+00
    0.00000E+00         0.00000E+00        -0.20432E+03
 
   -0.10214E+04        -0.47172E+03         0.00000E+00
   -0.47172E+03         0.17536E+03         0.00000E+00
    0.00000E+00         0.00000E+00        -0.25383E+03
 
   -0.12097E+04        -0.44242E+03         0.00000E+00
   -0.44242E+03         0.20481E+03         0.00000E+00
    0.00000E+00         0.00000E+00        -0.30146E+03
 
   -0.13829E+04        -0.39111E+03         0.00000E+00
   -0.39111E+03         0.22826E+03         0.00000E+00
    0.00000E+00         0.00000E+00        -0.34640E+03
 
   -0.15371E+04        -0.32024E+03         0.00000E+00
   -0.32024E+03         0.24414E+03         0.00000E+00
    0.00000E+00         0.00000E+00        -0.38788E+03
 
   -0.16686E+04        -0.23238E+03         0.00000E+00
   -0.23238E+03         0.25122E+03         0.00000E+00
    0.00000E+00         0.00000E+00        -0.42521E+03
 
   -0.17744E+04        -0.13014E+03         0.00000E+00
   -0.13014E+03         0.24854E+03         0.00000E+00
    0.00000E+00         0.00000E+00        -0.45776E+03
 
   -0.18520E+04        -0.16136E+02         0.00000E+00
   -0.16136E+02         0.23542E+03         0.00000E+00
    0.00000E+00         0.00000E+00        -0.48496E+03
 
   -0.18991E+04         0.10704E+03         0.00000E+00
    0.10704E+03         0.21140E+03         0.00000E+00
    0.00000E+00         0.00000E+00        -0.50632E+03
 
   -0.19141E+04         0.23683E+03         0.00000E+00
    0.23683E+03         0.17618E+03         0.00000E+00
    0.00000E+00         0.00000E+00        -0.52139E+03
 
   -0.18956E+04         0.37070E+03         0.00000E+00
    0.37070E+03         0.12963E+03         0.00000E+00
    0.00000E+00         0.00000E+00        -0.52979E+03
 
   -0.18424E+04         0.50614E+03         0.00000E+00
    0.50614E+03         0.71720E+02         0.00000E+00
    0.00000E+00         0.00000E+00        -0.53120E+03
 
   -0.17537E+04         0.64064E+03         0.00000E+00
    0.64064E+03         0.25118E+01         0.00000E+00
    0.00000E+00         0.00000E+00        -0.52535E+03
 
   -0.16289E+04         0.77162E+03         0.00000E+00
    0.77162E+03        -0.77856E+02         0.00000E+00
    0.00000E+00         0.00000E+00        -0.51202E+03
 
   -0.14677E+04         0.89645E+03         0.00000E+00
    0.89645E+03        -0.16917E+03         0.00000E+00
    0.00000E+00         0.00000E+00        -0.49106E+03
 
   -0.12700E+04         0.10123E+04         0.00000E+00
    0.10123E+04        -0.27115E+03         0.00000E+00
    0.00000E+00         0.00000E+00        -0.46236E+03
 
   -0.10361E+04         0.11163E+04         0.00000E+00
    0.11163E+04        -0.38339E+03         0.00000E+00
    0.00000E+00         0.00000E+00        -0.42586E+03
 
   -0.76657E+03         0.12051E+04         0.00000E+00
    0.12051E+04        -0.50536E+03         0.00000E+00
    0.00000E+00         0.00000E+00        -0.38158E+03
 
   -0.46233E+03         0.12753E+04         0.00000E+00
    0.12753E+04        -0.63633E+03         0.00000E+00
    0.00000E+00         0.00000E+00        -0.32960E+03
 
   -0.21837E+02        -0.73289E+02         0.00000E+00
   -0.73289E+02         0.28366E+01         0.00000E+00
    0.00000E+00         0.00000E+00        -0.57002E+01
 
   -0.15568E+03        -0.19988E+03         0.00000E+00
   -0.19988E+03         0.16128E+02         0.00000E+00
    0.00000E+00         0.00000E+00        -0.41866E+02
 
   -0.30987E+03        -0.29978E+03         0.00000E+00
   -0.29978E+03         0.39609E+02         0.00000E+00
    0.00000E+00         0.00000E+00        -0.81079E+02
 
   -0.47796E+03        -0.37291E+03         0.00000E+00
   -0.37291E+03         0.70110E+02         0.00000E+00
    0.00000E+00         0.00000E+00        -0.12236E+03
 
   -0.65379E+03        -0.41977E+03         0.00000E+00
   -0.41977E+03         0.10465E+03         0.00000E+00
    0.00000E+00         0.00000E+00        -0.16474E+03
 
   -0.83158E+03        -0.44134E+03         0.00000E+00
   -0.44134E+03         0.14049E+03         0.00000E+00
    0.00000E+00         0.00000E+00        -0.20733E+03
 
   -0.10059E+04        -0.43898E+03         0.00000E+00
   -0.43898E+03         0.17517E+03         0.00000E+00
    0.00000E+00         0.00000E+00        -0.24923E+03
 
   -0.11719E+04        -0.41439E+03         0.00000E+00
   -0.41439E+03         0.20650E+03         0.00000E+00
    0.00000E+00         0.00000E+00        -0.28964E+03
 
   -0.13252E+04        -0.36952E+03         0.00000E+00
   -0.36952E+03         0.23260E+03         0.00000E+00
    0.00000E+00         0.00000E+00        -0.32778E+03
 
   -0.14617E+04        -0.30652E+03         0.00000E+00
   -0.30652E+03         0.25190E+03         0.00000E+00
    0.00000E+00         0.00000E+00        -0.36293E+03
 
   -0.15780E+04        -0.22765E+03         0.00000E+00
   -0.22765E+03         0.26311E+03         0.00000E+00
    0.00000E+00         0.00000E+00        -0.39446E+03
 
   -0.16711E+04        -0.13525E+03         0.00000E+00
   -0.13525E+03         0.26520E+03         0.00000E+00
    0.00000E+00         0.00000E+00        -0.42177E+03
 
   -0.17384E+04        -0.31714E+02         0.00000E+00
   -0.31714E+02         0.25740E+03         0.00000E+00
    0.00000E+00         0.00000E+00        -0.44431E+03
 
   -0.17779E+04         0.80576E+02         0.00000E+00
    0.80576E+02         0.23913E+03         0.00000E+00
    0.00000E+00         0.00000E+00        -0.46162E+03
 
   -0.17876E+04         0.19922E+03         0.00000E+00
    0.19922E+03         0.21002E+03         0.00000E+00
    0.00000E+00         0.00000E+00        -0.47328E+03
 
   -0.17663E+04         0.32183E+03         0.00000E+00
    0.32183E+03         0.16985E+03         0.00000E+00
    0.00000E+00         0.00000E+00        -0.47893E+03
 
   -0.17127E+04         0.44601E+03         0.00000E+00
    0.44601E+03         0.11852E+03         0.00000E+00
    0.00000E+00         0.00000E+00        -0.47827E+03
 
   -0.16262E+04         0.56934E+03         0.00000E+00
    0.56934E+03         0.56065E+02         0.00000E+00
    0.00000E+00         0.00000E+00        -0.47104E+03
 
   -0.15061E+04         0.68933E+03         0.00000E+00
    0.68933E+03        -0.17377E+02         0.00000E+00
    0.00000E+00         0.00000E+00        -0.45705E+03
 
   -0.13523E+04         0.80344E+03         0.00000E+00
    0.80344E+03        -0.10157E+03         0.00000E+00
    0.00000E+00         0.00000E+00        -0.43616E+03
 
   -0.11648E+04         0.90897E+03         0.00000E+00
    0.90897E+03        -0.19614E+03         0.00000E+00
    0.00000E+00         0.00000E+00        -0.40829E+03
 
   -0.94414E+03         0.10031E+04         0.00000E+00
    0.10031E+04        -0.30062E+03         0.00000E+00
    0.00000E+00         0.00000E+00        -0.37343E+03
 
   -0.69100E+03         0.10828E+04         0.00000E+00
    0.10828E+04        -0.41432E+03         0.00000E+00
    0.00000E+00         0.00000E+00        -0.33160E+03
 
   -0.40666E+03         0.11448E+04         0.00000E+00
    0.11448E+04        -0.53638E+03         0.00000E+00
    0.00000E+00         0.00000E+00        -0.28291E+03
 
   -0.15491E+03        -0.66247E+02         0.00000E+00
   -0.66247E+02         0.27151E+01         0.00000E+00
    0.00000E+00         0.00000E+00        -0.45659E+02
 
   -0.26391E+03        -0.18119E+03         0.00000E+00
   -0.18119E+03         0.15506E+02         0.00000E+00
    0.00000E+00         0.00000E+00        -0.74522E+02
 
   -0.39284E+03        -0.27254E+03         0.00000E+00
   -0.27254E+03         0.38268E+02         0.00000E+00
    0.00000E+00         0.00000E+00        -0.10637E+03
 
   -0.53580E+03        -0.34010E+03         0.00000E+00
   -0.34010E+03         0.68088E+02         0.00000E+00
    0.00000E+00         0.00000E+00        -0.14032E+03
 
   -0.68714E+03        -0.38415E+03         0.00000E+00
   -0.38415E+03         0.10220E+03         0.00000E+00
    0.00000E+00         0.00000E+00        -0.17548E+03
 
   -0.84147E+03        -0.40544E+03         0.00000E+00
   -0.40544E+03         0.13805E+03         0.00000E+00
    0.00000E+00         0.00000E+00        -0.21103E+03
 
   -0.99379E+03        -0.40508E+03         0.00000E+00
   -0.40508E+03         0.17328E+03         0.00000E+00
    0.00000E+00         0.00000E+00        -0.24615E+03
 
   -0.11395E+04        -0.38449E+03         0.00000E+00
   -0.38449E+03         0.20580E+03         0.00000E+00
    0.00000E+00         0.00000E+00        -0.28010E+03
 
   -0.12743E+04        -0.34535E+03         0.00000E+00
   -0.34535E+03         0.23376E+03         0.00000E+00
    0.00000E+00         0.00000E+00        -0.31215E+03
 
   -0.13944E+04        -0.28950E+03         0.00000E+00
   -0.28950E+03         0.25559E+03         0.00000E+00
    0.00000E+00         0.00000E+00        -0.34164E+03
 
   -0.14965E+04        -0.21897E+03         0.00000E+00
   -0.21897E+03         0.26998E+03         0.00000E+00
    0.00000E+00         0.00000E+00        -0.36796E+03
 
   -0.15777E+04        -0.13584E+03         0.00000E+00
   -0.13584E+03         0.27584E+03         0.00000E+00
    0.00000E+00         0.00000E+00        -0.39056E+03
 
   -0.16354E+04        -0.42269E+02         0.00000E+00
   -0.42269E+02         0.27233E+03         0.00000E+00
    0.00000E+00         0.00000E+00        -0.40892E+03
 
   -0.16675E+04         0.59541E+02         0.00000E+00
    0.59541E+02         0.25881E+03         0.00000E+00
    0.00000E+00         0.00000E+00        -0.42260E+03
 
   -0.16722E+04         0.16737E+03         0.00000E+00
    0.16737E+03         0.23482E+03         0.00000E+00
    0.00000E+00         0.00000E+00        -0.43121E+03
 
   -0.16481E+04         0.27899E+03         0.00000E+00
    0.27899E+03         0.20010E+03         0.00000E+00
    0.00000E+00         0.00000E+00        -0.43441E+03
 
   -0.15942E+04         0.39213E+03         0.00000E+00
    0.39213E+03         0.15449E+03         0.00000E+00
    0.00000E+00         0.00000E+00        -0.43192E+03
 
   -0.15097E+04         0.50449E+03         0.00000E+00
    0.50449E+03         0.98009E+02         0.00000E+00
    0.00000E+00         0.00000E+00        -0.42350E+03
 
   -0.13941E+04         0.61372E+03         0.00000E+00
    0.61372E+03         0.30787E+02         0.00000E+00
    0.00000E+00         0.00000E+00        -0.40899E+03
 
   -0.12473E+04         0.71737E+03         0.00000E+00
    0.71737E+03        -0.46906E+02         0.00000E+00
    0.00000E+00         0.00000E+00        -0.38826E+03
 
   -0.10695E+04         0.81291E+03         0.00000E+00
    0.81291E+03        -0.13466E+03         0.00000E+00
    0.00000E+00         0.00000E+00        -0.36126E+03
 
   -0.86138E+03         0.89766E+03         0.00000E+00
    0.89766E+03        -0.23189E+03         0.00000E+00
    0.00000E+00         0.00000E+00        -0.32798E+03
 
   -0.62380E+03         0.96880E+03         0.00000E+00
    0.96880E+03        -0.33785E+03         0.00000E+00
    0.00000E+00         0.00000E+00        -0.28849E+03
 
   -0.35822E+03         0.10233E+04         0.00000E+00
    0.10233E+04        -0.45154E+03         0.00000E+00
    0.00000E+00         0.00000E+00        -0.24293E+03
 
   -0.27501E+03        -0.59510E+02         0.00000E+00
   -0.59510E+02         0.25913E+01         0.00000E+00
    0.00000E+00         0.00000E+00        -0.81725E+02
 
   -0.36219E+03        -0.16319E+03         0.00000E+00
   -0.16319E+03         0.14859E+02         0.00000E+00
    0.00000E+00         0.00000E+00        -0.10420E+03
 
   -0.46877E+03        -0.24612E+03         0.00000E+00
   -0.24612E+03         0.36826E+02         0.00000E+00
    0.00000E+00         0.00000E+00        -0.12958E+03
 
   -0.58937E+03        -0.30798E+03         0.00000E+00
   -0.30798E+03         0.65819E+02         0.00000E+00
    0.00000E+00         0.00000E+00        -0.15706E+03
 
   -0.71877E+03        -0.34892E+03         0.00000E+00
   -0.34892E+03         0.99276E+02         0.00000E+00
    0.00000E+00         0.00000E+00        -0.18585E+03
 
   -0.85201E+03        -0.36949E+03         0.00000E+00
   -0.36949E+03         0.13479E+03         0.00000E+00
    0.00000E+00         0.00000E+00        -0.21517E+03
 
   -0.98439E+03        -0.37059E+03         0.00000E+00
   -0.37059E+03         0.17013E+03         0.00000E+00
    0.00000E+00         0.00000E+00        -0.24428E+03
 
   -0.11116E+04        -0.35339E+03         0.00000E+00
   -0.35339E+03         0.20329E+03         0.00000E+00
    0.00000E+00         0.00000E+00        -0.27248E+03
 
   -0.12295E+04        -0.31933E+03         0.00000E+00
   -0.31933E+03         0.23247E+03         0.00000E+00
    0.00000E+00         0.00000E+00        -0.29910E+03
 
   -0.13346E+04        -0.27002E+03         0.00000E+00
   -0.27002E+03         0.25612E+03         0.00000E+00
    0.00000E+00         0.00000E+00        -0.32354E+03
 
   -0.14236E+04        -0.20723E+03         0.00000E+00
   -0.20723E+03         0.27289E+03         0.00000E+00
    0.00000E+00         0.00000E+00        -0.34521E+03
 
   -0.14937E+04        -0.13282E+03         0.00000E+00
   -0.13282E+03         0.28168E+03         0.00000E+00
    0.00000E+00         0.00000E+00        -0.36360E+03
 
   -0.15424E+04        -0.48742E+02         0.00000E+00
   -0.48742E+02         0.28161E+03         0.00000E+00
    0.00000E+00         0.00000E+00        -0.37822E+03
 
   -0.15675E+04         0.43011E+02         0.00000E+00
    0.43011E+02         0.27197E+03         0.00000E+00
    0.00000E+00         0.00000E+00        -0.38867E+03
 
   -0.15675E+04         0.14039E+03         0.00000E+00
    0.14039E+03         0.25227E+03         0.00000E+00
    0.00000E+00         0.00000E+00        -0.39457E+03
 
   -0.15409E+04         0.24134E+03         0.00000E+00
    0.24134E+03         0.22218E+03         0.00000E+00
    0.00000E+00         0.00000E+00        -0.39561E+03
 
   -0.14866E+04         0.34372E+03         0.00000E+00
    0.34372E+03         0.18153E+03         0.00000E+00
    0.00000E+00         0.00000E+00        -0.39151E+03
 
   -0.14039E+04         0.44539E+03         0.00000E+00
    0.44539E+03         0.13030E+03         0.00000E+00
    0.00000E+00         0.00000E+00        -0.38209E+03
 
   -0.12925E+04         0.54414E+03         0.00000E+00
    0.54414E+03         0.68636E+02         0.00000E+00
    0.00000E+00         0.00000E+00        -0.36717E+03
 
   -0.11524E+04         0.63766E+03         0.00000E+00
    0.63766E+03        -0.31745E+01         0.00000E+00
    0.00000E+00         0.00000E+00        -0.34666E+03
 
   -0.98373E+03         0.72359E+03         0.00000E+00
    0.72359E+03        -0.84675E+02         0.00000E+00
    0.00000E+00         0.00000E+00        -0.32052E+03
 
   -0.78736E+03         0.79943E+03         0.00000E+00
    0.79943E+03        -0.17523E+03         0.00000E+00
    0.00000E+00         0.00000E+00        -0.28878E+03
 
   -0.56435E+03         0.86258E+03         0.00000E+00
    0.86258E+03        -0.27399E+03         0.00000E+00
    0.00000E+00         0.00000E+00        -0.25150E+03
 
   -0.31628E+03         0.91029E+03         0.00000E+00
    0.91029E+03        -0.37989E+03         0.00000E+00
    0.00000E+00         0.00000E+00        -0.20885E+03
 
   -0.38266E+03        -0.53082E+02         0.00000E+00
   -0.53082E+02         0.24682E+01         0.00000E+00
    0.00000E+00         0.00000E+00        -0.11406E+03
 
   -0.45077E+03        -0.14591E+03         0.00000E+00
   -0.14591E+03         0.14204E+02         0.00000E+00
    0.00000E+00         0.00000E+00        -0.13097E+03
 
   -0.53768E+03        -0.22058E+03         0.00000E+00
   -0.22058E+03         0.35338E+02         0.00000E+00
    0.00000E+00         0.00000E+00        -0.15070E+03
 
   -0.63848E+03        -0.27671E+03         0.00000E+00
   -0.27671E+03         0.63411E+02         0.00000E+00
    0.00000E+00         0.00000E+00        -0.17252E+03
 
   -0.74837E+03        -0.31433E+03         0.00000E+00
   -0.31433E+03         0.96044E+02         0.00000E+00
    0.00000E+00         0.00000E+00        -0.19570E+03
 
   -0.86273E+03        -0.33383E+03         0.00000E+00
   -0.33383E+03         0.13098E+03         0.00000E+00
    0.00000E+00         0.00000E+00        -0.21953E+03
 
   -0.97719E+03        -0.33593E+03         0.00000E+00
   -0.33593E+03         0.16610E+03         0.00000E+00
    0.00000E+00         0.00000E+00        -0.24333E+03
 
   -0.10876E+04        -0.32161E+03         0.00000E+00
   -0.32161E+03         0.19948E+03         0.00000E+00
    0.00000E+00         0.00000E+00        -0.26645E+03
 
   -0.11903E+04        -0.29209E+03         0.00000E+00
   -0.29209E+03         0.22938E+03         0.00000E+00
    0.00000E+00         0.00000E+00        -0.28827E+03
 
   -0.12817E+04        -0.24876E+03         0.00000E+00
   -0.24876E+03         0.25425E+03         0.00000E+00
    0.00000E+00         0.00000E+00        -0.30822E+03
 
   -0.13587E+04        -0.19317E+03         0.00000E+00
   -0.19317E+03         0.27277E+03         0.00000E+00
    0.00000E+00         0.00000E+00        -0.32577E+03
 
   -0.14185E+04        -0.12698E+03         0.00000E+00
   -0.12698E+03         0.28382E+03         0.00000E+00
    0.00000E+00         0.00000E+00        -0.34042E+03
 
   -0.14589E+04        -0.51922E+02         0.00000E+00
   -0.51922E+02         0.28646E+03         0.00000E+00
    0.00000E+00         0.00000E+00        -0.35173E+03
 
   -0.14777E+04         0.30194E+02         0.00000E+00
    0.30194E+02         0.27998E+03         0.00000E+00
    0.00000E+00         0.00000E+00        -0.35931E+03
 
   -0.14732E+04         0.11751E+03         0.00000E+00
    0.11751E+03         0.26384E+03         0.00000E+00
    0.00000E+00         0.00000E+00        -0.36282E+03
 
   -0.14442E+04         0.20812E+03         0.00000E+00
    0.20812E+03         0.23768E+03         0.00000E+00
    0.00000E+00         0.00000E+00        -0.36195E+03
 
   -0.13895E+04         0.30007E+03         0.00000E+00
    0.30007E+03         0.20129E+03         0.00000E+00
    0.00000E+00         0.00000E+00        -0.35647E+03
 
   -0.13086E+04         0.39137E+03         0.00000E+00
    0.39137E+03         0.15466E+03         0.00000E+00
    0.00000E+00         0.00000E+00        -0.34618E+03
 
   -0.12011E+04         0.47996E+03         0.00000E+00
    0.47996E+03         0.97935E+02         0.00000E+00
    0.00000E+00         0.00000E+00        -0.33096E+03
 
   -0.10671E+04         0.56371E+03         0.00000E+00
    0.56371E+03         0.31414E+02         0.00000E+00
    0.00000E+00         0.00000E+00        -0.31071E+03
 
   -0.90699E+03         0.64044E+03         0.00000E+00
    0.64044E+03        -0.44408E+02         0.00000E+00
    0.00000E+00         0.00000E+00        -0.28542E+03
 
   -0.72156E+03         0.70784E+03         0.00000E+00
    0.70784E+03        -0.12885E+03         0.00000E+00
    0.00000E+00         0.00000E+00        -0.25512E+03
 
   -0.51205E+03         0.76353E+03         0.00000E+00
    0.76353E+03        -0.22100E+03         0.00000E+00
    0.00000E+00         0.00000E+00        -0.21991E+03
 
   -0.28013E+03         0.80503E+03         0.00000E+00
    0.80503E+03        -0.31973E+03         0.00000E+00
    0.00000E+00         0.00000E+00        -0.17996E+03
 
   -0.47843E+03        -0.46960E+02         0.00000E+00
   -0.46960E+02         0.23485E+01         0.00000E+00
    0.00000E+00         0.00000E+00        -0.14282E+03
 
   -0.52995E+03        -0.12935E+03         0.00000E+00
   -0.12935E+03         0.13560E+02         0.00000E+00
    0.00000E+00         0.00000E+00        -0.15492E+03
 
   -0.59966E+03        -0.19597E+03         0.00000E+00
   -0.19597E+03         0.33850E+02         0.00000E+00
    0.00000E+00         0.00000E+00        -0.16974E+03
 
   -0.68304E+03        -0.24639E+03         0.00000E+00
   -0.24639E+03         0.60956E+02         0.00000E+00
    0.00000E+00         0.00000E+00        -0.18663E+03
 
   -0.77568E+03        -0.28054E+03         0.00000E+00
   -0.28054E+03         0.92665E+02         0.00000E+00
    0.00000E+00         0.00000E+00        -0.20490E+03
 
   -0.87328E+03        -0.29870E+03         0.00000E+00
   -0.29870E+03         0.12685E+03         0.00000E+00
    0.00000E+00         0.00000E+00        -0.22393E+03
 
   -0.97175E+03        -0.30143E+03         0.00000E+00
   -0.30143E+03         0.16152E+03         0.00000E+00
    0.00000E+00         0.00000E+00        -0.24307E+03
 
   -0.10672E+04        -0.28956E+03         0.00000E+00
   -0.28956E+03         0.19480E+03         0.00000E+00
    0.00000E+00         0.00000E+00        -0.26173E+03
 
   -0.11561E+04        -0.26410E+03         0.00000E+00
   -0.26410E+03         0.22503E+03         0.00000E+00
    0.00000E+00         0.00000E+00        -0.27932E+03
 
   -0.12351E+04        -0.22627E+03         0.00000E+00
   -0.22627E+03         0.25068E+03         0.00000E+00
    0.00000E+00         0.00000E+00        -0.29533E+03
 
   -0.13012E+04        -0.17740E+03         0.00000E+00
   -0.17740E+03         0.27043E+03         0.00000E+00
    0.00000E+00         0.00000E+00        -0.30924E+03
 
   -0.13518E+04        -0.11895E+03         0.00000E+00
   -0.11895E+03         0.28317E+03         0.00000E+00
    0.00000E+00         0.00000E+00        -0.32060E+03
 
   -0.13846E+04        -0.52472E+02         0.00000E+00
   -0.52472E+02         0.28795E+03         0.00000E+00
    0.00000E+00         0.00000E+00        -0.32899E+03
 
   -0.13975E+04         0.20420E+02         0.00000E+00
    0.20420E+02         0.28401E+03         0.00000E+00
    0.00000E+00         0.00000E+00        -0.33405E+03
 
   -0.13890E+04         0.98046E+02         0.00000E+00
    0.98046E+02         0.27081E+03         0.00000E+00
    0.00000E+00         0.00000E+00        -0.33545E+03
 
   -0.13577E+04         0.17868E+03         0.00000E+00
    0.17868E+03         0.24795E+03         0.00000E+00
    0.00000E+00         0.00000E+00        -0.33293E+03
 
   -0.13027E+04         0.26054E+03         0.00000E+00
    0.26054E+03         0.21522E+03         0.00000E+00
    0.00000E+00         0.00000E+00        -0.32625E+03
 
   -0.12234E+04         0.34181E+03         0.00000E+00
    0.34181E+03         0.17260E+03         0.00000E+00
    0.00000E+00         0.00000E+00        -0.31524E+03
 
   -0.11195E+04         0.42059E+03         0.00000E+00
    0.42059E+03         0.12023E+03         0.00000E+00
    0.00000E+00         0.00000E+00        -0.29979E+03
 
   -0.99119E+03         0.49496E+03         0.00000E+00
    0.49496E+03         0.58423E+02         0.00000E+00
    0.00000E+00         0.00000E+00        -0.27983E+03
 
   -0.83889E+03         0.56289E+03         0.00000E+00
    0.56289E+03        -0.12288E+02         0.00000E+00
    0.00000E+00         0.00000E+00        -0.25535E+03
 
   -0.66350E+03         0.62231E+03         0.00000E+00
    0.62231E+03        -0.91185E+02         0.00000E+00
    0.00000E+00         0.00000E+00        -0.22641E+03
 
   -0.46634E+03         0.67106E+03         0.00000E+00
    0.67106E+03        -0.17733E+03         0.00000E+00
    0.00000E+00         0.00000E+00        -0.19310E+03
 
   -0.24918E+03         0.70691E+03         0.00000E+00
    0.70691E+03        -0.26953E+03         0.00000E+00
    0.00000E+00         0.00000E+00        -0.15561E+03
 
   -0.56284E+03        -0.41131E+02         0.00000E+00
   -0.41131E+02         0.22345E+01         0.00000E+00
    0.00000E+00         0.00000E+00        -0.16818E+03
 
   -0.60005E+03        -0.11352E+03         0.00000E+00
   -0.11352E+03         0.12941E+02         0.00000E+00
    0.00000E+00         0.00000E+00        -0.17613E+03
 
   -0.65482E+03        -0.17231E+03         0.00000E+00
   -0.17231E+03         0.32405E+02         0.00000E+00
    0.00000E+00         0.00000E+00        -0.18673E+03
 
   -0.72301E+03        -0.21706E+03         0.00000E+00
   -0.21706E+03         0.58537E+02         0.00000E+00
    0.00000E+00         0.00000E+00        -0.19934E+03
 
   -0.80052E+03        -0.24765E+03         0.00000E+00
   -0.24765E+03         0.89275E+02         0.00000E+00
    0.00000E+00         0.00000E+00        -0.21337E+03
 
   -0.88336E+03        -0.26426E+03         0.00000E+00
   -0.26426E+03         0.12262E+03         0.00000E+00
    0.00000E+00         0.00000E+00        -0.22822E+03
 
   -0.96770E+03        -0.26733E+03         0.00000E+00
   -0.26733E+03         0.15666E+03         0.00000E+00
    0.00000E+00         0.00000E+00        -0.24331E+03
 
   -0.10499E+04        -0.25754E+03         0.00000E+00
   -0.25754E+03         0.18964E+03         0.00000E+00
    0.00000E+00         0.00000E+00        -0.25808E+03
 
   -0.11265E+04        -0.23574E+03         0.00000E+00
   -0.23574E+03         0.21990E+03         0.00000E+00
    0.00000E+00         0.00000E+00        -0.27199E+03
 
   -0.11944E+04        -0.20297E+03         0.00000E+00
   -0.20297E+03         0.24598E+03         0.00000E+00
    0.00000E+00         0.00000E+00        -0.28454E+03
 
   -0.12508E+04        -0.16038E+03         0.00000E+00
   -0.16038E+03         0.26657E+03         0.00000E+00
    0.00000E+00         0.00000E+00        -0.29527E+03
 
   -0.12931E+04        -0.10925E+03         0.00000E+00
   -0.10925E+03         0.28055E+03         0.00000E+00
    0.00000E+00         0.00000E+00        -0.30376E+03
 
   -0.13190E+04        -0.50941E+02         0.00000E+00
   -0.50941E+02         0.28697E+03         0.00000E+00
    0.00000E+00         0.00000E+00        -0.30960E+03
 
   -0.13266E+04         0.13119E+02         0.00000E+00
    0.13119E+02         0.28508E+03         0.00000E+00
    0.00000E+00         0.00000E+00        -0.31246E+03
 
   -0.13144E+04         0.81431E+02         0.00000E+00
    0.81431E+02         0.27428E+03         0.00000E+00
    0.00000E+00         0.00000E+00        -0.31204E+03
 
   -0.12811E+04         0.15245E+03         0.00000E+00
    0.15245E+03         0.25419E+03         0.00000E+00
    0.00000E+00         0.00000E+00        -0.30808E+03
 
   -0.12258E+04         0.22457E+03         0.00000E+00
    0.22457E+03         0.22458E+03         0.00000E+00
    0.00000E+00         0.00000E+00        -0.30037E+03
 
   -0.11480E+04         0.29615E+03         0.00000E+00
    0.29615E+03         0.18541E+03         0.00000E+00
    0.00000E+00         0.00000E+00        -0.28876E+03
 
   -0.10474E+04         0.36549E+03         0.00000E+00
    0.36549E+03         0.13685E+03         0.00000E+00
    0.00000E+00         0.00000E+00        -0.27315E+03
 
   -0.92418E+03         0.43083E+03         0.00000E+00
    0.43083E+03         0.79217E+02         0.00000E+00
    0.00000E+00         0.00000E+00        -0.25349E+03
 
   -0.77898E+03         0.49038E+03         0.00000E+00
    0.49038E+03         0.13061E+02         0.00000E+00
    0.00000E+00         0.00000E+00        -0.22978E+03
 
   -0.61270E+03         0.54225E+03         0.00000E+00
    0.54225E+03        -0.60873E+02         0.00000E+00
    0.00000E+00         0.00000E+00        -0.20207E+03
 
   -0.42672E+03         0.58453E+03         0.00000E+00
    0.58453E+03        -0.14161E+03         0.00000E+00
    0.00000E+00         0.00000E+00        -0.17050E+03
 
   -0.22286E+03         0.61525E+03         0.00000E+00
    0.61525E+03        -0.22793E+03         0.00000E+00
    0.00000E+00         0.00000E+00        -0.13524E+03
 
   -0.63641E+03        -0.35579E+02         0.00000E+00
   -0.35579E+02         0.21285E+01         0.00000E+00
    0.00000E+00         0.00000E+00        -0.19029E+03
 
   -0.66140E+03        -0.98363E+02         0.00000E+00
   -0.98363E+02         0.12360E+02         0.00000E+00
    0.00000E+00         0.00000E+00        -0.19471E+03
 
   -0.70332E+03        -0.14956E+03         0.00000E+00
   -0.14956E+03         0.31037E+02         0.00000E+00
    0.00000E+00         0.00000E+00        -0.20169E+03
 
   -0.75838E+03        -0.18872E+03         0.00000E+00
   -0.18872E+03         0.56225E+02         0.00000E+00
    0.00000E+00         0.00000E+00        -0.21065E+03
 
   -0.82277E+03        -0.21570E+03         0.00000E+00
   -0.21570E+03         0.85991E+02         0.00000E+00
    0.00000E+00         0.00000E+00        -0.22103E+03
 
   -0.89276E+03        -0.23061E+03         0.00000E+00
   -0.23061E+03         0.11845E+03         0.00000E+00
    0.00000E+00         0.00000E+00        -0.23229E+03
 
   -0.96474E+03        -0.23378E+03         0.00000E+00
   -0.23378E+03         0.15179E+03         0.00000E+00
    0.00000E+00         0.00000E+00        -0.24389E+03
 
   -0.10353E+04        -0.22576E+03         0.00000E+00
   -0.22576E+03         0.18430E+03         0.00000E+00
    0.00000E+00         0.00000E+00        -0.25529E+03
 
   -0.11011E+04        -0.20728E+03         0.00000E+00
   -0.20728E+03         0.21441E+03         0.00000E+00
    0.00000E+00         0.00000E+00        -0.26602E+03
 
   -0.11593E+04        -0.17919E+03         0.00000E+00
   -0.17919E+03         0.24066E+03         0.00000E+00
    0.00000E+00         0.00000E+00        -0.27559E+03
 
   -0.12070E+04        -0.14250E+03         0.00000E+00
   -0.14250E+03         0.26178E+03         0.00000E+00
    0.00000E+00         0.00000E+00        -0.28358E+03
 
   -0.12419E+04        -0.98306E+02         0.00000E+00
   -0.98306E+02         0.27665E+03         0.00000E+00
    0.00000E+00         0.00000E+00        -0.28957E+03
 
   -0.12617E+04        -0.47782E+02         0.00000E+00
   -0.47782E+02         0.28433E+03         0.00000E+00
    0.00000E+00         0.00000E+00        -0.29322E+03
 
   -0.12646E+04         0.78132E+01         0.00000E+00
    0.78132E+01         0.28404E+03         0.00000E+00
    0.00000E+00         0.00000E+00        -0.29418E+03
 
   -0.12491E+04         0.67167E+02         0.00000E+00
    0.67167E+02         0.27521E+03         0.00000E+00
    0.00000E+00         0.00000E+00        -0.29218E+03
 
   -0.12140E+04         0.12891E+03         0.00000E+00
    0.12891E+03         0.25741E+03         0.00000E+00
    0.00000E+00         0.00000E+00        -0.28699E+03
 
   -0.11585E+04         0.19163E+03         0.00000E+00
    0.19163E+03         0.23043E+03         0.00000E+00
    0.00000E+00         0.00000E+00        -0.27842E+03
 
   -0.10819E+04         0.25386E+03         0.00000E+00
    0.25386E+03         0.19423E+03         0.00000E+00
    0.00000E+00         0.00000E+00        -0.26631E+03
 
   -0.98428E+03         0.31410E+03         0.00000E+00
    0.31410E+03         0.14896E+03         0.00000E+00
    0.00000E+00         0.00000E+00        -0.25060E+03
 
   -0.86572E+03         0.37080E+03         0.00000E+00
    0.37080E+03         0.94975E+02         0.00000E+00
    0.00000E+00         0.00000E+00        -0.23122E+03
 
   -0.72686E+03         0.42233E+03         0.00000E+00
    0.42233E+03         0.32827E+02         0.00000E+00
    0.00000E+00         0.00000E+00        -0.20821E+03
 
   -0.56871E+03         0.46708E+03         0.00000E+00
    0.46708E+03        -0.36717E+02         0.00000E+00
    0.00000E+00         0.00000E+00        -0.18163E+03
 
   -0.39270E+03         0.50333E+03         0.00000E+00
    0.50333E+03        -0.11266E+03         0.00000E+00
    0.00000E+00         0.00000E+00        -0.15161E+03
 
   -0.20066E+03         0.52936E+03         0.00000E+00
    0.52936E+03        -0.19377E+03         0.00000E+00
    0.00000E+00         0.00000E+00        -0.11833E+03
 
   -0.69963E+03        -0.30283E+02         0.00000E+00
   -0.30283E+02         0.20321E+01         0.00000E+00
    0.00000E+00         0.00000E+00        -0.20928E+03
 
   -0.71429E+03        -0.83847E+02         0.00000E+00
   -0.83847E+02         0.11829E+02         0.00000E+00
    0.00000E+00         0.00000E+00        -0.21074E+03
 
   -0.74532E+03        -0.12768E+03         0.00000E+00
   -0.12768E+03         0.29779E+02         0.00000E+00
    0.00000E+00         0.00000E+00        -0.21466E+03
 
   -0.78917E+03        -0.16135E+03         0.00000E+00
   -0.16135E+03         0.54078E+02         0.00000E+00
    0.00000E+00         0.00000E+00        -0.22053E+03
 
   -0.84232E+03        -0.18470E+03         0.00000E+00
   -0.18470E+03         0.82915E+02         0.00000E+00
    0.00000E+00         0.00000E+00        -0.22782E+03
 
   -0.90127E+03        -0.19778E+03         0.00000E+00
   -0.19778E+03         0.11450E+03         0.00000E+00
    0.00000E+00         0.00000E+00        -0.23603E+03
 
   -0.96262E+03        -0.20085E+03         0.00000E+00
   -0.20085E+03         0.14710E+03         0.00000E+00
    0.00000E+00         0.00000E+00        -0.24465E+03
 
   -0.10231E+04        -0.19436E+03         0.00000E+00
   -0.19436E+03         0.17908E+03         0.00000E+00
    0.00000E+00         0.00000E+00        -0.25320E+03
 
   -0.10796E+04        -0.17889E+03         0.00000E+00
   -0.17889E+03         0.20890E+03         0.00000E+00
    0.00000E+00         0.00000E+00        -0.26121E+03
 
   -0.11293E+04        -0.15518E+03         0.00000E+00
   -0.15518E+03         0.23515E+03         0.00000E+00
    0.00000E+00         0.00000E+00        -0.26825E+03
 
   -0.11695E+04        -0.12405E+03         0.00000E+00
   -0.12405E+03         0.25657E+03         0.00000E+00
    0.00000E+00         0.00000E+00        -0.27389E+03
 
   -0.11979E+04        -0.86442E+02         0.00000E+00
   -0.86442E+02         0.27206E+03         0.00000E+00
    0.00000E+00         0.00000E+00        -0.27776E+03
 
   -0.12124E+04        -0.43366E+02         0.00000E+00
   -0.43366E+02         0.28068E+03         0.00000E+00
    0.00000E+00         0.00000E+00        -0.27952E+03
 
   -0.12112E+04         0.41009E+01         0.00000E+00
    0.41009E+01         0.28165E+03         0.00000E+00
    0.00000E+00         0.00000E+00        -0.27887E+03
 
   -0.11929E+04         0.54825E+02         0.00000E+00
    0.54825E+02         0.27439E+03         0.00000E+00
    0.00000E+00         0.00000E+00        -0.27554E+03
 
   -0.11562E+04         0.10762E+03         0.00000E+00
    0.10762E+03         0.25848E+03         0.00000E+00
    0.00000E+00         0.00000E+00        -0.26931E+03
 
   -0.11004E+04         0.16126E+03         0.00000E+00
    0.16126E+03         0.23370E+03         0.00000E+00
    0.00000E+00         0.00000E+00        -0.26001E+03
 
   -0.10250E+04         0.21447E+03         0.00000E+00
    0.21447E+03         0.20000E+03         0.00000E+00
    0.00000E+00         0.00000E+00        -0.24750E+03
 
   -0.92993E+03         0.26594E+03         0.00000E+00
    0.26594E+03         0.15755E+03         0.00000E+00
    0.00000E+00         0.00000E+00        -0.23171E+03
 
   -0.81543E+03         0.31432E+03         0.00000E+00
    0.31432E+03         0.10671E+03         0.00000E+00
    0.00000E+00         0.00000E+00        -0.21262E+03
 
   -0.68216E+03         0.35821E+03         0.00000E+00
    0.35821E+03         0.48033E+02         0.00000E+00
    0.00000E+00         0.00000E+00        -0.19024E+03
 
   -0.53115E+03         0.39619E+03         0.00000E+00
    0.39619E+03        -0.17690E+02         0.00000E+00
    0.00000E+00         0.00000E+00        -0.16465E+03
 
   -0.36386E+03         0.42680E+03         0.00000E+00
    0.42680E+03        -0.89452E+02         0.00000E+00
    0.00000E+00         0.00000E+00        -0.13599E+03
 
   -0.18217E+03         0.44856E+03         0.00000E+00
    0.44856E+03        -0.16601E+03         0.00000E+00
    0.00000E+00         0.00000E+00        -0.10446E+03
 
   -0.75294E+03        -0.25216E+02         0.00000E+00
   -0.25216E+02         0.19468E+01         0.00000E+00
    0.00000E+00         0.00000E+00        -0.22530E+03
 
   -0.75903E+03        -0.69909E+02         0.00000E+00
   -0.69909E+02         0.11358E+02         0.00000E+00
    0.00000E+00         0.00000E+00        -0.22430E+03
 
   -0.78096E+03        -0.10659E+03         0.00000E+00
   -0.10659E+03         0.28654E+02         0.00000E+00
    0.00000E+00         0.00000E+00        -0.22569E+03
 
   -0.81543E+03        -0.13487E+03         0.00000E+00
   -0.13487E+03         0.52150E+02         0.00000E+00
    0.00000E+00         0.00000E+00        -0.22898E+03
 
   -0.85914E+03        -0.15458E+03         0.00000E+00
   -0.15458E+03         0.80130E+02         0.00000E+00
    0.00000E+00         0.00000E+00        -0.23370E+03
 
   -0.90878E+03        -0.16576E+03         0.00000E+00
   -0.16576E+03         0.11089E+03         0.00000E+00
    0.00000E+00         0.00000E+00        -0.23937E+03
 
   -0.96113E+03        -0.16858E+03         0.00000E+00
   -0.16858E+03         0.14278E+03         0.00000E+00
    0.00000E+00         0.00000E+00        -0.24551E+03
 
   -0.10131E+04        -0.16341E+03         0.00000E+00
   -0.16341E+03         0.17420E+03         0.00000E+00
    0.00000E+00         0.00000E+00        -0.25166E+03
 
   -0.10617E+04        -0.15071E+03         0.00000E+00
   -0.15071E+03         0.20366E+03         0.00000E+00
    0.00000E+00         0.00000E+00        -0.25740E+03
 
   -0.11041E+04        -0.13109E+03         0.00000E+00
   -0.13109E+03         0.22980E+03         0.00000E+00
    0.00000E+00         0.00000E+00        -0.26230E+03
 
   -0.11380E+04        -0.10524E+03         0.00000E+00
   -0.10524E+03         0.25137E+03         0.00000E+00
    0.00000E+00         0.00000E+00        -0.26598E+03
 
   -0.11609E+04        -0.73921E+02         0.00000E+00
   -0.73921E+02         0.26727E+03         0.00000E+00
    0.00000E+00         0.00000E+00        -0.26807E+03
 
   -0.11708E+04        -0.37992E+02         0.00000E+00
   -0.37992E+02         0.27658E+03         0.00000E+00
    0.00000E+00         0.00000E+00        -0.26826E+03
 
   -0.11661E+04         0.16461E+01         0.00000E+00
    0.16461E+01         0.27852E+03         0.00000E+00
    0.00000E+00         0.00000E+00        -0.26626E+03
 
   -0.11452E+04         0.44037E+02         0.00000E+00
    0.44037E+02         0.27251E+03         0.00000E+00
    0.00000E+00         0.00000E+00        -0.26181E+03
 
   -0.11072E+04         0.88180E+02         0.00000E+00
    0.88180E+02         0.25813E+03         0.00000E+00
    0.00000E+00         0.00000E+00        -0.25472E+03
 
   -0.10512E+04         0.13303E+03         0.00000E+00
    0.13303E+03         0.23515E+03         0.00000E+00
    0.00000E+00         0.00000E+00        -0.24482E+03
 
   -0.97683E+03         0.17752E+03         0.00000E+00
    0.17752E+03         0.20354E+03         0.00000E+00
    0.00000E+00         0.00000E+00        -0.23199E+03
 
   -0.88399E+03         0.22052E+03         0.00000E+00
    0.22052E+03         0.16346E+03         0.00000E+00
    0.00000E+00         0.00000E+00        -0.21616E+03
 
   -0.77299E+03         0.26090E+03         0.00000E+00
    0.26090E+03         0.11527E+03         0.00000E+00
    0.00000E+00         0.00000E+00        -0.19732E+03
 
   -0.64452E+03         0.29746E+03         0.00000E+00
    0.29746E+03         0.59543E+02         0.00000E+00
    0.00000E+00         0.00000E+00        -0.17549E+03
 
   -0.49964E+03         0.32902E+03         0.00000E+00
    0.32902E+03        -0.29216E+01         0.00000E+00
    0.00000E+00         0.00000E+00        -0.15077E+03
 
   -0.33984E+03         0.35433E+03         0.00000E+00
    0.35433E+03        -0.71111E+02         0.00000E+00
    0.00000E+00         0.00000E+00        -0.12329E+03
 
   -0.16701E+03         0.37215E+03         0.00000E+00
    0.37215E+03        -0.14378E+03         0.00000E+00
    0.00000E+00         0.00000E+00        -0.93235E+02
 
   -0.79674E+03        -0.20349E+02         0.00000E+00
   -0.20349E+02         0.18739E+01         0.00000E+00
    0.00000E+00         0.00000E+00        -0.23846E+03
 
   -0.79588E+03        -0.56477E+02         0.00000E+00
   -0.56477E+02         0.10953E+02         0.00000E+00
    0.00000E+00         0.00000E+00        -0.23548E+03
 
   -0.81040E+03        -0.86198E+02         0.00000E+00
   -0.86198E+02         0.27686E+02         0.00000E+00
    0.00000E+00         0.00000E+00        -0.23481E+03
 
   -0.83721E+03        -0.10918E+03         0.00000E+00
   -0.10918E+03         0.50481E+02         0.00000E+00
    0.00000E+00         0.00000E+00        -0.23602E+03
 
   -0.87318E+03        -0.12528E+03         0.00000E+00
   -0.12528E+03         0.77707E+02         0.00000E+00
    0.00000E+00         0.00000E+00        -0.23864E+03
 
   -0.91517E+03        -0.13448E+03         0.00000E+00
   -0.13448E+03         0.10773E+03         0.00000E+00
    0.00000E+00         0.00000E+00        -0.24223E+03
 
   -0.96011E+03        -0.13694E+03         0.00000E+00
   -0.13694E+03         0.13896E+03         0.00000E+00
    0.00000E+00         0.00000E+00        -0.24635E+03
 
   -0.10050E+04        -0.13292E+03         0.00000E+00
   -0.13292E+03         0.16985E+03         0.00000E+00
    0.00000E+00         0.00000E+00        -0.25055E+03
 
   -0.10471E+04        -0.12279E+03         0.00000E+00
   -0.12279E+03         0.19895E+03         0.00000E+00
    0.00000E+00         0.00000E+00        -0.25443E+03
 
   -0.10836E+04        -0.10704E+03         0.00000E+00
   -0.10704E+03         0.22491E+03         0.00000E+00
    0.00000E+00         0.00000E+00        -0.25759E+03
 
   -0.11121E+04        -0.86215E+02         0.00000E+00
   -0.86215E+02         0.24652E+03         0.00000E+00
    0.00000E+00         0.00000E+00        -0.25966E+03
 
   -0.11304E+04        -0.60940E+02         0.00000E+00
   -0.60940E+02         0.26269E+03         0.00000E+00
    0.00000E+00         0.00000E+00        -0.26031E+03
 
   -0.11365E+04        -0.31900E+02         0.00000E+00
   -0.31900E+02         0.27250E+03         0.00000E+00
    0.00000E+00         0.00000E+00        -0.25921E+03
 
   -0.11289E+04         0.16742E+00         0.00000E+00
    0.16742E+00         0.27517E+03         0.00000E+00
    0.00000E+00         0.00000E+00        -0.25611E+03
 
   -0.11060E+04         0.34484E+02         0.00000E+00
    0.34484E+02         0.27013E+03         0.00000E+00
    0.00000E+00         0.00000E+00        -0.25075E+03
 
   -0.10668E+04         0.70232E+02         0.00000E+00
    0.70232E+02         0.25696E+03         0.00000E+00
    0.00000E+00         0.00000E+00        -0.24296E+03
 
   -0.10107E+04         0.10656E+03         0.00000E+00
    0.10656E+03         0.23544E+03         0.00000E+00
    0.00000E+00         0.00000E+00        -0.23257E+03
 
   -0.93714E+03         0.14258E+03         0.00000E+00
    0.14258E+03         0.20552E+03         0.00000E+00
    0.00000E+00         0.00000E+00        -0.21949E+03
 
   -0.84617E+03         0.17738E+03         0.00000E+00
    0.17738E+03         0.16737E+03         0.00000E+00
    0.00000E+00         0.00000E+00        -0.20364E+03
 
   -0.73810E+03         0.21003E+03         0.00000E+00
    0.21003E+03         0.12136E+03         0.00000E+00
    0.00000E+00         0.00000E+00        -0.18502E+03
 
   -0.61364E+03         0.23955E+03         0.00000E+00
    0.23955E+03         0.68080E+02         0.00000E+00
    0.00000E+00         0.00000E+00        -0.16367E+03
 
   -0.47388E+03         0.26496E+03         0.00000E+00
    0.26496E+03         0.83165E+01         0.00000E+00
    0.00000E+00         0.00000E+00        -0.13967E+03
 
   -0.32031E+03         0.28527E+03         0.00000E+00
    0.28527E+03        -0.56906E+02         0.00000E+00
    0.00000E+00         0.00000E+00        -0.11317E+03
 
   -0.15485E+03         0.29946E+03         0.00000E+00
    0.29946E+03        -0.12634E+03         0.00000E+00
    0.00000E+00         0.00000E+00        -0.84355E+02
 
   -0.83135E+03        -0.15649E+02         0.00000E+00
   -0.15649E+02         0.18144E+01         0.00000E+00
    0.00000E+00         0.00000E+00        -0.24886E+03
 
   -0.82507E+03        -0.43471E+02         0.00000E+00
   -0.43471E+02         0.10622E+02         0.00000E+00
    0.00000E+00         0.00000E+00        -0.24433E+03
 
   -0.83377E+03        -0.66404E+02         0.00000E+00
   -0.66404E+02         0.26891E+02         0.00000E+00
    0.00000E+00         0.00000E+00        -0.24206E+03
 
   -0.85455E+03        -0.84182E+02         0.00000E+00
   -0.84182E+02         0.49106E+02         0.00000E+00
    0.00000E+00         0.00000E+00        -0.24163E+03
 
   -0.88442E+03        -0.96672E+02         0.00000E+00
   -0.96672E+02         0.75704E+02         0.00000E+00
    0.00000E+00         0.00000E+00        -0.24261E+03
 
   -0.92037E+03        -0.10387E+03         0.00000E+00
   -0.10387E+03         0.10511E+03         0.00000E+00
    0.00000E+00         0.00000E+00        -0.24458E+03
 
   -0.95944E+03        -0.10586E+03         0.00000E+00
   -0.10586E+03         0.13577E+03         0.00000E+00
    0.00000E+00         0.00000E+00        -0.24710E+03
 
   -0.99877E+03        -0.10286E+03         0.00000E+00
   -0.10286E+03         0.16620E+03         0.00000E+00
    0.00000E+00         0.00000E+00        -0.24977E+03
 
   -0.10356E+04        -0.95151E+02         0.00000E+00
   -0.95151E+02         0.19496E+03         0.00000E+00
    0.00000E+00         0.00000E+00        -0.25219E+03
 
   -0.10673E+04        -0.83085E+02         0.00000E+00
   -0.83085E+02         0.22073E+03         0.00000E+00
    0.00000E+00         0.00000E+00        -0.25398E+03
 
   -0.10916E+04        -0.67090E+02         0.00000E+00
   -0.67090E+02         0.24231E+03         0.00000E+00
    0.00000E+00         0.00000E+00        -0.25479E+03
 
   -0.11063E+04        -0.47647E+02         0.00000E+00
   -0.47647E+02         0.25864E+03         0.00000E+00
    0.00000E+00         0.00000E+00        -0.25429E+03
 
   -0.11094E+04        -0.25285E+02         0.00000E+00
   -0.25285E+02         0.26880E+03         0.00000E+00
    0.00000E+00         0.00000E+00        -0.25219E+03
 
   -0.10994E+04        -0.57127E+00         0.00000E+00
   -0.57127E+00         0.27201E+03         0.00000E+00
    0.00000E+00         0.00000E+00        -0.24822E+03
 
   -0.10749E+04         0.25889E+02         0.00000E+00
    0.25889E+02         0.26771E+03         0.00000E+00
    0.00000E+00         0.00000E+00        -0.24215E+03
 
   -0.10348E+04         0.53459E+02         0.00000E+00
    0.53459E+02         0.25547E+03         0.00000E+00
    0.00000E+00         0.00000E+00        -0.23381E+03
 
   -0.97856E+03         0.81478E+02         0.00000E+00
    0.81478E+02         0.23506E+03         0.00000E+00
    0.00000E+00         0.00000E+00        -0.22305E+03
 
   -0.90570E+03         0.10926E+03         0.00000E+00
    0.10926E+03         0.20647E+03         0.00000E+00
    0.00000E+00         0.00000E+00        -0.20977E+03
 
   -0.81623E+03         0.13608E+03         0.00000E+00
    0.13608E+03         0.16985E+03         0.00000E+00
    0.00000E+00         0.00000E+00        -0.19391E+03
 
   -0.71050E+03         0.16123E+03         0.00000E+00
    0.16123E+03         0.12557E+03         0.00000E+00
    0.00000E+00         0.00000E+00        -0.17548E+03
 
   -0.58925E+03         0.18394E+03         0.00000E+00
    0.18394E+03         0.74228E+02         0.00000E+00
    0.00000E+00         0.00000E+00        -0.15451E+03
 
   -0.45359E+03         0.20345E+03         0.00000E+00
    0.20345E+03         0.16616E+02         0.00000E+00
    0.00000E+00         0.00000E+00        -0.13109E+03
 
   -0.30501E+03         0.21900E+03         0.00000E+00
    0.21900E+03        -0.46240E+02         0.00000E+00
    0.00000E+00         0.00000E+00        -0.10538E+03
 
   -0.14543E+03         0.22978E+03         0.00000E+00
    0.22978E+03        -0.11309E+03         0.00000E+00
    0.00000E+00         0.00000E+00        -0.77556E+02
 
   -0.85707E+03        -0.11082E+02         0.00000E+00
   -0.11082E+02         0.17691E+01         0.00000E+00
    0.00000E+00         0.00000E+00        -0.25659E+03
 
   -0.84678E+03        -0.30804E+02         0.00000E+00
   -0.30804E+02         0.10370E+02         0.00000E+00
    0.00000E+00         0.00000E+00        -0.25092E+03
 
   -0.85119E+03        -0.47085E+02         0.00000E+00
   -0.47085E+02         0.26284E+02         0.00000E+00
    0.00000E+00         0.00000E+00        -0.24747E+03
 
   -0.86751E+03        -0.59727E+02         0.00000E+00
   -0.59727E+02         0.48052E+02         0.00000E+00
    0.00000E+00         0.00000E+00        -0.24584E+03
 
   -0.89285E+03        -0.68633E+02         0.00000E+00
   -0.68633E+02         0.74163E+02         0.00000E+00
    0.00000E+00         0.00000E+00        -0.24561E+03
 
   -0.92431E+03        -0.73788E+02         0.00000E+00
   -0.73788E+02         0.10309E+03         0.00000E+00
    0.00000E+00         0.00000E+00        -0.24637E+03
 
   -0.95902E+03        -0.75260E+02         0.00000E+00
   -0.75260E+02         0.13330E+03         0.00000E+00
    0.00000E+00         0.00000E+00        -0.24772E+03
 
   -0.99419E+03        -0.73184E+02         0.00000E+00
   -0.73184E+02         0.16335E+03         0.00000E+00
    0.00000E+00         0.00000E+00        -0.24925E+03
 
   -0.10271E+04        -0.67761E+02         0.00000E+00
   -0.67761E+02         0.19183E+03         0.00000E+00
    0.00000E+00         0.00000E+00        -0.25059E+03
 
   -0.10553E+04        -0.59241E+02         0.00000E+00
   -0.59241E+02         0.21743E+03         0.00000E+00
    0.00000E+00         0.00000E+00        -0.25137E+03
 
   -0.10765E+04        -0.47925E+02         0.00000E+00
   -0.47925E+02         0.23897E+03         0.00000E+00
    0.00000E+00         0.00000E+00        -0.25124E+03
 
   -0.10884E+04        -0.34153E+02         0.00000E+00
   -0.34153E+02         0.25539E+03         0.00000E+00
    0.00000E+00         0.00000E+00        -0.24990E+03
 
   -0.10893E+04        -0.18300E+02         0.00000E+00
   -0.18300E+02         0.26578E+03         0.00000E+00
    0.00000E+00         0.00000E+00        -0.24704E+03
 
   -0.10775E+04        -0.77051E+00         0.00000E+00
   -0.77051E+00         0.26937E+03         0.00000E+00
    0.00000E+00         0.00000E+00        -0.24243E+03
 
   -0.10517E+04         0.18005E+02         0.00000E+00
    0.18005E+02         0.26559E+03         0.00000E+00
    0.00000E+00         0.00000E+00        -0.23584E+03
 
   -0.10110E+04         0.37572E+02         0.00000E+00
    0.37572E+02         0.25402E+03         0.00000E+00
    0.00000E+00         0.00000E+00        -0.22710E+03
 
   -0.95465E+03         0.57457E+02         0.00000E+00
    0.57457E+02         0.23444E+03         0.00000E+00
    0.00000E+00         0.00000E+00        -0.21606E+03
 
   -0.88230E+03         0.77170E+02         0.00000E+00
    0.77170E+02         0.20682E+03         0.00000E+00
    0.00000E+00         0.00000E+00        -0.20264E+03
 
   -0.79395E+03         0.96201E+02         0.00000E+00
    0.96201E+02         0.17133E+03         0.00000E+00
    0.00000E+00         0.00000E+00        -0.18679E+03
 
   -0.68999E+03         0.11403E+03         0.00000E+00
    0.11403E+03         0.12834E+03         0.00000E+00
    0.00000E+00         0.00000E+00        -0.16849E+03
 
   -0.57116E+03         0.13012E+03         0.00000E+00
    0.13012E+03         0.78446E+02         0.00000E+00
    0.00000E+00         0.00000E+00        -0.14781E+03
 
   -0.43856E+03         0.14392E+03         0.00000E+00
    0.14392E+03         0.22443E+02         0.00000E+00
    0.00000E+00         0.00000E+00        -0.12484E+03
 
   -0.29373E+03         0.15488E+03         0.00000E+00
    0.15488E+03        -0.38643E+02         0.00000E+00
    0.00000E+00         0.00000E+00        -0.99711E+02
 
   -0.13855E+03         0.16246E+03         0.00000E+00
    0.16246E+03        -0.10356E+03         0.00000E+00
    0.00000E+00         0.00000E+00        -0.72633E+02
 
   -0.87409E+03        -0.66105E+01         0.00000E+00
   -0.66105E+01         0.17386E+01         0.00000E+00
    0.00000E+00         0.00000E+00        -0.26171E+03
 
   -0.86117E+03        -0.18383E+02         0.00000E+00
   -0.18383E+02         0.10199E+02         0.00000E+00
    0.00000E+00         0.00000E+00        -0.25529E+03
 
   -0.86276E+03        -0.28111E+02         0.00000E+00
   -0.28111E+02         0.25873E+02         0.00000E+00
    0.00000E+00         0.00000E+00        -0.25107E+03
 
   -0.87612E+03        -0.35674E+02         0.00000E+00
   -0.35674E+02         0.47339E+02         0.00000E+00
    0.00000E+00         0.00000E+00        -0.24864E+03
 
   -0.89847E+03        -0.41010E+02         0.00000E+00
   -0.41010E+02         0.73118E+02         0.00000E+00
    0.00000E+00         0.00000E+00        -0.24761E+03
 
   -0.92696E+03        -0.44109E+02         0.00000E+00
   -0.44109E+02         0.10171E+03         0.00000E+00
    0.00000E+00         0.00000E+00        -0.24757E+03
 
   -0.95878E+03        -0.45010E+02         0.00000E+00
   -0.45010E+02         0.13162E+03         0.00000E+00
    0.00000E+00         0.00000E+00        -0.24815E+03
 
   -0.99119E+03        -0.43791E+02         0.00000E+00
   -0.43791E+02         0.16141E+03         0.00000E+00
    0.00000E+00         0.00000E+00        -0.24893E+03
 
   -0.10216E+04        -0.40571E+02         0.00000E+00
   -0.40571E+02         0.18968E+03         0.00000E+00
    0.00000E+00         0.00000E+00        -0.24956E+03
 
   -0.10474E+04        -0.35498E+02         0.00000E+00
   -0.35498E+02         0.21516E+03         0.00000E+00
    0.00000E+00         0.00000E+00        -0.24967E+03
 
   -0.10664E+04        -0.28752E+02         0.00000E+00
   -0.28752E+02         0.23665E+03         0.00000E+00
    0.00000E+00         0.00000E+00        -0.24893E+03
 
   -0.10765E+04        -0.20535E+02         0.00000E+00
   -0.20535E+02         0.25312E+03         0.00000E+00
    0.00000E+00         0.00000E+00        -0.24702E+03
 
   -0.10759E+04        -0.11072E+02         0.00000E+00
   -0.11072E+02         0.26365E+03         0.00000E+00
    0.00000E+00         0.00000E+00        -0.24367E+03
 
   -0.10629E+04        -0.60350E+00         0.00000E+00
   -0.60350E+00         0.26748E+03         0.00000E+00
    0.00000E+00         0.00000E+00        -0.23864E+03
 
   -0.10364E+04         0.10611E+02         0.00000E+00
    0.10611E+02         0.26403E+03         0.00000E+00
    0.00000E+00         0.00000E+00        -0.23170E+03
 
   -0.99522E+03         0.22301E+02         0.00000E+00
    0.22301E+02         0.25290E+03         0.00000E+00
    0.00000E+00         0.00000E+00        -0.22269E+03
 
   -0.93880E+03         0.34181E+02         0.00000E+00
    0.34181E+02         0.23386E+03         0.00000E+00
    0.00000E+00         0.00000E+00        -0.21148E+03
 
   -0.86678E+03         0.45956E+02         0.00000E+00
    0.45956E+02         0.20689E+03         0.00000E+00
    0.00000E+00         0.00000E+00        -0.19797E+03
 
   -0.77919E+03         0.57322E+02         0.00000E+00
    0.57322E+02         0.17214E+03         0.00000E+00
    0.00000E+00         0.00000E+00        -0.18211E+03
 
   -0.67641E+03         0.67964E+02         0.00000E+00
    0.67964E+02         0.13001E+03         0.00000E+00
    0.00000E+00         0.00000E+00        -0.16392E+03
 
   -0.55918E+03         0.77563E+02         0.00000E+00
    0.77563E+02         0.81073E+02         0.00000E+00
    0.00000E+00         0.00000E+00        -0.14343E+03
 
   -0.42864E+03         0.85790E+02         0.00000E+00
    0.85790E+02         0.26139E+02         0.00000E+00
    0.00000E+00         0.00000E+00        -0.12075E+03
 
   -0.28629E+03         0.92315E+02         0.00000E+00
    0.92315E+02        -0.33769E+02         0.00000E+00
    0.00000E+00         0.00000E+00        -0.96018E+02
 
   -0.13404E+03         0.96807E+02         0.00000E+00
    0.96807E+02        -0.97405E+02         0.00000E+00
    0.00000E+00         0.00000E+00        -0.69435E+02
 
   -0.88257E+03        -0.21970E+01         0.00000E+00
   -0.21970E+01         0.17233E+01         0.00000E+00
    0.00000E+00         0.00000E+00        -0.26425E+03
 
   -0.86835E+03        -0.61111E+01         0.00000E+00
   -0.61111E+01         0.10114E+02         0.00000E+00
    0.00000E+00         0.00000E+00        -0.25747E+03
 
   -0.86852E+03        -0.93468E+01         0.00000E+00
   -0.93468E+01         0.25666E+02         0.00000E+00
    0.00000E+00         0.00000E+00        -0.25286E+03
 
   -0.88042E+03        -0.11864E+02         0.00000E+00
   -0.11864E+02         0.46979E+02         0.00000E+00
    0.00000E+00         0.00000E+00        -0.25003E+03
 
   -0.90128E+03        -0.13641E+02         0.00000E+00
   -0.13641E+02         0.72590E+02         0.00000E+00
    0.00000E+00         0.00000E+00        -0.24861E+03
 
   -0.92829E+03        -0.14675E+02         0.00000E+00
   -0.14675E+02         0.10101E+03         0.00000E+00
    0.00000E+00         0.00000E+00        -0.24818E+03
 
   -0.95867E+03        -0.14979E+02         0.00000E+00
   -0.14979E+02         0.13077E+03         0.00000E+00
    0.00000E+00         0.00000E+00        -0.24837E+03
 
   -0.98970E+03        -0.14577E+02         0.00000E+00
   -0.14577E+02         0.16042E+03         0.00000E+00
    0.00000E+00         0.00000E+00        -0.24878E+03
 
   -0.10188E+04        -0.13509E+02         0.00000E+00
   -0.13509E+02         0.18859E+03         0.00000E+00
    0.00000E+00         0.00000E+00        -0.24906E+03
 
   -0.10434E+04        -0.11825E+02         0.00000E+00
   -0.11825E+02         0.21400E+03         0.00000E+00
    0.00000E+00         0.00000E+00        -0.24883E+03
 
   -0.10614E+04        -0.95832E+01         0.00000E+00
   -0.95832E+01         0.23547E+03         0.00000E+00
    0.00000E+00         0.00000E+00        -0.24778E+03
 
   -0.10706E+04        -0.68520E+01         0.00000E+00
   -0.68520E+01         0.25195E+03         0.00000E+00
    0.00000E+00         0.00000E+00        -0.24560E+03
 
   -0.10692E+04        -0.37055E+01         0.00000E+00
   -0.37055E+01         0.26255E+03         0.00000E+00
    0.00000E+00         0.00000E+00        -0.24201E+03
 
   -0.10557E+04        -0.22432E+00         0.00000E+00
   -0.22432E+00         0.26649E+03         0.00000E+00
    0.00000E+00         0.00000E+00        -0.23676E+03
 
   -0.10287E+04         0.35055E+01         0.00000E+00
    0.35055E+01         0.26321E+03         0.00000E+00
    0.00000E+00         0.00000E+00        -0.22965E+03
 
   -0.98735E+03         0.73935E+01         0.00000E+00
    0.73935E+01         0.25230E+03         0.00000E+00
    0.00000E+00         0.00000E+00        -0.22051E+03
 
   -0.93089E+03         0.11345E+02         0.00000E+00
    0.11345E+02         0.23353E+03         0.00000E+00
    0.00000E+00         0.00000E+00        -0.20921E+03
 
   -0.85905E+03         0.15261E+02         0.00000E+00
    0.15261E+02         0.20687E+03         0.00000E+00
    0.00000E+00         0.00000E+00        -0.19565E+03
 
   -0.77184E+03         0.19041E+02         0.00000E+00
    0.19041E+02         0.17250E+03         0.00000E+00
    0.00000E+00         0.00000E+00        -0.17980E+03
 
   -0.66964E+03         0.22580E+02         0.00000E+00
    0.22580E+02         0.13079E+03         0.00000E+00
    0.00000E+00         0.00000E+00        -0.16166E+03
 
   -0.55322E+03         0.25770E+02         0.00000E+00
    0.25770E+02         0.82331E+02         0.00000E+00
    0.00000E+00         0.00000E+00        -0.14127E+03
 
   -0.42370E+03         0.28503E+02         0.00000E+00
    0.28503E+02         0.27931E+02         0.00000E+00
    0.00000E+00         0.00000E+00        -0.11873E+03
 
   -0.28260E+03         0.30669E+02         0.00000E+00
    0.30669E+02        -0.31389E+02         0.00000E+00
    0.00000E+00         0.00000E+00        -0.94196E+02
 
   -0.13182E+03         0.32158E+02         0.00000E+00
    0.32158E+02        -0.94383E+02         0.00000E+00
    0.00000E+00         0.00000E+00        -0.67860E+02
 
SCALARS stresss double 
LOOKUP_TABLE default
  -73065.3235689566     
  -56799.6379260710     
  -44044.9589065964     
  -35254.7482806801     
  -29142.5553799973     
  -24756.7235034935     
  -21519.2330533644     
  -19071.7729868367     
  -17186.7471157128     
  -15714.8227268799     
  -14555.1396015016     
  -13637.8276080293     
  -12913.4708648558     
  -12346.5666673646     
  -11911.3567745178     
  -11589.1101419283     
  -11366.3210746727     
  -11233.5027364797     
  -11184.3809430418     
  -11215.3677606787     
  -11325.2405538408     
  -11514.9819494373     
  -11787.7567445692     
  -12149.0173716040     
  -71021.9224136750     
  -51280.4629758976     
  -40161.7113569262     
  -32800.6841652527     
  -27547.6109647607     
  -23686.3837838671     
  -20774.9482303526     
  -18537.0998153021     
  -16791.0211712613     
  -15413.8153677381     
  -14320.2554348733     
  -13450.0089041164     
  -12759.6427783126     
  -12217.5033022009     
  -11800.3611938734     
  -11491.1737067888     
  -11277.5718172706     
  -11150.8314562247     
  -11105.1778757518     
  -11137.3278858109     
  -11246.2101606310     
  -11432.8274144050     
  -11700.2409580698     
  -12053.6711271561     
  -53304.7350831746     
  -39785.4484420192     
  -33263.0880348073     
  -28402.0933308349     
  -24662.9921911420     
  -21721.1487470070     
  -19390.8110690673     
  -17531.7468839692     
  -16040.1043805852     
  -14838.2791813813     
  -13868.2974403656     
  -13086.6888190783     
  -12460.7391512909     
  -11965.7692319342     
  -11583.1773294040     
  -11299.0352774929     
  -11103.0849557915     
  -10988.0260635114     
  -10949.0192142390     
  -10983.3523988958     
  -11090.2362942780     
  -11270.7068030702     
  -11527.6232211562     
  -11865.7587945271     
  -20603.6618314951     
  -25908.4896556783     
  -24837.2352669914     
  -22989.5501110135     
  -21002.9387280024     
  -19163.4472465963     
  -17548.7119907424     
  -16169.0525709760     
  -15006.8077980363     
  -14036.3929434296     
  -13232.0359177578     
  -12570.7527689267     
  -12033.1613335226     
  -11603.4340530010     
  -11268.9423993954     
  -11019.8352819457     
  -10848.6492463640     
  -10749.9852428580     
  -10720.2598882585     
  -10757.5289796289     
  -10861.3783372834     
  -11032.8777030301     
  -11274.5955268844     
  -11590.6752593467     
  -2649.44264166311     
  -13723.6674001356     
  -16971.5723260165     
  -17555.6814988578     
  -17147.9578662887     
  -16358.9081518383     
  -15464.0722428659     
  -14587.1159074991     
  -13782.2195206529     
  -13069.7956428420     
  -12454.2158323148     
  -11932.5534928177     
  -11498.9794767519     
  -11146.9464543253     
  -10870.2494142807     
  -10663.5132805290     
  -10522.3935686708     
  -10443.6394200266     
  -10425.0976072423     
  -10465.6990391819     
  -10565.4498508814     
  -10725.4390287033     
  -10947.8693273572     
  -11236.1156248628     
  -45.1510962030907     
  -6559.80676966542     
  -10938.8167917723     
  -12881.6545929680     
  -13570.2758081985     
  -13613.9216663537     
  -13338.9243996365     
  -12922.2103175818     
  -12459.9697931738     
  -12004.0525821117     
  -11581.6245312323     
  -11206.1307136694     
  -10883.4659230898     
  -10615.4862095480     
  -10402.0179778679     
  -10242.0116826310     
  -10134.2052300821     
  -10077.5059387115     
  -10071.2116731963     
  -10115.1413995737     
  -10209.7162503903     
  -10356.0150020018     
  -10555.8173992783     
  -10811.6419248865     
   1364.68215098991     
  -3402.08628739390     
  -6962.62453642137     
  -9280.89140362082     
  -10543.1652082851     
  -11137.1152142400     
  -11328.0166706123     
  -11287.5456164954     
  -11122.8704108446     
  -10900.0727375885     
  -10659.4941775128     
  -10425.4970622195     
  -10212.5871019081     
  -10029.2376959870     
  -9880.27981993585     
  -9768.39890885362     
  -9695.07556392285     
  -9661.17885622420     
  -9667.34169245550     
  -9714.19849815373     
  -9802.53470446453     
  -9933.37791441671     
  -10108.0476245142     
  -10328.1710573232     
   1956.43672721974     
  -1576.90611534892     
  -4511.91755925417     
  -6677.65036060002     
  -8134.44868228130     
  -9026.66860856374     
  -9524.82398674137     
  -9762.17016195139     
  -9834.59968915234     
  -9808.11793098903     
  -9727.23649073858     
  -9621.60960415688     
  -9510.84311379785     
  -9407.83348709690     
  -9321.04058671533     
  -9256.01923336916     
  -9216.44602377947     
  -9204.80534829900     
  -9222.84534229771     
  -9271.87721048332     
  -9352.96562798759     
  -9467.04003865921     
  -9614.94380984359     
  -9797.42825097925     
   2267.95468545486     
  -493.523878467987     
  -2899.38228696416     
  -4833.59063354252     
  -6278.02204547540     
  -7292.90029928611     
  -7966.95391990382     
  -8390.18204563531     
  -8637.12836087092     
  -8765.02302522832     
  -8816.00047359056     
  -8820.38428884794     
  -8799.70800599258     
  -8769.14482052088     
  -8739.34141947840     
  -8717.75640530766     
  -8709.61740767804     
  -8718.59531119544     
  -8747.27174352094     
  -8797.45527148958     
  -8870.38475713114     
  -8966.84490127880     
  -9087.20828731431     
  -9231.40920521426     
   2415.85239347901     
   191.887612520584     
  -1811.36675324446     
  -3506.02227898161     
  -4862.05802783466     
  -5895.79631864207     
  -6652.53975731952     
  -7187.20036716692     
  -7552.73313440892     
  -7794.28437377200     
  -7948.01058389940     
  -8041.81589761595     
  -8096.75778915736     
  -8128.50140508957     
  -8148.58959119076     
  -8165.46661100101     
  -8185.26630120183     
  -8212.39966853084     
  -8249.98016482253     
  -8300.11977455892     
  -8364.12136917628     
  -8442.58483678258     
  -8535.43699005023     
  -8641.88815531093     
   2468.74266581996     
   632.975181144941     
  -1056.88451940780     
  -2537.72706764584     
  -3778.53479152930     
  -4778.48138906992     
  -5558.15040914585     
  -6149.71784860651     
  -6588.54806021832     
  -6908.06673213323     
  -7137.26279281812     
  -7300.02945182490     
  -7415.42766900843     
  -7498.33342030272     
  -7560.17216179883     
  -7609.60195539270     
  -7653.09119554579     
  -7695.37898130334     
  -7739.82446316057     
  -7788.65746413019     
  -7843.14258639600     
  -7903.66612444460     
  -7969.75096838726     
  -8039.99993603010     
   2459.69726151022     
   916.691598457240     
  -526.029431425259     
  -1822.12592224216     
  -2944.54901721831     
  -3885.46209953259     
  -4652.58708341435     
  -5263.74770115444     
  -5741.67952295988     
  -6110.04798210628     
  -6391.00207978383     
  -6603.96236703161     
  -6765.24685309114     
  -6888.16363992804     
  -6983.32243252767     
  -7059.01585360299     
  -7121.59058735359     
  -7175.77008010194     
  -7224.91369976678     
  -7271.20880724297     
  -7315.79692738921     
  -7358.83608724157     
  -7399.50013060142     
  -7435.91335371727     
   2408.65654808275     
   1093.64347827036     
  -150.213807395749     
  -1288.41935844106     
  -2298.38628749290     
  -3170.12478175807     
  -3904.65297905481     
  -4511.11621137009     
  -5003.57943161695     
  -5398.25089068072     
  -5711.45220897206     
  -5958.36104533669     
  -6152.36681810410     
  -6304.84545033241     
  -6425.18231268706     
  -6520.92113795212     
  -6597.95990866348     
  -6660.74680831172     
  -6712.45034049562     
  -6755.09033153970     
  -6789.62336954474     
  -6815.97934896861     
  -6833.04659785417     
  -6838.60248489260     
   2328.17254572471     
   1195.66841324128     
   114.790534014953     
  -888.275020131297     
  -1794.98573540945     
  -2595.20915741737     
  -3286.62562019086     
  -3873.18835056165     
  -4363.18882787483     
  -4767.37856914490     
  -5097.43060713129     
  -5364.83676103590     
  -5580.21520108762     
  -5752.94017127637     
  -5890.99487426006     
  -6000.96159812778     
  -6088.08477333648     
  -6156.36282702121     
  -6208.64039658894     
  -6246.68335258468     
  -6271.22600584527     
  -6281.98388443860     
  -6277.62749029054     
  -6255.71321329023     
   2226.77884964560     
   1243.74141928742     
   298.720612996657     
  -588.024164502933     
  -1401.29042928046     
  -2131.61939001716     
  -2775.13298963789     
  -3332.72519075913     
  -3808.89575760149     
  -4210.50658372994     
  -4545.66180593242     
  -4822.81831792688     
  -5050.15086895011     
  -5235.14481892762     
  -5384.36632563570     
  -5503.35668399906     
  -5596.60453077763     
  -5667.56004240441     
  -5718.66523038991     
  -5751.38249638952     
  -5766.20947716771     
  -5762.67217719892     
  -5739.29091979745     
  -5693.51522961931     
   2110.57854834579     
   1252.30623081270     
   422.237632947881     
  -363.651519078214     
  -1092.83016366600     
  -1756.77270969112     
  -2350.98455391606     
  -2874.58567015506     
  -3329.60975837135     
  -3720.18644218292     
  -4051.74464702850     
  -4330.32567022770     
  -4562.04545222083     
  -4752.70797451736     
  -4907.54953104977     
  -5031.08431915196     
  -5127.02117315162     
  -5198.22507892897     
  -5246.70246426783     
  -5273.59449315692     
  -5279.16699099728     
  -5262.78903571234     
  -5222.89479894233     
  -5156.92517291522     
   1984.13490636867     
   1231.67306948907     
   500.132874156562     
  -197.653065443543     
  -851.261669993752     
  -1453.12094012976     
  -1998.60709041724     
  -2485.83983426522     
  -2915.26139385910     
  -3289.10002637850     
  -3610.80940400592     
  -3884.55107776871     
  -4114.75870345832     
  -4305.79773520365     
  -4461.71656038934     
  -4586.07503761679     
  -4681.83250569097     
  -4751.27743298091     
  -4795.98306862709     
  -4816.77642309746     
  -4813.71088619327     
  -4786.03545189898     
  -4732.15579995190     
  -4649.58448290253     
   1850.97751256486     
   1189.43241117242     
   543.272687068207     
  -77.0095321544765     
  -662.650098872028     
  -1206.95423461327     
  -1705.41242904866     
  -2155.60880410555     
  -2556.96880219238     
  -2910.40674311774     
  -3217.93296465725     
  -3482.26906969028     
  -3706.50386372787     
  -3893.80665480464     
  -4047.20175616790     
  -4169.39939209395     
  -4262.67352999292     
  -4328.77551387356     
  -4368.87269076744     
  -4383.50260494603     
  -4372.53516788452     
  -4335.13714417315     
  -4269.73518153465     
  -4173.97545675009     
   1713.90649349873     
   1131.31778523586     
   559.821874483008     
   8.14193387250392     
  -516.267344669011     
  -1007.48156781872     
  -1461.21823478251     
  -1874.80447522240     
  -2247.02650228707     
  -2577.89729039439     
  -2868.38124805443     
  -3120.11004250220     
  -3335.11510329971     
  -3515.59255779609     
  -3663.70754642922     
  -3781.43816912114     
  -3870.45499703552     
  -3932.02986822252     
  -3966.96704788458     
  -3975.55023571714     
  -3957.49990925240     
  -3911.93681190082     
  -3837.34887046245     
  -3731.56040932775     
   1575.18184687524     
   1061.75171551882     
   556.034719673577     
   65.3967427126772     
  -403.748120497300     
  -846.137732090336     
  -1257.76038201314     
  -1635.85257833571     
  -1978.80998656924     
  -2286.03358619102     
  -2557.73618011906     
  -2794.73296478861     
  -2998.23540741871     
  -3169.66183759934     
  -3310.47234335251     
  -3422.03067900761     
  -3505.49235347209     
  -3561.71589443971     
  -3591.19327301581     
  -3593.99533672375     
  -3569.72856250720     
  -3517.50029243934     
  -3435.89071637286     
  -3322.93114996744     
   1436.64597783003     
   984.201833769910     
   536.780158002046     
   100.689173803913     
  -318.491754784589     
  -716.065145387648     
  -1088.29852829492     
  -1432.43640574149     
  -1746.64835550377     
  -2029.92664253291     
  -2281.94964536344     
  -2502.92744108964     
  -2693.44374681402     
  -2854.30503038138     
  -2986.40386919006     
  -3090.60022039349     
  -3167.62155593449     
  -3217.98094931725     
  -3241.91114075762     
  -3239.31222367413     
  -3209.71073189898     
  -3152.22842221723     
  -3065.55983455768     
  -2947.95870462630     
   1299.80616122958     
   901.419974682710     
   505.898884962716     
   118.713664438381     
  -255.233579006721     
  -611.726611317600     
  -947.303566431468     
  -1259.27461703932     
  -1545.69253002055     
  -1805.28419889493     
  -2037.35375570195     
  -2241.66850176658     
  -2418.33800600570     
  -2567.69482984374     
  -2690.18300370043     
  -2786.25806427271     
  -2856.30047914114     
  -2900.54279769824     
  -2919.00991442485     
  -2911.47137194977     
  -2877.40458840308     
  -2815.96817964357     
  -2725.98508540183     
  -2605.93593960536     
   1165.89246608331     
   815.607191741834     
   466.451747920973     
   123.222792247991     
  -209.734192069091     
  -528.615003396983     
  -830.212416147750     
  -1111.93521643226     
  -1371.79230431894     
  -1608.34675228025     
  -1820.64673496309     
  -2008.14106426121     
  -2170.58682902092     
  -2307.95564278744     
  -2420.34358516813     
  -2507.88839378147     
  -2570.69606138415     
  -2608.77786431325     
  -2621.99806013297     
  -2610.03204975518     
  -2572.33467039599     
  -2508.11842145160     
  -2416.34177323099     
  -2295.70821944110     
   1035.90037356404     
   728.530802473706     
   420.896315832792     
   117.241717488324     
  -178.551417589524     
  -463.034390084294     
  -733.236398179747     
  -986.682853504647     
  -1221.38764821643     
  -1435.82231346934     
  -1628.86659744098     
  -1799.74580035861     
  -1947.96029295201     
  -2073.21217142964     
  -2175.33317159376     
  -2254.21698174975     
  -2309.75812935482     
  -2341.79879033185     
  -2350.08425126261     
  -2334.22736824800     
  -2293.68220581784     
  -2227.72707964603     
  -2135.45743321449     
  -2015.78931225534     
   910.623686363308     
   641.609723692185     
   371.215094107583     
   103.225138198553     
  -158.870848407901     
  -411.933846835911     
  -653.211500622441     
  -880.354852795571     
  -1091.41553750830     
  -1284.82518084735     
  -1459.35999077378     
  -1614.09423793824     
  -1748.34656059049     
  -1861.62285068034     
  -1953.55901695996     
  -2023.86630698083     
  -2072.28122273478     
  -2098.52147664485     
  -2102.24896603109     
  -2083.04042541347     
  -2040.36625320078     
  -1973.57799125867     
  -1881.90504003355     
  -1764.46138853859     
   790.681164190514     
   555.978438817660     
   319.010608275827     
   83.1741033402690     
  -148.378324852549     
  -372.780247586176     
  -587.481101617909     
  -790.261131165903     
  -979.231565921480     
  -1152.82107130368     
  -1309.75044472014     
  -1448.99814277172     
  -1569.75950241710     
  -1671.40250509702     
  -1753.42269865530     
  -1815.39952225230     
  -1856.95585607939     
  -1877.72220853942     
  -1877.30660748741     
  -1855.27100790473     
  -1811.11487686929     
  -1744.26656433737     
  -1654.08310066961     
  -1539.85915650608     
   676.539005062075     
   472.536291133718     
   265.577406816789     
   58.7244019084961     
  -145.162735611356     
  -343.460031487718     
  -533.803734185157     
  -714.103562395319     
  -882.544720674993     
  -1037.57928748389     
  -1177.90829420778     
  -1302.45631615122     
  -1410.34067271131     
  -1500.83740226106     
  -1573.34607905778     
  -1627.35532811031     
  -1662.41062435667     
  -1678.08568336395     
  -1673.95849953443     
  -1649.59288885830     
  -1604.52625812012     
  -1538.26425135440     
  -1450.28290810277     
  -1340.03898990788     
   568.530478639910     
   391.986499962585     
   211.957720997211     
   31.2145514840482     
  -147.640970456915     
  -322.202631987234     
  -490.280152613119     
  -649.910974343074     
  -799.363441726305     
  -937.131719618023     
  -1061.92333982096     
  -1172.64067331312     
  -1268.35787670171     
  -1348.29496601654     
  -1411.79065099460     
  -1458.27545170702     
  -1487.24645311242     
  -1498.24486588830     
  -1490.83738139675     
  -1464.60215418600     
  -1419.12012732772     
  -1353.97233590914     
  -1268.74377634092     
  -1163.03440155213     
   466.873509848440     
   314.867824189765     
   158.985360790160     
   1.73894763064246     
  -154.499222864796     
  -307.520205069076     
  -455.295290736065     
  -595.986618337228     
  -727.951127576261     
  -849.738057612161     
  -960.080600646914     
  -1057.88264612640     
  -1142.20176993311     
  -1212.22973763152     
  -1267.27181316973     
  -1306.72611453588     
  -1330.06415937565     
  -1336.81361977882     
  -1326.54417623259     
  -1298.85724071991     
  -1253.38021655211     
  -1189.76587994746     
  -1107.69740195213     
  -1006.89947025257     
   371.686692895793     
   241.580839342734     
   107.320997034400     
  -28.8099276422125     
  -164.646486821917     
  -298.159706991205     
  -427.471738219086     
  -550.865548916782     
  -666.789430850432     
  -773.856428397479     
  -870.839120347307     
  -956.660438721302     
  -1030.38139412168     
  -1091.18668812756     
  -1138.36923595126     
  -1171.31460877267     
  -1189.48634996802     
  -1192.41303846592     
  -1179.67787963056     
  -1150.91151006525     
  -1105.78861407573     
  -1044.02886830497     
  -965.402654993525     
  -869.741907282680     
   283.004017946878     
   172.410163461588     
   57.4810213978519     
  -59.7074775539899     
  -177.177246723690     
  -293.064399422033     
  -405.632157694458     
  -513.279865614108     
  -614.547915649242     
  -708.118656126572     
  -792.813587164827     
  -867.587354137927     
  -931.519200859559     
  -983.802645233724     
  -1023.73419013261     
  -1050.70188836891     
  -1064.17455219450     
  -1063.69234504124     
  -1048.85942575824     
  -1019.33924098240     
  -974.852984364768     
  -915.181663934540     
  -840.172139588283     
  -749.747407391924     
   200.788471816217     
   107.543547819298     
   9.86152519427307     
  -90.3691680437900     
  -191.341176097692     
  -291.342609853441     
  -388.768674599632     
  -482.130193883471     
  -570.058880412256     
  -651.309398450304     
  -724.758444629639     
  -789.401232227247     
  -844.345888859700     
  -888.806364954061     
  -922.094500290128     
  -943.611911777845     
  -952.842353046944     
  -949.345161954028     
  -932.750362133396     
  -902.755924499777     
  -859.127627676218     
  -801.701884111011     
  -730.391820466747     
  -645.196814054329     
   124.944602728343     
   47.0884683623884     
  -35.2415076452996     
  -120.327485902519     
  -206.518243466872     
  -292.242124950211     
  -376.017735716490     
  -456.462127276172     
  -532.296363363726     
  -602.348500069770     
  -665.554152657760     
  -720.954945285237     
  -767.695240588546     
  -805.017619950665     
  -832.257631225699     
  -848.838340191003     
  -854.265218220967     
  -848.121875699603     
  -830.067112676018     
  -799.833708798797     
  -757.229316150059     
  -702.139752396001     
  -634.534917415768     
  -554.477472706845     
   55.3300996614259     
  -8.91333421956329     
  -77.6150060768360     
  -149.212639132697     
  -222.198042259681     
  -295.128999377966     
  -366.639285781686     
  -435.446628982856     
  -500.358534033745     
  -560.276002136261     
  -614.195277751271     
  -661.207855760019     
  -700.499060758929     
  -731.345571685412     
  -753.112305175149     
  -765.249090646876     
  -767.287570738676     
  -758.838744800187     
  -739.591543323319     
  -709.312779858598     
  -667.848775886302     
  -615.128894226997     
  -551.171147925735     
  -476.089973362228     
  -8.23358264719782     
  -60.4730441877572     
  -117.114042752716     
  -176.736235610592     
  -237.962464491985     
  -299.469862158602     
  -359.999380579259     
  -418.363609725489     
  -473.452832152489     
  -524.239340608810     
  -569.780127324596     
  -609.218128564781     
  -641.782271930886     
  -666.786623637311     
  -683.628966934475     
  -691.789160671492     
  -690.827629376093     
  -680.384324525647     
  -660.178472516854     
  -630.009389782841     
  -589.758600805903     
  -539.393441205915     
  -478.972265896642     
  -408.651311285798     
  -65.9515290703697     
  -107.643453507515     
  -153.649066878355     
  -202.677372291459     
  -253.471058376676     
  -304.817025108937     
  -355.555559894325     
  -404.588071441971     
  -450.883345962406     
  -493.482352383137     
  -531.501685654422     
  -564.135795411199     
  -590.658197639465     
  -610.421906934040     
  -622.859354829034     
  -627.482074885183     
  -623.880437857663     
  -611.723711014430     
  -590.760695489304     
  -560.821165455827     
  -521.818293792895     
  -473.752201439825     
  -416.714712193798     
  -350.895331453152     
  -118.046575855715     
  -150.508958065873     
  -187.174821407723     
  -226.870708315022     
  -268.448571414422     
  -310.795863895168     
  -352.844460010618     
  -393.578341490695     
  -432.040028677312     
  -467.335782494470     
  -498.639651275851     
  -525.196481616676     
  -546.324051933164     
  -561.414519111038     
  -569.935391039074     
  -571.430250181761     
  -565.519455464234     
  -551.901041883057     
  -530.352019956206     
  -500.730251045988     
  -462.977040387407     
  -417.120547909169     
  -363.280068118909     
  -301.671174847035     
  -164.751401108946     
  -189.176726281999     
  -217.680701684302     
  -249.196197561190     
  -282.674299367278     
  -317.094066534397     
  -351.471264767272     
  -384.866027863537     
  -416.389437867515     
  -445.209048599232     
  -470.553414516632     
  -491.715721885030     
  -508.056650089706     
  -519.006615834620     
  -524.067570633170     
  -522.814531630441     
  -514.897027066148     
  -500.040630618688     
  -478.048743743836     
  -448.804762370042     
  -412.274734438530     
  -368.510578300139     
  -317.653889424395     
  -259.940314792280     
  -206.301461206094     
  -223.768925253606     
  -245.182366121332     
  -269.570230756317     
  -295.972949549565     
  -323.452437635086     
  -351.100685420865     
  -378.047408360697     
  -403.466751327885     
  -426.583070943525     
  -446.675847793047     
  -463.083807655505     
  -475.208354898941     
  -482.516440597653     
  -484.543001598347     
  -480.893113967785     
  -471.244004605315     
  -455.347058202487     
  -433.029943310393     
  -404.198961327463     
  -368.841696148540     
  -327.030010497680     
  -278.923398144311     
  -224.772659902940     
  -242.928735260966     
  -254.415907772697     
  -269.714448214190     
  -287.937992093217     
  -308.206792504931     
  -329.657017246535     
  -351.449229422116     
  -372.776030856232     
  -392.868867553656     
  -411.004018312258     
  -426.507809877207     
  -438.761123200750     
  -447.203274053525     
  -451.335366238652     
  -450.723226061512     
  -445.000031853278     
  -433.868751846912     
  -417.104497412283     
  -394.556886623916     
  -366.152495573576     
  -331.897452089371     
  -291.880199027377     
  -246.274422604069     
  -195.342105992812     
  -274.856235598045     
  -281.250276630389     
  -291.324247655306     
  -304.266876151472     
  -319.268925453561     
  -335.532326755125     
  -352.278571836091     
  -368.756351662338     
  -384.248441981613     
  -398.077854377140     
  -409.613288781484     
  -418.273940035179     
  -423.533725610388     
  -424.925013161432     
  -422.041934345377     
  -414.543374815745     
  -402.155729075605     
  -384.675502824094     
  -361.971834558761     
  -333.988992672876     
  -300.748884411521     
  -262.353589239356     
  -218.987901957328     
  -170.921840936909     
  -302.293239399877     
  -304.401752591680     
  -310.066299775895     
  -318.540841717768     
  -329.077508303254     
  -340.935595174601     
  -353.389884413685     
  -365.738277753044     
  -377.308743926643     
  -387.465595772197     
  -395.615126693424     
  -401.210649191458     
  -403.756989529262     
  -402.814501444594     
  -398.002667550544     
  -389.003359186226     
  -375.563823696288     
  -357.499462279382     
  -334.696451658539     
  -307.114249036505     
  -274.788002380304     
  -237.830867425455     
  -196.436209412270     
  -150.879642094603     
  -325.431195531529     
  -323.992780580252     
  -325.997739207457     
  -330.755602794942     
  -337.570861743218     
  -345.751850669945     
  -354.619009241746     
  -363.512508739649     
  -371.799245554468     
  -378.879214370307     
  -384.191285164641     
  -387.218418644113     
  -387.492363680522     
  -384.597887107275     
  -378.176590376563     
  -367.930368671959     
  -353.624565862098     
  -335.090873045265     
  -312.230009381075     
  -285.014211571063     
  -253.489542992796     
  -217.778015486066     
  -178.079496622263     
  -134.673353559164     
  -344.440261034204     
  -340.134815839154     
  -339.174387102589     
  -340.914575722763     
  -344.703339337251     
  -349.889786649091     
  -355.832388737123     
  -361.906597975655     
  -367.511874844974     
  -372.078132718590     
  -375.071620164198     
  -376.000268859861     
  -374.418542378642     
  -369.931826351340     
  -362.200403466689     
  -350.943057093068     
  -335.940344794253     
  -317.037577566423     
  -294.147532264024     
  -267.252913543121     
  -236.408567979987     
  -201.743437177240     
  -163.462219113433     
  -121.846688292547     
  -359.466423850700     
  -352.925238677055     
  -349.647502564659     
  -349.025516399737     
  -350.441903333828     
  -353.278331066255     
  -356.923683251636     
  -360.781670561931     
  -364.277880592376     
  -366.866274365547     
  -368.035145269785     
  -367.312563446237     
  -364.271334491552     
  -358.533505479461     
  -349.774453387612     
  -337.726590785250     
  -322.182720920969     
  -302.999069075148     
  -280.098009239913     
  -253.470494996746     
  -223.178191119062     
  -189.355288277564     
  -152.209967712247     
  -112.025466394267     
  -370.629171851152     
  -362.444853205502     
  -357.461148855660     
  -355.097794158634     
  -354.763348386570     
  -355.863863066011     
  -357.811023057417     
  -360.029750543320     
  -361.965270090789     
  -363.089640680808     
  -362.907767744383     
  -360.962914470122     
  -356.841736603336     
  -350.178868316810     
  -340.661088216741     
  -328.031093935941     
  -312.090910919724     
  -292.704955875449     
  -269.802767975956     
  -243.381411418900     
  -213.507541584824     
  -180.319114139056     
  -144.026702411637     
  -104.914373777645     
  -378.019672982340     
  -368.755932403273     
  -362.650133988784     
  -359.140259672608     
  -357.652129467250     
  -357.608033782522     
  -358.434854013848     
  -359.571661194334     
  -360.476790098406     
  -360.634393394937     
  -359.560487014069     
  -356.808503521401     
  -351.974374686063     
  -344.701167301954     
  -334.683297428784     
  -321.670347371837     
  -305.470506797424     
  -285.953654346175     
  -263.054089007925     
  -236.772911501196     
  -207.180045190639     
  -174.415874002863     
  -138.692461777551     
  -100.294304011879     
  -381.699437161318     
  -371.900778992494     
  -365.238493805311     
  -361.159673899382     
  -359.098760648197     
  -358.486158769930     
  -358.756346572299     
  -359.355471739129     
  -359.748429629178     
  -359.425428021848     
  -357.908048532464     
  -354.754820263367     
  -349.566325379229     
  -341.989858933036     
  -331.723666195669     
  -318.520779781500     
  -302.192475906317     
  -282.611364130791     
  -259.714117986217     
  -233.503845091377     
  -204.052084982842     
  -171.500411217312     
  -136.061601770457     
  -98.0203288380302     
SCALARS 2waySource double 
LOOKUP_TABLE default
  2.475865754998753E-018
  2.017853465028873E-018
  2.036568261738762E-018
  0.000000000000000E+000
 -3.111316995593473E-018
  2.374363835820159E-018
 -1.677667789654753E-018
  1.650470432380640E-018
 -5.765965363166830E-020
 -1.560934722297385E-018
  9.238510121609609E-019
 -1.234070413092765E-018
  5.613067851180224E-019
  8.160965272830536E-019
 -2.632723027292395E-019
  7.296070468355510E-019
  2.050737267942814E-020
 -2.281899102140922E-019
 -1.538853483096117E-019
  6.743960975164646E-019
  1.849451699903410E-019
 -2.273736754432320E-020
 -1.136868377216159E-020
  0.000000000000000E+000
  8.607550276008362E-019
  3.679376575833609E-019
  0.000000000000000E+000
 -2.943235443323631E-018
  4.205826965500925E-019
  3.837077280654237E-019
 -2.246539397158206E-018
  1.973690986626324E-018
 -1.288086311765501E-018
 -2.852520385225872E-019
  2.534400246421175E-018
 -2.269948595677438E-019
  1.059736295123610E-018
 -7.570231135573516E-019
 -3.686952893343336E-019
  9.039997678245915E-019
 -5.759404079736254E-019
  4.464248967500573E-019
 -5.373743669273507E-019
  5.745266478795911E-019
  1.477928890381007E-019
  2.273736754432319E-020
  2.273736754432319E-020
  0.000000000000000E+000
 -1.908189198141662E-019
  1.010238989200546E-018
 -3.061382270775017E-018
 -3.464999846196718E-018
  3.592504072003064E-018
  2.719735727411334E-020
 -5.644116177736620E-019
  2.521809314246479E-019
 -2.002302103994475E-018
  2.474865296153233E-020
  2.619257257326953E-018
 -1.009043938554197E-019
 -2.614797267597164E-019
 -1.355103363752126E-018
 -1.101727381681126E-018
  8.640199666842816E-019
 -8.418801244631332E-019
  8.177289968247738E-019
  4.705760243884160E-019
  3.729365696164377E-019
  3.633604618137989E-020
  9.622569467794336E-020
 -8.485701090578183E-020
  0.000000000000000E+000
 -6.636249390674787E-019
  2.834008595331784E-019
 -1.546578411909347E-018
 -1.389806940391789E-018
  1.630998003919759E-018
 -3.200633996229024E-018
 -4.547473508864637E-020
 -1.311479807652884E-019
  5.607092597948478E-019
 -6.445899295019695E-019
  2.344178851930179E-018
 -1.448282828794316E-018
 -2.466273944564267E-019
  1.546140993013979E-018
  1.922326799082002E-019
  1.570889645975508E-018
  5.379718922505252E-020
  1.039506234911751E-019
  3.030919974417475E-019
  2.667559512603674E-019
 -4.242850545289087E-020
 -3.715228095224032E-020
 -2.801359204497377E-020
  0.000000000000000E+000
  2.178624094357842E-018
 -5.847588840252859E-020
  1.785262168104858E-018
 -7.333094048143670E-019
  2.109298957121412E-018
  1.308156265549560E-018
 -1.277533862764199E-018
  2.596871507901940E-019
  1.904401039386777E-019
 -6.622111789734440E-019
  3.027713638353908E-018
 -1.175493021282322E-019
  3.449229775714630E-019
 -1.869564554075498E-019
 -7.066080694555066E-020
  3.808802078773554E-019
 -1.879913996260968E-019
  1.114568428567207E-019
 -3.765803245753673E-019
  2.379261244445334E-019
 -3.621654111674503E-019
 -7.430456190448062E-020
  2.015900782631533E-019
  0.000000000000000E+000
  1.589545839665536E-018
 -2.029718170716277E-018
  1.415809247019550E-018
 -7.704616857666065E-019
  1.239944162916590E-018
  1.800333209855834E-018
 -1.729453693462596E-018
  1.166893254678340E-018
  6.341975869284660E-019
 -6.360487659178784E-019
 -8.953571008325808E-020
  1.323430314116367E-019
 -8.721237113730007E-019
  1.524715882155769E-019
 -3.205531404854196E-019
  2.196487466300007E-019
  3.790290288879489E-019
 -3.105982168072929E-019
 -3.562916613436257E-019
 -8.240830659320049E-020
  1.431141898606245E-019
 -1.447466594023453E-019
  2.076825375346644E-019
  4.242850545289090E-020
  1.302306454687170E-018
 -3.470729192224587E-019
  6.724648653131554E-019
 -7.785361289453806E-019
  9.490370840178712E-019
 -1.211333045548439E-018
 -2.186649748661644E-018
  2.157862822233844E-019
  1.469606436244595E-018
 -2.844358037517273E-019
  1.760251905307609E-019
 -8.956773136881845E-019
  7.852554150500090E-019
 -9.138688907266534E-021
 -7.318370417004482E-019
  2.312361398498478E-019
  6.471987402423500E-019
  1.711277819055982E-019
 -2.249249711306504E-019
 -4.019851058799583E-020
  1.591615728102625E-019
  2.068663027638039E-019
  1.963138537625027E-019
  1.136868377216159E-020
 -1.027478240384708E-018
  6.862694339872988E-019
 -6.304991546076182E-019
 -5.816247498597040E-019
  2.033959450998390E-018
 -1.105400438150000E-018
  2.306386145266730E-019
  2.712159409901576E-019
 -1.350803480450131E-018
  1.359563353481916E-018
 -1.097267391951337E-018
  1.997388992737469E-019
  5.487430506995111E-019
 -5.266032084783626E-019
  2.856308543980743E-019
 -3.250131302152099E-019
 -4.324474022375125E-020
  6.419225157417003E-019
 -5.986777755179482E-019
  5.016358460691450E-019
 -2.151887569002097E-019
 -1.788527107188302E-019
  6.598210776807449E-020
  9.399569981304829E-020
 -3.210261721520187E-021
 -3.172357146070645E-019
 -8.937460814848761E-019
  2.027050756956015E-019
  1.373868912165995E-018
  4.284462815971104E-019
 -6.224500872808177E-019
 -5.128151219035628E-019
 -5.467317652823021E-019
  1.077197438167285E-018
  5.543980910756515E-019
  1.293261032858242E-019
 -4.149569576838987E-019
 -2.480704560604045E-019
  1.319642155361492E-019
 -3.856604104627502E-020
 -5.873090917457878E-019
  2.176374612127913E-019
 -9.258193971901374E-020
  2.570197370299268E-019
  3.773965593462276E-019
  1.250555214937775E-019
  9.399569981304829E-020
  4.547473508864638E-020
  1.515186600399126E-019
  1.021908853939328E-018
 -7.458584884779031E-019
  5.130992338101777E-019
  8.731586555915503E-019
 -7.906116927645625E-019
  1.057994470858043E-018
 -2.845959101795283E-019
  6.297375971986773E-019
 -7.100545651607688E-019
 -2.063488306545304E-019
 -4.300787511388317E-019
  9.964723528197573E-019
 -2.334661347147426E-019
 -2.261493232869406E-019
  2.004750808307055E-019
  5.765965363166814E-020
  5.867916196365117E-019
  8.861012058855451E-020
 -2.204649814008605E-019
 -1.319056125162650E-020
  7.196521231574249E-020
  3.046229635755517E-021
  7.653455676937568E-020
  1.138508698073805E-019
  1.900433690733045E-020
  9.382617369416984E-020
 -7.103787036743340E-019
  1.155036400306850E-018
 -2.619171456550895E-020
  7.466893740037353E-019
 -4.543392335010321E-019
  1.061120753707701E-018
 -1.029463406703802E-018
  1.360160878805089E-019
  2.515248030815897E-019
 -3.698903399806820E-019
 -9.085691122782247E-019
  1.302013054574089E-018
  1.479022437619443E-019
 -5.156719436015748E-020
 -1.664490827281212E-020
 -1.060712636322274E-019
 -8.322454136406104E-021
 -2.424954688981664E-019
  2.110275298320069E-019
 -6.799339318528357E-021
  1.758064810830744E-019
 -1.669958563473371E-020
  2.862703691571816E-019
  5.445276983150391E-019
 -2.363156310352695E-019
  5.997527463434462E-019
 -2.267068220031644E-019
 -9.408532861152433E-019
  9.325951825608947E-020
  5.143382367214397E-019
 -2.929476658258772E-019
 -4.320099833421410E-019
 -2.132360745028856E-020
 -1.935663867883336E-019
 -2.350693027465219E-019
  2.247355631929060E-019
 -6.364275817933648E-020
  3.801440263203964E-019
  1.610928050135704E-019
  2.175281064889480E-019
  1.168424220812147E-019
 -5.309030917803523E-020
 -2.670547139219552E-019
 -9.968004169912910E-020
  2.578359718007873E-020
 -3.966869052468505E-019
  1.372016225823658E-019
 -2.431089856134377E-019
 -9.495497195170765E-020
 -2.485879281696782E-019
  1.697540484185131E-019
 -4.496751850785302E-019
 -3.897415843170480E-020
  7.408956773938123E-019
 -1.136868377216163E-020
  2.545710327173464E-019
  7.074086015945182E-020
 -5.242638588896242E-019
 -1.094162559295701E-019
  7.179396004018029E-019
 -5.624217825504689E-019
 -2.395585939862545E-019
  3.908351315554832E-020
 -8.028766645214870E-020
 -1.155087152010815E-019
  1.378379653599742E-019
  1.095256106534132E-019
  1.106406080858608E-019
  4.699784990652426E-020
 -2.411490740920434E-019
  4.297116417748447E-019
 -1.654025634826858E-019
  1.093689039451333E-019
  4.445410165311876E-019
 -4.125883065852166E-020
 -4.334383941911459E-019
  1.250008441318557E-019
  9.410505453689162E-020
 -6.821210263296999E-020
 -2.573184996915130E-019
  1.383554374692475E-019
  6.891097735859663E-019
 -3.580041840992468E-019
  2.114356472174372E-019
 -5.755322905881968E-019
  3.316230615959950E-019
  2.272643207193885E-019
 -1.746114304367252E-020
  1.148018351540635E-019
  1.959057363770720E-019
  3.190300256675414E-019
 -6.780398524753936E-020
  1.106406080858604E-019
 -2.915739323387928E-019
 -1.536329562179693E-019
  3.660310146844106E-019
 -8.754247514053458E-022
  5.466624371654138E-019
 -4.210494169554079E-019
  2.009779021850080E-019
 -2.994882690897681E-019
  3.805921703127762E-019
 -4.941296267035990E-019
 -5.010383207459709E-019
  5.601917876855751E-019
 -4.746278967327742E-019
 -9.551881463092602E-020
  1.989519660128280E-019
  3.170987934642337E-019
  5.826303925683096E-019
  1.795595907658473E-019
 -7.348832713362015E-020
 -2.508179230345731E-019
  2.192113277346279E-020
 -1.920432719704567E-019
  7.653455676937577E-020
  5.684341886080802E-021
 -4.604316927725460E-019
  2.171846731171774E-019
  8.093653398000564E-020
 -2.828869632994089E-021
  2.953402558859960E-020
 -2.108581351977374E-019
  3.839918399720427E-019
 -5.374690708962258E-019
  2.381233836981998E-020
 -2.874673826325109E-019
  5.943525163639837E-019
 -5.368783450120956E-020
  2.900107909139635E-019
  9.418589288238507E-019
  2.508179230345730E-019
 -1.448560141261886E-019
  9.029334183423313E-021
  4.907846344062585E-019
  7.805767158725367E-020
 -1.894051597201322E-019
 -8.730571521836324E-021
 -8.110390122300916E-020
 -6.557399038264457E-020
 -9.845568954283903E-021
  2.056419506075148E-019
  4.576349109849571E-020
 -4.911325803966522E-019
  6.196434303261067E-020
  1.620310824342644E-019
  4.330976420936269E-019
  9.369693715146123E-020
 -4.136925789206578E-019
  3.800346715965533E-019
  9.738071871734206E-020
  3.690819565257502E-020
  6.451728040701737E-019
  5.069120705697958E-019
 -1.215064705037204E-019
 -3.481586151449637E-019
  1.064793810176577E-019
  4.272726811447804E-020
 -2.728484105318786E-019
 -3.743503297104734E-019
  2.808721020066982E-019
  8.790324054153770E-020
 -1.207556381917902E-020
  1.159168325865114E-019
  6.668898781509213E-020
 -2.353900415405656E-019
  2.837069475722530E-020
 -3.652936568460883E-019
  3.251386559424683E-019
  3.299922919140357E-020
  1.477567880891083E-020
 -2.996176371170865E-019
 -1.330518742876358E-019
 -1.805559322863034E-035
  3.065463444629333E-019
  4.228712944348744E-019
  2.292502302846187E-019
 -2.316842838422283E-019
 -9.206446760974043E-020
  1.391570214851364E-019
  2.598765587279384E-020
 -3.753109682772821E-021
  1.885889249492710E-019
 -5.765965363166848E-020
 -1.019100365640243E-019
 -1.841289352194809E-019
  1.246474041083474E-019
 -7.764955420182307E-020
  4.242850545289078E-020
  2.233071523439019E-019
 -1.259664602335097E-019
 -3.972669060339715E-021
  2.398669383346389E-019
 -1.261486742783788E-019
  1.584273540822838E-019
  8.097453319569080E-020
  5.595249342455087E-020
 -2.238392752081446E-020
  1.100831093696367E-019
 -2.390411218769812E-019
 -1.710770302016399E-020
 -4.055195061150450E-019
  1.966672937860117E-019
 -2.245315045001915E-019
 -2.039801795558497E-020
  1.731136914708272E-019
  1.708436699989822E-019
  7.922734638162268E-020
  5.115907697472736E-020
 -1.842675914532665E-020
  1.206902357328596E-019
 -5.684341886080828E-021
 -4.242850545289109E-020
  2.030111637346737E-019
 -4.480153768558469E-020
 -5.273637844728145E-020
 -4.755260160619088E-020
 -1.178954167742551E-019
  2.486389428428563E-019
 -4.017117190703525E-020
 -1.977822912184585E-019
 -8.670622706620774E-020
  2.813202459990797E-019
  2.360495696031469E-019
 -1.857614047612014E-020
 -6.577804907535936E-020
  2.072744201492342E-019
 -3.973571584064397E-020
  1.753983636976454E-019
 -9.470396887200179E-023
  1.989519660128281E-020
  2.113409432485653E-019
  3.545644878330333E-019
  2.610716093742868E-019
 -2.284886728756806E-019
 -1.573396953307979E-020
  5.816247498597080E-020
  4.986735953052524E-020
  2.164604610409374E-020
 -1.530034481106012E-020
  1.387846634416562E-020
 -9.923549465318632E-020
  3.339917126946741E-020
  1.016412938576499E-019
  3.867539577011792E-020
 -1.180413983855255E-020
 -9.706194275227915E-020
 -5.663936016809284E-020
  8.125328255380260E-020
  9.815692688125114E-020
 -1.020594178948178E-019
  1.748955423433422E-019
  2.619171456550877E-020
  1.957016776843565E-019
  7.343364977169852E-020
 -4.263256414560598E-020
 -1.602765702427101E-019
  3.070638165722064E-020
  9.622569467794328E-020
 -2.141831141916050E-020
 -2.080613534101522E-021
 -1.004889510925043E-019
 -8.079781318393604E-020
  2.852373877676150E-020
  1.916120679135115E-020
 -7.598251921511391E-020
 -1.617076623659675E-020
 -2.230557416667500E-020
  1.946887095982669E-019
  1.526883348342820E-019
  9.348555308126030E-020
  1.757518037211532E-019
 -1.016112739024369E-019
 -1.502816199576324E-019
 -5.370248525618050E-020
  2.713252957140006E-019
 -4.699784990652403E-020
  6.141276331444143E-020
  4.070133194229807E-020
  2.994482424828178E-020
  2.522609846385496E-020
  1.441491340791705E-020
  7.008865747435582E-020
 -2.434053557610201E-021
  6.100464592901110E-020
  1.523114817877739E-021
 -1.724341501047705E-020
  5.742191229499763E-021
 -3.863012048367542E-022
  4.500701478940765E-020
 -1.256203455874857E-021
 -4.480984447756167E-021
 -1.196772676467691E-019
 -3.433378600141786E-019
  1.093322770577059E-020
 -1.966379922760687E-020
 -1.781658439752885E-019
  7.820705291804660E-020
  1.889023383658286E-019
  2.366070683193687E-019
  1.253142575484141E-019
  9.730066550344018E-020
  2.465073146355742E-019
  2.089469162979050E-019
  3.986108120726737E-019
  3.853108960972027E-019
  1.021140952567393E-019
  5.927747241841826E-020
 -6.648492912237656E-020
 -7.295816709835764E-021
 -2.989380957510317E-020
 -4.076101263008839E-020
 -8.373194548319111E-020
 -1.256241714519712E-019
  4.688215121968657E-021
 -2.415845301584359E-020
  2.933631085887928E-020
 -4.595754313947347E-020
  3.524838742989325E-020
  1.106259573308891E-020
  2.185137358940773E-019
 -1.540620683213668E-019
 -1.059292076789197E-019
 -2.858349130907919E-019
 -2.238392752081454E-020
 -2.070703614565193E-019
  1.892958049962894E-020
 -1.651993547198525E-019
  1.969113790856774E-020
 -1.023181539494541E-019
 -6.197026203066533E-020
 -1.761052437446619E-020
  2.443720237395538E-020
 -2.121425272644539E-020
  7.156442030779804E-021
  5.101286762543089E-020
  2.808710965288530E-020
  6.444639042596638E-020
 -7.108661558283929E-020
 -8.930967525808565E-021
 -5.062159156197857E-021
  2.006518008424601E-019
 -2.394219005814507E-019
  3.179404040870726E-020
 -2.776418269817033E-019
 -5.098235696297267E-020
  2.239266537995320E-019
  5.603450946743291E-020
  4.017317323738244E-019
  2.401634446869140E-019
  1.998155527681243E-019
  1.730116621244704E-019
 -3.583322482707767E-020
 -8.922229666669996E-020
 -8.805262187233095E-021
  5.247813309989001E-020
  2.519875978289418E-020
  1.164743313027345E-020
 -3.005185692050825E-020
  1.000544764406039E-020
  3.929756206442494E-020
  2.885179414049227E-020
  7.880055632984347E-020
  1.021190985826086E-019
 -1.701358085374748E-019
  2.171073011775284E-020
  9.056869147282386E-020
 -1.032764446736233E-019
  1.840269058731235E-019
  2.148153035732258E-019
  2.347578521589459E-019
 -1.708036433920334E-020
 -1.919485680015852E-019
 -1.603512609081074E-019
 -3.984507056448725E-021
  3.867539577011820E-020
  8.582262700743613E-020
 -6.173886465698942E-020
  3.674416356681015E-020
  4.291131350371808E-020
 -6.724648653131562E-021
 -9.376430243937173E-021
 -1.638666292542087E-020
 -4.304910219202494E-020
 -1.112653538170831E-019
 -4.075959421898027E-020
 -4.270091084800794E-021
 -4.514667091711650E-021
 -2.426048236220089E-020
  1.247367455287148E-020
  1.540054281304634E-020
 -1.967112460509238E-020
 -1.991013473436206E-019
 -1.655327814398845E-019
 -2.000943021262362E-019
 -3.068524325020047E-019
 -7.085021488329466E-020
 -1.952462083144907E-019
 -4.214975609477885E-020
  1.142336113408326E-021
 -8.739309380974935E-020
  1.018353458986268E-019
  5.618389079822652E-020
 -1.801864175989632E-021
  6.445899295019640E-021
 -1.948207588998390E-020
 -4.513813638711574E-020
  6.556532436803320E-020
  1.556669209573523E-020
  1.712681708702982E-020
 -2.491902901029148E-021
 -2.426548568806978E-020
  1.913090532424795E-019
 -1.403540349604662E-019
  5.185961305874990E-020
  3.956632120637539E-020
  1.556051964427207E-019
 -6.158948332619574E-020
  1.082812451936472E-019
  1.086620238981169E-019
  3.382656942062440E-019
  8.305514672979249E-020
  6.437697690731493E-020
 -9.460055051370876E-020
 -1.439104113280109E-019
 -1.189884380742477E-020
 -7.866984766539930E-021
 -3.390199262376996E-020
 -2.121425272644562E-020
  1.520698147931418E-020
 -1.505576880414924E-020
 -4.701417205400363E-020
  1.065551669665582E-020
  2.912666832739120E-020
 -3.610317668596768E-021
 -3.744469965083252E-020
 -1.113101428001794E-019
  5.283157312339898E-020
 -8.199482665926624E-020
 -1.799166934780989E-019
 -1.865083114151688E-020
  9.023526475278945E-020
 -9.607631334715016E-020
  3.951164384445373E-020
 -1.143937177686338E-019
 -9.362760903456843E-021
 -4.164693474047679E-020
 -2.253330885160806E-020
  1.585601218291270E-020
  8.328654410346802E-020
  3.892680644726921E-020
 -2.735406398239249E-020
  1.657021760741542E-020
  2.664535259100377E-020
 -7.838060094830403E-021
 -2.396746891707770E-020
 -1.380173185192723E-020
 -3.672082273387361E-020
  4.699168555484688E-020
 -2.993115490780133E-020
  6.915221139803417E-020
  3.474824734984277E-020
  3.729165563129622E-020
 -5.151617968697853E-020
  1.913730188108670E-020
  6.960584942352871E-020
  1.511178680319673E-019
  2.700535915732732E-019
 -1.861348580881854E-019
 -1.044734581489520E-019
 -4.275460679543863E-020
  1.803484868557471E-019
 -3.626135551598302E-020
 -6.724648653131530E-021
 -1.941238855045566E-021
  1.332725465643032E-021
 -7.384176715712866E-021
  1.444884140549549E-020
 -2.210084515539711E-020
 -7.408151628749556E-020
 -1.762344158725893E-020
 -3.501802840521431E-020
 -1.011052148243331E-019
  6.163366332913404E-020
  6.366643417155438E-020
  8.425216020512220E-020
  2.160933516769481E-019
 -6.636288647254363E-021
  1.029103167241250E-020
  2.048003399846735E-020
  2.408466487417141E-019
  1.100320946964578E-019
 -7.866984766539885E-021
  3.654010487409521E-020
 -2.319649960293226E-020
 -5.898505371982591E-020
  1.105522480799838E-019
  7.682697546796830E-020
  9.060335553126922E-021
  9.278867968598032E-020
  2.798991605275591E-020
 -8.298295772732924E-020
 -2.984700523241867E-020
  9.772040399860961E-020
 -3.192496375757173E-020
  1.152267938614719E-019
 -4.251778113095348E-020
  9.509702790501515E-020
 -5.895954638323631E-020
  1.293797992332542E-019
 -1.092322105403299E-020
  0.000000000000000E+000
 -5.595981880203655E-021
  1.078384637497709E-020
 -1.006329698747941E-020
 -9.149329955303650E-020
  1.650262973968408E-019
  1.718356433671065E-019
  2.259799286526719E-020
 -9.992144572454236E-020
 -9.613733467206631E-020
 -1.010064232017777E-020
 -5.181860503730876E-020
 -2.935998685109734E-020
  1.344929730626309E-020
  1.668579361744203E-020
  3.605511197709422E-020
  9.744836663392712E-020
 -4.839086504011500E-020
  3.000859258975515E-020
 -1.996579961299627E-020
  1.658388694789578E-020
  2.542649446782705E-020
 -2.639528255097883E-020
  1.230696119285477E-020
  6.422223302801596E-021
 -1.651920293423652E-020
  5.228872516214531E-021
  3.655377421457558E-020
  8.970510471752615E-020
  1.073939824461321E-019
  6.292855275483350E-021
 -2.108854738786972E-020
  7.054778953296480E-020
  3.234153247319357E-020
  3.562916613436251E-020
  0.000000000000000E+000
 -4.181999206348809E-020
 -2.296510222925615E-021
  3.016276476394754E-020
 -2.504434225507941E-020
  5.550053339741316E-020
  3.426318298970430E-020
  2.589721916892259E-020
  8.169532793681126E-020
 -6.065120590550262E-021
  1.910728192587320E-021
  2.753761866438683E-020
 -1.472727356545761E-019
 -8.536715763757014E-020
 -1.133944190230244E-019
  5.059791556976080E-020
 -8.221889865545628E-020
 -2.017394595939466E-020
 -2.030331398671294E-020
 -5.649998548903707E-020
  9.529474263473633E-021
  6.906202004778605E-020
  6.357539289142504E-021
  3.379996327741198E-020
 -2.438618770077660E-020
  1.932402854457880E-020
 -1.428054205473004E-020
 -3.121146357723121E-020
 -2.060125958957273E-021
 -4.593407962972547E-020
  9.140243788422511E-020
  1.418717872298415E-020
  5.968558980384884E-020
  3.229293610505033E-022
  5.456374995986001E-020
  9.420976515750145E-020
  1.353565598179291E-019
  1.497441345448841E-019
 -9.271032633184150E-020
  7.894323447500618E-021
  3.381363261789242E-020
 -9.271398902058477E-020
  1.365335599897827E-020
  2.905389881202455E-020
 -2.379134365185437E-020
  1.895691918058968E-020
  1.191251314790509E-020
 -6.001535383513922E-020
 -6.724648653131603E-021
  2.697511662229444E-020
  7.720775417243749E-021
 -1.053548018984119E-019
  5.402504658679668E-020
 -3.737147229937318E-020
  3.987924391568762E-021
 -8.552087197566865E-020
  9.141860888763913E-021
 -1.579682220236748E-020
 -4.694500388897353E-020
 -1.398312003026871E-020
  5.961407111994833E-020
  1.035388434170016E-020
  4.566512444088080E-020
 -9.198977694434336E-020
  4.376123091853366E-020
  1.038749514112871E-019
  7.451862724893274E-020
  3.697189825174298E-020
  7.970649174370625E-020
  3.574120213245767E-020
 -4.376123091853352E-020
  8.927331133987815E-020
 -2.391704899042974E-021
  2.687308727593669E-020
  6.204495269606142E-021
 -2.160619910846085E-020
 -4.248556180093577E-020
 -5.062183691560152E-020
 -1.870868048493593E-020
 -1.006267397808117E-019
  2.916861608437172E-021
  1.350714664968214E-020
 -8.538350825230374E-021
 -3.691588025269561E-020
 -1.713455099387954E-020
  3.565284212658052E-020
 -1.242802947443585E-019
  3.658111289553620E-020
 -2.727937331699588E-020
  7.189052165034606E-020
  3.433378600141793E-020
  1.753583370906953E-020
 -7.397846056193327E-021
 -2.796257737179528E-020
  4.887440474791062E-020
 -2.600449719477165E-020
  1.578998753212735E-020
  3.457519002683156E-021
  5.849223901726177E-021
 -2.004982661156777E-020
  1.499700378854473E-020
  3.836497472373939E-020
 -8.849558292752591E-020
  2.283597955556086E-020
  4.786643998768959E-020
  4.922284144555037E-020
 -7.374340049951413E-020
 -9.345919581479132E-021
 -3.482159737811399E-020
  3.825727173295048E-020
  8.396108214365657E-020
  2.749710135019127E-020
 -2.143014941526967E-020
 -7.985953576324325E-020
 -5.299828648341565E-020
 -1.560460150576152E-021
  1.718056234118935E-020
 -5.735356559259586E-021
 -4.947108014120425E-020
 -3.215797779119931E-020
  1.028920032804127E-020
 -2.441169503736610E-020
 -5.766782893903507E-021
 -1.887606416351557E-020
  6.824603063054743E-020
  2.885100114511752E-020
 -7.501144195149702E-020
  7.088072554575262E-020
 -6.452501760098156E-020
  3.237387448002324E-020
  1.246683988263130E-020
 -4.973799150320664E-021
 -8.297362139415441E-020
 -5.722419756527741E-020
 -8.405810816414394E-021
 -1.382324134049249E-020
 -7.486206062070402E-021
  5.737541024044191E-020
  3.327980989388666E-020
 -8.507473893897734E-020
 -1.038717794297903E-019
 -6.630820911062201E-020
  4.322923953889928E-020
  3.945379450103445E-020
  2.998216958097977E-020
  9.480961253229175E-021
 -1.037255700804933E-020
  1.167885946491744E-020
 -1.566928551942058E-020
 -5.166397502702374E-020
 -3.600311016859185E-020
  3.661845822823433E-020
 -6.071405857479005E-020
  6.993744479919062E-020
 -1.046775168416669E-020
  5.760863895849081E-021
  4.380541092147260E-020
 -6.466439228003751E-020
 -4.946460469359906E-021
  8.161721993629394E-020
  1.197706309785149E-019
 -6.751339789331843E-020
 -4.405181827275508E-020
  7.287481041834827E-020
  6.508935098744549E-020
  3.278016052108201E-020
  9.009320879948200E-022
 -3.171434641744185E-020
 -3.111425368902819E-020
 -1.495282378560605E-020
 -9.306742904409245E-021
  3.548979145530681E-020
  2.986146756827350E-020
  6.378213285839152E-020
  4.428138430205966E-021
 -4.687531654944632E-020
  3.579905147587670E-020
  1.213707585134066E-020
  7.650904943278653E-020
  4.480837235582485E-020
 -7.023486682365242E-020
  2.130944740256278E-020
 -6.505884032498775E-020
 -4.115362933066677E-020
  1.390659802050075E-020
 -2.318099891808038E-020
  3.536725809822852E-020
 -1.383007601073250E-020
  6.083793256899428E-021
  8.836000587714588E-023
 -2.798991605275598E-020
  8.312447484668479E-022
  1.333201262867650E-020
 -6.680468650192994E-021
 -3.576512347829836E-021
  1.433155672790868E-020
  5.257551834301122E-021
 -7.050678151152451E-020
  3.471188343163494E-021
  4.878604474203359E-021
  2.040851531456794E-020
 -5.048087624579710E-020
  1.907078652305611E-020
 -4.885573208156167E-020
 -1.883621716788291E-020
 -1.957727056610127E-020
  1.929400858936572E-021
  3.100380368168166E-020
 -1.619627357318627E-020
 -2.937365619157758E-020
  5.080831822547014E-021
  1.166610579662273E-020
 -8.164406791000963E-021
  6.738317993611988E-021
  8.754247514054406E-021
 -7.708021748949059E-021
 -1.560460150576161E-021
  1.079751571545739E-020
  3.089493966508421E-021
 -3.334449390754599E-020
 -1.912180119623483E-020
 -2.391021432018956E-020
  7.028905347832927E-021
 -1.040489901487910E-020
 -4.492223969829164E-020
  8.431318153003755E-021
  7.479371391830333E-021
  4.599855116091525E-021
  4.461798300359051E-020
 -6.357539289142507E-021
 -8.223757132180626E-020
 -2.879565346463335E-020
  4.452278832747265E-020
  2.069409934292017E-020
 -3.881293910480290E-020
 -1.393710868295887E-020
 -2.396806366360884E-020
 -1.706669499872274E-021
 -1.088679139352028E-020
 -6.629453977014264E-022
  7.330660379599712E-021
 -1.693915831577593E-021
 -2.593139252012360E-021
 -5.308566507480293E-021
 -1.008697297969723E-020
 -3.945330379378943E-021
  2.090316136150407E-020
  5.790239829420800E-020
 -1.826504911117867E-020
 -1.837208178340516E-020
  2.889084814075034E-020
 -1.754083703493825E-020
 -2.507122309994704E-020
  2.521059777900322E-020
  1.356999931896982E-020
 -6.180819277388192E-021
 -9.940763630401229E-021
  6.692306646301999E-021
 -2.221037949055747E-020
  2.637844122900089E-020
  1.461714075626084E-020
 -2.823498276691211E-021
 -2.927162684522008E-020
 -1.217442118403905E-020
 -1.920674386699186E-020
 -4.475735768264558E-021
 -4.028687059387288E-022
  3.058067631864537E-021
 -3.228551447414628E-020
  5.195114504612441E-020
 -8.138899454411558E-021
 -7.504878728419652E-021
 -3.738501896304188E-020
 -7.486206062070443E-021
  7.212460029827369E-021
  7.472536721590044E-021
  2.980361822485464E-020
 -7.402849382062088E-021
 -1.952125256705366E-020
 -7.999524775355614E-021
  9.599161603001542E-021
 -1.585967487165559E-021
  2.734906065652385E-020
  4.828080508269902E-022
 -6.420391958430290E-021
  7.600073404536996E-021
 -1.593619688142349E-020
  3.479609004152435E-021
  3.895231378385856E-021
  4.865850805908645E-021
 -1.681162163282882E-021
 -7.098958956235008E-020
 -5.055556691119331E-020
 -2.856608743532877E-020
  5.695045153303436E-020
 -6.916905272001193E-020
  1.317054794815116E-020
  1.148255111462816E-020
  3.070455031284925E-020
  4.321105757979572E-021
 -1.571346552235924E-020
 -2.149983675479751E-020
 -7.936672106067856E-021
  1.588518220824467E-020
  2.019945329598407E-020
 -1.582232953895692E-020
 -9.255728231230490E-021
  1.867266634919845E-023
 -3.552713678800529E-022
 -6.473908294543471E-021
  2.128210872160207E-021
 -5.442937860667310E-021
  3.067403965039105E-021
 -5.080038827172751E-021
 -2.176037128265334E-021
 -2.602316986112084E-020
  1.660255961424498E-020
 -6.049132721572546E-020
  7.703786883092283E-020
  1.154174109517327E-021
  2.505255043359808E-020
 -2.754628467899847E-020
  6.191741601311439E-020
  2.749527000581961E-020
  1.040306767050758E-021
 -6.297139212064559E-020
  1.887356250058112E-020
 -2.417712568219240E-020
  4.591836646240332E-020
  2.677288927395051E-021
  1.905711718257566E-020
 -5.182861168904579E-021
  4.504660439974010E-022
 -1.129557909751354E-020
  2.794573604981724E-021
 -4.570930444381943E-021
 -7.105427357601030E-022
 -1.574922486430874E-021
 -1.364151800286929E-022
 -5.996250781758907E-020
  5.448905929446293E-020
 -6.356123284369904E-020
 -8.271439463227261E-021
 -4.010014393038097E-021
  6.687303320433105E-021
 -4.456696833041110E-020
  4.191518673960575E-020
  2.396122899336830E-020
 -4.558860243111339E-020
  2.978494555850525E-020
 -1.591068954483395E-020
 -2.399357100019775E-020
  1.842993112682404E-020
  5.754029225608807E-021
  1.724341501047726E-020
 -5.456607201147599E-022
 -1.446592808109577E-021
 -3.695505692976517E-021
  4.263256414560574E-021
  2.036433531162942E-021
 -6.281017279374324E-022
 -3.378495329980550E-022
 -1.776356839400225E-022
SCALARS elementIsPlast double 
LOOKUP_TABLE default
  0.000000000000000E+000
  0.000000000000000E+000
  0.000000000000000E+000
  0.000000000000000E+000
  0.000000000000000E+000
  0.000000000000000E+000
  0.000000000000000E+000
  0.000000000000000E+000
  0.000000000000000E+000
  0.000000000000000E+000
  0.000000000000000E+000
  0.000000000000000E+000
  0.000000000000000E+000
  0.000000000000000E+000
  0.000000000000000E+000
  0.000000000000000E+000
  0.000000000000000E+000
  0.000000000000000E+000
  0.000000000000000E+000
  0.000000000000000E+000
  0.000000000000000E+000
  0.000000000000000E+000
  0.000000000000000E+000
  0.000000000000000E+000
  0.000000000000000E+000
  0.000000000000000E+000
  0.000000000000000E+000
  0.000000000000000E+000
  0.000000000000000E+000
  0.000000000000000E+000
  0.000000000000000E+000
  0.000000000000000E+000
  0.000000000000000E+000
  0.000000000000000E+000
  0.000000000000000E+000
  0.000000000000000E+000
  0.000000000000000E+000
  0.000000000000000E+000
  0.000000000000000E+000
  0.000000000000000E+000
  0.000000000000000E+000
  0.000000000000000E+000
  0.000000000000000E+000
  0.000000000000000E+000
  0.000000000000000E+000
  0.000000000000000E+000
  0.000000000000000E+000
  0.000000000000000E+000
  0.000000000000000E+000
  0.000000000000000E+000
  0.000000000000000E+000
  0.000000000000000E+000
  0.000000000000000E+000
  0.000000000000000E+000
  0.000000000000000E+000
  0.000000000000000E+000
  0.000000000000000E+000
  0.000000000000000E+000
  0.000000000000000E+000
  0.000000000000000E+000
  0.000000000000000E+000
  0.000000000000000E+000
  0.000000000000000E+000
  0.000000000000000E+000
  0.000000000000000E+000
  0.000000000000000E+000
  0.000000000000000E+000
  0.000000000000000E+000
  0.000000000000000E+000
  0.000000000000000E+000
  0.000000000000000E+000
  0.000000000000000E+000
  0.000000000000000E+000
  0.000000000000000E+000
  0.000000000000000E+000
  0.000000000000000E+000
  0.000000000000000E+000
  0.000000000000000E+000
  0.000000000000000E+000
  0.000000000000000E+000
  0.000000000000000E+000
  0.000000000000000E+000
  0.000000000000000E+000
  0.000000000000000E+000
  0.000000000000000E+000
  0.000000000000000E+000
  0.000000000000000E+000
  0.000000000000000E+000
  0.000000000000000E+000
  0.000000000000000E+000
  0.000000000000000E+000
  0.000000000000000E+000
  0.000000000000000E+000
  0.000000000000000E+000
  0.000000000000000E+000
  0.000000000000000E+000
  0.000000000000000E+000
  0.000000000000000E+000
  0.000000000000000E+000
  0.000000000000000E+000
  0.000000000000000E+000
  0.000000000000000E+000
  0.000000000000000E+000
  0.000000000000000E+000
  0.000000000000000E+000
  0.000000000000000E+000
  0.000000000000000E+000
  0.000000000000000E+000
  0.000000000000000E+000
  0.000000000000000E+000
  0.000000000000000E+000
  0.000000000000000E+000
  0.000000000000000E+000
  0.000000000000000E+000
  0.000000000000000E+000
  0.000000000000000E+000
  0.000000000000000E+000
  0.000000000000000E+000
  0.000000000000000E+000
  0.000000000000000E+000
  0.000000000000000E+000
  0.000000000000000E+000
  0.000000000000000E+000
  0.000000000000000E+000
  0.000000000000000E+000
  0.000000000000000E+000
  0.000000000000000E+000
  0.000000000000000E+000
  0.000000000000000E+000
  0.000000000000000E+000
  0.000000000000000E+000
  0.000000000000000E+000
  0.000000000000000E+000
  0.000000000000000E+000
  0.000000000000000E+000
  0.000000000000000E+000
  0.000000000000000E+000
  0.000000000000000E+000
  0.000000000000000E+000
  0.000000000000000E+000
  0.000000000000000E+000
  0.000000000000000E+000
  0.000000000000000E+000
  0.000000000000000E+000
  0.000000000000000E+000
  0.000000000000000E+000
  0.000000000000000E+000
  0.000000000000000E+000
  0.000000000000000E+000
  0.000000000000000E+000
  0.000000000000000E+000
  0.000000000000000E+000
  0.000000000000000E+000
  0.000000000000000E+000
  0.000000000000000E+000
  0.000000000000000E+000
  0.000000000000000E+000
  0.000000000000000E+000
  0.000000000000000E+000
  0.000000000000000E+000
  0.000000000000000E+000
  0.000000000000000E+000
  0.000000000000000E+000
  0.000000000000000E+000
  0.000000000000000E+000
  0.000000000000000E+000
  0.000000000000000E+000
  0.000000000000000E+000
  0.000000000000000E+000
  0.000000000000000E+000
  0.000000000000000E+000
  0.000000000000000E+000
  0.000000000000000E+000
  0.000000000000000E+000
  0.000000000000000E+000
  0.000000000000000E+000
  0.000000000000000E+000
  0.000000000000000E+000
  0.000000000000000E+000
  0.000000000000000E+000
  0.000000000000000E+000
  0.000000000000000E+000
  0.000000000000000E+000
  0.000000000000000E+000
  0.000000000000000E+000
  0.000000000000000E+000
  0.000000000000000E+000
  0.000000000000000E+000
  0.000000000000000E+000
  0.000000000000000E+000
  0.000000000000000E+000
  0.000000000000000E+000
  0.000000000000000E+000
  0.000000000000000E+000
  0.000000000000000E+000
  0.000000000000000E+000
  0.000000000000000E+000
  0.000000000000000E+000
  0.000000000000000E+000
  0.000000000000000E+000
  0.000000000000000E+000
  0.000000000000000E+000
  0.000000000000000E+000
  0.000000000000000E+000
  0.000000000000000E+000
  0.000000000000000E+000
  0.000000000000000E+000
  0.000000000000000E+000
  0.000000000000000E+000
  0.000000000000000E+000
  0.000000000000000E+000
  0.000000000000000E+000
  0.000000000000000E+000
  0.000000000000000E+000
  0.000000000000000E+000
  0.000000000000000E+000
  0.000000000000000E+000
  0.000000000000000E+000
  0.000000000000000E+000
  0.000000000000000E+000
  0.000000000000000E+000
  0.000000000000000E+000
  0.000000000000000E+000
  0.000000000000000E+000
  0.000000000000000E+000
  0.000000000000000E+000
  0.000000000000000E+000
  0.000000000000000E+000
  0.000000000000000E+000
  0.000000000000000E+000
  0.000000000000000E+000
  0.000000000000000E+000
  0.000000000000000E+000
  0.000000000000000E+000
  0.000000000000000E+000
  0.000000000000000E+000
  0.000000000000000E+000
  0.000000000000000E+000
  0.000000000000000E+000
  0.000000000000000E+000
  0.000000000000000E+000
  0.000000000000000E+000
  0.000000000000000E+000
  0.000000000000000E+000
  0.000000000000000E+000
  0.000000000000000E+000
  0.000000000000000E+000
  0.000000000000000E+000
  0.000000000000000E+000
  0.000000000000000E+000
  0.000000000000000E+000
  0.000000000000000E+000
  0.000000000000000E+000
  0.000000000000000E+000
  0.000000000000000E+000
  0.000000000000000E+000
  0.000000000000000E+000
  0.000000000000000E+000
  0.000000000000000E+000
  0.000000000000000E+000
  0.000000000000000E+000
  0.000000000000000E+000
  0.000000000000000E+000
  0.000000000000000E+000
  0.000000000000000E+000
  0.000000000000000E+000
  0.000000000000000E+000
  0.000000000000000E+000
  0.000000000000000E+000
  0.000000000000000E+000
  0.000000000000000E+000
  0.000000000000000E+000
  0.000000000000000E+000
  0.000000000000000E+000
  0.000000000000000E+000
  0.000000000000000E+000
  0.000000000000000E+000
  0.000000000000000E+000
  0.000000000000000E+000
  0.000000000000000E+000
  0.000000000000000E+000
  0.000000000000000E+000
  0.000000000000000E+000
  0.000000000000000E+000
  0.000000000000000E+000
  0.000000000000000E+000
  0.000000000000000E+000
  0.000000000000000E+000
  0.000000000000000E+000
  0.000000000000000E+000
  0.000000000000000E+000
  0.000000000000000E+000
  0.000000000000000E+000
  0.000000000000000E+000
  0.000000000000000E+000
  0.000000000000000E+000
  0.000000000000000E+000
  0.000000000000000E+000
  0.000000000000000E+000
  0.000000000000000E+000
  0.000000000000000E+000
  0.000000000000000E+000
  0.000000000000000E+000
  0.000000000000000E+000
  0.000000000000000E+000
  0.000000000000000E+000
  0.000000000000000E+000
  0.000000000000000E+000
  0.000000000000000E+000
  0.000000000000000E+000
  0.000000000000000E+000
  0.000000000000000E+000
  0.000000000000000E+000
  0.000000000000000E+000
  0.000000000000000E+000
  0.000000000000000E+000
  0.000000000000000E+000
  0.000000000000000E+000
  0.000000000000000E+000
  0.000000000000000E+000
  0.000000000000000E+000
  0.000000000000000E+000
  0.000000000000000E+000
  0.000000000000000E+000
  0.000000000000000E+000
  0.000000000000000E+000
  0.000000000000000E+000
  0.000000000000000E+000
  0.000000000000000E+000
  0.000000000000000E+000
  0.000000000000000E+000
  0.000000000000000E+000
  0.000000000000000E+000
  0.000000000000000E+000
  0.000000000000000E+000
  0.000000000000000E+000
  0.000000000000000E+000
  0.000000000000000E+000
  0.000000000000000E+000
  0.000000000000000E+000
  0.000000000000000E+000
  0.000000000000000E+000
  0.000000000000000E+000
  0.000000000000000E+000
  0.000000000000000E+000
  0.000000000000000E+000
  0.000000000000000E+000
  0.000000000000000E+000
  0.000000000000000E+000
  0.000000000000000E+000
  0.000000000000000E+000
  0.000000000000000E+000
  0.000000000000000E+000
  0.000000000000000E+000
  0.000000000000000E+000
  0.000000000000000E+000
  0.000000000000000E+000
  0.000000000000000E+000
  0.000000000000000E+000
  0.000000000000000E+000
  0.000000000000000E+000
  0.000000000000000E+000
  0.000000000000000E+000
  0.000000000000000E+000
  0.000000000000000E+000
  0.000000000000000E+000
  0.000000000000000E+000
  0.000000000000000E+000
  0.000000000000000E+000
  0.000000000000000E+000
  0.000000000000000E+000
  0.000000000000000E+000
  0.000000000000000E+000
  0.000000000000000E+000
  0.000000000000000E+000
  0.000000000000000E+000
  0.000000000000000E+000
  0.000000000000000E+000
  0.000000000000000E+000
  0.000000000000000E+000
  0.000000000000000E+000
  0.000000000000000E+000
  0.000000000000000E+000
  0.000000000000000E+000
  0.000000000000000E+000
  0.000000000000000E+000
  0.000000000000000E+000
  0.000000000000000E+000
  0.000000000000000E+000
  0.000000000000000E+000
  0.000000000000000E+000
  0.000000000000000E+000
  0.000000000000000E+000
  0.000000000000000E+000
  0.000000000000000E+000
  0.000000000000000E+000
  0.000000000000000E+000
  0.000000000000000E+000
  0.000000000000000E+000
  0.000000000000000E+000
  0.000000000000000E+000
  0.000000000000000E+000
  0.000000000000000E+000
  0.000000000000000E+000
  0.000000000000000E+000
  0.000000000000000E+000
  0.000000000000000E+000
  0.000000000000000E+000
  0.000000000000000E+000
  0.000000000000000E+000
  0.000000000000000E+000
  0.000000000000000E+000
  0.000000000000000E+000
  0.000000000000000E+000
  0.000000000000000E+000
  0.000000000000000E+000
  0.000000000000000E+000
  0.000000000000000E+000
  0.000000000000000E+000
  0.000000000000000E+000
  0.000000000000000E+000
  0.000000000000000E+000
  0.000000000000000E+000
  0.000000000000000E+000
  0.000000000000000E+000
  0.000000000000000E+000
  0.000000000000000E+000
  0.000000000000000E+000
  0.000000000000000E+000
  0.000000000000000E+000
  0.000000000000000E+000
  0.000000000000000E+000
  0.000000000000000E+000
  0.000000000000000E+000
  0.000000000000000E+000
  0.000000000000000E+000
  0.000000000000000E+000
  0.000000000000000E+000
  0.000000000000000E+000
  0.000000000000000E+000
  0.000000000000000E+000
  0.000000000000000E+000
  0.000000000000000E+000
  0.000000000000000E+000
  0.000000000000000E+000
  0.000000000000000E+000
  0.000000000000000E+000
  0.000000000000000E+000
  0.000000000000000E+000
  0.000000000000000E+000
  0.000000000000000E+000
  0.000000000000000E+000
  0.000000000000000E+000
  0.000000000000000E+000
  0.000000000000000E+000
  0.000000000000000E+000
  0.000000000000000E+000
  0.000000000000000E+000
  0.000000000000000E+000
  0.000000000000000E+000
  0.000000000000000E+000
  0.000000000000000E+000
  0.000000000000000E+000
  0.000000000000000E+000
  0.000000000000000E+000
  0.000000000000000E+000
  0.000000000000000E+000
  0.000000000000000E+000
  0.000000000000000E+000
  0.000000000000000E+000
  0.000000000000000E+000
  0.000000000000000E+000
  0.000000000000000E+000
  0.000000000000000E+000
  0.000000000000000E+000
  0.000000000000000E+000
  0.000000000000000E+000
  0.000000000000000E+000
  0.000000000000000E+000
  0.000000000000000E+000
  0.000000000000000E+000
  0.000000000000000E+000
  0.000000000000000E+000
  0.000000000000000E+000
  0.000000000000000E+000
  0.000000000000000E+000
  0.000000000000000E+000
  0.000000000000000E+000
  0.000000000000000E+000
  0.000000000000000E+000
  0.000000000000000E+000
  0.000000000000000E+000
  0.000000000000000E+000
  0.000000000000000E+000
  0.000000000000000E+000
  0.000000000000000E+000
  0.000000000000000E+000
  0.000000000000000E+000
  0.000000000000000E+000
  0.000000000000000E+000
  0.000000000000000E+000
  0.000000000000000E+000
  0.000000000000000E+000
  0.000000000000000E+000
  0.000000000000000E+000
  0.000000000000000E+000
  0.000000000000000E+000
  0.000000000000000E+000
  0.000000000000000E+000
  0.000000000000000E+000
  0.000000000000000E+000
  0.000000000000000E+000
  0.000000000000000E+000
  0.000000000000000E+000
  0.000000000000000E+000
  0.000000000000000E+000
  0.000000000000000E+000
  0.000000000000000E+000
  0.000000000000000E+000
  0.000000000000000E+000
  0.000000000000000E+000
  0.000000000000000E+000
  0.000000000000000E+000
  0.000000000000000E+000
  0.000000000000000E+000
  0.000000000000000E+000
  0.000000000000000E+000
  0.000000000000000E+000
  0.000000000000000E+000
  0.000000000000000E+000
  0.000000000000000E+000
  0.000000000000000E+000
  0.000000000000000E+000
  0.000000000000000E+000
  0.000000000000000E+000
  0.000000000000000E+000
  0.000000000000000E+000
  0.000000000000000E+000
  0.000000000000000E+000
  0.000000000000000E+000
  0.000000000000000E+000
  0.000000000000000E+000
  0.000000000000000E+000
  0.000000000000000E+000
  0.000000000000000E+000
  0.000000000000000E+000
  0.000000000000000E+000
  0.000000000000000E+000
  0.000000000000000E+000
  0.000000000000000E+000
  0.000000000000000E+000
  0.000000000000000E+000
  0.000000000000000E+000
  0.000000000000000E+000
  0.000000000000000E+000
  0.000000000000000E+000
  0.000000000000000E+000
  0.000000000000000E+000
  0.000000000000000E+000
  0.000000000000000E+000
  0.000000000000000E+000
  0.000000000000000E+000
  0.000000000000000E+000
  0.000000000000000E+000
  0.000000000000000E+000
  0.000000000000000E+000
  0.000000000000000E+000
  0.000000000000000E+000
  0.000000000000000E+000
  0.000000000000000E+000
  0.000000000000000E+000
  0.000000000000000E+000
  0.000000000000000E+000
  0.000000000000000E+000
  0.000000000000000E+000
  0.000000000000000E+000
  0.000000000000000E+000
  0.000000000000000E+000
  0.000000000000000E+000
  0.000000000000000E+000
  0.000000000000000E+000
  0.000000000000000E+000
  0.000000000000000E+000
  0.000000000000000E+000
  0.000000000000000E+000
  0.000000000000000E+000
  0.000000000000000E+000
  0.000000000000000E+000
  0.000000000000000E+000
  0.000000000000000E+000
  0.000000000000000E+000
  0.000000000000000E+000
  0.000000000000000E+000
  0.000000000000000E+000
  0.000000000000000E+000
  0.000000000000000E+000
  0.000000000000000E+000
  0.000000000000000E+000
  0.000000000000000E+000
  0.000000000000000E+000
  0.000000000000000E+000
  0.000000000000000E+000
  0.000000000000000E+000
  0.000000000000000E+000
  0.000000000000000E+000
  0.000000000000000E+000
  0.000000000000000E+000
  0.000000000000000E+000
  0.000000000000000E+000
  0.000000000000000E+000
  0.000000000000000E+000
  0.000000000000000E+000
  0.000000000000000E+000
  0.000000000000000E+000
  0.000000000000000E+000
  0.000000000000000E+000
  0.000000000000000E+000
  0.000000000000000E+000
  0.000000000000000E+000
  0.000000000000000E+000
  0.000000000000000E+000
  0.000000000000000E+000
  0.000000000000000E+000
  0.000000000000000E+000
  0.000000000000000E+000
  0.000000000000000E+000
  0.000000000000000E+000
  0.000000000000000E+000
  0.000000000000000E+000
  0.000000000000000E+000
  0.000000000000000E+000
  0.000000000000000E+000
  0.000000000000000E+000
  0.000000000000000E+000
  0.000000000000000E+000
  0.000000000000000E+000
  0.000000000000000E+000
  0.000000000000000E+000
  0.000000000000000E+000
  0.000000000000000E+000
  0.000000000000000E+000
  0.000000000000000E+000
  0.000000000000000E+000
  0.000000000000000E+000
  0.000000000000000E+000
  0.000000000000000E+000
  0.000000000000000E+000
  0.000000000000000E+000
  0.000000000000000E+000
  0.000000000000000E+000
  0.000000000000000E+000
  0.000000000000000E+000
  0.000000000000000E+000
  0.000000000000000E+000
  0.000000000000000E+000
  0.000000000000000E+000
  0.000000000000000E+000
  0.000000000000000E+000
  0.000000000000000E+000
  0.000000000000000E+000
  0.000000000000000E+000
  0.000000000000000E+000
  0.000000000000000E+000
  0.000000000000000E+000
  0.000000000000000E+000
  0.000000000000000E+000
  0.000000000000000E+000
  0.000000000000000E+000
  0.000000000000000E+000
  0.000000000000000E+000
  0.000000000000000E+000
  0.000000000000000E+000
  0.000000000000000E+000
  0.000000000000000E+000
  0.000000000000000E+000
  0.000000000000000E+000
  0.000000000000000E+000
  0.000000000000000E+000
  0.000000000000000E+000
  0.000000000000000E+000
  0.000000000000000E+000
  0.000000000000000E+000
  0.000000000000000E+000
  0.000000000000000E+000
  0.000000000000000E+000
  0.000000000000000E+000
  0.000000000000000E+000
  0.000000000000000E+000
  0.000000000000000E+000
  0.000000000000000E+000
  0.000000000000000E+000
  0.000000000000000E+000
  0.000000000000000E+000
  0.000000000000000E+000
  0.000000000000000E+000
  0.000000000000000E+000
  0.000000000000000E+000
  0.000000000000000E+000
  0.000000000000000E+000
  0.000000000000000E+000
  0.000000000000000E+000
  0.000000000000000E+000
  0.000000000000000E+000
  0.000000000000000E+000
  0.000000000000000E+000
  0.000000000000000E+000
  0.000000000000000E+000
  0.000000000000000E+000
  0.000000000000000E+000
  0.000000000000000E+000
  0.000000000000000E+000
  0.000000000000000E+000
  0.000000000000000E+000
  0.000000000000000E+000
  0.000000000000000E+000
  0.000000000000000E+000
  0.000000000000000E+000
  0.000000000000000E+000
  0.000000000000000E+000
  0.000000000000000E+000
  0.000000000000000E+000
  0.000000000000000E+000
  0.000000000000000E+000
  0.000000000000000E+000
  0.000000000000000E+000
  0.000000000000000E+000
  0.000000000000000E+000
  0.000000000000000E+000
  0.000000000000000E+000
  0.000000000000000E+000
  0.000000000000000E+000
  0.000000000000000E+000
  0.000000000000000E+000
  0.000000000000000E+000
  0.000000000000000E+000
  0.000000000000000E+000
  0.000000000000000E+000
  0.000000000000000E+000
  0.000000000000000E+000
  0.000000000000000E+000
  0.000000000000000E+000
  0.000000000000000E+000
  0.000000000000000E+000
  0.000000000000000E+000
  0.000000000000000E+000
  0.000000000000000E+000
  0.000000000000000E+000
  0.000000000000000E+000
  0.000000000000000E+000
  0.000000000000000E+000
  0.000000000000000E+000
  0.000000000000000E+000
  0.000000000000000E+000
  0.000000000000000E+000
  0.000000000000000E+000
  0.000000000000000E+000
  0.000000000000000E+000
  0.000000000000000E+000
  0.000000000000000E+000
  0.000000000000000E+000
  0.000000000000000E+000
  0.000000000000000E+000
  0.000000000000000E+000
  0.000000000000000E+000
  0.000000000000000E+000
  0.000000000000000E+000
  0.000000000000000E+000
  0.000000000000000E+000
  0.000000000000000E+000
  0.000000000000000E+000
  0.000000000000000E+000
  0.000000000000000E+000
  0.000000000000000E+000
  0.000000000000000E+000
  0.000000000000000E+000
  0.000000000000000E+000
  0.000000000000000E+000
  0.000000000000000E+000
  0.000000000000000E+000
  0.000000000000000E+000
  0.000000000000000E+000
  0.000000000000000E+000
  0.000000000000000E+000
  0.000000000000000E+000
  0.000000000000000E+000
  0.000000000000000E+000
  0.000000000000000E+000
  0.000000000000000E+000
  0.000000000000000E+000
  0.000000000000000E+000
  0.000000000000000E+000
  0.000000000000000E+000
  0.000000000000000E+000
  0.000000000000000E+000
  0.000000000000000E+000
  0.000000000000000E+000
  0.000000000000000E+000
  0.000000000000000E+000
  0.000000000000000E+000
  0.000000000000000E+000
  0.000000000000000E+000
  0.000000000000000E+000
  0.000000000000000E+000
  0.000000000000000E+000
  0.000000000000000E+000
  0.000000000000000E+000
  0.000000000000000E+000
  0.000000000000000E+000
  0.000000000000000E+000
  0.000000000000000E+000
  0.000000000000000E+000
  0.000000000000000E+000
  0.000000000000000E+000
  0.000000000000000E+000
  0.000000000000000E+000
  0.000000000000000E+000
  0.000000000000000E+000
  0.000000000000000E+000
  0.000000000000000E+000
  0.000000000000000E+000
  0.000000000000000E+000
  0.000000000000000E+000
  0.000000000000000E+000
  0.000000000000000E+000
  0.000000000000000E+000
  0.000000000000000E+000
  0.000000000000000E+000
  0.000000000000000E+000
  0.000000000000000E+000
  0.000000000000000E+000
  0.000000000000000E+000
  0.000000000000000E+000
  0.000000000000000E+000
  0.000000000000000E+000
  0.000000000000000E+000
  0.000000000000000E+000
  0.000000000000000E+000
  0.000000000000000E+000
  0.000000000000000E+000
  0.000000000000000E+000
  0.000000000000000E+000
  0.000000000000000E+000
  0.000000000000000E+000
  0.000000000000000E+000
  0.000000000000000E+000
  0.000000000000000E+000
  0.000000000000000E+000
  0.000000000000000E+000
  0.000000000000000E+000
  0.000000000000000E+000
  0.000000000000000E+000
  0.000000000000000E+000
  0.000000000000000E+000
  0.000000000000000E+000
  0.000000000000000E+000
  0.000000000000000E+000
  0.000000000000000E+000
  0.000000000000000E+000
  0.000000000000000E+000
  0.000000000000000E+000
  0.000000000000000E+000
  0.000000000000000E+000
  0.000000000000000E+000
  0.000000000000000E+000
  0.000000000000000E+000
  0.000000000000000E+000
  0.000000000000000E+000
  0.000000000000000E+000
  0.000000000000000E+000
  0.000000000000000E+000
  0.000000000000000E+000
  0.000000000000000E+000
  0.000000000000000E+000
  0.000000000000000E+000
  0.000000000000000E+000
  0.000000000000000E+000
  0.000000000000000E+000
  0.000000000000000E+000
  0.000000000000000E+000
  0.000000000000000E+000
  0.000000000000000E+000
  0.000000000000000E+000
  0.000000000000000E+000
  0.000000000000000E+000
  0.000000000000000E+000
  0.000000000000000E+000
  0.000000000000000E+000
  0.000000000000000E+000
  0.000000000000000E+000
  0.000000000000000E+000
  0.000000000000000E+000
  0.000000000000000E+000
  0.000000000000000E+000
  0.000000000000000E+000
  0.000000000000000E+000
  0.000000000000000E+000
  0.000000000000000E+000
  0.000000000000000E+000
  0.000000000000000E+000
  0.000000000000000E+000
  0.000000000000000E+000
  0.000000000000000E+000
  0.000000000000000E+000
  0.000000000000000E+000
  0.000000000000000E+000
  0.000000000000000E+000
  0.000000000000000E+000
  0.000000000000000E+000
  0.000000000000000E+000
  0.000000000000000E+000
  0.000000000000000E+000
  0.000000000000000E+000
  0.000000000000000E+000
  0.000000000000000E+000
  0.000000000000000E+000
  0.000000000000000E+000
  0.000000000000000E+000
  0.000000000000000E+000
  0.000000000000000E+000
  0.000000000000000E+000
  0.000000000000000E+000
  0.000000000000000E+000
  0.000000000000000E+000
  0.000000000000000E+000
  0.000000000000000E+000
  0.000000000000000E+000
  0.000000000000000E+000
  0.000000000000000E+000
  0.000000000000000E+000
  0.000000000000000E+000
  0.000000000000000E+000
  0.000000000000000E+000
  0.000000000000000E+000
  0.000000000000000E+000
  0.000000000000000E+000
  0.000000000000000E+000
  0.000000000000000E+000
  0.000000000000000E+000
  0.000000000000000E+000
  0.000000000000000E+000
  0.000000000000000E+000
  0.000000000000000E+000
  0.000000000000000E+000
  0.000000000000000E+000
  0.000000000000000E+000
  0.000000000000000E+000
  0.000000000000000E+000
  0.000000000000000E+000
  0.000000000000000E+000
  0.000000000000000E+000
  0.000000000000000E+000
  0.000000000000000E+000
  0.000000000000000E+000
  0.000000000000000E+000
  0.000000000000000E+000
  0.000000000000000E+000
  0.000000000000000E+000
  0.000000000000000E+000
  0.000000000000000E+000
  0.000000000000000E+000
  0.000000000000000E+000
  0.000000000000000E+000
  0.000000000000000E+000
  0.000000000000000E+000
  0.000000000000000E+000
  0.000000000000000E+000
  0.000000000000000E+000
  0.000000000000000E+000
  0.000000000000000E+000
  0.000000000000000E+000
  0.000000000000000E+000
  0.000000000000000E+000
  0.000000000000000E+000
  0.000000000000000E+000
  0.000000000000000E+000
  0.000000000000000E+000
  0.000000000000000E+000
  0.000000000000000E+000
  0.000000000000000E+000
  0.000000000000000E+000
  0.000000000000000E+000
  0.000000000000000E+000
  0.000000000000000E+000
  0.000000000000000E+000
  0.000000000000000E+000
  0.000000000000000E+000
  0.000000000000000E+000
  0.000000000000000E+000
  0.000000000000000E+000
  0.000000000000000E+000
  0.000000000000000E+000
  0.000000000000000E+000
  0.000000000000000E+000
  0.000000000000000E+000
  0.000000000000000E+000
  0.000000000000000E+000
  0.000000000000000E+000
  0.000000000000000E+000
  0.000000000000000E+000
  0.000000000000000E+000
  0.000000000000000E+000
  0.000000000000000E+000
  0.000000000000000E+000
  0.000000000000000E+000
  0.000000000000000E+000
  0.000000000000000E+000
  0.000000000000000E+000
  0.000000000000000E+000
  0.000000000000000E+000
  0.000000000000000E+000
  0.000000000000000E+000
  0.000000000000000E+000
  0.000000000000000E+000
  0.000000000000000E+000
  0.000000000000000E+000
  0.000000000000000E+000
  0.000000000000000E+000
  0.000000000000000E+000
  0.000000000000000E+000
  0.000000000000000E+000
  0.000000000000000E+000
  0.000000000000000E+000
  0.000000000000000E+000
  0.000000000000000E+000
  0.000000000000000E+000
  0.000000000000000E+000
  0.000000000000000E+000
  0.000000000000000E+000
  0.000000000000000E+000
  0.000000000000000E+000
  0.000000000000000E+000
  0.000000000000000E+000
  0.000000000000000E+000
  0.000000000000000E+000
  0.000000000000000E+000
  0.000000000000000E+000
  0.000000000000000E+000
  0.000000000000000E+000
  0.000000000000000E+000
  0.000000000000000E+000
  0.000000000000000E+000
  0.000000000000000E+000
  0.000000000000000E+000
  0.000000000000000E+000
  0.000000000000000E+000
  0.000000000000000E+000
  0.000000000000000E+000
  0.000000000000000E+000
  0.000000000000000E+000
  0.000000000000000E+000
  0.000000000000000E+000
  0.000000000000000E+000
  0.000000000000000E+000
  0.000000000000000E+000
  0.000000000000000E+000
  0.000000000000000E+000
  0.000000000000000E+000
  0.000000000000000E+000
  0.000000000000000E+000
  0.000000000000000E+000
  0.000000000000000E+000
  0.000000000000000E+000
  0.000000000000000E+000
  0.000000000000000E+000
  0.000000000000000E+000
  0.000000000000000E+000
  0.000000000000000E+000
  0.000000000000000E+000
  0.000000000000000E+000
  0.000000000000000E+000
  0.000000000000000E+000
  0.000000000000000E+000
  0.000000000000000E+000
  0.000000000000000E+000
  0.000000000000000E+000
  0.000000000000000E+000
  0.000000000000000E+000
  0.000000000000000E+000
  0.000000000000000E+000
  0.000000000000000E+000
  0.000000000000000E+000
  0.000000000000000E+000
  0.000000000000000E+000
  0.000000000000000E+000
  0.000000000000000E+000
  0.000000000000000E+000
  0.000000000000000E+000
  0.000000000000000E+000
  0.000000000000000E+000
  0.000000000000000E+000
  0.000000000000000E+000
  0.000000000000000E+000
  0.000000000000000E+000
  0.000000000000000E+000
  0.000000000000000E+000
  0.000000000000000E+000
  0.000000000000000E+000
  0.000000000000000E+000
  0.000000000000000E+000
  0.000000000000000E+000
  0.000000000000000E+000
  0.000000000000000E+000
  0.000000000000000E+000
  0.000000000000000E+000
  0.000000000000000E+000
  0.000000000000000E+000
  0.000000000000000E+000
  0.000000000000000E+000
  0.000000000000000E+000
  0.000000000000000E+000
  0.000000000000000E+000
  0.000000000000000E+000
  0.000000000000000E+000
  0.000000000000000E+000
  0.000000000000000E+000
  0.000000000000000E+000
  0.000000000000000E+000
  0.000000000000000E+000
  0.000000000000000E+000
  0.000000000000000E+000
  0.000000000000000E+000
  0.000000000000000E+000
  0.000000000000000E+000
  0.000000000000000E+000
  0.000000000000000E+000
  0.000000000000000E+000
  0.000000000000000E+000
  0.000000000000000E+000
  0.000000000000000E+000
  0.000000000000000E+000
  0.000000000000000E+000
  0.000000000000000E+000
  0.000000000000000E+000
  0.000000000000000E+000
  0.000000000000000E+000
  0.000000000000000E+000
  0.000000000000000E+000
  0.000000000000000E+000
  0.000000000000000E+000
  0.000000000000000E+000
  0.000000000000000E+000
  0.000000000000000E+000
  0.000000000000000E+000
  0.000000000000000E+000
  0.000000000000000E+000
  0.000000000000000E+000
  0.000000000000000E+000
  0.000000000000000E+000
  0.000000000000000E+000
  0.000000000000000E+000
  0.000000000000000E+000
  0.000000000000000E+000
