# vtk DataFile Version 3.0
vtk output
ASCII
DATASET UNSTRUCTURED_GRID
POINTS      1225 double 
  0.00000000E+00  2.40000000E+01  0.00000000E+00
  0.00000000E+00  2.30000000E+01  0.00000000E+00
  0.00000000E+00  2.20000000E+01  0.00000000E+00
  0.00000000E+00  2.10000000E+01  0.00000000E+00
  0.00000000E+00  2.00000000E+01  0.00000000E+00
  0.00000000E+00  1.90000000E+01  0.00000000E+00
  0.00000000E+00  1.80000000E+01  0.00000000E+00
  0.00000000E+00  1.70000000E+01  0.00000000E+00
  0.00000000E+00  1.60000000E+01  0.00000000E+00
  0.00000000E+00  1.50000000E+01  0.00000000E+00
  0.00000000E+00  1.40000000E+01  0.00000000E+00
  0.00000000E+00  1.30000000E+01  0.00000000E+00
  0.00000000E+00  1.20000000E+01  0.00000000E+00
  0.00000000E+00  1.10000000E+01  0.00000000E+00
  0.00000000E+00  1.00000000E+01  0.00000000E+00
  0.00000000E+00  9.00000000E+00  0.00000000E+00
  0.00000000E+00  8.00000000E+00  0.00000000E+00
  0.00000000E+00  7.00000000E+00  0.00000000E+00
  0.00000000E+00  6.00000000E+00  0.00000000E+00
  0.00000000E+00  5.00000000E+00  0.00000000E+00
  0.00000000E+00  4.00000000E+00  0.00000000E+00
  0.00000000E+00  3.00000000E+00  0.00000000E+00
  0.00000000E+00  2.00000000E+00  0.00000000E+00
  0.00000000E+00  1.00000000E+00  0.00000000E+00
  0.00000000E+00 -2.66453526E-15  0.00000000E+00
  1.00000000E+00  2.40000000E+01  0.00000000E+00
  1.00000000E+00  2.30000000E+01  0.00000000E+00
  1.00000000E+00  2.20000000E+01  0.00000000E+00
  1.00000000E+00  2.10000000E+01  0.00000000E+00
  1.00000000E+00  2.00000000E+01  0.00000000E+00
  1.00000000E+00  1.90000000E+01  0.00000000E+00
  1.00000000E+00  1.80000000E+01  0.00000000E+00
  1.00000000E+00  1.70000000E+01  0.00000000E+00
  1.00000000E+00  1.60000000E+01  0.00000000E+00
  1.00000000E+00  1.50000000E+01  0.00000000E+00
  1.00000000E+00  1.40000000E+01  0.00000000E+00
  1.00000000E+00  1.30000000E+01  0.00000000E+00
  1.00000000E+00  1.20000000E+01  0.00000000E+00
  1.00000000E+00  1.10000000E+01  0.00000000E+00
  1.00000000E+00  1.00000000E+01  0.00000000E+00
  1.00000000E+00  9.00000000E+00  0.00000000E+00
  1.00000000E+00  8.00000000E+00  0.00000000E+00
  1.00000000E+00  7.00000000E+00  0.00000000E+00
  1.00000000E+00  6.00000000E+00  0.00000000E+00
  1.00000000E+00  5.00000000E+00  0.00000000E+00
  1.00000000E+00  4.00000000E+00  0.00000000E+00
  1.00000000E+00  3.00000000E+00  0.00000000E+00
  1.00000000E+00  2.00000000E+00  0.00000000E+00
  1.00000000E+00  1.00000000E+00  0.00000000E+00
  1.00000000E+00 -2.66453526E-15  0.00000000E+00
  2.00000000E+00  2.40000000E+01  0.00000000E+00
  2.00000000E+00  2.30000000E+01  0.00000000E+00
  2.00000000E+00  2.20000000E+01  0.00000000E+00
  2.00000000E+00  2.10000000E+01  0.00000000E+00
  2.00000000E+00  2.00000000E+01  0.00000000E+00
  2.00000000E+00  1.90000000E+01  0.00000000E+00
  2.00000000E+00  1.80000000E+01  0.00000000E+00
  2.00000000E+00  1.70000000E+01  0.00000000E+00
  2.00000000E+00  1.60000000E+01  0.00000000E+00
  2.00000000E+00  1.50000000E+01  0.00000000E+00
  2.00000000E+00  1.40000000E+01  0.00000000E+00
  2.00000000E+00  1.30000000E+01  0.00000000E+00
  2.00000000E+00  1.20000000E+01  0.00000000E+00
  2.00000000E+00  1.10000000E+01  0.00000000E+00
  2.00000000E+00  1.00000000E+01  0.00000000E+00
  2.00000000E+00  9.00000000E+00  0.00000000E+00
  2.00000000E+00  8.00000000E+00  0.00000000E+00
  2.00000000E+00  7.00000000E+00  0.00000000E+00
  2.00000000E+00  6.00000000E+00  0.00000000E+00
  2.00000000E+00  5.00000000E+00  0.00000000E+00
  2.00000000E+00  4.00000000E+00  0.00000000E+00
  2.00000000E+00  3.00000000E+00  0.00000000E+00
  2.00000000E+00  2.00000000E+00  0.00000000E+00
  2.00000000E+00  1.00000000E+00  0.00000000E+00
  2.00000000E+00 -2.66453526E-15  0.00000000E+00
  3.00000000E+00  2.40000000E+01  0.00000000E+00
  3.00000000E+00  2.30000000E+01  0.00000000E+00
  3.00000000E+00  2.20000000E+01  0.00000000E+00
  3.00000000E+00  2.10000000E+01  0.00000000E+00
  3.00000000E+00  2.00000000E+01  0.00000000E+00
  3.00000000E+00  1.90000000E+01  0.00000000E+00
  3.00000000E+00  1.80000000E+01  0.00000000E+00
  3.00000000E+00  1.70000000E+01  0.00000000E+00
  3.00000000E+00  1.60000000E+01  0.00000000E+00
  3.00000000E+00  1.50000000E+01  0.00000000E+00
  3.00000000E+00  1.40000000E+01  0.00000000E+00
  3.00000000E+00  1.30000000E+01  0.00000000E+00
  3.00000000E+00  1.20000000E+01  0.00000000E+00
  3.00000000E+00  1.10000000E+01  0.00000000E+00
  3.00000000E+00  1.00000000E+01  0.00000000E+00
  3.00000000E+00  9.00000000E+00  0.00000000E+00
  3.00000000E+00  8.00000000E+00  0.00000000E+00
  3.00000000E+00  7.00000000E+00  0.00000000E+00
  3.00000000E+00  6.00000000E+00  0.00000000E+00
  3.00000000E+00  5.00000000E+00  0.00000000E+00
  3.00000000E+00  4.00000000E+00  0.00000000E+00
  3.00000000E+00  3.00000000E+00  0.00000000E+00
  3.00000000E+00  2.00000000E+00  0.00000000E+00
  3.00000000E+00  1.00000000E+00  0.00000000E+00
  3.00000000E+00 -2.66453526E-15  0.00000000E+00
  4.00000000E+00  2.40000000E+01  0.00000000E+00
  4.00000000E+00  2.30000000E+01  0.00000000E+00
  4.00000000E+00  2.20000000E+01  0.00000000E+00
  4.00000000E+00  2.10000000E+01  0.00000000E+00
  4.00000000E+00  2.00000000E+01  0.00000000E+00
  4.00000000E+00  1.90000000E+01  0.00000000E+00
  4.00000000E+00  1.80000000E+01  0.00000000E+00
  4.00000000E+00  1.70000000E+01  0.00000000E+00
  4.00000000E+00  1.60000000E+01  0.00000000E+00
  4.00000000E+00  1.50000000E+01  0.00000000E+00
  4.00000000E+00  1.40000000E+01  0.00000000E+00
  4.00000000E+00  1.30000000E+01  0.00000000E+00
  4.00000000E+00  1.20000000E+01  0.00000000E+00
  4.00000000E+00  1.10000000E+01  0.00000000E+00
  4.00000000E+00  1.00000000E+01  0.00000000E+00
  4.00000000E+00  9.00000000E+00  0.00000000E+00
  4.00000000E+00  8.00000000E+00  0.00000000E+00
  4.00000000E+00  7.00000000E+00  0.00000000E+00
  4.00000000E+00  6.00000000E+00  0.00000000E+00
  4.00000000E+00  5.00000000E+00  0.00000000E+00
  4.00000000E+00  4.00000000E+00  0.00000000E+00
  4.00000000E+00  3.00000000E+00  0.00000000E+00
  4.00000000E+00  2.00000000E+00  0.00000000E+00
  4.00000000E+00  1.00000000E+00  0.00000000E+00
  4.00000000E+00 -2.66453526E-15  0.00000000E+00
  5.00000000E+00  2.40000000E+01  0.00000000E+00
  5.00000000E+00  2.30000000E+01  0.00000000E+00
  5.00000000E+00  2.20000000E+01  0.00000000E+00
  5.00000000E+00  2.10000000E+01  0.00000000E+00
  5.00000000E+00  2.00000000E+01  0.00000000E+00
  5.00000000E+00  1.90000000E+01  0.00000000E+00
  5.00000000E+00  1.80000000E+01  0.00000000E+00
  5.00000000E+00  1.70000000E+01  0.00000000E+00
  5.00000000E+00  1.60000000E+01  0.00000000E+00
  5.00000000E+00  1.50000000E+01  0.00000000E+00
  5.00000000E+00  1.40000000E+01  0.00000000E+00
  5.00000000E+00  1.30000000E+01  0.00000000E+00
  5.00000000E+00  1.20000000E+01  0.00000000E+00
  5.00000000E+00  1.10000000E+01  0.00000000E+00
  5.00000000E+00  1.00000000E+01  0.00000000E+00
  5.00000000E+00  9.00000000E+00  0.00000000E+00
  5.00000000E+00  8.00000000E+00  0.00000000E+00
  5.00000000E+00  7.00000000E+00  0.00000000E+00
  5.00000000E+00  6.00000000E+00  0.00000000E+00
  5.00000000E+00  5.00000000E+00  0.00000000E+00
  5.00000000E+00  4.00000000E+00  0.00000000E+00
  5.00000000E+00  3.00000000E+00  0.00000000E+00
  5.00000000E+00  2.00000000E+00  0.00000000E+00
  5.00000000E+00  1.00000000E+00  0.00000000E+00
  5.00000000E+00 -2.66453526E-15  0.00000000E+00
  6.00000000E+00  2.40000000E+01  0.00000000E+00
  6.00000000E+00  2.30000000E+01  0.00000000E+00
  6.00000000E+00  2.20000000E+01  0.00000000E+00
  6.00000000E+00  2.10000000E+01  0.00000000E+00
  6.00000000E+00  2.00000000E+01  0.00000000E+00
  6.00000000E+00  1.90000000E+01  0.00000000E+00
  6.00000000E+00  1.80000000E+01  0.00000000E+00
  6.00000000E+00  1.70000000E+01  0.00000000E+00
  6.00000000E+00  1.60000000E+01  0.00000000E+00
  6.00000000E+00  1.50000000E+01  0.00000000E+00
  6.00000000E+00  1.40000000E+01  0.00000000E+00
  6.00000000E+00  1.30000000E+01  0.00000000E+00
  6.00000000E+00  1.20000000E+01  0.00000000E+00
  6.00000000E+00  1.10000000E+01  0.00000000E+00
  6.00000000E+00  1.00000000E+01  0.00000000E+00
  6.00000000E+00  9.00000000E+00  0.00000000E+00
  6.00000000E+00  8.00000000E+00  0.00000000E+00
  6.00000000E+00  7.00000000E+00  0.00000000E+00
  6.00000000E+00  6.00000000E+00  0.00000000E+00
  6.00000000E+00  5.00000000E+00  0.00000000E+00
  6.00000000E+00  4.00000000E+00  0.00000000E+00
  6.00000000E+00  3.00000000E+00  0.00000000E+00
  6.00000000E+00  2.00000000E+00  0.00000000E+00
  6.00000000E+00  1.00000000E+00  0.00000000E+00
  6.00000000E+00 -2.66453526E-15  0.00000000E+00
  7.00000000E+00  2.40000000E+01  0.00000000E+00
  7.00000000E+00  2.30000000E+01  0.00000000E+00
  7.00000000E+00  2.20000000E+01  0.00000000E+00
  7.00000000E+00  2.10000000E+01  0.00000000E+00
  7.00000000E+00  2.00000000E+01  0.00000000E+00
  7.00000000E+00  1.90000000E+01  0.00000000E+00
  7.00000000E+00  1.80000000E+01  0.00000000E+00
  7.00000000E+00  1.70000000E+01  0.00000000E+00
  7.00000000E+00  1.60000000E+01  0.00000000E+00
  7.00000000E+00  1.50000000E+01  0.00000000E+00
  7.00000000E+00  1.40000000E+01  0.00000000E+00
  7.00000000E+00  1.30000000E+01  0.00000000E+00
  7.00000000E+00  1.20000000E+01  0.00000000E+00
  7.00000000E+00  1.10000000E+01  0.00000000E+00
  7.00000000E+00  1.00000000E+01  0.00000000E+00
  7.00000000E+00  9.00000000E+00  0.00000000E+00
  7.00000000E+00  8.00000000E+00  0.00000000E+00
  7.00000000E+00  7.00000000E+00  0.00000000E+00
  7.00000000E+00  6.00000000E+00  0.00000000E+00
  7.00000000E+00  5.00000000E+00  0.00000000E+00
  7.00000000E+00  4.00000000E+00  0.00000000E+00
  7.00000000E+00  3.00000000E+00  0.00000000E+00
  7.00000000E+00  2.00000000E+00  0.00000000E+00
  7.00000000E+00  1.00000000E+00  0.00000000E+00
  7.00000000E+00 -2.66453526E-15  0.00000000E+00
  8.00000000E+00  2.40000000E+01  0.00000000E+00
  8.00000000E+00  2.30000000E+01  0.00000000E+00
  8.00000000E+00  2.20000000E+01  0.00000000E+00
  8.00000000E+00  2.10000000E+01  0.00000000E+00
  8.00000000E+00  2.00000000E+01  0.00000000E+00
  8.00000000E+00  1.90000000E+01  0.00000000E+00
  8.00000000E+00  1.80000000E+01  0.00000000E+00
  8.00000000E+00  1.70000000E+01  0.00000000E+00
  8.00000000E+00  1.60000000E+01  0.00000000E+00
  8.00000000E+00  1.50000000E+01  0.00000000E+00
  8.00000000E+00  1.40000000E+01  0.00000000E+00
  8.00000000E+00  1.30000000E+01  0.00000000E+00
  8.00000000E+00  1.20000000E+01  0.00000000E+00
  8.00000000E+00  1.10000000E+01  0.00000000E+00
  8.00000000E+00  1.00000000E+01  0.00000000E+00
  8.00000000E+00  9.00000000E+00  0.00000000E+00
  8.00000000E+00  8.00000000E+00  0.00000000E+00
  8.00000000E+00  7.00000000E+00  0.00000000E+00
  8.00000000E+00  6.00000000E+00  0.00000000E+00
  8.00000000E+00  5.00000000E+00  0.00000000E+00
  8.00000000E+00  4.00000000E+00  0.00000000E+00
  8.00000000E+00  3.00000000E+00  0.00000000E+00
  8.00000000E+00  2.00000000E+00  0.00000000E+00
  8.00000000E+00  1.00000000E+00  0.00000000E+00
  8.00000000E+00 -2.66453526E-15  0.00000000E+00
  9.00000000E+00  2.40000000E+01  0.00000000E+00
  9.00000000E+00  2.30000000E+01  0.00000000E+00
  9.00000000E+00  2.20000000E+01  0.00000000E+00
  9.00000000E+00  2.10000000E+01  0.00000000E+00
  9.00000000E+00  2.00000000E+01  0.00000000E+00
  9.00000000E+00  1.90000000E+01  0.00000000E+00
  9.00000000E+00  1.80000000E+01  0.00000000E+00
  9.00000000E+00  1.70000000E+01  0.00000000E+00
  9.00000000E+00  1.60000000E+01  0.00000000E+00
  9.00000000E+00  1.50000000E+01  0.00000000E+00
  9.00000000E+00  1.40000000E+01  0.00000000E+00
  9.00000000E+00  1.30000000E+01  0.00000000E+00
  9.00000000E+00  1.20000000E+01  0.00000000E+00
  9.00000000E+00  1.10000000E+01  0.00000000E+00
  9.00000000E+00  1.00000000E+01  0.00000000E+00
  9.00000000E+00  9.00000000E+00  0.00000000E+00
  9.00000000E+00  8.00000000E+00  0.00000000E+00
  9.00000000E+00  7.00000000E+00  0.00000000E+00
  9.00000000E+00  6.00000000E+00  0.00000000E+00
  9.00000000E+00  5.00000000E+00  0.00000000E+00
  9.00000000E+00  4.00000000E+00  0.00000000E+00
  9.00000000E+00  3.00000000E+00  0.00000000E+00
  9.00000000E+00  2.00000000E+00  0.00000000E+00
  9.00000000E+00  1.00000000E+00  0.00000000E+00
  9.00000000E+00 -2.66453526E-15  0.00000000E+00
  1.00000000E+01  2.40000000E+01  0.00000000E+00
  1.00000000E+01  2.30000000E+01  0.00000000E+00
  1.00000000E+01  2.20000000E+01  0.00000000E+00
  1.00000000E+01  2.10000000E+01  0.00000000E+00
  1.00000000E+01  2.00000000E+01  0.00000000E+00
  1.00000000E+01  1.90000000E+01  0.00000000E+00
  1.00000000E+01  1.80000000E+01  0.00000000E+00
  1.00000000E+01  1.70000000E+01  0.00000000E+00
  1.00000000E+01  1.60000000E+01  0.00000000E+00
  1.00000000E+01  1.50000000E+01  0.00000000E+00
  1.00000000E+01  1.40000000E+01  0.00000000E+00
  1.00000000E+01  1.30000000E+01  0.00000000E+00
  1.00000000E+01  1.20000000E+01  0.00000000E+00
  1.00000000E+01  1.10000000E+01  0.00000000E+00
  1.00000000E+01  1.00000000E+01  0.00000000E+00
  1.00000000E+01  9.00000000E+00  0.00000000E+00
  1.00000000E+01  8.00000000E+00  0.00000000E+00
  1.00000000E+01  7.00000000E+00  0.00000000E+00
  1.00000000E+01  6.00000000E+00  0.00000000E+00
  1.00000000E+01  5.00000000E+00  0.00000000E+00
  1.00000000E+01  4.00000000E+00  0.00000000E+00
  1.00000000E+01  3.00000000E+00  0.00000000E+00
  1.00000000E+01  2.00000000E+00  0.00000000E+00
  1.00000000E+01  1.00000000E+00  0.00000000E+00
  1.00000000E+01 -2.66453526E-15  0.00000000E+00
  1.10000000E+01  2.40000000E+01  0.00000000E+00
  1.10000000E+01  2.30000000E+01  0.00000000E+00
  1.10000000E+01  2.20000000E+01  0.00000000E+00
  1.10000000E+01  2.10000000E+01  0.00000000E+00
  1.10000000E+01  2.00000000E+01  0.00000000E+00
  1.10000000E+01  1.90000000E+01  0.00000000E+00
  1.10000000E+01  1.80000000E+01  0.00000000E+00
  1.10000000E+01  1.70000000E+01  0.00000000E+00
  1.10000000E+01  1.60000000E+01  0.00000000E+00
  1.10000000E+01  1.50000000E+01  0.00000000E+00
  1.10000000E+01  1.40000000E+01  0.00000000E+00
  1.10000000E+01  1.30000000E+01  0.00000000E+00
  1.10000000E+01  1.20000000E+01  0.00000000E+00
  1.10000000E+01  1.10000000E+01  0.00000000E+00
  1.10000000E+01  1.00000000E+01  0.00000000E+00
  1.10000000E+01  9.00000000E+00  0.00000000E+00
  1.10000000E+01  8.00000000E+00  0.00000000E+00
  1.10000000E+01  7.00000000E+00  0.00000000E+00
  1.10000000E+01  6.00000000E+00  0.00000000E+00
  1.10000000E+01  5.00000000E+00  0.00000000E+00
  1.10000000E+01  4.00000000E+00  0.00000000E+00
  1.10000000E+01  3.00000000E+00  0.00000000E+00
  1.10000000E+01  2.00000000E+00  0.00000000E+00
  1.10000000E+01  1.00000000E+00  0.00000000E+00
  1.10000000E+01 -2.66453526E-15  0.00000000E+00
  1.20000000E+01  2.40000000E+01  0.00000000E+00
  1.20000000E+01  2.30000000E+01  0.00000000E+00
  1.20000000E+01  2.20000000E+01  0.00000000E+00
  1.20000000E+01  2.10000000E+01  0.00000000E+00
  1.20000000E+01  2.00000000E+01  0.00000000E+00
  1.20000000E+01  1.90000000E+01  0.00000000E+00
  1.20000000E+01  1.80000000E+01  0.00000000E+00
  1.20000000E+01  1.70000000E+01  0.00000000E+00
  1.20000000E+01  1.60000000E+01  0.00000000E+00
  1.20000000E+01  1.50000000E+01  0.00000000E+00
  1.20000000E+01  1.40000000E+01  0.00000000E+00
  1.20000000E+01  1.30000000E+01  0.00000000E+00
  1.20000000E+01  1.20000000E+01  0.00000000E+00
  1.20000000E+01  1.10000000E+01  0.00000000E+00
  1.20000000E+01  1.00000000E+01  0.00000000E+00
  1.20000000E+01  9.00000000E+00  0.00000000E+00
  1.20000000E+01  8.00000000E+00  0.00000000E+00
  1.20000000E+01  7.00000000E+00  0.00000000E+00
  1.20000000E+01  6.00000000E+00  0.00000000E+00
  1.20000000E+01  5.00000000E+00  0.00000000E+00
  1.20000000E+01  4.00000000E+00  0.00000000E+00
  1.20000000E+01  3.00000000E+00  0.00000000E+00
  1.20000000E+01  2.00000000E+00  0.00000000E+00
  1.20000000E+01  1.00000000E+00  0.00000000E+00
  1.20000000E+01 -2.66453526E-15  0.00000000E+00
  1.30000000E+01  2.40000000E+01  0.00000000E+00
  1.30000000E+01  2.30000000E+01  0.00000000E+00
  1.30000000E+01  2.20000000E+01  0.00000000E+00
  1.30000000E+01  2.10000000E+01  0.00000000E+00
  1.30000000E+01  2.00000000E+01  0.00000000E+00
  1.30000000E+01  1.90000000E+01  0.00000000E+00
  1.30000000E+01  1.80000000E+01  0.00000000E+00
  1.30000000E+01  1.70000000E+01  0.00000000E+00
  1.30000000E+01  1.60000000E+01  0.00000000E+00
  1.30000000E+01  1.50000000E+01  0.00000000E+00
  1.30000000E+01  1.40000000E+01  0.00000000E+00
  1.30000000E+01  1.30000000E+01  0.00000000E+00
  1.30000000E+01  1.20000000E+01  0.00000000E+00
  1.30000000E+01  1.10000000E+01  0.00000000E+00
  1.30000000E+01  1.00000000E+01  0.00000000E+00
  1.30000000E+01  9.00000000E+00  0.00000000E+00
  1.30000000E+01  8.00000000E+00  0.00000000E+00
  1.30000000E+01  7.00000000E+00  0.00000000E+00
  1.30000000E+01  6.00000000E+00  0.00000000E+00
  1.30000000E+01  5.00000000E+00  0.00000000E+00
  1.30000000E+01  4.00000000E+00  0.00000000E+00
  1.30000000E+01  3.00000000E+00  0.00000000E+00
  1.30000000E+01  2.00000000E+00  0.00000000E+00
  1.30000000E+01  1.00000000E+00  0.00000000E+00
  1.30000000E+01 -2.66453526E-15  0.00000000E+00
  1.40000000E+01  2.40000000E+01  0.00000000E+00
  1.40000000E+01  2.30000000E+01  0.00000000E+00
  1.40000000E+01  2.20000000E+01  0.00000000E+00
  1.40000000E+01  2.10000000E+01  0.00000000E+00
  1.40000000E+01  2.00000000E+01  0.00000000E+00
  1.40000000E+01  1.90000000E+01  0.00000000E+00
  1.40000000E+01  1.80000000E+01  0.00000000E+00
  1.40000000E+01  1.70000000E+01  0.00000000E+00
  1.40000000E+01  1.60000000E+01  0.00000000E+00
  1.40000000E+01  1.50000000E+01  0.00000000E+00
  1.40000000E+01  1.40000000E+01  0.00000000E+00
  1.40000000E+01  1.30000000E+01  0.00000000E+00
  1.40000000E+01  1.20000000E+01  0.00000000E+00
  1.40000000E+01  1.10000000E+01  0.00000000E+00
  1.40000000E+01  1.00000000E+01  0.00000000E+00
  1.40000000E+01  9.00000000E+00  0.00000000E+00
  1.40000000E+01  8.00000000E+00  0.00000000E+00
  1.40000000E+01  7.00000000E+00  0.00000000E+00
  1.40000000E+01  6.00000000E+00  0.00000000E+00
  1.40000000E+01  5.00000000E+00  0.00000000E+00
  1.40000000E+01  4.00000000E+00  0.00000000E+00
  1.40000000E+01  3.00000000E+00  0.00000000E+00
  1.40000000E+01  2.00000000E+00  0.00000000E+00
  1.40000000E+01  1.00000000E+00  0.00000000E+00
  1.40000000E+01 -2.66453526E-15  0.00000000E+00
  1.50000000E+01  2.40000000E+01  0.00000000E+00
  1.50000000E+01  2.30000000E+01  0.00000000E+00
  1.50000000E+01  2.20000000E+01  0.00000000E+00
  1.50000000E+01  2.10000000E+01  0.00000000E+00
  1.50000000E+01  2.00000000E+01  0.00000000E+00
  1.50000000E+01  1.90000000E+01  0.00000000E+00
  1.50000000E+01  1.80000000E+01  0.00000000E+00
  1.50000000E+01  1.70000000E+01  0.00000000E+00
  1.50000000E+01  1.60000000E+01  0.00000000E+00
  1.50000000E+01  1.50000000E+01  0.00000000E+00
  1.50000000E+01  1.40000000E+01  0.00000000E+00
  1.50000000E+01  1.30000000E+01  0.00000000E+00
  1.50000000E+01  1.20000000E+01  0.00000000E+00
  1.50000000E+01  1.10000000E+01  0.00000000E+00
  1.50000000E+01  1.00000000E+01  0.00000000E+00
  1.50000000E+01  9.00000000E+00  0.00000000E+00
  1.50000000E+01  8.00000000E+00  0.00000000E+00
  1.50000000E+01  7.00000000E+00  0.00000000E+00
  1.50000000E+01  6.00000000E+00  0.00000000E+00
  1.50000000E+01  5.00000000E+00  0.00000000E+00
  1.50000000E+01  4.00000000E+00  0.00000000E+00
  1.50000000E+01  3.00000000E+00  0.00000000E+00
  1.50000000E+01  2.00000000E+00  0.00000000E+00
  1.50000000E+01  1.00000000E+00  0.00000000E+00
  1.50000000E+01 -2.66453526E-15  0.00000000E+00
  1.60000000E+01  2.40000000E+01  0.00000000E+00
  1.60000000E+01  2.30000000E+01  0.00000000E+00
  1.60000000E+01  2.20000000E+01  0.00000000E+00
  1.60000000E+01  2.10000000E+01  0.00000000E+00
  1.60000000E+01  2.00000000E+01  0.00000000E+00
  1.60000000E+01  1.90000000E+01  0.00000000E+00
  1.60000000E+01  1.80000000E+01  0.00000000E+00
  1.60000000E+01  1.70000000E+01  0.00000000E+00
  1.60000000E+01  1.60000000E+01  0.00000000E+00
  1.60000000E+01  1.50000000E+01  0.00000000E+00
  1.60000000E+01  1.40000000E+01  0.00000000E+00
  1.60000000E+01  1.30000000E+01  0.00000000E+00
  1.60000000E+01  1.20000000E+01  0.00000000E+00
  1.60000000E+01  1.10000000E+01  0.00000000E+00
  1.60000000E+01  1.00000000E+01  0.00000000E+00
  1.60000000E+01  9.00000000E+00  0.00000000E+00
  1.60000000E+01  8.00000000E+00  0.00000000E+00
  1.60000000E+01  7.00000000E+00  0.00000000E+00
  1.60000000E+01  6.00000000E+00  0.00000000E+00
  1.60000000E+01  5.00000000E+00  0.00000000E+00
  1.60000000E+01  4.00000000E+00  0.00000000E+00
  1.60000000E+01  3.00000000E+00  0.00000000E+00
  1.60000000E+01  2.00000000E+00  0.00000000E+00
  1.60000000E+01  1.00000000E+00  0.00000000E+00
  1.60000000E+01 -2.66453526E-15  0.00000000E+00
  1.70000000E+01  2.40000000E+01  0.00000000E+00
  1.70000000E+01  2.30000000E+01  0.00000000E+00
  1.70000000E+01  2.20000000E+01  0.00000000E+00
  1.70000000E+01  2.10000000E+01  0.00000000E+00
  1.70000000E+01  2.00000000E+01  0.00000000E+00
  1.70000000E+01  1.90000000E+01  0.00000000E+00
  1.70000000E+01  1.80000000E+01  0.00000000E+00
  1.70000000E+01  1.70000000E+01  0.00000000E+00
  1.70000000E+01  1.60000000E+01  0.00000000E+00
  1.70000000E+01  1.50000000E+01  0.00000000E+00
  1.70000000E+01  1.40000000E+01  0.00000000E+00
  1.70000000E+01  1.30000000E+01  0.00000000E+00
  1.70000000E+01  1.20000000E+01  0.00000000E+00
  1.70000000E+01  1.10000000E+01  0.00000000E+00
  1.70000000E+01  1.00000000E+01  0.00000000E+00
  1.70000000E+01  9.00000000E+00  0.00000000E+00
  1.70000000E+01  8.00000000E+00  0.00000000E+00
  1.70000000E+01  7.00000000E+00  0.00000000E+00
  1.70000000E+01  6.00000000E+00  0.00000000E+00
  1.70000000E+01  5.00000000E+00  0.00000000E+00
  1.70000000E+01  4.00000000E+00  0.00000000E+00
  1.70000000E+01  3.00000000E+00  0.00000000E+00
  1.70000000E+01  2.00000000E+00  0.00000000E+00
  1.70000000E+01  1.00000000E+00  0.00000000E+00
  1.70000000E+01 -2.66453526E-15  0.00000000E+00
  1.80000000E+01  2.40000000E+01  0.00000000E+00
  1.80000000E+01  2.30000000E+01  0.00000000E+00
  1.80000000E+01  2.20000000E+01  0.00000000E+00
  1.80000000E+01  2.10000000E+01  0.00000000E+00
  1.80000000E+01  2.00000000E+01  0.00000000E+00
  1.80000000E+01  1.90000000E+01  0.00000000E+00
  1.80000000E+01  1.80000000E+01  0.00000000E+00
  1.80000000E+01  1.70000000E+01  0.00000000E+00
  1.80000000E+01  1.60000000E+01  0.00000000E+00
  1.80000000E+01  1.50000000E+01  0.00000000E+00
  1.80000000E+01  1.40000000E+01  0.00000000E+00
  1.80000000E+01  1.30000000E+01  0.00000000E+00
  1.80000000E+01  1.20000000E+01  0.00000000E+00
  1.80000000E+01  1.10000000E+01  0.00000000E+00
  1.80000000E+01  1.00000000E+01  0.00000000E+00
  1.80000000E+01  9.00000000E+00  0.00000000E+00
  1.80000000E+01  8.00000000E+00  0.00000000E+00
  1.80000000E+01  7.00000000E+00  0.00000000E+00
  1.80000000E+01  6.00000000E+00  0.00000000E+00
  1.80000000E+01  5.00000000E+00  0.00000000E+00
  1.80000000E+01  4.00000000E+00  0.00000000E+00
  1.80000000E+01  3.00000000E+00  0.00000000E+00
  1.80000000E+01  2.00000000E+00  0.00000000E+00
  1.80000000E+01  1.00000000E+00  0.00000000E+00
  1.80000000E+01 -2.66453526E-15  0.00000000E+00
  1.90000000E+01  2.40000000E+01  0.00000000E+00
  1.90000000E+01  2.30000000E+01  0.00000000E+00
  1.90000000E+01  2.20000000E+01  0.00000000E+00
  1.90000000E+01  2.10000000E+01  0.00000000E+00
  1.90000000E+01  2.00000000E+01  0.00000000E+00
  1.90000000E+01  1.90000000E+01  0.00000000E+00
  1.90000000E+01  1.80000000E+01  0.00000000E+00
  1.90000000E+01  1.70000000E+01  0.00000000E+00
  1.90000000E+01  1.60000000E+01  0.00000000E+00
  1.90000000E+01  1.50000000E+01  0.00000000E+00
  1.90000000E+01  1.40000000E+01  0.00000000E+00
  1.90000000E+01  1.30000000E+01  0.00000000E+00
  1.90000000E+01  1.20000000E+01  0.00000000E+00
  1.90000000E+01  1.10000000E+01  0.00000000E+00
  1.90000000E+01  1.00000000E+01  0.00000000E+00
  1.90000000E+01  9.00000000E+00  0.00000000E+00
  1.90000000E+01  8.00000000E+00  0.00000000E+00
  1.90000000E+01  7.00000000E+00  0.00000000E+00
  1.90000000E+01  6.00000000E+00  0.00000000E+00
  1.90000000E+01  5.00000000E+00  0.00000000E+00
  1.90000000E+01  4.00000000E+00  0.00000000E+00
  1.90000000E+01  3.00000000E+00  0.00000000E+00
  1.90000000E+01  2.00000000E+00  0.00000000E+00
  1.90000000E+01  1.00000000E+00  0.00000000E+00
  1.90000000E+01 -2.66453526E-15  0.00000000E+00
  2.00000000E+01  2.40000000E+01  0.00000000E+00
  2.00000000E+01  2.30000000E+01  0.00000000E+00
  2.00000000E+01  2.20000000E+01  0.00000000E+00
  2.00000000E+01  2.10000000E+01  0.00000000E+00
  2.00000000E+01  2.00000000E+01  0.00000000E+00
  2.00000000E+01  1.90000000E+01  0.00000000E+00
  2.00000000E+01  1.80000000E+01  0.00000000E+00
  2.00000000E+01  1.70000000E+01  0.00000000E+00
  2.00000000E+01  1.60000000E+01  0.00000000E+00
  2.00000000E+01  1.50000000E+01  0.00000000E+00
  2.00000000E+01  1.40000000E+01  0.00000000E+00
  2.00000000E+01  1.30000000E+01  0.00000000E+00
  2.00000000E+01  1.20000000E+01  0.00000000E+00
  2.00000000E+01  1.10000000E+01  0.00000000E+00
  2.00000000E+01  1.00000000E+01  0.00000000E+00
  2.00000000E+01  9.00000000E+00  0.00000000E+00
  2.00000000E+01  8.00000000E+00  0.00000000E+00
  2.00000000E+01  7.00000000E+00  0.00000000E+00
  2.00000000E+01  6.00000000E+00  0.00000000E+00
  2.00000000E+01  5.00000000E+00  0.00000000E+00
  2.00000000E+01  4.00000000E+00  0.00000000E+00
  2.00000000E+01  3.00000000E+00  0.00000000E+00
  2.00000000E+01  2.00000000E+00  0.00000000E+00
  2.00000000E+01  1.00000000E+00  0.00000000E+00
  2.00000000E+01 -2.66453526E-15  0.00000000E+00
  2.10000000E+01  2.40000000E+01  0.00000000E+00
  2.10000000E+01  2.30000000E+01  0.00000000E+00
  2.10000000E+01  2.20000000E+01  0.00000000E+00
  2.10000000E+01  2.10000000E+01  0.00000000E+00
  2.10000000E+01  2.00000000E+01  0.00000000E+00
  2.10000000E+01  1.90000000E+01  0.00000000E+00
  2.10000000E+01  1.80000000E+01  0.00000000E+00
  2.10000000E+01  1.70000000E+01  0.00000000E+00
  2.10000000E+01  1.60000000E+01  0.00000000E+00
  2.10000000E+01  1.50000000E+01  0.00000000E+00
  2.10000000E+01  1.40000000E+01  0.00000000E+00
  2.10000000E+01  1.30000000E+01  0.00000000E+00
  2.10000000E+01  1.20000000E+01  0.00000000E+00
  2.10000000E+01  1.10000000E+01  0.00000000E+00
  2.10000000E+01  1.00000000E+01  0.00000000E+00
  2.10000000E+01  9.00000000E+00  0.00000000E+00
  2.10000000E+01  8.00000000E+00  0.00000000E+00
  2.10000000E+01  7.00000000E+00  0.00000000E+00
  2.10000000E+01  6.00000000E+00  0.00000000E+00
  2.10000000E+01  5.00000000E+00  0.00000000E+00
  2.10000000E+01  4.00000000E+00  0.00000000E+00
  2.10000000E+01  3.00000000E+00  0.00000000E+00
  2.10000000E+01  2.00000000E+00  0.00000000E+00
  2.10000000E+01  1.00000000E+00  0.00000000E+00
  2.10000000E+01 -2.66453526E-15  0.00000000E+00
  2.20000000E+01  2.40000000E+01  0.00000000E+00
  2.20000000E+01  2.30000000E+01  0.00000000E+00
  2.20000000E+01  2.20000000E+01  0.00000000E+00
  2.20000000E+01  2.10000000E+01  0.00000000E+00
  2.20000000E+01  2.00000000E+01  0.00000000E+00
  2.20000000E+01  1.90000000E+01  0.00000000E+00
  2.20000000E+01  1.80000000E+01  0.00000000E+00
  2.20000000E+01  1.70000000E+01  0.00000000E+00
  2.20000000E+01  1.60000000E+01  0.00000000E+00
  2.20000000E+01  1.50000000E+01  0.00000000E+00
  2.20000000E+01  1.40000000E+01  0.00000000E+00
  2.20000000E+01  1.30000000E+01  0.00000000E+00
  2.20000000E+01  1.20000000E+01  0.00000000E+00
  2.20000000E+01  1.10000000E+01  0.00000000E+00
  2.20000000E+01  1.00000000E+01  0.00000000E+00
  2.20000000E+01  9.00000000E+00  0.00000000E+00
  2.20000000E+01  8.00000000E+00  0.00000000E+00
  2.20000000E+01  7.00000000E+00  0.00000000E+00
  2.20000000E+01  6.00000000E+00  0.00000000E+00
  2.20000000E+01  5.00000000E+00  0.00000000E+00
  2.20000000E+01  4.00000000E+00  0.00000000E+00
  2.20000000E+01  3.00000000E+00  0.00000000E+00
  2.20000000E+01  2.00000000E+00  0.00000000E+00
  2.20000000E+01  1.00000000E+00  0.00000000E+00
  2.20000000E+01 -2.66453526E-15  0.00000000E+00
  2.30000000E+01  2.40000000E+01  0.00000000E+00
  2.30000000E+01  2.30000000E+01  0.00000000E+00
  2.30000000E+01  2.20000000E+01  0.00000000E+00
  2.30000000E+01  2.10000000E+01  0.00000000E+00
  2.30000000E+01  2.00000000E+01  0.00000000E+00
  2.30000000E+01  1.90000000E+01  0.00000000E+00
  2.30000000E+01  1.80000000E+01  0.00000000E+00
  2.30000000E+01  1.70000000E+01  0.00000000E+00
  2.30000000E+01  1.60000000E+01  0.00000000E+00
  2.30000000E+01  1.50000000E+01  0.00000000E+00
  2.30000000E+01  1.40000000E+01  0.00000000E+00
  2.30000000E+01  1.30000000E+01  0.00000000E+00
  2.30000000E+01  1.20000000E+01  0.00000000E+00
  2.30000000E+01  1.10000000E+01  0.00000000E+00
  2.30000000E+01  1.00000000E+01  0.00000000E+00
  2.30000000E+01  9.00000000E+00  0.00000000E+00
  2.30000000E+01  8.00000000E+00  0.00000000E+00
  2.30000000E+01  7.00000000E+00  0.00000000E+00
  2.30000000E+01  6.00000000E+00  0.00000000E+00
  2.30000000E+01  5.00000000E+00  0.00000000E+00
  2.30000000E+01  4.00000000E+00  0.00000000E+00
  2.30000000E+01  3.00000000E+00  0.00000000E+00
  2.30000000E+01  2.00000000E+00  0.00000000E+00
  2.30000000E+01  1.00000000E+00  0.00000000E+00
  2.30000000E+01 -2.66453526E-15  0.00000000E+00
  2.40000000E+01  2.40000000E+01  0.00000000E+00
  2.40000000E+01  2.30000000E+01  0.00000000E+00
  2.40000000E+01  2.20000000E+01  0.00000000E+00
  2.40000000E+01  2.10000000E+01  0.00000000E+00
  2.40000000E+01  2.00000000E+01  0.00000000E+00
  2.40000000E+01  1.90000000E+01  0.00000000E+00
  2.40000000E+01  1.80000000E+01  0.00000000E+00
  2.40000000E+01  1.70000000E+01  0.00000000E+00
  2.40000000E+01  1.60000000E+01  0.00000000E+00
  2.40000000E+01  1.50000000E+01  0.00000000E+00
  2.40000000E+01  1.40000000E+01  0.00000000E+00
  2.40000000E+01  1.30000000E+01  0.00000000E+00
  2.40000000E+01  1.20000000E+01  0.00000000E+00
  2.40000000E+01  1.10000000E+01  0.00000000E+00
  2.40000000E+01  1.00000000E+01  0.00000000E+00
  2.40000000E+01  9.00000000E+00  0.00000000E+00
  2.40000000E+01  8.00000000E+00  0.00000000E+00
  2.40000000E+01  7.00000000E+00  0.00000000E+00
  2.40000000E+01  6.00000000E+00  0.00000000E+00
  2.40000000E+01  5.00000000E+00  0.00000000E+00
  2.40000000E+01  4.00000000E+00  0.00000000E+00
  2.40000000E+01  3.00000000E+00  0.00000000E+00
  2.40000000E+01  2.00000000E+00  0.00000000E+00
  2.40000000E+01  1.00000000E+00  0.00000000E+00
  2.40000000E+01 -2.66453526E-15  0.00000000E+00
  2.50000000E+01  2.40000000E+01  0.00000000E+00
  2.50000000E+01  2.30000000E+01  0.00000000E+00
  2.50000000E+01  2.20000000E+01  0.00000000E+00
  2.50000000E+01  2.10000000E+01  0.00000000E+00
  2.50000000E+01  2.00000000E+01  0.00000000E+00
  2.50000000E+01  1.90000000E+01  0.00000000E+00
  2.50000000E+01  1.80000000E+01  0.00000000E+00
  2.50000000E+01  1.70000000E+01  0.00000000E+00
  2.50000000E+01  1.60000000E+01  0.00000000E+00
  2.50000000E+01  1.50000000E+01  0.00000000E+00
  2.50000000E+01  1.40000000E+01  0.00000000E+00
  2.50000000E+01  1.30000000E+01  0.00000000E+00
  2.50000000E+01  1.20000000E+01  0.00000000E+00
  2.50000000E+01  1.10000000E+01  0.00000000E+00
  2.50000000E+01  1.00000000E+01  0.00000000E+00
  2.50000000E+01  9.00000000E+00  0.00000000E+00
  2.50000000E+01  8.00000000E+00  0.00000000E+00
  2.50000000E+01  7.00000000E+00  0.00000000E+00
  2.50000000E+01  6.00000000E+00  0.00000000E+00
  2.50000000E+01  5.00000000E+00  0.00000000E+00
  2.50000000E+01  4.00000000E+00  0.00000000E+00
  2.50000000E+01  3.00000000E+00  0.00000000E+00
  2.50000000E+01  2.00000000E+00  0.00000000E+00
  2.50000000E+01  1.00000000E+00  0.00000000E+00
  2.50000000E+01 -2.66453526E-15  0.00000000E+00
  2.60000000E+01  2.40000000E+01  0.00000000E+00
  2.60000000E+01  2.30000000E+01  0.00000000E+00
  2.60000000E+01  2.20000000E+01  0.00000000E+00
  2.60000000E+01  2.10000000E+01  0.00000000E+00
  2.60000000E+01  2.00000000E+01  0.00000000E+00
  2.60000000E+01  1.90000000E+01  0.00000000E+00
  2.60000000E+01  1.80000000E+01  0.00000000E+00
  2.60000000E+01  1.70000000E+01  0.00000000E+00
  2.60000000E+01  1.60000000E+01  0.00000000E+00
  2.60000000E+01  1.50000000E+01  0.00000000E+00
  2.60000000E+01  1.40000000E+01  0.00000000E+00
  2.60000000E+01  1.30000000E+01  0.00000000E+00
  2.60000000E+01  1.20000000E+01  0.00000000E+00
  2.60000000E+01  1.10000000E+01  0.00000000E+00
  2.60000000E+01  1.00000000E+01  0.00000000E+00
  2.60000000E+01  9.00000000E+00  0.00000000E+00
  2.60000000E+01  8.00000000E+00  0.00000000E+00
  2.60000000E+01  7.00000000E+00  0.00000000E+00
  2.60000000E+01  6.00000000E+00  0.00000000E+00
  2.60000000E+01  5.00000000E+00  0.00000000E+00
  2.60000000E+01  4.00000000E+00  0.00000000E+00
  2.60000000E+01  3.00000000E+00  0.00000000E+00
  2.60000000E+01  2.00000000E+00  0.00000000E+00
  2.60000000E+01  1.00000000E+00  0.00000000E+00
  2.60000000E+01 -2.66453526E-15  0.00000000E+00
  2.70000000E+01  2.40000000E+01  0.00000000E+00
  2.70000000E+01  2.30000000E+01  0.00000000E+00
  2.70000000E+01  2.20000000E+01  0.00000000E+00
  2.70000000E+01  2.10000000E+01  0.00000000E+00
  2.70000000E+01  2.00000000E+01  0.00000000E+00
  2.70000000E+01  1.90000000E+01  0.00000000E+00
  2.70000000E+01  1.80000000E+01  0.00000000E+00
  2.70000000E+01  1.70000000E+01  0.00000000E+00
  2.70000000E+01  1.60000000E+01  0.00000000E+00
  2.70000000E+01  1.50000000E+01  0.00000000E+00
  2.70000000E+01  1.40000000E+01  0.00000000E+00
  2.70000000E+01  1.30000000E+01  0.00000000E+00
  2.70000000E+01  1.20000000E+01  0.00000000E+00
  2.70000000E+01  1.10000000E+01  0.00000000E+00
  2.70000000E+01  1.00000000E+01  0.00000000E+00
  2.70000000E+01  9.00000000E+00  0.00000000E+00
  2.70000000E+01  8.00000000E+00  0.00000000E+00
  2.70000000E+01  7.00000000E+00  0.00000000E+00
  2.70000000E+01  6.00000000E+00  0.00000000E+00
  2.70000000E+01  5.00000000E+00  0.00000000E+00
  2.70000000E+01  4.00000000E+00  0.00000000E+00
  2.70000000E+01  3.00000000E+00  0.00000000E+00
  2.70000000E+01  2.00000000E+00  0.00000000E+00
  2.70000000E+01  1.00000000E+00  0.00000000E+00
  2.70000000E+01 -2.66453526E-15  0.00000000E+00
  2.80000000E+01  2.40000000E+01  0.00000000E+00
  2.80000000E+01  2.30000000E+01  0.00000000E+00
  2.80000000E+01  2.20000000E+01  0.00000000E+00
  2.80000000E+01  2.10000000E+01  0.00000000E+00
  2.80000000E+01  2.00000000E+01  0.00000000E+00
  2.80000000E+01  1.90000000E+01  0.00000000E+00
  2.80000000E+01  1.80000000E+01  0.00000000E+00
  2.80000000E+01  1.70000000E+01  0.00000000E+00
  2.80000000E+01  1.60000000E+01  0.00000000E+00
  2.80000000E+01  1.50000000E+01  0.00000000E+00
  2.80000000E+01  1.40000000E+01  0.00000000E+00
  2.80000000E+01  1.30000000E+01  0.00000000E+00
  2.80000000E+01  1.20000000E+01  0.00000000E+00
  2.80000000E+01  1.10000000E+01  0.00000000E+00
  2.80000000E+01  1.00000000E+01  0.00000000E+00
  2.80000000E+01  9.00000000E+00  0.00000000E+00
  2.80000000E+01  8.00000000E+00  0.00000000E+00
  2.80000000E+01  7.00000000E+00  0.00000000E+00
  2.80000000E+01  6.00000000E+00  0.00000000E+00
  2.80000000E+01  5.00000000E+00  0.00000000E+00
  2.80000000E+01  4.00000000E+00  0.00000000E+00
  2.80000000E+01  3.00000000E+00  0.00000000E+00
  2.80000000E+01  2.00000000E+00  0.00000000E+00
  2.80000000E+01  1.00000000E+00  0.00000000E+00
  2.80000000E+01 -2.66453526E-15  0.00000000E+00
  2.90000000E+01  2.40000000E+01  0.00000000E+00
  2.90000000E+01  2.30000000E+01  0.00000000E+00
  2.90000000E+01  2.20000000E+01  0.00000000E+00
  2.90000000E+01  2.10000000E+01  0.00000000E+00
  2.90000000E+01  2.00000000E+01  0.00000000E+00
  2.90000000E+01  1.90000000E+01  0.00000000E+00
  2.90000000E+01  1.80000000E+01  0.00000000E+00
  2.90000000E+01  1.70000000E+01  0.00000000E+00
  2.90000000E+01  1.60000000E+01  0.00000000E+00
  2.90000000E+01  1.50000000E+01  0.00000000E+00
  2.90000000E+01  1.40000000E+01  0.00000000E+00
  2.90000000E+01  1.30000000E+01  0.00000000E+00
  2.90000000E+01  1.20000000E+01  0.00000000E+00
  2.90000000E+01  1.10000000E+01  0.00000000E+00
  2.90000000E+01  1.00000000E+01  0.00000000E+00
  2.90000000E+01  9.00000000E+00  0.00000000E+00
  2.90000000E+01  8.00000000E+00  0.00000000E+00
  2.90000000E+01  7.00000000E+00  0.00000000E+00
  2.90000000E+01  6.00000000E+00  0.00000000E+00
  2.90000000E+01  5.00000000E+00  0.00000000E+00
  2.90000000E+01  4.00000000E+00  0.00000000E+00
  2.90000000E+01  3.00000000E+00  0.00000000E+00
  2.90000000E+01  2.00000000E+00  0.00000000E+00
  2.90000000E+01  1.00000000E+00  0.00000000E+00
  2.90000000E+01 -2.66453526E-15  0.00000000E+00
  3.00000000E+01  2.40000000E+01  0.00000000E+00
  3.00000000E+01  2.30000000E+01  0.00000000E+00
  3.00000000E+01  2.20000000E+01  0.00000000E+00
  3.00000000E+01  2.10000000E+01  0.00000000E+00
  3.00000000E+01  2.00000000E+01  0.00000000E+00
  3.00000000E+01  1.90000000E+01  0.00000000E+00
  3.00000000E+01  1.80000000E+01  0.00000000E+00
  3.00000000E+01  1.70000000E+01  0.00000000E+00
  3.00000000E+01  1.60000000E+01  0.00000000E+00
  3.00000000E+01  1.50000000E+01  0.00000000E+00
  3.00000000E+01  1.40000000E+01  0.00000000E+00
  3.00000000E+01  1.30000000E+01  0.00000000E+00
  3.00000000E+01  1.20000000E+01  0.00000000E+00
  3.00000000E+01  1.10000000E+01  0.00000000E+00
  3.00000000E+01  1.00000000E+01  0.00000000E+00
  3.00000000E+01  9.00000000E+00  0.00000000E+00
  3.00000000E+01  8.00000000E+00  0.00000000E+00
  3.00000000E+01  7.00000000E+00  0.00000000E+00
  3.00000000E+01  6.00000000E+00  0.00000000E+00
  3.00000000E+01  5.00000000E+00  0.00000000E+00
  3.00000000E+01  4.00000000E+00  0.00000000E+00
  3.00000000E+01  3.00000000E+00  0.00000000E+00
  3.00000000E+01  2.00000000E+00  0.00000000E+00
  3.00000000E+01  1.00000000E+00  0.00000000E+00
  3.00000000E+01 -2.66453526E-15  0.00000000E+00
  3.10000000E+01  2.40000000E+01  0.00000000E+00
  3.10000000E+01  2.30000000E+01  0.00000000E+00
  3.10000000E+01  2.20000000E+01  0.00000000E+00
  3.10000000E+01  2.10000000E+01  0.00000000E+00
  3.10000000E+01  2.00000000E+01  0.00000000E+00
  3.10000000E+01  1.90000000E+01  0.00000000E+00
  3.10000000E+01  1.80000000E+01  0.00000000E+00
  3.10000000E+01  1.70000000E+01  0.00000000E+00
  3.10000000E+01  1.60000000E+01  0.00000000E+00
  3.10000000E+01  1.50000000E+01  0.00000000E+00
  3.10000000E+01  1.40000000E+01  0.00000000E+00
  3.10000000E+01  1.30000000E+01  0.00000000E+00
  3.10000000E+01  1.20000000E+01  0.00000000E+00
  3.10000000E+01  1.10000000E+01  0.00000000E+00
  3.10000000E+01  1.00000000E+01  0.00000000E+00
  3.10000000E+01  9.00000000E+00  0.00000000E+00
  3.10000000E+01  8.00000000E+00  0.00000000E+00
  3.10000000E+01  7.00000000E+00  0.00000000E+00
  3.10000000E+01  6.00000000E+00  0.00000000E+00
  3.10000000E+01  5.00000000E+00  0.00000000E+00
  3.10000000E+01  4.00000000E+00  0.00000000E+00
  3.10000000E+01  3.00000000E+00  0.00000000E+00
  3.10000000E+01  2.00000000E+00  0.00000000E+00
  3.10000000E+01  1.00000000E+00  0.00000000E+00
  3.10000000E+01 -2.66453526E-15  0.00000000E+00
  3.20000000E+01  2.40000000E+01  0.00000000E+00
  3.20000000E+01  2.30000000E+01  0.00000000E+00
  3.20000000E+01  2.20000000E+01  0.00000000E+00
  3.20000000E+01  2.10000000E+01  0.00000000E+00
  3.20000000E+01  2.00000000E+01  0.00000000E+00
  3.20000000E+01  1.90000000E+01  0.00000000E+00
  3.20000000E+01  1.80000000E+01  0.00000000E+00
  3.20000000E+01  1.70000000E+01  0.00000000E+00
  3.20000000E+01  1.60000000E+01  0.00000000E+00
  3.20000000E+01  1.50000000E+01  0.00000000E+00
  3.20000000E+01  1.40000000E+01  0.00000000E+00
  3.20000000E+01  1.30000000E+01  0.00000000E+00
  3.20000000E+01  1.20000000E+01  0.00000000E+00
  3.20000000E+01  1.10000000E+01  0.00000000E+00
  3.20000000E+01  1.00000000E+01  0.00000000E+00
  3.20000000E+01  9.00000000E+00  0.00000000E+00
  3.20000000E+01  8.00000000E+00  0.00000000E+00
  3.20000000E+01  7.00000000E+00  0.00000000E+00
  3.20000000E+01  6.00000000E+00  0.00000000E+00
  3.20000000E+01  5.00000000E+00  0.00000000E+00
  3.20000000E+01  4.00000000E+00  0.00000000E+00
  3.20000000E+01  3.00000000E+00  0.00000000E+00
  3.20000000E+01  2.00000000E+00  0.00000000E+00
  3.20000000E+01  1.00000000E+00  0.00000000E+00
  3.20000000E+01 -2.66453526E-15  0.00000000E+00
  3.30000000E+01  2.40000000E+01  0.00000000E+00
  3.30000000E+01  2.30000000E+01  0.00000000E+00
  3.30000000E+01  2.20000000E+01  0.00000000E+00
  3.30000000E+01  2.10000000E+01  0.00000000E+00
  3.30000000E+01  2.00000000E+01  0.00000000E+00
  3.30000000E+01  1.90000000E+01  0.00000000E+00
  3.30000000E+01  1.80000000E+01  0.00000000E+00
  3.30000000E+01  1.70000000E+01  0.00000000E+00
  3.30000000E+01  1.60000000E+01  0.00000000E+00
  3.30000000E+01  1.50000000E+01  0.00000000E+00
  3.30000000E+01  1.40000000E+01  0.00000000E+00
  3.30000000E+01  1.30000000E+01  0.00000000E+00
  3.30000000E+01  1.20000000E+01  0.00000000E+00
  3.30000000E+01  1.10000000E+01  0.00000000E+00
  3.30000000E+01  1.00000000E+01  0.00000000E+00
  3.30000000E+01  9.00000000E+00  0.00000000E+00
  3.30000000E+01  8.00000000E+00  0.00000000E+00
  3.30000000E+01  7.00000000E+00  0.00000000E+00
  3.30000000E+01  6.00000000E+00  0.00000000E+00
  3.30000000E+01  5.00000000E+00  0.00000000E+00
  3.30000000E+01  4.00000000E+00  0.00000000E+00
  3.30000000E+01  3.00000000E+00  0.00000000E+00
  3.30000000E+01  2.00000000E+00  0.00000000E+00
  3.30000000E+01  1.00000000E+00  0.00000000E+00
  3.30000000E+01 -2.66453526E-15  0.00000000E+00
  3.40000000E+01  2.40000000E+01  0.00000000E+00
  3.40000000E+01  2.30000000E+01  0.00000000E+00
  3.40000000E+01  2.20000000E+01  0.00000000E+00
  3.40000000E+01  2.10000000E+01  0.00000000E+00
  3.40000000E+01  2.00000000E+01  0.00000000E+00
  3.40000000E+01  1.90000000E+01  0.00000000E+00
  3.40000000E+01  1.80000000E+01  0.00000000E+00
  3.40000000E+01  1.70000000E+01  0.00000000E+00
  3.40000000E+01  1.60000000E+01  0.00000000E+00
  3.40000000E+01  1.50000000E+01  0.00000000E+00
  3.40000000E+01  1.40000000E+01  0.00000000E+00
  3.40000000E+01  1.30000000E+01  0.00000000E+00
  3.40000000E+01  1.20000000E+01  0.00000000E+00
  3.40000000E+01  1.10000000E+01  0.00000000E+00
  3.40000000E+01  1.00000000E+01  0.00000000E+00
  3.40000000E+01  9.00000000E+00  0.00000000E+00
  3.40000000E+01  8.00000000E+00  0.00000000E+00
  3.40000000E+01  7.00000000E+00  0.00000000E+00
  3.40000000E+01  6.00000000E+00  0.00000000E+00
  3.40000000E+01  5.00000000E+00  0.00000000E+00
  3.40000000E+01  4.00000000E+00  0.00000000E+00
  3.40000000E+01  3.00000000E+00  0.00000000E+00
  3.40000000E+01  2.00000000E+00  0.00000000E+00
  3.40000000E+01  1.00000000E+00  0.00000000E+00
  3.40000000E+01 -2.66453526E-15  0.00000000E+00
  3.50000000E+01  2.40000000E+01  0.00000000E+00
  3.50000000E+01  2.30000000E+01  0.00000000E+00
  3.50000000E+01  2.20000000E+01  0.00000000E+00
  3.50000000E+01  2.10000000E+01  0.00000000E+00
  3.50000000E+01  2.00000000E+01  0.00000000E+00
  3.50000000E+01  1.90000000E+01  0.00000000E+00
  3.50000000E+01  1.80000000E+01  0.00000000E+00
  3.50000000E+01  1.70000000E+01  0.00000000E+00
  3.50000000E+01  1.60000000E+01  0.00000000E+00
  3.50000000E+01  1.50000000E+01  0.00000000E+00
  3.50000000E+01  1.40000000E+01  0.00000000E+00
  3.50000000E+01  1.30000000E+01  0.00000000E+00
  3.50000000E+01  1.20000000E+01  0.00000000E+00
  3.50000000E+01  1.10000000E+01  0.00000000E+00
  3.50000000E+01  1.00000000E+01  0.00000000E+00
  3.50000000E+01  9.00000000E+00  0.00000000E+00
  3.50000000E+01  8.00000000E+00  0.00000000E+00
  3.50000000E+01  7.00000000E+00  0.00000000E+00
  3.50000000E+01  6.00000000E+00  0.00000000E+00
  3.50000000E+01  5.00000000E+00  0.00000000E+00
  3.50000000E+01  4.00000000E+00  0.00000000E+00
  3.50000000E+01  3.00000000E+00  0.00000000E+00
  3.50000000E+01  2.00000000E+00  0.00000000E+00
  3.50000000E+01  1.00000000E+00  0.00000000E+00
  3.50000000E+01 -2.66453526E-15  0.00000000E+00
  3.60000000E+01  2.40000000E+01  0.00000000E+00
  3.60000000E+01  2.30000000E+01  0.00000000E+00
  3.60000000E+01  2.20000000E+01  0.00000000E+00
  3.60000000E+01  2.10000000E+01  0.00000000E+00
  3.60000000E+01  2.00000000E+01  0.00000000E+00
  3.60000000E+01  1.90000000E+01  0.00000000E+00
  3.60000000E+01  1.80000000E+01  0.00000000E+00
  3.60000000E+01  1.70000000E+01  0.00000000E+00
  3.60000000E+01  1.60000000E+01  0.00000000E+00
  3.60000000E+01  1.50000000E+01  0.00000000E+00
  3.60000000E+01  1.40000000E+01  0.00000000E+00
  3.60000000E+01  1.30000000E+01  0.00000000E+00
  3.60000000E+01  1.20000000E+01  0.00000000E+00
  3.60000000E+01  1.10000000E+01  0.00000000E+00
  3.60000000E+01  1.00000000E+01  0.00000000E+00
  3.60000000E+01  9.00000000E+00  0.00000000E+00
  3.60000000E+01  8.00000000E+00  0.00000000E+00
  3.60000000E+01  7.00000000E+00  0.00000000E+00
  3.60000000E+01  6.00000000E+00  0.00000000E+00
  3.60000000E+01  5.00000000E+00  0.00000000E+00
  3.60000000E+01  4.00000000E+00  0.00000000E+00
  3.60000000E+01  3.00000000E+00  0.00000000E+00
  3.60000000E+01  2.00000000E+00  0.00000000E+00
  3.60000000E+01  1.00000000E+00  0.00000000E+00
  3.60000000E+01 -2.66453526E-15  0.00000000E+00
  3.70000000E+01  2.40000000E+01  0.00000000E+00
  3.70000000E+01  2.30000000E+01  0.00000000E+00
  3.70000000E+01  2.20000000E+01  0.00000000E+00
  3.70000000E+01  2.10000000E+01  0.00000000E+00
  3.70000000E+01  2.00000000E+01  0.00000000E+00
  3.70000000E+01  1.90000000E+01  0.00000000E+00
  3.70000000E+01  1.80000000E+01  0.00000000E+00
  3.70000000E+01  1.70000000E+01  0.00000000E+00
  3.70000000E+01  1.60000000E+01  0.00000000E+00
  3.70000000E+01  1.50000000E+01  0.00000000E+00
  3.70000000E+01  1.40000000E+01  0.00000000E+00
  3.70000000E+01  1.30000000E+01  0.00000000E+00
  3.70000000E+01  1.20000000E+01  0.00000000E+00
  3.70000000E+01  1.10000000E+01  0.00000000E+00
  3.70000000E+01  1.00000000E+01  0.00000000E+00
  3.70000000E+01  9.00000000E+00  0.00000000E+00
  3.70000000E+01  8.00000000E+00  0.00000000E+00
  3.70000000E+01  7.00000000E+00  0.00000000E+00
  3.70000000E+01  6.00000000E+00  0.00000000E+00
  3.70000000E+01  5.00000000E+00  0.00000000E+00
  3.70000000E+01  4.00000000E+00  0.00000000E+00
  3.70000000E+01  3.00000000E+00  0.00000000E+00
  3.70000000E+01  2.00000000E+00  0.00000000E+00
  3.70000000E+01  1.00000000E+00  0.00000000E+00
  3.70000000E+01 -2.66453526E-15  0.00000000E+00
  3.80000000E+01  2.40000000E+01  0.00000000E+00
  3.80000000E+01  2.30000000E+01  0.00000000E+00
  3.80000000E+01  2.20000000E+01  0.00000000E+00
  3.80000000E+01  2.10000000E+01  0.00000000E+00
  3.80000000E+01  2.00000000E+01  0.00000000E+00
  3.80000000E+01  1.90000000E+01  0.00000000E+00
  3.80000000E+01  1.80000000E+01  0.00000000E+00
  3.80000000E+01  1.70000000E+01  0.00000000E+00
  3.80000000E+01  1.60000000E+01  0.00000000E+00
  3.80000000E+01  1.50000000E+01  0.00000000E+00
  3.80000000E+01  1.40000000E+01  0.00000000E+00
  3.80000000E+01  1.30000000E+01  0.00000000E+00
  3.80000000E+01  1.20000000E+01  0.00000000E+00
  3.80000000E+01  1.10000000E+01  0.00000000E+00
  3.80000000E+01  1.00000000E+01  0.00000000E+00
  3.80000000E+01  9.00000000E+00  0.00000000E+00
  3.80000000E+01  8.00000000E+00  0.00000000E+00
  3.80000000E+01  7.00000000E+00  0.00000000E+00
  3.80000000E+01  6.00000000E+00  0.00000000E+00
  3.80000000E+01  5.00000000E+00  0.00000000E+00
  3.80000000E+01  4.00000000E+00  0.00000000E+00
  3.80000000E+01  3.00000000E+00  0.00000000E+00
  3.80000000E+01  2.00000000E+00  0.00000000E+00
  3.80000000E+01  1.00000000E+00  0.00000000E+00
  3.80000000E+01 -2.66453526E-15  0.00000000E+00
  3.90000000E+01  2.40000000E+01  0.00000000E+00
  3.90000000E+01  2.30000000E+01  0.00000000E+00
  3.90000000E+01  2.20000000E+01  0.00000000E+00
  3.90000000E+01  2.10000000E+01  0.00000000E+00
  3.90000000E+01  2.00000000E+01  0.00000000E+00
  3.90000000E+01  1.90000000E+01  0.00000000E+00
  3.90000000E+01  1.80000000E+01  0.00000000E+00
  3.90000000E+01  1.70000000E+01  0.00000000E+00
  3.90000000E+01  1.60000000E+01  0.00000000E+00
  3.90000000E+01  1.50000000E+01  0.00000000E+00
  3.90000000E+01  1.40000000E+01  0.00000000E+00
  3.90000000E+01  1.30000000E+01  0.00000000E+00
  3.90000000E+01  1.20000000E+01  0.00000000E+00
  3.90000000E+01  1.10000000E+01  0.00000000E+00
  3.90000000E+01  1.00000000E+01  0.00000000E+00
  3.90000000E+01  9.00000000E+00  0.00000000E+00
  3.90000000E+01  8.00000000E+00  0.00000000E+00
  3.90000000E+01  7.00000000E+00  0.00000000E+00
  3.90000000E+01  6.00000000E+00  0.00000000E+00
  3.90000000E+01  5.00000000E+00  0.00000000E+00
  3.90000000E+01  4.00000000E+00  0.00000000E+00
  3.90000000E+01  3.00000000E+00  0.00000000E+00
  3.90000000E+01  2.00000000E+00  0.00000000E+00
  3.90000000E+01  1.00000000E+00  0.00000000E+00
  3.90000000E+01 -2.66453526E-15  0.00000000E+00
  4.00000000E+01  2.40000000E+01  0.00000000E+00
  4.00000000E+01  2.30000000E+01  0.00000000E+00
  4.00000000E+01  2.20000000E+01  0.00000000E+00
  4.00000000E+01  2.10000000E+01  0.00000000E+00
  4.00000000E+01  2.00000000E+01  0.00000000E+00
  4.00000000E+01  1.90000000E+01  0.00000000E+00
  4.00000000E+01  1.80000000E+01  0.00000000E+00
  4.00000000E+01  1.70000000E+01  0.00000000E+00
  4.00000000E+01  1.60000000E+01  0.00000000E+00
  4.00000000E+01  1.50000000E+01  0.00000000E+00
  4.00000000E+01  1.40000000E+01  0.00000000E+00
  4.00000000E+01  1.30000000E+01  0.00000000E+00
  4.00000000E+01  1.20000000E+01  0.00000000E+00
  4.00000000E+01  1.10000000E+01  0.00000000E+00
  4.00000000E+01  1.00000000E+01  0.00000000E+00
  4.00000000E+01  9.00000000E+00  0.00000000E+00
  4.00000000E+01  8.00000000E+00  0.00000000E+00
  4.00000000E+01  7.00000000E+00  0.00000000E+00
  4.00000000E+01  6.00000000E+00  0.00000000E+00
  4.00000000E+01  5.00000000E+00  0.00000000E+00
  4.00000000E+01  4.00000000E+00  0.00000000E+00
  4.00000000E+01  3.00000000E+00  0.00000000E+00
  4.00000000E+01  2.00000000E+00  0.00000000E+00
  4.00000000E+01  1.00000000E+00  0.00000000E+00
  4.00000000E+01 -2.66453526E-15  0.00000000E+00
  4.10000000E+01  2.40000000E+01  0.00000000E+00
  4.10000000E+01  2.30000000E+01  0.00000000E+00
  4.10000000E+01  2.20000000E+01  0.00000000E+00
  4.10000000E+01  2.10000000E+01  0.00000000E+00
  4.10000000E+01  2.00000000E+01  0.00000000E+00
  4.10000000E+01  1.90000000E+01  0.00000000E+00
  4.10000000E+01  1.80000000E+01  0.00000000E+00
  4.10000000E+01  1.70000000E+01  0.00000000E+00
  4.10000000E+01  1.60000000E+01  0.00000000E+00
  4.10000000E+01  1.50000000E+01  0.00000000E+00
  4.10000000E+01  1.40000000E+01  0.00000000E+00
  4.10000000E+01  1.30000000E+01  0.00000000E+00
  4.10000000E+01  1.20000000E+01  0.00000000E+00
  4.10000000E+01  1.10000000E+01  0.00000000E+00
  4.10000000E+01  1.00000000E+01  0.00000000E+00
  4.10000000E+01  9.00000000E+00  0.00000000E+00
  4.10000000E+01  8.00000000E+00  0.00000000E+00
  4.10000000E+01  7.00000000E+00  0.00000000E+00
  4.10000000E+01  6.00000000E+00  0.00000000E+00
  4.10000000E+01  5.00000000E+00  0.00000000E+00
  4.10000000E+01  4.00000000E+00  0.00000000E+00
  4.10000000E+01  3.00000000E+00  0.00000000E+00
  4.10000000E+01  2.00000000E+00  0.00000000E+00
  4.10000000E+01  1.00000000E+00  0.00000000E+00
  4.10000000E+01 -2.66453526E-15  0.00000000E+00
  4.20000000E+01  2.40000000E+01  0.00000000E+00
  4.20000000E+01  2.30000000E+01  0.00000000E+00
  4.20000000E+01  2.20000000E+01  0.00000000E+00
  4.20000000E+01  2.10000000E+01  0.00000000E+00
  4.20000000E+01  2.00000000E+01  0.00000000E+00
  4.20000000E+01  1.90000000E+01  0.00000000E+00
  4.20000000E+01  1.80000000E+01  0.00000000E+00
  4.20000000E+01  1.70000000E+01  0.00000000E+00
  4.20000000E+01  1.60000000E+01  0.00000000E+00
  4.20000000E+01  1.50000000E+01  0.00000000E+00
  4.20000000E+01  1.40000000E+01  0.00000000E+00
  4.20000000E+01  1.30000000E+01  0.00000000E+00
  4.20000000E+01  1.20000000E+01  0.00000000E+00
  4.20000000E+01  1.10000000E+01  0.00000000E+00
  4.20000000E+01  1.00000000E+01  0.00000000E+00
  4.20000000E+01  9.00000000E+00  0.00000000E+00
  4.20000000E+01  8.00000000E+00  0.00000000E+00
  4.20000000E+01  7.00000000E+00  0.00000000E+00
  4.20000000E+01  6.00000000E+00  0.00000000E+00
  4.20000000E+01  5.00000000E+00  0.00000000E+00
  4.20000000E+01  4.00000000E+00  0.00000000E+00
  4.20000000E+01  3.00000000E+00  0.00000000E+00
  4.20000000E+01  2.00000000E+00  0.00000000E+00
  4.20000000E+01  1.00000000E+00  0.00000000E+00
  4.20000000E+01 -2.66453526E-15  0.00000000E+00
  4.30000000E+01  2.40000000E+01  0.00000000E+00
  4.30000000E+01  2.30000000E+01  0.00000000E+00
  4.30000000E+01  2.20000000E+01  0.00000000E+00
  4.30000000E+01  2.10000000E+01  0.00000000E+00
  4.30000000E+01  2.00000000E+01  0.00000000E+00
  4.30000000E+01  1.90000000E+01  0.00000000E+00
  4.30000000E+01  1.80000000E+01  0.00000000E+00
  4.30000000E+01  1.70000000E+01  0.00000000E+00
  4.30000000E+01  1.60000000E+01  0.00000000E+00
  4.30000000E+01  1.50000000E+01  0.00000000E+00
  4.30000000E+01  1.40000000E+01  0.00000000E+00
  4.30000000E+01  1.30000000E+01  0.00000000E+00
  4.30000000E+01  1.20000000E+01  0.00000000E+00
  4.30000000E+01  1.10000000E+01  0.00000000E+00
  4.30000000E+01  1.00000000E+01  0.00000000E+00
  4.30000000E+01  9.00000000E+00  0.00000000E+00
  4.30000000E+01  8.00000000E+00  0.00000000E+00
  4.30000000E+01  7.00000000E+00  0.00000000E+00
  4.30000000E+01  6.00000000E+00  0.00000000E+00
  4.30000000E+01  5.00000000E+00  0.00000000E+00
  4.30000000E+01  4.00000000E+00  0.00000000E+00
  4.30000000E+01  3.00000000E+00  0.00000000E+00
  4.30000000E+01  2.00000000E+00  0.00000000E+00
  4.30000000E+01  1.00000000E+00  0.00000000E+00
  4.30000000E+01 -2.66453526E-15  0.00000000E+00
  4.40000000E+01  2.40000000E+01  0.00000000E+00
  4.40000000E+01  2.30000000E+01  0.00000000E+00
  4.40000000E+01  2.20000000E+01  0.00000000E+00
  4.40000000E+01  2.10000000E+01  0.00000000E+00
  4.40000000E+01  2.00000000E+01  0.00000000E+00
  4.40000000E+01  1.90000000E+01  0.00000000E+00
  4.40000000E+01  1.80000000E+01  0.00000000E+00
  4.40000000E+01  1.70000000E+01  0.00000000E+00
  4.40000000E+01  1.60000000E+01  0.00000000E+00
  4.40000000E+01  1.50000000E+01  0.00000000E+00
  4.40000000E+01  1.40000000E+01  0.00000000E+00
  4.40000000E+01  1.30000000E+01  0.00000000E+00
  4.40000000E+01  1.20000000E+01  0.00000000E+00
  4.40000000E+01  1.10000000E+01  0.00000000E+00
  4.40000000E+01  1.00000000E+01  0.00000000E+00
  4.40000000E+01  9.00000000E+00  0.00000000E+00
  4.40000000E+01  8.00000000E+00  0.00000000E+00
  4.40000000E+01  7.00000000E+00  0.00000000E+00
  4.40000000E+01  6.00000000E+00  0.00000000E+00
  4.40000000E+01  5.00000000E+00  0.00000000E+00
  4.40000000E+01  4.00000000E+00  0.00000000E+00
  4.40000000E+01  3.00000000E+00  0.00000000E+00
  4.40000000E+01  2.00000000E+00  0.00000000E+00
  4.40000000E+01  1.00000000E+00  0.00000000E+00
  4.40000000E+01 -2.66453526E-15  0.00000000E+00
  4.50000000E+01  2.40000000E+01  0.00000000E+00
  4.50000000E+01  2.30000000E+01  0.00000000E+00
  4.50000000E+01  2.20000000E+01  0.00000000E+00
  4.50000000E+01  2.10000000E+01  0.00000000E+00
  4.50000000E+01  2.00000000E+01  0.00000000E+00
  4.50000000E+01  1.90000000E+01  0.00000000E+00
  4.50000000E+01  1.80000000E+01  0.00000000E+00
  4.50000000E+01  1.70000000E+01  0.00000000E+00
  4.50000000E+01  1.60000000E+01  0.00000000E+00
  4.50000000E+01  1.50000000E+01  0.00000000E+00
  4.50000000E+01  1.40000000E+01  0.00000000E+00
  4.50000000E+01  1.30000000E+01  0.00000000E+00
  4.50000000E+01  1.20000000E+01  0.00000000E+00
  4.50000000E+01  1.10000000E+01  0.00000000E+00
  4.50000000E+01  1.00000000E+01  0.00000000E+00
  4.50000000E+01  9.00000000E+00  0.00000000E+00
  4.50000000E+01  8.00000000E+00  0.00000000E+00
  4.50000000E+01  7.00000000E+00  0.00000000E+00
  4.50000000E+01  6.00000000E+00  0.00000000E+00
  4.50000000E+01  5.00000000E+00  0.00000000E+00
  4.50000000E+01  4.00000000E+00  0.00000000E+00
  4.50000000E+01  3.00000000E+00  0.00000000E+00
  4.50000000E+01  2.00000000E+00  0.00000000E+00
  4.50000000E+01  1.00000000E+00  0.00000000E+00
  4.50000000E+01 -2.66453526E-15  0.00000000E+00
  4.60000000E+01  2.40000000E+01  0.00000000E+00
  4.60000000E+01  2.30000000E+01  0.00000000E+00
  4.60000000E+01  2.20000000E+01  0.00000000E+00
  4.60000000E+01  2.10000000E+01  0.00000000E+00
  4.60000000E+01  2.00000000E+01  0.00000000E+00
  4.60000000E+01  1.90000000E+01  0.00000000E+00
  4.60000000E+01  1.80000000E+01  0.00000000E+00
  4.60000000E+01  1.70000000E+01  0.00000000E+00
  4.60000000E+01  1.60000000E+01  0.00000000E+00
  4.60000000E+01  1.50000000E+01  0.00000000E+00
  4.60000000E+01  1.40000000E+01  0.00000000E+00
  4.60000000E+01  1.30000000E+01  0.00000000E+00
  4.60000000E+01  1.20000000E+01  0.00000000E+00
  4.60000000E+01  1.10000000E+01  0.00000000E+00
  4.60000000E+01  1.00000000E+01  0.00000000E+00
  4.60000000E+01  9.00000000E+00  0.00000000E+00
  4.60000000E+01  8.00000000E+00  0.00000000E+00
  4.60000000E+01  7.00000000E+00  0.00000000E+00
  4.60000000E+01  6.00000000E+00  0.00000000E+00
  4.60000000E+01  5.00000000E+00  0.00000000E+00
  4.60000000E+01  4.00000000E+00  0.00000000E+00
  4.60000000E+01  3.00000000E+00  0.00000000E+00
  4.60000000E+01  2.00000000E+00  0.00000000E+00
  4.60000000E+01  1.00000000E+00  0.00000000E+00
  4.60000000E+01 -2.66453526E-15  0.00000000E+00
  4.70000000E+01  2.40000000E+01  0.00000000E+00
  4.70000000E+01  2.30000000E+01  0.00000000E+00
  4.70000000E+01  2.20000000E+01  0.00000000E+00
  4.70000000E+01  2.10000000E+01  0.00000000E+00
  4.70000000E+01  2.00000000E+01  0.00000000E+00
  4.70000000E+01  1.90000000E+01  0.00000000E+00
  4.70000000E+01  1.80000000E+01  0.00000000E+00
  4.70000000E+01  1.70000000E+01  0.00000000E+00
  4.70000000E+01  1.60000000E+01  0.00000000E+00
  4.70000000E+01  1.50000000E+01  0.00000000E+00
  4.70000000E+01  1.40000000E+01  0.00000000E+00
  4.70000000E+01  1.30000000E+01  0.00000000E+00
  4.70000000E+01  1.20000000E+01  0.00000000E+00
  4.70000000E+01  1.10000000E+01  0.00000000E+00
  4.70000000E+01  1.00000000E+01  0.00000000E+00
  4.70000000E+01  9.00000000E+00  0.00000000E+00
  4.70000000E+01  8.00000000E+00  0.00000000E+00
  4.70000000E+01  7.00000000E+00  0.00000000E+00
  4.70000000E+01  6.00000000E+00  0.00000000E+00
  4.70000000E+01  5.00000000E+00  0.00000000E+00
  4.70000000E+01  4.00000000E+00  0.00000000E+00
  4.70000000E+01  3.00000000E+00  0.00000000E+00
  4.70000000E+01  2.00000000E+00  0.00000000E+00
  4.70000000E+01  1.00000000E+00  0.00000000E+00
  4.70000000E+01 -2.66453526E-15  0.00000000E+00
  4.80000000E+01  2.40000000E+01  0.00000000E+00
  4.80000000E+01  2.30000000E+01  0.00000000E+00
  4.80000000E+01  2.20000000E+01  0.00000000E+00
  4.80000000E+01  2.10000000E+01  0.00000000E+00
  4.80000000E+01  2.00000000E+01  0.00000000E+00
  4.80000000E+01  1.90000000E+01  0.00000000E+00
  4.80000000E+01  1.80000000E+01  0.00000000E+00
  4.80000000E+01  1.70000000E+01  0.00000000E+00
  4.80000000E+01  1.60000000E+01  0.00000000E+00
  4.80000000E+01  1.50000000E+01  0.00000000E+00
  4.80000000E+01  1.40000000E+01  0.00000000E+00
  4.80000000E+01  1.30000000E+01  0.00000000E+00
  4.80000000E+01  1.20000000E+01  0.00000000E+00
  4.80000000E+01  1.10000000E+01  0.00000000E+00
  4.80000000E+01  1.00000000E+01  0.00000000E+00
  4.80000000E+01  9.00000000E+00  0.00000000E+00
  4.80000000E+01  8.00000000E+00  0.00000000E+00
  4.80000000E+01  7.00000000E+00  0.00000000E+00
  4.80000000E+01  6.00000000E+00  0.00000000E+00
  4.80000000E+01  5.00000000E+00  0.00000000E+00
  4.80000000E+01  4.00000000E+00  0.00000000E+00
  4.80000000E+01  3.00000000E+00  0.00000000E+00
  4.80000000E+01  2.00000000E+00  0.00000000E+00
  4.80000000E+01  1.00000000E+00  0.00000000E+00
  4.80000000E+01 -2.66453526E-15  0.00000000E+00
CELLS      1152      5760
         4           0           1          26          25
         4           1           2          27          26
         4           2           3          28          27
         4           3           4          29          28
         4           4           5          30          29
         4           5           6          31          30
         4           6           7          32          31
         4           7           8          33          32
         4           8           9          34          33
         4           9          10          35          34
         4          10          11          36          35
         4          11          12          37          36
         4          12          13          38          37
         4          13          14          39          38
         4          14          15          40          39
         4          15          16          41          40
         4          16          17          42          41
         4          17          18          43          42
         4          18          19          44          43
         4          19          20          45          44
         4          20          21          46          45
         4          21          22          47          46
         4          22          23          48          47
         4          23          24          49          48
         4          25          26          51          50
         4          26          27          52          51
         4          27          28          53          52
         4          28          29          54          53
         4          29          30          55          54
         4          30          31          56          55
         4          31          32          57          56
         4          32          33          58          57
         4          33          34          59          58
         4          34          35          60          59
         4          35          36          61          60
         4          36          37          62          61
         4          37          38          63          62
         4          38          39          64          63
         4          39          40          65          64
         4          40          41          66          65
         4          41          42          67          66
         4          42          43          68          67
         4          43          44          69          68
         4          44          45          70          69
         4          45          46          71          70
         4          46          47          72          71
         4          47          48          73          72
         4          48          49          74          73
         4          50          51          76          75
         4          51          52          77          76
         4          52          53          78          77
         4          53          54          79          78
         4          54          55          80          79
         4          55          56          81          80
         4          56          57          82          81
         4          57          58          83          82
         4          58          59          84          83
         4          59          60          85          84
         4          60          61          86          85
         4          61          62          87          86
         4          62          63          88          87
         4          63          64          89          88
         4          64          65          90          89
         4          65          66          91          90
         4          66          67          92          91
         4          67          68          93          92
         4          68          69          94          93
         4          69          70          95          94
         4          70          71          96          95
         4          71          72          97          96
         4          72          73          98          97
         4          73          74          99          98
         4          75          76         101         100
         4          76          77         102         101
         4          77          78         103         102
         4          78          79         104         103
         4          79          80         105         104
         4          80          81         106         105
         4          81          82         107         106
         4          82          83         108         107
         4          83          84         109         108
         4          84          85         110         109
         4          85          86         111         110
         4          86          87         112         111
         4          87          88         113         112
         4          88          89         114         113
         4          89          90         115         114
         4          90          91         116         115
         4          91          92         117         116
         4          92          93         118         117
         4          93          94         119         118
         4          94          95         120         119
         4          95          96         121         120
         4          96          97         122         121
         4          97          98         123         122
         4          98          99         124         123
         4         100         101         126         125
         4         101         102         127         126
         4         102         103         128         127
         4         103         104         129         128
         4         104         105         130         129
         4         105         106         131         130
         4         106         107         132         131
         4         107         108         133         132
         4         108         109         134         133
         4         109         110         135         134
         4         110         111         136         135
         4         111         112         137         136
         4         112         113         138         137
         4         113         114         139         138
         4         114         115         140         139
         4         115         116         141         140
         4         116         117         142         141
         4         117         118         143         142
         4         118         119         144         143
         4         119         120         145         144
         4         120         121         146         145
         4         121         122         147         146
         4         122         123         148         147
         4         123         124         149         148
         4         125         126         151         150
         4         126         127         152         151
         4         127         128         153         152
         4         128         129         154         153
         4         129         130         155         154
         4         130         131         156         155
         4         131         132         157         156
         4         132         133         158         157
         4         133         134         159         158
         4         134         135         160         159
         4         135         136         161         160
         4         136         137         162         161
         4         137         138         163         162
         4         138         139         164         163
         4         139         140         165         164
         4         140         141         166         165
         4         141         142         167         166
         4         142         143         168         167
         4         143         144         169         168
         4         144         145         170         169
         4         145         146         171         170
         4         146         147         172         171
         4         147         148         173         172
         4         148         149         174         173
         4         150         151         176         175
         4         151         152         177         176
         4         152         153         178         177
         4         153         154         179         178
         4         154         155         180         179
         4         155         156         181         180
         4         156         157         182         181
         4         157         158         183         182
         4         158         159         184         183
         4         159         160         185         184
         4         160         161         186         185
         4         161         162         187         186
         4         162         163         188         187
         4         163         164         189         188
         4         164         165         190         189
         4         165         166         191         190
         4         166         167         192         191
         4         167         168         193         192
         4         168         169         194         193
         4         169         170         195         194
         4         170         171         196         195
         4         171         172         197         196
         4         172         173         198         197
         4         173         174         199         198
         4         175         176         201         200
         4         176         177         202         201
         4         177         178         203         202
         4         178         179         204         203
         4         179         180         205         204
         4         180         181         206         205
         4         181         182         207         206
         4         182         183         208         207
         4         183         184         209         208
         4         184         185         210         209
         4         185         186         211         210
         4         186         187         212         211
         4         187         188         213         212
         4         188         189         214         213
         4         189         190         215         214
         4         190         191         216         215
         4         191         192         217         216
         4         192         193         218         217
         4         193         194         219         218
         4         194         195         220         219
         4         195         196         221         220
         4         196         197         222         221
         4         197         198         223         222
         4         198         199         224         223
         4         200         201         226         225
         4         201         202         227         226
         4         202         203         228         227
         4         203         204         229         228
         4         204         205         230         229
         4         205         206         231         230
         4         206         207         232         231
         4         207         208         233         232
         4         208         209         234         233
         4         209         210         235         234
         4         210         211         236         235
         4         211         212         237         236
         4         212         213         238         237
         4         213         214         239         238
         4         214         215         240         239
         4         215         216         241         240
         4         216         217         242         241
         4         217         218         243         242
         4         218         219         244         243
         4         219         220         245         244
         4         220         221         246         245
         4         221         222         247         246
         4         222         223         248         247
         4         223         224         249         248
         4         225         226         251         250
         4         226         227         252         251
         4         227         228         253         252
         4         228         229         254         253
         4         229         230         255         254
         4         230         231         256         255
         4         231         232         257         256
         4         232         233         258         257
         4         233         234         259         258
         4         234         235         260         259
         4         235         236         261         260
         4         236         237         262         261
         4         237         238         263         262
         4         238         239         264         263
         4         239         240         265         264
         4         240         241         266         265
         4         241         242         267         266
         4         242         243         268         267
         4         243         244         269         268
         4         244         245         270         269
         4         245         246         271         270
         4         246         247         272         271
         4         247         248         273         272
         4         248         249         274         273
         4         250         251         276         275
         4         251         252         277         276
         4         252         253         278         277
         4         253         254         279         278
         4         254         255         280         279
         4         255         256         281         280
         4         256         257         282         281
         4         257         258         283         282
         4         258         259         284         283
         4         259         260         285         284
         4         260         261         286         285
         4         261         262         287         286
         4         262         263         288         287
         4         263         264         289         288
         4         264         265         290         289
         4         265         266         291         290
         4         266         267         292         291
         4         267         268         293         292
         4         268         269         294         293
         4         269         270         295         294
         4         270         271         296         295
         4         271         272         297         296
         4         272         273         298         297
         4         273         274         299         298
         4         275         276         301         300
         4         276         277         302         301
         4         277         278         303         302
         4         278         279         304         303
         4         279         280         305         304
         4         280         281         306         305
         4         281         282         307         306
         4         282         283         308         307
         4         283         284         309         308
         4         284         285         310         309
         4         285         286         311         310
         4         286         287         312         311
         4         287         288         313         312
         4         288         289         314         313
         4         289         290         315         314
         4         290         291         316         315
         4         291         292         317         316
         4         292         293         318         317
         4         293         294         319         318
         4         294         295         320         319
         4         295         296         321         320
         4         296         297         322         321
         4         297         298         323         322
         4         298         299         324         323
         4         300         301         326         325
         4         301         302         327         326
         4         302         303         328         327
         4         303         304         329         328
         4         304         305         330         329
         4         305         306         331         330
         4         306         307         332         331
         4         307         308         333         332
         4         308         309         334         333
         4         309         310         335         334
         4         310         311         336         335
         4         311         312         337         336
         4         312         313         338         337
         4         313         314         339         338
         4         314         315         340         339
         4         315         316         341         340
         4         316         317         342         341
         4         317         318         343         342
         4         318         319         344         343
         4         319         320         345         344
         4         320         321         346         345
         4         321         322         347         346
         4         322         323         348         347
         4         323         324         349         348
         4         325         326         351         350
         4         326         327         352         351
         4         327         328         353         352
         4         328         329         354         353
         4         329         330         355         354
         4         330         331         356         355
         4         331         332         357         356
         4         332         333         358         357
         4         333         334         359         358
         4         334         335         360         359
         4         335         336         361         360
         4         336         337         362         361
         4         337         338         363         362
         4         338         339         364         363
         4         339         340         365         364
         4         340         341         366         365
         4         341         342         367         366
         4         342         343         368         367
         4         343         344         369         368
         4         344         345         370         369
         4         345         346         371         370
         4         346         347         372         371
         4         347         348         373         372
         4         348         349         374         373
         4         350         351         376         375
         4         351         352         377         376
         4         352         353         378         377
         4         353         354         379         378
         4         354         355         380         379
         4         355         356         381         380
         4         356         357         382         381
         4         357         358         383         382
         4         358         359         384         383
         4         359         360         385         384
         4         360         361         386         385
         4         361         362         387         386
         4         362         363         388         387
         4         363         364         389         388
         4         364         365         390         389
         4         365         366         391         390
         4         366         367         392         391
         4         367         368         393         392
         4         368         369         394         393
         4         369         370         395         394
         4         370         371         396         395
         4         371         372         397         396
         4         372         373         398         397
         4         373         374         399         398
         4         375         376         401         400
         4         376         377         402         401
         4         377         378         403         402
         4         378         379         404         403
         4         379         380         405         404
         4         380         381         406         405
         4         381         382         407         406
         4         382         383         408         407
         4         383         384         409         408
         4         384         385         410         409
         4         385         386         411         410
         4         386         387         412         411
         4         387         388         413         412
         4         388         389         414         413
         4         389         390         415         414
         4         390         391         416         415
         4         391         392         417         416
         4         392         393         418         417
         4         393         394         419         418
         4         394         395         420         419
         4         395         396         421         420
         4         396         397         422         421
         4         397         398         423         422
         4         398         399         424         423
         4         400         401         426         425
         4         401         402         427         426
         4         402         403         428         427
         4         403         404         429         428
         4         404         405         430         429
         4         405         406         431         430
         4         406         407         432         431
         4         407         408         433         432
         4         408         409         434         433
         4         409         410         435         434
         4         410         411         436         435
         4         411         412         437         436
         4         412         413         438         437
         4         413         414         439         438
         4         414         415         440         439
         4         415         416         441         440
         4         416         417         442         441
         4         417         418         443         442
         4         418         419         444         443
         4         419         420         445         444
         4         420         421         446         445
         4         421         422         447         446
         4         422         423         448         447
         4         423         424         449         448
         4         425         426         451         450
         4         426         427         452         451
         4         427         428         453         452
         4         428         429         454         453
         4         429         430         455         454
         4         430         431         456         455
         4         431         432         457         456
         4         432         433         458         457
         4         433         434         459         458
         4         434         435         460         459
         4         435         436         461         460
         4         436         437         462         461
         4         437         438         463         462
         4         438         439         464         463
         4         439         440         465         464
         4         440         441         466         465
         4         441         442         467         466
         4         442         443         468         467
         4         443         444         469         468
         4         444         445         470         469
         4         445         446         471         470
         4         446         447         472         471
         4         447         448         473         472
         4         448         449         474         473
         4         450         451         476         475
         4         451         452         477         476
         4         452         453         478         477
         4         453         454         479         478
         4         454         455         480         479
         4         455         456         481         480
         4         456         457         482         481
         4         457         458         483         482
         4         458         459         484         483
         4         459         460         485         484
         4         460         461         486         485
         4         461         462         487         486
         4         462         463         488         487
         4         463         464         489         488
         4         464         465         490         489
         4         465         466         491         490
         4         466         467         492         491
         4         467         468         493         492
         4         468         469         494         493
         4         469         470         495         494
         4         470         471         496         495
         4         471         472         497         496
         4         472         473         498         497
         4         473         474         499         498
         4         475         476         501         500
         4         476         477         502         501
         4         477         478         503         502
         4         478         479         504         503
         4         479         480         505         504
         4         480         481         506         505
         4         481         482         507         506
         4         482         483         508         507
         4         483         484         509         508
         4         484         485         510         509
         4         485         486         511         510
         4         486         487         512         511
         4         487         488         513         512
         4         488         489         514         513
         4         489         490         515         514
         4         490         491         516         515
         4         491         492         517         516
         4         492         493         518         517
         4         493         494         519         518
         4         494         495         520         519
         4         495         496         521         520
         4         496         497         522         521
         4         497         498         523         522
         4         498         499         524         523
         4         500         501         526         525
         4         501         502         527         526
         4         502         503         528         527
         4         503         504         529         528
         4         504         505         530         529
         4         505         506         531         530
         4         506         507         532         531
         4         507         508         533         532
         4         508         509         534         533
         4         509         510         535         534
         4         510         511         536         535
         4         511         512         537         536
         4         512         513         538         537
         4         513         514         539         538
         4         514         515         540         539
         4         515         516         541         540
         4         516         517         542         541
         4         517         518         543         542
         4         518         519         544         543
         4         519         520         545         544
         4         520         521         546         545
         4         521         522         547         546
         4         522         523         548         547
         4         523         524         549         548
         4         525         526         551         550
         4         526         527         552         551
         4         527         528         553         552
         4         528         529         554         553
         4         529         530         555         554
         4         530         531         556         555
         4         531         532         557         556
         4         532         533         558         557
         4         533         534         559         558
         4         534         535         560         559
         4         535         536         561         560
         4         536         537         562         561
         4         537         538         563         562
         4         538         539         564         563
         4         539         540         565         564
         4         540         541         566         565
         4         541         542         567         566
         4         542         543         568         567
         4         543         544         569         568
         4         544         545         570         569
         4         545         546         571         570
         4         546         547         572         571
         4         547         548         573         572
         4         548         549         574         573
         4         550         551         576         575
         4         551         552         577         576
         4         552         553         578         577
         4         553         554         579         578
         4         554         555         580         579
         4         555         556         581         580
         4         556         557         582         581
         4         557         558         583         582
         4         558         559         584         583
         4         559         560         585         584
         4         560         561         586         585
         4         561         562         587         586
         4         562         563         588         587
         4         563         564         589         588
         4         564         565         590         589
         4         565         566         591         590
         4         566         567         592         591
         4         567         568         593         592
         4         568         569         594         593
         4         569         570         595         594
         4         570         571         596         595
         4         571         572         597         596
         4         572         573         598         597
         4         573         574         599         598
         4         575         576         601         600
         4         576         577         602         601
         4         577         578         603         602
         4         578         579         604         603
         4         579         580         605         604
         4         580         581         606         605
         4         581         582         607         606
         4         582         583         608         607
         4         583         584         609         608
         4         584         585         610         609
         4         585         586         611         610
         4         586         587         612         611
         4         587         588         613         612
         4         588         589         614         613
         4         589         590         615         614
         4         590         591         616         615
         4         591         592         617         616
         4         592         593         618         617
         4         593         594         619         618
         4         594         595         620         619
         4         595         596         621         620
         4         596         597         622         621
         4         597         598         623         622
         4         598         599         624         623
         4         600         601         626         625
         4         601         602         627         626
         4         602         603         628         627
         4         603         604         629         628
         4         604         605         630         629
         4         605         606         631         630
         4         606         607         632         631
         4         607         608         633         632
         4         608         609         634         633
         4         609         610         635         634
         4         610         611         636         635
         4         611         612         637         636
         4         612         613         638         637
         4         613         614         639         638
         4         614         615         640         639
         4         615         616         641         640
         4         616         617         642         641
         4         617         618         643         642
         4         618         619         644         643
         4         619         620         645         644
         4         620         621         646         645
         4         621         622         647         646
         4         622         623         648         647
         4         623         624         649         648
         4         625         626         651         650
         4         626         627         652         651
         4         627         628         653         652
         4         628         629         654         653
         4         629         630         655         654
         4         630         631         656         655
         4         631         632         657         656
         4         632         633         658         657
         4         633         634         659         658
         4         634         635         660         659
         4         635         636         661         660
         4         636         637         662         661
         4         637         638         663         662
         4         638         639         664         663
         4         639         640         665         664
         4         640         641         666         665
         4         641         642         667         666
         4         642         643         668         667
         4         643         644         669         668
         4         644         645         670         669
         4         645         646         671         670
         4         646         647         672         671
         4         647         648         673         672
         4         648         649         674         673
         4         650         651         676         675
         4         651         652         677         676
         4         652         653         678         677
         4         653         654         679         678
         4         654         655         680         679
         4         655         656         681         680
         4         656         657         682         681
         4         657         658         683         682
         4         658         659         684         683
         4         659         660         685         684
         4         660         661         686         685
         4         661         662         687         686
         4         662         663         688         687
         4         663         664         689         688
         4         664         665         690         689
         4         665         666         691         690
         4         666         667         692         691
         4         667         668         693         692
         4         668         669         694         693
         4         669         670         695         694
         4         670         671         696         695
         4         671         672         697         696
         4         672         673         698         697
         4         673         674         699         698
         4         675         676         701         700
         4         676         677         702         701
         4         677         678         703         702
         4         678         679         704         703
         4         679         680         705         704
         4         680         681         706         705
         4         681         682         707         706
         4         682         683         708         707
         4         683         684         709         708
         4         684         685         710         709
         4         685         686         711         710
         4         686         687         712         711
         4         687         688         713         712
         4         688         689         714         713
         4         689         690         715         714
         4         690         691         716         715
         4         691         692         717         716
         4         692         693         718         717
         4         693         694         719         718
         4         694         695         720         719
         4         695         696         721         720
         4         696         697         722         721
         4         697         698         723         722
         4         698         699         724         723
         4         700         701         726         725
         4         701         702         727         726
         4         702         703         728         727
         4         703         704         729         728
         4         704         705         730         729
         4         705         706         731         730
         4         706         707         732         731
         4         707         708         733         732
         4         708         709         734         733
         4         709         710         735         734
         4         710         711         736         735
         4         711         712         737         736
         4         712         713         738         737
         4         713         714         739         738
         4         714         715         740         739
         4         715         716         741         740
         4         716         717         742         741
         4         717         718         743         742
         4         718         719         744         743
         4         719         720         745         744
         4         720         721         746         745
         4         721         722         747         746
         4         722         723         748         747
         4         723         724         749         748
         4         725         726         751         750
         4         726         727         752         751
         4         727         728         753         752
         4         728         729         754         753
         4         729         730         755         754
         4         730         731         756         755
         4         731         732         757         756
         4         732         733         758         757
         4         733         734         759         758
         4         734         735         760         759
         4         735         736         761         760
         4         736         737         762         761
         4         737         738         763         762
         4         738         739         764         763
         4         739         740         765         764
         4         740         741         766         765
         4         741         742         767         766
         4         742         743         768         767
         4         743         744         769         768
         4         744         745         770         769
         4         745         746         771         770
         4         746         747         772         771
         4         747         748         773         772
         4         748         749         774         773
         4         750         751         776         775
         4         751         752         777         776
         4         752         753         778         777
         4         753         754         779         778
         4         754         755         780         779
         4         755         756         781         780
         4         756         757         782         781
         4         757         758         783         782
         4         758         759         784         783
         4         759         760         785         784
         4         760         761         786         785
         4         761         762         787         786
         4         762         763         788         787
         4         763         764         789         788
         4         764         765         790         789
         4         765         766         791         790
         4         766         767         792         791
         4         767         768         793         792
         4         768         769         794         793
         4         769         770         795         794
         4         770         771         796         795
         4         771         772         797         796
         4         772         773         798         797
         4         773         774         799         798
         4         775         776         801         800
         4         776         777         802         801
         4         777         778         803         802
         4         778         779         804         803
         4         779         780         805         804
         4         780         781         806         805
         4         781         782         807         806
         4         782         783         808         807
         4         783         784         809         808
         4         784         785         810         809
         4         785         786         811         810
         4         786         787         812         811
         4         787         788         813         812
         4         788         789         814         813
         4         789         790         815         814
         4         790         791         816         815
         4         791         792         817         816
         4         792         793         818         817
         4         793         794         819         818
         4         794         795         820         819
         4         795         796         821         820
         4         796         797         822         821
         4         797         798         823         822
         4         798         799         824         823
         4         800         801         826         825
         4         801         802         827         826
         4         802         803         828         827
         4         803         804         829         828
         4         804         805         830         829
         4         805         806         831         830
         4         806         807         832         831
         4         807         808         833         832
         4         808         809         834         833
         4         809         810         835         834
         4         810         811         836         835
         4         811         812         837         836
         4         812         813         838         837
         4         813         814         839         838
         4         814         815         840         839
         4         815         816         841         840
         4         816         817         842         841
         4         817         818         843         842
         4         818         819         844         843
         4         819         820         845         844
         4         820         821         846         845
         4         821         822         847         846
         4         822         823         848         847
         4         823         824         849         848
         4         825         826         851         850
         4         826         827         852         851
         4         827         828         853         852
         4         828         829         854         853
         4         829         830         855         854
         4         830         831         856         855
         4         831         832         857         856
         4         832         833         858         857
         4         833         834         859         858
         4         834         835         860         859
         4         835         836         861         860
         4         836         837         862         861
         4         837         838         863         862
         4         838         839         864         863
         4         839         840         865         864
         4         840         841         866         865
         4         841         842         867         866
         4         842         843         868         867
         4         843         844         869         868
         4         844         845         870         869
         4         845         846         871         870
         4         846         847         872         871
         4         847         848         873         872
         4         848         849         874         873
         4         850         851         876         875
         4         851         852         877         876
         4         852         853         878         877
         4         853         854         879         878
         4         854         855         880         879
         4         855         856         881         880
         4         856         857         882         881
         4         857         858         883         882
         4         858         859         884         883
         4         859         860         885         884
         4         860         861         886         885
         4         861         862         887         886
         4         862         863         888         887
         4         863         864         889         888
         4         864         865         890         889
         4         865         866         891         890
         4         866         867         892         891
         4         867         868         893         892
         4         868         869         894         893
         4         869         870         895         894
         4         870         871         896         895
         4         871         872         897         896
         4         872         873         898         897
         4         873         874         899         898
         4         875         876         901         900
         4         876         877         902         901
         4         877         878         903         902
         4         878         879         904         903
         4         879         880         905         904
         4         880         881         906         905
         4         881         882         907         906
         4         882         883         908         907
         4         883         884         909         908
         4         884         885         910         909
         4         885         886         911         910
         4         886         887         912         911
         4         887         888         913         912
         4         888         889         914         913
         4         889         890         915         914
         4         890         891         916         915
         4         891         892         917         916
         4         892         893         918         917
         4         893         894         919         918
         4         894         895         920         919
         4         895         896         921         920
         4         896         897         922         921
         4         897         898         923         922
         4         898         899         924         923
         4         900         901         926         925
         4         901         902         927         926
         4         902         903         928         927
         4         903         904         929         928
         4         904         905         930         929
         4         905         906         931         930
         4         906         907         932         931
         4         907         908         933         932
         4         908         909         934         933
         4         909         910         935         934
         4         910         911         936         935
         4         911         912         937         936
         4         912         913         938         937
         4         913         914         939         938
         4         914         915         940         939
         4         915         916         941         940
         4         916         917         942         941
         4         917         918         943         942
         4         918         919         944         943
         4         919         920         945         944
         4         920         921         946         945
         4         921         922         947         946
         4         922         923         948         947
         4         923         924         949         948
         4         925         926         951         950
         4         926         927         952         951
         4         927         928         953         952
         4         928         929         954         953
         4         929         930         955         954
         4         930         931         956         955
         4         931         932         957         956
         4         932         933         958         957
         4         933         934         959         958
         4         934         935         960         959
         4         935         936         961         960
         4         936         937         962         961
         4         937         938         963         962
         4         938         939         964         963
         4         939         940         965         964
         4         940         941         966         965
         4         941         942         967         966
         4         942         943         968         967
         4         943         944         969         968
         4         944         945         970         969
         4         945         946         971         970
         4         946         947         972         971
         4         947         948         973         972
         4         948         949         974         973
         4         950         951         976         975
         4         951         952         977         976
         4         952         953         978         977
         4         953         954         979         978
         4         954         955         980         979
         4         955         956         981         980
         4         956         957         982         981
         4         957         958         983         982
         4         958         959         984         983
         4         959         960         985         984
         4         960         961         986         985
         4         961         962         987         986
         4         962         963         988         987
         4         963         964         989         988
         4         964         965         990         989
         4         965         966         991         990
         4         966         967         992         991
         4         967         968         993         992
         4         968         969         994         993
         4         969         970         995         994
         4         970         971         996         995
         4         971         972         997         996
         4         972         973         998         997
         4         973         974         999         998
         4         975         976        1001        1000
         4         976         977        1002        1001
         4         977         978        1003        1002
         4         978         979        1004        1003
         4         979         980        1005        1004
         4         980         981        1006        1005
         4         981         982        1007        1006
         4         982         983        1008        1007
         4         983         984        1009        1008
         4         984         985        1010        1009
         4         985         986        1011        1010
         4         986         987        1012        1011
         4         987         988        1013        1012
         4         988         989        1014        1013
         4         989         990        1015        1014
         4         990         991        1016        1015
         4         991         992        1017        1016
         4         992         993        1018        1017
         4         993         994        1019        1018
         4         994         995        1020        1019
         4         995         996        1021        1020
         4         996         997        1022        1021
         4         997         998        1023        1022
         4         998         999        1024        1023
         4        1000        1001        1026        1025
         4        1001        1002        1027        1026
         4        1002        1003        1028        1027
         4        1003        1004        1029        1028
         4        1004        1005        1030        1029
         4        1005        1006        1031        1030
         4        1006        1007        1032        1031
         4        1007        1008        1033        1032
         4        1008        1009        1034        1033
         4        1009        1010        1035        1034
         4        1010        1011        1036        1035
         4        1011        1012        1037        1036
         4        1012        1013        1038        1037
         4        1013        1014        1039        1038
         4        1014        1015        1040        1039
         4        1015        1016        1041        1040
         4        1016        1017        1042        1041
         4        1017        1018        1043        1042
         4        1018        1019        1044        1043
         4        1019        1020        1045        1044
         4        1020        1021        1046        1045
         4        1021        1022        1047        1046
         4        1022        1023        1048        1047
         4        1023        1024        1049        1048
         4        1025        1026        1051        1050
         4        1026        1027        1052        1051
         4        1027        1028        1053        1052
         4        1028        1029        1054        1053
         4        1029        1030        1055        1054
         4        1030        1031        1056        1055
         4        1031        1032        1057        1056
         4        1032        1033        1058        1057
         4        1033        1034        1059        1058
         4        1034        1035        1060        1059
         4        1035        1036        1061        1060
         4        1036        1037        1062        1061
         4        1037        1038        1063        1062
         4        1038        1039        1064        1063
         4        1039        1040        1065        1064
         4        1040        1041        1066        1065
         4        1041        1042        1067        1066
         4        1042        1043        1068        1067
         4        1043        1044        1069        1068
         4        1044        1045        1070        1069
         4        1045        1046        1071        1070
         4        1046        1047        1072        1071
         4        1047        1048        1073        1072
         4        1048        1049        1074        1073
         4        1050        1051        1076        1075
         4        1051        1052        1077        1076
         4        1052        1053        1078        1077
         4        1053        1054        1079        1078
         4        1054        1055        1080        1079
         4        1055        1056        1081        1080
         4        1056        1057        1082        1081
         4        1057        1058        1083        1082
         4        1058        1059        1084        1083
         4        1059        1060        1085        1084
         4        1060        1061        1086        1085
         4        1061        1062        1087        1086
         4        1062        1063        1088        1087
         4        1063        1064        1089        1088
         4        1064        1065        1090        1089
         4        1065        1066        1091        1090
         4        1066        1067        1092        1091
         4        1067        1068        1093        1092
         4        1068        1069        1094        1093
         4        1069        1070        1095        1094
         4        1070        1071        1096        1095
         4        1071        1072        1097        1096
         4        1072        1073        1098        1097
         4        1073        1074        1099        1098
         4        1075        1076        1101        1100
         4        1076        1077        1102        1101
         4        1077        1078        1103        1102
         4        1078        1079        1104        1103
         4        1079        1080        1105        1104
         4        1080        1081        1106        1105
         4        1081        1082        1107        1106
         4        1082        1083        1108        1107
         4        1083        1084        1109        1108
         4        1084        1085        1110        1109
         4        1085        1086        1111        1110
         4        1086        1087        1112        1111
         4        1087        1088        1113        1112
         4        1088        1089        1114        1113
         4        1089        1090        1115        1114
         4        1090        1091        1116        1115
         4        1091        1092        1117        1116
         4        1092        1093        1118        1117
         4        1093        1094        1119        1118
         4        1094        1095        1120        1119
         4        1095        1096        1121        1120
         4        1096        1097        1122        1121
         4        1097        1098        1123        1122
         4        1098        1099        1124        1123
         4        1100        1101        1126        1125
         4        1101        1102        1127        1126
         4        1102        1103        1128        1127
         4        1103        1104        1129        1128
         4        1104        1105        1130        1129
         4        1105        1106        1131        1130
         4        1106        1107        1132        1131
         4        1107        1108        1133        1132
         4        1108        1109        1134        1133
         4        1109        1110        1135        1134
         4        1110        1111        1136        1135
         4        1111        1112        1137        1136
         4        1112        1113        1138        1137
         4        1113        1114        1139        1138
         4        1114        1115        1140        1139
         4        1115        1116        1141        1140
         4        1116        1117        1142        1141
         4        1117        1118        1143        1142
         4        1118        1119        1144        1143
         4        1119        1120        1145        1144
         4        1120        1121        1146        1145
         4        1121        1122        1147        1146
         4        1122        1123        1148        1147
         4        1123        1124        1149        1148
         4        1125        1126        1151        1150
         4        1126        1127        1152        1151
         4        1127        1128        1153        1152
         4        1128        1129        1154        1153
         4        1129        1130        1155        1154
         4        1130        1131        1156        1155
         4        1131        1132        1157        1156
         4        1132        1133        1158        1157
         4        1133        1134        1159        1158
         4        1134        1135        1160        1159
         4        1135        1136        1161        1160
         4        1136        1137        1162        1161
         4        1137        1138        1163        1162
         4        1138        1139        1164        1163
         4        1139        1140        1165        1164
         4        1140        1141        1166        1165
         4        1141        1142        1167        1166
         4        1142        1143        1168        1167
         4        1143        1144        1169        1168
         4        1144        1145        1170        1169
         4        1145        1146        1171        1170
         4        1146        1147        1172        1171
         4        1147        1148        1173        1172
         4        1148        1149        1174        1173
         4        1150        1151        1176        1175
         4        1151        1152        1177        1176
         4        1152        1153        1178        1177
         4        1153        1154        1179        1178
         4        1154        1155        1180        1179
         4        1155        1156        1181        1180
         4        1156        1157        1182        1181
         4        1157        1158        1183        1182
         4        1158        1159        1184        1183
         4        1159        1160        1185        1184
         4        1160        1161        1186        1185
         4        1161        1162        1187        1186
         4        1162        1163        1188        1187
         4        1163        1164        1189        1188
         4        1164        1165        1190        1189
         4        1165        1166        1191        1190
         4        1166        1167        1192        1191
         4        1167        1168        1193        1192
         4        1168        1169        1194        1193
         4        1169        1170        1195        1194
         4        1170        1171        1196        1195
         4        1171        1172        1197        1196
         4        1172        1173        1198        1197
         4        1173        1174        1199        1198
         4        1175        1176        1201        1200
         4        1176        1177        1202        1201
         4        1177        1178        1203        1202
         4        1178        1179        1204        1203
         4        1179        1180        1205        1204
         4        1180        1181        1206        1205
         4        1181        1182        1207        1206
         4        1182        1183        1208        1207
         4        1183        1184        1209        1208
         4        1184        1185        1210        1209
         4        1185        1186        1211        1210
         4        1186        1187        1212        1211
         4        1187        1188        1213        1212
         4        1188        1189        1214        1213
         4        1189        1190        1215        1214
         4        1190        1191        1216        1215
         4        1191        1192        1217        1216
         4        1192        1193        1218        1217
         4        1193        1194        1219        1218
         4        1194        1195        1220        1219
         4        1195        1196        1221        1220
         4        1196        1197        1222        1221
         4        1197        1198        1223        1222
         4        1198        1199        1224        1223
CELL_TYPES       1152
9
9
9
9
9
9
9
9
9
9
9
9
9
9
9
9
9
9
9
9
9
9
9
9
9
9
9
9
9
9
9
9
9
9
9
9
9
9
9
9
9
9
9
9
9
9
9
9
9
9
9
9
9
9
9
9
9
9
9
9
9
9
9
9
9
9
9
9
9
9
9
9
9
9
9
9
9
9
9
9
9
9
9
9
9
9
9
9
9
9
9
9
9
9
9
9
9
9
9
9
9
9
9
9
9
9
9
9
9
9
9
9
9
9
9
9
9
9
9
9
9
9
9
9
9
9
9
9
9
9
9
9
9
9
9
9
9
9
9
9
9
9
9
9
9
9
9
9
9
9
9
9
9
9
9
9
9
9
9
9
9
9
9
9
9
9
9
9
9
9
9
9
9
9
9
9
9
9
9
9
9
9
9
9
9
9
9
9
9
9
9
9
9
9
9
9
9
9
9
9
9
9
9
9
9
9
9
9
9
9
9
9
9
9
9
9
9
9
9
9
9
9
9
9
9
9
9
9
9
9
9
9
9
9
9
9
9
9
9
9
9
9
9
9
9
9
9
9
9
9
9
9
9
9
9
9
9
9
9
9
9
9
9
9
9
9
9
9
9
9
9
9
9
9
9
9
9
9
9
9
9
9
9
9
9
9
9
9
9
9
9
9
9
9
9
9
9
9
9
9
9
9
9
9
9
9
9
9
9
9
9
9
9
9
9
9
9
9
9
9
9
9
9
9
9
9
9
9
9
9
9
9
9
9
9
9
9
9
9
9
9
9
9
9
9
9
9
9
9
9
9
9
9
9
9
9
9
9
9
9
9
9
9
9
9
9
9
9
9
9
9
9
9
9
9
9
9
9
9
9
9
9
9
9
9
9
9
9
9
9
9
9
9
9
9
9
9
9
9
9
9
9
9
9
9
9
9
9
9
9
9
9
9
9
9
9
9
9
9
9
9
9
9
9
9
9
9
9
9
9
9
9
9
9
9
9
9
9
9
9
9
9
9
9
9
9
9
9
9
9
9
9
9
9
9
9
9
9
9
9
9
9
9
9
9
9
9
9
9
9
9
9
9
9
9
9
9
9
9
9
9
9
9
9
9
9
9
9
9
9
9
9
9
9
9
9
9
9
9
9
9
9
9
9
9
9
9
9
9
9
9
9
9
9
9
9
9
9
9
9
9
9
9
9
9
9
9
9
9
9
9
9
9
9
9
9
9
9
9
9
9
9
9
9
9
9
9
9
9
9
9
9
9
9
9
9
9
9
9
9
9
9
9
9
9
9
9
9
9
9
9
9
9
9
9
9
9
9
9
9
9
9
9
9
9
9
9
9
9
9
9
9
9
9
9
9
9
9
9
9
9
9
9
9
9
9
9
9
9
9
9
9
9
9
9
9
9
9
9
9
9
9
9
9
9
9
9
9
9
9
9
9
9
9
9
9
9
9
9
9
9
9
9
9
9
9
9
9
9
9
9
9
9
9
9
9
9
9
9
9
9
9
9
9
9
9
9
9
9
9
9
9
9
9
9
9
9
9
9
9
9
9
9
9
9
9
9
9
9
9
9
9
9
9
9
9
9
9
9
9
9
9
9
9
9
9
9
9
9
9
9
9
9
9
9
9
9
9
9
9
9
9
9
9
9
9
9
9
9
9
9
9
9
9
9
9
9
9
9
9
9
9
9
9
9
9
9
9
9
9
9
9
9
9
9
9
9
9
9
9
9
9
9
9
9
9
9
9
9
9
9
9
9
9
9
9
9
9
9
9
9
9
9
9
9
9
9
9
9
9
9
9
9
9
9
9
9
9
9
9
9
9
9
9
9
9
9
9
9
9
9
9
9
9
9
9
9
9
9
9
9
9
9
9
9
9
9
9
9
9
9
9
9
9
9
9
9
9
9
9
9
9
9
9
9
9
9
9
9
9
9
9
9
9
9
9
9
9
9
9
9
9
9
9
9
9
9
9
9
9
9
9
9
9
9
9
9
9
9
9
9
9
9
9
9
9
9
9
9
9
9
9
9
9
9
9
9
9
9
9
9
9
9
9
9
9
9
9
9
9
9
9
9
9
9
9
9
9
9
9
9
9
9
9
9
9
9
9
9
9
9
9
9
9
9
9
9
9
9
9
9
9
9
9
9
9
9
9
9
9
9
9
9
9
9
9
9
9
9
9
9
9
9
9
9
9
9
9
9
9
9
9
9
9
9
9
9
9
9
9
9
9
9
9
9
9
9
9
9
9
9
9
9
9
9
9
9
9
9
9
9
9
9
9
9
9
9
9
9
9
9
9
9
9
9
9
9
9
9
9
9
9
9
9
9
9
9
9
9
9
9
9
9
9
9
9
9
9
9
9
9
9
9
9
9
9
9
9
9
9
9
9
9
9
9
9
9
9
9
9
9
9
9
9
9
9
9
9
9
9
9
9
9
9
9
9
9
9
9
9
9
9
9
9
9
9
9
9
9
9
9
9
9
9
9
9
9
9
9
9
9
9
9
9
9
9
9
9
9
9
9
9
9
9
9
9
9
9
9
9
9
9
9
9
9
9
9
9
9
9
9
9
9
9
9
9
9
9
9
9
9
9
9
9
9
9
9
9
9
9
9
9
POINT_DATA      1225
SCALARS p double 
LOOKUP_TABLE default
   171.445812595584     
   180.604470953788     
   206.151256851888     
   242.889988365014     
   285.859740386657     
   331.567583412535     
   378.205491407557     
   424.697668137326     
   470.349392807874     
   514.672411710925     
   557.299042081024     
   597.937022916708     
   636.344707929891     
   672.316892508007     
   705.676467599353     
   736.269394890718     
   763.961639449152     
   788.637287855491     
   810.197399477973     
   828.559317626203     
   843.656271133488     
   855.437159032375     
   863.866449342241     
   868.924147474932     
   870.605806034504     
   160.264521948454     
   171.242472602668     
   199.773844463176     
   239.466747498406     
   283.777549010983     
   330.198210436237     
   377.227968107471     
   423.947116586201     
   469.735202291999     
   514.142338346993     
   556.821677051147     
   597.492846485664     
   635.921279487392     
   671.906146509904     
   705.273130896212     
   735.870026297683     
   763.564027414425     
   788.240060993782     
   809.799767285706     
   828.160892778855     
   843.256943929725     
   855.037005624110     
   863.465661933430     
   868.522978594392     
   870.204521337067     
   124.298151925413     
   139.027159271781     
   183.905650513107     
   230.284774801740     
   278.093700564277     
   326.369699441342     
   374.446390505630     
   421.781693257828     
   467.944658876527     
   512.585101505464     
   555.411474791237     
   596.175491359668     
   634.661955672576     
   670.682148468995     
   704.069556401149     
   734.677133068144     
   762.375559241877     
   787.052156335019     
   808.610227327554     
   826.968676523746     
   842.061809343883     
   853.839245937544     
   862.265904084654     
   867.322021620107     
   869.003199015931     
  0.000000000000000E+000
   104.915964671063     
   163.980180433015     
   218.285161697824     
   270.195717910784     
   320.806353609392     
   370.259690482122     
   418.434071425780     
   465.120516748684     
   510.092484169664     
   553.130082163873     
   594.028118164810     
   632.598185412238     
   668.668715715520     
   702.084465518502     
   732.705961678538     
   760.409069727139     
   785.084711254272     
   806.638710564135     
   824.991739025778     
   840.079326561385     
   851.851914731227     
   860.274931554591     
   865.328873420223     
   867.009383933670     
  0.000000000000000E+000
   77.9760296017318     
   147.138017024871     
   206.457888088307     
   261.686964413368     
   314.390933774764     
   365.181822624727     
   414.217183373787     
   461.461669183351     
   506.796119548473     
   550.068071293840     
   591.115444297475     
   629.777951820740     
   665.902733010662     
   699.347223318950     
   729.980687039988     
   757.685095229359     
   782.355679632867     
   803.901322623055     
   822.244859586010     
   837.323329092013     
   849.088186082518     
   857.505483726906     
   862.556025336092     
   864.235486147153     
  0.000000000000000E+000
   69.6671150944574     
   135.616022724139     
   196.738020119693     
   253.749714666857     
   307.875612398244     
   359.694535185614     
   409.446743225912     
   457.180554710568     
   502.843175503864     
   546.330559168700     
   587.514956912717     
   626.260237168422     
   662.430565016200     
   695.895449305471     
   726.532778923003     
   754.230727222801     
   778.889005487322     
   800.419731016746     
   818.748057852375     
   833.812653221302     
   845.566066601813     
   853.975017982909     
   859.020620420682     
   860.698545508678     
  0.000000000000000E+000
   65.4478362587416     
   128.887992619363     
   189.408410126437     
   246.913860860467     
   301.717340216965     
   354.148602767279     
   404.381489487498     
   452.466875900643     
   498.373983282740     
   542.023148944380     
   583.307891043137     
   622.109106408594     
   658.304090331784     
   691.772299659463     
   722.399097496806     
   750.078246694544     
   774.713619709032     
   796.220408420782     
   814.526006026400     
   829.570665831040     
   841.308001075916     
   849.705365200647     
   854.744136784696     
   856.419924003654     
  0.000000000000000E+000
   62.8647995438814     
   124.396542585817     
   183.931263763937     
   241.169764921673     
   296.081386555363     
   348.737141962541     
   399.196403584016     
   447.466581329294     
   493.506839873894     
   537.241256321811     
   578.571789440078     
   617.388503857978     
   653.577028613897     
   687.023840761622     
   717.619985506373     
   745.263713232910     
   769.862375187327     
   791.333810128694     
   809.607376346193     
   824.624730507027     
   836.340419644242     
   844.722329456282     
   849.752016858673     
   851.424944594809     
  0.000000000000000E+000
   61.0458977868353     
   121.081357397744     
   179.599990674770     
   236.275623877611     
   290.941506619440     
   343.525427268144     
   393.986384406169     
   442.277255154471     
   488.331647969588     
   532.064223586193     
   573.375671113949     
   612.158476148913     
   648.302045887907     
   681.696842269571     
   712.237579910213     
   739.825661276357     
   764.371025890790     
   785.793559936332     
   804.024177147439     
   819.005651268376     
   830.693256676928     
   839.055256353728     
   844.073263841708     
   845.742496834180     
  0.000000000000000E+000
   59.6267634145091     
   118.419542412258     
   175.970278363199     
   231.966709581331     
   286.192411637544     
   338.501621773120     
   388.787157261821     
   436.955139507934     
   482.910912065524     
   526.553953773128     
   567.777945103160     
   606.473055471606     
   642.528862607988     
   675.837174773062     
   706.294486241209     
   733.804011448961     
   758.277330414938     
   779.635704591258     
   797.811122896066     
   812.747128884120     
   824.399469166688     
   832.736593165219     
   837.740025921988     
   839.404628988435     
  0.000000000000000E+000
   58.4304982986767     
   116.135729638319     
   172.769923384382     
   228.041763218136     
   281.719302193770     
   333.620873595904     
   383.599388199960     
   431.527149380806     
   477.285052355634     
   520.756742553768     
   561.826541388298     
   600.379631284692     
   636.303344234511     
   669.488849836257     
   699.832870239765     
   727.239251198129     
   751.620327790894     
   772.898076882851     
   791.005071187130     
   805.885256989380     
   817.494577489164     
   825.801460637320     
   830.787186374525     
   832.446144206897     
  0.000000000000000E+000
   57.3628634786595     
   114.075014159743     
   169.831380842086     
   224.359745933266     
   277.426099279913     
   328.832103019993     
   378.407730232663     
   426.002671049198     
   471.479077717232     
   514.706714090989     
   555.560435267376     
   593.919403421392     
   629.667386142580     
   662.693626066573     
   692.893945531311     
   720.171889208497     
   744.439800816499     
   765.619786138169     
   783.644545653893     
   798.458075820754     
   810.016244933714     
   818.287251642877     
   823.251973918821     
   824.904214838905     
  0.000000000000000E+000
   56.3702215988615     
   112.145986505617     
   167.049707887018     
   220.824733312085     
   273.240018857129     
   324.090250151085     
   373.192694714248     
   420.382594592147     
   465.508658378479     
   508.429567122658     
   549.011772326525     
   587.128453208918     
   622.659332331094     
   655.491040760194     
   685.517786031021     
   712.642151124880     
   736.775915715636     
   757.840836200064     
   775.769350562111     
   790.505192028228     
   802.003905584964     
   810.233266640711     
   815.173603382607     
   816.818024952529     
  0.000000000000000E+000
   55.4206478612109     
   110.292870142492     
   164.358247326069     
   217.372398831522     
   269.108834371138     
   319.360102742695     
   367.936773696654     
   414.665168957525     
   459.384755713686     
   501.945858504489     
   542.208015773824     
   580.039038957538     
   615.314674575406     
   647.918710540146     
   677.743369783019     
   704.689863311629     
   728.669009552799     
   749.601857258483     
   767.420272333289     
   782.067464968476     
   793.498443884299     
   801.680390858513     
   806.592952359451     
   808.228446972360     
  0.000000000000000E+000
   54.4946273084694     
   108.480987530407     
   161.714442650163     
   213.960237201757     
   264.996640821548     
   314.616440014571     
   362.626993706640     
   408.849319527335     
   453.116739112019     
   495.273520296250     
   535.173791944657     
   572.680846985938     
   607.666832593166     
   640.012762238898     
   669.608761875806     
   696.354465373060     
   720.159488750816     
   740.943929920849     
   758.638856164172     
   773.186753882308     
   784.541924148748     
   792.670813773464     
   797.552275639854     
   799.177754591009     
  0.000000000000000E+000
   53.5801334530915     
   106.688737189694     
   159.091371857304     
   210.560883536806     
   260.879991807007     
   309.842840756732     
   357.255588993053     
   402.936277124460     
   446.714277179164     
   488.429606591310     
   527.932313930439     
   565.082053033138     
   599.747884401862     
   631.808289937903     
   661.151359269588     
   687.675096888807     
   711.287801569096     
   731.908477091707     
   749.467242273538     
   763.905716617918     
   775.177364762911     
   783.247788138545     
   788.094956044909     
   789.709371022380     
  0.000000000000000E+000
   52.6698674527095     
   104.902945523309     
   156.472550412954     
   207.157608587991     
   256.744825432562     
   305.030184522893     
   351.819794554773     
   396.930204773262     
   440.188364175399     
   481.431403840083     
   520.506389486954     
   557.270142360730     
   591.589177699455     
   623.339771504780     
   652.408141377891     
   678.690714485873     
   702.094451921540     
   722.537200291087     
   739.948045529761     
   754.267648882981     
   765.448549686593     
   773.455423585864     
   778.265288037182     
   779.867649405301     
  0.000000000000000E+000
   51.7596311812723     
   103.116057822437     
   153.848647868705     
   203.741268048766     
   252.584138177966     
   300.175242020127     
   346.321287751069     
   390.838277676534     
   433.551787822697     
   474.297070114311     
   512.919078378165     
   549.272494065839     
   583.221798198727     
   614.641409731523     
   643.415890906913     
   669.440207888961     
   692.620028900889     
   712.872040468619     
   730.124263449230     
   744.316352951524     
   755.399869132633     
   763.338508660307     
   768.108289119988     
   769.697680748254     
  0.000000000000000E+000
   50.8473269628131     
   101.324376078478     
   151.215354287663     
   200.308210878233     
   248.396255622799     
   295.279475715101     
   340.765535972928     
   384.670489908766     
   426.819258935253     
   467.045949998746     
   505.194079965327     
   541.116762807411     
   574.676898587460     
   605.747386064136     
   634.211366406754     
   659.962495223668     
   682.905233846625     
   702.955147828750     
   720.039199949801     
   734.096025791103     
   745.076181457437     
   752.942354819628     
   757.669533455425     
   759.245124143678     
  0.000000000000000E+000
   49.9323191343160     
   99.5269155437594     
   148.571955662495     
   196.858821474524     
   244.183549724043     
   290.348061547507     
   335.161165056903     
   378.439341672953     
   420.007348144977     
   459.698677673144     
   497.355925566187     
   532.831099602187     
   565.985905760466     
   596.692029171988     
   624.831420149276     
   650.296587211605     
   672.990893498800     
   692.828849692701     
   709.736395085175     
   723.651158221634     
   734.522689140073     
   742.312656256161     
   746.995002168537     
   748.556053927382     
  0.000000000000000E+000
   49.0150125330916     
   97.7246393624302     
   145.920357442207     
   193.396484572162     
   239.951481438779     
   285.389104388167     
   329.519392212659     
   372.159489010967     
   413.134320170741     
   452.277147861735     
   489.430035808307     
   524.444251477255     
   557.180628817399     
   587.509908093948     
   615.313062654625     
   640.481616634038     
   662.917953133652     
   682.535609397112     
   699.259553776189     
   713.026438578141     
   723.784822909142     
   731.495360125259     
   736.130945276502     
   737.676818846396     
  0.000000000000000E+000
   48.0965653682994     
   95.9199311081405     
   143.264397915403     
   189.926835527370     
   235.707878154402     
   280.413011164643     
   323.853533986894     
   365.847396847098     
   406.219919598217     
   444.804408220230     
   481.442688125339     
   515.985573557942     
   548.293289996564     
   578.235862603585     
   605.693479409115     
   630.556833799861     
   652.727447463814     
   672.117972406471     
   688.652469001888     
   702.266656156159     
   712.908129378574     
   720.536542711036     
   725.123750916544     
   726.653908963579     
  0.000000000000000E+000
   47.1786877877230     
   94.1162210264226     
   140.609353184549     
   186.457205931232     
   231.462380475252     
   275.431987919145     
   318.178585445917     
   359.521013801545     
   399.285139135043     
   437.304507886146     
   473.420926660979     
   507.484979990656     
   539.356497967276     
   568.904983615992     
   596.010007124680     
   620.561571244315     
   642.460449664034     
   661.618498160477     
   677.958936890344     
   691.416601312621     
   701.938158813987     
   709.482288069192     
   714.019818401071     
   715.533826830130     
  0.000000000000000E+000
   46.2634965259423     
   92.3177139821318     
   137.961571370214     
   182.996204842475     
   227.226011688272     
   270.459632713964     
   312.510861550185     
   353.199475414877     
   392.351987326120     
   429.802324054361     
   465.392436889222     
   498.972853538038     
   530.403179381791     
   559.552555245955     
   586.300077200622     
   610.535182053484     
   632.158000424816     
   651.079677780761     
   667.222662642670     
   680.520960406895     
   690.920350774819     
   698.378566654842     
   702.865432496144     
   704.362960289989     
  0.000000000000000E+000
   45.3534071283851     
   90.5291861979782     
   135.328195664888     
   179.553395570945     
   223.010836752521     
   265.510602213620     
   306.867690677188     
   346.902836545112     
   385.443264464856     
   422.323379973781     
   457.385400003712     
   490.479928302540     
   521.466481155478     
   550.213968366139     
   576.601133537765     
   600.516956526175     
   621.861019727730     
   640.543838770147     
   656.487157283646     
   669.624204785889     
   679.899916318785     
   687.271112306527     
   691.706637127424     
   693.187455068391     
  0.000000000000000E+000
   44.4510519064178     
   88.7558294857215     
   132.716949600442     
   176.139040786163     
   218.829687236424     
   260.600334908271     
   301.267150994531     
   340.651831017529     
   378.582350708388     
   414.893662336177     
   449.428337037742     
   482.037155888670     
   512.579652975030     
   540.924613682850     
   566.950530971606     
   590.546021704886     
   611.610204325695     
   630.053038404527     
   645.795625936821     
   658.770473768857     
   668.921716204478     
   676.205296685050     
   680.589107424430     
   682.053085995212     
  0.000000000000000E+000
   43.5592158780062     
   87.0031289119681     
   130.135966658887     
   172.763897224852     
   214.695935372923     
   255.744818071535     
   295.727841736895     
   334.467655600412     
   371.793007789324     
   407.539442628231     
   441.549949197540     
   473.675562244829     
   503.775917133197     
   531.719760682217     
   557.385419604858     
   580.661227876166     
   601.445913891887     
   619.648947777098     
   635.190848753503     
   648.003452113009     
   658.030135096884     
   665.226000849869     
   669.558019600661     
   671.005126300326     
  0.000000000000000E+000
   42.6807855312955     
   85.2767644525617     
   127.593652049818     
   169.439046965826     
   210.623305153944     
   250.960388741934     
   290.268682875650     
   328.371775211156     
   365.099194341903     
   400.287104931875     
   433.778958561549     
   465.426100215006     
   495.088330926944     
   522.634427392772     
   547.942619377851     
   570.901025613440     
   591.408048609446     
   609.372728513812     
   624.715055858054     
   637.366242786137     
   647.268952192398     
   654.377484103758     
   658.657918632168     
   660.088214888014     
  0.000000000000000E+000
   41.8187069105497     
   83.5825301858496     
   125.098568239675     
   166.175756103014     
   206.625711742966     
   246.263561443027     
   284.908737974125     
   322.385746476288     
   358.524894199332     
   393.162981408701     
   426.143951764085     
   457.319501269599     
   486.549645453794     
   513.703244774223     
   538.658488385158     
   561.303336403091     
   581.535920701979     
   599.264904116529     
   614.409797767563     
   626.901236079971     
   636.681208961755     
   643.703250563911     
   647.932584048787     
   649.346221856674     
  0.000000000000000E+000
   40.9759506141702     
   81.9262665569561     
   122.659338342675     
   162.985354298632     
   202.717122869144     
   241.670877180067     
   279.667056125795     
   316.531057140132     
   352.093956757013     
   386.193195978969     
   418.673228286755     
   449.386128799136     
   478.192163606181     
   504.960318652059     
   529.568787750395     
   551.905419404451     
   571.868122108662     
   589.365227761146     
   604.315812749050     
   616.649976204676     
   626.309074888212     
   633.245914143823     
   637.424894404851     
   638.822112791067     
  0.000000000000000E+000
   40.1554820222621     
   80.3138025777237     
   120.284563202521     
   159.879130539360     
   198.911437570829     
   237.198769614530     
   274.562529773052     
   310.828979221210     
   345.829948448840     
   379.403516303504     
   411.394654346073     
   441.655834608829     
   470.047599310881     
   496.439091434382     
   520.708545304893     
   542.743736466592     
   562.442390219826     
   579.712548218100     
   594.472892526253     
   606.653026540464     
   616.193712178398     
   623.047062774431     
   627.176691165812     
   628.557812532369     
  0.000000000000000E+000
   39.3602355647156     
   78.7509057364488     
   117.982749180665     
   156.868241710611     
   195.222378882667     
   232.863445336418     
   269.613765922417     
   305.300434196945     
   339.756014444039     
   372.819213969938     
   404.335522967869     
   434.157819744759     
   462.146939518736     
   488.172205330507     
   512.111919865225     
   533.853817163569     
   553.295473325585     
   570.344675394330     
   584.919747664603     
   596.949834709421     
   606.375140465123     
   613.147122773379     
   617.228642850379     
   618.594069241949     
  0.000000000000000E+000
   38.5930921803089     
   77.2432380208056     
   115.762244496017     
   153.963631520297     
   191.663397948845     
   228.680775915768     
   264.838968837494     
   299.965868833288     
   333.894749779783     
   366.464932693304     
   397.522420595252     
   426.920500440574     
   454.520310062716     
   480.191368403316     
   503.812067550527     
   525.270125311207     
   544.462997197873     
   561.298246832103     
   575.693873863353     
   587.578598586449     
   596.892102521492     
   603.585224303373     
   607.620110319162     
   608.970319632642     
  0.000000000000000E+000
   37.8568593539892     
   75.7963168982150     
   113.631182547011     
   151.175957959627     
   188.247587692941     
   224.666199985163     
   260.255832732515     
   294.845140560209     
   328.268079266861     
   360.364564315262     
   390.981100431806     
   419.971379744851     
   447.196846226756     
   472.527224498220     
   495.841011304661     
   517.025928184755     
   535.979334025925     
   552.608596347610     
   566.831420278355     
   578.576134304876     
   587.781931977022     
   594.399068857528     
   598.389014113425     
   599.724556259194     
  0.000000000000000E+000
   37.1542532864470     
   74.4154804103088     
   111.597431065377     
   148.515527962292     
   184.987604650387     
   220.834634033295     
   255.881443332462     
   289.957411528890     
   322.897145624722     
   354.541132395835     
   384.736362638812     
   413.336925237114     
   440.204568671888     
   465.209227876116     
   488.229514573822     
   509.153169459004     
   527.877474754535     
   544.309625853954     
   558.367060893996     
   569.977747238367     
   579.080423978794     
   585.624799681763     
   589.571704731962     
   590.893197748108     
  0.000000000000000E+000
   36.4878828691374     
   73.1058557617784     
   109.668546252584     
   145.992238268435     
   181.895597920670     
   217.200390912079     
   251.732187431498     
   285.321050677130     
   317.802205409963     
   349.016683218241     
   378.811941460700     
   407.042453139629     
   433.570265226460     
   458.265523216574     
   481.006959923250     
   501.682346732276     
   520.188905729834     
   536.433681289409     
   550.333869862061     
   561.817106862174     
   570.821709681369     
   577.296875999796     
   581.202836698944     
   582.510962815181     
  0.000000000000000E+000
   35.8602352235972     
   71.8723309455021     
   107.851731269188     
   143.615521752832     
   178.983144457032     
   213.777105303177     
   247.823669786885     
   280.953543282510     
   313.002532395589     
   343.812184060508     
   373.230399331228     
   401.112019065101     
   427.319378946829     
   451.722831536174     
   474.201233246020     
   494.642394365383     
   512.943490434953     
   529.011433462171     
   542.763201630645     
   554.126126317392     
   563.038135383467     
   569.447951851307     
   573.315247227397     
   574.610748873124     
  0.000000000000000E+000
   35.2736626261703     
   70.7195290635737     
   106.153798607917     
   141.394298663473     
   176.261190105892     
   210.577665573957     
   244.170636844060     
   276.871407604465     
   308.516328136705     
   338.947428620994     
   368.013028004188     
   395.568315595556     
   421.475902781860     
   445.606342474381     
   467.838614113561     
   488.060572260082     
   506.169356993927     
   522.071764525711     
   535.684576598405     
   546.934847424071     
   555.760147060937     
   562.108760292824     
   565.939840226805     
   567.223515977232     
  0.000000000000000E+000
   34.7303706848045     
   69.6517850902733     
   104.581135999751     
   139.336932355374     
   173.739995953830     
   207.614151592482     
   240.786906910659     
   273.090118312318     
   304.360639522546     
   334.440949515600     
   363.179756750595     
   390.432576856916     
   416.062281120234     
   439.939613327719     
   461.943672734751     
   481.962361113330     
   499.892792033464     
   515.641660712970     
   529.125572948732     
   540.271331814424     
   549.016180976911     
   555.308003647230     
   559.105476342939     
   560.378176797798     
  0.000000000000000E+000
   34.2324076681562     
   68.6731248868538     
   103.139675590078     
   137.451189207857     
   171.429089649439     
   204.897778177094     
   237.685306491191     
   269.624036471420     
   300.551283166522     
   330.309937790803     
   358.749067665477     
   385.724490231920     
   411.099318458188     
   434.744475156293     
   456.539173923040     
   476.371364609833     
   494.138141415607     
   509.746111881318     
   523.111725244318     
   534.161558786568     
   542.832560982780     
   549.072250423638     
   552.838869655960     
   554.101493246601     
  0.000000000000000E+000
   33.7816549121445     
   67.7872463254434     
   101.834866187482     
   135.744202491006     
   169.337221449847     
   202.438843936662     
   234.877612566095     
   266.486345917868     
   297.102776526904     
   326.570169418258     
   354.737918129385     
   381.462115337572     
   406.606095392568     
   430.040946240761     
   451.645988415112     
   471.309218952707     
   488.927718287825     
   504.408018352154     
   517.666430294779     
   528.629330412785     
   537.233403058945     
   543.425839466319     
   547.164491600923     
   548.417980323437     
  0.000000000000000E+000
   33.3798182476493     
   66.9975024147768     
   100.671648436747     
   134.222440005176     
   167.472324804000     
   200.246685318650     
   232.374500654014     
   263.688995897274     
   294.028275682673     
   323.235938753732     
   351.161670471308     
   377.661810379939     
   402.599892117308     
   425.847153129629     
   447.283011837277     
   466.795510078007     
   484.281718838540     
   499.648105467961     
   512.810860747862     
   523.696184374005     
   532.240527582533     
   538.390791830352     
   542.104482614394     
   543.349817688302     
  0.000000000000000E+000
   33.0284204069510     
   66.3068863470280     
   99.6544328044653     
   132.891675361324     
   165.841481331888     
   198.329635728633     
   230.185498538131     
   261.242649877438     
   291.339519713355     
   320.319998955828     
   348.034028880130     
   374.338165987547     
   399.096119578600     
   422.179259484052     
   443.467091574885     
   462.847698851609     
   480.218146094066     
   495.484846234435     
   508.563886797630     
   519.381314934186     
   527.873379750852     
   533.986730823176     
   537.678571952469     
   538.916769406577     
  0.000000000000000E+000
   32.7287943769836     
   65.7180184050253     
   98.7870802934554     
   131.756962803043     
   164.450890094558     
   196.694989619995     
   228.318945569232     
   259.156640470768     
   289.046781649879     
   317.833509368992     
   345.366983610952     
   371.503946613842     
   396.108258423892     
   419.051402898649     
   440.212961764062     
   459.481054504868     
   476.752742046250     
   491.934392365094     
   504.942006350400     
   515.701502414009     
   524.148958534182     
   530.230810595581     
   533.904006069585     
   535.136112258552     
  0.000000000000000E+000
   32.4820776753871     
   65.2331346842653     
   98.0728858232057     
   130.822615496277     
   163.305841076734     
   195.348971479198     
   226.781957482163     
   257.438930421712     
   287.158825976677     
   315.785989881140     
   343.170762530384     
   369.170039588836     
   393.647805861441     
   416.475639851105     
   437.533186592770     
   456.708596527620     
   473.898928357606     
   489.010513999723     
   501.959283940453     
   512.671051472648     
   521.081754479534     
   527.137653612841     
   530.795485894282     
   532.022572951265     
  0.000000000000000E+000
   32.2892075313806     
   64.8540775956671     
   97.5145642295379     
   130.092187231733     
   162.410692824322     
   194.296709652099     
   225.580396680346     
   256.096079628735     
   285.682872674488     
   314.185282269440     
   341.453790041530     
   367.345411889677     
   391.724230530049     
   414.461898909703     
   435.438112068671     
   454.541045202415     
   471.667755851716     
   486.724548325422     
   499.627298642111     
   510.301738458807     
   518.683696637874     
   524.719297286587     
   528.365113287343     
   529.588274519711     
  0.000000000000000E+000
   32.1509169580991     
   64.5822881238221     
   97.1142388489296     
   129.568457499581     
   161.768854194660     
   193.542214971914     
   224.718847956377     
   255.133218180676     
   284.624567799470     
   313.037518548891     
   340.222653424828     
   366.037074689504     
   390.344935462242     
   413.017942305945     
   433.935826384031     
   452.986780931826     
   470.067862960496     
   485.085357289296     
   497.955101182227     
   508.602768047418     
   516.964108840881     
   522.985150000376     
   526.622346919446     
   527.842692155966     
  0.000000000000000E+000
   32.0677317066388     
   64.4187998223480     
   96.8734326623751     
   129.253419907162     
   161.382770189202     
   193.088364160944     
   224.200599626613     
   254.554025394571     
   283.987960597890     
   312.347096337743     
   339.482076625511     
   365.250055733417     
   389.515229208447     
   412.149335958544     
   433.032128982160     
   452.051812480577     
   469.105443265847     
   484.099294554437     
   496.949180416880     
   507.580739335886     
   515.929675509021     
   521.941956716479     
   525.573967759301     
   526.792618658358     
  0.000000000000000E+000
   32.0399680949002     
   64.3642345333469     
   96.7930619810927     
   129.148273919225     
   161.253911847577     
   192.936887986832     
   224.027630064971     
   254.360714847027     
   283.775487157583     
   312.116661251916     
   339.234901512331     
   364.987379579667     
   389.238305174338     
   411.859428015120     
   432.730508405527     
   451.739754225711     
   468.784222240999     
   483.770181815305     
   496.613439297768     
   507.239621533173     
   515.584417130413     
   521.593774307771     
   525.224054318866     
   526.442139648193     
VECTORS u double 
    0.00000E+00        -0.43798E+00         0.00000E+00
    0.00000E+00        -0.40628E+00         0.00000E+00
    0.00000E+00        -0.36998E+00         0.00000E+00
    0.00000E+00        -0.33357E+00         0.00000E+00
    0.00000E+00        -0.30003E+00         0.00000E+00
    0.00000E+00        -0.26998E+00         0.00000E+00
    0.00000E+00        -0.24318E+00         0.00000E+00
    0.00000E+00        -0.21917E+00         0.00000E+00
    0.00000E+00        -0.19752E+00         0.00000E+00
    0.00000E+00        -0.17783E+00         0.00000E+00
    0.00000E+00        -0.15980E+00         0.00000E+00
    0.00000E+00        -0.14318E+00         0.00000E+00
    0.00000E+00        -0.12776E+00         0.00000E+00
    0.00000E+00        -0.11337E+00         0.00000E+00
    0.00000E+00        -0.99879E-01         0.00000E+00
    0.00000E+00        -0.87186E-01         0.00000E+00
    0.00000E+00        -0.75200E-01         0.00000E+00
    0.00000E+00        -0.63855E-01         0.00000E+00
    0.00000E+00        -0.53099E-01         0.00000E+00
    0.00000E+00        -0.42896E-01         0.00000E+00
    0.00000E+00        -0.33226E-01         0.00000E+00
    0.00000E+00        -0.24081E-01         0.00000E+00
    0.00000E+00        -0.15473E-01         0.00000E+00
    0.00000E+00        -0.74290E-02         0.00000E+00
    0.00000E+00         0.00000E+00         0.00000E+00
   -0.21202E-01        -0.42801E+00         0.00000E+00
   -0.29399E-02        -0.39638E+00         0.00000E+00
    0.73662E-02        -0.36030E+00         0.00000E+00
    0.11172E-01        -0.32554E+00         0.00000E+00
    0.12096E-01        -0.29376E+00         0.00000E+00
    0.11881E-01        -0.26513E+00         0.00000E+00
    0.11243E-01        -0.23940E+00         0.00000E+00
    0.10479E-01        -0.21620E+00         0.00000E+00
    0.97073E-02        -0.19515E+00         0.00000E+00
    0.89734E-02        -0.17592E+00         0.00000E+00
    0.82909E-02        -0.15825E+00         0.00000E+00
    0.76599E-02        -0.14191E+00         0.00000E+00
    0.70746E-02        -0.12671E+00         0.00000E+00
    0.65268E-02        -0.11250E+00         0.00000E+00
    0.60075E-02        -0.99166E-01         0.00000E+00
    0.55075E-02        -0.86599E-01         0.00000E+00
    0.50172E-02        -0.74721E-01         0.00000E+00
    0.45268E-02        -0.63468E-01         0.00000E+00
    0.40255E-02        -0.52792E-01         0.00000E+00
    0.35020E-02        -0.42659E-01         0.00000E+00
    0.29431E-02        -0.33050E-01         0.00000E+00
    0.23336E-02        -0.23959E-01         0.00000E+00
    0.16554E-02        -0.15398E-01         0.00000E+00
    0.88661E-03        -0.73952E-02         0.00000E+00
    0.00000E+00         0.00000E+00         0.00000E+00
   -0.41145E-01        -0.39670E+00         0.00000E+00
   -0.28960E-02        -0.36319E+00         0.00000E+00
    0.13838E-01        -0.33141E+00         0.00000E+00
    0.20321E-01        -0.30257E+00         0.00000E+00
    0.22261E-01        -0.27592E+00         0.00000E+00
    0.22186E-01        -0.25129E+00         0.00000E+00
    0.21261E-01        -0.22857E+00         0.00000E+00
    0.20015E-01        -0.20762E+00         0.00000E+00
    0.18686E-01        -0.18828E+00         0.00000E+00
    0.17378E-01        -0.17036E+00         0.00000E+00
    0.16132E-01        -0.15371E+00         0.00000E+00
    0.14960E-01        -0.13818E+00         0.00000E+00
    0.13857E-01        -0.12363E+00         0.00000E+00
    0.12814E-01        -0.10996E+00         0.00000E+00
    0.11817E-01        -0.97065E-01         0.00000E+00
    0.10849E-01        -0.84869E-01         0.00000E+00
    0.98950E-02        -0.73305E-01         0.00000E+00
    0.89358E-02        -0.62323E-01         0.00000E+00
    0.79520E-02        -0.51882E-01         0.00000E+00
    0.69214E-02        -0.41956E-01         0.00000E+00
    0.58188E-02        -0.32528E-01         0.00000E+00
    0.46146E-02        -0.23598E-01         0.00000E+00
    0.32737E-02        -0.15177E-01         0.00000E+00
    0.17532E-02        -0.72951E-02         0.00000E+00
    0.00000E+00         0.00000E+00         0.00000E+00
   -0.54738E-01        -0.32040E+00         0.00000E+00
   -0.37816E-02        -0.30455E+00         0.00000E+00
    0.16411E-01        -0.28707E+00         0.00000E+00
    0.25455E-01        -0.26849E+00         0.00000E+00
    0.28964E-01        -0.24944E+00         0.00000E+00
    0.29714E-01        -0.23051E+00         0.00000E+00
    0.29104E-01        -0.21209E+00         0.00000E+00
    0.27856E-01        -0.19441E+00         0.00000E+00
    0.26336E-01        -0.17759E+00         0.00000E+00
    0.24733E-01        -0.16164E+00         0.00000E+00
    0.23135E-01        -0.14654E+00         0.00000E+00
    0.21583E-01        -0.13226E+00         0.00000E+00
    0.20087E-01        -0.11872E+00         0.00000E+00
    0.18645E-01        -0.10588E+00         0.00000E+00
    0.17245E-01        -0.93685E-01         0.00000E+00
    0.15872E-01        -0.82077E-01         0.00000E+00
    0.14503E-01        -0.71016E-01         0.00000E+00
    0.13117E-01        -0.60469E-01         0.00000E+00
    0.11686E-01        -0.50407E-01         0.00000E+00
    0.10180E-01        -0.40814E-01         0.00000E+00
    0.85630E-02        -0.31680E-01         0.00000E+00
    0.67931E-02        -0.23010E-01         0.00000E+00
    0.48196E-02        -0.14817E-01         0.00000E+00
    0.25807E-02        -0.71318E-02         0.00000E+00
    0.00000E+00         0.00000E+00         0.00000E+00
   -0.58088E-01        -0.23963E+00         0.00000E+00
   -0.11002E-01        -0.24141E+00         0.00000E+00
    0.13411E-01        -0.23815E+00         0.00000E+00
    0.25734E-01        -0.22984E+00         0.00000E+00
    0.31628E-01        -0.21857E+00         0.00000E+00
    0.33952E-01        -0.20565E+00         0.00000E+00
    0.34301E-01        -0.19193E+00         0.00000E+00
    0.33576E-01        -0.17795E+00         0.00000E+00
    0.32286E-01        -0.16406E+00         0.00000E+00
    0.30715E-01        -0.15046E+00         0.00000E+00
    0.29022E-01        -0.13726E+00         0.00000E+00
    0.27290E-01        -0.12452E+00         0.00000E+00
    0.25559E-01        -0.11227E+00         0.00000E+00
    0.23844E-01        -0.10049E+00         0.00000E+00
    0.22143E-01        -0.89194E-01         0.00000E+00
    0.20445E-01        -0.78353E-01         0.00000E+00
    0.18730E-01        -0.67954E-01         0.00000E+00
    0.16974E-01        -0.57981E-01         0.00000E+00
    0.15145E-01        -0.48424E-01         0.00000E+00
    0.13208E-01        -0.39275E-01         0.00000E+00
    0.11118E-01        -0.30536E-01         0.00000E+00
    0.88240E-02        -0.22215E-01         0.00000E+00
    0.62611E-02        -0.14330E-01         0.00000E+00
    0.33519E-02        -0.69104E-02         0.00000E+00
    0.00000E+00         0.00000E+00         0.00000E+00
   -0.55103E-01        -0.19465E+00         0.00000E+00
   -0.18643E-01        -0.19442E+00         0.00000E+00
    0.71543E-02        -0.19522E+00         0.00000E+00
    0.22400E-01        -0.19294E+00         0.00000E+00
    0.30872E-01        -0.18744E+00         0.00000E+00
    0.35164E-01        -0.17957E+00         0.00000E+00
    0.36909E-01        -0.17013E+00         0.00000E+00
    0.37119E-01        -0.15971E+00         0.00000E+00
    0.36417E-01        -0.14878E+00         0.00000E+00
    0.35182E-01        -0.13763E+00         0.00000E+00
    0.33644E-01        -0.12647E+00         0.00000E+00
    0.31938E-01        -0.11543E+00         0.00000E+00
    0.30139E-01        -0.10461E+00         0.00000E+00
    0.28288E-01        -0.94059E-01         0.00000E+00
    0.26398E-01        -0.83802E-01         0.00000E+00
    0.24469E-01        -0.73861E-01         0.00000E+00
    0.22487E-01        -0.64244E-01         0.00000E+00
    0.20428E-01        -0.54957E-01         0.00000E+00
    0.18261E-01        -0.46006E-01         0.00000E+00
    0.15947E-01        -0.37396E-01         0.00000E+00
    0.13437E-01        -0.29136E-01         0.00000E+00
    0.10669E-01        -0.21240E-01         0.00000E+00
    0.75713E-02        -0.13731E-01         0.00000E+00
    0.40523E-02        -0.66377E-02         0.00000E+00
    0.00000E+00         0.00000E+00         0.00000E+00
   -0.50903E-01        -0.16085E+00         0.00000E+00
   -0.22103E-01        -0.16035E+00         0.00000E+00
    0.13048E-02        -0.16110E+00         0.00000E+00
    0.17671E-01        -0.16100E+00         0.00000E+00
    0.28041E-01        -0.15880E+00         0.00000E+00
    0.34151E-01        -0.15446E+00         0.00000E+00
    0.37386E-01        -0.14839E+00         0.00000E+00
    0.38727E-01        -0.14102E+00         0.00000E+00
    0.38841E-01        -0.13276E+00         0.00000E+00
    0.38164E-01        -0.12394E+00         0.00000E+00
    0.36984E-01        -0.11478E+00         0.00000E+00
    0.35481E-01        -0.10547E+00         0.00000E+00
    0.33768E-01        -0.96142E-01         0.00000E+00
    0.31911E-01        -0.86877E-01         0.00000E+00
    0.29945E-01        -0.77741E-01         0.00000E+00
    0.27880E-01        -0.68782E-01         0.00000E+00
    0.25712E-01        -0.60029E-01         0.00000E+00
    0.23424E-01        -0.51508E-01         0.00000E+00
    0.20985E-01        -0.43239E-01         0.00000E+00
    0.18354E-01        -0.35238E-01         0.00000E+00
    0.15481E-01        -0.27524E-01         0.00000E+00
    0.12299E-01        -0.20116E-01         0.00000E+00
    0.87290E-02        -0.13039E-01         0.00000E+00
    0.46704E-02        -0.63216E-02         0.00000E+00
    0.00000E+00         0.00000E+00         0.00000E+00
   -0.46730E-01        -0.13438E+00         0.00000E+00
   -0.23239E-01        -0.13354E+00         0.00000E+00
   -0.27167E-02        -0.13398E+00         0.00000E+00
    0.13184E-01        -0.13438E+00         0.00000E+00
    0.24439E-01        -0.13373E+00         0.00000E+00
    0.31847E-01        -0.13155E+00         0.00000E+00
    0.36368E-01        -0.12786E+00         0.00000E+00
    0.38818E-01        -0.12287E+00         0.00000E+00
    0.39819E-01        -0.11685E+00         0.00000E+00
    0.39818E-01        -0.11007E+00         0.00000E+00
    0.39126E-01        -0.10276E+00         0.00000E+00
    0.37957E-01        -0.95092E-01         0.00000E+00
    0.36453E-01        -0.87215E-01         0.00000E+00
    0.34702E-01        -0.79238E-01         0.00000E+00
    0.32758E-01        -0.71246E-01         0.00000E+00
    0.30648E-01        -0.63303E-01         0.00000E+00
    0.28375E-01        -0.55459E-01         0.00000E+00
    0.25928E-01        -0.47751E-01         0.00000E+00
    0.23283E-01        -0.40212E-01         0.00000E+00
    0.20399E-01        -0.32870E-01         0.00000E+00
    0.17225E-01        -0.25749E-01         0.00000E+00
    0.13694E-01        -0.18875E-01         0.00000E+00
    0.97195E-02        -0.12273E-01         0.00000E+00
    0.51983E-02        -0.59706E-02         0.00000E+00
    0.00000E+00         0.00000E+00         0.00000E+00
   -0.42659E-01        -0.11273E+00         0.00000E+00
   -0.23070E-01        -0.11173E+00         0.00000E+00
   -0.52145E-02        -0.11184E+00         0.00000E+00
    0.95754E-02        -0.11227E+00         0.00000E+00
    0.20897E-01        -0.11225E+00         0.00000E+00
    0.29009E-01        -0.11127E+00         0.00000E+00
    0.34462E-01        -0.10914E+00         0.00000E+00
    0.37848E-01        -0.10588E+00         0.00000E+00
    0.39681E-01        -0.10163E+00         0.00000E+00
    0.40370E-01        -0.96562E-01         0.00000E+00
    0.40224E-01        -0.90856E-01         0.00000E+00
    0.39466E-01        -0.84675E-01         0.00000E+00
    0.38253E-01        -0.78156E-01         0.00000E+00
    0.36693E-01        -0.71412E-01         0.00000E+00
    0.34853E-01        -0.64537E-01         0.00000E+00
    0.32773E-01        -0.57605E-01         0.00000E+00
    0.30466E-01        -0.50677E-01         0.00000E+00
    0.27929E-01        -0.43800E-01         0.00000E+00
    0.25142E-01        -0.37017E-01         0.00000E+00
    0.22068E-01        -0.30361E-01         0.00000E+00
    0.18656E-01        -0.23863E-01         0.00000E+00
    0.14840E-01        -0.17551E-01         0.00000E+00
    0.10534E-01        -0.11453E-01         0.00000E+00
    0.56314E-02        -0.55938E-02         0.00000E+00
    0.00000E+00         0.00000E+00         0.00000E+00
   -0.38728E-01        -0.94651E-01         0.00000E+00
   -0.22143E-01        -0.93570E-01         0.00000E+00
   -0.65975E-02        -0.93430E-01         0.00000E+00
    0.68770E-02        -0.93742E-01         0.00000E+00
    0.17792E-01        -0.93949E-01         0.00000E+00
    0.26125E-01        -0.93605E-01         0.00000E+00
    0.32140E-01        -0.92451E-01         0.00000E+00
    0.36219E-01        -0.90398E-01         0.00000E+00
    0.38749E-01        -0.87475E-01         0.00000E+00
    0.40071E-01        -0.83774E-01         0.00000E+00
    0.40463E-01        -0.79417E-01         0.00000E+00
    0.40141E-01        -0.74531E-01         0.00000E+00
    0.39264E-01        -0.69233E-01         0.00000E+00
    0.37949E-01        -0.63629E-01         0.00000E+00
    0.36273E-01        -0.57809E-01         0.00000E+00
    0.34283E-01        -0.51850E-01         0.00000E+00
    0.32002E-01        -0.45817E-01         0.00000E+00
    0.29434E-01        -0.39764E-01         0.00000E+00
    0.26564E-01        -0.33737E-01         0.00000E+00
    0.23359E-01        -0.27775E-01         0.00000E+00
    0.19772E-01        -0.21912E-01         0.00000E+00
    0.15737E-01        -0.16178E-01         0.00000E+00
    0.11171E-01        -0.10599E-01         0.00000E+00
    0.59688E-02        -0.51999E-02         0.00000E+00
    0.00000E+00         0.00000E+00         0.00000E+00
   -0.34952E-01        -0.79342E-01         0.00000E+00
   -0.20766E-01        -0.78225E-01         0.00000E+00
   -0.71958E-02        -0.77913E-01         0.00000E+00
    0.49576E-02        -0.78083E-01         0.00000E+00
    0.15222E-01        -0.78337E-01         0.00000E+00
    0.23445E-01        -0.78313E-01         0.00000E+00
    0.29713E-01        -0.77754E-01         0.00000E+00
    0.34243E-01        -0.76519E-01         0.00000E+00
    0.37301E-01        -0.74569E-01         0.00000E+00
    0.39153E-01        -0.71931E-01         0.00000E+00
    0.40032E-01        -0.68673E-01         0.00000E+00
    0.40130E-01        -0.64883E-01         0.00000E+00
    0.39601E-01        -0.60654E-01         0.00000E+00
    0.38557E-01        -0.56073E-01         0.00000E+00
    0.37080E-01        -0.51222E-01         0.00000E+00
    0.35223E-01        -0.46175E-01         0.00000E+00
    0.33016E-01        -0.40996E-01         0.00000E+00
    0.30467E-01        -0.35738E-01         0.00000E+00
    0.27565E-01        -0.30450E-01         0.00000E+00
    0.24284E-01        -0.25173E-01         0.00000E+00
    0.20579E-01        -0.19941E-01         0.00000E+00
    0.16389E-01        -0.14786E-01         0.00000E+00
    0.11634E-01        -0.97306E-02         0.00000E+00
    0.62122E-02        -0.47972E-02         0.00000E+00
    0.00000E+00         0.00000E+00         0.00000E+00
   -0.31340E-01        -0.66260E-01         0.00000E+00
   -0.19123E-01        -0.65139E-01         0.00000E+00
   -0.72462E-02        -0.64712E-01         0.00000E+00
    0.36587E-02        -0.64757E-01         0.00000E+00
    0.13167E-01        -0.64986E-01         0.00000E+00
    0.21075E-01        -0.65113E-01         0.00000E+00
    0.27363E-01        -0.64909E-01         0.00000E+00
    0.32132E-01        -0.64221E-01         0.00000E+00
    0.35553E-01        -0.62971E-01         0.00000E+00
    0.37815E-01        -0.61142E-01         0.00000E+00
    0.39103E-01        -0.58762E-01         0.00000E+00
    0.39580E-01        -0.55881E-01         0.00000E+00
    0.39380E-01        -0.52565E-01         0.00000E+00
    0.38610E-01        -0.48883E-01         0.00000E+00
    0.37350E-01        -0.44905E-01         0.00000E+00
    0.35654E-01        -0.40694E-01         0.00000E+00
    0.33553E-01        -0.36309E-01         0.00000E+00
    0.31062E-01        -0.31804E-01         0.00000E+00
    0.28173E-01        -0.27223E-01         0.00000E+00
    0.24863E-01        -0.22607E-01         0.00000E+00
    0.21094E-01        -0.17990E-01         0.00000E+00
    0.16808E-01        -0.13401E-01         0.00000E+00
    0.11930E-01        -0.88635E-02         0.00000E+00
    0.63662E-02        -0.43933E-02         0.00000E+00
    0.00000E+00         0.00000E+00         0.00000E+00
   -0.27902E-01        -0.55018E-01         0.00000E+00
   -0.17333E-01        -0.53914E-01         0.00000E+00
   -0.69171E-02        -0.53414E-01         0.00000E+00
    0.28389E-02        -0.53359E-01         0.00000E+00
    0.11563E-01        -0.53538E-01         0.00000E+00
    0.19037E-01        -0.53728E-01         0.00000E+00
    0.25182E-01        -0.53734E-01         0.00000E+00
    0.30025E-01        -0.53408E-01         0.00000E+00
    0.33659E-01        -0.52658E-01         0.00000E+00
    0.36213E-01        -0.51439E-01         0.00000E+00
    0.37824E-01        -0.49749E-01         0.00000E+00
    0.38620E-01        -0.47610E-01         0.00000E+00
    0.38716E-01        -0.45062E-01         0.00000E+00
    0.38206E-01        -0.42158E-01         0.00000E+00
    0.37163E-01        -0.38949E-01         0.00000E+00
    0.35639E-01        -0.35491E-01         0.00000E+00
    0.33668E-01        -0.31834E-01         0.00000E+00
    0.31263E-01        -0.28025E-01         0.00000E+00
    0.28421E-01        -0.24108E-01         0.00000E+00
    0.25125E-01        -0.20119E-01         0.00000E+00
    0.21339E-01        -0.16090E-01         0.00000E+00
    0.17010E-01        -0.12048E-01         0.00000E+00
    0.12072E-01        -0.80122E-02         0.00000E+00
    0.64372E-02        -0.39949E-02         0.00000E+00
    0.00000E+00         0.00000E+00         0.00000E+00
   -0.24645E-01        -0.45322E-01         0.00000E+00
   -0.15477E-01        -0.44251E-01         0.00000E+00
   -0.63295E-02        -0.43708E-01         0.00000E+00
    0.23818E-02        -0.43578E-01         0.00000E+00
    0.10334E-01        -0.43705E-01         0.00000E+00
    0.17312E-01        -0.43914E-01         0.00000E+00
    0.23208E-01        -0.44042E-01         0.00000E+00
    0.28000E-01        -0.43956E-01         0.00000E+00
    0.31726E-01        -0.43560E-01         0.00000E+00
    0.34465E-01        -0.42799E-01         0.00000E+00
    0.36311E-01        -0.41646E-01         0.00000E+00
    0.37362E-01        -0.40106E-01         0.00000E+00
    0.37710E-01        -0.38197E-01         0.00000E+00
    0.37434E-01        -0.35954E-01         0.00000E+00
    0.36597E-01        -0.33416E-01         0.00000E+00
    0.35247E-01        -0.30625E-01         0.00000E+00
    0.33416E-01        -0.27624E-01         0.00000E+00
    0.31117E-01        -0.24452E-01         0.00000E+00
    0.28351E-01        -0.21148E-01         0.00000E+00
    0.25102E-01        -0.17745E-01         0.00000E+00
    0.21339E-01        -0.14270E-01         0.00000E+00
    0.17017E-01        -0.10746E-01         0.00000E+00
    0.12074E-01        -0.71889E-02         0.00000E+00
    0.64331E-02        -0.36074E-02         0.00000E+00
    0.00000E+00         0.00000E+00         0.00000E+00
   -0.21573E-01        -0.36944E-01         0.00000E+00
   -0.13610E-01        -0.35916E-01         0.00000E+00
   -0.55714E-02        -0.35353E-01         0.00000E+00
    0.21952E-02        -0.35172E-01         0.00000E+00
    0.94088E-02        -0.35252E-01         0.00000E+00
    0.15867E-01        -0.35458E-01         0.00000E+00
    0.21448E-01        -0.35656E-01         0.00000E+00
    0.26099E-01        -0.35729E-01         0.00000E+00
    0.29821E-01        -0.35587E-01         0.00000E+00
    0.32653E-01        -0.35166E-01         0.00000E+00
    0.34656E-01        -0.34431E-01         0.00000E+00
    0.35898E-01        -0.33370E-01         0.00000E+00
    0.36451E-01        -0.31988E-01         0.00000E+00
    0.36375E-01        -0.30303E-01         0.00000E+00
    0.35726E-01        -0.28341E-01         0.00000E+00
    0.34543E-01        -0.26135E-01         0.00000E+00
    0.32855E-01        -0.23716E-01         0.00000E+00
    0.30675E-01        -0.21119E-01         0.00000E+00
    0.28005E-01        -0.18374E-01         0.00000E+00
    0.24830E-01        -0.15509E-01         0.00000E+00
    0.21125E-01        -0.12547E-01         0.00000E+00
    0.16851E-01        -0.95083E-02         0.00000E+00
    0.11952E-01        -0.64030E-02         0.00000E+00
    0.63628E-02        -0.32355E-02         0.00000E+00
    0.00000E+00         0.00000E+00         0.00000E+00
   -0.18691E-01        -0.29700E-01         0.00000E+00
   -0.11772E-01        -0.28723E-01         0.00000E+00
   -0.47083E-02        -0.28158E-01         0.00000E+00
    0.22060E-02        -0.27944E-01         0.00000E+00
    0.87252E-02        -0.27987E-01         0.00000E+00
    0.14662E-01        -0.28182E-01         0.00000E+00
    0.19890E-01        -0.28419E-01         0.00000E+00
    0.24339E-01        -0.28598E-01         0.00000E+00
    0.27985E-01        -0.28636E-01         0.00000E+00
    0.30836E-01        -0.28470E-01         0.00000E+00
    0.32927E-01        -0.28059E-01         0.00000E+00
    0.34302E-01        -0.27380E-01         0.00000E+00
    0.35011E-01        -0.26428E-01         0.00000E+00
    0.35102E-01        -0.25209E-01         0.00000E+00
    0.34617E-01        -0.23739E-01         0.00000E+00
    0.33588E-01        -0.22039E-01         0.00000E+00
    0.32040E-01        -0.20133E-01         0.00000E+00
    0.29985E-01        -0.18046E-01         0.00000E+00
    0.27424E-01        -0.15804E-01         0.00000E+00
    0.24345E-01        -0.13429E-01         0.00000E+00
    0.20727E-01        -0.10938E-01         0.00000E+00
    0.16536E-01        -0.83465E-02         0.00000E+00
    0.11724E-01        -0.56614E-02         0.00000E+00
    0.62356E-02        -0.28825E-02         0.00000E+00
    0.00000E+00         0.00000E+00         0.00000E+00
   -0.16001E-01        -0.23440E-01         0.00000E+00
   -0.99921E-02        -0.22520E-01         0.00000E+00
   -0.37889E-02        -0.21966E-01         0.00000E+00
    0.23571E-02        -0.21733E-01         0.00000E+00
    0.82300E-02        -0.21749E-01         0.00000E+00
    0.13658E-01        -0.21932E-01         0.00000E+00
    0.18516E-01        -0.22190E-01         0.00000E+00
    0.22723E-01        -0.22440E-01         0.00000E+00
    0.26239E-01        -0.22607E-01         0.00000E+00
    0.29053E-01        -0.22632E-01         0.00000E+00
    0.31175E-01        -0.22471E-01         0.00000E+00
    0.32630E-01        -0.22096E-01         0.00000E+00
    0.33452E-01        -0.21494E-01         0.00000E+00
    0.33674E-01        -0.20662E-01         0.00000E+00
    0.33327E-01        -0.19607E-01         0.00000E+00
    0.32437E-01        -0.18342E-01         0.00000E+00
    0.31022E-01        -0.16881E-01         0.00000E+00
    0.29093E-01        -0.15245E-01         0.00000E+00
    0.26650E-01        -0.13451E-01         0.00000E+00
    0.23683E-01        -0.11514E-01         0.00000E+00
    0.20175E-01        -0.94504E-02         0.00000E+00
    0.16096E-01        -0.72675E-02         0.00000E+00
    0.11407E-01        -0.49690E-02         0.00000E+00
    0.60609E-02        -0.25510E-02         0.00000E+00
    0.00000E+00         0.00000E+00         0.00000E+00
   -0.13503E-01        -0.18038E-01         0.00000E+00
   -0.82916E-02        -0.17178E-01         0.00000E+00
   -0.28502E-02        -0.16645E-01         0.00000E+00
    0.26036E-02        -0.16405E-01         0.00000E+00
    0.78790E-02        -0.16404E-01         0.00000E+00
    0.12819E-01        -0.16575E-01         0.00000E+00
    0.17302E-01        -0.16845E-01         0.00000E+00
    0.21245E-01        -0.17143E-01         0.00000E+00
    0.24594E-01        -0.17403E-01         0.00000E+00
    0.27325E-01        -0.17570E-01         0.00000E+00
    0.29433E-01        -0.17603E-01         0.00000E+00
    0.30925E-01        -0.17469E-01         0.00000E+00
    0.31821E-01        -0.17150E-01         0.00000E+00
    0.32142E-01        -0.16638E-01         0.00000E+00
    0.31908E-01        -0.15931E-01         0.00000E+00
    0.31139E-01        -0.15036E-01         0.00000E+00
    0.29848E-01        -0.13960E-01         0.00000E+00
    0.28042E-01        -0.12716E-01         0.00000E+00
    0.25722E-01        -0.11316E-01         0.00000E+00
    0.22879E-01        -0.97704E-02         0.00000E+00
    0.19498E-01        -0.80886E-02         0.00000E+00
    0.15554E-01        -0.62748E-02         0.00000E+00
    0.11017E-01        -0.43286E-02         0.00000E+00
    0.58477E-02        -0.22424E-02         0.00000E+00
    0.00000E+00         0.00000E+00         0.00000E+00
   -0.11196E-01        -0.13387E-01         0.00000E+00
   -0.66854E-02        -0.12589E-01         0.00000E+00
   -0.19200E-02        -0.12084E-01         0.00000E+00
    0.29102E-02        -0.11847E-01         0.00000E+00
    0.76357E-02        -0.11837E-01         0.00000E+00
    0.12113E-01        -0.11999E-01         0.00000E+00
    0.16227E-01        -0.12275E-01         0.00000E+00
    0.19894E-01        -0.12606E-01         0.00000E+00
    0.23053E-01        -0.12933E-01         0.00000E+00
    0.25669E-01        -0.13208E-01         0.00000E+00
    0.27726E-01        -0.13389E-01         0.00000E+00
    0.29219E-01        -0.13445E-01         0.00000E+00
    0.30155E-01        -0.13355E-01         0.00000E+00
    0.30545E-01        -0.13105E-01         0.00000E+00
    0.30402E-01        -0.12689E-01         0.00000E+00
    0.29736E-01        -0.12105E-01         0.00000E+00
    0.28558E-01        -0.11358E-01         0.00000E+00
    0.26871E-01        -0.10453E-01         0.00000E+00
    0.24675E-01        -0.93971E-02         0.00000E+00
    0.21963E-01        -0.81958E-02         0.00000E+00
    0.18722E-01        -0.68531E-02         0.00000E+00
    0.14933E-01        -0.53697E-02         0.00000E+00
    0.10571E-01        -0.37414E-02         0.00000E+00
    0.56045E-02        -0.19576E-02         0.00000E+00
    0.00000E+00         0.00000E+00         0.00000E+00
   -0.90769E-02        -0.93943E-02         0.00000E+00
   -0.51841E-02        -0.86599E-02         0.00000E+00
   -0.10195E-02        -0.81883E-02         0.00000E+00
    0.32492E-02        -0.79615E-02         0.00000E+00
    0.74705E-02        -0.79477E-02         0.00000E+00
    0.11514E-01        -0.81050E-02         0.00000E+00
    0.15270E-01        -0.83851E-02         0.00000E+00
    0.18657E-01        -0.87374E-02         0.00000E+00
    0.21611E-01        -0.91134E-02         0.00000E+00
    0.24090E-01        -0.94685E-02         0.00000E+00
    0.26069E-01        -0.97647E-02         0.00000E+00
    0.27535E-01        -0.99710E-02         0.00000E+00
    0.28484E-01        -0.10064E-01         0.00000E+00
    0.28918E-01        -0.10027E-01         0.00000E+00
    0.28843E-01        -0.98508E-02         0.00000E+00
    0.28265E-01        -0.95291E-02         0.00000E+00
    0.27188E-01        -0.90606E-02         0.00000E+00
    0.25614E-01        -0.84461E-02         0.00000E+00
    0.23542E-01        -0.76874E-02         0.00000E+00
    0.20965E-01        -0.67859E-02         0.00000E+00
    0.17874E-01        -0.57416E-02         0.00000E+00
    0.14252E-01        -0.45511E-02         0.00000E+00
    0.10082E-01        -0.32072E-02         0.00000E+00
    0.53392E-02        -0.16969E-02         0.00000E+00
    0.00000E+00         0.00000E+00         0.00000E+00
   -0.71432E-02        -0.59797E-02         0.00000E+00
   -0.37946E-02        -0.53091E-02         0.00000E+00
   -0.16425E-03        -0.48743E-02         0.00000E+00
    0.35990E-02        -0.46632E-02         0.00000E+00
    0.73593E-02        -0.46519E-02         0.00000E+00
    0.10997E-01        -0.48071E-02         0.00000E+00
    0.14412E-01        -0.50896E-02         0.00000E+00
    0.17522E-01        -0.54574E-02         0.00000E+00
    0.20264E-01        -0.58685E-02         0.00000E+00
    0.22592E-01        -0.62836E-02         0.00000E+00
    0.24473E-01        -0.66677E-02         0.00000E+00
    0.25889E-01        -0.69911E-02         0.00000E+00
    0.26828E-01        -0.72301E-02         0.00000E+00
    0.27285E-01        -0.73663E-02         0.00000E+00
    0.27260E-01        -0.73866E-02         0.00000E+00
    0.26754E-01        -0.72823E-02         0.00000E+00
    0.25767E-01        -0.70478E-02         0.00000E+00
    0.24300E-01        -0.66797E-02         0.00000E+00
    0.22349E-01        -0.61758E-02         0.00000E+00
    0.19910E-01        -0.55336E-02         0.00000E+00
    0.16974E-01        -0.47492E-02         0.00000E+00
    0.13530E-01        -0.38163E-02         0.00000E+00
    0.95630E-02        -0.27248E-02         0.00000E+00
    0.50586E-02        -0.14598E-02         0.00000E+00
    0.00000E+00         0.00000E+00         0.00000E+00
   -0.53899E-02        -0.30727E-02         0.00000E+00
   -0.25210E-02        -0.24654E-02         0.00000E+00
    0.63414E-03        -0.20698E-02         0.00000E+00
    0.39428E-02        -0.18786E-02         0.00000E+00
    0.72829E-02        -0.18740E-02         0.00000E+00
    0.10545E-01        -0.20299E-02         0.00000E+00
    0.13636E-01        -0.23146E-02         0.00000E+00
    0.16477E-01        -0.26929E-02         0.00000E+00
    0.19006E-01        -0.31291E-02         0.00000E+00
    0.21173E-01        -0.35885E-02         0.00000E+00
    0.22943E-01        -0.40394E-02         0.00000E+00
    0.24292E-01        -0.44537E-02         0.00000E+00
    0.25204E-01        -0.48079E-02         0.00000E+00
    0.25667E-01        -0.50828E-02         0.00000E+00
    0.25676E-01        -0.52633E-02         0.00000E+00
    0.25229E-01        -0.53380E-02         0.00000E+00
    0.24322E-01        -0.52982E-02         0.00000E+00
    0.22954E-01        -0.51374E-02         0.00000E+00
    0.21122E-01        -0.48498E-02         0.00000E+00
    0.18820E-01        -0.44295E-02         0.00000E+00
    0.16042E-01        -0.38697E-02         0.00000E+00
    0.12781E-01        -0.31613E-02         0.00000E+00
    0.90261E-02        -0.22921E-02         0.00000E+00
    0.47688E-02        -0.12456E-02         0.00000E+00
    0.00000E+00         0.00000E+00         0.00000E+00
   -0.38117E-02        -0.61121E-03         0.00000E+00
   -0.13652E-02        -0.66106E-04         0.00000E+00
    0.13675E-02         0.28886E-03         0.00000E+00
    0.42679E-02         0.45728E-03         0.00000E+00
    0.72257E-02         0.45191E-03         0.00000E+00
    0.10141E-01         0.29297E-03         0.00000E+00
    0.12928E-01         0.61585E-05         0.00000E+00
    0.15511E-01        -0.37941E-03         0.00000E+00
    0.17828E-01        -0.83316E-03         0.00000E+00
    0.19831E-01        -0.13248E-02         0.00000E+00
    0.21483E-01        -0.18256E-02         0.00000E+00
    0.22753E-01        -0.23095E-02         0.00000E+00
    0.23624E-01        -0.27536E-02         0.00000E+00
    0.24079E-01        -0.31385E-02         0.00000E+00
    0.24110E-01        -0.34479E-02         0.00000E+00
    0.23710E-01        -0.36684E-02         0.00000E+00
    0.22874E-01        -0.37892E-02         0.00000E+00
    0.21598E-01        -0.38009E-02         0.00000E+00
    0.19880E-01        -0.36950E-02         0.00000E+00
    0.17714E-01        -0.34630E-02         0.00000E+00
    0.15095E-01        -0.30955E-02         0.00000E+00
    0.12019E-01        -0.25813E-02         0.00000E+00
    0.84807E-02        -0.19064E-02         0.00000E+00
    0.44751E-02        -0.10533E-02         0.00000E+00
    0.00000E+00         0.00000E+00         0.00000E+00
   -0.24022E-02         0.14599E-02         0.00000E+00
   -0.32724E-03         0.19444E-02         0.00000E+00
    0.20304E-02         0.22582E-02         0.00000E+00
    0.45644E-02         0.24019E-02         0.00000E+00
    0.71753E-02         0.23841E-02         0.00000E+00
    0.97723E-02         0.22203E-02         0.00000E+00
    0.12274E-01         0.19312E-02         0.00000E+00
    0.14611E-01         0.15408E-02         0.00000E+00
    0.16724E-01         0.10752E-02         0.00000E+00
    0.18564E-01         0.56094E-03         0.00000E+00
    0.20091E-01         0.23659E-04         0.00000E+00
    0.21276E-01        -0.51253E-03         0.00000E+00
    0.22096E-01        -0.10257E-02         0.00000E+00
    0.22532E-01        -0.14966E-02         0.00000E+00
    0.22574E-01        -0.19083E-02         0.00000E+00
    0.22212E-01        -0.22463E-02         0.00000E+00
    0.21438E-01        -0.24978E-02         0.00000E+00
    0.20249E-01        -0.26515E-02         0.00000E+00
    0.18640E-01        -0.26968E-02         0.00000E+00
    0.16607E-01        -0.26230E-02         0.00000E+00
    0.14146E-01        -0.24188E-02         0.00000E+00
    0.11256E-01        -0.20711E-02         0.00000E+00
    0.79349E-02        -0.15648E-02         0.00000E+00
    0.41819E-02        -0.88171E-03         0.00000E+00
    0.00000E+00         0.00000E+00         0.00000E+00
   -0.11545E-02         0.31896E-02         0.00000E+00
    0.59424E-03         0.36156E-02         0.00000E+00
    0.26194E-02         0.38884E-02         0.00000E+00
    0.48254E-02         0.40061E-02         0.00000E+00
    0.71223E-02         0.39742E-02         0.00000E+00
    0.94272E-02         0.38042E-02         0.00000E+00
    0.11665E-01         0.35125E-02         0.00000E+00
    0.13771E-01         0.31192E-02         0.00000E+00
    0.15687E-01         0.26462E-02         0.00000E+00
    0.17366E-01         0.21168E-02         0.00000E+00
    0.18768E-01         0.15538E-02         0.00000E+00
    0.19863E-01         0.97946E-03         0.00000E+00
    0.20626E-01         0.41438E-03         0.00000E+00
    0.21036E-01        -0.12250E-03         0.00000E+00
    0.21081E-01        -0.61410E-03         0.00000E+00
    0.20748E-01        -0.10451E-02         0.00000E+00
    0.20030E-01        -0.14016E-02         0.00000E+00
    0.18921E-01        -0.16708E-02         0.00000E+00
    0.17416E-01        -0.18404E-02         0.00000E+00
    0.15512E-01        -0.18981E-02         0.00000E+00
    0.13208E-01        -0.18310E-02         0.00000E+00
    0.10502E-01        -0.16250E-02         0.00000E+00
    0.73955E-02        -0.12639E-02         0.00000E+00
    0.38926E-02        -0.72941E-03         0.00000E+00
    0.00000E+00         0.00000E+00         0.00000E+00
   -0.61292E-04         0.46216E-02         0.00000E+00
    0.14019E-02         0.49914E-02         0.00000E+00
    0.31328E-02         0.52237E-02         0.00000E+00
    0.50458E-02         0.53150E-02         0.00000E+00
    0.70592E-02         0.52678E-02         0.00000E+00
    0.90975E-02         0.50907E-02         0.00000E+00
    0.11092E-01         0.47964E-02         0.00000E+00
    0.12980E-01         0.44015E-02         0.00000E+00
    0.14709E-01         0.39247E-02         0.00000E+00
    0.16233E-01         0.33861E-02         0.00000E+00
    0.17512E-01         0.28062E-02         0.00000E+00
    0.18515E-01         0.22051E-02         0.00000E+00
    0.19216E-01         0.16024E-02         0.00000E+00
    0.19596E-01         0.10162E-02         0.00000E+00
    0.19637E-01         0.46364E-03         0.00000E+00
    0.19327E-01        -0.39676E-04         0.00000E+00
    0.18659E-01        -0.47908E-03         0.00000E+00
    0.17624E-01        -0.84072E-03         0.00000E+00
    0.16219E-01        -0.11112E-02         0.00000E+00
    0.14441E-01        -0.12769E-02         0.00000E+00
    0.12288E-01        -0.13240E-02         0.00000E+00
    0.97627E-02        -0.12373E-02         0.00000E+00
    0.68679E-02        -0.10005E-02         0.00000E+00
    0.36102E-02        -0.59497E-03         0.00000E+00
    0.00000E+00         0.00000E+00         0.00000E+00
    0.88527E-03         0.57949E-02         0.00000E+00
    0.20992E-02         0.61109E-02         0.00000E+00
    0.35705E-02         0.63040E-02         0.00000E+00
    0.52222E-02         0.63687E-02         0.00000E+00
    0.69805E-02         0.63057E-02         0.00000E+00
    0.87763E-02         0.61208E-02         0.00000E+00
    0.10546E-01         0.58240E-02         0.00000E+00
    0.12233E-01         0.54287E-02         0.00000E+00
    0.13786E-01         0.49508E-02         0.00000E+00
    0.15161E-01         0.44078E-02         0.00000E+00
    0.16320E-01         0.38179E-02         0.00000E+00
    0.17232E-01         0.31995E-02         0.00000E+00
    0.17870E-01         0.25709E-02         0.00000E+00
    0.18214E-01         0.19493E-02         0.00000E+00
    0.18248E-01         0.13516E-02         0.00000E+00
    0.17957E-01         0.79350E-03         0.00000E+00
    0.17333E-01         0.29004E-03         0.00000E+00
    0.16367E-01        -0.14427E-03         0.00000E+00
    0.15057E-01        -0.49522E-03         0.00000E+00
    0.13400E-01        -0.74852E-03         0.00000E+00
    0.11395E-01        -0.88949E-03         0.00000E+00
    0.90452E-02        -0.90258E-03         0.00000E+00
    0.63563E-02        -0.77112E-03         0.00000E+00
    0.33369E-02        -0.47691E-03         0.00000E+00
    0.00000E+00         0.00000E+00         0.00000E+00
    0.16932E-02         0.67442E-02         0.00000E+00
    0.26904E-02         0.70093E-02         0.00000E+00
    0.39333E-02         0.71644E-02         0.00000E+00
    0.53528E-02         0.72030E-02         0.00000E+00
    0.68819E-02         0.71240E-02         0.00000E+00
    0.84580E-02         0.69310E-02         0.00000E+00
    0.10023E-01         0.66316E-02         0.00000E+00
    0.11523E-01         0.62369E-02         0.00000E+00
    0.12911E-01         0.57602E-02         0.00000E+00
    0.14145E-01         0.52166E-02         0.00000E+00
    0.15189E-01         0.46224E-02         0.00000E+00
    0.16011E-01         0.39944E-02         0.00000E+00
    0.16587E-01         0.33494E-02         0.00000E+00
    0.16895E-01         0.27040E-02         0.00000E+00
    0.16917E-01         0.20744E-02         0.00000E+00
    0.16642E-01         0.14762E-02         0.00000E+00
    0.16057E-01         0.92466E-03         0.00000E+00
    0.15157E-01         0.43456E-03         0.00000E+00
    0.13937E-01         0.20570E-04         0.00000E+00
    0.12396E-01        -0.30257E-03         0.00000E+00
    0.10533E-01        -0.51977E-03         0.00000E+00
    0.83537E-02        -0.61530E-03         0.00000E+00
    0.58638E-02        -0.57254E-03         0.00000E+00
    0.30743E-02        -0.37377E-03         0.00000E+00
    0.00000E+00         0.00000E+00         0.00000E+00
    0.23707E-02         0.75006E-02         0.00000E+00
    0.31803E-02         0.77176E-02         0.00000E+00
    0.42230E-02         0.78364E-02         0.00000E+00
    0.54366E-02         0.78496E-02         0.00000E+00
    0.67608E-02         0.77547E-02         0.00000E+00
    0.81384E-02         0.75535E-02         0.00000E+00
    0.95159E-02         0.72518E-02         0.00000E+00
    0.10844E-01         0.68584E-02         0.00000E+00
    0.12079E-01         0.63846E-02         0.00000E+00
    0.13181E-01         0.58435E-02         0.00000E+00
    0.14115E-01         0.52496E-02         0.00000E+00
    0.14852E-01         0.46181E-02         0.00000E+00
    0.15367E-01         0.39646E-02         0.00000E+00
    0.15638E-01         0.33048E-02         0.00000E+00
    0.15648E-01         0.26543E-02         0.00000E+00
    0.15384E-01         0.20284E-02         0.00000E+00
    0.14836E-01         0.14422E-02         0.00000E+00
    0.13998E-01         0.91059E-03         0.00000E+00
    0.12864E-01         0.44845E-03         0.00000E+00
    0.11433E-01         0.70691E-04         0.00000E+00
    0.97073E-02        -0.20747E-03         0.00000E+00
    0.76912E-02        -0.37035E-03         0.00000E+00
    0.53927E-02        -0.40160E-03         0.00000E+00
    0.28236E-02        -0.28414E-03         0.00000E+00
    0.00000E+00         0.00000E+00         0.00000E+00
    0.29261E-02         0.80918E-02         0.00000E+00
    0.35741E-02         0.82637E-02         0.00000E+00
    0.44420E-02         0.83480E-02         0.00000E+00
    0.54738E-02         0.83367E-02         0.00000E+00
    0.66152E-02         0.82262E-02         0.00000E+00
    0.78142E-02         0.80170E-02         0.00000E+00
    0.90219E-02         0.77133E-02         0.00000E+00
    0.10193E-01         0.73219E-02         0.00000E+00
    0.11287E-01         0.68524E-02         0.00000E+00
    0.12266E-01         0.63162E-02         0.00000E+00
    0.13097E-01         0.57261E-02         0.00000E+00
    0.13752E-01         0.50961E-02         0.00000E+00
    0.14208E-01         0.44404E-02         0.00000E+00
    0.14442E-01         0.37740E-02         0.00000E+00
    0.14440E-01         0.31116E-02         0.00000E+00
    0.14186E-01         0.24681E-02         0.00000E+00
    0.13672E-01         0.18585E-02         0.00000E+00
    0.12891E-01         0.12974E-02         0.00000E+00
    0.11839E-01         0.79971E-03         0.00000E+00
    0.10514E-01         0.38030E-03         0.00000E+00
    0.89196E-02         0.54276E-04         0.00000E+00
    0.70601E-02        -0.16289E-03         0.00000E+00
    0.49445E-02        -0.25532E-03         0.00000E+00
    0.25855E-02        -0.20664E-03         0.00000E+00
    0.00000E+00         0.00000E+00         0.00000E+00
    0.33676E-02         0.85424E-02         0.00000E+00
    0.38773E-02         0.86721E-02         0.00000E+00
    0.45932E-02         0.87239E-02         0.00000E+00
    0.54652E-02         0.86893E-02         0.00000E+00
    0.64441E-02         0.85638E-02         0.00000E+00
    0.74830E-02         0.83469E-02         0.00000E+00
    0.85373E-02         0.80413E-02         0.00000E+00
    0.95654E-02         0.76525E-02         0.00000E+00
    0.10529E-01         0.71884E-02         0.00000E+00
    0.11394E-01         0.66590E-02         0.00000E+00
    0.12130E-01         0.60757E-02         0.00000E+00
    0.12709E-01         0.54510E-02         0.00000E+00
    0.13108E-01         0.47983E-02         0.00000E+00
    0.13308E-01         0.41313E-02         0.00000E+00
    0.13292E-01         0.34644E-02         0.00000E+00
    0.13048E-01         0.28118E-02         0.00000E+00
    0.12566E-01         0.21879E-02         0.00000E+00
    0.11840E-01         0.16074E-02         0.00000E+00
    0.10865E-01         0.10847E-02         0.00000E+00
    0.96414E-02         0.63453E-03         0.00000E+00
    0.81716E-02         0.27180E-03         0.00000E+00
    0.64614E-02         0.11554E-04         0.00000E+00
    0.45199E-02        -0.13089E-03         0.00000E+00
    0.23603E-02        -0.13999E-03         0.00000E+00
    0.00000E+00         0.00000E+00         0.00000E+00
    0.37034E-02         0.88744E-02         0.00000E+00
    0.40956E-02         0.89650E-02         0.00000E+00
    0.46801E-02         0.89862E-02         0.00000E+00
    0.54120E-02         0.89295E-02         0.00000E+00
    0.62472E-02         0.87898E-02         0.00000E+00
    0.71431E-02         0.85656E-02         0.00000E+00
    0.80593E-02         0.82584E-02         0.00000E+00
    0.89576E-02         0.78726E-02         0.00000E+00
    0.98031E-02         0.74148E-02         0.00000E+00
    0.10564E-01         0.68937E-02         0.00000E+00
    0.11210E-01         0.63193E-02         0.00000E+00
    0.11718E-01         0.57030E-02         0.00000E+00
    0.12065E-01         0.50571E-02         0.00000E+00
    0.12232E-01         0.43946E-02         0.00000E+00
    0.12204E-01         0.37290E-02         0.00000E+00
    0.11969E-01         0.30740E-02         0.00000E+00
    0.11517E-01         0.24435E-02         0.00000E+00
    0.10843E-01         0.18516E-02         0.00000E+00
    0.99418E-02         0.13127E-02         0.00000E+00
    0.88146E-02         0.84093E-03         0.00000E+00
    0.74638E-02         0.45089E-03         0.00000E+00
    0.58955E-02         0.15712E-03         0.00000E+00
    0.41193E-02        -0.25738E-04         0.00000E+00
    0.21483E-02        -0.82986E-04         0.00000E+00
    0.00000E+00         0.00000E+00         0.00000E+00
    0.39414E-02         0.91073E-02         0.00000E+00
    0.42347E-02         0.91616E-02         0.00000E+00
    0.47062E-02         0.91544E-02         0.00000E+00
    0.53160E-02         0.90770E-02         0.00000E+00
    0.60246E-02         0.89238E-02         0.00000E+00
    0.67934E-02         0.86927E-02         0.00000E+00
    0.75858E-02         0.83843E-02         0.00000E+00
    0.83671E-02         0.80020E-02         0.00000E+00
    0.91050E-02         0.75511E-02         0.00000E+00
    0.97701E-02         0.70392E-02         0.00000E+00
    0.10336E-01         0.64753E-02         0.00000E+00
    0.10778E-01         0.58697E-02         0.00000E+00
    0.11076E-01         0.52338E-02         0.00000E+00
    0.11214E-01         0.45796E-02         0.00000E+00
    0.11175E-01         0.39199E-02         0.00000E+00
    0.10948E-01         0.32678E-02         0.00000E+00
    0.10525E-01         0.26367E-02         0.00000E+00
    0.98998E-02         0.20402E-02         0.00000E+00
    0.90694E-02         0.14921E-02         0.00000E+00
    0.80338E-02         0.10063E-02         0.00000E+00
    0.67961E-02         0.59683E-03         0.00000E+00
    0.53624E-02         0.27758E-03         0.00000E+00
    0.37424E-02         0.62538E-04         0.00000E+00
    0.19492E-02        -0.34501E-04         0.00000E+00
    0.00000E+00         0.00000E+00         0.00000E+00
    0.40896E-02         0.92584E-02         0.00000E+00
    0.43003E-02         0.92792E-02         0.00000E+00
    0.46754E-02         0.92458E-02         0.00000E+00
    0.51794E-02         0.91490E-02         0.00000E+00
    0.57769E-02         0.89833E-02         0.00000E+00
    0.64332E-02         0.87458E-02         0.00000E+00
    0.71151E-02         0.84365E-02         0.00000E+00
    0.77913E-02         0.80578E-02         0.00000E+00
    0.84321E-02         0.76142E-02         0.00000E+00
    0.90106E-02         0.71123E-02         0.00000E+00
    0.95021E-02         0.65600E-02         0.00000E+00
    0.98847E-02         0.59668E-02         0.00000E+00
    0.10139E-01         0.53430E-02         0.00000E+00
    0.10249E-01         0.47001E-02         0.00000E+00
    0.10200E-01         0.40498E-02         0.00000E+00
    0.99827E-02         0.34048E-02         0.00000E+00
    0.95876E-02         0.27778E-02         0.00000E+00
    0.90097E-02         0.21820E-02         0.00000E+00
    0.82464E-02         0.16305E-02         0.00000E+00
    0.72980E-02         0.11368E-02         0.00000E+00
    0.61675E-02         0.71434E-03         0.00000E+00
    0.48612E-02         0.37637E-03         0.00000E+00
    0.33887E-02         0.13611E-03         0.00000E+00
    0.17627E-02         0.64940E-05         0.00000E+00
    0.00000E+00         0.00000E+00         0.00000E+00
    0.41554E-02         0.93428E-02         0.00000E+00
    0.42981E-02         0.93330E-02         0.00000E+00
    0.45917E-02         0.92753E-02         0.00000E+00
    0.50045E-02         0.91607E-02         0.00000E+00
    0.55050E-02         0.89833E-02         0.00000E+00
    0.60621E-02         0.87400E-02         0.00000E+00
    0.66460E-02         0.84301E-02         0.00000E+00
    0.72282E-02         0.80552E-02         0.00000E+00
    0.77818E-02         0.76192E-02         0.00000E+00
    0.82822E-02         0.71277E-02         0.00000E+00
    0.87067E-02         0.65878E-02         0.00000E+00
    0.90352E-02         0.60080E-02         0.00000E+00
    0.92498E-02         0.53980E-02         0.00000E+00
    0.93353E-02         0.47682E-02         0.00000E+00
    0.92790E-02         0.41301E-02         0.00000E+00
    0.90706E-02         0.34953E-02         0.00000E+00
    0.87028E-02         0.28760E-02         0.00000E+00
    0.81704E-02         0.22849E-02         0.00000E+00
    0.74712E-02         0.17346E-02         0.00000E+00
    0.66056E-02         0.12380E-02         0.00000E+00
    0.55768E-02         0.80771E-03         0.00000E+00
    0.43910E-02         0.45657E-03         0.00000E+00
    0.30574E-02         0.19696E-03         0.00000E+00
    0.15884E-02         0.40945E-04         0.00000E+00
    0.00000E+00         0.00000E+00         0.00000E+00
    0.41462E-02         0.93739E-02         0.00000E+00
    0.42338E-02         0.93364E-02         0.00000E+00
    0.44590E-02         0.92564E-02         0.00000E+00
    0.47938E-02         0.91254E-02         0.00000E+00
    0.52101E-02         0.89373E-02         0.00000E+00
    0.56803E-02         0.86887E-02         0.00000E+00
    0.61775E-02         0.83784E-02         0.00000E+00
    0.66760E-02         0.80075E-02         0.00000E+00
    0.71517E-02         0.75792E-02         0.00000E+00
    0.75820E-02         0.70982E-02         0.00000E+00
    0.79463E-02         0.65709E-02         0.00000E+00
    0.82262E-02         0.60052E-02         0.00000E+00
    0.84053E-02         0.54099E-02         0.00000E+00
    0.84695E-02         0.47948E-02         0.00000E+00
    0.84072E-02         0.41705E-02         0.00000E+00
    0.82089E-02         0.35481E-02         0.00000E+00
    0.78678E-02         0.29393E-02         0.00000E+00
    0.73792E-02         0.23560E-02         0.00000E+00
    0.67413E-02         0.18104E-02         0.00000E+00
    0.59546E-02         0.13145E-02         0.00000E+00
    0.50222E-02         0.88074E-03         0.00000E+00
    0.39502E-02         0.52096E-03         0.00000E+00
    0.27474E-02         0.24688E-03         0.00000E+00
    0.14256E-02         0.69708E-04         0.00000E+00
    0.00000E+00         0.00000E+00         0.00000E+00
    0.40690E-02         0.93637E-02         0.00000E+00
    0.41128E-02         0.93008E-02         0.00000E+00
    0.42813E-02         0.92007E-02         0.00000E+00
    0.45498E-02         0.90547E-02         0.00000E+00
    0.48935E-02         0.88569E-02         0.00000E+00
    0.52878E-02         0.86035E-02         0.00000E+00
    0.57087E-02         0.82930E-02         0.00000E+00
    0.61332E-02         0.79262E-02         0.00000E+00
    0.65395E-02         0.75054E-02         0.00000E+00
    0.69073E-02         0.70349E-02         0.00000E+00
    0.72179E-02         0.65204E-02         0.00000E+00
    0.74545E-02         0.59690E-02         0.00000E+00
    0.76022E-02         0.53889E-02         0.00000E+00
    0.76482E-02         0.47892E-02         0.00000E+00
    0.75818E-02         0.41798E-02         0.00000E+00
    0.73944E-02         0.35713E-02         0.00000E+00
    0.70797E-02         0.29748E-02         0.00000E+00
    0.66336E-02         0.24015E-02         0.00000E+00
    0.60543E-02         0.18630E-02         0.00000E+00
    0.53427E-02         0.13709E-02         0.00000E+00
    0.45017E-02         0.93681E-03         0.00000E+00
    0.35372E-02         0.57200E-03         0.00000E+00
    0.24574E-02         0.28745E-03         0.00000E+00
    0.12737E-02         0.93558E-04         0.00000E+00
    0.00000E+00         0.00000E+00         0.00000E+00
    0.39305E-02         0.93222E-02         0.00000E+00
    0.39405E-02         0.92367E-02         0.00000E+00
    0.40627E-02         0.91183E-02         0.00000E+00
    0.42754E-02         0.89588E-02         0.00000E+00
    0.45568E-02         0.87521E-02         0.00000E+00
    0.48852E-02         0.84945E-02         0.00000E+00
    0.52393E-02         0.81841E-02         0.00000E+00
    0.55985E-02         0.78212E-02         0.00000E+00
    0.59434E-02         0.74078E-02         0.00000E+00
    0.62557E-02         0.69475E-02         0.00000E+00
    0.65186E-02         0.64455E-02         0.00000E+00
    0.67170E-02         0.59083E-02         0.00000E+00
    0.68373E-02         0.53434E-02         0.00000E+00
    0.68681E-02         0.47593E-02         0.00000E+00
    0.67995E-02         0.41654E-02         0.00000E+00
    0.66237E-02         0.35716E-02         0.00000E+00
    0.63352E-02         0.29884E-02         0.00000E+00
    0.59302E-02         0.24266E-02         0.00000E+00
    0.54074E-02         0.18970E-02         0.00000E+00
    0.47673E-02         0.14108E-02         0.00000E+00
    0.40131E-02         0.97889E-03         0.00000E+00
    0.31501E-02         0.61190E-03         0.00000E+00
    0.21863E-02         0.32011E-03         0.00000E+00
    0.11319E-02         0.11319E-03         0.00000E+00
    0.00000E+00         0.00000E+00         0.00000E+00
    0.37371E-02         0.92586E-02         0.00000E+00
    0.37219E-02         0.91527E-02         0.00000E+00
    0.38069E-02         0.90180E-02         0.00000E+00
    0.39731E-02         0.88463E-02         0.00000E+00
    0.42016E-02         0.86317E-02         0.00000E+00
    0.44731E-02         0.83703E-02         0.00000E+00
    0.47689E-02         0.80602E-02         0.00000E+00
    0.50707E-02         0.77011E-02         0.00000E+00
    0.53614E-02         0.72948E-02         0.00000E+00
    0.56247E-02         0.68443E-02         0.00000E+00
    0.58455E-02         0.63544E-02         0.00000E+00
    0.60104E-02         0.58310E-02         0.00000E+00
    0.61072E-02         0.52809E-02         0.00000E+00
    0.61255E-02         0.47123E-02         0.00000E+00
    0.60565E-02         0.41339E-02         0.00000E+00
    0.58934E-02         0.35551E-02         0.00000E+00
    0.56310E-02         0.29857E-02         0.00000E+00
    0.52660E-02         0.24361E-02         0.00000E+00
    0.47974E-02         0.19166E-02         0.00000E+00
    0.42257E-02         0.14376E-02         0.00000E+00
    0.35539E-02         0.10096E-02         0.00000E+00
    0.27870E-02         0.64257E-03         0.00000E+00
    0.19323E-02         0.34612E-03         0.00000E+00
    0.99934E-03         0.12922E-03         0.00000E+00
    0.00000E+00         0.00000E+00         0.00000E+00
    0.34950E-02         0.91805E-02         0.00000E+00
    0.34621E-02         0.90567E-02         0.00000E+00
    0.35178E-02         0.89074E-02         0.00000E+00
    0.36458E-02         0.87249E-02         0.00000E+00
    0.38294E-02         0.85033E-02         0.00000E+00
    0.40520E-02         0.82386E-02         0.00000E+00
    0.42971E-02         0.79288E-02         0.00000E+00
    0.45489E-02         0.75734E-02         0.00000E+00
    0.47920E-02         0.71737E-02         0.00000E+00
    0.50121E-02         0.67325E-02         0.00000E+00
    0.51961E-02         0.62540E-02         0.00000E+00
    0.53317E-02         0.57437E-02         0.00000E+00
    0.54085E-02         0.52079E-02         0.00000E+00
    0.54169E-02         0.46542E-02         0.00000E+00
    0.53494E-02         0.40908E-02         0.00000E+00
    0.51998E-02         0.35267E-02         0.00000E+00
    0.49634E-02         0.29712E-02         0.00000E+00
    0.46375E-02         0.24340E-02         0.00000E+00
    0.42211E-02         0.19250E-02         0.00000E+00
    0.37149E-02         0.14542E-02         0.00000E+00
    0.31216E-02         0.10312E-02         0.00000E+00
    0.24458E-02         0.66572E-03         0.00000E+00
    0.16942E-02         0.36660E-03         0.00000E+00
    0.87531E-03         0.14220E-03         0.00000E+00
    0.00000E+00         0.00000E+00         0.00000E+00
    0.32099E-02         0.90947E-02         0.00000E+00
    0.31658E-02         0.89550E-02         0.00000E+00
    0.31992E-02         0.87929E-02         0.00000E+00
    0.32960E-02         0.86009E-02         0.00000E+00
    0.34420E-02         0.83731E-02         0.00000E+00
    0.36227E-02         0.81056E-02         0.00000E+00
    0.38240E-02         0.77962E-02         0.00000E+00
    0.40320E-02         0.74443E-02         0.00000E+00
    0.42335E-02         0.70508E-02         0.00000E+00
    0.44158E-02         0.66182E-02         0.00000E+00
    0.45675E-02         0.61503E-02         0.00000E+00
    0.46779E-02         0.56521E-02         0.00000E+00
    0.47378E-02         0.51297E-02         0.00000E+00
    0.47390E-02         0.45901E-02         0.00000E+00
    0.46745E-02         0.40410E-02         0.00000E+00
    0.45392E-02         0.34909E-02         0.00000E+00
    0.43289E-02         0.29488E-02         0.00000E+00
    0.40412E-02         0.24238E-02         0.00000E+00
    0.36753E-02         0.19254E-02         0.00000E+00
    0.32320E-02         0.14630E-02         0.00000E+00
    0.27136E-02         0.10458E-02         0.00000E+00
    0.21244E-02         0.68282E-03         0.00000E+00
    0.14702E-02         0.38251E-03         0.00000E+00
    0.75891E-03         0.15261E-03         0.00000E+00
    0.00000E+00         0.00000E+00         0.00000E+00
    0.28874E-02         0.90068E-02         0.00000E+00
    0.28376E-02         0.88534E-02         0.00000E+00
    0.28546E-02         0.86802E-02         0.00000E+00
    0.29265E-02         0.84799E-02         0.00000E+00
    0.30411E-02         0.82468E-02         0.00000E+00
    0.31862E-02         0.79769E-02         0.00000E+00
    0.33496E-02         0.76679E-02         0.00000E+00
    0.35195E-02         0.73192E-02         0.00000E+00
    0.36844E-02         0.69313E-02         0.00000E+00
    0.38337E-02         0.65065E-02         0.00000E+00
    0.39573E-02         0.60482E-02         0.00000E+00
    0.40461E-02         0.55612E-02         0.00000E+00
    0.40920E-02         0.50510E-02         0.00000E+00
    0.40880E-02         0.45243E-02         0.00000E+00
    0.40282E-02         0.39884E-02         0.00000E+00
    0.39079E-02         0.34515E-02         0.00000E+00
    0.37237E-02         0.29219E-02         0.00000E+00
    0.34735E-02         0.24085E-02         0.00000E+00
    0.31567E-02         0.19203E-02         0.00000E+00
    0.27738E-02         0.14661E-02         0.00000E+00
    0.23272E-02         0.10549E-02         0.00000E+00
    0.18205E-02         0.69514E-03         0.00000E+00
    0.12589E-02         0.39470E-03         0.00000E+00
    0.64929E-03         0.16087E-03         0.00000E+00
    0.00000E+00         0.00000E+00         0.00000E+00
    0.25327E-02         0.89216E-02         0.00000E+00
    0.24820E-02         0.87566E-02         0.00000E+00
    0.24876E-02         0.85739E-02         0.00000E+00
    0.25398E-02         0.83665E-02         0.00000E+00
    0.26284E-02         0.81288E-02         0.00000E+00
    0.27431E-02         0.78569E-02         0.00000E+00
    0.28738E-02         0.75484E-02         0.00000E+00
    0.30105E-02         0.72025E-02         0.00000E+00
    0.31435E-02         0.68196E-02         0.00000E+00
    0.32638E-02         0.64017E-02         0.00000E+00
    0.33630E-02         0.59520E-02         0.00000E+00
    0.34332E-02         0.54749E-02         0.00000E+00
    0.34678E-02         0.49756E-02         0.00000E+00
    0.34606E-02         0.44605E-02         0.00000E+00
    0.34068E-02         0.39366E-02         0.00000E+00
    0.33023E-02         0.34115E-02         0.00000E+00
    0.31442E-02         0.28934E-02         0.00000E+00
    0.29309E-02         0.23906E-02         0.00000E+00
    0.26617E-02         0.19118E-02         0.00000E+00
    0.23374E-02         0.14655E-02         0.00000E+00
    0.19597E-02         0.10601E-02         0.00000E+00
    0.15320E-02         0.70375E-03         0.00000E+00
    0.10587E-02         0.40388E-03         0.00000E+00
    0.54559E-03         0.16733E-03         0.00000E+00
    0.00000E+00         0.00000E+00         0.00000E+00
    0.21510E-02         0.88431E-02         0.00000E+00
    0.21031E-02         0.86684E-02         0.00000E+00
    0.21016E-02         0.84778E-02         0.00000E+00
    0.21385E-02         0.82645E-02         0.00000E+00
    0.22056E-02         0.80230E-02         0.00000E+00
    0.22945E-02         0.77495E-02         0.00000E+00
    0.23969E-02         0.74414E-02         0.00000E+00
    0.25045E-02         0.70979E-02         0.00000E+00
    0.26094E-02         0.67194E-02         0.00000E+00
    0.27043E-02         0.63075E-02         0.00000E+00
    0.27821E-02         0.58652E-02         0.00000E+00
    0.28366E-02         0.53966E-02         0.00000E+00
    0.28620E-02         0.49068E-02         0.00000E+00
    0.28533E-02         0.44018E-02         0.00000E+00
    0.28066E-02         0.38883E-02         0.00000E+00
    0.27185E-02         0.33736E-02         0.00000E+00
    0.25867E-02         0.28655E-02         0.00000E+00
    0.24097E-02         0.23721E-02         0.00000E+00
    0.21871E-02         0.19017E-02         0.00000E+00
    0.19195E-02         0.14625E-02         0.00000E+00
    0.16084E-02         0.10626E-02         0.00000E+00
    0.12566E-02         0.70958E-03         0.00000E+00
    0.86783E-03         0.41067E-03         0.00000E+00
    0.44696E-03         0.17230E-03         0.00000E+00
    0.00000E+00         0.00000E+00         0.00000E+00
    0.17470E-02         0.87747E-02         0.00000E+00
    0.17050E-02         0.85921E-02         0.00000E+00
    0.16998E-02         0.83951E-02         0.00000E+00
    0.17252E-02         0.81770E-02         0.00000E+00
    0.17745E-02         0.79324E-02         0.00000E+00
    0.18412E-02         0.76576E-02         0.00000E+00
    0.19188E-02         0.73500E-02         0.00000E+00
    0.20008E-02         0.70085E-02         0.00000E+00
    0.20810E-02         0.66335E-02         0.00000E+00
    0.21533E-02         0.62266E-02         0.00000E+00
    0.22125E-02         0.57905E-02         0.00000E+00
    0.22533E-02         0.53290E-02         0.00000E+00
    0.22714E-02         0.48471E-02         0.00000E+00
    0.22627E-02         0.43506E-02         0.00000E+00
    0.22242E-02         0.38457E-02         0.00000E+00
    0.21530E-02         0.33398E-02         0.00000E+00
    0.20475E-02         0.28402E-02         0.00000E+00
    0.19064E-02         0.23548E-02         0.00000E+00
    0.17294E-02         0.18916E-02         0.00000E+00
    0.15171E-02         0.14585E-02         0.00000E+00
    0.12706E-02         0.10633E-02         0.00000E+00
    0.99219E-03         0.71336E-03         0.00000E+00
    0.68487E-03         0.41557E-03         0.00000E+00
    0.35254E-03         0.17604E-03         0.00000E+00
    0.00000E+00         0.00000E+00         0.00000E+00
    0.13254E-02         0.87188E-02         0.00000E+00
    0.12919E-02         0.85302E-02         0.00000E+00
    0.12857E-02         0.83283E-02         0.00000E+00
    0.13022E-02         0.81065E-02         0.00000E+00
    0.13367E-02         0.78596E-02         0.00000E+00
    0.13842E-02         0.75837E-02         0.00000E+00
    0.14399E-02         0.72764E-02         0.00000E+00
    0.14990E-02         0.69366E-02         0.00000E+00
    0.15569E-02         0.65645E-02         0.00000E+00
    0.16091E-02         0.61614E-02         0.00000E+00
    0.16517E-02         0.57301E-02         0.00000E+00
    0.16807E-02         0.52743E-02         0.00000E+00
    0.16930E-02         0.47987E-02         0.00000E+00
    0.16855E-02         0.43088E-02         0.00000E+00
    0.16558E-02         0.38109E-02         0.00000E+00
    0.16021E-02         0.33118E-02         0.00000E+00
    0.15228E-02         0.28190E-02         0.00000E+00
    0.14173E-02         0.23400E-02         0.00000E+00
    0.12853E-02         0.18825E-02         0.00000E+00
    0.11270E-02         0.14544E-02         0.00000E+00
    0.94354E-03         0.10630E-02         0.00000E+00
    0.73651E-03         0.71570E-03         0.00000E+00
    0.50817E-03         0.41897E-03         0.00000E+00
    0.26147E-03         0.17874E-03         0.00000E+00
    0.00000E+00         0.00000E+00         0.00000E+00
    0.89082E-03         0.86776E-02         0.00000E+00
    0.86748E-03         0.84847E-02         0.00000E+00
    0.86225E-03         0.82793E-02         0.00000E+00
    0.87210E-03         0.80548E-02         0.00000E+00
    0.89388E-03         0.78063E-02         0.00000E+00
    0.92437E-03         0.75297E-02         0.00000E+00
    0.96033E-03         0.72227E-02         0.00000E+00
    0.99861E-03         0.68840E-02         0.00000E+00
    0.10361E-02         0.65139E-02         0.00000E+00
    0.10700E-02         0.61137E-02         0.00000E+00
    0.10975E-02         0.56859E-02         0.00000E+00
    0.11161E-02         0.52341E-02         0.00000E+00
    0.11236E-02         0.47630E-02         0.00000E+00
    0.11181E-02         0.42779E-02         0.00000E+00
    0.10980E-02         0.37850E-02         0.00000E+00
    0.10620E-02         0.32910E-02         0.00000E+00
    0.10092E-02         0.28031E-02         0.00000E+00
    0.93895E-03         0.23287E-02         0.00000E+00
    0.85122E-03         0.18754E-02         0.00000E+00
    0.74619E-03         0.14509E-02         0.00000E+00
    0.62455E-03         0.10624E-02         0.00000E+00
    0.48737E-03         0.71705E-03         0.00000E+00
    0.33618E-03         0.42118E-03         0.00000E+00
    0.17292E-03         0.18056E-03         0.00000E+00
    0.00000E+00         0.00000E+00         0.00000E+00
    0.44756E-03         0.86523E-02         0.00000E+00
    0.43560E-03         0.84568E-02         0.00000E+00
    0.43266E-03         0.82493E-02         0.00000E+00
    0.43724E-03         0.80233E-02         0.00000E+00
    0.44777E-03         0.77737E-02         0.00000E+00
    0.46265E-03         0.74968E-02         0.00000E+00
    0.48028E-03         0.71899E-02         0.00000E+00
    0.49908E-03         0.68520E-02         0.00000E+00
    0.51752E-03         0.64831E-02         0.00000E+00
    0.53416E-03         0.60846E-02         0.00000E+00
    0.54764E-03         0.56589E-02         0.00000E+00
    0.55672E-03         0.52096E-02         0.00000E+00
    0.56030E-03         0.47412E-02         0.00000E+00
    0.55741E-03         0.42590E-02         0.00000E+00
    0.54725E-03         0.37691E-02         0.00000E+00
    0.52919E-03         0.32781E-02         0.00000E+00
    0.50276E-03         0.27932E-02         0.00000E+00
    0.46770E-03         0.23216E-02         0.00000E+00
    0.42392E-03         0.18709E-02         0.00000E+00
    0.37156E-03         0.14486E-02         0.00000E+00
    0.31093E-03         0.10619E-02         0.00000E+00
    0.24260E-03         0.71773E-03         0.00000E+00
    0.16731E-03         0.42242E-03         0.00000E+00
    0.86043E-04         0.18161E-03         0.00000E+00
    0.00000E+00         0.00000E+00         0.00000E+00
    0.00000E+00         0.86438E-02         0.00000E+00
    0.00000E+00         0.84475E-02         0.00000E+00
    0.00000E+00         0.82392E-02         0.00000E+00
    0.00000E+00         0.80127E-02         0.00000E+00
    0.00000E+00         0.77628E-02         0.00000E+00
    0.00000E+00         0.74857E-02         0.00000E+00
    0.00000E+00         0.71789E-02         0.00000E+00
    0.00000E+00         0.68412E-02         0.00000E+00
    0.00000E+00         0.64727E-02         0.00000E+00
    0.00000E+00         0.60748E-02         0.00000E+00
    0.00000E+00         0.56498E-02         0.00000E+00
    0.00000E+00         0.52013E-02         0.00000E+00
    0.00000E+00         0.47338E-02         0.00000E+00
    0.00000E+00         0.42526E-02         0.00000E+00
    0.00000E+00         0.37637E-02         0.00000E+00
    0.00000E+00         0.32738E-02         0.00000E+00
    0.00000E+00         0.27898E-02         0.00000E+00
    0.00000E+00         0.23192E-02         0.00000E+00
    0.00000E+00         0.18694E-02         0.00000E+00
    0.00000E+00         0.14478E-02         0.00000E+00
    0.00000E+00         0.10617E-02         0.00000E+00
    0.00000E+00         0.71794E-03         0.00000E+00
    0.00000E+00         0.42282E-03         0.00000E+00
    0.00000E+00         0.18195E-03         0.00000E+00
    0.00000E+00         0.00000E+00         0.00000E+00
CELL_DATA       1152
VECTORS vDarcy double 
    0.10272E-03         0.10068E-03         0.00000E+00
    0.78697E-04         0.27039E-03         0.00000E+00
    0.49003E-04         0.38216E-03         0.00000E+00
    0.27527E-04         0.43640E-03         0.00000E+00
    0.17258E-04         0.46064E-03         0.00000E+00
    0.11734E-04         0.46834E-03         0.00000E+00
    0.86404E-05         0.46606E-03         0.00000E+00
    0.68237E-05         0.45720E-03         0.00000E+00
    0.57213E-05         0.44365E-03         0.00000E+00
    0.50372E-05         0.42653E-03         0.00000E+00
    0.46077E-05         0.40655E-03         0.00000E+00
    0.43380E-05         0.38418E-03         0.00000E+00
    0.41709E-05         0.35979E-03         0.00000E+00
    0.40704E-05         0.33363E-03         0.00000E+00
    0.40135E-05         0.30595E-03         0.00000E+00
    0.39849E-05         0.27693E-03         0.00000E+00
    0.39742E-05         0.24676E-03         0.00000E+00
    0.39743E-05         0.21560E-03         0.00000E+00
    0.39803E-05         0.18362E-03         0.00000E+00
    0.39888E-05         0.15097E-03         0.00000E+00
    0.39974E-05         0.11780E-03         0.00000E+00
    0.40047E-05         0.84290E-04         0.00000E+00
    0.40098E-05         0.50575E-04         0.00000E+00
    0.40123E-05         0.16816E-04         0.00000E+00
    0.34091E-03         0.12853E-03         0.00000E+00
    0.24042E-03         0.36705E-03         0.00000E+00
    0.12525E-03         0.43036E-03         0.00000E+00
    0.74329E-04         0.46060E-03         0.00000E+00
    0.47562E-04         0.47348E-03         0.00000E+00
    0.33050E-04         0.47553E-03         0.00000E+00
    0.24735E-04         0.47027E-03         0.00000E+00
    0.19780E-04         0.45976E-03         0.00000E+00
    0.16739E-04         0.44524E-03         0.00000E+00
    0.14837E-04         0.42753E-03         0.00000E+00
    0.13638E-04         0.40718E-03         0.00000E+00
    0.12883E-04         0.38457E-03         0.00000E+00
    0.12417E-04         0.36003E-03         0.00000E+00
    0.12138E-04         0.33377E-03         0.00000E+00
    0.11982E-04         0.30602E-03         0.00000E+00
    0.11907E-04         0.27696E-03         0.00000E+00
    0.11882E-04         0.24676E-03         0.00000E+00
    0.11887E-04         0.21559E-03         0.00000E+00
    0.11909E-04         0.18360E-03         0.00000E+00
    0.11937E-04         0.15095E-03         0.00000E+00
    0.11964E-04         0.11779E-03         0.00000E+00
    0.11988E-04         0.84277E-04         0.00000E+00
    0.12004E-04         0.50567E-04         0.00000E+00
    0.12011E-04         0.16814E-04         0.00000E+00
    0.79205E-03         0.59822E-03         0.00000E+00
    0.27018E-03         0.51971E-03         0.00000E+00
    0.15963E-03         0.50342E-03         0.00000E+00
    0.99488E-04         0.49860E-03         0.00000E+00
    0.67307E-04         0.49443E-03         0.00000E+00
    0.48750E-04         0.48765E-03         0.00000E+00
    0.37672E-04         0.47755E-03         0.00000E+00
    0.30859E-04         0.46425E-03         0.00000E+00
    0.26584E-04         0.44806E-03         0.00000E+00
    0.23870E-04         0.42932E-03         0.00000E+00
    0.22144E-04         0.40831E-03         0.00000E+00
    0.21056E-04         0.38528E-03         0.00000E+00
    0.20386E-04         0.36045E-03         0.00000E+00
    0.19993E-04         0.33402E-03         0.00000E+00
    0.19781E-04         0.30615E-03         0.00000E+00
    0.19688E-04         0.27701E-03         0.00000E+00
    0.19670E-04         0.24676E-03         0.00000E+00
    0.19695E-04         0.21556E-03         0.00000E+00
    0.19742E-04         0.18356E-03         0.00000E+00
    0.19797E-04         0.15090E-03         0.00000E+00
    0.19849E-04         0.11775E-03         0.00000E+00
    0.19892E-04         0.84248E-04         0.00000E+00
    0.19921E-04         0.50550E-04         0.00000E+00
    0.19935E-04         0.16808E-04         0.00000E+00
    0.13470E-03         0.91446E-03         0.00000E+00
    0.21891E-03         0.64113E-03         0.00000E+00
    0.14335E-03         0.56812E-03         0.00000E+00
    0.10168E-03         0.53570E-03         0.00000E+00
    0.74621E-04         0.51657E-03         0.00000E+00
    0.57466E-04         0.50122E-03         0.00000E+00
    0.46474E-04         0.48605E-03         0.00000E+00
    0.39379E-04         0.46965E-03         0.00000E+00
    0.34776E-04         0.45153E-03         0.00000E+00
    0.31792E-04         0.43155E-03         0.00000E+00
    0.29873E-04         0.40973E-03         0.00000E+00
    0.28665E-04         0.38616E-03         0.00000E+00
    0.27931E-04         0.36098E-03         0.00000E+00
    0.27516E-04         0.33430E-03         0.00000E+00
    0.27313E-04         0.30627E-03         0.00000E+00
    0.27246E-04         0.27704E-03         0.00000E+00
    0.27265E-04         0.24673E-03         0.00000E+00
    0.27332E-04         0.21550E-03         0.00000E+00
    0.27421E-04         0.18348E-03         0.00000E+00
    0.27514E-04         0.15083E-03         0.00000E+00
    0.27599E-04         0.11769E-03         0.00000E+00
    0.27666E-04         0.84202E-04         0.00000E+00
    0.27711E-04         0.50522E-04         0.00000E+00
    0.27734E-04         0.16800E-04         0.00000E+00
    0.41545E-04         0.73822E-03         0.00000E+00
    0.99155E-04         0.67555E-03         0.00000E+00
    0.10621E-03         0.60221E-03         0.00000E+00
    0.88286E-04         0.56120E-03         0.00000E+00
    0.72263E-04         0.53415E-03         0.00000E+00
    0.60013E-04         0.51305E-03         0.00000E+00
    0.51289E-04         0.49394E-03         0.00000E+00
    0.45258E-04         0.47489E-03         0.00000E+00
    0.41170E-04         0.45499E-03         0.00000E+00
    0.38452E-04         0.43380E-03         0.00000E+00
    0.36690E-04         0.41116E-03         0.00000E+00
    0.35591E-04         0.38704E-03         0.00000E+00
    0.34949E-04         0.36148E-03         0.00000E+00
    0.34620E-04         0.33455E-03         0.00000E+00
    0.34498E-04         0.30635E-03         0.00000E+00
    0.34511E-04         0.27701E-03         0.00000E+00
    0.34605E-04         0.24664E-03         0.00000E+00
    0.34741E-04         0.21538E-03         0.00000E+00
    0.34892E-04         0.18336E-03         0.00000E+00
    0.35037E-04         0.15072E-03         0.00000E+00
    0.35164E-04         0.11759E-03         0.00000E+00
    0.35263E-04         0.84131E-04         0.00000E+00
    0.35329E-04         0.50481E-04         0.00000E+00
    0.35362E-04         0.16787E-04         0.00000E+00
    0.21096E-04         0.67557E-03         0.00000E+00
    0.54737E-04         0.64695E-03         0.00000E+00
    0.70288E-04         0.60821E-03         0.00000E+00
    0.70827E-04         0.57259E-03         0.00000E+00
    0.64971E-04         0.54465E-03         0.00000E+00
    0.58521E-04         0.52125E-03         0.00000E+00
    0.53056E-04         0.49993E-03         0.00000E+00
    0.48895E-04         0.47910E-03         0.00000E+00
    0.45914E-04         0.45785E-03         0.00000E+00
    0.43883E-04         0.43568E-03         0.00000E+00
    0.42572E-04         0.41235E-03         0.00000E+00
    0.41791E-04         0.38773E-03         0.00000E+00
    0.41388E-04         0.36183E-03         0.00000E+00
    0.41248E-04         0.33467E-03         0.00000E+00
    0.41284E-04         0.30632E-03         0.00000E+00
    0.41431E-04         0.27689E-03         0.00000E+00
    0.41639E-04         0.24647E-03         0.00000E+00
    0.41874E-04         0.21519E-03         0.00000E+00
    0.42107E-04         0.18317E-03         0.00000E+00
    0.42320E-04         0.15055E-03         0.00000E+00
    0.42500E-04         0.11745E-03         0.00000E+00
    0.42639E-04         0.84032E-04         0.00000E+00
    0.42731E-04         0.50422E-04         0.00000E+00
    0.42776E-04         0.16769E-04         0.00000E+00
    0.12915E-04         0.64156E-03         0.00000E+00
    0.35372E-04         0.62486E-03         0.00000E+00
    0.49843E-04         0.60028E-03         0.00000E+00
    0.56106E-04         0.57372E-03         0.00000E+00
    0.56900E-04         0.54858E-03         0.00000E+00
    0.55237E-04         0.52544E-03         0.00000E+00
    0.52983E-04         0.50346E-03         0.00000E+00
    0.50927E-04         0.48178E-03         0.00000E+00
    0.49337E-04         0.45974E-03         0.00000E+00
    0.48245E-04         0.43692E-03         0.00000E+00
    0.47590E-04         0.41308E-03         0.00000E+00
    0.47284E-04         0.38809E-03         0.00000E+00
    0.47238E-04         0.36192E-03         0.00000E+00
    0.47378E-04         0.33458E-03         0.00000E+00
    0.47638E-04         0.30611E-03         0.00000E+00
    0.47968E-04         0.27661E-03         0.00000E+00
    0.48329E-04         0.24617E-03         0.00000E+00
    0.48689E-04         0.21489E-03         0.00000E+00
    0.49026E-04         0.18290E-03         0.00000E+00
    0.49323E-04         0.15031E-03         0.00000E+00
    0.49568E-04         0.11727E-03         0.00000E+00
    0.49753E-04         0.83896E-04         0.00000E+00
    0.49876E-04         0.50342E-04         0.00000E+00
    0.49935E-04         0.16744E-04         0.00000E+00
    0.90945E-05         0.61955E-03         0.00000E+00
    0.25670E-04         0.60784E-03         0.00000E+00
    0.38232E-04         0.59027E-03         0.00000E+00
    0.46127E-04         0.56957E-03         0.00000E+00
    0.50170E-04         0.54789E-03         0.00000E+00
    0.51758E-04         0.52620E-03         0.00000E+00
    0.52109E-04         0.50460E-03         0.00000E+00
    0.51997E-04         0.48281E-03         0.00000E+00
    0.51823E-04         0.46047E-03         0.00000E+00
    0.51761E-04         0.43733E-03         0.00000E+00
    0.51866E-04         0.41321E-03         0.00000E+00
    0.52131E-04         0.38800E-03         0.00000E+00
    0.52525E-04         0.36166E-03         0.00000E+00
    0.53010E-04         0.33421E-03         0.00000E+00
    0.53547E-04         0.30568E-03         0.00000E+00
    0.54102E-04         0.27616E-03         0.00000E+00
    0.54647E-04         0.24572E-03         0.00000E+00
    0.55158E-04         0.21447E-03         0.00000E+00
    0.55617E-04         0.18252E-03         0.00000E+00
    0.56011E-04         0.14999E-03         0.00000E+00
    0.56331E-04         0.11702E-03         0.00000E+00
    0.56571E-04         0.83720E-04         0.00000E+00
    0.56729E-04         0.50238E-04         0.00000E+00
    0.56806E-04         0.16711E-04         0.00000E+00
    0.70957E-05         0.60336E-03         0.00000E+00
    0.20405E-04         0.59414E-03         0.00000E+00
    0.31458E-04         0.58035E-03         0.00000E+00
    0.39693E-04         0.56336E-03         0.00000E+00
    0.45290E-04         0.54446E-03         0.00000E+00
    0.48865E-04         0.52447E-03         0.00000E+00
    0.51115E-04         0.50373E-03         0.00000E+00
    0.52607E-04         0.48229E-03         0.00000E+00
    0.53714E-04         0.46005E-03         0.00000E+00
    0.54655E-04         0.43688E-03         0.00000E+00
    0.55540E-04         0.41268E-03         0.00000E+00
    0.56416E-04         0.38739E-03         0.00000E+00
    0.57293E-04         0.36100E-03         0.00000E+00
    0.58164E-04         0.33352E-03         0.00000E+00
    0.59014E-04         0.30499E-03         0.00000E+00
    0.59824E-04         0.27549E-03         0.00000E+00
    0.60577E-04         0.24509E-03         0.00000E+00
    0.61258E-04         0.21390E-03         0.00000E+00
    0.61855E-04         0.18203E-03         0.00000E+00
    0.62358E-04         0.14959E-03         0.00000E+00
    0.62762E-04         0.11670E-03         0.00000E+00
    0.63062E-04         0.83496E-04         0.00000E+00
    0.63260E-04         0.50107E-04         0.00000E+00
    0.63356E-04         0.16669E-04         0.00000E+00
    0.59813E-05         0.59029E-03         0.00000E+00
    0.17400E-04         0.58249E-03         0.00000E+00
    0.27421E-04         0.57092E-03         0.00000E+00
    0.35627E-04         0.55634E-03         0.00000E+00
    0.41990E-04         0.53952E-03         0.00000E+00
    0.46769E-04         0.52105E-03         0.00000E+00
    0.50343E-04         0.50132E-03         0.00000E+00
    0.53079E-04         0.48048E-03         0.00000E+00
    0.55269E-04         0.45857E-03         0.00000E+00
    0.57115E-04         0.43557E-03         0.00000E+00
    0.58743E-04         0.41147E-03         0.00000E+00
    0.60224E-04         0.38624E-03         0.00000E+00
    0.61595E-04         0.35990E-03         0.00000E+00
    0.62869E-04         0.33247E-03         0.00000E+00
    0.64050E-04         0.30401E-03         0.00000E+00
    0.65132E-04         0.27458E-03         0.00000E+00
    0.66109E-04         0.24427E-03         0.00000E+00
    0.66973E-04         0.21318E-03         0.00000E+00
    0.67718E-04         0.18141E-03         0.00000E+00
    0.68340E-04         0.14908E-03         0.00000E+00
    0.68834E-04         0.11631E-03         0.00000E+00
    0.69200E-04         0.83220E-04         0.00000E+00
    0.69440E-04         0.49946E-04         0.00000E+00
    0.69557E-04         0.16618E-04         0.00000E+00
    0.53382E-05         0.57897E-03         0.00000E+00
    0.15642E-04         0.57209E-03         0.00000E+00
    0.24996E-04         0.56195E-03         0.00000E+00
    0.33103E-04         0.54900E-03         0.00000E+00
    0.39876E-04         0.53372E-03         0.00000E+00
    0.45410E-04         0.51654E-03         0.00000E+00
    0.49902E-04         0.49777E-03         0.00000E+00
    0.53581E-04         0.47761E-03         0.00000E+00
    0.56652E-04         0.45617E-03         0.00000E+00
    0.59280E-04         0.43350E-03         0.00000E+00
    0.61581E-04         0.40962E-03         0.00000E+00
    0.63632E-04         0.38456E-03         0.00000E+00
    0.65481E-04         0.35836E-03         0.00000E+00
    0.67156E-04         0.33106E-03         0.00000E+00
    0.68671E-04         0.30272E-03         0.00000E+00
    0.70031E-04         0.27342E-03         0.00000E+00
    0.71239E-04         0.24324E-03         0.00000E+00
    0.72294E-04         0.21229E-03         0.00000E+00
    0.73194E-04         0.18066E-03         0.00000E+00
    0.73939E-04         0.14847E-03         0.00000E+00
    0.74528E-04         0.11584E-03         0.00000E+00
    0.74963E-04         0.82889E-04         0.00000E+00
    0.75247E-04         0.49752E-04         0.00000E+00
    0.75386E-04         0.16556E-04         0.00000E+00
    0.49632E-05         0.56867E-03         0.00000E+00
    0.14608E-04         0.56244E-03         0.00000E+00
    0.23554E-04         0.55330E-03         0.00000E+00
    0.31583E-04         0.54152E-03         0.00000E+00
    0.38605E-04         0.52741E-03         0.00000E+00
    0.44640E-04         0.51128E-03         0.00000E+00
    0.49784E-04         0.49339E-03         0.00000E+00
    0.54176E-04         0.47392E-03         0.00000E+00
    0.57952E-04         0.45301E-03         0.00000E+00
    0.61238E-04         0.43074E-03         0.00000E+00
    0.64129E-04         0.40718E-03         0.00000E+00
    0.66698E-04         0.38238E-03         0.00000E+00
    0.68995E-04         0.35639E-03         0.00000E+00
    0.71053E-04         0.32929E-03         0.00000E+00
    0.72894E-04         0.30114E-03         0.00000E+00
    0.74529E-04         0.27201E-03         0.00000E+00
    0.75968E-04         0.24201E-03         0.00000E+00
    0.77214E-04         0.21122E-03         0.00000E+00
    0.78271E-04         0.17977E-03         0.00000E+00
    0.79140E-04         0.14775E-03         0.00000E+00
    0.79826E-04         0.11528E-03         0.00000E+00
    0.80332E-04         0.82502E-04         0.00000E+00
    0.80662E-04         0.49525E-04         0.00000E+00
    0.80823E-04         0.16483E-04         0.00000E+00
    0.47479E-05         0.55895E-03         0.00000E+00
    0.14013E-04         0.55324E-03         0.00000E+00
    0.22723E-04         0.54485E-03         0.00000E+00
    0.30719E-04         0.53395E-03         0.00000E+00
    0.37918E-04         0.52076E-03         0.00000E+00
    0.44307E-04         0.50551E-03         0.00000E+00
    0.49930E-04         0.48840E-03         0.00000E+00
    0.54867E-04         0.46959E-03         0.00000E+00
    0.59207E-04         0.44923E-03         0.00000E+00
    0.63038E-04         0.42741E-03         0.00000E+00
    0.66437E-04         0.40422E-03         0.00000E+00
    0.69466E-04         0.37974E-03         0.00000E+00
    0.72170E-04         0.35403E-03         0.00000E+00
    0.74585E-04         0.32718E-03         0.00000E+00
    0.76734E-04         0.29926E-03         0.00000E+00
    0.78634E-04         0.27035E-03         0.00000E+00
    0.80296E-04         0.24056E-03         0.00000E+00
    0.81729E-04         0.20999E-03         0.00000E+00
    0.82940E-04         0.17873E-03         0.00000E+00
    0.83934E-04         0.14692E-03         0.00000E+00
    0.84716E-04         0.11465E-03         0.00000E+00
    0.85292E-04         0.82057E-04         0.00000E+00
    0.85668E-04         0.49264E-04         0.00000E+00
    0.85851E-04         0.16400E-04         0.00000E+00
    0.46301E-05         0.54958E-03         0.00000E+00
    0.13690E-04         0.54429E-03         0.00000E+00
    0.22278E-04         0.53649E-03         0.00000E+00
    0.30280E-04         0.52630E-03         0.00000E+00
    0.37622E-04         0.51386E-03         0.00000E+00
    0.44279E-04         0.49936E-03         0.00000E+00
    0.50267E-04         0.48294E-03         0.00000E+00
    0.55628E-04         0.46475E-03         0.00000E+00
    0.60419E-04         0.44494E-03         0.00000E+00
    0.64702E-04         0.42359E-03         0.00000E+00
    0.68533E-04         0.40081E-03         0.00000E+00
    0.71962E-04         0.37669E-03         0.00000E+00
    0.75030E-04         0.35131E-03         0.00000E+00
    0.77769E-04         0.32475E-03         0.00000E+00
    0.80203E-04         0.29710E-03         0.00000E+00
    0.82350E-04         0.26846E-03         0.00000E+00
    0.84225E-04         0.23892E-03         0.00000E+00
    0.85837E-04         0.20859E-03         0.00000E+00
    0.87197E-04         0.17757E-03         0.00000E+00
    0.88311E-04         0.14598E-03         0.00000E+00
    0.89186E-04         0.11393E-03         0.00000E+00
    0.89830E-04         0.81554E-04         0.00000E+00
    0.90251E-04         0.48970E-04         0.00000E+00
    0.90457E-04         0.16305E-04         0.00000E+00
    0.45725E-05         0.54037E-03         0.00000E+00
    0.13534E-04         0.53547E-03         0.00000E+00
    0.22077E-04         0.52818E-03         0.00000E+00
    0.30112E-04         0.51858E-03         0.00000E+00
    0.37580E-04         0.50678E-03         0.00000E+00
    0.44451E-04         0.49291E-03         0.00000E+00
    0.50725E-04         0.47712E-03         0.00000E+00
    0.56422E-04         0.45952E-03         0.00000E+00
    0.61578E-04         0.44023E-03         0.00000E+00
    0.66232E-04         0.41936E-03         0.00000E+00
    0.70427E-04         0.39701E-03         0.00000E+00
    0.74201E-04         0.37328E-03         0.00000E+00
    0.77589E-04         0.34826E-03         0.00000E+00
    0.80617E-04         0.32203E-03         0.00000E+00
    0.83309E-04         0.29470E-03         0.00000E+00
    0.85684E-04         0.26635E-03         0.00000E+00
    0.87755E-04         0.23709E-03         0.00000E+00
    0.89536E-04         0.20703E-03         0.00000E+00
    0.91035E-04         0.17627E-03         0.00000E+00
    0.92263E-04         0.14493E-03         0.00000E+00
    0.93228E-04         0.11313E-03         0.00000E+00
    0.93938E-04         0.80997E-04         0.00000E+00
    0.94402E-04         0.48643E-04         0.00000E+00
    0.94629E-04         0.16199E-04         0.00000E+00
    0.45513E-05         0.53125E-03         0.00000E+00
    0.13480E-04         0.52671E-03         0.00000E+00
    0.22023E-04         0.51986E-03         0.00000E+00
    0.30110E-04         0.51077E-03         0.00000E+00
    0.37692E-04         0.49953E-03         0.00000E+00
    0.44739E-04         0.48624E-03         0.00000E+00
    0.51242E-04         0.47101E-03         0.00000E+00
    0.57209E-04         0.45396E-03         0.00000E+00
    0.62660E-04         0.43518E-03         0.00000E+00
    0.67621E-04         0.41479E-03         0.00000E+00
    0.72121E-04         0.39289E-03         0.00000E+00
    0.76189E-04         0.36957E-03         0.00000E+00
    0.79853E-04         0.34492E-03         0.00000E+00
    0.83136E-04         0.31905E-03         0.00000E+00
    0.86059E-04         0.29206E-03         0.00000E+00
    0.88638E-04         0.26403E-03         0.00000E+00
    0.90889E-04         0.23508E-03         0.00000E+00
    0.92823E-04         0.20532E-03         0.00000E+00
    0.94452E-04         0.17485E-03         0.00000E+00
    0.95786E-04         0.14379E-03         0.00000E+00
    0.96834E-04         0.11226E-03         0.00000E+00
    0.97606E-04         0.80386E-04         0.00000E+00
    0.98110E-04         0.48285E-04         0.00000E+00
    0.98357E-04         0.16084E-04         0.00000E+00
    0.45512E-05         0.52215E-03         0.00000E+00
    0.13486E-04         0.51795E-03         0.00000E+00
    0.22054E-04         0.51151E-03         0.00000E+00
    0.30201E-04         0.50289E-03         0.00000E+00
    0.37885E-04         0.49215E-03         0.00000E+00
    0.45078E-04         0.47938E-03         0.00000E+00
    0.51767E-04         0.46468E-03         0.00000E+00
    0.57952E-04         0.44814E-03         0.00000E+00
    0.63643E-04         0.42986E-03         0.00000E+00
    0.68855E-04         0.40994E-03         0.00000E+00
    0.73608E-04         0.38848E-03         0.00000E+00
    0.77925E-04         0.36559E-03         0.00000E+00
    0.81825E-04         0.34134E-03         0.00000E+00
    0.85329E-04         0.31585E-03         0.00000E+00
    0.88453E-04         0.28921E-03         0.00000E+00
    0.91214E-04         0.26153E-03         0.00000E+00
    0.93625E-04         0.23292E-03         0.00000E+00
    0.95698E-04         0.20347E-03         0.00000E+00
    0.97445E-04         0.17332E-03         0.00000E+00
    0.98875E-04         0.14256E-03         0.00000E+00
    0.10000E-03         0.11132E-03         0.00000E+00
    0.10083E-03         0.79728E-04         0.00000E+00
    0.10137E-03         0.47898E-04         0.00000E+00
    0.10163E-03         0.15959E-04         0.00000E+00
    0.45615E-05         0.51303E-03         0.00000E+00
    0.13520E-04         0.50917E-03         0.00000E+00
    0.22125E-04         0.50312E-03         0.00000E+00
    0.30332E-04         0.49493E-03         0.00000E+00
    0.38105E-04         0.48465E-03         0.00000E+00
    0.45418E-04         0.47237E-03         0.00000E+00
    0.52258E-04         0.45816E-03         0.00000E+00
    0.58618E-04         0.44211E-03         0.00000E+00
    0.64502E-04         0.42431E-03         0.00000E+00
    0.69918E-04         0.40486E-03         0.00000E+00
    0.74881E-04         0.38385E-03         0.00000E+00
    0.79404E-04         0.36138E-03         0.00000E+00
    0.83503E-04         0.33755E-03         0.00000E+00
    0.87195E-04         0.31245E-03         0.00000E+00
    0.90493E-04         0.28619E-03         0.00000E+00
    0.93411E-04         0.25888E-03         0.00000E+00
    0.95963E-04         0.23061E-03         0.00000E+00
    0.98158E-04         0.20151E-03         0.00000E+00
    0.10001E-03         0.17168E-03         0.00000E+00
    0.10153E-03         0.14124E-03         0.00000E+00
    0.10272E-03         0.11032E-03         0.00000E+00
    0.10360E-03         0.79024E-04         0.00000E+00
    0.10417E-03         0.47485E-04         0.00000E+00
    0.10446E-03         0.15825E-04         0.00000E+00
    0.45750E-05         0.50390E-03         0.00000E+00
    0.13562E-04         0.50036E-03         0.00000E+00
    0.22204E-04         0.49468E-03         0.00000E+00
    0.30464E-04         0.48690E-03         0.00000E+00
    0.38310E-04         0.47706E-03         0.00000E+00
    0.45721E-04         0.46524E-03         0.00000E+00
    0.52679E-04         0.45150E-03         0.00000E+00
    0.59178E-04         0.43592E-03         0.00000E+00
    0.65215E-04         0.41858E-03         0.00000E+00
    0.70796E-04         0.39959E-03         0.00000E+00
    0.75927E-04         0.37903E-03         0.00000E+00
    0.80619E-04         0.35699E-03         0.00000E+00
    0.84883E-04         0.33357E-03         0.00000E+00
    0.88732E-04         0.30888E-03         0.00000E+00
    0.92177E-04         0.28302E-03         0.00000E+00
    0.95229E-04         0.25608E-03         0.00000E+00
    0.97901E-04         0.22819E-03         0.00000E+00
    0.10020E-03         0.19944E-03         0.00000E+00
    0.10215E-03         0.16996E-03         0.00000E+00
    0.10374E-03         0.13986E-03         0.00000E+00
    0.10499E-03         0.10926E-03         0.00000E+00
    0.10592E-03         0.78281E-04         0.00000E+00
    0.10652E-03         0.47048E-04         0.00000E+00
    0.10682E-03         0.15683E-04         0.00000E+00
    0.45865E-05         0.49474E-03         0.00000E+00
    0.13598E-04         0.49152E-03         0.00000E+00
    0.22269E-04         0.48620E-03         0.00000E+00
    0.30570E-04         0.47881E-03         0.00000E+00
    0.38472E-04         0.46940E-03         0.00000E+00
    0.45955E-04         0.45801E-03         0.00000E+00
    0.53004E-04         0.44472E-03         0.00000E+00
    0.59608E-04         0.42959E-03         0.00000E+00
    0.65764E-04         0.41271E-03         0.00000E+00
    0.71473E-04         0.39417E-03         0.00000E+00
    0.76737E-04         0.37405E-03         0.00000E+00
    0.81564E-04         0.35245E-03         0.00000E+00
    0.85961E-04         0.32946E-03         0.00000E+00
    0.89937E-04         0.30518E-03         0.00000E+00
    0.93502E-04         0.27971E-03         0.00000E+00
    0.96667E-04         0.25317E-03         0.00000E+00
    0.99440E-04         0.22565E-03         0.00000E+00
    0.10183E-03         0.19728E-03         0.00000E+00
    0.10385E-03         0.16816E-03         0.00000E+00
    0.10551E-03         0.13841E-03         0.00000E+00
    0.10681E-03         0.10815E-03         0.00000E+00
    0.10778E-03         0.77503E-04         0.00000E+00
    0.10841E-03         0.46590E-04         0.00000E+00
    0.10872E-03         0.15535E-04         0.00000E+00
    0.45922E-05         0.48556E-03         0.00000E+00
    0.13616E-04         0.48266E-03         0.00000E+00
    0.22303E-04         0.47770E-03         0.00000E+00
    0.30628E-04         0.47069E-03         0.00000E+00
    0.38566E-04         0.46168E-03         0.00000E+00
    0.46098E-04         0.45071E-03         0.00000E+00
    0.53210E-04         0.43785E-03         0.00000E+00
    0.59890E-04         0.42317E-03         0.00000E+00
    0.66132E-04         0.40674E-03         0.00000E+00
    0.71936E-04         0.38864E-03         0.00000E+00
    0.77300E-04         0.36896E-03         0.00000E+00
    0.82230E-04         0.34779E-03         0.00000E+00
    0.86730E-04         0.32522E-03         0.00000E+00
    0.90807E-04         0.30136E-03         0.00000E+00
    0.94468E-04         0.27630E-03         0.00000E+00
    0.97722E-04         0.25016E-03         0.00000E+00
    0.10058E-03         0.22303E-03         0.00000E+00
    0.10304E-03         0.19504E-03         0.00000E+00
    0.10512E-03         0.16629E-03         0.00000E+00
    0.10683E-03         0.13691E-03         0.00000E+00
    0.10818E-03         0.10700E-03         0.00000E+00
    0.10918E-03         0.76695E-04         0.00000E+00
    0.10983E-03         0.46114E-04         0.00000E+00
    0.11015E-03         0.15380E-04         0.00000E+00
    0.45894E-05         0.47638E-03         0.00000E+00
    0.13608E-04         0.47380E-03         0.00000E+00
    0.22294E-04         0.46919E-03         0.00000E+00
    0.30623E-04         0.46255E-03         0.00000E+00
    0.38576E-04         0.45393E-03         0.00000E+00
    0.46133E-04         0.44337E-03         0.00000E+00
    0.53280E-04         0.43094E-03         0.00000E+00
    0.60007E-04         0.41668E-03         0.00000E+00
    0.66306E-04         0.40068E-03         0.00000E+00
    0.72173E-04         0.38302E-03         0.00000E+00
    0.77608E-04         0.36377E-03         0.00000E+00
    0.82612E-04         0.34303E-03         0.00000E+00
    0.87187E-04         0.32090E-03         0.00000E+00
    0.91338E-04         0.29746E-03         0.00000E+00
    0.95072E-04         0.27281E-03         0.00000E+00
    0.98394E-04         0.24707E-03         0.00000E+00
    0.10131E-03         0.22035E-03         0.00000E+00
    0.10383E-03         0.19274E-03         0.00000E+00
    0.10597E-03         0.16437E-03         0.00000E+00
    0.10772E-03         0.13536E-03         0.00000E+00
    0.10910E-03         0.10582E-03         0.00000E+00
    0.11012E-03         0.75863E-04         0.00000E+00
    0.11079E-03         0.45624E-04         0.00000E+00
    0.11112E-03         0.15221E-04         0.00000E+00
    0.45760E-05         0.46721E-03         0.00000E+00
    0.13568E-04         0.46496E-03         0.00000E+00
    0.22231E-04         0.46068E-03         0.00000E+00
    0.30544E-04         0.45441E-03         0.00000E+00
    0.38487E-04         0.44617E-03         0.00000E+00
    0.46044E-04         0.43602E-03         0.00000E+00
    0.53200E-04         0.42399E-03         0.00000E+00
    0.59946E-04         0.41016E-03         0.00000E+00
    0.66273E-04         0.39458E-03         0.00000E+00
    0.72177E-04         0.37735E-03         0.00000E+00
    0.77653E-04         0.35853E-03         0.00000E+00
    0.82703E-04         0.33822E-03         0.00000E+00
    0.87327E-04         0.31651E-03         0.00000E+00
    0.91529E-04         0.29349E-03         0.00000E+00
    0.95312E-04         0.26926E-03         0.00000E+00
    0.98682E-04         0.24393E-03         0.00000E+00
    0.10164E-03         0.21761E-03         0.00000E+00
    0.10421E-03         0.19040E-03         0.00000E+00
    0.10638E-03         0.16242E-03         0.00000E+00
    0.10816E-03         0.13378E-03         0.00000E+00
    0.10957E-03         0.10460E-03         0.00000E+00
    0.11061E-03         0.75012E-04         0.00000E+00
    0.11129E-03         0.45122E-04         0.00000E+00
    0.11163E-03         0.15058E-04         0.00000E+00
    0.45504E-05         0.45808E-03         0.00000E+00
    0.13493E-04         0.45615E-03         0.00000E+00
    0.22110E-04         0.45221E-03         0.00000E+00
    0.30381E-04         0.44630E-03         0.00000E+00
    0.38290E-04         0.43844E-03         0.00000E+00
    0.45821E-04         0.42867E-03         0.00000E+00
    0.52961E-04         0.41704E-03         0.00000E+00
    0.59699E-04         0.40362E-03         0.00000E+00
    0.66027E-04         0.38846E-03         0.00000E+00
    0.71938E-04         0.37165E-03         0.00000E+00
    0.77430E-04         0.35326E-03         0.00000E+00
    0.82500E-04         0.33337E-03         0.00000E+00
    0.87148E-04         0.31208E-03         0.00000E+00
    0.91376E-04         0.28948E-03         0.00000E+00
    0.95188E-04         0.26567E-03         0.00000E+00
    0.98586E-04         0.24075E-03         0.00000E+00
    0.10158E-03         0.21483E-03         0.00000E+00
    0.10416E-03         0.18802E-03         0.00000E+00
    0.10636E-03         0.16043E-03         0.00000E+00
    0.10816E-03         0.13218E-03         0.00000E+00
    0.10959E-03         0.10338E-03         0.00000E+00
    0.11064E-03         0.74147E-04         0.00000E+00
    0.11133E-03         0.44612E-04         0.00000E+00
    0.11167E-03         0.14892E-04         0.00000E+00
    0.45118E-05         0.44902E-03         0.00000E+00
    0.13379E-04         0.44740E-03         0.00000E+00
    0.21923E-04         0.44380E-03         0.00000E+00
    0.30128E-04         0.43824E-03         0.00000E+00
    0.37978E-04         0.43074E-03         0.00000E+00
    0.45457E-04         0.42135E-03         0.00000E+00
    0.52554E-04         0.41012E-03         0.00000E+00
    0.59258E-04         0.39710E-03         0.00000E+00
    0.65560E-04         0.38235E-03         0.00000E+00
    0.71453E-04         0.36596E-03         0.00000E+00
    0.76934E-04         0.34798E-03         0.00000E+00
    0.81999E-04         0.32852E-03         0.00000E+00
    0.86648E-04         0.30765E-03         0.00000E+00
    0.90881E-04         0.28546E-03         0.00000E+00
    0.94700E-04         0.26207E-03         0.00000E+00
    0.98108E-04         0.23756E-03         0.00000E+00
    0.10111E-03         0.21204E-03         0.00000E+00
    0.10371E-03         0.18563E-03         0.00000E+00
    0.10591E-03         0.15843E-03         0.00000E+00
    0.10773E-03         0.13056E-03         0.00000E+00
    0.10916E-03         0.10213E-03         0.00000E+00
    0.11022E-03         0.73274E-04         0.00000E+00
    0.11092E-03         0.44097E-04         0.00000E+00
    0.11126E-03         0.14724E-04         0.00000E+00
    0.44592E-05         0.44005E-03         0.00000E+00
    0.13223E-04         0.43874E-03         0.00000E+00
    0.21668E-04         0.43547E-03         0.00000E+00
    0.29781E-04         0.43025E-03         0.00000E+00
    0.37544E-04         0.42311E-03         0.00000E+00
    0.44946E-04         0.41410E-03         0.00000E+00
    0.51974E-04         0.40325E-03         0.00000E+00
    0.58617E-04         0.39062E-03         0.00000E+00
    0.64868E-04         0.37628E-03         0.00000E+00
    0.70718E-04         0.36029E-03         0.00000E+00
    0.76163E-04         0.34273E-03         0.00000E+00
    0.81200E-04         0.32367E-03         0.00000E+00
    0.85827E-04         0.30321E-03         0.00000E+00
    0.90043E-04         0.28144E-03         0.00000E+00
    0.93850E-04         0.25846E-03         0.00000E+00
    0.97250E-04         0.23436E-03         0.00000E+00
    0.10025E-03         0.20924E-03         0.00000E+00
    0.10284E-03         0.18323E-03         0.00000E+00
    0.10504E-03         0.15642E-03         0.00000E+00
    0.10686E-03         0.12894E-03         0.00000E+00
    0.10829E-03         0.10089E-03         0.00000E+00
    0.10935E-03         0.72397E-04         0.00000E+00
    0.11005E-03         0.43579E-04         0.00000E+00
    0.11040E-03         0.14555E-04         0.00000E+00
    0.43922E-05         0.43120E-03         0.00000E+00
    0.13024E-04         0.43020E-03         0.00000E+00
    0.21343E-04         0.42725E-03         0.00000E+00
    0.29336E-04         0.42237E-03         0.00000E+00
    0.36987E-04         0.41558E-03         0.00000E+00
    0.44285E-04         0.40693E-03         0.00000E+00
    0.51218E-04         0.39646E-03         0.00000E+00
    0.57775E-04         0.38421E-03         0.00000E+00
    0.63948E-04         0.37026E-03         0.00000E+00
    0.69731E-04         0.35467E-03         0.00000E+00
    0.75117E-04         0.33751E-03         0.00000E+00
    0.80102E-04         0.31886E-03         0.00000E+00
    0.84685E-04         0.29881E-03         0.00000E+00
    0.88865E-04         0.27745E-03         0.00000E+00
    0.92641E-04         0.25487E-03         0.00000E+00
    0.96015E-04         0.23117E-03         0.00000E+00
    0.98990E-04         0.20646E-03         0.00000E+00
    0.10157E-03         0.18084E-03         0.00000E+00
    0.10376E-03         0.15442E-03         0.00000E+00
    0.10557E-03         0.12732E-03         0.00000E+00
    0.10699E-03         0.99647E-04         0.00000E+00
    0.10805E-03         0.71522E-04         0.00000E+00
    0.10874E-03         0.43062E-04         0.00000E+00
    0.10909E-03         0.14387E-04         0.00000E+00
    0.43104E-05         0.42250E-03         0.00000E+00
    0.12782E-04         0.42180E-03         0.00000E+00
    0.20947E-04         0.41916E-03         0.00000E+00
    0.28792E-04         0.41461E-03         0.00000E+00
    0.36304E-04         0.40817E-03         0.00000E+00
    0.43472E-04         0.39987E-03         0.00000E+00
    0.50284E-04         0.38977E-03         0.00000E+00
    0.56730E-04         0.37790E-03         0.00000E+00
    0.62802E-04         0.36433E-03         0.00000E+00
    0.68492E-04         0.34913E-03         0.00000E+00
    0.73796E-04         0.33236E-03         0.00000E+00
    0.78708E-04         0.31411E-03         0.00000E+00
    0.83226E-04         0.29446E-03         0.00000E+00
    0.87349E-04         0.27350E-03         0.00000E+00
    0.91077E-04         0.25132E-03         0.00000E+00
    0.94409E-04         0.22802E-03         0.00000E+00
    0.97349E-04         0.20370E-03         0.00000E+00
    0.99900E-04         0.17847E-03         0.00000E+00
    0.10207E-03         0.15244E-03         0.00000E+00
    0.10385E-03         0.12571E-03         0.00000E+00
    0.10526E-03         0.98413E-04         0.00000E+00
    0.10631E-03         0.70653E-04         0.00000E+00
    0.10700E-03         0.42549E-04         0.00000E+00
    0.10734E-03         0.14220E-04         0.00000E+00
    0.42138E-05         0.41397E-03         0.00000E+00
    0.12495E-04         0.41357E-03         0.00000E+00
    0.20477E-04         0.41125E-03         0.00000E+00
    0.28148E-04         0.40702E-03         0.00000E+00
    0.35495E-04         0.40091E-03         0.00000E+00
    0.42506E-04         0.39296E-03         0.00000E+00
    0.49172E-04         0.38321E-03         0.00000E+00
    0.55482E-04         0.37171E-03         0.00000E+00
    0.61428E-04         0.35851E-03         0.00000E+00
    0.67004E-04         0.34369E-03         0.00000E+00
    0.72203E-04         0.32731E-03         0.00000E+00
    0.77020E-04         0.30944E-03         0.00000E+00
    0.81454E-04         0.29018E-03         0.00000E+00
    0.85502E-04         0.26961E-03         0.00000E+00
    0.89163E-04         0.24782E-03         0.00000E+00
    0.92438E-04         0.22491E-03         0.00000E+00
    0.95329E-04         0.20098E-03         0.00000E+00
    0.97837E-04         0.17613E-03         0.00000E+00
    0.99968E-04         0.15048E-03         0.00000E+00
    0.10173E-03         0.12413E-03         0.00000E+00
    0.10312E-03         0.97195E-04         0.00000E+00
    0.10415E-03         0.69794E-04         0.00000E+00
    0.10483E-03         0.42042E-04         0.00000E+00
    0.10516E-03         0.14054E-04         0.00000E+00
    0.41023E-05         0.40566E-03         0.00000E+00
    0.12165E-04         0.40554E-03         0.00000E+00
    0.19936E-04         0.40352E-03         0.00000E+00
    0.27405E-04         0.39960E-03         0.00000E+00
    0.34560E-04         0.39382E-03         0.00000E+00
    0.41389E-04         0.38621E-03         0.00000E+00
    0.47883E-04         0.37680E-03         0.00000E+00
    0.54033E-04         0.36565E-03         0.00000E+00
    0.59830E-04         0.35282E-03         0.00000E+00
    0.65268E-04         0.33836E-03         0.00000E+00
    0.70341E-04         0.32236E-03         0.00000E+00
    0.75044E-04         0.30487E-03         0.00000E+00
    0.79374E-04         0.28599E-03         0.00000E+00
    0.83329E-04         0.26580E-03         0.00000E+00
    0.86907E-04         0.24439E-03         0.00000E+00
    0.90110E-04         0.22186E-03         0.00000E+00
    0.92937E-04         0.19831E-03         0.00000E+00
    0.95392E-04         0.17384E-03         0.00000E+00
    0.97478E-04         0.14855E-03         0.00000E+00
    0.99199E-04         0.12257E-03         0.00000E+00
    0.10056E-03         0.95999E-04         0.00000E+00
    0.10157E-03         0.68951E-04         0.00000E+00
    0.10224E-03         0.41543E-04         0.00000E+00
    0.10256E-03         0.13892E-04         0.00000E+00
    0.39762E-05         0.39758E-03         0.00000E+00
    0.11791E-04         0.39774E-03         0.00000E+00
    0.19324E-04         0.39601E-03         0.00000E+00
    0.26564E-04         0.39240E-03         0.00000E+00
    0.33500E-04         0.38693E-03         0.00000E+00
    0.40122E-04         0.37964E-03         0.00000E+00
    0.46420E-04         0.37057E-03         0.00000E+00
    0.52387E-04         0.35977E-03         0.00000E+00
    0.58012E-04         0.34728E-03         0.00000E+00
    0.63291E-04         0.33318E-03         0.00000E+00
    0.68217E-04         0.31754E-03         0.00000E+00
    0.72786E-04         0.30042E-03         0.00000E+00
    0.76993E-04         0.28190E-03         0.00000E+00
    0.80838E-04         0.26208E-03         0.00000E+00
    0.84318E-04         0.24105E-03         0.00000E+00
    0.87433E-04         0.21889E-03         0.00000E+00
    0.90184E-04         0.19570E-03         0.00000E+00
    0.92574E-04         0.17160E-03         0.00000E+00
    0.94605E-04         0.14668E-03         0.00000E+00
    0.96282E-04         0.12105E-03         0.00000E+00
    0.97609E-04         0.94830E-04         0.00000E+00
    0.98593E-04         0.68127E-04         0.00000E+00
    0.99240E-04         0.41056E-04         0.00000E+00
    0.99559E-04         0.13733E-04         0.00000E+00
    0.38357E-05         0.38977E-03         0.00000E+00
    0.11374E-04         0.39020E-03         0.00000E+00
    0.18641E-04         0.38875E-03         0.00000E+00
    0.25626E-04         0.38543E-03         0.00000E+00
    0.32318E-04         0.38027E-03         0.00000E+00
    0.38708E-04         0.37329E-03         0.00000E+00
    0.44787E-04         0.36454E-03         0.00000E+00
    0.50547E-04         0.35407E-03         0.00000E+00
    0.55979E-04         0.34192E-03         0.00000E+00
    0.61078E-04         0.32817E-03         0.00000E+00
    0.65837E-04         0.31287E-03         0.00000E+00
    0.70252E-04         0.29610E-03         0.00000E+00
    0.74320E-04         0.27794E-03         0.00000E+00
    0.78037E-04         0.25848E-03         0.00000E+00
    0.81403E-04         0.23780E-03         0.00000E+00
    0.84418E-04         0.21600E-03         0.00000E+00
    0.87081E-04         0.19317E-03         0.00000E+00
    0.89395E-04         0.16942E-03         0.00000E+00
    0.91362E-04         0.14485E-03         0.00000E+00
    0.92986E-04         0.11957E-03         0.00000E+00
    0.94271E-04         0.93694E-04         0.00000E+00
    0.95225E-04         0.67326E-04         0.00000E+00
    0.95852E-04         0.40582E-04         0.00000E+00
    0.96161E-04         0.13578E-04         0.00000E+00
    0.36812E-05         0.38225E-03         0.00000E+00
    0.10916E-04         0.38295E-03         0.00000E+00
    0.17890E-04         0.38177E-03         0.00000E+00
    0.24594E-04         0.37873E-03         0.00000E+00
    0.31017E-04         0.37386E-03         0.00000E+00
    0.37152E-04         0.36718E-03         0.00000E+00
    0.42989E-04         0.35874E-03         0.00000E+00
    0.48519E-04         0.34858E-03         0.00000E+00
    0.53737E-04         0.33676E-03         0.00000E+00
    0.58635E-04         0.32333E-03         0.00000E+00
    0.63208E-04         0.30837E-03         0.00000E+00
    0.67452E-04         0.29194E-03         0.00000E+00
    0.71363E-04         0.27413E-03         0.00000E+00
    0.74938E-04         0.25501E-03         0.00000E+00
    0.78176E-04         0.23467E-03         0.00000E+00
    0.81076E-04         0.21321E-03         0.00000E+00
    0.83639E-04         0.19073E-03         0.00000E+00
    0.85867E-04         0.16732E-03         0.00000E+00
    0.87761E-04         0.14309E-03         0.00000E+00
    0.89325E-04         0.11815E-03         0.00000E+00
    0.90563E-04         0.92597E-04         0.00000E+00
    0.91482E-04         0.66551E-04         0.00000E+00
    0.92086E-04         0.40124E-04         0.00000E+00
    0.92384E-04         0.13429E-04         0.00000E+00
    0.35130E-05         0.37506E-03         0.00000E+00
    0.10417E-04         0.37600E-03         0.00000E+00
    0.17073E-04         0.37508E-03         0.00000E+00
    0.23471E-04         0.37231E-03         0.00000E+00
    0.29602E-04         0.36772E-03         0.00000E+00
    0.35458E-04         0.36133E-03         0.00000E+00
    0.41030E-04         0.35318E-03         0.00000E+00
    0.46311E-04         0.34333E-03         0.00000E+00
    0.51293E-04         0.33181E-03         0.00000E+00
    0.55972E-04         0.31870E-03         0.00000E+00
    0.60341E-04         0.30406E-03         0.00000E+00
    0.64396E-04         0.28795E-03         0.00000E+00
    0.68134E-04         0.27047E-03         0.00000E+00
    0.71551E-04         0.25168E-03         0.00000E+00
    0.74647E-04         0.23167E-03         0.00000E+00
    0.77421E-04         0.21054E-03         0.00000E+00
    0.79873E-04         0.18839E-03         0.00000E+00
    0.82004E-04         0.16531E-03         0.00000E+00
    0.83817E-04         0.14140E-03         0.00000E+00
    0.85314E-04         0.11678E-03         0.00000E+00
    0.86499E-04         0.91542E-04         0.00000E+00
    0.87379E-04         0.65808E-04         0.00000E+00
    0.87958E-04         0.39684E-04         0.00000E+00
    0.88243E-04         0.13285E-04         0.00000E+00
    0.33319E-05         0.36821E-03         0.00000E+00
    0.98800E-05         0.36940E-03         0.00000E+00
    0.16193E-04         0.36872E-03         0.00000E+00
    0.22261E-04         0.36621E-03         0.00000E+00
    0.28076E-04         0.36188E-03         0.00000E+00
    0.33631E-04         0.35576E-03         0.00000E+00
    0.38917E-04         0.34789E-03         0.00000E+00
    0.43928E-04         0.33832E-03         0.00000E+00
    0.48657E-04         0.32710E-03         0.00000E+00
    0.53097E-04         0.31429E-03         0.00000E+00
    0.57244E-04         0.29995E-03         0.00000E+00
    0.61094E-04         0.28416E-03         0.00000E+00
    0.64644E-04         0.26698E-03         0.00000E+00
    0.67890E-04         0.24850E-03         0.00000E+00
    0.70831E-04         0.22881E-03         0.00000E+00
    0.73467E-04         0.20800E-03         0.00000E+00
    0.75797E-04         0.18615E-03         0.00000E+00
    0.77823E-04         0.16338E-03         0.00000E+00
    0.79546E-04         0.13979E-03         0.00000E+00
    0.80969E-04         0.11547E-03         0.00000E+00
    0.82097E-04         0.90536E-04         0.00000E+00
    0.82933E-04         0.65098E-04         0.00000E+00
    0.83484E-04         0.39264E-04         0.00000E+00
    0.83756E-04         0.13148E-04         0.00000E+00
    0.31382E-05         0.36174E-03         0.00000E+00
    0.93059E-05         0.36315E-03         0.00000E+00
    0.15252E-04         0.36271E-03         0.00000E+00
    0.20968E-04         0.36044E-03         0.00000E+00
    0.26446E-04         0.35635E-03         0.00000E+00
    0.31679E-04         0.35049E-03         0.00000E+00
    0.36659E-04         0.34289E-03         0.00000E+00
    0.41380E-04         0.33359E-03         0.00000E+00
    0.45836E-04         0.32265E-03         0.00000E+00
    0.50021E-04         0.31012E-03         0.00000E+00
    0.53930E-04         0.29607E-03         0.00000E+00
    0.57560E-04         0.28056E-03         0.00000E+00
    0.60907E-04         0.26368E-03         0.00000E+00
    0.63968E-04         0.24549E-03         0.00000E+00
    0.66742E-04         0.22610E-03         0.00000E+00
    0.69228E-04         0.20558E-03         0.00000E+00
    0.71427E-04         0.18404E-03         0.00000E+00
    0.73338E-04         0.16156E-03         0.00000E+00
    0.74965E-04         0.13826E-03         0.00000E+00
    0.76308E-04         0.11423E-03         0.00000E+00
    0.77373E-04         0.89583E-04         0.00000E+00
    0.78162E-04         0.64425E-04         0.00000E+00
    0.78683E-04         0.38866E-04         0.00000E+00
    0.78939E-04         0.13018E-04         0.00000E+00
    0.29329E-05         0.35567E-03         0.00000E+00
    0.86969E-05         0.35729E-03         0.00000E+00
    0.14254E-04         0.35707E-03         0.00000E+00
    0.19596E-04         0.35502E-03         0.00000E+00
    0.24716E-04         0.35117E-03         0.00000E+00
    0.29607E-04         0.34555E-03         0.00000E+00
    0.34262E-04         0.33820E-03         0.00000E+00
    0.38676E-04         0.32915E-03         0.00000E+00
    0.42842E-04         0.31847E-03         0.00000E+00
    0.46755E-04         0.30620E-03         0.00000E+00
    0.50411E-04         0.29242E-03         0.00000E+00
    0.53805E-04         0.27718E-03         0.00000E+00
    0.56936E-04         0.26057E-03         0.00000E+00
    0.59800E-04         0.24267E-03         0.00000E+00
    0.62396E-04         0.22355E-03         0.00000E+00
    0.64722E-04         0.20332E-03         0.00000E+00
    0.66780E-04         0.18205E-03         0.00000E+00
    0.68569E-04         0.15985E-03         0.00000E+00
    0.70091E-04         0.13682E-03         0.00000E+00
    0.71350E-04         0.11307E-03         0.00000E+00
    0.72346E-04         0.88687E-04         0.00000E+00
    0.73086E-04         0.63792E-04         0.00000E+00
    0.73573E-04         0.38492E-04         0.00000E+00
    0.73813E-04         0.12896E-04         0.00000E+00
    0.27165E-05         0.35002E-03         0.00000E+00
    0.80552E-05         0.35184E-03         0.00000E+00
    0.13202E-04         0.35182E-03         0.00000E+00
    0.18150E-04         0.34998E-03         0.00000E+00
    0.22893E-04         0.34635E-03         0.00000E+00
    0.27424E-04         0.34095E-03         0.00000E+00
    0.31736E-04         0.33383E-03         0.00000E+00
    0.35825E-04         0.32502E-03         0.00000E+00
    0.39685E-04         0.31458E-03         0.00000E+00
    0.43311E-04         0.30256E-03         0.00000E+00
    0.46699E-04         0.28902E-03         0.00000E+00
    0.49845E-04         0.27404E-03         0.00000E+00
    0.52747E-04         0.25769E-03         0.00000E+00
    0.55402E-04         0.24004E-03         0.00000E+00
    0.57808E-04         0.22118E-03         0.00000E+00
    0.59966E-04         0.20120E-03         0.00000E+00
    0.61874E-04         0.18020E-03         0.00000E+00
    0.63533E-04         0.15826E-03         0.00000E+00
    0.64946E-04         0.13548E-03         0.00000E+00
    0.66113E-04         0.11198E-03         0.00000E+00
    0.67037E-04         0.87851E-04         0.00000E+00
    0.67724E-04         0.63202E-04         0.00000E+00
    0.68176E-04         0.38143E-04         0.00000E+00
    0.68399E-04         0.12782E-04         0.00000E+00
    0.24898E-05         0.34481E-03         0.00000E+00
    0.73831E-05         0.34681E-03         0.00000E+00
    0.12101E-04         0.34698E-03         0.00000E+00
    0.16636E-04         0.34534E-03         0.00000E+00
    0.20983E-04         0.34190E-03         0.00000E+00
    0.25136E-04         0.33671E-03         0.00000E+00
    0.29090E-04         0.32980E-03         0.00000E+00
    0.32838E-04         0.32121E-03         0.00000E+00
    0.36377E-04         0.31099E-03         0.00000E+00
    0.39702E-04         0.29919E-03         0.00000E+00
    0.42809E-04         0.28589E-03         0.00000E+00
    0.45694E-04         0.27114E-03         0.00000E+00
    0.48355E-04         0.25502E-03         0.00000E+00
    0.50791E-04         0.23761E-03         0.00000E+00
    0.52998E-04         0.21899E-03         0.00000E+00
    0.54977E-04         0.19925E-03         0.00000E+00
    0.56728E-04         0.17849E-03         0.00000E+00
    0.58251E-04         0.15678E-03         0.00000E+00
    0.59547E-04         0.13425E-03         0.00000E+00
    0.60618E-04         0.11098E-03         0.00000E+00
    0.61467E-04         0.87079E-04         0.00000E+00
    0.62097E-04         0.62658E-04         0.00000E+00
    0.62512E-04         0.37820E-04         0.00000E+00
    0.62716E-04         0.12677E-04         0.00000E+00
    0.22538E-05         0.34007E-03         0.00000E+00
    0.66832E-05         0.34223E-03         0.00000E+00
    0.10953E-04         0.34257E-03         0.00000E+00
    0.15059E-04         0.34110E-03         0.00000E+00
    0.18994E-04         0.33785E-03         0.00000E+00
    0.22754E-04         0.33285E-03         0.00000E+00
    0.26333E-04         0.32613E-03         0.00000E+00
    0.29727E-04         0.31774E-03         0.00000E+00
    0.32931E-04         0.30772E-03         0.00000E+00
    0.35941E-04         0.29613E-03         0.00000E+00
    0.38755E-04         0.28303E-03         0.00000E+00
    0.41368E-04         0.26850E-03         0.00000E+00
    0.43778E-04         0.25259E-03         0.00000E+00
    0.45984E-04         0.23540E-03         0.00000E+00
    0.47984E-04         0.21700E-03         0.00000E+00
    0.49777E-04         0.19748E-03         0.00000E+00
    0.51363E-04         0.17693E-03         0.00000E+00
    0.52743E-04         0.15544E-03         0.00000E+00
    0.53917E-04         0.13312E-03         0.00000E+00
    0.54888E-04         0.11006E-03         0.00000E+00
    0.55657E-04         0.86375E-04         0.00000E+00
    0.56228E-04         0.62161E-04         0.00000E+00
    0.56604E-04         0.37526E-04         0.00000E+00
    0.56789E-04         0.12581E-04         0.00000E+00
    0.20092E-05         0.33581E-03         0.00000E+00
    0.59579E-05         0.33812E-03         0.00000E+00
    0.97648E-05         0.33861E-03         0.00000E+00
    0.13425E-04         0.33730E-03         0.00000E+00
    0.16933E-04         0.33421E-03         0.00000E+00
    0.20285E-04         0.32938E-03         0.00000E+00
    0.23476E-04         0.32283E-03         0.00000E+00
    0.26502E-04         0.31462E-03         0.00000E+00
    0.29359E-04         0.30478E-03         0.00000E+00
    0.32044E-04         0.29338E-03         0.00000E+00
    0.34552E-04         0.28047E-03         0.00000E+00
    0.36883E-04         0.26612E-03         0.00000E+00
    0.39033E-04         0.25041E-03         0.00000E+00
    0.41000E-04         0.23341E-03         0.00000E+00
    0.42784E-04         0.21520E-03         0.00000E+00
    0.44383E-04         0.19588E-03         0.00000E+00
    0.45799E-04         0.17552E-03         0.00000E+00
    0.47030E-04         0.15423E-03         0.00000E+00
    0.48077E-04         0.13211E-03         0.00000E+00
    0.48944E-04         0.10924E-03         0.00000E+00
    0.49630E-04         0.85742E-04         0.00000E+00
    0.50140E-04         0.61714E-04         0.00000E+00
    0.50475E-04         0.37262E-04         0.00000E+00
    0.50641E-04         0.12494E-04         0.00000E+00
    0.17570E-05         0.33204E-03         0.00000E+00
    0.52101E-05         0.33448E-03         0.00000E+00
    0.85392E-05         0.33511E-03         0.00000E+00
    0.11740E-04         0.33394E-03         0.00000E+00
    0.14808E-04         0.33100E-03         0.00000E+00
    0.17739E-04         0.32631E-03         0.00000E+00
    0.20530E-04         0.31992E-03         0.00000E+00
    0.23177E-04         0.31186E-03         0.00000E+00
    0.25676E-04         0.30218E-03         0.00000E+00
    0.28023E-04         0.29094E-03         0.00000E+00
    0.30218E-04         0.27820E-03         0.00000E+00
    0.32256E-04         0.26402E-03         0.00000E+00
    0.34137E-04         0.24848E-03         0.00000E+00
    0.35858E-04         0.23165E-03         0.00000E+00
    0.37419E-04         0.21362E-03         0.00000E+00
    0.38819E-04         0.19447E-03         0.00000E+00
    0.40057E-04         0.17428E-03         0.00000E+00
    0.41134E-04         0.15317E-03         0.00000E+00
    0.42051E-04         0.13121E-03         0.00000E+00
    0.42809E-04         0.10851E-03         0.00000E+00
    0.43410E-04         0.85182E-04         0.00000E+00
    0.43856E-04         0.61318E-04         0.00000E+00
    0.44150E-04         0.37028E-04         0.00000E+00
    0.44295E-04         0.12418E-04         0.00000E+00
    0.14981E-05         0.32879E-03         0.00000E+00
    0.44425E-05         0.33134E-03         0.00000E+00
    0.72811E-05         0.33208E-03         0.00000E+00
    0.10010E-04         0.33104E-03         0.00000E+00
    0.12627E-04         0.32822E-03         0.00000E+00
    0.15126E-04         0.32366E-03         0.00000E+00
    0.17506E-04         0.31740E-03         0.00000E+00
    0.19763E-04         0.30947E-03         0.00000E+00
    0.21894E-04         0.29994E-03         0.00000E+00
    0.23896E-04         0.28884E-03         0.00000E+00
    0.25768E-04         0.27624E-03         0.00000E+00
    0.27506E-04         0.26221E-03         0.00000E+00
    0.29110E-04         0.24681E-03         0.00000E+00
    0.30579E-04         0.23013E-03         0.00000E+00
    0.31910E-04         0.21225E-03         0.00000E+00
    0.33104E-04         0.19324E-03         0.00000E+00
    0.34160E-04         0.17321E-03         0.00000E+00
    0.35079E-04         0.15224E-03         0.00000E+00
    0.35862E-04         0.13043E-03         0.00000E+00
    0.36508E-04         0.10788E-03         0.00000E+00
    0.37021E-04         0.84698E-04         0.00000E+00
    0.37402E-04         0.60976E-04         0.00000E+00
    0.37652E-04         0.36825E-04         0.00000E+00
    0.37776E-04         0.12352E-04         0.00000E+00
    0.12336E-05         0.32605E-03         0.00000E+00
    0.36580E-05         0.32870E-03         0.00000E+00
    0.59954E-05         0.32954E-03         0.00000E+00
    0.82427E-05         0.32860E-03         0.00000E+00
    0.10397E-04         0.32589E-03         0.00000E+00
    0.12455E-04         0.32144E-03         0.00000E+00
    0.14415E-04         0.31528E-03         0.00000E+00
    0.16273E-04         0.30747E-03         0.00000E+00
    0.18028E-04         0.29805E-03         0.00000E+00
    0.19677E-04         0.28707E-03         0.00000E+00
    0.21219E-04         0.27459E-03         0.00000E+00
    0.22651E-04         0.26068E-03         0.00000E+00
    0.23972E-04         0.24541E-03         0.00000E+00
    0.25181E-04         0.22885E-03         0.00000E+00
    0.26278E-04         0.21110E-03         0.00000E+00
    0.27261E-04         0.19222E-03         0.00000E+00
    0.28131E-04         0.17231E-03         0.00000E+00
    0.28888E-04         0.15147E-03         0.00000E+00
    0.29533E-04         0.12978E-03         0.00000E+00
    0.30066E-04         0.10736E-03         0.00000E+00
    0.30488E-04         0.84291E-04         0.00000E+00
    0.30802E-04         0.60689E-04         0.00000E+00
    0.31008E-04         0.36655E-04         0.00000E+00
    0.31110E-04         0.12296E-04         0.00000E+00
    0.96435E-06         0.32386E-03         0.00000E+00
    0.28596E-05         0.32658E-03         0.00000E+00
    0.46869E-05         0.32750E-03         0.00000E+00
    0.64437E-05         0.32664E-03         0.00000E+00
    0.81279E-05         0.32401E-03         0.00000E+00
    0.97371E-05         0.31965E-03         0.00000E+00
    0.11269E-04         0.31358E-03         0.00000E+00
    0.12722E-04         0.30586E-03         0.00000E+00
    0.14094E-04         0.29653E-03         0.00000E+00
    0.15383E-04         0.28565E-03         0.00000E+00
    0.16588E-04         0.27327E-03         0.00000E+00
    0.17708E-04         0.25945E-03         0.00000E+00
    0.18741E-04         0.24428E-03         0.00000E+00
    0.19687E-04         0.22783E-03         0.00000E+00
    0.20544E-04         0.21017E-03         0.00000E+00
    0.21313E-04         0.19139E-03         0.00000E+00
    0.21994E-04         0.17159E-03         0.00000E+00
    0.22586E-04         0.15084E-03         0.00000E+00
    0.23090E-04         0.12926E-03         0.00000E+00
    0.23506E-04         0.10693E-03         0.00000E+00
    0.23837E-04         0.83963E-04         0.00000E+00
    0.24082E-04         0.60457E-04         0.00000E+00
    0.24244E-04         0.36518E-04         0.00000E+00
    0.24323E-04         0.12251E-04         0.00000E+00
    0.69145E-06         0.32220E-03         0.00000E+00
    0.20504E-05         0.32498E-03         0.00000E+00
    0.33606E-05         0.32596E-03         0.00000E+00
    0.46203E-05         0.32516E-03         0.00000E+00
    0.58278E-05         0.32259E-03         0.00000E+00
    0.69817E-05         0.31830E-03         0.00000E+00
    0.80802E-05         0.31230E-03         0.00000E+00
    0.91221E-05         0.30465E-03         0.00000E+00
    0.10106E-04         0.29539E-03         0.00000E+00
    0.11030E-04         0.28458E-03         0.00000E+00
    0.11895E-04         0.27227E-03         0.00000E+00
    0.12697E-04         0.25853E-03         0.00000E+00
    0.13438E-04         0.24343E-03         0.00000E+00
    0.14116E-04         0.22705E-03         0.00000E+00
    0.14731E-04         0.20947E-03         0.00000E+00
    0.15283E-04         0.19077E-03         0.00000E+00
    0.15771E-04         0.17104E-03         0.00000E+00
    0.16195E-04         0.15037E-03         0.00000E+00
    0.16557E-04         0.12886E-03         0.00000E+00
    0.16856E-04         0.10661E-03         0.00000E+00
    0.17093E-04         0.83716E-04         0.00000E+00
    0.17269E-04         0.60283E-04         0.00000E+00
    0.17385E-04         0.36415E-04         0.00000E+00
    0.17442E-04         0.12218E-04         0.00000E+00
    0.41593E-06         0.32109E-03         0.00000E+00
    0.12334E-05         0.32391E-03         0.00000E+00
    0.20215E-05         0.32493E-03         0.00000E+00
    0.27792E-05         0.32417E-03         0.00000E+00
    0.35056E-05         0.32165E-03         0.00000E+00
    0.41997E-05         0.31739E-03         0.00000E+00
    0.48605E-05         0.31144E-03         0.00000E+00
    0.54872E-05         0.30384E-03         0.00000E+00
    0.60790E-05         0.29463E-03         0.00000E+00
    0.66351E-05         0.28386E-03         0.00000E+00
    0.71550E-05         0.27160E-03         0.00000E+00
    0.76380E-05         0.25791E-03         0.00000E+00
    0.80836E-05         0.24287E-03         0.00000E+00
    0.84916E-05         0.22654E-03         0.00000E+00
    0.88615E-05         0.20900E-03         0.00000E+00
    0.91933E-05         0.19035E-03         0.00000E+00
    0.94869E-05         0.17067E-03         0.00000E+00
    0.97424E-05         0.15006E-03         0.00000E+00
    0.99599E-05         0.12860E-03         0.00000E+00
    0.10140E-04         0.10640E-03         0.00000E+00
    0.10282E-04         0.83551E-04         0.00000E+00
    0.10388E-04         0.60167E-04         0.00000E+00
    0.10458E-04         0.36346E-04         0.00000E+00
    0.10492E-04         0.12195E-04         0.00000E+00
    0.13882E-06         0.32054E-03         0.00000E+00
    0.41164E-06         0.32338E-03         0.00000E+00
    0.67468E-06         0.32442E-03         0.00000E+00
    0.92758E-06         0.32368E-03         0.00000E+00
    0.11700E-05         0.32117E-03         0.00000E+00
    0.14017E-05         0.31694E-03         0.00000E+00
    0.16222E-05         0.31101E-03         0.00000E+00
    0.18314E-05         0.30343E-03         0.00000E+00
    0.20289E-05         0.29424E-03         0.00000E+00
    0.22145E-05         0.28350E-03         0.00000E+00
    0.23881E-05         0.27127E-03         0.00000E+00
    0.25493E-05         0.25760E-03         0.00000E+00
    0.26980E-05         0.24258E-03         0.00000E+00
    0.28342E-05         0.22628E-03         0.00000E+00
    0.29576E-05         0.20877E-03         0.00000E+00
    0.30684E-05         0.19014E-03         0.00000E+00
    0.31664E-05         0.17049E-03         0.00000E+00
    0.32517E-05         0.14990E-03         0.00000E+00
    0.33243E-05         0.12847E-03         0.00000E+00
    0.33843E-05         0.10629E-03         0.00000E+00
    0.34319E-05         0.83469E-04         0.00000E+00
    0.34672E-05         0.60108E-04         0.00000E+00
    0.34905E-05         0.36311E-04         0.00000E+00
    0.35020E-05         0.12184E-04         0.00000E+00
POINT_DATA       1225
VECTORS vDarcyNodal double 
    0.11181E-03         0.91587E-04         0.00000E+00
    0.93620E-04         0.17353E-03         0.00000E+00
    0.63774E-04         0.31143E-03         0.00000E+00
    0.34232E-04         0.39854E-03         0.00000E+00
    0.20822E-04         0.44339E-03         0.00000E+00
    0.13694E-04         0.46173E-03         0.00000E+00
    0.97752E-05         0.46565E-03         0.00000E+00
    0.75055E-05         0.46072E-03         0.00000E+00
    0.61419E-05         0.44987E-03         0.00000E+00
    0.53007E-05         0.43475E-03         0.00000E+00
    0.47737E-05         0.41632E-03         0.00000E+00
    0.44418E-05         0.39523E-03         0.00000E+00
    0.42343E-05         0.37190E-03         0.00000E+00
    0.41075E-05         0.34666E-03         0.00000E+00
    0.40334E-05         0.31976E-03         0.00000E+00
    0.39937E-05         0.29143E-03         0.00000E+00
    0.39761E-05         0.26184E-03         0.00000E+00
    0.39723E-05         0.23118E-03         0.00000E+00
    0.39763E-05         0.19961E-03         0.00000E+00
    0.39842E-05         0.16729E-03         0.00000E+00
    0.39933E-05         0.13439E-03         0.00000E+00
    0.40015E-05         0.10105E-03         0.00000E+00
    0.40079E-05         0.67435E-04         0.00000E+00
    0.40117E-05         0.33697E-04         0.00000E+00
    0.40128E-05         0.16817E-04         0.00000E+00
    0.23574E-03         0.10978E-03         0.00000E+00
    0.20789E-03         0.19755E-03         0.00000E+00
    0.11123E-03         0.34112E-03         0.00000E+00
    0.63026E-04         0.42002E-03         0.00000E+00
    0.38830E-04         0.45366E-03         0.00000E+00
    0.25989E-04         0.46725E-03         0.00000E+00
    0.18796E-04         0.46874E-03         0.00000E+00
    0.14580E-04         0.46254E-03         0.00000E+00
    0.12024E-04         0.45098E-03         0.00000E+00
    0.10437E-04         0.43543E-03         0.00000E+00
    0.94378E-05         0.41675E-03         0.00000E+00
    0.88077E-05         0.39550E-03         0.00000E+00
    0.84138E-05         0.37207E-03         0.00000E+00
    0.81737E-05         0.34676E-03         0.00000E+00
    0.80346E-05         0.31982E-03         0.00000E+00
    0.79613E-05         0.29145E-03         0.00000E+00
    0.79304E-05         0.26185E-03         0.00000E+00
    0.79257E-05         0.23118E-03         0.00000E+00
    0.79359E-05         0.19960E-03         0.00000E+00
    0.79532E-05         0.16729E-03         0.00000E+00
    0.79723E-05         0.13438E-03         0.00000E+00
    0.79896E-05         0.10104E-03         0.00000E+00
    0.80027E-05         0.67430E-04         0.00000E+00
    0.80106E-05         0.33694E-04         0.00000E+00
    0.80130E-05         0.16815E-04         0.00000E+00
    0.80132E-03         0.14729E-03         0.00000E+00
    0.33163E-03         0.29804E-03         0.00000E+00
    0.17897E-03         0.45629E-03         0.00000E+00
    0.10591E-03         0.47094E-03         0.00000E+00
    0.67909E-04         0.48042E-03         0.00000E+00
    0.46959E-04         0.48176E-03         0.00000E+00
    0.34841E-04         0.47706E-03         0.00000E+00
    0.27565E-04         0.46749E-03         0.00000E+00
    0.23073E-04         0.45402E-03         0.00000E+00
    0.20249E-04         0.43733E-03         0.00000E+00
    0.18458E-04         0.41795E-03         0.00000E+00
    0.17324E-04         0.39625E-03         0.00000E+00
    0.16615E-04         0.37253E-03         0.00000E+00
    0.16187E-04         0.34704E-03         0.00000E+00
    0.15943E-04         0.31997E-03         0.00000E+00
    0.15820E-04         0.29153E-03         0.00000E+00
    0.15775E-04         0.26188E-03         0.00000E+00
    0.15777E-04         0.23117E-03         0.00000E+00
    0.15805E-04         0.19958E-03         0.00000E+00
    0.15846E-04         0.16726E-03         0.00000E+00
    0.15888E-04         0.13435E-03         0.00000E+00
    0.15925E-04         0.10102E-03         0.00000E+00
    0.15954E-04         0.67414E-04         0.00000E+00
    0.15971E-04         0.33686E-04         0.00000E+00
    0.15976E-04         0.16812E-04         0.00000E+00
    0.62149E-03         0.10492E-02         0.00000E+00
    0.30526E-03         0.81990E-03         0.00000E+00
    0.18384E-03         0.56685E-03         0.00000E+00
    0.11913E-03         0.53108E-03         0.00000E+00
    0.82034E-04         0.51261E-03         0.00000E+00
    0.59894E-04         0.50032E-03         0.00000E+00
    0.46323E-04         0.48814E-03         0.00000E+00
    0.37823E-04         0.47430E-03         0.00000E+00
    0.32415E-04         0.45829E-03         0.00000E+00
    0.28945E-04         0.44005E-03         0.00000E+00
    0.26717E-04         0.41968E-03         0.00000E+00
    0.25300E-04         0.39734E-03         0.00000E+00
    0.24420E-04         0.37320E-03         0.00000E+00
    0.23897E-04         0.34743E-03         0.00000E+00
    0.23612E-04         0.32019E-03         0.00000E+00
    0.23482E-04         0.29162E-03         0.00000E+00
    0.23452E-04         0.26189E-03         0.00000E+00
    0.23482E-04         0.23115E-03         0.00000E+00
    0.23545E-04         0.19954E-03         0.00000E+00
    0.23619E-04         0.16720E-03         0.00000E+00
    0.23692E-04         0.13430E-03         0.00000E+00
    0.23755E-04         0.10098E-03         0.00000E+00
    0.23802E-04         0.67385E-04         0.00000E+00
    0.23830E-04         0.33672E-04         0.00000E+00
    0.23839E-04         0.16805E-04         0.00000E+00
    0.00000E+00         0.77976E-03         0.00000E+00
    0.17624E-03         0.73569E-03         0.00000E+00
    0.14182E-03         0.64241E-03         0.00000E+00
    0.10774E-03         0.57274E-03         0.00000E+00
    0.82230E-04         0.53967E-03         0.00000E+00
    0.64654E-04         0.51747E-03         0.00000E+00
    0.52826E-04         0.49913E-03         0.00000E+00
    0.44937E-04         0.48140E-03         0.00000E+00
    0.39700E-04         0.46289E-03         0.00000E+00
    0.36247E-04         0.44303E-03         0.00000E+00
    0.33998E-04         0.42160E-03         0.00000E+00
    0.32566E-04         0.39855E-03         0.00000E+00
    0.31690E-04         0.37394E-03         0.00000E+00
    0.31191E-04         0.34785E-03         0.00000E+00
    0.30945E-04         0.32039E-03         0.00000E+00
    0.30866E-04         0.29169E-03         0.00000E+00
    0.30892E-04         0.26187E-03         0.00000E+00
    0.30979E-04         0.23108E-03         0.00000E+00
    0.31095E-04         0.19945E-03         0.00000E+00
    0.31218E-04         0.16711E-03         0.00000E+00
    0.31333E-04         0.13422E-03         0.00000E+00
    0.31429E-04         0.10091E-03         0.00000E+00
    0.31500E-04         0.67339E-04         0.00000E+00
    0.31541E-04         0.33650E-04         0.00000E+00
    0.31554E-04         0.16795E-04         0.00000E+00
    0.00000E+00         0.69667E-03         0.00000E+00
    0.62641E-04         0.67808E-03         0.00000E+00
    0.91250E-04         0.63535E-03         0.00000E+00
    0.85247E-04         0.59067E-03         0.00000E+00
    0.73866E-04         0.55569E-03         0.00000E+00
    0.63368E-04         0.52972E-03         0.00000E+00
    0.55166E-04         0.50786E-03         0.00000E+00
    0.49178E-04         0.48743E-03         0.00000E+00
    0.44974E-04         0.46698E-03         0.00000E+00
    0.42111E-04         0.44575E-03         0.00000E+00
    0.40225E-04         0.42336E-03         0.00000E+00
    0.39038E-04         0.39965E-03         0.00000E+00
    0.38344E-04         0.37458E-03         0.00000E+00
    0.37993E-04         0.34818E-03         0.00000E+00
    0.37875E-04         0.32051E-03         0.00000E+00
    0.37908E-04         0.29168E-03         0.00000E+00
    0.38034E-04         0.26178E-03         0.00000E+00
    0.38210E-04         0.23095E-03         0.00000E+00
    0.38405E-04         0.19930E-03         0.00000E+00
    0.38594E-04         0.16696E-03         0.00000E+00
    0.38763E-04         0.13409E-03         0.00000E+00
    0.38901E-04         0.10081E-03         0.00000E+00
    0.39001E-04         0.67273E-04         0.00000E+00
    0.39059E-04         0.33618E-04         0.00000E+00
    0.39078E-04         0.16779E-04         0.00000E+00
    0.11626E-17         0.65448E-03         0.00000E+00
    0.34012E-04         0.64444E-03         0.00000E+00
    0.56097E-04         0.61980E-03         0.00000E+00
    0.64034E-04         0.59013E-03         0.00000E+00
    0.62900E-04         0.56154E-03         0.00000E+00
    0.58971E-04         0.53617E-03         0.00000E+00
    0.54787E-04         0.51332E-03         0.00000E+00
    0.51252E-04         0.49159E-03         0.00000E+00
    0.48570E-04         0.46996E-03         0.00000E+00
    0.46682E-04         0.44778E-03         0.00000E+00
    0.45447E-04         0.42467E-03         0.00000E+00
    0.44716E-04         0.40043E-03         0.00000E+00
    0.44359E-04         0.37498E-03         0.00000E+00
    0.44268E-04         0.34832E-03         0.00000E+00
    0.44358E-04         0.32048E-03         0.00000E+00
    0.44564E-04         0.29153E-03         0.00000E+00
    0.44835E-04         0.26157E-03         0.00000E+00
    0.45133E-04         0.23071E-03         0.00000E+00
    0.45430E-04         0.19906E-03         0.00000E+00
    0.45703E-04         0.16675E-03         0.00000E+00
    0.45940E-04         0.13391E-03         0.00000E+00
    0.46128E-04         0.10067E-03         0.00000E+00
    0.46263E-04         0.67181E-04         0.00000E+00
    0.46343E-04         0.33573E-04         0.00000E+00
    0.46368E-04         0.16758E-04         0.00000E+00
    0.00000E+00         0.62865E-03         0.00000E+00
    0.22010E-04         0.62198E-03         0.00000E+00
    0.39033E-04         0.60533E-03         0.00000E+00
    0.49042E-04         0.58387E-03         0.00000E+00
    0.53191E-04         0.56075E-03         0.00000E+00
    0.53879E-04         0.53784E-03         0.00000E+00
    0.53116E-04         0.51558E-03         0.00000E+00
    0.51976E-04         0.49365E-03         0.00000E+00
    0.50948E-04         0.47155E-03         0.00000E+00
    0.50212E-04         0.44887E-03         0.00000E+00
    0.49795E-04         0.42532E-03         0.00000E+00
    0.49661E-04         0.40074E-03         0.00000E+00
    0.49753E-04         0.37503E-03         0.00000E+00
    0.50010E-04         0.34818E-03         0.00000E+00
    0.50377E-04         0.32021E-03         0.00000E+00
    0.50808E-04         0.29120E-03         0.00000E+00
    0.51263E-04         0.26121E-03         0.00000E+00
    0.51713E-04         0.23035E-03         0.00000E+00
    0.52134E-04         0.19873E-03         0.00000E+00
    0.52509E-04         0.16645E-03         0.00000E+00
    0.52825E-04         0.13367E-03         0.00000E+00
    0.53074E-04         0.10049E-03         0.00000E+00
    0.53251E-04         0.67058E-04         0.00000E+00
    0.53354E-04         0.33513E-04         0.00000E+00
    0.53387E-04         0.16729E-04         0.00000E+00
   -0.21688E-17         0.61046E-03         0.00000E+00
    0.16190E-04         0.60541E-03         0.00000E+00
    0.29885E-04         0.59277E-03         0.00000E+00
    0.39805E-04         0.57597E-03         0.00000E+00
    0.46015E-04         0.55671E-03         0.00000E+00
    0.49445E-04         0.53625E-03         0.00000E+00
    0.51178E-04         0.51522E-03         0.00000E+00
    0.52046E-04         0.49376E-03         0.00000E+00
    0.52557E-04         0.47173E-03         0.00000E+00
    0.52980E-04         0.44893E-03         0.00000E+00
    0.53437E-04         0.42522E-03         0.00000E+00
    0.53969E-04         0.40047E-03         0.00000E+00
    0.54577E-04         0.37463E-03         0.00000E+00
    0.55241E-04         0.34769E-03         0.00000E+00
    0.55933E-04         0.31968E-03         0.00000E+00
    0.56627E-04         0.29064E-03         0.00000E+00
    0.57299E-04         0.26067E-03         0.00000E+00
    0.57925E-04         0.22984E-03         0.00000E+00
    0.58491E-04         0.19827E-03         0.00000E+00
    0.58981E-04         0.16606E-03         0.00000E+00
    0.59388E-04         0.13335E-03         0.00000E+00
    0.59705E-04         0.10025E-03         0.00000E+00
    0.59929E-04         0.66900E-04         0.00000E+00
    0.60060E-04         0.33436E-04         0.00000E+00
    0.60102E-04         0.16692E-04         0.00000E+00
    0.19259E-32         0.59627E-03         0.00000E+00
    0.13077E-04         0.59210E-03         0.00000E+00
    0.24728E-04         0.58172E-03         0.00000E+00
    0.34150E-04         0.56774E-03         0.00000E+00
    0.41169E-04         0.55111E-03         0.00000E+00
    0.46111E-04         0.53267E-03         0.00000E+00
    0.49523E-04         0.51297E-03         0.00000E+00
    0.51935E-04         0.49227E-03         0.00000E+00
    0.53751E-04         0.47062E-03         0.00000E+00
    0.55233E-04         0.44799E-03         0.00000E+00
    0.56537E-04         0.42434E-03         0.00000E+00
    0.57746E-04         0.39960E-03         0.00000E+00
    0.58894E-04         0.37375E-03         0.00000E+00
    0.59994E-04         0.34682E-03         0.00000E+00
    0.61040E-04         0.31883E-03         0.00000E+00
    0.62024E-04         0.28983E-03         0.00000E+00
    0.62932E-04         0.25991E-03         0.00000E+00
    0.63753E-04         0.22916E-03         0.00000E+00
    0.64477E-04         0.19767E-03         0.00000E+00
    0.65096E-04         0.16556E-03         0.00000E+00
    0.65602E-04         0.13294E-03         0.00000E+00
    0.65993E-04         0.99947E-04         0.00000E+00
    0.66269E-04         0.66703E-04         0.00000E+00
    0.66430E-04         0.33340E-04         0.00000E+00
    0.66482E-04         0.16646E-04         0.00000E+00
    0.10379E-17         0.58430E-03         0.00000E+00
    0.11319E-04         0.58068E-03         0.00000E+00
    0.21723E-04         0.57170E-03         0.00000E+00
    0.30694E-04         0.55953E-03         0.00000E+00
    0.38035E-04         0.54475E-03         0.00000E+00
    0.43832E-04         0.52790E-03         0.00000E+00
    0.48348E-04         0.50940E-03         0.00000E+00
    0.51897E-04         0.48953E-03         0.00000E+00
    0.54762E-04         0.46843E-03         0.00000E+00
    0.57159E-04         0.44615E-03         0.00000E+00
    0.59236E-04         0.42271E-03         0.00000E+00
    0.61088E-04         0.39811E-03         0.00000E+00
    0.62768E-04         0.37238E-03         0.00000E+00
    0.64307E-04         0.34555E-03         0.00000E+00
    0.65718E-04         0.31765E-03         0.00000E+00
    0.67003E-04         0.28875E-03         0.00000E+00
    0.68161E-04         0.25894E-03         0.00000E+00
    0.69188E-04         0.22829E-03         0.00000E+00
    0.70080E-04         0.19692E-03         0.00000E+00
    0.70833E-04         0.16494E-03         0.00000E+00
    0.71445E-04         0.13245E-03         0.00000E+00
    0.71916E-04         0.99581E-04         0.00000E+00
    0.72247E-04         0.66463E-04         0.00000E+00
    0.72440E-04         0.33223E-04         0.00000E+00
    0.72502E-04         0.16590E-04         0.00000E+00
    0.00000E+00         0.57363E-03         0.00000E+00
    0.10301E-04         0.57038E-03         0.00000E+00
    0.19949E-04         0.56234E-03         0.00000E+00
    0.28601E-04         0.55142E-03         0.00000E+00
    0.36085E-04         0.53797E-03         0.00000E+00
    0.42396E-04         0.52236E-03         0.00000E+00
    0.47653E-04         0.50491E-03         0.00000E+00
    0.52033E-04         0.48585E-03         0.00000E+00
    0.55723E-04         0.46536E-03         0.00000E+00
    0.58882E-04         0.44352E-03         0.00000E+00
    0.61636E-04         0.42041E-03         0.00000E+00
    0.64074E-04         0.39606E-03         0.00000E+00
    0.66256E-04         0.37053E-03         0.00000E+00
    0.68220E-04         0.34387E-03         0.00000E+00
    0.69989E-04         0.31613E-03         0.00000E+00
    0.71575E-04         0.28739E-03         0.00000E+00
    0.72986E-04         0.25773E-03         0.00000E+00
    0.74222E-04         0.22724E-03         0.00000E+00
    0.75286E-04         0.19602E-03         0.00000E+00
    0.76179E-04         0.16419E-03         0.00000E+00
    0.76900E-04         0.13186E-03         0.00000E+00
    0.77453E-04         0.99146E-04         0.00000E+00
    0.77841E-04         0.66179E-04         0.00000E+00
    0.78068E-04         0.33085E-04         0.00000E+00
    0.78141E-04         0.16522E-04         0.00000E+00
    0.00000E+00         0.56370E-03         0.00000E+00
    0.97111E-05         0.56073E-03         0.00000E+00
    0.18911E-04         0.55340E-03         0.00000E+00
    0.27366E-04         0.54339E-03         0.00000E+00
    0.34937E-04         0.53095E-03         0.00000E+00
    0.41586E-04         0.51633E-03         0.00000E+00
    0.47360E-04         0.49976E-03         0.00000E+00
    0.52355E-04         0.48146E-03         0.00000E+00
    0.56688E-04         0.46158E-03         0.00000E+00
    0.60472E-04         0.44023E-03         0.00000E+00
    0.63804E-04         0.41752E-03         0.00000E+00
    0.66762E-04         0.39349E-03         0.00000E+00
    0.69402E-04         0.36824E-03         0.00000E+00
    0.71764E-04         0.34181E-03         0.00000E+00
    0.73875E-04         0.31429E-03         0.00000E+00
    0.75753E-04         0.28576E-03         0.00000E+00
    0.77410E-04         0.25629E-03         0.00000E+00
    0.78854E-04         0.22599E-03         0.00000E+00
    0.80090E-04         0.19497E-03         0.00000E+00
    0.81121E-04         0.16332E-03         0.00000E+00
    0.81953E-04         0.13117E-03         0.00000E+00
    0.82589E-04         0.98640E-04         0.00000E+00
    0.83034E-04         0.65848E-04         0.00000E+00
    0.83295E-04         0.32924E-04         0.00000E+00
    0.83379E-04         0.16444E-04         0.00000E+00
    0.00000E+00         0.55421E-03         0.00000E+00
    0.93780E-05         0.55146E-03         0.00000E+00
    0.18325E-04         0.54469E-03         0.00000E+00
    0.26676E-04         0.53540E-03         0.00000E+00
    0.34322E-04         0.52375E-03         0.00000E+00
    0.41217E-04         0.50994E-03         0.00000E+00
    0.47369E-04         0.49414E-03         0.00000E+00
    0.52829E-04         0.47653E-03         0.00000E+00
    0.57666E-04         0.45724E-03         0.00000E+00
    0.61960E-04         0.43640E-03         0.00000E+00
    0.65780E-04         0.41412E-03         0.00000E+00
    0.69190E-04         0.39047E-03         0.00000E+00
    0.72238E-04         0.36553E-03         0.00000E+00
    0.74962E-04         0.33940E-03         0.00000E+00
    0.77391E-04         0.31214E-03         0.00000E+00
    0.79545E-04         0.28386E-03         0.00000E+00
    0.81438E-04         0.25463E-03         0.00000E+00
    0.83082E-04         0.22456E-03         0.00000E+00
    0.84485E-04         0.19376E-03         0.00000E+00
    0.85652E-04         0.16233E-03         0.00000E+00
    0.86592E-04         0.13039E-03         0.00000E+00
    0.87310E-04         0.98065E-04         0.00000E+00
    0.87812E-04         0.65473E-04         0.00000E+00
    0.88107E-04         0.32740E-04         0.00000E+00
    0.88201E-04         0.16355E-04         0.00000E+00
    0.00000E+00         0.54495E-03         0.00000E+00
    0.92026E-05         0.54240E-03         0.00000E+00
    0.18021E-04         0.53610E-03         0.00000E+00
    0.26334E-04         0.52740E-03         0.00000E+00
    0.34058E-04         0.51641E-03         0.00000E+00
    0.41144E-04         0.50328E-03         0.00000E+00
    0.47586E-04         0.48815E-03         0.00000E+00
    0.53406E-04         0.47116E-03         0.00000E+00
    0.58644E-04         0.45245E-03         0.00000E+00
    0.63352E-04         0.43212E-03         0.00000E+00
    0.67581E-04         0.41029E-03         0.00000E+00
    0.71379E-04         0.38704E-03         0.00000E+00
    0.74785E-04         0.36247E-03         0.00000E+00
    0.77834E-04         0.33666E-03         0.00000E+00
    0.80552E-04         0.30971E-03         0.00000E+00
    0.82960E-04         0.28171E-03         0.00000E+00
    0.85074E-04         0.25275E-03         0.00000E+00
    0.86906E-04         0.22295E-03         0.00000E+00
    0.88467E-04         0.19240E-03         0.00000E+00
    0.89765E-04         0.16121E-03         0.00000E+00
    0.90809E-04         0.12952E-03         0.00000E+00
    0.91605E-04         0.97420E-04         0.00000E+00
    0.92163E-04         0.65052E-04         0.00000E+00
    0.92490E-04         0.32535E-04         0.00000E+00
    0.92595E-04         0.16255E-04         0.00000E+00
    0.00000E+00         0.53580E-03         0.00000E+00
    0.91238E-05         0.53344E-03         0.00000E+00
    0.17890E-04         0.52756E-03         0.00000E+00
    0.26209E-04         0.51936E-03         0.00000E+00
    0.34013E-04         0.50894E-03         0.00000E+00
    0.41259E-04         0.49641E-03         0.00000E+00
    0.47931E-04         0.48188E-03         0.00000E+00
    0.54036E-04         0.46547E-03         0.00000E+00
    0.59596E-04         0.44729E-03         0.00000E+00
    0.64642E-04         0.42747E-03         0.00000E+00
    0.69211E-04         0.40609E-03         0.00000E+00
    0.73337E-04         0.38326E-03         0.00000E+00
    0.77054E-04         0.35908E-03         0.00000E+00
    0.80388E-04         0.33363E-03         0.00000E+00
    0.83365E-04         0.30702E-03         0.00000E+00
    0.86003E-04         0.27933E-03         0.00000E+00
    0.88319E-04         0.25068E-03         0.00000E+00
    0.90325E-04         0.22117E-03         0.00000E+00
    0.92034E-04         0.19090E-03         0.00000E+00
    0.93454E-04         0.15999E-03         0.00000E+00
    0.94596E-04         0.12855E-03         0.00000E+00
    0.95467E-04         0.96710E-04         0.00000E+00
    0.96077E-04         0.64588E-04         0.00000E+00
    0.96435E-04         0.32308E-04         0.00000E+00
    0.96551E-04         0.16144E-04         0.00000E+00
    0.00000E+00         0.52670E-03         0.00000E+00
    0.91025E-05         0.52451E-03         0.00000E+00
    0.17863E-04         0.51901E-03         0.00000E+00
    0.26214E-04         0.51127E-03         0.00000E+00
    0.34098E-04         0.50136E-03         0.00000E+00
    0.41479E-04         0.48936E-03         0.00000E+00
    0.48338E-04         0.47537E-03         0.00000E+00
    0.54672E-04         0.45950E-03         0.00000E+00
    0.60490E-04         0.44184E-03         0.00000E+00
    0.65812E-04         0.42251E-03         0.00000E+00
    0.70663E-04         0.40159E-03         0.00000E+00
    0.75066E-04         0.37919E-03         0.00000E+00
    0.79048E-04         0.35541E-03         0.00000E+00
    0.82630E-04         0.33035E-03         0.00000E+00
    0.85834E-04         0.30409E-03         0.00000E+00
    0.88677E-04         0.27675E-03         0.00000E+00
    0.91174E-04         0.24843E-03         0.00000E+00
    0.93339E-04         0.21923E-03         0.00000E+00
    0.95182E-04         0.18927E-03         0.00000E+00
    0.96715E-04         0.15865E-03         0.00000E+00
    0.97947E-04         0.12750E-03         0.00000E+00
    0.98887E-04         0.95939E-04         0.00000E+00
    0.99546E-04         0.64084E-04         0.00000E+00
    0.99933E-04         0.32061E-04         0.00000E+00
    0.10006E-03         0.16024E-04         0.00000E+00
    0.00000E+00         0.51760E-03         0.00000E+00
    0.91127E-05         0.51558E-03         0.00000E+00
    0.17893E-04         0.51045E-03         0.00000E+00
    0.26286E-04         0.50313E-03         0.00000E+00
    0.34247E-04         0.49368E-03         0.00000E+00
    0.41743E-04         0.48217E-03         0.00000E+00
    0.48754E-04         0.46869E-03         0.00000E+00
    0.55271E-04         0.45332E-03         0.00000E+00
    0.61299E-04         0.43615E-03         0.00000E+00
    0.66846E-04         0.41729E-03         0.00000E+00
    0.71927E-04         0.39684E-03         0.00000E+00
    0.76562E-04         0.37488E-03         0.00000E+00
    0.80767E-04         0.35151E-03         0.00000E+00
    0.84561E-04         0.32684E-03         0.00000E+00
    0.87962E-04         0.30097E-03         0.00000E+00
    0.90984E-04         0.27399E-03         0.00000E+00
    0.93641E-04         0.24602E-03         0.00000E+00
    0.95946E-04         0.21716E-03         0.00000E+00
    0.97910E-04         0.18752E-03         0.00000E+00
    0.99544E-04         0.15722E-03         0.00000E+00
    0.10086E-03         0.12638E-03         0.00000E+00
    0.10186E-03         0.95111E-04         0.00000E+00
    0.10257E-03         0.63542E-04         0.00000E+00
    0.10298E-03         0.31796E-04         0.00000E+00
    0.10311E-03         0.15894E-04         0.00000E+00
    0.00000E+00         0.50847E-03         0.00000E+00
    0.91366E-05         0.50662E-03         0.00000E+00
    0.17946E-04         0.50184E-03         0.00000E+00
    0.26383E-04         0.49492E-03         0.00000E+00
    0.34412E-04         0.48590E-03         0.00000E+00
    0.42003E-04         0.47486E-03         0.00000E+00
    0.49136E-04         0.46185E-03         0.00000E+00
    0.55801E-04         0.44696E-03         0.00000E+00
    0.61995E-04         0.43027E-03         0.00000E+00
    0.67722E-04         0.41188E-03         0.00000E+00
    0.72992E-04         0.39187E-03         0.00000E+00
    0.77816E-04         0.37035E-03         0.00000E+00
    0.82207E-04         0.34741E-03         0.00000E+00
    0.86179E-04         0.32315E-03         0.00000E+00
    0.89747E-04         0.29767E-03         0.00000E+00
    0.92922E-04         0.27108E-03         0.00000E+00
    0.95718E-04         0.24347E-03         0.00000E+00
    0.98146E-04         0.21496E-03         0.00000E+00
    0.10022E-03         0.18567E-03         0.00000E+00
    0.10194E-03         0.15570E-03         0.00000E+00
    0.10333E-03         0.12518E-03         0.00000E+00
    0.10439E-03         0.94232E-04         0.00000E+00
    0.10513E-03         0.62967E-04         0.00000E+00
    0.10557E-03         0.31514E-04         0.00000E+00
    0.10571E-03         0.15756E-04         0.00000E+00
    0.00000E+00         0.49932E-03         0.00000E+00
    0.91616E-05         0.49763E-03         0.00000E+00
    0.17999E-04         0.49320E-03         0.00000E+00
    0.26475E-04         0.48666E-03         0.00000E+00
    0.34559E-04         0.47806E-03         0.00000E+00
    0.42224E-04         0.46745E-03         0.00000E+00
    0.49452E-04         0.45489E-03         0.00000E+00
    0.56231E-04         0.44046E-03         0.00000E+00
    0.62555E-04         0.42423E-03         0.00000E+00
    0.68425E-04         0.40630E-03         0.00000E+00
    0.73844E-04         0.38674E-03         0.00000E+00
    0.78820E-04         0.36566E-03         0.00000E+00
    0.83363E-04         0.34315E-03         0.00000E+00
    0.87481E-04         0.31930E-03         0.00000E+00
    0.91187E-04         0.29423E-03         0.00000E+00
    0.94492E-04         0.26802E-03         0.00000E+00
    0.97404E-04         0.24080E-03         0.00000E+00
    0.99936E-04         0.21266E-03         0.00000E+00
    0.10210E-03         0.18373E-03         0.00000E+00
    0.10390E-03         0.15411E-03         0.00000E+00
    0.10535E-03         0.12393E-03         0.00000E+00
    0.10646E-03         0.93307E-04         0.00000E+00
    0.10723E-03         0.62362E-04         0.00000E+00
    0.10769E-03         0.31217E-04         0.00000E+00
    0.10784E-03         0.15611E-04         0.00000E+00
    0.00000E+00         0.49015E-03         0.00000E+00
    0.91788E-05         0.48862E-03         0.00000E+00
    0.18035E-04         0.48453E-03         0.00000E+00
    0.26538E-04         0.47836E-03         0.00000E+00
    0.34660E-04         0.47016E-03         0.00000E+00
    0.42378E-04         0.45996E-03         0.00000E+00
    0.49675E-04         0.44784E-03         0.00000E+00
    0.56538E-04         0.43385E-03         0.00000E+00
    0.62960E-04         0.41807E-03         0.00000E+00
    0.68937E-04         0.40059E-03         0.00000E+00
    0.74471E-04         0.38148E-03         0.00000E+00
    0.79566E-04         0.36084E-03         0.00000E+00
    0.84228E-04         0.33875E-03         0.00000E+00
    0.88463E-04         0.31533E-03         0.00000E+00
    0.92281E-04         0.29066E-03         0.00000E+00
    0.95690E-04         0.26486E-03         0.00000E+00
    0.98699E-04         0.23802E-03         0.00000E+00
    0.10132E-03         0.21027E-03         0.00000E+00
    0.10355E-03         0.18171E-03         0.00000E+00
    0.10542E-03         0.15245E-03         0.00000E+00
    0.10692E-03         0.12263E-03         0.00000E+00
    0.10807E-03         0.92345E-04         0.00000E+00
    0.10888E-03         0.61731E-04         0.00000E+00
    0.10936E-03         0.30907E-04         0.00000E+00
    0.10951E-03         0.15459E-04         0.00000E+00
    0.00000E+00         0.48097E-03         0.00000E+00
    0.91816E-05         0.47960E-03         0.00000E+00
    0.18042E-04         0.47584E-03         0.00000E+00
    0.26555E-04         0.47003E-03         0.00000E+00
    0.34696E-04         0.46222E-03         0.00000E+00
    0.42446E-04         0.45243E-03         0.00000E+00
    0.49786E-04         0.44073E-03         0.00000E+00
    0.56704E-04         0.42717E-03         0.00000E+00
    0.63192E-04         0.41183E-03         0.00000E+00
    0.69246E-04         0.39479E-03         0.00000E+00
    0.74863E-04         0.37611E-03         0.00000E+00
    0.80046E-04         0.35591E-03         0.00000E+00
    0.84796E-04         0.33425E-03         0.00000E+00
    0.89121E-04         0.31125E-03         0.00000E+00
    0.93025E-04         0.28700E-03         0.00000E+00
    0.96515E-04         0.26160E-03         0.00000E+00
    0.99600E-04         0.23517E-03         0.00000E+00
    0.10229E-03         0.20781E-03         0.00000E+00
    0.10459E-03         0.17963E-03         0.00000E+00
    0.10650E-03         0.15074E-03         0.00000E+00
    0.10805E-03         0.12128E-03         0.00000E+00
    0.10923E-03         0.91349E-04         0.00000E+00
    0.11007E-03         0.61078E-04         0.00000E+00
    0.11056E-03         0.30587E-04         0.00000E+00
    0.11071E-03         0.15302E-04         0.00000E+00
    0.00000E+00         0.47179E-03         0.00000E+00
    0.91653E-05         0.47058E-03         0.00000E+00
    0.18011E-04         0.46715E-03         0.00000E+00
    0.26514E-04         0.46170E-03         0.00000E+00
    0.34653E-04         0.45427E-03         0.00000E+00
    0.42409E-04         0.44487E-03         0.00000E+00
    0.49767E-04         0.43358E-03         0.00000E+00
    0.56713E-04         0.42045E-03         0.00000E+00
    0.63240E-04         0.40553E-03         0.00000E+00
    0.69340E-04         0.38892E-03         0.00000E+00
    0.75010E-04         0.37068E-03         0.00000E+00
    0.80251E-04         0.35090E-03         0.00000E+00
    0.85064E-04         0.32968E-03         0.00000E+00
    0.89451E-04         0.30710E-03         0.00000E+00
    0.93417E-04         0.28327E-03         0.00000E+00
    0.96967E-04         0.25828E-03         0.00000E+00
    0.10011E-03         0.23225E-03         0.00000E+00
    0.10285E-03         0.20528E-03         0.00000E+00
    0.10519E-03         0.17749E-03         0.00000E+00
    0.10715E-03         0.14899E-03         0.00000E+00
    0.10873E-03         0.11990E-03         0.00000E+00
    0.10994E-03         0.90328E-04         0.00000E+00
    0.11079E-03         0.60408E-04         0.00000E+00
    0.11129E-03         0.30258E-04         0.00000E+00
    0.11145E-03         0.15140E-04         0.00000E+00
    0.00000E+00         0.46263E-03         0.00000E+00
    0.91264E-05         0.46159E-03         0.00000E+00
    0.17935E-04         0.45849E-03         0.00000E+00
    0.26406E-04         0.45339E-03         0.00000E+00
    0.34519E-04         0.44632E-03         0.00000E+00
    0.42258E-04         0.43732E-03         0.00000E+00
    0.49607E-04         0.42642E-03         0.00000E+00
    0.56554E-04         0.41370E-03         0.00000E+00
    0.63091E-04         0.39921E-03         0.00000E+00
    0.69209E-04         0.38301E-03         0.00000E+00
    0.74906E-04         0.36520E-03         0.00000E+00
    0.80178E-04         0.34585E-03         0.00000E+00
    0.85025E-04         0.32505E-03         0.00000E+00
    0.89450E-04         0.30290E-03         0.00000E+00
    0.93455E-04         0.27948E-03         0.00000E+00
    0.97044E-04         0.25491E-03         0.00000E+00
    0.10022E-03         0.22929E-03         0.00000E+00
    0.10300E-03         0.20272E-03         0.00000E+00
    0.10537E-03         0.17532E-03         0.00000E+00
    0.10736E-03         0.14721E-03         0.00000E+00
    0.10896E-03         0.11849E-03         0.00000E+00
    0.11019E-03         0.89288E-04         0.00000E+00
    0.11106E-03         0.59725E-04         0.00000E+00
    0.11157E-03         0.29922E-04         0.00000E+00
    0.11173E-03         0.14975E-04         0.00000E+00
    0.00000E+00         0.45353E-03         0.00000E+00
    0.90622E-05         0.45265E-03         0.00000E+00
    0.17809E-04         0.44987E-03         0.00000E+00
    0.26223E-04         0.44512E-03         0.00000E+00
    0.34286E-04         0.43841E-03         0.00000E+00
    0.41982E-04         0.42979E-03         0.00000E+00
    0.49296E-04         0.41928E-03         0.00000E+00
    0.56219E-04         0.40696E-03         0.00000E+00
    0.62738E-04         0.39288E-03         0.00000E+00
    0.68848E-04         0.37710E-03         0.00000E+00
    0.74543E-04         0.35971E-03         0.00000E+00
    0.79820E-04         0.34078E-03         0.00000E+00
    0.84678E-04         0.32041E-03         0.00000E+00
    0.89118E-04         0.29867E-03         0.00000E+00
    0.93140E-04         0.27567E-03         0.00000E+00
    0.96748E-04         0.25151E-03         0.00000E+00
    0.99946E-04         0.22630E-03         0.00000E+00
    0.10274E-03         0.20013E-03         0.00000E+00
    0.10513E-03         0.17313E-03         0.00000E+00
    0.10714E-03         0.14540E-03         0.00000E+00
    0.10875E-03         0.11706E-03         0.00000E+00
    0.10999E-03         0.88235E-04         0.00000E+00
    0.11087E-03         0.59034E-04         0.00000E+00
    0.11138E-03         0.29582E-04         0.00000E+00
    0.11155E-03         0.14808E-04         0.00000E+00
    0.00000E+00         0.44451E-03         0.00000E+00
    0.89710E-05         0.44378E-03         0.00000E+00
    0.17630E-04         0.44133E-03         0.00000E+00
    0.25961E-04         0.43692E-03         0.00000E+00
    0.33947E-04         0.43056E-03         0.00000E+00
    0.41575E-04         0.42231E-03         0.00000E+00
    0.48829E-04         0.41219E-03         0.00000E+00
    0.55699E-04         0.40026E-03         0.00000E+00
    0.62176E-04         0.38658E-03         0.00000E+00
    0.68251E-04         0.37121E-03         0.00000E+00
    0.73920E-04         0.35423E-03         0.00000E+00
    0.79177E-04         0.33572E-03         0.00000E+00
    0.84022E-04         0.31576E-03         0.00000E+00
    0.88453E-04         0.29444E-03         0.00000E+00
    0.92471E-04         0.27185E-03         0.00000E+00
    0.96079E-04         0.24811E-03         0.00000E+00
    0.99279E-04         0.22330E-03         0.00000E+00
    0.10208E-03         0.19754E-03         0.00000E+00
    0.10447E-03         0.17093E-03         0.00000E+00
    0.10648E-03         0.14359E-03         0.00000E+00
    0.10810E-03         0.11563E-03         0.00000E+00
    0.10935E-03         0.87174E-04         0.00000E+00
    0.11023E-03         0.58337E-04         0.00000E+00
    0.11074E-03         0.29239E-04         0.00000E+00
    0.11091E-03         0.14640E-04         0.00000E+00
    0.00000E+00         0.43559E-03         0.00000E+00
    0.88513E-05         0.43502E-03         0.00000E+00
    0.17395E-04         0.43288E-03         0.00000E+00
    0.25616E-04         0.42880E-03         0.00000E+00
    0.33500E-04         0.42280E-03         0.00000E+00
    0.41032E-04         0.41490E-03         0.00000E+00
    0.48200E-04         0.40516E-03         0.00000E+00
    0.54992E-04         0.39361E-03         0.00000E+00
    0.61400E-04         0.38033E-03         0.00000E+00
    0.67416E-04         0.36536E-03         0.00000E+00
    0.73033E-04         0.34878E-03         0.00000E+00
    0.78247E-04         0.33068E-03         0.00000E+00
    0.83055E-04         0.31113E-03         0.00000E+00
    0.87457E-04         0.29022E-03         0.00000E+00
    0.91451E-04         0.26805E-03         0.00000E+00
    0.95040E-04         0.24471E-03         0.00000E+00
    0.98225E-04         0.22030E-03         0.00000E+00
    0.10101E-03         0.19494E-03         0.00000E+00
    0.10340E-03         0.16872E-03         0.00000E+00
    0.10540E-03         0.14177E-03         0.00000E+00
    0.10702E-03         0.11420E-03         0.00000E+00
    0.10826E-03         0.86113E-04         0.00000E+00
    0.10914E-03         0.57639E-04         0.00000E+00
    0.10966E-03         0.28896E-04         0.00000E+00
    0.10982E-03         0.14471E-04         0.00000E+00
    0.00000E+00         0.42681E-03         0.00000E+00
    0.87025E-05         0.42638E-03         0.00000E+00
    0.17103E-04         0.42456E-03         0.00000E+00
    0.25187E-04         0.42081E-03         0.00000E+00
    0.32941E-04         0.41515E-03         0.00000E+00
    0.40351E-04         0.40761E-03         0.00000E+00
    0.47406E-04         0.39823E-03         0.00000E+00
    0.54096E-04         0.38706E-03         0.00000E+00
    0.60410E-04         0.37415E-03         0.00000E+00
    0.66341E-04         0.35958E-03         0.00000E+00
    0.71882E-04         0.34340E-03         0.00000E+00
    0.77030E-04         0.32569E-03         0.00000E+00
    0.81780E-04         0.30655E-03         0.00000E+00
    0.86131E-04         0.28604E-03         0.00000E+00
    0.90083E-04         0.26427E-03         0.00000E+00
    0.93635E-04         0.24133E-03         0.00000E+00
    0.96789E-04         0.21733E-03         0.00000E+00
    0.99550E-04         0.19236E-03         0.00000E+00
    0.10192E-03         0.16654E-03         0.00000E+00
    0.10391E-03         0.13997E-03         0.00000E+00
    0.10551E-03         0.11277E-03         0.00000E+00
    0.10674E-03         0.85056E-04         0.00000E+00
    0.10761E-03         0.56945E-04         0.00000E+00
    0.10813E-03         0.28554E-04         0.00000E+00
    0.10829E-03         0.14303E-04         0.00000E+00
    0.00000E+00         0.41819E-03         0.00000E+00
    0.85242E-05         0.41791E-03         0.00000E+00
    0.16752E-04         0.41640E-03         0.00000E+00
    0.24672E-04         0.41297E-03         0.00000E+00
    0.32268E-04         0.40764E-03         0.00000E+00
    0.39531E-04         0.40044E-03         0.00000E+00
    0.46448E-04         0.39142E-03         0.00000E+00
    0.53008E-04         0.38061E-03         0.00000E+00
    0.59204E-04         0.36808E-03         0.00000E+00
    0.65026E-04         0.35389E-03         0.00000E+00
    0.70470E-04         0.33810E-03         0.00000E+00
    0.75529E-04         0.32078E-03         0.00000E+00
    0.80200E-04         0.30203E-03         0.00000E+00
    0.84481E-04         0.28192E-03         0.00000E+00
    0.88371E-04         0.26054E-03         0.00000E+00
    0.91869E-04         0.23800E-03         0.00000E+00
    0.94978E-04         0.21439E-03         0.00000E+00
    0.97700E-04         0.18981E-03         0.00000E+00
    0.10004E-03         0.16437E-03         0.00000E+00
    0.10200E-03         0.13818E-03         0.00000E+00
    0.10358E-03         0.11136E-03         0.00000E+00
    0.10480E-03         0.84010E-04         0.00000E+00
    0.10566E-03         0.56257E-04         0.00000E+00
    0.10617E-03         0.28215E-04         0.00000E+00
    0.10633E-03         0.14136E-04         0.00000E+00
    0.00000E+00         0.40976E-03         0.00000E+00
    0.83161E-05         0.40963E-03         0.00000E+00
    0.16344E-04         0.40842E-03         0.00000E+00
    0.24070E-04         0.40530E-03         0.00000E+00
    0.31483E-04         0.40029E-03         0.00000E+00
    0.38571E-04         0.39343E-03         0.00000E+00
    0.45324E-04         0.38475E-03         0.00000E+00
    0.51731E-04         0.37430E-03         0.00000E+00
    0.57784E-04         0.36213E-03         0.00000E+00
    0.63475E-04         0.34831E-03         0.00000E+00
    0.68797E-04         0.33290E-03         0.00000E+00
    0.73746E-04         0.31596E-03         0.00000E+00
    0.78318E-04         0.29759E-03         0.00000E+00
    0.82510E-04         0.27787E-03         0.00000E+00
    0.86321E-04         0.25688E-03         0.00000E+00
    0.89750E-04         0.23473E-03         0.00000E+00
    0.92798E-04         0.21150E-03         0.00000E+00
    0.95468E-04         0.18730E-03         0.00000E+00
    0.97762E-04         0.16224E-03         0.00000E+00
    0.99685E-04         0.13642E-03         0.00000E+00
    0.10124E-03         0.10997E-03         0.00000E+00
    0.10244E-03         0.82980E-04         0.00000E+00
    0.10328E-03         0.55579E-04         0.00000E+00
    0.10378E-03         0.27881E-04         0.00000E+00
    0.10394E-03         0.13972E-04         0.00000E+00
    0.00000E+00         0.40155E-03         0.00000E+00
    0.80786E-05         0.40157E-03         0.00000E+00
    0.15877E-04         0.40065E-03         0.00000E+00
    0.23383E-04         0.39783E-03         0.00000E+00
    0.30586E-04         0.39313E-03         0.00000E+00
    0.37474E-04         0.38660E-03         0.00000E+00
    0.44037E-04         0.37826E-03         0.00000E+00
    0.50266E-04         0.36815E-03         0.00000E+00
    0.56153E-04         0.35634E-03         0.00000E+00
    0.61690E-04         0.34287E-03         0.00000E+00
    0.66870E-04         0.32782E-03         0.00000E+00
    0.71689E-04         0.31126E-03         0.00000E+00
    0.76142E-04         0.29326E-03         0.00000E+00
    0.80226E-04         0.27392E-03         0.00000E+00
    0.83941E-04         0.25330E-03         0.00000E+00
    0.87284E-04         0.23152E-03         0.00000E+00
    0.90258E-04         0.20867E-03         0.00000E+00
    0.92863E-04         0.18484E-03         0.00000E+00
    0.95103E-04         0.16015E-03         0.00000E+00
    0.96980E-04         0.13470E-03         0.00000E+00
    0.98501E-04         0.10860E-03         0.00000E+00
    0.99670E-04         0.81970E-04         0.00000E+00
    0.10049E-03         0.54915E-04         0.00000E+00
    0.10098E-03         0.27554E-04         0.00000E+00
    0.10114E-03         0.13811E-04         0.00000E+00
    0.00000E+00         0.39360E-03         0.00000E+00
    0.78119E-05         0.39375E-03         0.00000E+00
    0.15353E-04         0.39311E-03         0.00000E+00
    0.22612E-04         0.39059E-03         0.00000E+00
    0.29577E-04         0.38620E-03         0.00000E+00
    0.36240E-04         0.37998E-03         0.00000E+00
    0.42590E-04         0.37196E-03         0.00000E+00
    0.48618E-04         0.36218E-03         0.00000E+00
    0.54316E-04         0.35071E-03         0.00000E+00
    0.59676E-04         0.33759E-03         0.00000E+00
    0.64693E-04         0.32290E-03         0.00000E+00
    0.69361E-04         0.30669E-03         0.00000E+00
    0.73677E-04         0.28906E-03         0.00000E+00
    0.77636E-04         0.27007E-03         0.00000E+00
    0.81239E-04         0.24982E-03         0.00000E+00
    0.84482E-04         0.22841E-03         0.00000E+00
    0.87368E-04         0.20592E-03         0.00000E+00
    0.89897E-04         0.18245E-03         0.00000E+00
    0.92072E-04         0.15812E-03         0.00000E+00
    0.93895E-04         0.13303E-03         0.00000E+00
    0.95372E-04         0.10728E-03         0.00000E+00
    0.96508E-04         0.80986E-04         0.00000E+00
    0.97309E-04         0.54268E-04         0.00000E+00
    0.97783E-04         0.27235E-04         0.00000E+00
    0.97937E-04         0.13654E-04         0.00000E+00
    0.00000E+00         0.38593E-03         0.00000E+00
    0.75169E-05         0.38622E-03         0.00000E+00
    0.14773E-04         0.38585E-03         0.00000E+00
    0.21758E-04         0.38360E-03         0.00000E+00
    0.28461E-04         0.37951E-03         0.00000E+00
    0.34874E-04         0.37359E-03         0.00000E+00
    0.40986E-04         0.36588E-03         0.00000E+00
    0.46790E-04         0.35643E-03         0.00000E+00
    0.52276E-04         0.34528E-03         0.00000E+00
    0.57440E-04         0.33250E-03         0.00000E+00
    0.62273E-04         0.31814E-03         0.00000E+00
    0.66772E-04         0.30228E-03         0.00000E+00
    0.70932E-04         0.28499E-03         0.00000E+00
    0.74750E-04         0.26635E-03         0.00000E+00
    0.78225E-04         0.24646E-03         0.00000E+00
    0.81355E-04         0.22539E-03         0.00000E+00
    0.84139E-04         0.20325E-03         0.00000E+00
    0.86581E-04         0.18014E-03         0.00000E+00
    0.88680E-04         0.15615E-03         0.00000E+00
    0.90442E-04         0.13140E-03         0.00000E+00
    0.91869E-04         0.10599E-03         0.00000E+00
    0.92966E-04         0.80033E-04         0.00000E+00
    0.93740E-04         0.53640E-04         0.00000E+00
    0.94198E-04         0.26925E-04         0.00000E+00
    0.94348E-04         0.13502E-04         0.00000E+00
    0.00000E+00         0.37857E-03         0.00000E+00
    0.71942E-05         0.37898E-03         0.00000E+00
    0.14139E-04         0.37887E-03         0.00000E+00
    0.20824E-04         0.37690E-03         0.00000E+00
    0.27241E-04         0.37308E-03         0.00000E+00
    0.33379E-04         0.36745E-03         0.00000E+00
    0.39231E-04         0.36004E-03         0.00000E+00
    0.44788E-04         0.35089E-03         0.00000E+00
    0.50042E-04         0.34006E-03         0.00000E+00
    0.54988E-04         0.32760E-03         0.00000E+00
    0.59619E-04         0.31357E-03         0.00000E+00
    0.63930E-04         0.29803E-03         0.00000E+00
    0.67918E-04         0.28108E-03         0.00000E+00
    0.71579E-04         0.26278E-03         0.00000E+00
    0.74911E-04         0.24322E-03         0.00000E+00
    0.77913E-04         0.22249E-03         0.00000E+00
    0.80585E-04         0.20069E-03         0.00000E+00
    0.82928E-04         0.17791E-03         0.00000E+00
    0.84943E-04         0.15426E-03         0.00000E+00
    0.86634E-04         0.12984E-03         0.00000E+00
    0.88004E-04         0.10475E-03         0.00000E+00
    0.89058E-04         0.79115E-04         0.00000E+00
    0.89802E-04         0.53035E-04         0.00000E+00
    0.90242E-04         0.26627E-04         0.00000E+00
    0.90386E-04         0.13355E-04         0.00000E+00
    0.00000E+00         0.37154E-03         0.00000E+00
    0.68449E-05         0.37208E-03         0.00000E+00
    0.13452E-04         0.37222E-03         0.00000E+00
    0.19813E-04         0.37050E-03         0.00000E+00
    0.25919E-04         0.36695E-03         0.00000E+00
    0.31760E-04         0.36160E-03         0.00000E+00
    0.37329E-04         0.35447E-03         0.00000E+00
    0.42618E-04         0.34561E-03         0.00000E+00
    0.47620E-04         0.33508E-03         0.00000E+00
    0.52329E-04         0.32292E-03         0.00000E+00
    0.56739E-04         0.30920E-03         0.00000E+00
    0.60846E-04         0.29398E-03         0.00000E+00
    0.64645E-04         0.27734E-03         0.00000E+00
    0.68133E-04         0.25936E-03         0.00000E+00
    0.71309E-04         0.24012E-03         0.00000E+00
    0.74170E-04         0.21972E-03         0.00000E+00
    0.76718E-04         0.19824E-03         0.00000E+00
    0.78952E-04         0.17578E-03         0.00000E+00
    0.80875E-04         0.15245E-03         0.00000E+00
    0.82488E-04         0.12834E-03         0.00000E+00
    0.83795E-04         0.10357E-03         0.00000E+00
    0.84801E-04         0.78235E-04         0.00000E+00
    0.85511E-04         0.52456E-04         0.00000E+00
    0.85931E-04         0.26342E-04         0.00000E+00
    0.86068E-04         0.13215E-04         0.00000E+00
    0.64816E-18         0.36488E-03         0.00000E+00
    0.64701E-05         0.36553E-03         0.00000E+00
    0.12716E-04         0.36590E-03         0.00000E+00
    0.18728E-04         0.36443E-03         0.00000E+00
    0.24500E-04         0.36114E-03         0.00000E+00
    0.30022E-04         0.35604E-03         0.00000E+00
    0.35288E-04         0.34918E-03         0.00000E+00
    0.40289E-04         0.34060E-03         0.00000E+00
    0.45019E-04         0.33035E-03         0.00000E+00
    0.49473E-04         0.31848E-03         0.00000E+00
    0.53645E-04         0.30505E-03         0.00000E+00
    0.57530E-04         0.29013E-03         0.00000E+00
    0.61125E-04         0.27379E-03         0.00000E+00
    0.64426E-04         0.25612E-03         0.00000E+00
    0.67432E-04         0.23718E-03         0.00000E+00
    0.70141E-04         0.21708E-03         0.00000E+00
    0.72554E-04         0.19591E-03         0.00000E+00
    0.74670E-04         0.17376E-03         0.00000E+00
    0.76491E-04         0.15072E-03         0.00000E+00
    0.78019E-04         0.12692E-03         0.00000E+00
    0.79258E-04         0.10244E-03         0.00000E+00
    0.80211E-04         0.77399E-04         0.00000E+00
    0.80884E-04         0.51906E-04         0.00000E+00
    0.81282E-04         0.26070E-04         0.00000E+00
    0.81412E-04         0.13081E-04         0.00000E+00
    0.90519E-32         0.35860E-03         0.00000E+00
    0.60711E-05         0.35936E-03         0.00000E+00
    0.11932E-04         0.35996E-03         0.00000E+00
    0.17574E-04         0.35872E-03         0.00000E+00
    0.22990E-04         0.35566E-03         0.00000E+00
    0.28172E-04         0.35081E-03         0.00000E+00
    0.33114E-04         0.34420E-03         0.00000E+00
    0.37808E-04         0.33588E-03         0.00000E+00
    0.42248E-04         0.32589E-03         0.00000E+00
    0.46429E-04         0.31429E-03         0.00000E+00
    0.50346E-04         0.30114E-03         0.00000E+00
    0.53995E-04         0.28650E-03         0.00000E+00
    0.57371E-04         0.27044E-03         0.00000E+00
    0.60472E-04         0.25305E-03         0.00000E+00
    0.63296E-04         0.23441E-03         0.00000E+00
    0.65842E-04         0.21460E-03         0.00000E+00
    0.68109E-04         0.19371E-03         0.00000E+00
    0.70098E-04         0.17185E-03         0.00000E+00
    0.71810E-04         0.14910E-03         0.00000E+00
    0.73246E-04         0.12557E-03         0.00000E+00
    0.74411E-04         0.10137E-03         0.00000E+00
    0.75308E-04         0.76609E-04         0.00000E+00
    0.75941E-04         0.51386E-04         0.00000E+00
    0.76315E-04         0.25814E-04         0.00000E+00
    0.76437E-04         0.12955E-04         0.00000E+00
   -0.62659E-18         0.35274E-03         0.00000E+00
    0.56493E-05         0.35360E-03         0.00000E+00
    0.11103E-04         0.35440E-03         0.00000E+00
    0.16353E-04         0.35337E-03         0.00000E+00
    0.21393E-04         0.35054E-03         0.00000E+00
    0.26216E-04         0.34592E-03         0.00000E+00
    0.30815E-04         0.33955E-03         0.00000E+00
    0.35184E-04         0.33147E-03         0.00000E+00
    0.39317E-04         0.32173E-03         0.00000E+00
    0.43209E-04         0.31038E-03         0.00000E+00
    0.46856E-04         0.29748E-03         0.00000E+00
    0.50253E-04         0.28310E-03         0.00000E+00
    0.53397E-04         0.26731E-03         0.00000E+00
    0.56285E-04         0.25019E-03         0.00000E+00
    0.58916E-04         0.23181E-03         0.00000E+00
    0.61288E-04         0.21227E-03         0.00000E+00
    0.63400E-04         0.19165E-03         0.00000E+00
    0.65253E-04         0.17006E-03         0.00000E+00
    0.66849E-04         0.14758E-03         0.00000E+00
    0.68188E-04         0.12432E-03         0.00000E+00
    0.69274E-04         0.10038E-03         0.00000E+00
    0.70110E-04         0.75870E-04         0.00000E+00
    0.70700E-04         0.50898E-04         0.00000E+00
    0.71049E-04         0.25574E-04         0.00000E+00
    0.71163E-04         0.12837E-04         0.00000E+00
    0.00000E+00         0.34730E-03         0.00000E+00
    0.52063E-05         0.34826E-03         0.00000E+00
    0.10232E-04         0.34925E-03         0.00000E+00
    0.15071E-04         0.34843E-03         0.00000E+00
    0.19716E-04         0.34579E-03         0.00000E+00
    0.24161E-04         0.34139E-03         0.00000E+00
    0.28399E-04         0.33523E-03         0.00000E+00
    0.32427E-04         0.32738E-03         0.00000E+00
    0.36237E-04         0.31787E-03         0.00000E+00
    0.39825E-04         0.30675E-03         0.00000E+00
    0.43187E-04         0.29410E-03         0.00000E+00
    0.46320E-04         0.27996E-03         0.00000E+00
    0.49219E-04         0.26441E-03         0.00000E+00
    0.51883E-04         0.24754E-03         0.00000E+00
    0.54309E-04         0.22941E-03         0.00000E+00
    0.56497E-04         0.21011E-03         0.00000E+00
    0.58446E-04         0.18975E-03         0.00000E+00
    0.60156E-04         0.16840E-03         0.00000E+00
    0.61628E-04         0.14616E-03         0.00000E+00
    0.62864E-04         0.12315E-03         0.00000E+00
    0.63866E-04         0.99453E-04         0.00000E+00
    0.64638E-04         0.75183E-04         0.00000E+00
    0.65183E-04         0.50446E-04         0.00000E+00
    0.65505E-04         0.25351E-04         0.00000E+00
    0.65610E-04         0.12727E-04         0.00000E+00
    0.00000E+00         0.34232E-03         0.00000E+00
    0.47436E-05         0.34337E-03         0.00000E+00
    0.93227E-05         0.34454E-03         0.00000E+00
    0.13731E-04         0.34389E-03         0.00000E+00
    0.17964E-04         0.34145E-03         0.00000E+00
    0.22014E-04         0.33723E-03         0.00000E+00
    0.25877E-04         0.33128E-03         0.00000E+00
    0.29546E-04         0.32363E-03         0.00000E+00
    0.33019E-04         0.31433E-03         0.00000E+00
    0.36289E-04         0.30343E-03         0.00000E+00
    0.39354E-04         0.29099E-03         0.00000E+00
    0.42209E-04         0.27707E-03         0.00000E+00
    0.44852E-04         0.26175E-03         0.00000E+00
    0.47281E-04         0.24510E-03         0.00000E+00
    0.49493E-04         0.22720E-03         0.00000E+00
    0.51488E-04         0.20813E-03         0.00000E+00
    0.53266E-04         0.18799E-03         0.00000E+00
    0.54825E-04         0.16687E-03         0.00000E+00
    0.56168E-04         0.14487E-03         0.00000E+00
    0.57296E-04         0.12208E-03         0.00000E+00
    0.58210E-04         0.98604E-04         0.00000E+00
    0.58914E-04         0.74553E-04         0.00000E+00
    0.59411E-04         0.50032E-04         0.00000E+00
    0.59705E-04         0.25146E-04         0.00000E+00
    0.59801E-04         0.12626E-04         0.00000E+00
    0.00000E+00         0.33782E-03         0.00000E+00
    0.42629E-05         0.33894E-03         0.00000E+00
    0.83781E-05         0.34027E-03         0.00000E+00
    0.12340E-04         0.33978E-03         0.00000E+00
    0.16144E-04         0.33751E-03         0.00000E+00
    0.19784E-04         0.33347E-03         0.00000E+00
    0.23255E-04         0.32770E-03         0.00000E+00
    0.26554E-04         0.32024E-03         0.00000E+00
    0.29675E-04         0.31113E-03         0.00000E+00
    0.32615E-04         0.30042E-03         0.00000E+00
    0.35370E-04         0.28818E-03         0.00000E+00
    0.37937E-04         0.27446E-03         0.00000E+00
    0.40313E-04         0.25934E-03         0.00000E+00
    0.42497E-04         0.24289E-03         0.00000E+00
    0.44487E-04         0.22520E-03         0.00000E+00
    0.46281E-04         0.20634E-03         0.00000E+00
    0.47879E-04         0.18641E-03         0.00000E+00
    0.49282E-04         0.16549E-03         0.00000E+00
    0.50490E-04         0.14369E-03         0.00000E+00
    0.51504E-04         0.12111E-03         0.00000E+00
    0.52327E-04         0.97835E-04         0.00000E+00
    0.52960E-04         0.73983E-04         0.00000E+00
    0.53407E-04         0.49655E-04         0.00000E+00
    0.53672E-04         0.24961E-04         0.00000E+00
    0.53758E-04         0.12535E-04         0.00000E+00
    0.00000E+00         0.33380E-03         0.00000E+00
    0.37662E-05         0.33499E-03         0.00000E+00
    0.74018E-05         0.33646E-03         0.00000E+00
    0.10902E-04         0.33612E-03         0.00000E+00
    0.14263E-04         0.33400E-03         0.00000E+00
    0.17479E-04         0.33012E-03         0.00000E+00
    0.20546E-04         0.32451E-03         0.00000E+00
    0.23461E-04         0.31721E-03         0.00000E+00
    0.26218E-04         0.30827E-03         0.00000E+00
    0.28816E-04         0.29773E-03         0.00000E+00
    0.31251E-04         0.28567E-03         0.00000E+00
    0.33519E-04         0.27213E-03         0.00000E+00
    0.35620E-04         0.25719E-03         0.00000E+00
    0.37550E-04         0.24093E-03         0.00000E+00
    0.39308E-04         0.22342E-03         0.00000E+00
    0.40894E-04         0.20474E-03         0.00000E+00
    0.42308E-04         0.18499E-03         0.00000E+00
    0.43548E-04         0.16426E-03         0.00000E+00
    0.44616E-04         0.14265E-03         0.00000E+00
    0.45513E-04         0.12024E-03         0.00000E+00
    0.46240E-04         0.97148E-04         0.00000E+00
    0.46800E-04         0.73473E-04         0.00000E+00
    0.47196E-04         0.49320E-04         0.00000E+00
    0.47430E-04         0.24795E-04         0.00000E+00
    0.47506E-04         0.12453E-04         0.00000E+00
    0.00000E+00         0.33028E-03         0.00000E+00
    0.32551E-05         0.33153E-03         0.00000E+00
    0.63974E-05         0.33313E-03         0.00000E+00
    0.94228E-05         0.33292E-03         0.00000E+00
    0.12327E-04         0.33094E-03         0.00000E+00
    0.15107E-04         0.32719E-03         0.00000E+00
    0.17758E-04         0.32172E-03         0.00000E+00
    0.20278E-04         0.31457E-03         0.00000E+00
    0.22662E-04         0.30577E-03         0.00000E+00
    0.24907E-04         0.29539E-03         0.00000E+00
    0.27012E-04         0.28347E-03         0.00000E+00
    0.28973E-04         0.27009E-03         0.00000E+00
    0.30789E-04         0.25531E-03         0.00000E+00
    0.32458E-04         0.23921E-03         0.00000E+00
    0.33979E-04         0.22185E-03         0.00000E+00
    0.35350E-04         0.20334E-03         0.00000E+00
    0.36572E-04         0.18376E-03         0.00000E+00
    0.37645E-04         0.16319E-03         0.00000E+00
    0.38569E-04         0.14173E-03         0.00000E+00
    0.39344E-04         0.11948E-03         0.00000E+00
    0.39973E-04         0.96547E-04         0.00000E+00
    0.40458E-04         0.73027E-04         0.00000E+00
    0.40800E-04         0.49026E-04         0.00000E+00
    0.41002E-04         0.24650E-04         0.00000E+00
    0.41069E-04         0.12382E-04         0.00000E+00
    0.00000E+00         0.32729E-03         0.00000E+00
    0.27317E-05         0.32859E-03         0.00000E+00
    0.53688E-05         0.33029E-03         0.00000E+00
    0.79077E-05         0.33019E-03         0.00000E+00
    0.10345E-04         0.32832E-03         0.00000E+00
    0.12678E-04         0.32469E-03         0.00000E+00
    0.14903E-04         0.31934E-03         0.00000E+00
    0.17018E-04         0.31231E-03         0.00000E+00
    0.19019E-04         0.30364E-03         0.00000E+00
    0.20903E-04         0.29338E-03         0.00000E+00
    0.22670E-04         0.28160E-03         0.00000E+00
    0.24316E-04         0.26835E-03         0.00000E+00
    0.25841E-04         0.25371E-03         0.00000E+00
    0.27242E-04         0.23774E-03         0.00000E+00
    0.28518E-04         0.22052E-03         0.00000E+00
    0.29670E-04         0.20215E-03         0.00000E+00
    0.30696E-04         0.18270E-03         0.00000E+00
    0.31596E-04         0.16227E-03         0.00000E+00
    0.32372E-04         0.14095E-03         0.00000E+00
    0.33023E-04         0.11884E-03         0.00000E+00
    0.33551E-04         0.96035E-04         0.00000E+00
    0.33958E-04         0.72647E-04         0.00000E+00
    0.34245E-04         0.48775E-04         0.00000E+00
    0.34415E-04         0.24527E-04         0.00000E+00
    0.34471E-04         0.12321E-04         0.00000E+00
    0.00000E+00         0.32482E-03         0.00000E+00
    0.21979E-05         0.32617E-03         0.00000E+00
    0.43197E-05         0.32795E-03         0.00000E+00
    0.63626E-05         0.32795E-03         0.00000E+00
    0.83239E-05         0.32616E-03         0.00000E+00
    0.10201E-04         0.32263E-03         0.00000E+00
    0.11991E-04         0.31738E-03         0.00000E+00
    0.13693E-04         0.31045E-03         0.00000E+00
    0.15303E-04         0.30188E-03         0.00000E+00
    0.16820E-04         0.29174E-03         0.00000E+00
    0.18241E-04         0.28006E-03         0.00000E+00
    0.19566E-04         0.26692E-03         0.00000E+00
    0.20793E-04         0.25239E-03         0.00000E+00
    0.21920E-04         0.23653E-03         0.00000E+00
    0.22948E-04         0.21943E-03         0.00000E+00
    0.23874E-04         0.20116E-03         0.00000E+00
    0.24700E-04         0.18183E-03         0.00000E+00
    0.25425E-04         0.16151E-03         0.00000E+00
    0.26049E-04         0.14030E-03         0.00000E+00
    0.26574E-04         0.11830E-03         0.00000E+00
    0.26999E-04         0.95612E-04         0.00000E+00
    0.27326E-04         0.72333E-04         0.00000E+00
    0.27558E-04         0.48569E-04         0.00000E+00
    0.27694E-04         0.24425E-04         0.00000E+00
    0.27739E-04         0.12271E-04         0.00000E+00
    0.00000E+00         0.32289E-03         0.00000E+00
    0.16558E-05         0.32427E-03         0.00000E+00
    0.32542E-05         0.32613E-03         0.00000E+00
    0.47932E-05         0.32619E-03         0.00000E+00
    0.62708E-05         0.32448E-03         0.00000E+00
    0.76849E-05         0.32102E-03         0.00000E+00
    0.90338E-05         0.31585E-03         0.00000E+00
    0.10316E-04         0.30900E-03         0.00000E+00
    0.11529E-04         0.30051E-03         0.00000E+00
    0.12671E-04         0.29045E-03         0.00000E+00
    0.13742E-04         0.27885E-03         0.00000E+00
    0.14741E-04         0.26580E-03         0.00000E+00
    0.15665E-04         0.25135E-03         0.00000E+00
    0.16514E-04         0.23558E-03         0.00000E+00
    0.17288E-04         0.21857E-03         0.00000E+00
    0.17987E-04         0.20040E-03         0.00000E+00
    0.18609E-04         0.18115E-03         0.00000E+00
    0.19155E-04         0.16092E-03         0.00000E+00
    0.19626E-04         0.13980E-03         0.00000E+00
    0.20021E-04         0.11789E-03         0.00000E+00
    0.20341E-04         0.95282E-04         0.00000E+00
    0.20588E-04         0.72088E-04         0.00000E+00
    0.20763E-04         0.48407E-04         0.00000E+00
    0.20866E-04         0.24345E-04         0.00000E+00
    0.20899E-04         0.12232E-04         0.00000E+00
    0.00000E+00         0.32151E-03         0.00000E+00
    0.11074E-05         0.32291E-03         0.00000E+00
    0.21764E-05         0.32482E-03         0.00000E+00
    0.32057E-05         0.32493E-03         0.00000E+00
    0.41938E-05         0.32327E-03         0.00000E+00
    0.51396E-05         0.31987E-03         0.00000E+00
    0.60417E-05         0.31475E-03         0.00000E+00
    0.68990E-05         0.30796E-03         0.00000E+00
    0.77103E-05         0.29953E-03         0.00000E+00
    0.84746E-05         0.28952E-03         0.00000E+00
    0.91909E-05         0.27799E-03         0.00000E+00
    0.98586E-05         0.26500E-03         0.00000E+00
    0.10477E-04         0.25061E-03         0.00000E+00
    0.11045E-04         0.23490E-03         0.00000E+00
    0.11563E-04         0.21795E-03         0.00000E+00
    0.12030E-04         0.19984E-03         0.00000E+00
    0.12446E-04         0.18066E-03         0.00000E+00
    0.12812E-04         0.16049E-03         0.00000E+00
    0.13126E-04         0.13944E-03         0.00000E+00
    0.13391E-04         0.11759E-03         0.00000E+00
    0.13605E-04         0.95045E-04         0.00000E+00
    0.13770E-04         0.71912E-04         0.00000E+00
    0.13887E-04         0.48291E-04         0.00000E+00
    0.13956E-04         0.24288E-04         0.00000E+00
    0.13978E-04         0.12203E-04         0.00000E+00
    0.00000E+00         0.32068E-03         0.00000E+00
    0.55474E-06         0.32209E-03         0.00000E+00
    0.10903E-05         0.32403E-03         0.00000E+00
    0.16059E-05         0.32417E-03         0.00000E+00
    0.21009E-05         0.32255E-03         0.00000E+00
    0.25747E-05         0.31917E-03         0.00000E+00
    0.30266E-05         0.31409E-03         0.00000E+00
    0.34561E-05         0.30733E-03         0.00000E+00
    0.38625E-05         0.29894E-03         0.00000E+00
    0.42454E-05         0.28897E-03         0.00000E+00
    0.46043E-05         0.27747E-03         0.00000E+00
    0.49388E-05         0.26451E-03         0.00000E+00
    0.52485E-05         0.25017E-03         0.00000E+00
    0.55332E-05         0.23450E-03         0.00000E+00
    0.57926E-05         0.21758E-03         0.00000E+00
    0.60266E-05         0.19951E-03         0.00000E+00
    0.62351E-05         0.18037E-03         0.00000E+00
    0.64182E-05         0.16024E-03         0.00000E+00
    0.65759E-05         0.13922E-03         0.00000E+00
    0.67083E-05         0.11741E-03         0.00000E+00
    0.68157E-05         0.94902E-04         0.00000E+00
    0.68985E-05         0.71806E-04         0.00000E+00
    0.69569E-05         0.48221E-04         0.00000E+00
    0.69915E-05         0.24253E-04         0.00000E+00
    0.70028E-05         0.12187E-04         0.00000E+00
    0.00000E+00         0.32040E-03         0.00000E+00
    0.27764E-06         0.32182E-03         0.00000E+00
    0.54565E-06         0.32377E-03         0.00000E+00
    0.80371E-06         0.32392E-03         0.00000E+00
    0.10515E-05         0.32230E-03         0.00000E+00
    0.12886E-05         0.31894E-03         0.00000E+00
    0.15148E-05         0.31387E-03         0.00000E+00
    0.17297E-05         0.30712E-03         0.00000E+00
    0.19331E-05         0.29874E-03         0.00000E+00
    0.21247E-05         0.28878E-03         0.00000E+00
    0.23044E-05         0.27730E-03         0.00000E+00
    0.24718E-05         0.26435E-03         0.00000E+00
    0.26268E-05         0.25002E-03         0.00000E+00
    0.27692E-05         0.23436E-03         0.00000E+00
    0.28991E-05         0.21746E-03         0.00000E+00
    0.30162E-05         0.19940E-03         0.00000E+00
    0.31206E-05         0.18027E-03         0.00000E+00
    0.32122E-05         0.16015E-03         0.00000E+00
    0.32911E-05         0.13915E-03         0.00000E+00
    0.33574E-05         0.11735E-03         0.00000E+00
    0.34112E-05         0.94855E-04         0.00000E+00
    0.34526E-05         0.71771E-04         0.00000E+00
    0.34818E-05         0.48198E-04         0.00000E+00
    0.34991E-05         0.24242E-04         0.00000E+00
    0.35048E-05         0.12181E-04         0.00000E+00
CELL_DATA       1152
TENSORS stressef double 
   -0.69032E+05         0.61808E+03         0.00000E+00
    0.61808E+03        -0.99173E+05         0.00000E+00
    0.00000E+00         0.00000E+00        -0.50461E+05
 
   -0.35797E+05         0.35669E+04         0.00000E+00
    0.35669E+04        -0.94876E+05         0.00000E+00
    0.00000E+00         0.00000E+00        -0.39202E+05
 
   -0.16104E+05         0.53459E+04         0.00000E+00
    0.53459E+04        -0.85110E+05         0.00000E+00
    0.00000E+00         0.00000E+00        -0.30364E+05
 
   -0.63671E+04         0.51466E+04         0.00000E+00
    0.51466E+04        -0.74518E+05         0.00000E+00
    0.00000E+00         0.00000E+00        -0.24266E+05
 
   -0.15744E+04         0.43649E+04         0.00000E+00
    0.43649E+04        -0.65153E+05         0.00000E+00
    0.00000E+00         0.00000E+00        -0.20018E+05
 
    0.82325E+03         0.35672E+04         0.00000E+00
    0.35672E+04        -0.57373E+05         0.00000E+00
    0.00000E+00         0.00000E+00        -0.16965E+05
 
    0.20038E+04         0.28924E+04         0.00000E+00
    0.28924E+04        -0.51023E+05         0.00000E+00
    0.00000E+00         0.00000E+00        -0.14706E+05
 
    0.25342E+04         0.23532E+04         0.00000E+00
    0.23532E+04        -0.45847E+05         0.00000E+00
    0.00000E+00         0.00000E+00        -0.12994E+05
 
    0.26984E+04         0.19288E+04         0.00000E+00
    0.19288E+04        -0.41603E+05         0.00000E+00
    0.00000E+00         0.00000E+00        -0.11671E+05
 
    0.26448E+04         0.15944E+04         0.00000E+00
    0.15944E+04        -0.38096E+05         0.00000E+00
    0.00000E+00         0.00000E+00        -0.10635E+05
 
    0.24536E+04         0.13293E+04         0.00000E+00
    0.13293E+04        -0.35175E+05         0.00000E+00
    0.00000E+00         0.00000E+00        -0.98163E+04
 
    0.21685E+04         0.11171E+04         0.00000E+00
    0.11171E+04        -0.32721E+05         0.00000E+00
    0.00000E+00         0.00000E+00        -0.91658E+04
 
    0.18128E+04         0.94570E+03         0.00000E+00
    0.94570E+03        -0.30645E+05         0.00000E+00
    0.00000E+00         0.00000E+00        -0.86498E+04
 
    0.13980E+04         0.80623E+03         0.00000E+00
    0.80623E+03        -0.28877E+05         0.00000E+00
    0.00000E+00         0.00000E+00        -0.82438E+04
 
    0.92769E+03         0.69209E+03         0.00000E+00
    0.69209E+03        -0.27361E+05         0.00000E+00
    0.00000E+00         0.00000E+00        -0.79300E+04
 
    0.40029E+03         0.59846E+03         0.00000E+00
    0.59846E+03        -0.26052E+05         0.00000E+00
    0.00000E+00         0.00000E+00        -0.76957E+04
 
   -0.18985E+03         0.52187E+03         0.00000E+00
    0.52187E+03        -0.24915E+05         0.00000E+00
    0.00000E+00         0.00000E+00        -0.75314E+04
 
   -0.85197E+03         0.45988E+03         0.00000E+00
    0.45988E+03        -0.23917E+05         0.00000E+00
    0.00000E+00         0.00000E+00        -0.74307E+04
 
   -0.15988E+04         0.41087E+03         0.00000E+00
    0.41087E+03        -0.23032E+05         0.00000E+00
    0.00000E+00         0.00000E+00        -0.73892E+04
 
   -0.24468E+04         0.37399E+03         0.00000E+00
    0.37399E+03        -0.22235E+05         0.00000E+00
    0.00000E+00         0.00000E+00        -0.74046E+04
 
   -0.34170E+04         0.34900E+03         0.00000E+00
    0.34900E+03        -0.21503E+05         0.00000E+00
    0.00000E+00         0.00000E+00        -0.74760E+04
 
   -0.45356E+04         0.33637E+03         0.00000E+00
    0.33637E+03        -0.20811E+05         0.00000E+00
    0.00000E+00         0.00000E+00        -0.76041E+04
 
   -0.58358E+04         0.33733E+03         0.00000E+00
    0.33733E+03        -0.20135E+05         0.00000E+00
    0.00000E+00         0.00000E+00        -0.77912E+04
 
   -0.73589E+04         0.35398E+03         0.00000E+00
    0.35398E+03        -0.19444E+05         0.00000E+00
    0.00000E+00         0.00000E+00        -0.80409E+04
 
   -0.64368E+05         0.30731E+04         0.00000E+00
    0.30731E+04        -0.99167E+05         0.00000E+00
    0.00000E+00         0.00000E+00        -0.49060E+05
 
   -0.30379E+05         0.13479E+05         0.00000E+00
    0.13479E+05        -0.87591E+05         0.00000E+00
    0.00000E+00         0.00000E+00        -0.35391E+05
 
   -0.15665E+05         0.15996E+05         0.00000E+00
    0.15996E+05        -0.76605E+05         0.00000E+00
    0.00000E+00         0.00000E+00        -0.27681E+05
 
   -0.77128E+04         0.14596E+05         0.00000E+00
    0.14596E+05        -0.67519E+05         0.00000E+00
    0.00000E+00         0.00000E+00        -0.22570E+05
 
   -0.31694E+04         0.12294E+05         0.00000E+00
    0.12294E+05        -0.59884E+05         0.00000E+00
    0.00000E+00         0.00000E+00        -0.18916E+05
 
   -0.59202E+03         0.10090E+05         0.00000E+00
    0.10090E+05        -0.53492E+05         0.00000E+00
    0.00000E+00         0.00000E+00        -0.16225E+05
 
    0.84977E+03         0.82383E+04         0.00000E+00
    0.82383E+04        -0.48155E+05         0.00000E+00
    0.00000E+00         0.00000E+00        -0.14192E+05
 
    0.16173E+04         0.67486E+04         0.00000E+00
    0.67486E+04        -0.43699E+05         0.00000E+00
    0.00000E+00         0.00000E+00        -0.12624E+05
 
    0.19732E+04         0.55648E+04         0.00000E+00
    0.55648E+04        -0.39967E+05         0.00000E+00
    0.00000E+00         0.00000E+00        -0.11398E+05
 
    0.20689E+04         0.46237E+04         0.00000E+00
    0.46237E+04        -0.36828E+05         0.00000E+00
    0.00000E+00         0.00000E+00        -0.10428E+05
 
    0.19927E+04         0.38711E+04         0.00000E+00
    0.38711E+04        -0.34173E+05         0.00000E+00
    0.00000E+00         0.00000E+00        -0.96542E+04
 
    0.17965E+04         0.32647E+04         0.00000E+00
    0.32647E+04        -0.31917E+05         0.00000E+00
    0.00000E+00         0.00000E+00        -0.90362E+04
 
    0.15102E+04         0.27721E+04         0.00000E+00
    0.27721E+04        -0.29989E+05         0.00000E+00
    0.00000E+00         0.00000E+00        -0.85437E+04
 
    0.11501E+04         0.23692E+04         0.00000E+00
    0.23692E+04        -0.28333E+05         0.00000E+00
    0.00000E+00         0.00000E+00        -0.81548E+04
 
    0.72394E+03         0.20382E+04         0.00000E+00
    0.20382E+04        -0.26902E+05         0.00000E+00
    0.00000E+00         0.00000E+00        -0.78536E+04
 
    0.23285E+03         0.17658E+04         0.00000E+00
    0.17658E+04        -0.25660E+05         0.00000E+00
    0.00000E+00         0.00000E+00        -0.76282E+04
 
   -0.32659E+03         0.15424E+04         0.00000E+00
    0.15424E+04        -0.24574E+05         0.00000E+00
    0.00000E+00         0.00000E+00        -0.74703E+04
 
   -0.96181E+03         0.13613E+04         0.00000E+00
    0.13613E+04        -0.23617E+05         0.00000E+00
    0.00000E+00         0.00000E+00        -0.73738E+04
 
   -0.16841E+04         0.12180E+04         0.00000E+00
    0.12180E+04        -0.22765E+05         0.00000E+00
    0.00000E+00         0.00000E+00        -0.73347E+04
 
   -0.25086E+04         0.11101E+04         0.00000E+00
    0.11101E+04        -0.21995E+05         0.00000E+00
    0.00000E+00         0.00000E+00        -0.73509E+04
 
   -0.34550E+04         0.10371E+04         0.00000E+00
    0.10371E+04        -0.21284E+05         0.00000E+00
    0.00000E+00         0.00000E+00        -0.74216E+04
 
   -0.45481E+04         0.10005E+04         0.00000E+00
    0.10005E+04        -0.20611E+05         0.00000E+00
    0.00000E+00         0.00000E+00        -0.75476E+04
 
   -0.58195E+04         0.10040E+04         0.00000E+00
    0.10040E+04        -0.19950E+05         0.00000E+00
    0.00000E+00         0.00000E+00        -0.77309E+04
 
   -0.73086E+04         0.10538E+04         0.00000E+00
    0.10538E+04        -0.19276E+05         0.00000E+00
    0.00000E+00         0.00000E+00        -0.79752E+04
 
   -0.47967E+05         0.17592E+05         0.00000E+00
    0.17592E+05        -0.74797E+05         0.00000E+00
    0.00000E+00         0.00000E+00        -0.36829E+05
 
   -0.26150E+05         0.25406E+05         0.00000E+00
    0.25406E+05        -0.65343E+05         0.00000E+00
    0.00000E+00         0.00000E+00        -0.27448E+05
 
   -0.16985E+05         0.24189E+05         0.00000E+00
    0.24189E+05        -0.59393E+05         0.00000E+00
    0.00000E+00         0.00000E+00        -0.22914E+05
 
   -0.10425E+05         0.21195E+05         0.00000E+00
    0.21195E+05        -0.54674E+05         0.00000E+00
    0.00000E+00         0.00000E+00        -0.19530E+05
 
   -0.59762E+04         0.17915E+05         0.00000E+00
    0.17915E+05        -0.50432E+05         0.00000E+00
    0.00000E+00         0.00000E+00        -0.16922E+05
 
   -0.30434E+04         0.14919E+05         0.00000E+00
    0.14919E+05        -0.46513E+05         0.00000E+00
    0.00000E+00         0.00000E+00        -0.14867E+05
 
   -0.11710E+04         0.12377E+05         0.00000E+00
    0.12377E+05        -0.42946E+05         0.00000E+00
    0.00000E+00         0.00000E+00        -0.13235E+05
 
   -0.13439E+02         0.10285E+05         0.00000E+00
    0.10285E+05        -0.39753E+05         0.00000E+00
    0.00000E+00         0.00000E+00        -0.11930E+05
 
    0.66379E+03         0.85848E+04         0.00000E+00
    0.85848E+04        -0.36928E+05         0.00000E+00
    0.00000E+00         0.00000E+00        -0.10879E+05
 
    0.10149E+04         0.72055E+04         0.00000E+00
    0.72055E+04        -0.34449E+05         0.00000E+00
    0.00000E+00         0.00000E+00        -0.10030E+05
 
    0.11395E+04         0.60835E+04         0.00000E+00
    0.60835E+04        -0.32280E+05         0.00000E+00
    0.00000E+00         0.00000E+00        -0.93423E+04
 
    0.11012E+04         0.51663E+04         0.00000E+00
    0.51663E+04        -0.30386E+05         0.00000E+00
    0.00000E+00         0.00000E+00        -0.87856E+04
 
    0.93987E+03         0.44125E+04         0.00000E+00
    0.44125E+04        -0.28732E+05         0.00000E+00
    0.00000E+00         0.00000E+00        -0.83376E+04
 
    0.68006E+03         0.37899E+04         0.00000E+00
    0.37899E+04        -0.27285E+05         0.00000E+00
    0.00000E+00         0.00000E+00        -0.79813E+04
 
    0.33549E+03         0.32744E+04         0.00000E+00
    0.32744E+04        -0.26015E+05         0.00000E+00
    0.00000E+00         0.00000E+00        -0.77040E+04
 
   -0.87721E+02         0.28474E+04         0.00000E+00
    0.28474E+04        -0.24899E+05         0.00000E+00
    0.00000E+00         0.00000E+00        -0.74960E+04
 
   -0.58918E+03         0.24956E+04         0.00000E+00
    0.24956E+04        -0.23912E+05         0.00000E+00
    0.00000E+00         0.00000E+00        -0.73502E+04
 
   -0.11732E+04         0.22092E+04         0.00000E+00
    0.22092E+04        -0.23033E+05         0.00000E+00
    0.00000E+00         0.00000E+00        -0.72618E+04
 
   -0.18484E+04         0.19822E+04         0.00000E+00
    0.19822E+04        -0.22243E+05         0.00000E+00
    0.00000E+00         0.00000E+00        -0.72273E+04
 
   -0.26275E+04         0.18113E+04         0.00000E+00
    0.18113E+04        -0.21523E+05         0.00000E+00
    0.00000E+00         0.00000E+00        -0.72450E+04
 
   -0.35277E+04         0.16961E+04         0.00000E+00
    0.16961E+04        -0.20853E+05         0.00000E+00
    0.00000E+00         0.00000E+00        -0.73143E+04
 
   -0.45712E+04         0.16394E+04         0.00000E+00
    0.16394E+04        -0.20216E+05         0.00000E+00
    0.00000E+00         0.00000E+00        -0.74360E+04
 
   -0.57864E+04         0.16472E+04         0.00000E+00
    0.16472E+04        -0.19587E+05         0.00000E+00
    0.00000E+00         0.00000E+00        -0.76121E+04
 
   -0.72093E+04         0.17297E+04         0.00000E+00
    0.17297E+04        -0.18943E+05         0.00000E+00
    0.00000E+00         0.00000E+00        -0.78458E+04
 
   -0.22349E+05         0.17640E+05         0.00000E+00
    0.17640E+05        -0.25045E+05         0.00000E+00
    0.00000E+00         0.00000E+00        -0.14218E+05
 
   -0.25717E+05         0.25942E+05         0.00000E+00
    0.25942E+05        -0.33802E+05         0.00000E+00
    0.00000E+00         0.00000E+00        -0.17856E+05
 
   -0.19182E+05         0.25459E+05         0.00000E+00
    0.25459E+05        -0.37783E+05         0.00000E+00
    0.00000E+00         0.00000E+00        -0.17089E+05
 
   -0.13524E+05         0.23124E+05         0.00000E+00
    0.23124E+05        -0.39105E+05         0.00000E+00
    0.00000E+00         0.00000E+00        -0.15789E+05
 
   -0.90831E+04         0.20255E+05         0.00000E+00
    0.20255E+05        -0.38893E+05         0.00000E+00
    0.00000E+00         0.00000E+00        -0.14393E+05
 
   -0.58420E+04         0.17417E+05         0.00000E+00
    0.17417E+05        -0.37823E+05         0.00000E+00
    0.00000E+00         0.00000E+00        -0.13100E+05
 
   -0.35642E+04         0.14845E+05         0.00000E+00
    0.14845E+05        -0.36310E+05         0.00000E+00
    0.00000E+00         0.00000E+00        -0.11962E+05
 
   -0.20117E+04         0.12616E+05         0.00000E+00
    0.12616E+05        -0.34617E+05         0.00000E+00
    0.00000E+00         0.00000E+00        -0.10989E+05
 
   -0.98800E+03         0.10724E+05         0.00000E+00
    0.10724E+05        -0.32898E+05         0.00000E+00
    0.00000E+00         0.00000E+00        -0.10166E+05
 
   -0.34710E+03         0.91369E+04         0.00000E+00
    0.91369E+04        -0.31242E+05         0.00000E+00
    0.00000E+00         0.00000E+00        -0.94766E+04
 
    0.14811E+02         0.78095E+04         0.00000E+00
    0.78095E+04        -0.29692E+05         0.00000E+00
    0.00000E+00         0.00000E+00        -0.89032E+04
 
    0.16947E+03         0.67000E+04         0.00000E+00
    0.67000E+04        -0.28268E+05         0.00000E+00
    0.00000E+00         0.00000E+00        -0.84297E+04
 
    0.16543E+03         0.57714E+04         0.00000E+00
    0.57714E+04        -0.26975E+05         0.00000E+00
    0.00000E+00         0.00000E+00        -0.80428E+04
 
    0.34722E+02         0.49933E+04         0.00000E+00
    0.49933E+04        -0.25807E+05         0.00000E+00
    0.00000E+00         0.00000E+00        -0.77317E+04
 
   -0.20250E+03         0.43411E+04         0.00000E+00
    0.43411E+04        -0.24756E+05         0.00000E+00
    0.00000E+00         0.00000E+00        -0.74876E+04
 
   -0.53479E+03         0.37959E+04         0.00000E+00
    0.37959E+04        -0.23811E+05         0.00000E+00
    0.00000E+00         0.00000E+00        -0.73038E+04
 
   -0.95733E+03         0.33434E+04         0.00000E+00
    0.33434E+04        -0.22960E+05         0.00000E+00
    0.00000E+00         0.00000E+00        -0.71752E+04
 
   -0.14707E+04         0.29732E+04         0.00000E+00
    0.29732E+04        -0.22190E+05         0.00000E+00
    0.00000E+00         0.00000E+00        -0.70981E+04
 
   -0.20800E+04         0.26788E+04         0.00000E+00
    0.26788E+04        -0.21487E+05         0.00000E+00
    0.00000E+00         0.00000E+00        -0.70700E+04
 
   -0.27948E+04         0.24572E+04         0.00000E+00
    0.24572E+04        -0.20838E+05         0.00000E+00
    0.00000E+00         0.00000E+00        -0.70897E+04
 
   -0.36290E+04         0.23088E+04         0.00000E+00
    0.23088E+04        -0.20227E+05         0.00000E+00
    0.00000E+00         0.00000E+00        -0.71569E+04
 
   -0.46013E+04         0.22378E+04         0.00000E+00
    0.22378E+04        -0.19640E+05         0.00000E+00
    0.00000E+00         0.00000E+00        -0.72724E+04
 
   -0.57358E+04         0.22525E+04         0.00000E+00
    0.22525E+04        -0.19057E+05         0.00000E+00
    0.00000E+00         0.00000E+00        -0.74379E+04
 
   -0.70631E+04         0.23669E+04         0.00000E+00
    0.23669E+04        -0.18458E+05         0.00000E+00
    0.00000E+00         0.00000E+00        -0.76563E+04
 
   -0.53756E+04         0.32373E+04         0.00000E+00
    0.32373E+04        -0.60458E+03         0.00000E+00
    0.00000E+00         0.00000E+00        -0.17940E+04
 
   -0.20121E+05         0.15272E+05         0.00000E+00
    0.15272E+05        -0.11313E+05         0.00000E+00
    0.00000E+00         0.00000E+00        -0.94302E+04
 
   -0.19029E+05         0.20100E+05         0.00000E+00
    0.20100E+05        -0.19810E+05         0.00000E+00
    0.00000E+00         0.00000E+00        -0.11652E+05
 
   -0.15179E+05         0.20639E+05         0.00000E+00
    0.20639E+05        -0.24930E+05         0.00000E+00
    0.00000E+00         0.00000E+00        -0.12033E+05
 
   -0.11378E+05         0.19457E+05         0.00000E+00
    0.19457E+05        -0.27717E+05         0.00000E+00
    0.00000E+00         0.00000E+00        -0.11729E+05
 
   -0.82231E+04         0.17609E+05         0.00000E+00
    0.17609E+05        -0.28982E+05         0.00000E+00
    0.00000E+00         0.00000E+00        -0.11161E+05
 
   -0.57910E+04         0.15598E+05         0.00000E+00
    0.15598E+05        -0.29283E+05         0.00000E+00
    0.00000E+00         0.00000E+00        -0.10522E+05
 
   -0.39927E+04         0.13659E+05         0.00000E+00
    0.13659E+05        -0.28993E+05         0.00000E+00
    0.00000E+00         0.00000E+00        -0.98958E+04
 
   -0.27059E+04         0.11892E+05         0.00000E+00
    0.11892E+05        -0.28361E+05         0.00000E+00
    0.00000E+00         0.00000E+00        -0.93202E+04
 
   -0.18173E+04         0.10329E+05         0.00000E+00
    0.10329E+05        -0.27547E+05         0.00000E+00
    0.00000E+00         0.00000E+00        -0.88094E+04
 
   -0.12355E+04         0.89689E+04         0.00000E+00
    0.89689E+04        -0.26653E+05         0.00000E+00
    0.00000E+00         0.00000E+00        -0.83665E+04
 
   -0.89098E+03         0.77959E+04         0.00000E+00
    0.77959E+04        -0.25741E+05         0.00000E+00
    0.00000E+00         0.00000E+00        -0.79896E+04
 
   -0.73296E+03         0.67896E+04         0.00000E+00
    0.67896E+04        -0.24849E+05         0.00000E+00
    0.00000E+00         0.00000E+00        -0.76746E+04
 
   -0.72549E+03         0.59293E+04         0.00000E+00
    0.59293E+04        -0.23999E+05         0.00000E+00
    0.00000E+00         0.00000E+00        -0.74172E+04
 
   -0.84409E+03         0.51969E+04         0.00000E+00
    0.51969E+04        -0.23199E+05         0.00000E+00
    0.00000E+00         0.00000E+00        -0.72131E+04
 
   -0.10731E+04         0.45769E+04         0.00000E+00
    0.45769E+04        -0.22456E+05         0.00000E+00
    0.00000E+00         0.00000E+00        -0.70586E+04
 
   -0.14038E+04         0.40572E+04         0.00000E+00
    0.40572E+04        -0.21765E+05         0.00000E+00
    0.00000E+00         0.00000E+00        -0.69508E+04
 
   -0.18331E+04         0.36294E+04         0.00000E+00
    0.36294E+04        -0.21125E+05         0.00000E+00
    0.00000E+00         0.00000E+00        -0.68874E+04
 
   -0.23626E+04         0.32880E+04         0.00000E+00
    0.32880E+04        -0.20528E+05         0.00000E+00
    0.00000E+00         0.00000E+00        -0.68671E+04
 
   -0.29984E+04         0.30311E+04         0.00000E+00
    0.30311E+04        -0.19965E+05         0.00000E+00
    0.00000E+00         0.00000E+00        -0.68891E+04
 
   -0.37505E+04         0.28607E+04         0.00000E+00
    0.28607E+04        -0.19428E+05         0.00000E+00
    0.00000E+00         0.00000E+00        -0.69534E+04
 
   -0.46335E+04         0.27826E+04         0.00000E+00
    0.27826E+04        -0.18903E+05         0.00000E+00
    0.00000E+00         0.00000E+00        -0.70609E+04
 
   -0.56664E+04         0.28076E+04         0.00000E+00
    0.28076E+04        -0.18377E+05         0.00000E+00
    0.00000E+00         0.00000E+00        -0.72130E+04
 
   -0.68734E+04         0.29526E+04         0.00000E+00
    0.29526E+04        -0.17834E+05         0.00000E+00
    0.00000E+00         0.00000E+00        -0.74122E+04
 
    0.57587E+03         0.10054E+04         0.00000E+00
    0.10054E+04        -0.55399E+03         0.00000E+00
    0.00000E+00         0.00000E+00         0.65638E+01
 
   -0.11637E+05         0.73056E+04         0.00000E+00
    0.73056E+04        -0.32818E+04         0.00000E+00
    0.00000E+00         0.00000E+00        -0.44756E+04
 
   -0.15619E+05         0.13252E+05         0.00000E+00
    0.13252E+05        -0.93182E+04         0.00000E+00
    0.00000E+00         0.00000E+00        -0.74810E+04
 
   -0.14617E+05         0.16055E+05         0.00000E+00
    0.16055E+05        -0.14722E+05         0.00000E+00
    0.00000E+00         0.00000E+00        -0.88018E+04
 
   -0.12213E+05         0.16673E+05         0.00000E+00
    0.16673E+05        -0.18641E+05         0.00000E+00
    0.00000E+00         0.00000E+00        -0.92559E+04
 
   -0.96769E+04         0.16104E+05         0.00000E+00
    0.16104E+05        -0.21206E+05         0.00000E+00
    0.00000E+00         0.00000E+00        -0.92647E+04
 
   -0.74496E+04         0.14954E+05         0.00000E+00
    0.14954E+05        -0.22730E+05         0.00000E+00
    0.00000E+00         0.00000E+00        -0.90539E+04
 
   -0.56442E+04         0.13576E+05         0.00000E+00
    0.13576E+05        -0.23509E+05         0.00000E+00
    0.00000E+00         0.00000E+00        -0.87459E+04
 
   -0.42490E+04         0.12160E+05         0.00000E+00
    0.12160E+05        -0.23775E+05         0.00000E+00
    0.00000E+00         0.00000E+00        -0.84073E+04
 
   -0.32110E+04         0.10806E+05         0.00000E+00
    0.10806E+05        -0.23702E+05         0.00000E+00
    0.00000E+00         0.00000E+00        -0.80738E+04
 
   -0.24701E+04         0.95599E+04         0.00000E+00
    0.95599E+04        -0.23412E+05         0.00000E+00
    0.00000E+00         0.00000E+00        -0.77645E+04
 
   -0.19718E+04         0.84395E+04         0.00000E+00
    0.84395E+04        -0.22990E+05         0.00000E+00
    0.00000E+00         0.00000E+00        -0.74887E+04
 
   -0.16718E+04         0.74468E+04         0.00000E+00
    0.74468E+04        -0.22496E+05         0.00000E+00
    0.00000E+00         0.00000E+00        -0.72504E+04
 
   -0.15359E+04         0.65765E+04         0.00000E+00
    0.65765E+04        -0.21968E+05         0.00000E+00
    0.00000E+00         0.00000E+00        -0.70512E+04
 
   -0.15389E+04         0.58206E+04         0.00000E+00
    0.58206E+04        -0.21430E+05         0.00000E+00
    0.00000E+00         0.00000E+00        -0.68908E+04
 
   -0.16633E+04         0.51707E+04         0.00000E+00
    0.51707E+04        -0.20899E+05         0.00000E+00
    0.00000E+00         0.00000E+00        -0.67686E+04
 
   -0.18977E+04         0.46196E+04         0.00000E+00
    0.46196E+04        -0.20382E+05         0.00000E+00
    0.00000E+00         0.00000E+00        -0.66838E+04
 
   -0.22363E+04         0.41623E+04         0.00000E+00
    0.41623E+04        -0.19883E+05         0.00000E+00
    0.00000E+00         0.00000E+00        -0.66357E+04
 
   -0.26776E+04         0.37959E+04         0.00000E+00
    0.37959E+04        -0.19402E+05         0.00000E+00
    0.00000E+00         0.00000E+00        -0.66238E+04
 
   -0.32243E+04         0.35207E+04         0.00000E+00
    0.35207E+04        -0.18936E+05         0.00000E+00
    0.00000E+00         0.00000E+00        -0.66481E+04
 
   -0.38826E+04         0.33407E+04         0.00000E+00
    0.33407E+04        -0.18480E+05         0.00000E+00
    0.00000E+00         0.00000E+00        -0.67088E+04
 
   -0.46623E+04         0.32636E+04         0.00000E+00
    0.32636E+04        -0.18027E+05         0.00000E+00
    0.00000E+00         0.00000E+00        -0.68068E+04
 
   -0.55772E+04         0.33024E+04         0.00000E+00
    0.33024E+04        -0.17567E+05         0.00000E+00
    0.00000E+00         0.00000E+00        -0.69432E+04
 
   -0.66445E+04         0.34764E+04         0.00000E+00
    0.34764E+04        -0.17089E+05         0.00000E+00
    0.00000E+00         0.00000E+00        -0.71199E+04
 
    0.33166E+04         0.37972E+03         0.00000E+00
    0.37972E+03        -0.46808E+02         0.00000E+00
    0.00000E+00         0.00000E+00         0.98093E+03
 
   -0.62603E+04         0.38461E+04         0.00000E+00
    0.38461E+04        -0.13822E+04         0.00000E+00
    0.00000E+00         0.00000E+00        -0.22927E+04
 
   -0.11277E+05         0.82568E+04         0.00000E+00
    0.82568E+04        -0.44972E+04         0.00000E+00
    0.00000E+00         0.00000E+00        -0.47323E+04
 
   -0.12536E+05         0.11561E+05         0.00000E+00
    0.11561E+05        -0.85080E+04         0.00000E+00
    0.00000E+00         0.00000E+00        -0.63131E+04
 
   -0.11708E+05         0.13256E+05         0.00000E+00
    0.13256E+05        -0.12172E+05         0.00000E+00
    0.00000E+00         0.00000E+00        -0.71641E+04
 
   -0.10110E+05         0.13726E+05         0.00000E+00
    0.13726E+05        -0.15069E+05         0.00000E+00
    0.00000E+00         0.00000E+00        -0.75536E+04
 
   -0.83782E+04         0.13420E+05         0.00000E+00
    0.13420E+05        -0.17172E+05         0.00000E+00
    0.00000E+00         0.00000E+00        -0.76650E+04
 
   -0.67944E+04         0.12675E+05         0.00000E+00
    0.12675E+05        -0.18596E+05         0.00000E+00
    0.00000E+00         0.00000E+00        -0.76172E+04
 
   -0.54598E+04         0.11715E+05         0.00000E+00
    0.11715E+05        -0.19488E+05         0.00000E+00
    0.00000E+00         0.00000E+00        -0.74843E+04
 
   -0.43927E+04         0.10677E+05         0.00000E+00
    0.10677E+05        -0.19981E+05         0.00000E+00
    0.00000E+00         0.00000E+00        -0.73121E+04
 
   -0.35760E+04         0.96448E+04         0.00000E+00
    0.96448E+04        -0.20186E+05         0.00000E+00
    0.00000E+00         0.00000E+00        -0.71285E+04
 
   -0.29806E+04         0.86641E+04         0.00000E+00
    0.86641E+04        -0.20188E+05         0.00000E+00
    0.00000E+00         0.00000E+00        -0.69506E+04
 
   -0.25763E+04         0.77587E+04         0.00000E+00
    0.77587E+04        -0.20051E+05         0.00000E+00
    0.00000E+00         0.00000E+00        -0.67882E+04
 
   -0.23362E+04         0.69398E+04         0.00000E+00
    0.69398E+04        -0.19822E+05         0.00000E+00
    0.00000E+00         0.00000E+00        -0.66475E+04
 
   -0.22384E+04         0.62111E+04         0.00000E+00
    0.62111E+04        -0.19534E+05         0.00000E+00
    0.00000E+00         0.00000E+00        -0.65317E+04
 
   -0.22662E+04         0.55729E+04         0.00000E+00
    0.55729E+04        -0.19210E+05         0.00000E+00
    0.00000E+00         0.00000E+00        -0.64428E+04
 
   -0.24077E+04         0.50243E+04         0.00000E+00
    0.50243E+04        -0.18865E+05         0.00000E+00
    0.00000E+00         0.00000E+00        -0.63819E+04
 
   -0.26554E+04         0.45649E+04         0.00000E+00
    0.45649E+04        -0.18510E+05         0.00000E+00
    0.00000E+00         0.00000E+00        -0.63495E+04
 
   -0.30055E+04         0.41954E+04         0.00000E+00
    0.41954E+04        -0.18149E+05         0.00000E+00
    0.00000E+00         0.00000E+00        -0.63463E+04
 
   -0.34577E+04         0.39190E+04         0.00000E+00
    0.39190E+04        -0.17784E+05         0.00000E+00
    0.00000E+00         0.00000E+00        -0.63725E+04
 
   -0.40147E+04         0.37418E+04         0.00000E+00
    0.37418E+04        -0.17415E+05         0.00000E+00
    0.00000E+00         0.00000E+00        -0.64289E+04
 
   -0.46819E+04         0.36737E+04         0.00000E+00
    0.36737E+04        -0.17039E+05         0.00000E+00
    0.00000E+00         0.00000E+00        -0.65162E+04
 
   -0.54673E+04         0.37296E+04         0.00000E+00
    0.37296E+04        -0.16650E+05         0.00000E+00
    0.00000E+00         0.00000E+00        -0.66352E+04
 
   -0.63811E+04         0.39306E+04         0.00000E+00
    0.39306E+04        -0.16243E+05         0.00000E+00
    0.00000E+00         0.00000E+00        -0.67871E+04
 
    0.46518E+04         0.14451E+03         0.00000E+00
    0.14451E+03        -0.21154E+02         0.00000E+00
    0.00000E+00         0.00000E+00         0.13892E+04
 
   -0.28225E+04         0.21415E+04         0.00000E+00
    0.21415E+04        -0.61615E+03         0.00000E+00
    0.00000E+00         0.00000E+00        -0.10316E+04
 
   -0.77362E+04         0.52153E+04         0.00000E+00
    0.52153E+04        -0.23931E+04         0.00000E+00
    0.00000E+00         0.00000E+00        -0.30388E+04
 
   -0.10015E+05         0.80821E+04         0.00000E+00
    0.80821E+04        -0.50329E+04         0.00000E+00
    0.00000E+00         0.00000E+00        -0.45143E+04
 
   -0.10407E+05         0.10090E+05         0.00000E+00
    0.10090E+05        -0.79264E+04         0.00000E+00
    0.00000E+00         0.00000E+00        -0.55000E+04
 
   -0.97438E+04         0.11161E+05         0.00000E+00
    0.11161E+05        -0.10576E+05         0.00000E+00
    0.00000E+00         0.00000E+00        -0.60958E+04
 
   -0.86319E+04         0.11485E+05         0.00000E+00
    0.11485E+05        -0.12767E+05         0.00000E+00
    0.00000E+00         0.00000E+00        -0.64198E+04
 
   -0.74171E+04         0.11295E+05         0.00000E+00
    0.11295E+05        -0.14463E+05         0.00000E+00
    0.00000E+00         0.00000E+00        -0.65642E+04
 
   -0.62767E+04         0.10785E+05         0.00000E+00
    0.10785E+05        -0.15708E+05         0.00000E+00
    0.00000E+00         0.00000E+00        -0.65953E+04
 
   -0.52894E+04         0.10096E+05         0.00000E+00
    0.10096E+05        -0.16574E+05         0.00000E+00
    0.00000E+00         0.00000E+00        -0.65589E+04
 
   -0.44811E+04         0.93252E+04         0.00000E+00
    0.93252E+04        -0.17138E+05         0.00000E+00
    0.00000E+00         0.00000E+00        -0.64858E+04
 
   -0.38514E+04         0.85357E+04         0.00000E+00
    0.85357E+04        -0.17471E+05         0.00000E+00
    0.00000E+00         0.00000E+00        -0.63966E+04
 
   -0.33885E+04         0.77676E+04         0.00000E+00
    0.77676E+04        -0.17628E+05         0.00000E+00
    0.00000E+00         0.00000E+00        -0.63050E+04
 
   -0.30768E+04         0.70455E+04         0.00000E+00
    0.70455E+04        -0.17656E+05         0.00000E+00
    0.00000E+00         0.00000E+00        -0.62198E+04
 
   -0.29007E+04         0.63841E+04         0.00000E+00
    0.63841E+04        -0.17589E+05         0.00000E+00
    0.00000E+00         0.00000E+00        -0.61470E+04
 
   -0.28470E+04         0.57922E+04         0.00000E+00
    0.57922E+04        -0.17455E+05         0.00000E+00
    0.00000E+00         0.00000E+00        -0.60905E+04
 
   -0.29050E+04         0.52753E+04         0.00000E+00
    0.52753E+04        -0.17271E+05         0.00000E+00
    0.00000E+00         0.00000E+00        -0.60529E+04
 
   -0.30668E+04         0.48382E+04         0.00000E+00
    0.48382E+04        -0.17053E+05         0.00000E+00
    0.00000E+00         0.00000E+00        -0.60360E+04
 
   -0.33275E+04         0.44855E+04         0.00000E+00
    0.44855E+04        -0.16809E+05         0.00000E+00
    0.00000E+00         0.00000E+00        -0.60409E+04
 
   -0.36843E+04         0.42235E+04         0.00000E+00
    0.42235E+04        -0.16544E+05         0.00000E+00
    0.00000E+00         0.00000E+00        -0.60686E+04
 
   -0.41370E+04         0.40608E+04         0.00000E+00
    0.40608E+04        -0.16263E+05         0.00000E+00
    0.00000E+00         0.00000E+00        -0.61200E+04
 
   -0.46867E+04         0.40091E+04         0.00000E+00
    0.40091E+04        -0.15965E+05         0.00000E+00
    0.00000E+00         0.00000E+00        -0.61956E+04
 
   -0.53361E+04         0.40849E+04         0.00000E+00
    0.40849E+04        -0.15651E+05         0.00000E+00
    0.00000E+00         0.00000E+00        -0.62960E+04
 
   -0.60887E+04         0.43102E+04         0.00000E+00
    0.43102E+04        -0.15318E+05         0.00000E+00
    0.00000E+00         0.00000E+00        -0.64219E+04
 
    0.53397E+04         0.25759E+02         0.00000E+00
    0.25759E+02         0.53090E+01         0.00000E+00
    0.00000E+00         0.00000E+00         0.16035E+04
 
   -0.63469E+03         0.12195E+04         0.00000E+00
    0.12195E+04        -0.31073E+03         0.00000E+00
    0.00000E+00         0.00000E+00        -0.28362E+03
 
   -0.50646E+04         0.33353E+04         0.00000E+00
    0.33353E+04        -0.13522E+04         0.00000E+00
    0.00000E+00         0.00000E+00        -0.19250E+04
 
   -0.77052E+04         0.56130E+04         0.00000E+00
    0.56130E+04        -0.30968E+04         0.00000E+00
    0.00000E+00         0.00000E+00        -0.32406E+04
 
   -0.88258E+04         0.75098E+04         0.00000E+00
    0.75098E+04        -0.52339E+04         0.00000E+00
    0.00000E+00         0.00000E+00        -0.42179E+04
 
   -0.89039E+04         0.88045E+04         0.00000E+00
    0.88045E+04        -0.74250E+04         0.00000E+00
    0.00000E+00         0.00000E+00        -0.48987E+04
 
   -0.83834E+04         0.95047E+04         0.00000E+00
    0.95047E+04        -0.94313E+04         0.00000E+00
    0.00000E+00         0.00000E+00        -0.53444E+04
 
   -0.75868E+04         0.97223E+04         0.00000E+00
    0.97223E+04        -0.11138E+05         0.00000E+00
    0.00000E+00         0.00000E+00        -0.56174E+04
 
   -0.67161E+04         0.95896E+04         0.00000E+00
    0.95896E+04        -0.12515E+05         0.00000E+00
    0.00000E+00         0.00000E+00        -0.57693E+04
 
   -0.58858E+04         0.92237E+04         0.00000E+00
    0.92237E+04        -0.13580E+05         0.00000E+00
    0.00000E+00         0.00000E+00        -0.58397E+04
 
   -0.51546E+04         0.87168E+04         0.00000E+00
    0.87168E+04        -0.14371E+05         0.00000E+00
    0.00000E+00         0.00000E+00        -0.58578E+04
 
   -0.45474E+04         0.81367E+04         0.00000E+00
    0.81367E+04        -0.14935E+05         0.00000E+00
    0.00000E+00         0.00000E+00        -0.58447E+04
 
   -0.40710E+04         0.75314E+04         0.00000E+00
    0.75314E+04        -0.15314E+05         0.00000E+00
    0.00000E+00         0.00000E+00        -0.58154E+04
 
   -0.37222E+04         0.69340E+04         0.00000E+00
    0.69340E+04        -0.15546E+05         0.00000E+00
    0.00000E+00         0.00000E+00        -0.57804E+04
 
   -0.34938E+04         0.63673E+04         0.00000E+00
    0.63673E+04        -0.15663E+05         0.00000E+00
    0.00000E+00         0.00000E+00        -0.57470E+04
 
   -0.33776E+04         0.58471E+04         0.00000E+00
    0.58471E+04        -0.15691E+05         0.00000E+00
    0.00000E+00         0.00000E+00        -0.57206E+04
 
   -0.33654E+04         0.53849E+04         0.00000E+00
    0.53849E+04        -0.15650E+05         0.00000E+00
    0.00000E+00         0.00000E+00        -0.57047E+04
 
   -0.34504E+04         0.49899E+04         0.00000E+00
    0.49899E+04        -0.15556E+05         0.00000E+00
    0.00000E+00         0.00000E+00        -0.57020E+04
 
   -0.36271E+04         0.46707E+04         0.00000E+00
    0.46707E+04        -0.15420E+05         0.00000E+00
    0.00000E+00         0.00000E+00        -0.57143E+04
 
   -0.38915E+04         0.44364E+04         0.00000E+00
    0.44364E+04        -0.15251E+05         0.00000E+00
    0.00000E+00         0.00000E+00        -0.57428E+04
 
   -0.42406E+04         0.42980E+04         0.00000E+00
    0.42980E+04        -0.15054E+05         0.00000E+00
    0.00000E+00         0.00000E+00        -0.57885E+04
 
   -0.46720E+04         0.42688E+04         0.00000E+00
    0.42688E+04        -0.14834E+05         0.00000E+00
    0.00000E+00         0.00000E+00        -0.58518E+04
 
   -0.51837E+04         0.43664E+04         0.00000E+00
    0.43664E+04        -0.14594E+05         0.00000E+00
    0.00000E+00         0.00000E+00        -0.59332E+04
 
   -0.57730E+04         0.46131E+04         0.00000E+00
    0.46131E+04        -0.14335E+05         0.00000E+00
    0.00000E+00         0.00000E+00        -0.60325E+04
 
    0.56690E+04        -0.44690E+02         0.00000E+00
   -0.44690E+02         0.12949E+02         0.00000E+00
    0.00000E+00         0.00000E+00         0.17046E+04
 
    0.78808E+03         0.67181E+03         0.00000E+00
    0.67181E+03        -0.15810E+03         0.00000E+00
    0.00000E+00         0.00000E+00         0.18899E+03
 
   -0.31108E+04         0.21337E+04         0.00000E+00
    0.21337E+04        -0.80305E+03         0.00000E+00
    0.00000E+00         0.00000E+00        -0.11742E+04
 
   -0.57775E+04         0.38812E+04         0.00000E+00
    0.38812E+04        -0.19699E+04         0.00000E+00
    0.00000E+00         0.00000E+00        -0.23242E+04
 
   -0.72783E+04         0.55179E+04         0.00000E+00
    0.55179E+04        -0.35235E+04         0.00000E+00
    0.00000E+00         0.00000E+00        -0.32405E+04
 
   -0.78626E+04         0.68099E+04         0.00000E+00
    0.68099E+04        -0.52524E+04         0.00000E+00
    0.00000E+00         0.00000E+00        -0.39345E+04
 
   -0.78252E+04         0.76801E+04         0.00000E+00
    0.76801E+04        -0.69665E+04         0.00000E+00
    0.00000E+00         0.00000E+00        -0.44375E+04
 
   -0.74219E+04         0.81526E+04         0.00000E+00
    0.81526E+04        -0.85369E+04         0.00000E+00
    0.00000E+00         0.00000E+00        -0.47876E+04
 
   -0.68411E+04         0.82982E+04         0.00000E+00
    0.82982E+04        -0.98976E+04         0.00000E+00
    0.00000E+00         0.00000E+00        -0.50216E+04
 
   -0.62080E+04         0.81987E+04         0.00000E+00
    0.81987E+04        -0.11028E+05         0.00000E+00
    0.00000E+00         0.00000E+00        -0.51707E+04
 
   -0.55992E+04         0.79290E+04         0.00000E+00
    0.79290E+04        -0.11934E+05         0.00000E+00
    0.00000E+00         0.00000E+00        -0.52599E+04
 
   -0.50580E+04         0.75510E+04         0.00000E+00
    0.75510E+04        -0.12638E+05         0.00000E+00
    0.00000E+00         0.00000E+00        -0.53088E+04
 
   -0.46059E+04         0.71132E+04         0.00000E+00
    0.71132E+04        -0.13167E+05         0.00000E+00
    0.00000E+00         0.00000E+00        -0.53318E+04
 
   -0.42517E+04         0.66522E+04         0.00000E+00
    0.66522E+04        -0.13548E+05         0.00000E+00
    0.00000E+00         0.00000E+00        -0.53398E+04
 
   -0.39965E+04         0.61952E+04         0.00000E+00
    0.61952E+04        -0.13807E+05         0.00000E+00
    0.00000E+00         0.00000E+00        -0.53410E+04
 
   -0.38376E+04         0.57628E+04         0.00000E+00
    0.57628E+04        -0.13966E+05         0.00000E+00
    0.00000E+00         0.00000E+00        -0.53412E+04
 
   -0.37705E+04         0.53709E+04         0.00000E+00
    0.53709E+04        -0.14045E+05         0.00000E+00
    0.00000E+00         0.00000E+00        -0.53446E+04
 
   -0.37900E+04         0.50325E+04         0.00000E+00
    0.50325E+04        -0.14058E+05         0.00000E+00
    0.00000E+00         0.00000E+00        -0.53545E+04
 
   -0.38911E+04         0.47594E+04         0.00000E+00
    0.47594E+04        -0.14019E+05         0.00000E+00
    0.00000E+00         0.00000E+00        -0.53729E+04
 
   -0.40689E+04         0.45633E+04         0.00000E+00
    0.45633E+04        -0.13936E+05         0.00000E+00
    0.00000E+00         0.00000E+00        -0.54014E+04
 
   -0.43183E+04         0.44568E+04         0.00000E+00
    0.44568E+04        -0.13818E+05         0.00000E+00
    0.00000E+00         0.00000E+00        -0.54408E+04
 
   -0.46344E+04         0.44548E+04         0.00000E+00
    0.44548E+04        -0.13671E+05         0.00000E+00
    0.00000E+00         0.00000E+00        -0.54917E+04
 
   -0.50109E+04         0.45751E+04         0.00000E+00
    0.45751E+04        -0.13502E+05         0.00000E+00
    0.00000E+00         0.00000E+00        -0.55540E+04
 
   -0.54398E+04         0.48399E+04         0.00000E+00
    0.48399E+04        -0.13317E+05         0.00000E+00
    0.00000E+00         0.00000E+00        -0.56271E+04
 
    0.57817E+04        -0.90624E+02         0.00000E+00
   -0.90624E+02         0.17745E+02         0.00000E+00
    0.00000E+00         0.00000E+00         0.17398E+04
 
    0.17174E+04         0.32277E+03         0.00000E+00
    0.32277E+03        -0.75592E+02         0.00000E+00
    0.00000E+00         0.00000E+00         0.49254E+03
 
   -0.16920E+04         0.13342E+04         0.00000E+00
    0.13342E+04        -0.48823E+03         0.00000E+00
    0.00000E+00         0.00000E+00        -0.65406E+03
 
   -0.42361E+04         0.26558E+04         0.00000E+00
    0.26558E+04        -0.12854E+04         0.00000E+00
    0.00000E+00         0.00000E+00        -0.16564E+04
 
   -0.58969E+04         0.40077E+04         0.00000E+00
    0.40077E+04        -0.24138E+04         0.00000E+00
    0.00000E+00         0.00000E+00        -0.24932E+04
 
   -0.67951E+04         0.51885E+04         0.00000E+00
    0.51885E+04        -0.37513E+04         0.00000E+00
    0.00000E+00         0.00000E+00        -0.31639E+04
 
   -0.71143E+04         0.60939E+04         0.00000E+00
    0.60939E+04        -0.51621E+04         0.00000E+00
    0.00000E+00         0.00000E+00        -0.36829E+04
 
   -0.70407E+04         0.66988E+04         0.00000E+00
    0.66988E+04        -0.65343E+04         0.00000E+00
    0.00000E+00         0.00000E+00        -0.40725E+04
 
   -0.67314E+04         0.70277E+04         0.00000E+00
    0.70277E+04        -0.77928E+04         0.00000E+00
    0.00000E+00         0.00000E+00        -0.43572E+04
 
   -0.63039E+04         0.71280E+04         0.00000E+00
    0.71280E+04        -0.88972E+04         0.00000E+00
    0.00000E+00         0.00000E+00        -0.45603E+04
 
   -0.58397E+04         0.70533E+04         0.00000E+00
    0.70533E+04        -0.98331E+04         0.00000E+00
    0.00000E+00         0.00000E+00        -0.47018E+04
 
   -0.53917E+04         0.68540E+04         0.00000E+00
    0.68540E+04        -0.10603E+05         0.00000E+00
    0.00000E+00         0.00000E+00        -0.47984E+04
 
   -0.49918E+04         0.65735E+04         0.00000E+00
    0.65735E+04        -0.11219E+05         0.00000E+00
    0.00000E+00         0.00000E+00        -0.48633E+04
 
   -0.46577E+04         0.62475E+04         0.00000E+00
    0.62475E+04        -0.11698E+05         0.00000E+00
    0.00000E+00         0.00000E+00        -0.49067E+04
 
   -0.43979E+04         0.59045E+04         0.00000E+00
    0.59045E+04        -0.12058E+05         0.00000E+00
    0.00000E+00         0.00000E+00        -0.49368E+04
 
   -0.42151E+04         0.55674E+04         0.00000E+00
    0.55674E+04        -0.12317E+05         0.00000E+00
    0.00000E+00         0.00000E+00        -0.49595E+04
 
   -0.41083E+04         0.52546E+04         0.00000E+00
    0.52546E+04        -0.12490E+05         0.00000E+00
    0.00000E+00         0.00000E+00        -0.49794E+04
 
   -0.40746E+04         0.49819E+04         0.00000E+00
    0.49819E+04        -0.12591E+05         0.00000E+00
    0.00000E+00         0.00000E+00        -0.49997E+04
 
   -0.41098E+04         0.47633E+04         0.00000E+00
    0.47633E+04        -0.12633E+05         0.00000E+00
    0.00000E+00         0.00000E+00        -0.50229E+04
 
   -0.42086E+04         0.46123E+04         0.00000E+00
    0.46123E+04        -0.12626E+05         0.00000E+00
    0.00000E+00         0.00000E+00        -0.50504E+04
 
   -0.43651E+04         0.45431E+04         0.00000E+00
    0.45431E+04        -0.12579E+05         0.00000E+00
    0.00000E+00         0.00000E+00        -0.50833E+04
 
   -0.45717E+04         0.45710E+04         0.00000E+00
    0.45710E+04        -0.12501E+05         0.00000E+00
    0.00000E+00         0.00000E+00        -0.51217E+04
 
   -0.48190E+04         0.47140E+04         0.00000E+00
    0.47140E+04        -0.12399E+05         0.00000E+00
    0.00000E+00         0.00000E+00        -0.51654E+04
 
   -0.50950E+04         0.49932E+04         0.00000E+00
    0.49932E+04        -0.12283E+05         0.00000E+00
    0.00000E+00         0.00000E+00        -0.52134E+04
 
    0.57534E+04        -0.12225E+03         0.00000E+00
   -0.12225E+03         0.20453E+02         0.00000E+00
    0.00000E+00         0.00000E+00         0.17322E+04
 
    0.23169E+04         0.88445E+02         0.00000E+00
    0.88445E+02        -0.26401E+02         0.00000E+00
    0.00000E+00         0.00000E+00         0.68715E+03
 
   -0.66626E+03         0.78299E+03         0.00000E+00
    0.78299E+03        -0.29611E+03         0.00000E+00
    0.00000E+00         0.00000E+00        -0.28871E+03
 
   -0.30283E+04         0.17745E+04         0.00000E+00
    0.17745E+04        -0.85001E+03         0.00000E+00
    0.00000E+00         0.00000E+00        -0.11635E+04
 
   -0.47208E+04         0.28656E+04         0.00000E+00
    0.28656E+04        -0.16744E+04         0.00000E+00
    0.00000E+00         0.00000E+00        -0.19186E+04
 
   -0.57942E+04         0.38951E+04         0.00000E+00
    0.38951E+04        -0.27011E+04         0.00000E+00
    0.00000E+00         0.00000E+00        -0.25486E+04
 
   -0.63576E+04         0.47596E+04         0.00000E+00
    0.47596E+04        -0.38392E+04         0.00000E+00
    0.00000E+00         0.00000E+00        -0.30590E+04
 
   -0.65400E+04         0.54116E+04         0.00000E+00
    0.54116E+04        -0.50010E+04         0.00000E+00
    0.00000E+00         0.00000E+00        -0.34623E+04
 
   -0.64630E+04         0.58461E+04         0.00000E+00
    0.58461E+04        -0.61176E+04         0.00000E+00
    0.00000E+00         0.00000E+00        -0.37742E+04
 
   -0.62278E+04         0.60839E+04         0.00000E+00
    0.60839E+04        -0.71426E+04         0.00000E+00
    0.00000E+00         0.00000E+00        -0.40111E+04
 
   -0.59116E+04         0.61585E+04         0.00000E+00
    0.61585E+04        -0.80502E+04         0.00000E+00
    0.00000E+00         0.00000E+00        -0.41885E+04
 
   -0.55695E+04         0.61069E+04         0.00000E+00
    0.61069E+04        -0.88301E+04         0.00000E+00
    0.00000E+00         0.00000E+00        -0.43199E+04
 
   -0.52387E+04         0.59647E+04         0.00000E+00
    0.59647E+04        -0.94830E+04         0.00000E+00
    0.00000E+00         0.00000E+00        -0.44165E+04
 
   -0.49429E+04         0.57635E+04         0.00000E+00
    0.57635E+04        -0.10016E+05         0.00000E+00
    0.00000E+00         0.00000E+00        -0.44877E+04
 
   -0.46959E+04         0.55305E+04         0.00000E+00
    0.55305E+04        -0.10440E+05         0.00000E+00
    0.00000E+00         0.00000E+00        -0.45409E+04
 
   -0.45049E+04         0.52889E+04         0.00000E+00
    0.52889E+04        -0.10768E+05         0.00000E+00
    0.00000E+00         0.00000E+00        -0.45818E+04
 
   -0.43724E+04         0.50581E+04         0.00000E+00
    0.50581E+04        -0.11010E+05         0.00000E+00
    0.00000E+00         0.00000E+00        -0.46148E+04
 
   -0.42974E+04         0.48551E+04         0.00000E+00
    0.48551E+04        -0.11181E+05         0.00000E+00
    0.00000E+00         0.00000E+00        -0.46434E+04
 
   -0.42770E+04         0.46953E+04         0.00000E+00
    0.46953E+04        -0.11289E+05         0.00000E+00
    0.00000E+00         0.00000E+00        -0.46698E+04
 
   -0.43060E+04         0.45934E+04         0.00000E+00
    0.45934E+04        -0.11346E+05         0.00000E+00
    0.00000E+00         0.00000E+00        -0.46955E+04
 
   -0.43777E+04         0.45641E+04         0.00000E+00
    0.45641E+04        -0.11361E+05         0.00000E+00
    0.00000E+00         0.00000E+00        -0.47215E+04
 
   -0.44830E+04         0.46232E+04         0.00000E+00
    0.46232E+04        -0.11343E+05         0.00000E+00
    0.00000E+00         0.00000E+00        -0.47478E+04
 
   -0.46102E+04         0.47878E+04         0.00000E+00
    0.47878E+04        -0.11303E+05         0.00000E+00
    0.00000E+00         0.00000E+00        -0.47739E+04
 
   -0.47438E+04         0.50776E+04         0.00000E+00
    0.50776E+04        -0.11251E+05         0.00000E+00
    0.00000E+00         0.00000E+00        -0.47984E+04
 
    0.56290E+04        -0.14464E+03         0.00000E+00
   -0.14464E+03         0.22238E+02         0.00000E+00
    0.00000E+00         0.00000E+00         0.16954E+04
 
    0.26879E+04        -0.74718E+02         0.00000E+00
   -0.74718E+02         0.49128E+01         0.00000E+00
    0.00000E+00         0.00000E+00         0.80784E+03
 
    0.69792E+02         0.39204E+03         0.00000E+00
    0.39204E+03        -0.17206E+03         0.00000E+00
    0.00000E+00         0.00000E+00        -0.30679E+02
 
   -0.20934E+04         0.11298E+04         0.00000E+00
    0.11298E+04        -0.56136E+03         0.00000E+00
    0.00000E+00         0.00000E+00        -0.79644E+03
 
   -0.37458E+04         0.19980E+04         0.00000E+00
    0.19980E+04        -0.11672E+04         0.00000E+00
    0.00000E+00         0.00000E+00        -0.14739E+04
 
   -0.49008E+04         0.28713E+04         0.00000E+00
    0.28713E+04        -0.19534E+04         0.00000E+00
    0.00000E+00         0.00000E+00        -0.20563E+04
 
   -0.56199E+04         0.36578E+04         0.00000E+00
    0.36578E+04        -0.28611E+04         0.00000E+00
    0.00000E+00         0.00000E+00        -0.25443E+04
 
   -0.59891E+04         0.43034E+04         0.00000E+00
    0.43034E+04        -0.38257E+04         0.00000E+00
    0.00000E+00         0.00000E+00        -0.29444E+04
 
   -0.60987E+04         0.47867E+04         0.00000E+00
    0.47867E+04        -0.47896E+04         0.00000E+00
    0.00000E+00         0.00000E+00        -0.32665E+04
 
   -0.60306E+04         0.51105E+04         0.00000E+00
    0.51105E+04        -0.57085E+04         0.00000E+00
    0.00000E+00         0.00000E+00        -0.35217E+04
 
   -0.58528E+04         0.52920E+04         0.00000E+00
    0.52920E+04        -0.65522E+04         0.00000E+00
    0.00000E+00         0.00000E+00        -0.37215E+04
 
   -0.56176E+04         0.53558E+04         0.00000E+00
    0.53558E+04        -0.73037E+04         0.00000E+00
    0.00000E+00         0.00000E+00        -0.38764E+04
 
   -0.53635E+04         0.53286E+04         0.00000E+00
    0.53286E+04        -0.79557E+04         0.00000E+00
    0.00000E+00         0.00000E+00        -0.39957E+04
 
   -0.51168E+04         0.52368E+04         0.00000E+00
    0.52368E+04        -0.85080E+04         0.00000E+00
    0.00000E+00         0.00000E+00        -0.40874E+04
 
   -0.48949E+04         0.51046E+04         0.00000E+00
    0.51046E+04        -0.89653E+04         0.00000E+00
    0.00000E+00         0.00000E+00        -0.41580E+04
 
   -0.47081E+04         0.49534E+04         0.00000E+00
    0.49534E+04        -0.93347E+04         0.00000E+00
    0.00000E+00         0.00000E+00        -0.42128E+04
 
   -0.45615E+04         0.48026E+04         0.00000E+00
    0.48026E+04        -0.96249E+04         0.00000E+00
    0.00000E+00         0.00000E+00        -0.42559E+04
 
   -0.44561E+04         0.46692E+04         0.00000E+00
    0.46692E+04        -0.98453E+04         0.00000E+00
    0.00000E+00         0.00000E+00        -0.42904E+04
 
   -0.43902E+04         0.45691E+04         0.00000E+00
    0.45691E+04        -0.10005E+05         0.00000E+00
    0.00000E+00         0.00000E+00        -0.43186E+04
 
   -0.43589E+04         0.45172E+04         0.00000E+00
    0.45172E+04        -0.10114E+05         0.00000E+00
    0.00000E+00         0.00000E+00        -0.43418E+04
 
   -0.43551E+04         0.45285E+04         0.00000E+00
    0.45285E+04        -0.10181E+05         0.00000E+00
    0.00000E+00         0.00000E+00        -0.43608E+04
 
   -0.43688E+04         0.46182E+04         0.00000E+00
    0.46182E+04        -0.10216E+05         0.00000E+00
    0.00000E+00         0.00000E+00        -0.43755E+04
 
   -0.43868E+04         0.48025E+04         0.00000E+00
    0.48025E+04        -0.10230E+05         0.00000E+00
    0.00000E+00         0.00000E+00        -0.43852E+04
 
   -0.43915E+04         0.50991E+04         0.00000E+00
    0.50991E+04        -0.10236E+05         0.00000E+00
    0.00000E+00         0.00000E+00        -0.43883E+04
 
    0.54370E+04        -0.16057E+03         0.00000E+00
   -0.16057E+03         0.23462E+02         0.00000E+00
    0.00000E+00         0.00000E+00         0.16381E+04
 
    0.28961E+04        -0.19100E+03         0.00000E+00
   -0.19100E+03         0.26029E+02         0.00000E+00
    0.00000E+00         0.00000E+00         0.87663E+03
 
    0.59015E+03         0.10884E+03         0.00000E+00
    0.10884E+03        -0.88056E+02         0.00000E+00
    0.00000E+00         0.00000E+00         0.15063E+03
 
   -0.13770E+04         0.65141E+03         0.00000E+00
    0.65141E+03        -0.36255E+03         0.00000E+00
    0.00000E+00         0.00000E+00        -0.52185E+03
 
   -0.29511E+04         0.13349E+04         0.00000E+00
    0.13349E+04        -0.80918E+03         0.00000E+00
    0.00000E+00         0.00000E+00        -0.11281E+04
 
   -0.41266E+04         0.20628E+04         0.00000E+00
    0.20628E+04        -0.14105E+04         0.00000E+00
    0.00000E+00         0.00000E+00        -0.16611E+04
 
   -0.49357E+04         0.27574E+04         0.00000E+00
    0.27574E+04        -0.21294E+04         0.00000E+00
    0.00000E+00         0.00000E+00        -0.21195E+04
 
   -0.54337E+04         0.33660E+04         0.00000E+00
    0.33660E+04        -0.29198E+04         0.00000E+00
    0.00000E+00         0.00000E+00        -0.25060E+04
 
   -0.56855E+04         0.38599E+04         0.00000E+00
    0.38599E+04        -0.37362E+04         0.00000E+00
    0.00000E+00         0.00000E+00        -0.28265E+04
 
   -0.57549E+04         0.42305E+04         0.00000E+00
    0.42305E+04        -0.45399E+04         0.00000E+00
    0.00000E+00         0.00000E+00        -0.30884E+04
 
   -0.56986E+04         0.44832E+04         0.00000E+00
    0.44832E+04        -0.53013E+04         0.00000E+00
    0.00000E+00         0.00000E+00        -0.33000E+04
 
   -0.55635E+04         0.46325E+04         0.00000E+00
    0.46325E+04        -0.60002E+04         0.00000E+00
    0.00000E+00         0.00000E+00        -0.34691E+04
 
   -0.53860E+04         0.46969E+04         0.00000E+00
    0.46969E+04        -0.66250E+04         0.00000E+00
    0.00000E+00         0.00000E+00        -0.36033E+04
 
   -0.51931E+04         0.46969E+04         0.00000E+00
    0.46969E+04        -0.71705E+04         0.00000E+00
    0.00000E+00         0.00000E+00        -0.37091E+04
 
   -0.50036E+04         0.46528E+04         0.00000E+00
    0.46528E+04        -0.76363E+04         0.00000E+00
    0.00000E+00         0.00000E+00        -0.37920E+04
 
   -0.48296E+04         0.45836E+04         0.00000E+00
    0.45836E+04        -0.80258E+04         0.00000E+00
    0.00000E+00         0.00000E+00        -0.38566E+04
 
   -0.46782E+04         0.45073E+04         0.00000E+00
    0.45073E+04        -0.83442E+04         0.00000E+00
    0.00000E+00         0.00000E+00        -0.39067E+04
 
   -0.45519E+04         0.44402E+04         0.00000E+00
    0.44402E+04        -0.85982E+04         0.00000E+00
    0.00000E+00         0.00000E+00        -0.39450E+04
 
   -0.44497E+04         0.43977E+04         0.00000E+00
    0.43977E+04        -0.87956E+04         0.00000E+00
    0.00000E+00         0.00000E+00        -0.39736E+04
 
   -0.43675E+04         0.43945E+04         0.00000E+00
    0.43945E+04        -0.89446E+04         0.00000E+00
    0.00000E+00         0.00000E+00        -0.39936E+04
 
   -0.42980E+04         0.44449E+04         0.00000E+00
    0.44449E+04        -0.90542E+04         0.00000E+00
    0.00000E+00         0.00000E+00        -0.40057E+04
 
   -0.42309E+04         0.45634E+04         0.00000E+00
    0.45634E+04        -0.91342E+04         0.00000E+00
    0.00000E+00         0.00000E+00        -0.40095E+04
 
   -0.41519E+04         0.47648E+04         0.00000E+00
    0.47648E+04        -0.91959E+04         0.00000E+00
    0.00000E+00         0.00000E+00        -0.40044E+04
 
   -0.40425E+04         0.50645E+04         0.00000E+00
    0.50645E+04        -0.92522E+04         0.00000E+00
    0.00000E+00         0.00000E+00        -0.39884E+04
 
    0.51969E+04        -0.17170E+03         0.00000E+00
   -0.17170E+03         0.24338E+02         0.00000E+00
    0.00000E+00         0.00000E+00         0.15664E+04
 
    0.29858E+04        -0.27478E+03         0.00000E+00
   -0.27478E+03         0.40933E+02         0.00000E+00
    0.00000E+00         0.00000E+00         0.90803E+03
 
    0.94811E+03        -0.99106E+02         0.00000E+00
   -0.99106E+02        -0.28819E+02         0.00000E+00
    0.00000E+00         0.00000E+00         0.27579E+03
 
   -0.83388E+03         0.29257E+03         0.00000E+00
    0.29257E+03        -0.22092E+03         0.00000E+00
    0.00000E+00         0.00000E+00        -0.31644E+03
 
   -0.23110E+04         0.82528E+03         0.00000E+00
    0.82528E+03        -0.54973E+03         0.00000E+00
    0.00000E+00         0.00000E+00        -0.85823E+03
 
   -0.34685E+04         0.14245E+04         0.00000E+00
    0.14245E+04        -0.10086E+04         0.00000E+00
    0.00000E+00         0.00000E+00        -0.13431E+04
 
   -0.43205E+04         0.20262E+04         0.00000E+00
    0.20262E+04        -0.15746E+04         0.00000E+00
    0.00000E+00         0.00000E+00        -0.17685E+04
 
   -0.49013E+04         0.25824E+04         0.00000E+00
    0.25824E+04        -0.22158E+04         0.00000E+00
    0.00000E+00         0.00000E+00        -0.21352E+04
 
   -0.52563E+04         0.30626E+04         0.00000E+00
    0.30626E+04        -0.28976E+04         0.00000E+00
    0.00000E+00         0.00000E+00        -0.24462E+04
 
   -0.54336E+04         0.34520E+04         0.00000E+00
    0.34520E+04        -0.35879E+04         0.00000E+00
    0.00000E+00         0.00000E+00        -0.27064E+04
 
   -0.54789E+04         0.37481E+04         0.00000E+00
    0.37481E+04        -0.42598E+04         0.00000E+00
    0.00000E+00         0.00000E+00        -0.29216E+04
 
   -0.54323E+04         0.39573E+04         0.00000E+00
    0.39573E+04        -0.48931E+04         0.00000E+00
    0.00000E+00         0.00000E+00        -0.30976E+04
 
   -0.53265E+04         0.40915E+04         0.00000E+00
    0.40915E+04        -0.54739E+04         0.00000E+00
    0.00000E+00         0.00000E+00        -0.32401E+04
 
   -0.51872E+04         0.41656E+04         0.00000E+00
    0.41656E+04        -0.59943E+04         0.00000E+00
    0.00000E+00         0.00000E+00        -0.33544E+04
 
   -0.50333E+04         0.41958E+04         0.00000E+00
    0.41958E+04        -0.64505E+04         0.00000E+00
    0.00000E+00         0.00000E+00        -0.34451E+04
 
   -0.48776E+04         0.41983E+04         0.00000E+00
    0.41983E+04        -0.68427E+04         0.00000E+00
    0.00000E+00         0.00000E+00        -0.35161E+04
 
   -0.47281E+04         0.41887E+04         0.00000E+00
    0.41887E+04        -0.71733E+04         0.00000E+00
    0.00000E+00         0.00000E+00        -0.35704E+04
 
   -0.45883E+04         0.41823E+04         0.00000E+00
    0.41823E+04        -0.74470E+04         0.00000E+00
    0.00000E+00         0.00000E+00        -0.36106E+04
 
   -0.44582E+04         0.41932E+04         0.00000E+00
    0.41932E+04        -0.76696E+04         0.00000E+00
    0.00000E+00         0.00000E+00        -0.36383E+04
 
   -0.43339E+04         0.42354E+04         0.00000E+00
    0.42354E+04        -0.78483E+04         0.00000E+00
    0.00000E+00         0.00000E+00        -0.36547E+04
 
   -0.42086E+04         0.43221E+04         0.00000E+00
    0.43221E+04        -0.79913E+04         0.00000E+00
    0.00000E+00         0.00000E+00        -0.36600E+04
 
   -0.40717E+04         0.44666E+04         0.00000E+00
    0.44666E+04        -0.81081E+04         0.00000E+00
    0.00000E+00         0.00000E+00        -0.36539E+04
 
   -0.39087E+04         0.46819E+04         0.00000E+00
    0.46819E+04        -0.82097E+04         0.00000E+00
    0.00000E+00         0.00000E+00        -0.36355E+04
 
   -0.37008E+04         0.49813E+04         0.00000E+00
    0.49813E+04        -0.83092E+04         0.00000E+00
    0.00000E+00         0.00000E+00        -0.36030E+04
 
    0.49227E+04        -0.17908E+03         0.00000E+00
   -0.17908E+03         0.24978E+02         0.00000E+00
    0.00000E+00         0.00000E+00         0.14843E+04
 
    0.29883E+04        -0.33504E+03         0.00000E+00
   -0.33504E+03         0.51837E+02         0.00000E+00
    0.00000E+00         0.00000E+00         0.91204E+03
 
    0.11826E+04        -0.25270E+03         0.00000E+00
   -0.25270E+03         0.14388E+02         0.00000E+00
    0.00000E+00         0.00000E+00         0.35909E+03
 
   -0.42824E+03         0.21754E+02         0.00000E+00
    0.21754E+02        -0.11704E+03         0.00000E+00
    0.00000E+00         0.00000E+00        -0.16358E+03
 
   -0.18009E+04         0.43212E+03         0.00000E+00
    0.43212E+03        -0.35714E+03         0.00000E+00
    0.00000E+00         0.00000E+00        -0.64740E+03
 
   -0.29166E+04         0.92057E+03         0.00000E+00
    0.92057E+03        -0.70530E+03         0.00000E+00
    0.00000E+00         0.00000E+00        -0.10866E+04
 
   -0.37786E+04         0.14349E+04         0.00000E+00
    0.14349E+04        -0.11482E+04         0.00000E+00
    0.00000E+00         0.00000E+00        -0.14780E+04
 
   -0.44072E+04         0.19330E+04         0.00000E+00
    0.19330E+04        -0.16639E+04         0.00000E+00
    0.00000E+00         0.00000E+00        -0.18213E+04
 
   -0.48328E+04         0.23855E+04         0.00000E+00
    0.23855E+04        -0.22267E+04         0.00000E+00
    0.00000E+00         0.00000E+00        -0.21179E+04
 
   -0.50911E+04         0.27745E+04         0.00000E+00
    0.27745E+04        -0.28110E+04         0.00000E+00
    0.00000E+00         0.00000E+00        -0.23706E+04
 
   -0.52178E+04         0.30929E+04         0.00000E+00
    0.30929E+04        -0.33936E+04         0.00000E+00
    0.00000E+00         0.00000E+00        -0.25834E+04
 
   -0.52458E+04         0.33414E+04         0.00000E+00
    0.33414E+04        -0.39558E+04         0.00000E+00
    0.00000E+00         0.00000E+00        -0.27605E+04
 
   -0.52037E+04         0.35265E+04         0.00000E+00
    0.35265E+04        -0.44834E+04         0.00000E+00
    0.00000E+00         0.00000E+00        -0.29061E+04
 
   -0.51146E+04         0.36583E+04         0.00000E+00
    0.36583E+04        -0.49669E+04         0.00000E+00
    0.00000E+00         0.00000E+00        -0.30244E+04
 
   -0.49962E+04         0.37491E+04         0.00000E+00
    0.37491E+04        -0.54007E+04         0.00000E+00
    0.00000E+00         0.00000E+00        -0.31191E+04
 
   -0.48614E+04         0.38120E+04         0.00000E+00
    0.38120E+04        -0.57826E+04         0.00000E+00
    0.00000E+00         0.00000E+00        -0.31932E+04
 
   -0.47183E+04         0.38604E+04         0.00000E+00
    0.38604E+04        -0.61131E+04         0.00000E+00
    0.00000E+00         0.00000E+00        -0.32494E+04
 
   -0.45710E+04         0.39076E+04         0.00000E+00
    0.39076E+04        -0.63949E+04         0.00000E+00
    0.00000E+00         0.00000E+00        -0.32898E+04
 
   -0.44200E+04         0.39664E+04         0.00000E+00
    0.39664E+04        -0.66324E+04         0.00000E+00
    0.00000E+00         0.00000E+00        -0.33157E+04
 
   -0.42618E+04         0.40493E+04         0.00000E+00
    0.40493E+04        -0.68315E+04         0.00000E+00
    0.00000E+00         0.00000E+00        -0.33280E+04
 
   -0.40900E+04         0.41683E+04         0.00000E+00
    0.41683E+04        -0.69996E+04         0.00000E+00
    0.00000E+00         0.00000E+00        -0.33269E+04
 
   -0.38943E+04         0.43352E+04         0.00000E+00
    0.43352E+04        -0.71454E+04         0.00000E+00
    0.00000E+00         0.00000E+00        -0.33119E+04
 
   -0.36605E+04         0.45612E+04         0.00000E+00
    0.45612E+04        -0.72797E+04         0.00000E+00
    0.00000E+00         0.00000E+00        -0.32821E+04
 
   -0.33699E+04         0.48569E+04         0.00000E+00
    0.48569E+04        -0.74151E+04         0.00000E+00
    0.00000E+00         0.00000E+00        -0.32355E+04
 
    0.46249E+04        -0.18344E+03         0.00000E+00
   -0.18344E+03         0.25442E+02         0.00000E+00
    0.00000E+00         0.00000E+00         0.13951E+04
 
    0.29260E+04        -0.37767E+03         0.00000E+00
   -0.37767E+03         0.60028E+02         0.00000E+00
    0.00000E+00         0.00000E+00         0.89580E+03
 
    0.13225E+04        -0.36588E+03         0.00000E+00
   -0.36588E+03         0.46768E+02         0.00000E+00
    0.00000E+00         0.00000E+00         0.41078E+03
 
   -0.13161E+03        -0.18284E+03         0.00000E+00
   -0.18284E+03        -0.38954E+02         0.00000E+00
    0.00000E+00         0.00000E+00        -0.51170E+02
 
   -0.13986E+04         0.12859E+03         0.00000E+00
    0.12859E+03        -0.21117E+03         0.00000E+00
    0.00000E+00         0.00000E+00        -0.48292E+03
 
   -0.24585E+04         0.52318E+03         0.00000E+00
    0.52318E+03        -0.47262E+03         0.00000E+00
    0.00000E+00         0.00000E+00        -0.87933E+03
 
   -0.33081E+04         0.95844E+03         0.00000E+00
    0.95844E+03        -0.81612E+03         0.00000E+00
    0.00000E+00         0.00000E+00        -0.12373E+04
 
   -0.39581E+04         0.13984E+04         0.00000E+00
    0.13984E+04        -0.12271E+04         0.00000E+00
    0.00000E+00         0.00000E+00        -0.15556E+04
 
   -0.44283E+04         0.18158E+04         0.00000E+00
    0.18158E+04        -0.16868E+04         0.00000E+00
    0.00000E+00         0.00000E+00        -0.18345E+04
 
   -0.47444E+04         0.21923E+04         0.00000E+00
    0.21923E+04        -0.21751E+04         0.00000E+00
    0.00000E+00         0.00000E+00        -0.20759E+04
 
   -0.49335E+04         0.25179E+04         0.00000E+00
    0.25179E+04        -0.26730E+04         0.00000E+00
    0.00000E+00         0.00000E+00        -0.22820E+04
 
   -0.50221E+04         0.27896E+04         0.00000E+00
    0.27896E+04        -0.31638E+04         0.00000E+00
    0.00000E+00         0.00000E+00        -0.24558E+04
 
   -0.50341E+04         0.30099E+04         0.00000E+00
    0.30099E+04        -0.36342E+04         0.00000E+00
    0.00000E+00         0.00000E+00        -0.26005E+04
 
   -0.49895E+04         0.31849E+04         0.00000E+00
    0.31849E+04        -0.40742E+04         0.00000E+00
    0.00000E+00         0.00000E+00        -0.27191E+04
 
   -0.49046E+04         0.33235E+04         0.00000E+00
    0.33235E+04        -0.44773E+04         0.00000E+00
    0.00000E+00         0.00000E+00        -0.28146E+04
 
   -0.47911E+04         0.34359E+04         0.00000E+00
    0.34359E+04        -0.48399E+04         0.00000E+00
    0.00000E+00         0.00000E+00        -0.28893E+04
 
   -0.46571E+04         0.35330E+04         0.00000E+00
    0.35330E+04        -0.51611E+04         0.00000E+00
    0.00000E+00         0.00000E+00        -0.29455E+04
 
   -0.45067E+04         0.36260E+04         0.00000E+00
    0.36260E+04        -0.54421E+04         0.00000E+00
    0.00000E+00         0.00000E+00        -0.29846E+04
 
   -0.43405E+04         0.37262E+04         0.00000E+00
    0.37262E+04        -0.56859E+04         0.00000E+00
    0.00000E+00         0.00000E+00        -0.30079E+04
 
   -0.41559E+04         0.38444E+04         0.00000E+00
    0.38444E+04        -0.58975E+04         0.00000E+00
    0.00000E+00         0.00000E+00        -0.30160E+04
 
   -0.39464E+04         0.39912E+04         0.00000E+00
    0.39912E+04        -0.60832E+04         0.00000E+00
    0.00000E+00         0.00000E+00        -0.30089E+04
 
   -0.37024E+04         0.41765E+04         0.00000E+00
    0.41765E+04        -0.62512E+04         0.00000E+00
    0.00000E+00         0.00000E+00        -0.29861E+04
 
   -0.34103E+04         0.44096E+04         0.00000E+00
    0.44096E+04        -0.64113E+04         0.00000E+00
    0.00000E+00         0.00000E+00        -0.29465E+04
 
   -0.30524E+04         0.46989E+04         0.00000E+00
    0.46989E+04        -0.65756E+04         0.00000E+00
    0.00000E+00         0.00000E+00        -0.28884E+04
 
    0.43116E+04        -0.18529E+03         0.00000E+00
   -0.18529E+03         0.25768E+02         0.00000E+00
    0.00000E+00         0.00000E+00         0.13012E+04
 
    0.28156E+04        -0.40669E+03         0.00000E+00
   -0.40669E+03         0.66282E+02         0.00000E+00
    0.00000E+00         0.00000E+00         0.86456E+03
 
    0.13897E+04        -0.44823E+03         0.00000E+00
   -0.44823E+03         0.71535E+02         0.00000E+00
    0.00000E+00         0.00000E+00         0.43837E+03
 
    0.78483E+02        -0.33664E+03         0.00000E+00
   -0.33664E+03         0.20898E+02         0.00000E+00
    0.00000E+00         0.00000E+00         0.29814E+02
 
   -0.10852E+04        -0.10507E+03         0.00000E+00
   -0.10507E+03        -0.98592E+02         0.00000E+00
    0.00000E+00         0.00000E+00        -0.35513E+03
 
   -0.20816E+04         0.21075E+03         0.00000E+00
    0.21075E+03        -0.29150E+03         0.00000E+00
    0.00000E+00         0.00000E+00        -0.71192E+03
 
   -0.29038E+04         0.57628E+03         0.00000E+00
    0.57628E+03        -0.55462E+03         0.00000E+00
    0.00000E+00         0.00000E+00        -0.10375E+04
 
   -0.35559E+04         0.96107E+03         0.00000E+00
    0.96107E+03        -0.87856E+03         0.00000E+00
    0.00000E+00         0.00000E+00        -0.13303E+04
 
   -0.40504E+04         0.13406E+04         0.00000E+00
    0.13406E+04        -0.12499E+04         0.00000E+00
    0.00000E+00         0.00000E+00        -0.15901E+04
 
   -0.44048E+04         0.16972E+04         0.00000E+00
    0.16972E+04        -0.16533E+04         0.00000E+00
    0.00000E+00         0.00000E+00        -0.18174E+04
 
   -0.46395E+04         0.20195E+04         0.00000E+00
    0.20195E+04        -0.20732E+04         0.00000E+00
    0.00000E+00         0.00000E+00        -0.20138E+04
 
   -0.47753E+04         0.23023E+04         0.00000E+00
    0.23023E+04        -0.24956E+04         0.00000E+00
    0.00000E+00         0.00000E+00        -0.21813E+04
 
   -0.48314E+04         0.25451E+04         0.00000E+00
    0.25451E+04        -0.29084E+04         0.00000E+00
    0.00000E+00         0.00000E+00        -0.23219E+04
 
   -0.48249E+04         0.27511E+04         0.00000E+00
    0.27511E+04        -0.33020E+04         0.00000E+00
    0.00000E+00         0.00000E+00        -0.24381E+04
 
   -0.47697E+04         0.29260E+04         0.00000E+00
    0.29260E+04        -0.36697E+04         0.00000E+00
    0.00000E+00         0.00000E+00        -0.25318E+04
 
   -0.46766E+04         0.30775E+04         0.00000E+00
    0.30775E+04        -0.40072E+04         0.00000E+00
    0.00000E+00         0.00000E+00        -0.26051E+04
 
   -0.45528E+04         0.32142E+04         0.00000E+00
    0.32142E+04        -0.43126E+04         0.00000E+00
    0.00000E+00         0.00000E+00        -0.26596E+04
 
   -0.44024E+04         0.33453E+04         0.00000E+00
    0.33453E+04        -0.45860E+04         0.00000E+00
    0.00000E+00         0.00000E+00        -0.26965E+04
 
   -0.42260E+04         0.34801E+04         0.00000E+00
    0.34801E+04        -0.48295E+04         0.00000E+00
    0.00000E+00         0.00000E+00        -0.27166E+04
 
   -0.40211E+04         0.36278E+04         0.00000E+00
    0.36278E+04        -0.50470E+04         0.00000E+00
    0.00000E+00         0.00000E+00        -0.27204E+04
 
   -0.37821E+04         0.37974E+04         0.00000E+00
    0.37974E+04        -0.52441E+04         0.00000E+00
    0.00000E+00         0.00000E+00        -0.27078E+04
 
   -0.34997E+04         0.39969E+04         0.00000E+00
    0.39969E+04        -0.54279E+04         0.00000E+00
    0.00000E+00         0.00000E+00        -0.26783E+04
 
   -0.31613E+04         0.42338E+04         0.00000E+00
    0.42338E+04        -0.56076E+04         0.00000E+00
    0.00000E+00         0.00000E+00        -0.26307E+04
 
   -0.27504E+04         0.45142E+04         0.00000E+00
    0.45142E+04        -0.57942E+04         0.00000E+00
    0.00000E+00         0.00000E+00        -0.25634E+04
 
    0.39893E+04        -0.18506E+03         0.00000E+00
   -0.18506E+03         0.25979E+02         0.00000E+00
    0.00000E+00         0.00000E+00         0.12046E+04
 
    0.26699E+04        -0.42497E+03         0.00000E+00
   -0.42497E+03         0.71090E+02         0.00000E+00
    0.00000E+00         0.00000E+00         0.82229E+03
 
    0.14010E+04        -0.50661E+03         0.00000E+00
   -0.50661E+03         0.90739E+02         0.00000E+00
    0.00000E+00         0.00000E+00         0.44752E+03
 
    0.21988E+03        -0.45082E+03         0.00000E+00
   -0.45082E+03         0.67448E+02         0.00000E+00
    0.00000E+00         0.00000E+00         0.86199E+02
 
   -0.84474E+03        -0.28362E+03         0.00000E+00
   -0.28362E+03        -0.10594E+02         0.00000E+00
    0.00000E+00         0.00000E+00        -0.25660E+03
 
   -0.17740E+04        -0.33443E+02         0.00000E+00
   -0.33443E+02        -0.14885E+03         0.00000E+00
    0.00000E+00         0.00000E+00        -0.57687E+03
 
   -0.25590E+04         0.27152E+03         0.00000E+00
    0.27152E+03        -0.34671E+03         0.00000E+00
    0.00000E+00         0.00000E+00        -0.87172E+03
 
   -0.31996E+04         0.60560E+03         0.00000E+00
    0.60560E+03        -0.59843E+03         0.00000E+00
    0.00000E+00         0.00000E+00        -0.11394E+04
 
   -0.37025E+04         0.94727E+03         0.00000E+00
    0.94727E+03        -0.89463E+03         0.00000E+00
    0.00000E+00         0.00000E+00        -0.13791E+04
 
   -0.40796E+04         0.12799E+04         0.00000E+00
    0.12799E+04        -0.12238E+04         0.00000E+00
    0.00000E+00         0.00000E+00        -0.15910E+04
 
   -0.43457E+04         0.15921E+04         0.00000E+00
    0.15921E+04        -0.15736E+04         0.00000E+00
    0.00000E+00         0.00000E+00        -0.17758E+04
 
   -0.45163E+04         0.18772E+04         0.00000E+00
    0.18772E+04        -0.19324E+04         0.00000E+00
    0.00000E+00         0.00000E+00        -0.19346E+04
 
   -0.46070E+04         0.21326E+04         0.00000E+00
    0.21326E+04        -0.22896E+04         0.00000E+00
    0.00000E+00         0.00000E+00        -0.20690E+04
 
   -0.46316E+04         0.23593E+04         0.00000E+00
    0.23593E+04        -0.26367E+04         0.00000E+00
    0.00000E+00         0.00000E+00        -0.21805E+04
 
   -0.46019E+04         0.25606E+04         0.00000E+00
    0.25606E+04        -0.29670E+04         0.00000E+00
    0.00000E+00         0.00000E+00        -0.22707E+04
 
   -0.45272E+04         0.27419E+04         0.00000E+00
    0.27419E+04        -0.32760E+04         0.00000E+00
    0.00000E+00         0.00000E+00        -0.23410E+04
 
   -0.44138E+04         0.29097E+04         0.00000E+00
    0.29097E+04        -0.35613E+04         0.00000E+00
    0.00000E+00         0.00000E+00        -0.23925E+04
 
   -0.42654E+04         0.30712E+04         0.00000E+00
    0.30712E+04        -0.38223E+04         0.00000E+00
    0.00000E+00         0.00000E+00        -0.24263E+04
 
   -0.40825E+04         0.32339E+04         0.00000E+00
    0.32339E+04        -0.40604E+04         0.00000E+00
    0.00000E+00         0.00000E+00        -0.24429E+04
 
   -0.38630E+04         0.34054E+04         0.00000E+00
    0.34054E+04        -0.42787E+04         0.00000E+00
    0.00000E+00         0.00000E+00        -0.24425E+04
 
   -0.36015E+04         0.35927E+04         0.00000E+00
    0.35927E+04        -0.44818E+04         0.00000E+00
    0.00000E+00         0.00000E+00        -0.24250E+04
 
   -0.32897E+04         0.38023E+04         0.00000E+00
    0.38023E+04        -0.46761E+04         0.00000E+00
    0.00000E+00         0.00000E+00        -0.23897E+04
 
   -0.29161E+04         0.40398E+04         0.00000E+00
    0.40398E+04        -0.48697E+04         0.00000E+00
    0.00000E+00         0.00000E+00        -0.23357E+04
 
   -0.24656E+04         0.43094E+04         0.00000E+00
    0.43094E+04        -0.50726E+04         0.00000E+00
    0.00000E+00         0.00000E+00        -0.22615E+04
 
    0.36631E+04        -0.18306E+03         0.00000E+00
   -0.18306E+03         0.26090E+02         0.00000E+00
    0.00000E+00         0.00000E+00         0.11068E+04
 
    0.24988E+04        -0.43467E+03         0.00000E+00
   -0.43467E+03         0.74771E+02         0.00000E+00
    0.00000E+00         0.00000E+00         0.77208E+03
 
    0.13695E+04        -0.54604E+03         0.00000E+00
   -0.54604E+03         0.10573E+03         0.00000E+00
    0.00000E+00         0.00000E+00         0.44257E+03
 
    0.30683E+03        -0.53368E+03         0.00000E+00
   -0.53368E+03         0.10400E+03         0.00000E+00
    0.00000E+00         0.00000E+00         0.12325E+03
 
   -0.66399E+03        -0.41822E+03         0.00000E+00
   -0.41822E+03         0.58856E+02         0.00000E+00
    0.00000E+00         0.00000E+00        -0.18154E+03
 
   -0.15253E+04        -0.22250E+03         0.00000E+00
   -0.22250E+03        -0.35530E+02         0.00000E+00
    0.00000E+00         0.00000E+00        -0.46824E+03
 
   -0.22670E+04         0.30399E+02         0.00000E+00
    0.30399E+02        -0.18021E+03         0.00000E+00
    0.00000E+00         0.00000E+00        -0.73415E+03
 
   -0.28862E+04         0.31891E+03         0.00000E+00
    0.31891E+03        -0.37203E+03         0.00000E+00
    0.00000E+00         0.00000E+00        -0.97746E+03
 
   -0.33858E+04         0.62428E+03         0.00000E+00
    0.62428E+03        -0.60463E+03         0.00000E+00
    0.00000E+00         0.00000E+00        -0.11971E+04
 
   -0.37731E+04         0.93141E+03         0.00000E+00
    0.93141E+03        -0.86951E+03         0.00000E+00
    0.00000E+00         0.00000E+00        -0.13928E+04
 
   -0.40585E+04         0.12291E+04         0.00000E+00
    0.12291E+04        -0.11572E+04         0.00000E+00
    0.00000E+00         0.00000E+00        -0.15647E+04
 
   -0.42535E+04         0.15101E+04         0.00000E+00
    0.15101E+04        -0.14581E+04         0.00000E+00
    0.00000E+00         0.00000E+00        -0.17135E+04
 
   -0.43699E+04         0.17705E+04         0.00000E+00
    0.17705E+04        -0.17634E+04         0.00000E+00
    0.00000E+00         0.00000E+00        -0.18400E+04
 
   -0.44189E+04         0.20096E+04         0.00000E+00
    0.20096E+04        -0.20655E+04         0.00000E+00
    0.00000E+00         0.00000E+00        -0.19453E+04
 
   -0.44102E+04         0.22290E+04         0.00000E+00
    0.22290E+04        -0.23583E+04         0.00000E+00
    0.00000E+00         0.00000E+00        -0.20305E+04
 
   -0.43513E+04         0.24319E+04         0.00000E+00
    0.24319E+04        -0.26374E+04         0.00000E+00
    0.00000E+00         0.00000E+00        -0.20966E+04
 
   -0.42477E+04         0.26231E+04         0.00000E+00
    0.26231E+04        -0.29002E+04         0.00000E+00
    0.00000E+00         0.00000E+00        -0.21444E+04
 
   -0.41026E+04         0.28079E+04         0.00000E+00
    0.28079E+04        -0.31457E+04         0.00000E+00
    0.00000E+00         0.00000E+00        -0.21745E+04
 
   -0.39163E+04         0.29922E+04         0.00000E+00
    0.29922E+04        -0.33748E+04         0.00000E+00
    0.00000E+00         0.00000E+00        -0.21873E+04
 
   -0.36868E+04         0.31817E+04         0.00000E+00
    0.31817E+04        -0.35897E+04         0.00000E+00
    0.00000E+00         0.00000E+00        -0.21829E+04
 
   -0.34092E+04         0.33820E+04         0.00000E+00
    0.33820E+04        -0.37944E+04         0.00000E+00
    0.00000E+00         0.00000E+00        -0.21611E+04
 
   -0.30761E+04         0.35979E+04         0.00000E+00
    0.35979E+04        -0.39946E+04         0.00000E+00
    0.00000E+00         0.00000E+00        -0.21212E+04
 
   -0.26771E+04         0.38332E+04         0.00000E+00
    0.38332E+04        -0.41972E+04         0.00000E+00
    0.00000E+00         0.00000E+00        -0.20623E+04
 
   -0.21989E+04         0.40903E+04         0.00000E+00
    0.40903E+04        -0.44112E+04         0.00000E+00
    0.00000E+00         0.00000E+00        -0.19830E+04
 
    0.33374E+04        -0.17959E+03         0.00000E+00
   -0.17959E+03         0.26111E+02         0.00000E+00
    0.00000E+00         0.00000E+00         0.10090E+04
 
    0.23101E+04        -0.43741E+03         0.00000E+00
   -0.43741E+03         0.77543E+02         0.00000E+00
    0.00000E+00         0.00000E+00         0.71631E+03
 
    0.13055E+04        -0.57034E+03         0.00000E+00
   -0.57034E+03         0.11744E+03         0.00000E+00
    0.00000E+00         0.00000E+00         0.42689E+03
 
    0.35076E+03        -0.59153E+03         0.00000E+00
   -0.59153E+03         0.13281E+03         0.00000E+00
    0.00000E+00         0.00000E+00         0.14507E+03
 
   -0.53188E+03        -0.51751E+03         0.00000E+00
   -0.51751E+03         0.11397E+03         0.00000E+00
    0.00000E+00         0.00000E+00        -0.12537E+03
 
   -0.13259E+04        -0.36677E+03         0.00000E+00
   -0.36677E+03         0.54989E+02         0.00000E+00
    0.00000E+00         0.00000E+00        -0.38128E+03
 
   -0.20209E+04        -0.15826E+03         0.00000E+00
   -0.15826E+03        -0.46240E+02         0.00000E+00
    0.00000E+00         0.00000E+00        -0.62014E+03
 
   -0.26121E+04         0.89864E+02         0.00000E+00
    0.89864E+02        -0.18839E+03         0.00000E+00
    0.00000E+00         0.00000E+00        -0.84014E+03
 
   -0.30996E+04         0.36141E+03         0.00000E+00
    0.36141E+03        -0.36736E+03         0.00000E+00
    0.00000E+00         0.00000E+00        -0.10401E+04
 
   -0.34874E+04         0.64280E+03         0.00000E+00
    0.64280E+03        -0.57705E+03         0.00000E+00
    0.00000E+00         0.00000E+00        -0.12193E+04
 
   -0.37824E+04         0.92350E+03         0.00000E+00
    0.92350E+03        -0.81023E+03         0.00000E+00
    0.00000E+00         0.00000E+00        -0.13778E+04
 
   -0.39926E+04         0.11960E+04         0.00000E+00
    0.11960E+04        -0.10593E+04         0.00000E+00
    0.00000E+00         0.00000E+00        -0.15156E+04
 
   -0.41271E+04         0.14558E+04         0.00000E+00
    0.14558E+04        -0.13171E+04         0.00000E+00
    0.00000E+00         0.00000E+00        -0.16333E+04
 
   -0.41944E+04         0.17009E+04         0.00000E+00
    0.17009E+04        -0.15769E+04         0.00000E+00
    0.00000E+00         0.00000E+00        -0.17314E+04
 
   -0.42020E+04         0.19313E+04         0.00000E+00
    0.19313E+04        -0.18334E+04         0.00000E+00
    0.00000E+00         0.00000E+00        -0.18106E+04
 
   -0.41563E+04         0.21488E+04         0.00000E+00
    0.21488E+04        -0.20826E+04         0.00000E+00
    0.00000E+00         0.00000E+00        -0.18717E+04
 
   -0.40616E+04         0.23566E+04         0.00000E+00
    0.23566E+04        -0.23219E+04         0.00000E+00
    0.00000E+00         0.00000E+00        -0.19150E+04
 
   -0.39204E+04         0.25583E+04         0.00000E+00
    0.25583E+04        -0.25500E+04         0.00000E+00
    0.00000E+00         0.00000E+00        -0.19411E+04
 
   -0.37330E+04         0.27582E+04         0.00000E+00
    0.27582E+04        -0.27675E+04         0.00000E+00
    0.00000E+00         0.00000E+00        -0.19501E+04
 
   -0.34974E+04         0.29606E+04         0.00000E+00
    0.29606E+04        -0.29760E+04         0.00000E+00
    0.00000E+00         0.00000E+00        -0.19420E+04
 
   -0.32093E+04         0.31695E+04         0.00000E+00
    0.31695E+04        -0.31790E+04         0.00000E+00
    0.00000E+00         0.00000E+00        -0.19165E+04
 
   -0.28620E+04         0.33880E+04         0.00000E+00
    0.33880E+04        -0.33811E+04         0.00000E+00
    0.00000E+00         0.00000E+00        -0.18729E+04
 
   -0.24464E+04         0.36187E+04         0.00000E+00
    0.36187E+04        -0.35886E+04         0.00000E+00
    0.00000E+00         0.00000E+00        -0.18105E+04
 
   -0.19508E+04         0.38622E+04         0.00000E+00
    0.38622E+04        -0.38090E+04         0.00000E+00
    0.00000E+00         0.00000E+00        -0.17279E+04
 
    0.30156E+04        -0.17488E+03         0.00000E+00
   -0.17488E+03         0.26053E+02         0.00000E+00
    0.00000E+00         0.00000E+00         0.91250E+03
 
    0.21101E+04        -0.43453E+03         0.00000E+00
   -0.43453E+03         0.79562E+02         0.00000E+00
    0.00000E+00         0.00000E+00         0.65690E+03
 
    0.12173E+04        -0.58246E+03         0.00000E+00
   -0.58246E+03         0.12651E+03         0.00000E+00
    0.00000E+00         0.00000E+00         0.40315E+03
 
    0.36093E+03        -0.62926E+03         0.00000E+00
   -0.62926E+03         0.15550E+03         0.00000E+00
    0.00000E+00         0.00000E+00         0.15493E+03
 
   -0.43924E+03        -0.58825E+03         0.00000E+00
   -0.58825E+03         0.15776E+03         0.00000E+00
    0.00000E+00         0.00000E+00        -0.84444E+02
 
   -0.11679E+04        -0.47449E+03         0.00000E+00
   -0.47449E+03         0.12744E+03         0.00000E+00
    0.00000E+00         0.00000E+00        -0.31214E+03
 
   -0.18146E+04        -0.30363E+03         0.00000E+00
   -0.30363E+03         0.61771E+02         0.00000E+00
    0.00000E+00         0.00000E+00        -0.52585E+03
 
   -0.23734E+04        -0.90929E+02         0.00000E+00
   -0.90929E+02        -0.39214E+02         0.00000E+00
    0.00000E+00         0.00000E+00        -0.72378E+03
 
   -0.28425E+04         0.14965E+03         0.00000E+00
    0.14965E+03        -0.17309E+03         0.00000E+00
    0.00000E+00         0.00000E+00        -0.90467E+03
 
   -0.32234E+04         0.40607E+03         0.00000E+00
    0.40607E+03        -0.33565E+03         0.00000E+00
    0.00000E+00         0.00000E+00        -0.10677E+04
 
   -0.35201E+04         0.66854E+03         0.00000E+00
    0.66854E+03        -0.52152E+03         0.00000E+00
    0.00000E+00         0.00000E+00        -0.12125E+04
 
   -0.37382E+04         0.92973E+03         0.00000E+00
    0.92973E+03        -0.72480E+03         0.00000E+00
    0.00000E+00         0.00000E+00        -0.13389E+04
 
   -0.38840E+04         0.11847E+04         0.00000E+00
    0.11847E+04        -0.93962E+03         0.00000E+00
    0.00000E+00         0.00000E+00        -0.14471E+04
 
   -0.39640E+04         0.14305E+04         0.00000E+00
    0.14305E+04        -0.11605E+04         0.00000E+00
    0.00000E+00         0.00000E+00        -0.15374E+04
 
   -0.39839E+04         0.16663E+04         0.00000E+00
    0.16663E+04        -0.13829E+04         0.00000E+00
    0.00000E+00         0.00000E+00        -0.16100E+04
 
   -0.39486E+04         0.18926E+04         0.00000E+00
    0.18926E+04        -0.16032E+04         0.00000E+00
    0.00000E+00         0.00000E+00        -0.16655E+04
 
   -0.38616E+04         0.21111E+04         0.00000E+00
    0.21111E+04        -0.18188E+04         0.00000E+00
    0.00000E+00         0.00000E+00        -0.17041E+04
 
   -0.37246E+04         0.23240E+04         0.00000E+00
    0.23240E+04        -0.20288E+04         0.00000E+00
    0.00000E+00         0.00000E+00        -0.17260E+04
 
   -0.35379E+04         0.25344E+04         0.00000E+00
    0.25344E+04        -0.22330E+04         0.00000E+00
    0.00000E+00         0.00000E+00        -0.17313E+04
 
   -0.32994E+04         0.27449E+04         0.00000E+00
    0.27449E+04        -0.24331E+04         0.00000E+00
    0.00000E+00         0.00000E+00        -0.17197E+04
 
   -0.30055E+04         0.29583E+04         0.00000E+00
    0.29583E+04        -0.26316E+04         0.00000E+00
    0.00000E+00         0.00000E+00        -0.16911E+04
 
   -0.26501E+04         0.31764E+04         0.00000E+00
    0.31764E+04        -0.28326E+04         0.00000E+00
    0.00000E+00         0.00000E+00        -0.16448E+04
 
   -0.22255E+04         0.34003E+04         0.00000E+00
    0.34003E+04        -0.30413E+04         0.00000E+00
    0.00000E+00         0.00000E+00        -0.15800E+04
 
   -0.17216E+04         0.36293E+04         0.00000E+00
    0.36293E+04        -0.32641E+04         0.00000E+00
    0.00000E+00         0.00000E+00        -0.14957E+04
 
    0.27006E+04        -0.16916E+03         0.00000E+00
   -0.16916E+03         0.25922E+02         0.00000E+00
    0.00000E+00         0.00000E+00         0.81796E+03
 
    0.19037E+04        -0.42708E+03         0.00000E+00
   -0.42708E+03         0.80944E+02         0.00000E+00
    0.00000E+00         0.00000E+00         0.59539E+03
 
    0.11115E+04        -0.58475E+03         0.00000E+00
   -0.58475E+03         0.13341E+03         0.00000E+00
    0.00000E+00         0.00000E+00         0.37347E+03
 
    0.34485E+03        -0.65074E+03         0.00000E+00
   -0.65074E+03         0.17324E+03         0.00000E+00
    0.00000E+00         0.00000E+00         0.15543E+03
 
   -0.37848E+03        -0.63583E+03         0.00000E+00
   -0.63583E+03         0.19244E+03         0.00000E+00
    0.00000E+00         0.00000E+00        -0.55813E+02
 
   -0.10444E+04        -0.55234E+03         0.00000E+00
   -0.55234E+03         0.18535E+03         0.00000E+00
    0.00000E+00         0.00000E+00        -0.25770E+03
 
   -0.16425E+04        -0.41324E+03         0.00000E+00
   -0.41324E+03         0.14878E+03         0.00000E+00
    0.00000E+00         0.00000E+00        -0.44810E+03
 
   -0.21662E+04        -0.23139E+03         0.00000E+00
   -0.23139E+03         0.81875E+02         0.00000E+00
    0.00000E+00         0.00000E+00        -0.62530E+03
 
   -0.26124E+04        -0.18784E+02         0.00000E+00
   -0.18784E+02        -0.14209E+02         0.00000E+00
    0.00000E+00         0.00000E+00        -0.78799E+03
 
   -0.29808E+04         0.21392E+03         0.00000E+00
    0.21392E+03        -0.13672E+03         0.00000E+00
    0.00000E+00         0.00000E+00        -0.93525E+03
 
   -0.32732E+04         0.45782E+03         0.00000E+00
    0.45782E+03        -0.28180E+03         0.00000E+00
    0.00000E+00         0.00000E+00        -0.10665E+04
 
   -0.34930E+04         0.70587E+03         0.00000E+00
    0.70587E+03        -0.44498E+03         0.00000E+00
    0.00000E+00         0.00000E+00        -0.11814E+04
 
   -0.36446E+04         0.95295E+03         0.00000E+00
    0.95295E+03        -0.62160E+03         0.00000E+00
    0.00000E+00         0.00000E+00        -0.12799E+04
 
   -0.37326E+04         0.11957E+04         0.00000E+00
    0.11957E+04        -0.80728E+03         0.00000E+00
    0.00000E+00         0.00000E+00        -0.13619E+04
 
   -0.37610E+04         0.14324E+04         0.00000E+00
    0.14324E+04        -0.99811E+03         0.00000E+00
    0.00000E+00         0.00000E+00        -0.14277E+04
 
   -0.37337E+04         0.16625E+04         0.00000E+00
    0.16625E+04        -0.11910E+04         0.00000E+00
    0.00000E+00         0.00000E+00        -0.14774E+04
 
   -0.36530E+04         0.18867E+04         0.00000E+00
    0.18867E+04        -0.13838E+04         0.00000E+00
    0.00000E+00         0.00000E+00        -0.15110E+04
 
   -0.35204E+04         0.21060E+04         0.00000E+00
    0.21060E+04        -0.15753E+04         0.00000E+00
    0.00000E+00         0.00000E+00        -0.15287E+04
 
   -0.33356E+04         0.23221E+04         0.00000E+00
    0.23221E+04        -0.17656E+04         0.00000E+00
    0.00000E+00         0.00000E+00        -0.15304E+04
 
   -0.30970E+04         0.25367E+04         0.00000E+00
    0.25367E+04        -0.19556E+04         0.00000E+00
    0.00000E+00         0.00000E+00        -0.15158E+04
 
   -0.28011E+04         0.27511E+04         0.00000E+00
    0.27511E+04        -0.21476E+04         0.00000E+00
    0.00000E+00         0.00000E+00        -0.14846E+04
 
   -0.24429E+04         0.29661E+04         0.00000E+00
    0.29661E+04        -0.23450E+04         0.00000E+00
    0.00000E+00         0.00000E+00        -0.14364E+04
 
   -0.20157E+04         0.31815E+04         0.00000E+00
    0.31815E+04        -0.25520E+04         0.00000E+00
    0.00000E+00         0.00000E+00        -0.13703E+04
 
   -0.15111E+04         0.33956E+04         0.00000E+00
    0.33956E+04        -0.27740E+04         0.00000E+00
    0.00000E+00         0.00000E+00        -0.12856E+04
 
    0.23947E+04        -0.16262E+03         0.00000E+00
   -0.16262E+03         0.25726E+02         0.00000E+00
    0.00000E+00         0.00000E+00         0.72613E+03
 
    0.16949E+04        -0.41595E+03         0.00000E+00
   -0.41595E+03         0.81781E+02         0.00000E+00
    0.00000E+00         0.00000E+00         0.53300E+03
 
    0.99338E+03        -0.57914E+03         0.00000E+00
   -0.57914E+03         0.13850E+03         0.00000E+00
    0.00000E+00         0.00000E+00         0.33956E+03
 
    0.30865E+03        -0.65909E+03         0.00000E+00
   -0.65909E+03         0.18691E+03         0.00000E+00
    0.00000E+00         0.00000E+00         0.14867E+03
 
   -0.34329E+03        -0.66459E+03         0.00000E+00
   -0.66459E+03         0.21967E+03         0.00000E+00
    0.00000E+00         0.00000E+00        -0.37088E+02
 
   -0.94935E+03        -0.60574E+03         0.00000E+00
   -0.60574E+03         0.23137E+03         0.00000E+00
    0.00000E+00         0.00000E+00        -0.21539E+03
 
   -0.14995E+04        -0.49332E+03         0.00000E+00
   -0.49332E+03         0.21859E+03         0.00000E+00
    0.00000E+00         0.00000E+00        -0.38428E+03
 
   -0.19868E+04        -0.33819E+03         0.00000E+00
   -0.33819E+03         0.17983E+03         0.00000E+00
    0.00000E+00         0.00000E+00        -0.54210E+03
 
   -0.24072E+04        -0.15066E+03         0.00000E+00
   -0.15066E+03         0.11532E+03         0.00000E+00
    0.00000E+00         0.00000E+00        -0.68756E+03
 
   -0.27589E+04         0.59918E+02         0.00000E+00
    0.59918E+02         0.26661E+02         0.00000E+00
    0.00000E+00         0.00000E+00        -0.81968E+03
 
   -0.30424E+04         0.28546E+03         0.00000E+00
    0.28546E+03        -0.83490E+02         0.00000E+00
    0.00000E+00         0.00000E+00        -0.93776E+03
 
   -0.32592E+04         0.51934E+03         0.00000E+00
    0.51934E+03        -0.21185E+03         0.00000E+00
    0.00000E+00         0.00000E+00        -0.10413E+04
 
   -0.34120E+04         0.75647E+03         0.00000E+00
    0.75647E+03        -0.35485E+03         0.00000E+00
    0.00000E+00         0.00000E+00        -0.11301E+04
 
   -0.35038E+04         0.99319E+03         0.00000E+00
    0.99319E+03        -0.50899E+03         0.00000E+00
    0.00000E+00         0.00000E+00        -0.12038E+04
 
   -0.35376E+04         0.12272E+04         0.00000E+00
    0.12272E+04        -0.67113E+03         0.00000E+00
    0.00000E+00         0.00000E+00        -0.12626E+04
 
   -0.35159E+04         0.14572E+04         0.00000E+00
    0.14572E+04        -0.83866E+03         0.00000E+00
    0.00000E+00         0.00000E+00        -0.13064E+04
 
   -0.34404E+04         0.16828E+04         0.00000E+00
    0.16828E+04        -0.10097E+04         0.00000E+00
    0.00000E+00         0.00000E+00        -0.13350E+04
 
   -0.33120E+04         0.19044E+04         0.00000E+00
    0.19044E+04        -0.11833E+04         0.00000E+00
    0.00000E+00         0.00000E+00        -0.13486E+04
 
   -0.31302E+04         0.21224E+04         0.00000E+00
    0.21224E+04        -0.13592E+04         0.00000E+00
    0.00000E+00         0.00000E+00        -0.13468E+04
 
   -0.28936E+04         0.23375E+04         0.00000E+00
    0.23375E+04        -0.15383E+04         0.00000E+00
    0.00000E+00         0.00000E+00        -0.13296E+04
 
   -0.25990E+04         0.25499E+04         0.00000E+00
    0.25499E+04        -0.17224E+04         0.00000E+00
    0.00000E+00         0.00000E+00        -0.12964E+04
 
   -0.22424E+04         0.27595E+04         0.00000E+00
    0.27595E+04        -0.19141E+04         0.00000E+00
    0.00000E+00         0.00000E+00        -0.12469E+04
 
   -0.18179E+04         0.29650E+04         0.00000E+00
    0.29650E+04        -0.21171E+04         0.00000E+00
    0.00000E+00         0.00000E+00        -0.11805E+04
 
   -0.13189E+04         0.31642E+04         0.00000E+00
    0.31642E+04        -0.23357E+04         0.00000E+00
    0.00000E+00         0.00000E+00        -0.10964E+04
 
    0.20998E+04        -0.15544E+03         0.00000E+00
   -0.15544E+03         0.25473E+02         0.00000E+00
    0.00000E+00         0.00000E+00         0.63757E+03
 
    0.14870E+04        -0.40190E+03         0.00000E+00
   -0.40190E+03         0.82148E+02         0.00000E+00
    0.00000E+00         0.00000E+00         0.47073E+03
 
    0.86730E+03        -0.56720E+03         0.00000E+00
   -0.56720E+03         0.14208E+03         0.00000E+00
    0.00000E+00         0.00000E+00         0.30281E+03
 
    0.25733E+03        -0.65688E+03         0.00000E+00
   -0.65688E+03         0.19718E+03         0.00000E+00
    0.00000E+00         0.00000E+00         0.13635E+03
 
   -0.32844E+03        -0.67809E+03         0.00000E+00
   -0.67809E+03         0.24074E+03         0.00000E+00
    0.00000E+00         0.00000E+00        -0.26311E+02
 
   -0.87789E+03        -0.63916E+03         0.00000E+00
   -0.63916E+03         0.26758E+03         0.00000E+00
    0.00000E+00         0.00000E+00        -0.18309E+03
 
   -0.13814E+04        -0.54907E+03         0.00000E+00
   -0.54907E+03         0.27417E+03         0.00000E+00
    0.00000E+00         0.00000E+00        -0.33217E+03
 
   -0.18319E+04        -0.41698E+03         0.00000E+00
   -0.41698E+03         0.25859E+03         0.00000E+00
    0.00000E+00         0.00000E+00        -0.47198E+03
 
   -0.22246E+04        -0.25177E+03         0.00000E+00
   -0.25177E+03         0.22034E+03         0.00000E+00
    0.00000E+00         0.00000E+00        -0.60127E+03
 
   -0.25568E+04        -0.61650E+02         0.00000E+00
   -0.61650E+02         0.16016E+03         0.00000E+00
    0.00000E+00         0.00000E+00        -0.71901E+03
 
   -0.28278E+04         0.14612E+03         0.00000E+00
    0.14612E+03         0.79734E+02         0.00000E+00
    0.00000E+00         0.00000E+00        -0.82442E+03
 
   -0.30378E+04         0.36537E+03         0.00000E+00
    0.36537E+03        -0.18626E+02         0.00000E+00
    0.00000E+00         0.00000E+00        -0.91694E+03
 
   -0.31882E+04         0.59115E+03         0.00000E+00
    0.59115E+03        -0.13228E+03         0.00000E+00
    0.00000E+00         0.00000E+00        -0.99615E+03
 
   -0.32807E+04         0.81964E+03         0.00000E+00
    0.81964E+03        -0.25853E+03         0.00000E+00
    0.00000E+00         0.00000E+00        -0.10618E+04
 
   -0.33171E+04         0.10481E+04         0.00000E+00
    0.10481E+04        -0.39488E+03         0.00000E+00
    0.00000E+00         0.00000E+00        -0.11136E+04
 
   -0.32990E+04         0.12748E+04         0.00000E+00
    0.12748E+04        -0.53922E+03         0.00000E+00
    0.00000E+00         0.00000E+00        -0.11515E+04
 
   -0.32275E+04         0.14986E+04         0.00000E+00
    0.14986E+04        -0.69001E+03         0.00000E+00
    0.00000E+00         0.00000E+00        -0.11753E+04
 
   -0.31031E+04         0.17190E+04         0.00000E+00
    0.17190E+04        -0.84633E+03         0.00000E+00
    0.00000E+00         0.00000E+00        -0.11848E+04
 
   -0.29251E+04         0.19356E+04         0.00000E+00
    0.19356E+04        -0.10080E+04         0.00000E+00
    0.00000E+00         0.00000E+00        -0.11799E+04
 
   -0.26921E+04         0.21481E+04         0.00000E+00
    0.21481E+04        -0.11758E+04         0.00000E+00
    0.00000E+00         0.00000E+00        -0.11604E+04
 
   -0.24017E+04         0.23561E+04         0.00000E+00
    0.23561E+04        -0.13509E+04         0.00000E+00
    0.00000E+00         0.00000E+00        -0.11258E+04
 
   -0.20500E+04         0.25585E+04         0.00000E+00
    0.25585E+04        -0.15356E+04         0.00000E+00
    0.00000E+00         0.00000E+00        -0.10757E+04
 
   -0.16327E+04         0.27533E+04         0.00000E+00
    0.27533E+04        -0.17327E+04         0.00000E+00
    0.00000E+00         0.00000E+00        -0.10096E+04
 
   -0.11442E+04         0.29374E+04         0.00000E+00
    0.29374E+04        -0.19457E+04         0.00000E+00
    0.00000E+00         0.00000E+00        -0.92699E+03
 
    0.18172E+04        -0.14777E+03         0.00000E+00
   -0.14777E+03         0.25169E+02         0.00000E+00
    0.00000E+00         0.00000E+00         0.55272E+03
 
    0.12824E+04        -0.38557E+03         0.00000E+00
   -0.38557E+03         0.82110E+02         0.00000E+00
    0.00000E+00         0.00000E+00         0.40936E+03
 
    0.73675E+03        -0.55024E+03         0.00000E+00
   -0.55024E+03         0.14436E+03         0.00000E+00
    0.00000E+00         0.00000E+00         0.26433E+03
 
    0.19501E+03        -0.64620E+03         0.00000E+00
   -0.64620E+03         0.20461E+03         0.00000E+00
    0.00000E+00         0.00000E+00         0.11989E+03
 
   -0.32957E+03        -0.67926E+03         0.00000E+00
   -0.67926E+03         0.25667E+03         0.00000E+00
    0.00000E+00         0.00000E+00        -0.21870E+02
 
   -0.82575E+03        -0.65630E+03         0.00000E+00
   -0.65630E+03         0.29563E+03         0.00000E+00
    0.00000E+00         0.00000E+00        -0.15904E+03
 
   -0.12843E+04        -0.58482E+03         0.00000E+00
   -0.58482E+03         0.31791E+03         0.00000E+00
    0.00000E+00         0.00000E+00        -0.28992E+03
 
   -0.16982E+04        -0.47255E+03         0.00000E+00
   -0.47255E+03         0.32130E+03         0.00000E+00
    0.00000E+00         0.00000E+00        -0.41307E+03
 
   -0.20623E+04        -0.32713E+03         0.00000E+00
   -0.32713E+03         0.30479E+03         0.00000E+00
    0.00000E+00         0.00000E+00        -0.52725E+03
 
   -0.23732E+04        -0.15577E+03         0.00000E+00
   -0.15577E+03         0.26844E+03         0.00000E+00
    0.00000E+00         0.00000E+00        -0.63144E+03
 
   -0.26293E+04         0.35037E+02         0.00000E+00
    0.35037E+02         0.21316E+03         0.00000E+00
    0.00000E+00         0.00000E+00        -0.72483E+03
 
   -0.28297E+04         0.23959E+03         0.00000E+00
    0.23959E+03         0.14046E+03         0.00000E+00
    0.00000E+00         0.00000E+00        -0.80677E+03
 
   -0.29747E+04         0.45314E+03         0.00000E+00
    0.45314E+03         0.52217E+02         0.00000E+00
    0.00000E+00         0.00000E+00        -0.87676E+03
 
   -0.30652E+04         0.67185E+03         0.00000E+00
    0.67185E+03        -0.49574E+02         0.00000E+00
    0.00000E+00         0.00000E+00        -0.93443E+03
 
   -0.31019E+04         0.89274E+03         0.00000E+00
    0.89274E+03        -0.16299E+03         0.00000E+00
    0.00000E+00         0.00000E+00        -0.97948E+03
 
   -0.30858E+04         0.11136E+04         0.00000E+00
    0.11136E+04        -0.28639E+03         0.00000E+00
    0.00000E+00         0.00000E+00        -0.10117E+04
 
   -0.30174E+04         0.13328E+04         0.00000E+00
    0.13328E+04        -0.41851E+03         0.00000E+00
    0.00000E+00         0.00000E+00        -0.10308E+04
 
   -0.28967E+04         0.15491E+04         0.00000E+00
    0.15491E+04        -0.55862E+03         0.00000E+00
    0.00000E+00         0.00000E+00        -0.10366E+04
 
   -0.27231E+04         0.17616E+04         0.00000E+00
    0.17616E+04        -0.70654E+03         0.00000E+00
    0.00000E+00         0.00000E+00        -0.10289E+04
 
   -0.24952E+04         0.19693E+04         0.00000E+00
    0.19693E+04        -0.86274E+03         0.00000E+00
    0.00000E+00         0.00000E+00        -0.10074E+04
 
   -0.22108E+04         0.21708E+04         0.00000E+00
    0.21708E+04        -0.10283E+04         0.00000E+00
    0.00000E+00         0.00000E+00        -0.97174E+03
 
   -0.18671E+04         0.23645E+04         0.00000E+00
    0.23645E+04        -0.12049E+04         0.00000E+00
    0.00000E+00         0.00000E+00        -0.92161E+03
 
   -0.14604E+04         0.25479E+04         0.00000E+00
    0.25479E+04        -0.13948E+04         0.00000E+00
    0.00000E+00         0.00000E+00        -0.85655E+03
 
   -0.98633E+03         0.27174E+04         0.00000E+00
    0.27174E+04        -0.16006E+04         0.00000E+00
    0.00000E+00         0.00000E+00        -0.77608E+03
 
    0.15482E+04        -0.13976E+03         0.00000E+00
   -0.13976E+03         0.24821E+02         0.00000E+00
    0.00000E+00         0.00000E+00         0.47189E+03
 
    0.10834E+04        -0.36753E+03         0.00000E+00
   -0.36753E+03         0.81725E+02         0.00000E+00
    0.00000E+00         0.00000E+00         0.34954E+03
 
    0.60454E+03        -0.52937E+03         0.00000E+00
   -0.52937E+03         0.14555E+03         0.00000E+00
    0.00000E+00         0.00000E+00         0.22503E+03
 
    0.12504E+03        -0.62881E+03         0.00000E+00
   -0.62881E+03         0.20965E+03         0.00000E+00
    0.00000E+00         0.00000E+00         0.10040E+03
 
   -0.34307E+03        -0.67056E+03         0.00000E+00
   -0.67056E+03         0.26830E+03         0.00000E+00
    0.00000E+00         0.00000E+00        -0.22433E+02
 
   -0.78934E+03        -0.66027E+03         0.00000E+00
   -0.66027E+03         0.31684E+03         0.00000E+00
    0.00000E+00         0.00000E+00        -0.14175E+03
 
   -0.12050E+04        -0.60421E+03         0.00000E+00
   -0.60421E+03         0.35174E+03         0.00000E+00
    0.00000E+00         0.00000E+00        -0.25599E+03
 
   -0.15831E+04        -0.50894E+03         0.00000E+00
   -0.50894E+03         0.37056E+03         0.00000E+00
    0.00000E+00         0.00000E+00        -0.36377E+03
 
   -0.19183E+04        -0.38103E+03         0.00000E+00
   -0.38103E+03         0.37193E+03         0.00000E+00
    0.00000E+00         0.00000E+00        -0.46392E+03
 
   -0.22069E+04        -0.22677E+03         0.00000E+00
   -0.22677E+03         0.35540E+03         0.00000E+00
    0.00000E+00         0.00000E+00        -0.55544E+03
 
   -0.24462E+04        -0.52010E+02         0.00000E+00
   -0.52010E+02         0.32125E+03         0.00000E+00
    0.00000E+00         0.00000E+00        -0.63749E+03
 
   -0.26350E+04         0.13805E+03         0.00000E+00
    0.13805E+03         0.27036E+03         0.00000E+00
    0.00000E+00         0.00000E+00        -0.70939E+03
 
   -0.27726E+04         0.33890E+03         0.00000E+00
    0.33890E+03         0.20395E+03         0.00000E+00
    0.00000E+00         0.00000E+00        -0.77059E+03
 
   -0.28590E+04         0.54674E+03         0.00000E+00
    0.54674E+03         0.12344E+03         0.00000E+00
    0.00000E+00         0.00000E+00        -0.82066E+03
 
   -0.28943E+04         0.75847E+03         0.00000E+00
    0.75847E+03         0.30225E+02         0.00000E+00
    0.00000E+00         0.00000E+00        -0.85922E+03
 
   -0.28788E+04         0.97157E+03         0.00000E+00
    0.97157E+03        -0.74430E+02         0.00000E+00
    0.00000E+00         0.00000E+00        -0.88597E+03
 
   -0.28126E+04         0.11840E+04         0.00000E+00
    0.11840E+04        -0.18956E+03         0.00000E+00
    0.00000E+00         0.00000E+00        -0.90065E+03
 
   -0.26954E+04         0.13941E+04         0.00000E+00
    0.13941E+04        -0.31457E+03         0.00000E+00
    0.00000E+00         0.00000E+00        -0.90299E+03
 
   -0.25265E+04         0.16004E+04         0.00000E+00
    0.16004E+04        -0.44931E+03         0.00000E+00
    0.00000E+00         0.00000E+00        -0.89274E+03
 
   -0.23046E+04         0.18012E+04         0.00000E+00
    0.18012E+04        -0.59412E+03         0.00000E+00
    0.00000E+00         0.00000E+00        -0.86962E+03
 
   -0.20281E+04         0.19947E+04         0.00000E+00
    0.19947E+04        -0.74980E+03         0.00000E+00
    0.00000E+00         0.00000E+00        -0.83336E+03
 
   -0.16944E+04         0.21787E+04         0.00000E+00
    0.21787E+04        -0.91763E+03         0.00000E+00
    0.00000E+00         0.00000E+00        -0.78361E+03
 
   -0.13009E+04         0.23502E+04         0.00000E+00
    0.23502E+04        -0.10993E+04         0.00000E+00
    0.00000E+00         0.00000E+00        -0.72004E+03
 
   -0.84428E+03         0.25055E+04         0.00000E+00
    0.25055E+04        -0.12966E+04         0.00000E+00
    0.00000E+00         0.00000E+00        -0.64228E+03
 
    0.12934E+04        -0.13154E+03         0.00000E+00
   -0.13154E+03         0.24437E+02         0.00000E+00
    0.00000E+00         0.00000E+00         0.39534E+03
 
    0.89143E+03        -0.34823E+03         0.00000E+00
   -0.34823E+03         0.81045E+02         0.00000E+00
    0.00000E+00         0.00000E+00         0.29174E+03
 
    0.47296E+03        -0.50554E+03         0.00000E+00
   -0.50554E+03         0.14581E+03         0.00000E+00
    0.00000E+00         0.00000E+00         0.18563E+03
 
    0.50152E+02        -0.60620E+03         0.00000E+00
   -0.60620E+03         0.21266E+03         0.00000E+00
    0.00000E+00         0.00000E+00         0.78844E+02
 
   -0.36595E+03        -0.65402E+03         0.00000E+00
   -0.65402E+03         0.27630E+03         0.00000E+00
    0.00000E+00         0.00000E+00        -0.26894E+02
 
   -0.76565E+03        -0.65364E+03         0.00000E+00
   -0.65364E+03         0.33232E+03         0.00000E+00
    0.00000E+00         0.00000E+00        -0.13000E+03
 
   -0.11407E+04        -0.61031E+03         0.00000E+00
   -0.61031E+03         0.37724E+03         0.00000E+00
    0.00000E+00         0.00000E+00        -0.22903E+03
 
   -0.14842E+04        -0.52959E+03         0.00000E+00
   -0.52959E+03         0.40851E+03         0.00000E+00
    0.00000E+00         0.00000E+00        -0.32270E+03
 
   -0.17908E+04        -0.41712E+03         0.00000E+00
   -0.41712E+03         0.42449E+03         0.00000E+00
    0.00000E+00         0.00000E+00        -0.40988E+03
 
   -0.20564E+04        -0.27844E+03         0.00000E+00
   -0.27844E+03         0.42431E+03         0.00000E+00
    0.00000E+00         0.00000E+00        -0.48961E+03
 
   -0.22780E+04        -0.11874E+03         0.00000E+00
   -0.11874E+03         0.40781E+03         0.00000E+00
    0.00000E+00         0.00000E+00        -0.56106E+03
 
   -0.24537E+04         0.57216E+02         0.00000E+00
    0.57216E+02         0.37532E+03         0.00000E+00
    0.00000E+00         0.00000E+00        -0.62353E+03
 
   -0.25823E+04         0.24518E+03         0.00000E+00
    0.24518E+03         0.32754E+03         0.00000E+00
    0.00000E+00         0.00000E+00        -0.67644E+03
 
   -0.26631E+04         0.44147E+03         0.00000E+00
    0.44147E+03         0.26540E+03         0.00000E+00
    0.00000E+00         0.00000E+00        -0.71930E+03
 
   -0.26956E+04         0.64292E+03         0.00000E+00
    0.64292E+03         0.18987E+03         0.00000E+00
    0.00000E+00         0.00000E+00        -0.75172E+03
 
   -0.26796E+04         0.84683E+03         0.00000E+00
    0.84683E+03         0.10185E+03         0.00000E+00
    0.00000E+00         0.00000E+00        -0.77334E+03
 
   -0.26149E+04         0.10509E+04         0.00000E+00
    0.10509E+04         0.20533E+01         0.00000E+00
    0.00000E+00         0.00000E+00        -0.78386E+03
 
   -0.25010E+04         0.12530E+04         0.00000E+00
    0.12530E+04        -0.10906E+03         0.00000E+00
    0.00000E+00         0.00000E+00        -0.78301E+03
 
   -0.23370E+04         0.14513E+04         0.00000E+00
    0.14513E+04        -0.23136E+03         0.00000E+00
    0.00000E+00         0.00000E+00        -0.77052E+03
 
   -0.21220E+04         0.16437E+04         0.00000E+00
    0.16437E+04        -0.36508E+03         0.00000E+00
    0.00000E+00         0.00000E+00        -0.74613E+03
 
   -0.18544E+04         0.18280E+04         0.00000E+00
    0.18280E+04        -0.51080E+03         0.00000E+00
    0.00000E+00         0.00000E+00        -0.70957E+03
 
   -0.15325E+04         0.20016E+04         0.00000E+00
    0.20016E+04        -0.66943E+03         0.00000E+00
    0.00000E+00         0.00000E+00        -0.66058E+03
 
   -0.11541E+04         0.21612E+04         0.00000E+00
    0.21612E+04        -0.84214E+03         0.00000E+00
    0.00000E+00         0.00000E+00        -0.59888E+03
 
   -0.71708E+03         0.23029E+04         0.00000E+00
    0.23029E+04        -0.10303E+04         0.00000E+00
    0.00000E+00         0.00000E+00        -0.52421E+03
 
    0.10534E+04        -0.12320E+03         0.00000E+00
   -0.12320E+03         0.24024E+02         0.00000E+00
    0.00000E+00         0.00000E+00         0.32322E+03
 
    0.70775E+03        -0.32809E+03         0.00000E+00
   -0.32809E+03         0.80118E+02         0.00000E+00
    0.00000E+00         0.00000E+00         0.23636E+03
 
    0.34379E+03        -0.47953E+03         0.00000E+00
   -0.47953E+03         0.14529E+03         0.00000E+00
    0.00000E+00         0.00000E+00         0.14672E+03
 
   -0.27414E+02        -0.57960E+03         0.00000E+00
   -0.57960E+03         0.21398E+03         0.00000E+00
    0.00000E+00         0.00000E+00         0.55971E+02
 
   -0.39573E+03        -0.63135E+03         0.00000E+00
   -0.63135E+03         0.28128E+03         0.00000E+00
    0.00000E+00         0.00000E+00        -0.34333E+02
 
   -0.75213E+03        -0.63860E+03         0.00000E+00
   -0.63860E+03         0.34301E+03         0.00000E+00
    0.00000E+00         0.00000E+00        -0.12274E+03
 
   -0.10888E+04        -0.60571E+03         0.00000E+00
   -0.60571E+03         0.39577E+03         0.00000E+00
    0.00000E+00         0.00000E+00        -0.20791E+03
 
   -0.13992E+04        -0.53741E+03         0.00000E+00
   -0.53741E+03         0.43697E+03         0.00000E+00
    0.00000E+00         0.00000E+00        -0.28866E+03
 
   -0.16778E+04        -0.43857E+03         0.00000E+00
   -0.43857E+03         0.46475E+03         0.00000E+00
    0.00000E+00         0.00000E+00        -0.36392E+03
 
   -0.19205E+04        -0.31402E+03         0.00000E+00
   -0.31402E+03         0.47798E+03         0.00000E+00
    0.00000E+00         0.00000E+00        -0.43276E+03
 
   -0.21239E+04        -0.16840E+03         0.00000E+00
   -0.16840E+03         0.47610E+03         0.00000E+00
    0.00000E+00         0.00000E+00        -0.49435E+03
 
   -0.22857E+04        -0.60455E+01         0.00000E+00
   -0.60455E+01         0.45903E+03         0.00000E+00
    0.00000E+00         0.00000E+00        -0.54801E+03
 
   -0.24042E+04         0.16908E+03         0.00000E+00
    0.16908E+03         0.42705E+03         0.00000E+00
    0.00000E+00         0.00000E+00        -0.59315E+03
 
   -0.24782E+04         0.35342E+03         0.00000E+00
    0.35342E+03         0.38067E+03         0.00000E+00
    0.00000E+00         0.00000E+00        -0.62927E+03
 
   -0.25069E+04         0.54383E+03         0.00000E+00
    0.54383E+03         0.32049E+03         0.00000E+00
    0.00000E+00         0.00000E+00        -0.65592E+03
 
   -0.24896E+04         0.73750E+03         0.00000E+00
    0.73750E+03         0.24712E+03         0.00000E+00
    0.00000E+00         0.00000E+00        -0.67275E+03
 
   -0.24259E+04         0.93194E+03         0.00000E+00
    0.93194E+03         0.16106E+03         0.00000E+00
    0.00000E+00         0.00000E+00        -0.67944E+03
 
   -0.23150E+04         0.11248E+04         0.00000E+00
    0.11248E+04         0.62639E+02         0.00000E+00
    0.00000E+00         0.00000E+00        -0.67569E+03
 
   -0.21561E+04         0.13139E+04         0.00000E+00
    0.13139E+04        -0.48040E+02         0.00000E+00
    0.00000E+00         0.00000E+00        -0.66125E+03
 
   -0.19485E+04         0.14968E+04         0.00000E+00
    0.14968E+04        -0.17112E+03         0.00000E+00
    0.00000E+00         0.00000E+00        -0.63587E+03
 
   -0.16907E+04         0.16711E+04         0.00000E+00
    0.16711E+04        -0.30698E+03         0.00000E+00
    0.00000E+00         0.00000E+00        -0.59932E+03
 
   -0.13817E+04         0.18338E+04         0.00000E+00
    0.18338E+04        -0.45623E+03         0.00000E+00
    0.00000E+00         0.00000E+00        -0.55137E+03
 
   -0.10198E+04         0.19815E+04         0.00000E+00
    0.19815E+04        -0.61964E+03         0.00000E+00
    0.00000E+00         0.00000E+00        -0.49183E+03
 
   -0.60369E+03         0.21102E+04         0.00000E+00
    0.21102E+04        -0.79803E+03         0.00000E+00
    0.00000E+00         0.00000E+00        -0.42052E+03
 
    0.82848E+03        -0.11486E+03         0.00000E+00
   -0.11486E+03         0.23587E+02         0.00000E+00
    0.00000E+00         0.00000E+00         0.25562E+03
 
    0.53327E+03        -0.30746E+03         0.00000E+00
   -0.30746E+03         0.78989E+02         0.00000E+00
    0.00000E+00         0.00000E+00         0.18368E+03
 
    0.21845E+03        -0.45201E+03         0.00000E+00
   -0.45201E+03         0.14413E+03         0.00000E+00
    0.00000E+00         0.00000E+00         0.10877E+03
 
   -0.10585E+03        -0.55005E+03         0.00000E+00
   -0.55005E+03         0.21390E+03         0.00000E+00
    0.00000E+00         0.00000E+00         0.32412E+02
 
   -0.43035E+03        -0.60400E+03         0.00000E+00
   -0.60400E+03         0.28373E+03         0.00000E+00
    0.00000E+00         0.00000E+00        -0.43986E+02
 
   -0.74667E+03        -0.61696E+03         0.00000E+00
   -0.61696E+03         0.34969E+03         0.00000E+00
    0.00000E+00         0.00000E+00        -0.11909E+03
 
   -0.10474E+04        -0.59259E+03         0.00000E+00
   -0.59259E+03         0.40847E+03         0.00000E+00
    0.00000E+00         0.00000E+00        -0.19169E+03
 
   -0.13263E+04        -0.53489E+03         0.00000E+00
   -0.53489E+03         0.45747E+03         0.00000E+00
    0.00000E+00         0.00000E+00        -0.26065E+03
 
   -0.15780E+04        -0.44806E+03         0.00000E+00
   -0.44806E+03         0.49470E+03         0.00000E+00
    0.00000E+00         0.00000E+00        -0.32498E+03
 
   -0.17981E+04        -0.33632E+03         0.00000E+00
   -0.33632E+03         0.51880E+03         0.00000E+00
    0.00000E+00         0.00000E+00        -0.38378E+03
 
   -0.19832E+04        -0.20382E+03         0.00000E+00
   -0.20382E+03         0.52893E+03         0.00000E+00
    0.00000E+00         0.00000E+00        -0.43627E+03
 
   -0.21306E+04        -0.54482E+02         0.00000E+00
   -0.54482E+02         0.52468E+03         0.00000E+00
    0.00000E+00         0.00000E+00        -0.48178E+03
 
   -0.22383E+04         0.10800E+03         0.00000E+00
    0.10800E+03         0.50600E+03         0.00000E+00
    0.00000E+00         0.00000E+00        -0.51970E+03
 
   -0.23048E+04         0.28023E+03         0.00000E+00
    0.28023E+03         0.47305E+03         0.00000E+00
    0.00000E+00         0.00000E+00        -0.54953E+03
 
   -0.23289E+04         0.45913E+03         0.00000E+00
    0.45913E+03         0.42613E+03         0.00000E+00
    0.00000E+00         0.00000E+00        -0.57084E+03
 
   -0.23097E+04         0.64186E+03         0.00000E+00
    0.64186E+03         0.36559E+03         0.00000E+00
    0.00000E+00         0.00000E+00        -0.58324E+03
 
   -0.22465E+04         0.82581E+03         0.00000E+00
    0.82581E+03         0.29176E+03         0.00000E+00
    0.00000E+00         0.00000E+00        -0.58641E+03
 
   -0.21384E+04         0.10085E+04         0.00000E+00
    0.10085E+04         0.20485E+03         0.00000E+00
    0.00000E+00         0.00000E+00        -0.58007E+03
 
   -0.19848E+04         0.11874E+04         0.00000E+00
    0.11874E+04         0.10494E+03         0.00000E+00
    0.00000E+00         0.00000E+00        -0.56395E+03
 
   -0.17848E+04         0.13601E+04         0.00000E+00
    0.13601E+04        -0.80316E+01         0.00000E+00
    0.00000E+00         0.00000E+00        -0.53784E+03
 
   -0.15375E+04         0.15237E+04         0.00000E+00
    0.15237E+04        -0.13429E+03         0.00000E+00
    0.00000E+00         0.00000E+00        -0.50153E+03
 
   -0.12420E+04         0.16754E+04         0.00000E+00
    0.16754E+04        -0.27418E+03         0.00000E+00
    0.00000E+00         0.00000E+00        -0.45485E+03
 
   -0.89743E+03         0.18114E+04         0.00000E+00
    0.18114E+04        -0.42811E+03         0.00000E+00
    0.00000E+00         0.00000E+00        -0.39766E+03
 
   -0.50303E+03         0.19279E+04         0.00000E+00
    0.19279E+04        -0.59650E+03         0.00000E+00
    0.00000E+00         0.00000E+00        -0.32986E+03
 
    0.61875E+03        -0.10659E+03         0.00000E+00
   -0.10659E+03         0.23135E+02         0.00000E+00
    0.00000E+00         0.00000E+00         0.19257E+03
 
    0.36862E+03        -0.28663E+03         0.00000E+00
   -0.28663E+03         0.77700E+02         0.00000E+00
    0.00000E+00         0.00000E+00         0.13390E+03
 
    0.98054E+02        -0.42355E+03         0.00000E+00
   -0.42355E+03         0.14244E+03         0.00000E+00
    0.00000E+00         0.00000E+00         0.72147E+02
 
   -0.18372E+03        -0.51843E+03         0.00000E+00
   -0.51843E+03         0.21265E+03         0.00000E+00
    0.00000E+00         0.00000E+00         0.86795E+01
 
   -0.46815E+03        -0.57316E+03         0.00000E+00
   -0.57316E+03         0.28410E+03         0.00000E+00
    0.00000E+00         0.00000E+00        -0.55215E+02
 
   -0.74746E+03        -0.59026E+03         0.00000E+00
   -0.59026E+03         0.35305E+03         0.00000E+00
    0.00000E+00         0.00000E+00        -0.11832E+03
 
   -0.10147E+04        -0.57279E+03         0.00000E+00
   -0.57279E+03         0.41634E+03         0.00000E+00
    0.00000E+00         0.00000E+00        -0.17951E+03
 
   -0.12639E+04        -0.52412E+03         0.00000E+00
   -0.52412E+03         0.47134E+03         0.00000E+00
    0.00000E+00         0.00000E+00        -0.23776E+03
 
   -0.14897E+04        -0.44787E+03         0.00000E+00
   -0.44787E+03         0.51602E+03         0.00000E+00
    0.00000E+00         0.00000E+00        -0.29211E+03
 
   -0.16879E+04        -0.34774E+03         0.00000E+00
   -0.34774E+03         0.54884E+03         0.00000E+00
    0.00000E+00         0.00000E+00        -0.34173E+03
 
   -0.18549E+04        -0.22743E+03         0.00000E+00
   -0.22743E+03         0.56875E+03         0.00000E+00
    0.00000E+00         0.00000E+00        -0.38586E+03
 
   -0.19879E+04        -0.90496E+02         0.00000E+00
   -0.90496E+02         0.57508E+03         0.00000E+00
    0.00000E+00         0.00000E+00        -0.42385E+03
 
   -0.20845E+04         0.59648E+02         0.00000E+00
    0.59648E+02         0.56751E+03         0.00000E+00
    0.00000E+00         0.00000E+00        -0.45511E+03
 
   -0.21431E+04         0.21980E+03         0.00000E+00
    0.21980E+03         0.54592E+03         0.00000E+00
    0.00000E+00         0.00000E+00        -0.47915E+03
 
   -0.21621E+04         0.38695E+03         0.00000E+00
    0.38695E+03         0.51038E+03         0.00000E+00
    0.00000E+00         0.00000E+00        -0.49552E+03
 
   -0.21406E+04         0.55830E+03         0.00000E+00
    0.55830E+03         0.46102E+03         0.00000E+00
    0.00000E+00         0.00000E+00        -0.50386E+03
 
   -0.20775E+04         0.73118E+03         0.00000E+00
    0.73118E+03         0.39801E+03         0.00000E+00
    0.00000E+00         0.00000E+00        -0.50384E+03
 
   -0.19721E+04         0.90300E+03         0.00000E+00
    0.90300E+03         0.32148E+03         0.00000E+00
    0.00000E+00         0.00000E+00        -0.49518E+03
 
   -0.18236E+04         0.10712E+04         0.00000E+00
    0.10712E+04         0.23149E+03         0.00000E+00
    0.00000E+00         0.00000E+00        -0.47764E+03
 
   -0.16314E+04         0.12331E+04         0.00000E+00
    0.12331E+04         0.12803E+03         0.00000E+00
    0.00000E+00         0.00000E+00        -0.45102E+03
 
   -0.13949E+04         0.13858E+04         0.00000E+00
    0.13858E+04         0.11019E+02         0.00000E+00
    0.00000E+00         0.00000E+00        -0.41515E+03
 
   -0.11133E+04         0.15263E+04         0.00000E+00
    0.15263E+04        -0.11967E+03         0.00000E+00
    0.00000E+00         0.00000E+00        -0.36990E+03
 
   -0.78648E+03         0.16510E+04         0.00000E+00
    0.16510E+04        -0.26416E+03         0.00000E+00
    0.00000E+00         0.00000E+00        -0.31519E+03
 
   -0.41407E+03         0.17560E+04         0.00000E+00
    0.17560E+04        -0.42249E+03         0.00000E+00
    0.00000E+00         0.00000E+00        -0.25097E+03
 
    0.42413E+03        -0.98448E+02         0.00000E+00
   -0.98448E+02         0.22674E+02         0.00000E+00
    0.00000E+00         0.00000E+00         0.13404E+03
 
    0.21423E+03        -0.26584E+03         0.00000E+00
   -0.26584E+03         0.76290E+02         0.00000E+00
    0.00000E+00         0.00000E+00         0.87155E+02
 
   -0.16576E+02        -0.39460E+03         0.00000E+00
   -0.39460E+03         0.14033E+03         0.00000E+00
    0.00000E+00         0.00000E+00         0.37127E+02
 
   -0.25986E+03        -0.48545E+03         0.00000E+00
   -0.48545E+03         0.21047E+03         0.00000E+00
    0.00000E+00         0.00000E+00        -0.14814E+02
 
   -0.50775E+03        -0.53984E+03         0.00000E+00
   -0.53984E+03         0.28277E+03         0.00000E+00
    0.00000E+00         0.00000E+00        -0.67492E+02
 
   -0.75303E+03        -0.55979E+03         0.00000E+00
   -0.55979E+03         0.35370E+03         0.00000E+00
    0.00000E+00         0.00000E+00        -0.11980E+03
 
   -0.98919E+03        -0.54783E+03         0.00000E+00
   -0.54783E+03         0.42021E+03         0.00000E+00
    0.00000E+00         0.00000E+00        -0.17069E+03
 
   -0.12105E+04        -0.50684E+03         0.00000E+00
   -0.50684E+03         0.47973E+03         0.00000E+00
    0.00000E+00         0.00000E+00        -0.21922E+03
 
   -0.14118E+04        -0.43993E+03         0.00000E+00
   -0.43993E+03         0.53017E+03         0.00000E+00
    0.00000E+00         0.00000E+00        -0.26450E+03
 
   -0.15890E+04        -0.35034E+03         0.00000E+00
   -0.35034E+03         0.56989E+03         0.00000E+00
    0.00000E+00         0.00000E+00        -0.30574E+03
 
   -0.17384E+04        -0.24134E+03         0.00000E+00
   -0.24134E+03         0.59767E+03         0.00000E+00
    0.00000E+00         0.00000E+00        -0.34223E+03
 
   -0.18571E+04        -0.11617E+03         0.00000E+00
   -0.11617E+03         0.61266E+03         0.00000E+00
    0.00000E+00         0.00000E+00        -0.37333E+03
 
   -0.19426E+04         0.22027E+02         0.00000E+00
    0.22027E+02         0.61430E+03         0.00000E+00
    0.00000E+00         0.00000E+00        -0.39848E+03
 
   -0.19930E+04         0.17024E+03         0.00000E+00
    0.17024E+03         0.60228E+03         0.00000E+00
    0.00000E+00         0.00000E+00        -0.41721E+03
 
   -0.20067E+04         0.32560E+03         0.00000E+00
    0.32560E+03         0.57645E+03         0.00000E+00
    0.00000E+00         0.00000E+00        -0.42907E+03
 
   -0.19825E+04         0.48534E+03         0.00000E+00
    0.48534E+03         0.53678E+03         0.00000E+00
    0.00000E+00         0.00000E+00        -0.43371E+03
 
   -0.19193E+04         0.64681E+03         0.00000E+00
    0.64681E+03         0.48330E+03         0.00000E+00
    0.00000E+00         0.00000E+00        -0.43081E+03
 
   -0.18164E+04         0.80740E+03         0.00000E+00
    0.80740E+03         0.41608E+03         0.00000E+00
    0.00000E+00         0.00000E+00        -0.42010E+03
 
   -0.16731E+04         0.96448E+03         0.00000E+00
    0.96448E+03         0.33516E+03         0.00000E+00
    0.00000E+00         0.00000E+00        -0.40137E+03
 
   -0.14887E+04         0.11153E+04         0.00000E+00
    0.11153E+04         0.24058E+03         0.00000E+00
    0.00000E+00         0.00000E+00        -0.37444E+03
 
   -0.12629E+04         0.12571E+04         0.00000E+00
    0.12571E+04         0.13238E+03         0.00000E+00
    0.00000E+00         0.00000E+00        -0.33917E+03
 
   -0.99549E+03         0.13866E+04         0.00000E+00
    0.13866E+04         0.10617E+02         0.00000E+00
    0.00000E+00         0.00000E+00        -0.29546E+03
 
   -0.68634E+03         0.15004E+04         0.00000E+00
    0.15004E+04        -0.12460E+03         0.00000E+00
    0.00000E+00         0.00000E+00        -0.24328E+03
 
   -0.33578E+03         0.15946E+04         0.00000E+00
    0.15946E+04        -0.27301E+03         0.00000E+00
    0.00000E+00         0.00000E+00        -0.18264E+03
 
    0.24442E+03        -0.90501E+02         0.00000E+00
   -0.90501E+02         0.22209E+02         0.00000E+00
    0.00000E+00         0.00000E+00         0.79987E+02
 
    0.70327E+02        -0.24530E+03         0.00000E+00
   -0.24530E+03         0.74794E+02         0.00000E+00
    0.00000E+00         0.00000E+00         0.43537E+02
 
   -0.12483E+03        -0.36556E+03         0.00000E+00
   -0.36556E+03         0.13791E+03         0.00000E+00
    0.00000E+00         0.00000E+00         0.39242E+01
 
   -0.33335E+03        -0.45173E+03         0.00000E+00
   -0.45173E+03         0.20757E+03         0.00000E+00
    0.00000E+00         0.00000E+00        -0.37737E+02
 
   -0.54802E+03        -0.50486E+03         0.00000E+00
   -0.50486E+03         0.28009E+03         0.00000E+00
    0.00000E+00         0.00000E+00        -0.80378E+02
 
   -0.76212E+03        -0.52660E+03         0.00000E+00
   -0.52660E+03         0.35216E+03         0.00000E+00
    0.00000E+00         0.00000E+00        -0.12299E+03
 
   -0.96956E+03        -0.51902E+03         0.00000E+00
   -0.51902E+03         0.42085E+03         0.00000E+00
    0.00000E+00         0.00000E+00        -0.16461E+03
 
   -0.11649E+04        -0.48455E+03         0.00000E+00
   -0.48455E+03         0.48365E+03         0.00000E+00
    0.00000E+00         0.00000E+00        -0.20436E+03
 
   -0.13432E+04        -0.42588E+03         0.00000E+00
   -0.42588E+03         0.53844E+03         0.00000E+00
    0.00000E+00         0.00000E+00        -0.24143E+03
 
   -0.15004E+04        -0.34584E+03         0.00000E+00
   -0.34584E+03         0.58353E+03         0.00000E+00
    0.00000E+00         0.00000E+00        -0.27506E+03
 
   -0.16329E+04        -0.24734E+03         0.00000E+00
   -0.24734E+03         0.61757E+03         0.00000E+00
    0.00000E+00         0.00000E+00        -0.30460E+03
 
   -0.17376E+04        -0.13330E+03         0.00000E+00
   -0.13330E+03         0.63957E+03         0.00000E+00
    0.00000E+00         0.00000E+00        -0.32942E+03
 
   -0.18121E+04        -0.66108E+01         0.00000E+00
   -0.66108E+01         0.64879E+03         0.00000E+00
    0.00000E+00         0.00000E+00        -0.34901E+03
 
   -0.18544E+04         0.12992E+03         0.00000E+00
    0.12992E+03         0.64476E+03         0.00000E+00
    0.00000E+00         0.00000E+00        -0.36288E+03
 
   -0.18626E+04         0.27356E+03         0.00000E+00
    0.27356E+03         0.62716E+03         0.00000E+00
    0.00000E+00         0.00000E+00        -0.37064E+03
 
   -0.18356E+04         0.42164E+03         0.00000E+00
    0.42164E+03         0.59585E+03         0.00000E+00
    0.00000E+00         0.00000E+00        -0.37193E+03
 
   -0.17723E+04         0.57157E+03         0.00000E+00
    0.57157E+03         0.55073E+03         0.00000E+00
    0.00000E+00         0.00000E+00        -0.36646E+03
 
   -0.16717E+04         0.72074E+03         0.00000E+00
    0.72074E+03         0.49182E+03         0.00000E+00
    0.00000E+00         0.00000E+00        -0.35396E+03
 
   -0.15333E+04         0.86654E+03         0.00000E+00
    0.86654E+03         0.41916E+03         0.00000E+00
    0.00000E+00         0.00000E+00        -0.33425E+03
 
   -0.13567E+04         0.10063E+04         0.00000E+00
    0.10063E+04         0.33282E+03         0.00000E+00
    0.00000E+00         0.00000E+00        -0.30717E+03
 
   -0.11416E+04         0.11370E+04         0.00000E+00
    0.11370E+04         0.23294E+03         0.00000E+00
    0.00000E+00         0.00000E+00        -0.27260E+03
 
   -0.88808E+03         0.12557E+04         0.00000E+00
    0.12557E+04         0.11973E+03         0.00000E+00
    0.00000E+00         0.00000E+00        -0.23050E+03
 
   -0.59637E+03         0.13591E+04         0.00000E+00
    0.13591E+04        -0.65097E+01         0.00000E+00
    0.00000E+00         0.00000E+00        -0.18086E+03
 
   -0.26717E+03         0.14434E+04         0.00000E+00
    0.14434E+04        -0.14528E+03         0.00000E+00
    0.00000E+00         0.00000E+00        -0.12373E+03
 
    0.79290E+02        -0.82789E+02         0.00000E+00
   -0.82789E+02         0.21746E+02         0.00000E+00
    0.00000E+00         0.00000E+00         0.30311E+02
 
   -0.62996E+02        -0.22515E+03         0.00000E+00
   -0.22515E+03         0.73247E+02         0.00000E+00
    0.00000E+00         0.00000E+00         0.30753E+01
 
   -0.22627E+03        -0.33674E+03         0.00000E+00
   -0.33674E+03         0.13526E+03         0.00000E+00
    0.00000E+00         0.00000E+00        -0.27305E+02
 
   -0.40352E+03        -0.41774E+03         0.00000E+00
   -0.41774E+03         0.20410E+03         0.00000E+00
    0.00000E+00         0.00000E+00        -0.59824E+02
 
   -0.58807E+03        -0.46892E+03         0.00000E+00
   -0.46892E+03         0.27636E+03         0.00000E+00
    0.00000E+00         0.00000E+00        -0.93512E+02
 
   -0.77371E+03        -0.49157E+03         0.00000E+00
   -0.49157E+03         0.34890E+03         0.00000E+00
    0.00000E+00         0.00000E+00        -0.12744E+03
 
   -0.95474E+03        -0.48741E+03         0.00000E+00
   -0.48741E+03         0.41892E+03         0.00000E+00
    0.00000E+00         0.00000E+00        -0.16075E+03
 
   -0.11260E+04        -0.45848E+03         0.00000E+00
   -0.45848E+03         0.48397E+03         0.00000E+00
    0.00000E+00         0.00000E+00        -0.19261E+03
 
   -0.12828E+04        -0.40709E+03         0.00000E+00
   -0.40709E+03         0.54195E+03         0.00000E+00
    0.00000E+00         0.00000E+00        -0.22226E+03
 
   -0.14212E+04        -0.33572E+03         0.00000E+00
   -0.33572E+03         0.59112E+03         0.00000E+00
    0.00000E+00         0.00000E+00        -0.24902E+03
 
   -0.15376E+04        -0.24696E+03         0.00000E+00
   -0.24696E+03         0.63007E+03         0.00000E+00
    0.00000E+00         0.00000E+00        -0.27225E+03
 
   -0.16290E+04        -0.14343E+03         0.00000E+00
   -0.14343E+03         0.65767E+03         0.00000E+00
    0.00000E+00         0.00000E+00        -0.29139E+03
 
   -0.16928E+04        -0.27776E+02         0.00000E+00
   -0.27776E+02         0.67308E+03         0.00000E+00
    0.00000E+00         0.00000E+00        -0.30592E+03
 
   -0.17270E+04         0.97396E+02         0.00000E+00
    0.97396E+02         0.67568E+03         0.00000E+00
    0.00000E+00         0.00000E+00        -0.31541E+03
 
   -0.17299E+04         0.22951E+03         0.00000E+00
    0.22951E+03         0.66504E+03         0.00000E+00
    0.00000E+00         0.00000E+00        -0.31946E+03
 
   -0.17000E+04         0.36602E+03         0.00000E+00
    0.36602E+03         0.64089E+03         0.00000E+00
    0.00000E+00         0.00000E+00        -0.31774E+03
 
   -0.16363E+04         0.50441E+03         0.00000E+00
    0.50441E+03         0.60308E+03         0.00000E+00
    0.00000E+00         0.00000E+00        -0.30997E+03
 
   -0.15380E+04         0.64214E+03         0.00000E+00
    0.64214E+03         0.55157E+03         0.00000E+00
    0.00000E+00         0.00000E+00        -0.29592E+03
 
   -0.14044E+04         0.77666E+03         0.00000E+00
    0.77666E+03         0.48638E+03         0.00000E+00
    0.00000E+00         0.00000E+00        -0.27541E+03
 
   -0.12353E+04         0.90528E+03         0.00000E+00
    0.90528E+03         0.40763E+03         0.00000E+00
    0.00000E+00         0.00000E+00        -0.24831E+03
 
   -0.10307E+04         0.10252E+04         0.00000E+00
    0.10252E+04         0.31555E+03         0.00000E+00
    0.00000E+00         0.00000E+00        -0.21454E+03
 
   -0.79067E+03         0.11335E+04         0.00000E+00
    0.11335E+04         0.21044E+03         0.00000E+00
    0.00000E+00         0.00000E+00        -0.17407E+03
 
   -0.51589E+03         0.12270E+04         0.00000E+00
    0.12270E+04         0.92795E+02         0.00000E+00
    0.00000E+00         0.00000E+00        -0.12693E+03
 
   -0.20730E+03         0.13022E+04         0.00000E+00
    0.13022E+04        -0.36714E+02         0.00000E+00
    0.00000E+00         0.00000E+00        -0.73205E+02
 
   -0.71646E+02        -0.75342E+02         0.00000E+00
   -0.75342E+02         0.21292E+02         0.00000E+00
    0.00000E+00         0.00000E+00        -0.15106E+02
 
   -0.18578E+03        -0.20552E+03         0.00000E+00
   -0.20552E+03         0.71678E+02         0.00000E+00
    0.00000E+00         0.00000E+00        -0.34230E+02
 
   -0.32064E+03        -0.30837E+03         0.00000E+00
   -0.30837E+03         0.13246E+03         0.00000E+00
    0.00000E+00         0.00000E+00        -0.56453E+02
 
   -0.46981E+03        -0.38388E+03         0.00000E+00
   -0.38388E+03         0.20025E+03         0.00000E+00
    0.00000E+00         0.00000E+00        -0.80867E+02
 
   -0.62717E+03        -0.43256E+03         0.00000E+00
   -0.43256E+03         0.27185E+03         0.00000E+00
    0.00000E+00         0.00000E+00        -0.10659E+03
 
   -0.78695E+03        -0.45542E+03         0.00000E+00
   -0.45542E+03         0.34432E+03         0.00000E+00
    0.00000E+00         0.00000E+00        -0.13279E+03
 
   -0.94382E+03        -0.45388E+03         0.00000E+00
   -0.45388E+03         0.41498E+03         0.00000E+00
    0.00000E+00         0.00000E+00        -0.15865E+03
 
   -0.10929E+04        -0.42964E+03         0.00000E+00
   -0.42964E+03         0.48145E+03         0.00000E+00
    0.00000E+00         0.00000E+00        -0.18343E+03
 
   -0.12298E+04        -0.38470E+03         0.00000E+00
   -0.38470E+03         0.54167E+03         0.00000E+00
    0.00000E+00         0.00000E+00        -0.20643E+03
 
   -0.13506E+04        -0.32123E+03         0.00000E+00
   -0.32123E+03         0.59387E+03         0.00000E+00
    0.00000E+00         0.00000E+00        -0.22700E+03
 
   -0.14518E+04        -0.24149E+03         0.00000E+00
   -0.24149E+03         0.63658E+03         0.00000E+00
    0.00000E+00         0.00000E+00        -0.24456E+03
 
   -0.15305E+04        -0.14787E+03         0.00000E+00
   -0.14787E+03         0.66861E+03         0.00000E+00
    0.00000E+00         0.00000E+00        -0.25856E+03
 
   -0.15841E+04        -0.42766E+02         0.00000E+00
   -0.42766E+02         0.68901E+03         0.00000E+00
    0.00000E+00         0.00000E+00        -0.26854E+03
 
   -0.16107E+04         0.71418E+02         0.00000E+00
    0.71418E+02         0.69708E+03         0.00000E+00
    0.00000E+00         0.00000E+00        -0.27407E+03
 
   -0.16082E+04         0.19227E+03         0.00000E+00
    0.19227E+03         0.69228E+03         0.00000E+00
    0.00000E+00         0.00000E+00        -0.27479E+03
 
   -0.15755E+04         0.31739E+03         0.00000E+00
    0.31739E+03         0.67426E+03         0.00000E+00
    0.00000E+00         0.00000E+00        -0.27038E+03
 
   -0.15114E+04         0.44436E+03         0.00000E+00
    0.44436E+03         0.64281E+03         0.00000E+00
    0.00000E+00         0.00000E+00        -0.26059E+03
 
   -0.14152E+04         0.57077E+03         0.00000E+00
    0.57077E+03         0.59784E+03         0.00000E+00
    0.00000E+00         0.00000E+00        -0.24520E+03
 
   -0.12862E+04         0.69411E+03         0.00000E+00
    0.69411E+03         0.53939E+03         0.00000E+00
    0.00000E+00         0.00000E+00        -0.22405E+03
 
   -0.11244E+04         0.81183E+03         0.00000E+00
    0.81183E+03         0.46760E+03         0.00000E+00
    0.00000E+00         0.00000E+00        -0.19704E+03
 
   -0.92980E+03         0.92124E+03         0.00000E+00
    0.92124E+03         0.38275E+03         0.00000E+00
    0.00000E+00         0.00000E+00        -0.16411E+03
 
   -0.70280E+03         0.10195E+04         0.00000E+00
    0.10195E+04         0.28527E+03         0.00000E+00
    0.00000E+00         0.00000E+00        -0.12526E+03
 
   -0.44423E+03         0.11036E+04         0.00000E+00
    0.11036E+04         0.17576E+03         0.00000E+00
    0.00000E+00         0.00000E+00        -0.80541E+02
 
   -0.15530E+03         0.11703E+04         0.00000E+00
    0.11703E+04         0.55039E+02         0.00000E+00
    0.00000E+00         0.00000E+00        -0.30078E+02
 
   -0.20885E+03        -0.68182E+02         0.00000E+00
   -0.68182E+02         0.20850E+02         0.00000E+00
    0.00000E+00         0.00000E+00        -0.56400E+02
 
   -0.29814E+03        -0.18651E+03         0.00000E+00
   -0.18651E+03         0.70115E+02         0.00000E+00
    0.00000E+00         0.00000E+00        -0.68409E+02
 
   -0.40776E+03        -0.28065E+03         0.00000E+00
   -0.28065E+03         0.12959E+03         0.00000E+00
    0.00000E+00         0.00000E+00        -0.83451E+02
 
   -0.53184E+03        -0.35044E+03         0.00000E+00
   -0.35044E+03         0.19615E+03         0.00000E+00
    0.00000E+00         0.00000E+00        -0.10071E+03
 
   -0.66475E+03        -0.39620E+03         0.00000E+00
   -0.39620E+03         0.26681E+03         0.00000E+00
    0.00000E+00         0.00000E+00        -0.11938E+03
 
   -0.80114E+03        -0.41872E+03         0.00000E+00
   -0.41872E+03         0.33880E+03         0.00000E+00
    0.00000E+00         0.00000E+00        -0.13870E+03
 
   -0.93603E+03        -0.41913E+03         0.00000E+00
   -0.41913E+03         0.40955E+03         0.00000E+00
    0.00000E+00         0.00000E+00        -0.15794E+03
 
   -0.10648E+04        -0.39887E+03         0.00000E+00
   -0.39887E+03         0.47679E+03         0.00000E+00
    0.00000E+00         0.00000E+00        -0.17641E+03
 
   -0.11833E+04        -0.35966E+03         0.00000E+00
   -0.35966E+03         0.53846E+03         0.00000E+00
    0.00000E+00         0.00000E+00        -0.19346E+03
 
   -0.12878E+04        -0.30337E+03         0.00000E+00
   -0.30337E+03         0.59282E+03         0.00000E+00
    0.00000E+00         0.00000E+00        -0.20849E+03
 
   -0.13749E+04        -0.23202E+03         0.00000E+00
   -0.23202E+03         0.63836E+03         0.00000E+00
    0.00000E+00         0.00000E+00        -0.22095E+03
 
   -0.14417E+04        -0.14774E+03         0.00000E+00
   -0.14774E+03         0.67383E+03         0.00000E+00
    0.00000E+00         0.00000E+00        -0.23035E+03
 
   -0.14857E+04        -0.52690E+02         0.00000E+00
   -0.52690E+02         0.69823E+03         0.00000E+00
    0.00000E+00         0.00000E+00        -0.23624E+03
 
   -0.15049E+04         0.50907E+02         0.00000E+00
    0.50907E+02         0.71077E+03         0.00000E+00
    0.00000E+00         0.00000E+00        -0.23822E+03
 
   -0.14974E+04         0.16082E+03         0.00000E+00
    0.16082E+03         0.71084E+03         0.00000E+00
    0.00000E+00         0.00000E+00        -0.23597E+03
 
   -0.14619E+04         0.27480E+03         0.00000E+00
    0.27480E+03         0.69804E+03         0.00000E+00
    0.00000E+00         0.00000E+00        -0.22917E+03
 
   -0.13974E+04         0.39058E+03         0.00000E+00
    0.39058E+03         0.67209E+03         0.00000E+00
    0.00000E+00         0.00000E+00        -0.21760E+03
 
   -0.13031E+04         0.50584E+03         0.00000E+00
    0.50584E+03         0.63290E+03         0.00000E+00
    0.00000E+00         0.00000E+00        -0.20106E+03
 
   -0.11785E+04         0.61823E+03         0.00000E+00
    0.61823E+03         0.58049E+03         0.00000E+00
    0.00000E+00         0.00000E+00        -0.17942E+03
 
   -0.10236E+04         0.72529E+03         0.00000E+00
    0.72529E+03         0.51503E+03         0.00000E+00
    0.00000E+00         0.00000E+00        -0.15258E+03
 
   -0.83857E+03         0.82448E+03         0.00000E+00
    0.82448E+03         0.43686E+03         0.00000E+00
    0.00000E+00         0.00000E+00        -0.12051E+03
 
   -0.62395E+03         0.91314E+03         0.00000E+00
    0.91314E+03         0.34648E+03         0.00000E+00
    0.00000E+00         0.00000E+00        -0.83241E+02
 
   -0.38073E+03         0.98843E+03         0.00000E+00
    0.98843E+03         0.24459E+03         0.00000E+00
    0.00000E+00         0.00000E+00        -0.40843E+02
 
   -0.11033E+03         0.10474E+04         0.00000E+00
    0.10474E+04         0.13213E+03         0.00000E+00
    0.00000E+00         0.00000E+00         0.65381E+01
 
   -0.33282E+03        -0.61319E+02         0.00000E+00
   -0.61319E+02         0.20425E+02         0.00000E+00
    0.00000E+00         0.00000E+00        -0.93719E+02
 
   -0.40030E+03        -0.16816E+03         0.00000E+00
   -0.16816E+03         0.68584E+02         0.00000E+00
    0.00000E+00         0.00000E+00        -0.99514E+02
 
   -0.48759E+03        -0.25370E+03         0.00000E+00
   -0.25370E+03         0.12672E+03         0.00000E+00
    0.00000E+00         0.00000E+00        -0.10826E+03
 
   -0.58934E+03        -0.31765E+03         0.00000E+00
   -0.31765E+03         0.19193E+03         0.00000E+00
    0.00000E+00         0.00000E+00        -0.11922E+03
 
   -0.70036E+03        -0.36020E+03         0.00000E+00
   -0.36020E+03         0.26145E+03         0.00000E+00
    0.00000E+00         0.00000E+00        -0.13167E+03
 
   -0.81570E+03        -0.38191E+03         0.00000E+00
   -0.38191E+03         0.33264E+03         0.00000E+00
    0.00000E+00         0.00000E+00        -0.14492E+03
 
   -0.93070E+03        -0.38372E+03         0.00000E+00
   -0.38372E+03         0.40308E+03         0.00000E+00
    0.00000E+00         0.00000E+00        -0.15829E+03
 
   -0.10410E+04        -0.36684E+03         0.00000E+00
   -0.36684E+03         0.47056E+03         0.00000E+00
    0.00000E+00         0.00000E+00        -0.17114E+03
 
   -0.11427E+04        -0.33272E+03         0.00000E+00
   -0.33272E+03         0.53308E+03         0.00000E+00
    0.00000E+00         0.00000E+00        -0.18289E+03
 
   -0.12322E+04        -0.28299E+03         0.00000E+00
   -0.28299E+03         0.58889E+03         0.00000E+00
    0.00000E+00         0.00000E+00        -0.19299E+03
 
   -0.13062E+04        -0.21944E+03         0.00000E+00
   -0.21944E+03         0.63649E+03         0.00000E+00
    0.00000E+00         0.00000E+00        -0.20091E+03
 
   -0.13619E+04        -0.14395E+03         0.00000E+00
   -0.14395E+03         0.67460E+03         0.00000E+00
    0.00000E+00         0.00000E+00        -0.20620E+03
 
   -0.13970E+04        -0.58488E+02         0.00000E+00
   -0.58488E+02         0.70215E+03         0.00000E+00
    0.00000E+00         0.00000E+00        -0.20845E+03
 
   -0.14092E+04         0.34935E+02         0.00000E+00
    0.34935E+02         0.71832E+03         0.00000E+00
    0.00000E+00         0.00000E+00        -0.20728E+03
 
   -0.13970E+04         0.13427E+03         0.00000E+00
    0.13427E+03         0.72244E+03         0.00000E+00
    0.00000E+00         0.00000E+00        -0.20238E+03
 
   -0.13590E+04         0.23742E+03         0.00000E+00
    0.23742E+03         0.71405E+03         0.00000E+00
    0.00000E+00         0.00000E+00        -0.19347E+03
 
   -0.12940E+04         0.34227E+03         0.00000E+00
    0.34227E+03         0.69285E+03         0.00000E+00
    0.00000E+00         0.00000E+00        -0.18035E+03
 
   -0.12015E+04         0.44665E+03         0.00000E+00
    0.44665E+03         0.65873E+03         0.00000E+00
    0.00000E+00         0.00000E+00        -0.16283E+03
 
   -0.10811E+04         0.54835E+03         0.00000E+00
    0.54835E+03         0.61170E+03         0.00000E+00
    0.00000E+00         0.00000E+00        -0.14081E+03
 
   -0.93265E+03         0.64507E+03         0.00000E+00
    0.64507E+03         0.55198E+03         0.00000E+00
    0.00000E+00         0.00000E+00        -0.11420E+03
 
   -0.75659E+03         0.73441E+03         0.00000E+00
    0.73441E+03         0.47992E+03         0.00000E+00
    0.00000E+00         0.00000E+00        -0.83004E+02
 
   -0.55359E+03         0.81391E+03         0.00000E+00
    0.81391E+03         0.39609E+03         0.00000E+00
    0.00000E+00         0.00000E+00        -0.47251E+02
 
   -0.32475E+03         0.88094E+03         0.00000E+00
    0.88094E+03         0.30127E+03         0.00000E+00
    0.00000E+00         0.00000E+00        -0.70453E+01
 
   -0.71646E+02         0.93276E+03         0.00000E+00
    0.93276E+03         0.19649E+03         0.00000E+00
    0.00000E+00         0.00000E+00         0.37453E+02
 
   -0.44409E+03        -0.54759E+02         0.00000E+00
   -0.54759E+02         0.20022E+02         0.00000E+00
    0.00000E+00         0.00000E+00        -0.12722E+03
 
   -0.49249E+03        -0.15051E+03         0.00000E+00
   -0.15051E+03         0.67108E+02         0.00000E+00
    0.00000E+00         0.00000E+00        -0.12761E+03
 
   -0.56013E+03        -0.22760E+03         0.00000E+00
   -0.22760E+03         0.12390E+03         0.00000E+00
    0.00000E+00         0.00000E+00        -0.13087E+03
 
   -0.64211E+03        -0.28567E+03         0.00000E+00
   -0.28567E+03         0.18771E+03         0.00000E+00
    0.00000E+00         0.00000E+00        -0.13632E+03
 
   -0.73366E+03        -0.32478E+03         0.00000E+00
   -0.32478E+03         0.25595E+03         0.00000E+00
    0.00000E+00         0.00000E+00        -0.14331E+03
 
   -0.83017E+03        -0.34534E+03         0.00000E+00
   -0.34534E+03         0.32614E+03         0.00000E+00
    0.00000E+00         0.00000E+00        -0.15121E+03
 
   -0.92730E+03        -0.34810E+03         0.00000E+00
   -0.34810E+03         0.39596E+03         0.00000E+00
    0.00000E+00         0.00000E+00        -0.15940E+03
 
   -0.10210E+04        -0.33408E+03         0.00000E+00
   -0.33408E+03         0.46328E+03         0.00000E+00
    0.00000E+00         0.00000E+00        -0.16730E+03
 
   -0.11074E+04        -0.30450E+03         0.00000E+00
   -0.30450E+03         0.52616E+03         0.00000E+00
    0.00000E+00         0.00000E+00        -0.17437E+03
 
   -0.11832E+04        -0.26078E+03         0.00000E+00
   -0.26078E+03         0.58288E+03         0.00000E+00
    0.00000E+00         0.00000E+00        -0.18009E+03
 
   -0.12452E+04        -0.20449E+03         0.00000E+00
   -0.20449E+03         0.63193E+03         0.00000E+00
    0.00000E+00         0.00000E+00        -0.18399E+03
 
   -0.12908E+04        -0.13729E+03         0.00000E+00
   -0.13729E+03         0.67200E+03         0.00000E+00
    0.00000E+00         0.00000E+00        -0.18564E+03
 
   -0.13175E+04        -0.60955E+02         0.00000E+00
   -0.60955E+02         0.70202E+03         0.00000E+00
    0.00000E+00         0.00000E+00        -0.18465E+03
 
   -0.13234E+04         0.22709E+02         0.00000E+00
    0.22709E+02         0.72110E+03         0.00000E+00
    0.00000E+00         0.00000E+00        -0.18069E+03
 
   -0.13067E+04         0.11183E+03         0.00000E+00
    0.11183E+03         0.72855E+03         0.00000E+00
    0.00000E+00         0.00000E+00        -0.17346E+03
 
   -0.12662E+04         0.20449E+03         0.00000E+00
    0.20449E+03         0.72388E+03         0.00000E+00
    0.00000E+00         0.00000E+00        -0.16271E+03
 
   -0.12009E+04         0.29872E+03         0.00000E+00
    0.29872E+03         0.70677E+03         0.00000E+00
    0.00000E+00         0.00000E+00        -0.14824E+03
 
   -0.11101E+04         0.39254E+03         0.00000E+00
    0.39254E+03         0.67707E+03         0.00000E+00
    0.00000E+00         0.00000E+00        -0.12990E+03
 
   -0.99346E+03         0.48386E+03         0.00000E+00
    0.48386E+03         0.63483E+03         0.00000E+00
    0.00000E+00         0.00000E+00        -0.10759E+03
 
   -0.85110E+03         0.57058E+03         0.00000E+00
    0.57058E+03         0.58024E+03         0.00000E+00
    0.00000E+00         0.00000E+00        -0.81257E+02
 
   -0.68342E+03         0.65047E+03         0.00000E+00
    0.65047E+03         0.51373E+03         0.00000E+00
    0.00000E+00         0.00000E+00        -0.50906E+02
 
   -0.49121E+03         0.72126E+03         0.00000E+00
    0.72126E+03         0.43590E+03         0.00000E+00
    0.00000E+00         0.00000E+00        -0.16593E+02
 
   -0.27569E+03         0.78055E+03         0.00000E+00
    0.78055E+03         0.34758E+03         0.00000E+00
    0.00000E+00         0.00000E+00         0.21567E+02
 
   -0.38540E+02         0.82586E+03         0.00000E+00
    0.82586E+03         0.24987E+03         0.00000E+00
    0.00000E+00         0.00000E+00         0.63399E+02
 
   -0.54318E+03        -0.48498E+02         0.00000E+00
   -0.48498E+02         0.19645E+02         0.00000E+00
    0.00000E+00         0.00000E+00        -0.15706E+03
 
   -0.57501E+03        -0.13358E+03         0.00000E+00
   -0.13358E+03         0.65706E+02         0.00000E+00
    0.00000E+00         0.00000E+00        -0.15279E+03
 
   -0.62546E+03        -0.20242E+03         0.00000E+00
   -0.20242E+03         0.12118E+03         0.00000E+00
    0.00000E+00         0.00000E+00        -0.15128E+03
 
   -0.69005E+03        -0.25461E+03         0.00000E+00
   -0.25461E+03         0.18358E+03         0.00000E+00
    0.00000E+00         0.00000E+00        -0.15194E+03
 
   -0.76438E+03        -0.29012E+03         0.00000E+00
   -0.29012E+03         0.25048E+03         0.00000E+00
    0.00000E+00         0.00000E+00        -0.15417E+03
 
   -0.84417E+03        -0.30925E+03         0.00000E+00
   -0.30925E+03         0.31953E+03         0.00000E+00
    0.00000E+00         0.00000E+00        -0.15739E+03
 
   -0.92535E+03        -0.31260E+03         0.00000E+00
   -0.31260E+03         0.38852E+03         0.00000E+00
    0.00000E+00         0.00000E+00        -0.16105E+03
 
   -0.10041E+04        -0.30099E+03         0.00000E+00
   -0.30099E+03         0.45541E+03         0.00000E+00
    0.00000E+00         0.00000E+00        -0.16461E+03
 
   -0.10768E+04        -0.27548E+03         0.00000E+00
   -0.27548E+03         0.51830E+03         0.00000E+00
    0.00000E+00         0.00000E+00        -0.16756E+03
 
   -0.11403E+04        -0.23729E+03         0.00000E+00
   -0.23729E+03         0.57549E+03         0.00000E+00
    0.00000E+00         0.00000E+00        -0.16943E+03
 
   -0.11914E+04        -0.18778E+03         0.00000E+00
   -0.18778E+03         0.62549E+03         0.00000E+00
    0.00000E+00         0.00000E+00        -0.16979E+03
 
   -0.12278E+04        -0.12841E+03         0.00000E+00
   -0.12841E+03         0.66700E+03         0.00000E+00
    0.00000E+00         0.00000E+00        -0.16823E+03
 
   -0.12469E+04        -0.60757E+02         0.00000E+00
   -0.60757E+02         0.69890E+03         0.00000E+00
    0.00000E+00         0.00000E+00        -0.16440E+03
 
   -0.12469E+04         0.13555E+02         0.00000E+00
    0.13555E+02         0.72030E+03         0.00000E+00
    0.00000E+00         0.00000E+00        -0.15799E+03
 
   -0.12262E+04         0.92837E+02         0.00000E+00
    0.92837E+02         0.73049E+03         0.00000E+00
    0.00000E+00         0.00000E+00        -0.14871E+03
 
   -0.11834E+04         0.17535E+03         0.00000E+00
    0.17535E+03         0.72894E+03         0.00000E+00
    0.00000E+00         0.00000E+00        -0.13635E+03
 
   -0.11177E+04         0.25931E+03         0.00000E+00
    0.25931E+03         0.71531E+03         0.00000E+00
    0.00000E+00         0.00000E+00        -0.12072E+03
 
   -0.10284E+04         0.34288E+03         0.00000E+00
    0.34288E+03         0.68946E+03         0.00000E+00
    0.00000E+00         0.00000E+00        -0.10169E+03
 
   -0.91535E+03         0.42418E+03         0.00000E+00
    0.42418E+03         0.65142E+03         0.00000E+00
    0.00000E+00         0.00000E+00        -0.79179E+02
 
   -0.77857E+03         0.50125E+03         0.00000E+00
    0.50125E+03         0.60142E+03         0.00000E+00
    0.00000E+00         0.00000E+00        -0.53144E+02
 
   -0.61859E+03         0.57209E+03         0.00000E+00
    0.57209E+03         0.53990E+03         0.00000E+00
    0.00000E+00         0.00000E+00        -0.23607E+02
 
   -0.43629E+03         0.63461E+03         0.00000E+00
    0.63461E+03         0.46750E+03         0.00000E+00
    0.00000E+00         0.00000E+00         0.93629E+01
 
   -0.23297E+03         0.68666E+03         0.00000E+00
    0.68666E+03         0.38509E+03         0.00000E+00
    0.00000E+00         0.00000E+00         0.45637E+02
 
   -0.10384E+02         0.72601E+03         0.00000E+00
    0.72601E+03         0.29382E+03         0.00000E+00
    0.00000E+00         0.00000E+00         0.85030E+02
 
   -0.63063E+03        -0.42524E+02         0.00000E+00
   -0.42524E+02         0.19296E+02         0.00000E+00
    0.00000E+00         0.00000E+00        -0.18340E+03
 
   -0.64815E+03        -0.11734E+03         0.00000E+00
   -0.11734E+03         0.64397E+02         0.00000E+00
    0.00000E+00         0.00000E+00        -0.17513E+03
 
   -0.68368E+03        -0.17814E+03         0.00000E+00
   -0.17814E+03         0.11862E+03         0.00000E+00
    0.00000E+00         0.00000E+00        -0.16952E+03
 
   -0.73310E+03        -0.22450E+03         0.00000E+00
   -0.22450E+03         0.17964E+03         0.00000E+00
    0.00000E+00         0.00000E+00        -0.16604E+03
 
   -0.79233E+03        -0.25633E+03         0.00000E+00
   -0.25633E+03         0.24518E+03         0.00000E+00
    0.00000E+00         0.00000E+00        -0.16414E+03
 
   -0.85740E+03        -0.27382E+03         0.00000E+00
   -0.27382E+03         0.31303E+03         0.00000E+00
    0.00000E+00         0.00000E+00        -0.16331E+03
 
   -0.92449E+03        -0.27745E+03         0.00000E+00
   -0.27745E+03         0.38107E+03         0.00000E+00
    0.00000E+00         0.00000E+00        -0.16303E+03
 
   -0.98999E+03        -0.26790E+03         0.00000E+00
   -0.26790E+03         0.44733E+03         0.00000E+00
    0.00000E+00         0.00000E+00        -0.16280E+03
 
   -0.10505E+04        -0.24605E+03         0.00000E+00
   -0.24605E+03         0.50996E+03         0.00000E+00
    0.00000E+00         0.00000E+00        -0.16216E+03
 
   -0.11029E+04        -0.21295E+03         0.00000E+00
   -0.21295E+03         0.56731E+03         0.00000E+00
    0.00000E+00         0.00000E+00        -0.16068E+03
 
   -0.11444E+04        -0.16978E+03         0.00000E+00
   -0.16978E+03         0.61789E+03         0.00000E+00
    0.00000E+00         0.00000E+00        -0.15794E+03
 
   -0.11724E+04        -0.11782E+03         0.00000E+00
   -0.11782E+03         0.66040E+03         0.00000E+00
    0.00000E+00         0.00000E+00        -0.15359E+03
 
   -0.11847E+04        -0.58444E+02         0.00000E+00
   -0.58444E+02         0.69374E+03         0.00000E+00
    0.00000E+00         0.00000E+00        -0.14728E+03
 
   -0.11794E+04         0.69020E+01         0.00000E+00
    0.69020E+01         0.71697E+03         0.00000E+00
    0.00000E+00         0.00000E+00        -0.13873E+03
 
   -0.11550E+04         0.76713E+02         0.00000E+00
    0.76713E+02         0.72938E+03         0.00000E+00
    0.00000E+00         0.00000E+00        -0.12768E+03
 
   -0.11102E+04         0.14943E+03         0.00000E+00
    0.14943E+03         0.73042E+03         0.00000E+00
    0.00000E+00         0.00000E+00        -0.11393E+03
 
   -0.10441E+04         0.22345E+03         0.00000E+00
    0.22345E+03         0.71975E+03         0.00000E+00
    0.00000E+00         0.00000E+00        -0.97314E+02
 
   -0.95625E+03         0.29712E+03         0.00000E+00
    0.29712E+03         0.69721E+03         0.00000E+00
    0.00000E+00         0.00000E+00        -0.77712E+02
 
   -0.84638E+03         0.36873E+03         0.00000E+00
    0.36873E+03         0.66285E+03         0.00000E+00
    0.00000E+00         0.00000E+00        -0.55057E+02
 
   -0.71467E+03         0.43653E+03         0.00000E+00
    0.43653E+03         0.61691E+03         0.00000E+00
    0.00000E+00         0.00000E+00        -0.29328E+02
 
   -0.56168E+03         0.49871E+03         0.00000E+00
    0.49871E+03         0.55983E+03         0.00000E+00
    0.00000E+00         0.00000E+00        -0.55429E+00
 
   -0.38835E+03         0.55340E+03         0.00000E+00
    0.55340E+03         0.49229E+03         0.00000E+00
    0.00000E+00         0.00000E+00         0.31181E+02
 
   -0.19606E+03         0.59867E+03         0.00000E+00
    0.59867E+03         0.41519E+03         0.00000E+00
    0.00000E+00         0.00000E+00         0.65740E+02
 
    0.13391E+02         0.63255E+03         0.00000E+00
    0.63255E+03         0.32971E+03         0.00000E+00
    0.00000E+00         0.00000E+00         0.10293E+03
 
   -0.70693E+03        -0.36821E+02         0.00000E+00
   -0.36821E+02         0.18979E+02         0.00000E+00
    0.00000E+00         0.00000E+00        -0.20639E+03
 
   -0.71222E+03        -0.10178E+03         0.00000E+00
   -0.10178E+03         0.63196E+02         0.00000E+00
    0.00000E+00         0.00000E+00        -0.19471E+03
 
   -0.73492E+03        -0.15476E+03         0.00000E+00
   -0.15476E+03         0.11624E+03         0.00000E+00
    0.00000E+00         0.00000E+00        -0.18560E+03
 
   -0.77123E+03        -0.19536E+03         0.00000E+00
   -0.19536E+03         0.17596E+03         0.00000E+00
    0.00000E+00         0.00000E+00        -0.17858E+03
 
   -0.81737E+03        -0.22344E+03         0.00000E+00
   -0.22344E+03         0.24019E+03         0.00000E+00
    0.00000E+00         0.00000E+00        -0.17315E+03
 
   -0.86962E+03        -0.23913E+03         0.00000E+00
   -0.23913E+03         0.30683E+03         0.00000E+00
    0.00000E+00         0.00000E+00        -0.16884E+03
 
   -0.92440E+03        -0.24280E+03         0.00000E+00
   -0.24280E+03         0.37386E+03         0.00000E+00
    0.00000E+00         0.00000E+00        -0.16516E+03
 
   -0.97828E+03        -0.23500E+03         0.00000E+00
   -0.23500E+03         0.43938E+03         0.00000E+00
    0.00000E+00         0.00000E+00        -0.16167E+03
 
   -0.10280E+04        -0.21647E+03         0.00000E+00
   -0.21647E+03         0.50159E+03         0.00000E+00
    0.00000E+00         0.00000E+00        -0.15794E+03
 
   -0.10707E+04        -0.18810E+03         0.00000E+00
   -0.18810E+03         0.55887E+03         0.00000E+00
    0.00000E+00         0.00000E+00        -0.15356E+03
 
   -0.11036E+04        -0.15089E+03         0.00000E+00
   -0.15089E+03         0.60975E+03         0.00000E+00
    0.00000E+00         0.00000E+00        -0.14815E+03
 
   -0.11242E+04        -0.10595E+03         0.00000E+00
   -0.10595E+03         0.65294E+03         0.00000E+00
    0.00000E+00         0.00000E+00        -0.14138E+03
 
   -0.11304E+04        -0.54474E+02         0.00000E+00
   -0.54474E+02         0.68732E+03         0.00000E+00
    0.00000E+00         0.00000E+00        -0.13293E+03
 
   -0.11205E+04         0.22685E+01         0.00000E+00
    0.22685E+01         0.71198E+03         0.00000E+00
    0.00000E+00         0.00000E+00        -0.12254E+03
 
   -0.10927E+04         0.62959E+02         0.00000E+00
    0.62959E+02         0.72618E+03         0.00000E+00
    0.00000E+00         0.00000E+00        -0.10997E+03
 
   -0.10461E+04         0.12622E+03         0.00000E+00
    0.12622E+03         0.72936E+03         0.00000E+00
    0.00000E+00         0.00000E+00        -0.95030E+02
 
   -0.97977E+03         0.19064E+03         0.00000E+00
    0.19064E+03         0.72118E+03         0.00000E+00
    0.00000E+00         0.00000E+00        -0.77576E+02
 
   -0.89316E+03         0.25473E+03         0.00000E+00
    0.25473E+03         0.70148E+03         0.00000E+00
    0.00000E+00         0.00000E+00        -0.57503E+02
 
   -0.78615E+03         0.31700E+03         0.00000E+00
    0.31700E+03         0.67030E+03         0.00000E+00
    0.00000E+00         0.00000E+00        -0.34757E+02
 
   -0.65898E+03         0.37588E+03         0.00000E+00
    0.37588E+03         0.62789E+03         0.00000E+00
    0.00000E+00         0.00000E+00        -0.93289E+01
 
   -0.51225E+03         0.42977E+03         0.00000E+00
    0.42977E+03         0.57472E+03         0.00000E+00
    0.00000E+00         0.00000E+00         0.18741E+02
 
   -0.34695E+03         0.47702E+03         0.00000E+00
    0.47702E+03         0.51148E+03         0.00000E+00
    0.00000E+00         0.00000E+00         0.49359E+02
 
   -0.16449E+03         0.51593E+03         0.00000E+00
    0.51593E+03         0.43909E+03         0.00000E+00
    0.00000E+00         0.00000E+00         0.82382E+02
 
    0.33288E+02         0.54479E+03         0.00000E+00
    0.54479E+03         0.35875E+03         0.00000E+00
    0.00000E+00         0.00000E+00         0.11761E+03
 
   -0.77256E+03        -0.31369E+02         0.00000E+00
   -0.31369E+02         0.18696E+02         0.00000E+00
    0.00000E+00         0.00000E+00        -0.22616E+03
 
   -0.76753E+03        -0.86832E+02         0.00000E+00
   -0.86832E+02         0.62117E+02         0.00000E+00
    0.00000E+00         0.00000E+00        -0.21162E+03
 
   -0.77934E+03        -0.13223E+03         0.00000E+00
   -0.13223E+03         0.11410E+03         0.00000E+00
    0.00000E+00         0.00000E+00        -0.19957E+03
 
   -0.80447E+03        -0.16716E+03         0.00000E+00
   -0.16716E+03         0.17260E+03         0.00000E+00
    0.00000E+00         0.00000E+00        -0.18956E+03
 
   -0.83940E+03        -0.19147E+03         0.00000E+00
   -0.19147E+03         0.23560E+03         0.00000E+00
    0.00000E+00         0.00000E+00        -0.18114E+03
 
   -0.88064E+03        -0.20524E+03         0.00000E+00
   -0.20524E+03         0.30108E+03         0.00000E+00
    0.00000E+00         0.00000E+00        -0.17387E+03
 
   -0.92481E+03        -0.20874E+03         0.00000E+00
   -0.20874E+03         0.36711E+03         0.00000E+00
    0.00000E+00         0.00000E+00        -0.16731E+03
 
   -0.96865E+03        -0.20244E+03         0.00000E+00
   -0.20244E+03         0.43184E+03         0.00000E+00
    0.00000E+00         0.00000E+00        -0.16104E+03
 
   -0.10091E+04        -0.18694E+03         0.00000E+00
   -0.18694E+03         0.49353E+03         0.00000E+00
    0.00000E+00         0.00000E+00        -0.15468E+03
 
   -0.10433E+04        -0.16297E+03         0.00000E+00
   -0.16297E+03         0.55059E+03         0.00000E+00
    0.00000E+00         0.00000E+00        -0.14783E+03
 
   -0.10687E+04        -0.13138E+03         0.00000E+00
   -0.13138E+03         0.60157E+03         0.00000E+00
    0.00000E+00         0.00000E+00        -0.14015E+03
 
   -0.10829E+04        -0.93127E+02         0.00000E+00
   -0.93127E+02         0.64519E+03         0.00000E+00
    0.00000E+00         0.00000E+00        -0.13131E+03
 
   -0.10838E+04        -0.49220E+02         0.00000E+00
   -0.49220E+02         0.68034E+03         0.00000E+00
    0.00000E+00         0.00000E+00        -0.12104E+03
 
   -0.10697E+04        -0.74960E+00         0.00000E+00
   -0.74960E+00         0.70610E+03         0.00000E+00
    0.00000E+00         0.00000E+00        -0.10908E+03
 
   -0.10391E+04         0.51144E+02         0.00000E+00
    0.51144E+02         0.72172E+03         0.00000E+00
    0.00000E+00         0.00000E+00        -0.95221E+02
 
   -0.99092E+03         0.10527E+03         0.00000E+00
    0.10527E+03         0.72666E+03         0.00000E+00
    0.00000E+00         0.00000E+00        -0.79278E+02
 
   -0.92429E+03         0.16039E+03         0.00000E+00
    0.16039E+03         0.72054E+03         0.00000E+00
    0.00000E+00         0.00000E+00        -0.61125E+02
 
   -0.83880E+03         0.21523E+03         0.00000E+00
    0.21523E+03         0.70323E+03         0.00000E+00
    0.00000E+00         0.00000E+00        -0.40670E+02
 
   -0.73433E+03         0.26848E+03         0.00000E+00
    0.26848E+03         0.67476E+03         0.00000E+00
    0.00000E+00         0.00000E+00        -0.17870E+02
 
   -0.61116E+03         0.31877E+03         0.00000E+00
    0.31877E+03         0.63540E+03         0.00000E+00
    0.00000E+00         0.00000E+00         0.72724E+01
 
   -0.46992E+03         0.36472E+03         0.00000E+00
    0.36472E+03         0.58562E+03         0.00000E+00
    0.00000E+00         0.00000E+00         0.34708E+02
 
   -0.31166E+03         0.40489E+03         0.00000E+00
    0.40489E+03         0.52612E+03         0.00000E+00
    0.00000E+00         0.00000E+00         0.64337E+02
 
   -0.13781E+03         0.43783E+03         0.00000E+00
    0.43783E+03         0.45784E+03         0.00000E+00
    0.00000E+00         0.00000E+00         0.96008E+02
 
    0.49753E+02         0.46205E+03         0.00000E+00
    0.46205E+03         0.38198E+03         0.00000E+00
    0.00000E+00         0.00000E+00         0.12952E+03
 
   -0.82796E+03        -0.26143E+02         0.00000E+00
   -0.26143E+02         0.18449E+02         0.00000E+00
    0.00000E+00         0.00000E+00        -0.24285E+03
 
   -0.81436E+03        -0.72455E+02         0.00000E+00
   -0.72455E+02         0.61172E+02         0.00000E+00
    0.00000E+00         0.00000E+00        -0.22596E+03
 
   -0.81708E+03        -0.11047E+03         0.00000E+00
   -0.11047E+03         0.11220E+03         0.00000E+00
    0.00000E+00         0.00000E+00        -0.21146E+03
 
   -0.83284E+03        -0.13982E+03         0.00000E+00
   -0.13982E+03         0.16963E+03         0.00000E+00
    0.00000E+00         0.00000E+00        -0.19896E+03
 
   -0.85835E+03        -0.16036E+03         0.00000E+00
   -0.16036E+03         0.23151E+03         0.00000E+00
    0.00000E+00         0.00000E+00        -0.18805E+03
 
   -0.89031E+03        -0.17212E+03         0.00000E+00
   -0.17212E+03         0.29593E+03         0.00000E+00
    0.00000E+00         0.00000E+00        -0.17831E+03
 
   -0.92551E+03        -0.17531E+03         0.00000E+00
   -0.17531E+03         0.36101E+03         0.00000E+00
    0.00000E+00         0.00000E+00        -0.16935E+03
 
   -0.96085E+03        -0.17030E+03         0.00000E+00
   -0.17030E+03         0.42496E+03         0.00000E+00
    0.00000E+00         0.00000E+00        -0.16077E+03
 
   -0.99341E+03        -0.15757E+03         0.00000E+00
   -0.15757E+03         0.48610E+03         0.00000E+00
    0.00000E+00         0.00000E+00        -0.15219E+03
 
   -0.10204E+04        -0.13773E+03         0.00000E+00
   -0.13773E+03         0.54285E+03         0.00000E+00
    0.00000E+00         0.00000E+00        -0.14328E+03
 
   -0.10394E+04        -0.11149E+03         0.00000E+00
   -0.11149E+03         0.59380E+03         0.00000E+00
    0.00000E+00         0.00000E+00        -0.13369E+03
 
   -0.10481E+04        -0.79622E+02         0.00000E+00
   -0.79622E+02         0.63767E+03         0.00000E+00
    0.00000E+00         0.00000E+00        -0.12314E+03
 
   -0.10445E+04        -0.42985E+02         0.00000E+00
   -0.42985E+02         0.67336E+03         0.00000E+00
    0.00000E+00         0.00000E+00        -0.11134E+03
 
   -0.10269E+04        -0.24910E+01         0.00000E+00
   -0.24910E+01         0.69995E+03         0.00000E+00
    0.00000E+00         0.00000E+00        -0.98073E+02
 
   -0.99380E+03         0.40897E+02         0.00000E+00
    0.40897E+02         0.71670E+03         0.00000E+00
    0.00000E+00         0.00000E+00        -0.83132E+02
 
   -0.94423E+03         0.86173E+02         0.00000E+00
    0.86173E+02         0.72304E+03         0.00000E+00
    0.00000E+00         0.00000E+00        -0.66357E+02
 
   -0.87739E+03         0.13229E+03         0.00000E+00
    0.13229E+03         0.71862E+03         0.00000E+00
    0.00000E+00         0.00000E+00        -0.47629E+02
 
   -0.79286E+03         0.17817E+03         0.00000E+00
    0.17817E+03         0.70330E+03         0.00000E+00
    0.00000E+00         0.00000E+00        -0.26869E+02
 
   -0.69058E+03         0.22268E+03         0.00000E+00
    0.22268E+03         0.67710E+03         0.00000E+00
    0.00000E+00         0.00000E+00        -0.40424E+01
 
   -0.57084E+03         0.26469E+03         0.00000E+00
    0.26469E+03         0.64031E+03         0.00000E+00
    0.00000E+00         0.00000E+00         0.20840E+02
 
   -0.43434E+03         0.30301E+03         0.00000E+00
    0.30301E+03         0.59340E+03         0.00000E+00
    0.00000E+00         0.00000E+00         0.47719E+02
 
   -0.28212E+03         0.33643E+03         0.00000E+00
    0.33643E+03         0.53709E+03         0.00000E+00
    0.00000E+00         0.00000E+00         0.76491E+02
 
   -0.11566E+03         0.36373E+03         0.00000E+00
    0.36373E+03         0.47232E+03         0.00000E+00
    0.00000E+00         0.00000E+00         0.10700E+03
 
    0.63167E+02         0.38366E+03         0.00000E+00
    0.38366E+03         0.40029E+03         0.00000E+00
    0.00000E+00         0.00000E+00         0.13904E+03
 
   -0.87350E+03        -0.21112E+02         0.00000E+00
   -0.21112E+02         0.18241E+02         0.00000E+00
    0.00000E+00         0.00000E+00        -0.25658E+03
 
   -0.85295E+03        -0.58574E+02         0.00000E+00
   -0.58574E+02         0.60370E+02         0.00000E+00
    0.00000E+00         0.00000E+00        -0.23778E+03
 
   -0.84828E+03        -0.89395E+02         0.00000E+00
   -0.89395E+02         0.11059E+03         0.00000E+00
    0.00000E+00         0.00000E+00        -0.22131E+03
 
   -0.85639E+03        -0.11326E+03         0.00000E+00
   -0.11326E+03         0.16708E+03         0.00000E+00
    0.00000E+00         0.00000E+00        -0.20679E+03
 
   -0.87418E+03        -0.13003E+03         0.00000E+00
   -0.13003E+03         0.22799E+03         0.00000E+00
    0.00000E+00         0.00000E+00        -0.19386E+03
 
   -0.89851E+03        -0.13972E+03         0.00000E+00
   -0.13972E+03         0.29146E+03         0.00000E+00
    0.00000E+00         0.00000E+00        -0.18211E+03
 
   -0.92633E+03        -0.14248E+03         0.00000E+00
   -0.14248E+03         0.35570E+03         0.00000E+00
    0.00000E+00         0.00000E+00        -0.17119E+03
 
   -0.95466E+03        -0.13859E+03         0.00000E+00
   -0.13859E+03         0.41894E+03         0.00000E+00
    0.00000E+00         0.00000E+00        -0.16072E+03
 
   -0.98069E+03        -0.12844E+03         0.00000E+00
   -0.12844E+03         0.47954E+03         0.00000E+00
    0.00000E+00         0.00000E+00        -0.15035E+03
 
   -0.10018E+04        -0.11251E+03         0.00000E+00
   -0.11251E+03         0.53596E+03         0.00000E+00
    0.00000E+00         0.00000E+00        -0.13974E+03
 
   -0.10155E+04        -0.91366E+02         0.00000E+00
   -0.91366E+02         0.58680E+03         0.00000E+00
    0.00000E+00         0.00000E+00        -0.12860E+03
 
   -0.10196E+04        -0.65635E+02         0.00000E+00
   -0.65635E+02         0.63080E+03         0.00000E+00
    0.00000E+00         0.00000E+00        -0.11664E+03
 
   -0.10122E+04        -0.36013E+02         0.00000E+00
   -0.36013E+02         0.66686E+03         0.00000E+00
    0.00000E+00         0.00000E+00        -0.10360E+03
 
   -0.99161E+03        -0.32399E+01         0.00000E+00
   -0.32399E+01         0.69407E+03         0.00000E+00
    0.00000E+00         0.00000E+00        -0.89263E+02
 
   -0.95649E+03         0.31899E+02         0.00000E+00
    0.31899E+02         0.71168E+03         0.00000E+00
    0.00000E+00         0.00000E+00        -0.73445E+02
 
   -0.90579E+03         0.68580E+02         0.00000E+00
    0.68580E+02         0.71913E+03         0.00000E+00
    0.00000E+00         0.00000E+00        -0.55997E+02
 
   -0.83877E+03         0.10595E+03         0.00000E+00
    0.10595E+03         0.71607E+03         0.00000E+00
    0.00000E+00         0.00000E+00        -0.36807E+02
 
   -0.75505E+03         0.14311E+03         0.00000E+00
    0.14311E+03         0.70235E+03         0.00000E+00
    0.00000E+00         0.00000E+00        -0.15808E+02
 
   -0.65459E+03         0.17916E+03         0.00000E+00
    0.17916E+03         0.67802E+03         0.00000E+00
    0.00000E+00         0.00000E+00         0.70278E+01
 
   -0.53774E+03         0.21315E+03         0.00000E+00
    0.21315E+03         0.64334E+03         0.00000E+00
    0.00000E+00         0.00000E+00         0.31682E+02
 
   -0.40518E+03         0.24412E+03         0.00000E+00
    0.24412E+03         0.59881E+03         0.00000E+00
    0.00000E+00         0.00000E+00         0.58090E+02
 
   -0.25801E+03         0.27107E+03         0.00000E+00
    0.27107E+03         0.54514E+03         0.00000E+00
    0.00000E+00         0.00000E+00         0.86141E+02
 
   -0.97699E+02         0.29301E+03         0.00000E+00
    0.29301E+03         0.48329E+03         0.00000E+00
    0.00000E+00         0.00000E+00         0.11568E+03
 
    0.73858E+02         0.30894E+03         0.00000E+00
    0.30894E+03         0.41445E+03         0.00000E+00
    0.00000E+00         0.00000E+00         0.14649E+03
 
   -0.90952E+03        -0.16246E+02         0.00000E+00
   -0.16246E+02         0.18073E+02         0.00000E+00
    0.00000E+00         0.00000E+00        -0.26744E+03
 
   -0.88355E+03        -0.45111E+02         0.00000E+00
   -0.45111E+02         0.59719E+02         0.00000E+00
    0.00000E+00         0.00000E+00        -0.24715E+03
 
   -0.87306E+03        -0.68904E+02         0.00000E+00
   -0.68904E+02         0.10928E+03         0.00000E+00
    0.00000E+00         0.00000E+00        -0.22914E+03
 
   -0.87516E+03        -0.87371E+02         0.00000E+00
   -0.87371E+02         0.16500E+03         0.00000E+00
    0.00000E+00         0.00000E+00        -0.21305E+03
 
   -0.88686E+03        -0.10039E+03         0.00000E+00
   -0.10039E+03         0.22510E+03         0.00000E+00
    0.00000E+00         0.00000E+00        -0.19853E+03
 
   -0.90517E+03        -0.10796E+03         0.00000E+00
   -0.10796E+03         0.28779E+03         0.00000E+00
    0.00000E+00         0.00000E+00        -0.18521E+03
 
   -0.92713E+03        -0.11020E+03         0.00000E+00
   -0.11020E+03         0.35130E+03         0.00000E+00
    0.00000E+00         0.00000E+00        -0.17275E+03
 
   -0.94990E+03        -0.10730E+03         0.00000E+00
   -0.10730E+03         0.41393E+03         0.00000E+00
    0.00000E+00         0.00000E+00        -0.16079E+03
 
   -0.97074E+03        -0.99568E+02         0.00000E+00
   -0.99568E+02         0.47406E+03         0.00000E+00
    0.00000E+00         0.00000E+00        -0.14901E+03
 
   -0.98709E+03        -0.87363E+02         0.00000E+00
   -0.87363E+02         0.53016E+03         0.00000E+00
    0.00000E+00         0.00000E+00        -0.13708E+03
 
   -0.99657E+03        -0.71118E+02         0.00000E+00
   -0.71118E+02         0.58086E+03         0.00000E+00
    0.00000E+00         0.00000E+00        -0.12471E+03
 
   -0.99705E+03        -0.51319E+02         0.00000E+00
   -0.51319E+02         0.62491E+03         0.00000E+00
    0.00000E+00         0.00000E+00        -0.11164E+03
 
   -0.98664E+03        -0.28500E+02         0.00000E+00
   -0.28500E+02         0.66122E+03         0.00000E+00
    0.00000E+00         0.00000E+00        -0.97625E+02
 
   -0.96371E+03        -0.32354E+01         0.00000E+00
   -0.32354E+01         0.68887E+03         0.00000E+00
    0.00000E+00         0.00000E+00        -0.82452E+02
 
   -0.92695E+03         0.23867E+02         0.00000E+00
    0.23867E+02         0.70712E+03         0.00000E+00
    0.00000E+00         0.00000E+00        -0.65948E+02
 
   -0.87534E+03         0.52168E+02         0.00000E+00
    0.52168E+02         0.71543E+03         0.00000E+00
    0.00000E+00         0.00000E+00        -0.47974E+02
 
   -0.80818E+03         0.81000E+02         0.00000E+00
    0.81000E+02         0.71342E+03         0.00000E+00
    0.00000E+00         0.00000E+00        -0.28426E+02
 
   -0.72511E+03         0.10967E+03         0.00000E+00
    0.10967E+03         0.70096E+03         0.00000E+00
    0.00000E+00         0.00000E+00        -0.72455E+01
 
   -0.62613E+03         0.13748E+03         0.00000E+00
    0.13748E+03         0.67809E+03         0.00000E+00
    0.00000E+00         0.00000E+00         0.15589E+02
 
   -0.51158E+03         0.16367E+03         0.00000E+00
    0.16367E+03         0.64509E+03         0.00000E+00
    0.00000E+00         0.00000E+00         0.40053E+02
 
   -0.38218E+03         0.18751E+03         0.00000E+00
    0.18751E+03         0.60244E+03         0.00000E+00
    0.00000E+00         0.00000E+00         0.66078E+02
 
   -0.23905E+03         0.20823E+03         0.00000E+00
    0.20823E+03         0.55088E+03         0.00000E+00
    0.00000E+00         0.00000E+00         0.93550E+02
 
   -0.83660E+02         0.22505E+03         0.00000E+00
    0.22505E+03         0.49135E+03         0.00000E+00
    0.00000E+00         0.00000E+00         0.12231E+03
 
    0.82092E+02         0.23720E+03         0.00000E+00
    0.23720E+03         0.42505E+03         0.00000E+00
    0.00000E+00         0.00000E+00         0.15214E+03
 
   -0.93630E+03        -0.11510E+02         0.00000E+00
   -0.11510E+02         0.17946E+02         0.00000E+00
    0.00000E+00         0.00000E+00        -0.27551E+03
 
   -0.90633E+03        -0.31980E+02         0.00000E+00
   -0.31980E+02         0.59226E+02         0.00000E+00
    0.00000E+00         0.00000E+00        -0.25413E+03
 
   -0.89156E+03        -0.48877E+02         0.00000E+00
   -0.48877E+02         0.10828E+03         0.00000E+00
    0.00000E+00         0.00000E+00        -0.23498E+03
 
   -0.88920E+03        -0.62014E+02         0.00000E+00
   -0.62014E+02         0.16341E+03         0.00000E+00
    0.00000E+00         0.00000E+00        -0.21773E+03
 
   -0.89638E+03        -0.71299E+02         0.00000E+00
   -0.71299E+02         0.22290E+03         0.00000E+00
    0.00000E+00         0.00000E+00        -0.20204E+03
 
   -0.91021E+03        -0.76726E+02         0.00000E+00
   -0.76726E+02         0.28498E+03         0.00000E+00
    0.00000E+00         0.00000E+00        -0.18757E+03
 
   -0.92783E+03        -0.78367E+02         0.00000E+00
   -0.78367E+02         0.34793E+03         0.00000E+00
    0.00000E+00         0.00000E+00        -0.17397E+03
 
   -0.94645E+03        -0.76367E+02         0.00000E+00
   -0.76367E+02         0.41007E+03         0.00000E+00
    0.00000E+00         0.00000E+00        -0.16091E+03
 
   -0.96342E+03        -0.70928E+02         0.00000E+00
   -0.70928E+02         0.46981E+03         0.00000E+00
    0.00000E+00         0.00000E+00        -0.14808E+03
 
   -0.97623E+03        -0.62309E+02         0.00000E+00
   -0.62309E+02         0.52565E+03         0.00000E+00
    0.00000E+00         0.00000E+00        -0.13517E+03
 
   -0.98256E+03        -0.50813E+02         0.00000E+00
   -0.50813E+02         0.57622E+03         0.00000E+00
    0.00000E+00         0.00000E+00        -0.12190E+03
 
   -0.98032E+03        -0.36786E+02         0.00000E+00
   -0.36786E+02         0.62027E+03         0.00000E+00
    0.00000E+00         0.00000E+00        -0.10801E+03
 
   -0.96765E+03        -0.20606E+02         0.00000E+00
   -0.20606E+02         0.65673E+03         0.00000E+00
    0.00000E+00         0.00000E+00        -0.93273E+02
 
   -0.94296E+03        -0.26810E+01         0.00000E+00
   -0.26810E+01         0.68469E+03         0.00000E+00
    0.00000E+00         0.00000E+00        -0.77482E+02
 
   -0.90498E+03         0.16555E+02         0.00000E+00
    0.16555E+02         0.70340E+03         0.00000E+00
    0.00000E+00         0.00000E+00        -0.60472E+02
 
   -0.85269E+03         0.36645E+02         0.00000E+00
    0.36645E+02         0.71232E+03         0.00000E+00
    0.00000E+00         0.00000E+00        -0.42110E+02
 
   -0.78542E+03         0.57115E+02         0.00000E+00
    0.57115E+02         0.71108E+03         0.00000E+00
    0.00000E+00         0.00000E+00        -0.22301E+02
 
   -0.70284E+03         0.77469E+02         0.00000E+00
    0.77469E+02         0.69954E+03         0.00000E+00
    0.00000E+00         0.00000E+00        -0.99022E+00
 
   -0.60496E+03         0.97199E+02         0.00000E+00
    0.97199E+02         0.67776E+03         0.00000E+00
    0.00000E+00         0.00000E+00         0.21838E+02
 
   -0.49215E+03         0.11578E+03         0.00000E+00
    0.11578E+03         0.64600E+03         0.00000E+00
    0.00000E+00         0.00000E+00         0.46156E+02
 
   -0.36513E+03         0.13268E+03         0.00000E+00
    0.13268E+03         0.60476E+03         0.00000E+00
    0.00000E+00         0.00000E+00         0.71891E+02
 
   -0.22502E+03         0.14734E+03         0.00000E+00
    0.14734E+03         0.55477E+03         0.00000E+00
    0.00000E+00         0.00000E+00         0.98926E+02
 
   -0.73323E+02         0.15923E+03         0.00000E+00
    0.15923E+03         0.49698E+03         0.00000E+00
    0.00000E+00         0.00000E+00         0.12710E+03
 
    0.88083E+02         0.16777E+03         0.00000E+00
    0.16777E+03         0.43258E+03         0.00000E+00
    0.00000E+00         0.00000E+00         0.15620E+03
 
   -0.95403E+03        -0.68679E+01         0.00000E+00
   -0.68679E+01         0.17860E+02         0.00000E+00
    0.00000E+00         0.00000E+00        -0.28085E+03
 
   -0.92143E+03        -0.19090E+02         0.00000E+00
   -0.19090E+02         0.58894E+02         0.00000E+00
    0.00000E+00         0.00000E+00        -0.25876E+03
 
   -0.90383E+03        -0.29189E+02         0.00000E+00
   -0.29189E+02         0.10761E+03         0.00000E+00
    0.00000E+00         0.00000E+00        -0.23887E+03
 
   -0.89853E+03        -0.37049E+02         0.00000E+00
   -0.37049E+02         0.16235E+03         0.00000E+00
    0.00000E+00         0.00000E+00        -0.22086E+03
 
   -0.90272E+03        -0.42614E+02         0.00000E+00
   -0.42614E+02         0.22141E+03         0.00000E+00
    0.00000E+00         0.00000E+00        -0.20440E+03
 
   -0.91359E+03        -0.45876E+02         0.00000E+00
   -0.45876E+02         0.28307E+03         0.00000E+00
    0.00000E+00         0.00000E+00        -0.18916E+03
 
   -0.92833E+03        -0.46879E+02         0.00000E+00
   -0.46879E+02         0.34564E+03         0.00000E+00
    0.00000E+00         0.00000E+00        -0.17481E+03
 
   -0.94420E+03        -0.45706E+02         0.00000E+00
   -0.45706E+02         0.40744E+03         0.00000E+00
    0.00000E+00         0.00000E+00        -0.16103E+03
 
   -0.95860E+03        -0.42476E+02         0.00000E+00
   -0.42476E+02         0.46691E+03         0.00000E+00
    0.00000E+00         0.00000E+00        -0.14751E+03
 
   -0.96906E+03        -0.37344E+02         0.00000E+00
   -0.37344E+02         0.52256E+03         0.00000E+00
    0.00000E+00         0.00000E+00        -0.13395E+03
 
   -0.97330E+03        -0.30490E+02         0.00000E+00
   -0.30490E+02         0.57303E+03         0.00000E+00
    0.00000E+00         0.00000E+00        -0.12008E+03
 
   -0.96924E+03        -0.22119E+02         0.00000E+00
   -0.22119E+02         0.61707E+03         0.00000E+00
    0.00000E+00         0.00000E+00        -0.10565E+03
 
   -0.95507E+03        -0.12459E+02         0.00000E+00
   -0.12459E+02         0.65362E+03         0.00000E+00
    0.00000E+00         0.00000E+00        -0.90434E+02
 
   -0.92922E+03        -0.17528E+01         0.00000E+00
   -0.17528E+01         0.68177E+03         0.00000E+00
    0.00000E+00         0.00000E+00        -0.74234E+02
 
   -0.89041E+03         0.97392E+01         0.00000E+00
    0.97392E+01         0.70078E+03         0.00000E+00
    0.00000E+00         0.00000E+00        -0.56891E+02
 
   -0.83767E+03         0.21743E+02         0.00000E+00
    0.21743E+02         0.71009E+03         0.00000E+00
    0.00000E+00         0.00000E+00        -0.38274E+02
 
   -0.77034E+03         0.33975E+02         0.00000E+00
    0.33975E+02         0.70936E+03         0.00000E+00
    0.00000E+00         0.00000E+00        -0.18294E+02
 
   -0.68809E+03         0.46136E+02         0.00000E+00
    0.46136E+02         0.69843E+03         0.00000E+00
    0.00000E+00         0.00000E+00         0.31009E+01
 
   -0.59095E+03         0.57922E+02         0.00000E+00
    0.57922E+02         0.67736E+03         0.00000E+00
    0.00000E+00         0.00000E+00         0.25923E+02
 
   -0.47929E+03         0.69019E+02         0.00000E+00
    0.69019E+02         0.64642E+03         0.00000E+00
    0.00000E+00         0.00000E+00         0.50141E+02
 
   -0.35385E+03         0.79104E+02         0.00000E+00
    0.79104E+02         0.60612E+03         0.00000E+00
    0.00000E+00         0.00000E+00         0.75681E+02
 
   -0.21576E+03         0.87851E+02         0.00000E+00
    0.87851E+02         0.55718E+03         0.00000E+00
    0.00000E+00         0.00000E+00         0.10242E+03
 
   -0.66522E+02         0.94928E+02         0.00000E+00
    0.94928E+02         0.50055E+03         0.00000E+00
    0.00000E+00         0.00000E+00         0.13021E+03
 
    0.91990E+02         0.10000E+03         0.00000E+00
    0.10000E+03         0.43741E+03         0.00000E+00
    0.00000E+00         0.00000E+00         0.15882E+03
 
   -0.96287E+03        -0.22829E+01         0.00000E+00
   -0.22829E+01         0.17817E+02         0.00000E+00
    0.00000E+00         0.00000E+00        -0.28351E+03
 
   -0.92896E+03        -0.63471E+01         0.00000E+00
   -0.63471E+01         0.58728E+02         0.00000E+00
    0.00000E+00         0.00000E+00        -0.26107E+03
 
   -0.90996E+03        -0.97067E+01         0.00000E+00
   -0.97067E+01         0.10727E+03         0.00000E+00
    0.00000E+00         0.00000E+00        -0.24081E+03
 
   -0.90319E+03        -0.12323E+02         0.00000E+00
   -0.12323E+02         0.16181E+03         0.00000E+00
    0.00000E+00         0.00000E+00        -0.22242E+03
 
   -0.90590E+03        -0.14177E+02         0.00000E+00
   -0.14177E+02         0.22066E+03         0.00000E+00
    0.00000E+00         0.00000E+00        -0.20557E+03
 
   -0.91529E+03        -0.15265E+02         0.00000E+00
   -0.15265E+02         0.28211E+03         0.00000E+00
    0.00000E+00         0.00000E+00        -0.18995E+03
 
   -0.92859E+03        -0.15603E+02         0.00000E+00
   -0.15603E+02         0.34448E+03         0.00000E+00
    0.00000E+00         0.00000E+00        -0.17523E+03
 
   -0.94309E+03        -0.15216E+02         0.00000E+00
   -0.15216E+02         0.40612E+03         0.00000E+00
    0.00000E+00         0.00000E+00        -0.16109E+03
 
   -0.95621E+03        -0.14145E+02         0.00000E+00
   -0.14145E+02         0.46545E+03         0.00000E+00
    0.00000E+00         0.00000E+00        -0.14723E+03
 
   -0.96550E+03        -0.12441E+02         0.00000E+00
   -0.12441E+02         0.52100E+03         0.00000E+00
    0.00000E+00         0.00000E+00        -0.13335E+03
 
   -0.96869E+03        -0.10163E+02         0.00000E+00
   -0.10163E+02         0.57140E+03         0.00000E+00
    0.00000E+00         0.00000E+00        -0.11919E+03
 
   -0.96373E+03        -0.73807E+01         0.00000E+00
   -0.73807E+01         0.61544E+03         0.00000E+00
    0.00000E+00         0.00000E+00        -0.10449E+03
 
   -0.94881E+03        -0.41685E+01         0.00000E+00
   -0.41685E+01         0.65203E+03         0.00000E+00
    0.00000E+00         0.00000E+00        -0.89032E+02
 
   -0.92237E+03        -0.60793E+00         0.00000E+00
   -0.60793E+00         0.68027E+03         0.00000E+00
    0.00000E+00         0.00000E+00        -0.72630E+02
 
   -0.88315E+03         0.32144E+01         0.00000E+00
    0.32144E+01         0.69942E+03         0.00000E+00
    0.00000E+00         0.00000E+00        -0.55121E+02
 
   -0.83019E+03         0.72075E+01         0.00000E+00
    0.72075E+01         0.70893E+03         0.00000E+00
    0.00000E+00         0.00000E+00        -0.36378E+02
 
   -0.76282E+03         0.11276E+02         0.00000E+00
    0.11276E+02         0.70844E+03         0.00000E+00
    0.00000E+00         0.00000E+00        -0.16314E+02
 
   -0.68074E+03         0.15321E+02         0.00000E+00
    0.15321E+02         0.69782E+03         0.00000E+00
    0.00000E+00         0.00000E+00         0.51229E+01
 
   -0.58397E+03         0.19241E+02         0.00000E+00
    0.19241E+02         0.67710E+03         0.00000E+00
    0.00000E+00         0.00000E+00         0.27941E+02
 
   -0.47288E+03         0.22931E+02         0.00000E+00
    0.22931E+02         0.64658E+03         0.00000E+00
    0.00000E+00         0.00000E+00         0.52109E+02
 
   -0.34824E+03         0.26284E+02         0.00000E+00
    0.26284E+02         0.60675E+03         0.00000E+00
    0.00000E+00         0.00000E+00         0.77551E+02
 
   -0.21116E+03         0.29191E+02         0.00000E+00
    0.29191E+02         0.55832E+03         0.00000E+00
    0.00000E+00         0.00000E+00         0.10415E+03
 
   -0.63150E+02         0.31541E+02         0.00000E+00
    0.31541E+02         0.50227E+03         0.00000E+00
    0.00000E+00         0.00000E+00         0.13174E+03
 
    0.93917E+02         0.33225E+02         0.00000E+00
    0.33225E+02         0.43976E+03         0.00000E+00
    0.00000E+00         0.00000E+00         0.16010E+03
 
TENSORS stresstot double 
   -0.69203E+05         0.61808E+03         0.00000E+00
    0.61808E+03        -0.99344E+05         0.00000E+00
    0.00000E+00         0.00000E+00        -0.50632E+05
 
   -0.35986E+05         0.35669E+04         0.00000E+00
    0.35669E+04        -0.95065E+05         0.00000E+00
    0.00000E+00         0.00000E+00        -0.39391E+05
 
   -0.16326E+05         0.53459E+04         0.00000E+00
    0.53459E+04        -0.85332E+05         0.00000E+00
    0.00000E+00         0.00000E+00        -0.30586E+05
 
   -0.66301E+04         0.51466E+04         0.00000E+00
    0.51466E+04        -0.74781E+05         0.00000E+00
    0.00000E+00         0.00000E+00        -0.24529E+05
 
   -0.18823E+04         0.43649E+04         0.00000E+00
    0.43649E+04        -0.65461E+05         0.00000E+00
    0.00000E+00         0.00000E+00        -0.20326E+05
 
    0.46895E+03         0.35672E+04         0.00000E+00
    0.35672E+04        -0.57727E+05         0.00000E+00
    0.00000E+00         0.00000E+00        -0.17319E+05
 
    0.16028E+04         0.28924E+04         0.00000E+00
    0.28924E+04        -0.51424E+05         0.00000E+00
    0.00000E+00         0.00000E+00        -0.15107E+05
 
    0.20870E+04         0.23532E+04         0.00000E+00
    0.23532E+04        -0.46294E+05         0.00000E+00
    0.00000E+00         0.00000E+00        -0.13441E+05
 
    0.22061E+04         0.19288E+04         0.00000E+00
    0.19288E+04        -0.42095E+05         0.00000E+00
    0.00000E+00         0.00000E+00        -0.12164E+05
 
    0.21091E+04         0.15944E+04         0.00000E+00
    0.15944E+04        -0.38632E+05         0.00000E+00
    0.00000E+00         0.00000E+00        -0.11171E+05
 
    0.18762E+04         0.13293E+04         0.00000E+00
    0.13293E+04        -0.35752E+05         0.00000E+00
    0.00000E+00         0.00000E+00        -0.10394E+05
 
    0.15516E+04         0.11171E+04         0.00000E+00
    0.11171E+04        -0.33338E+05         0.00000E+00
    0.00000E+00         0.00000E+00        -0.97827E+04
 
    0.11587E+04         0.94570E+03         0.00000E+00
    0.94570E+03        -0.31300E+05         0.00000E+00
    0.00000E+00         0.00000E+00        -0.93039E+04
 
    0.70922E+03         0.80623E+03         0.00000E+00
    0.80623E+03        -0.29566E+05         0.00000E+00
    0.00000E+00         0.00000E+00        -0.89325E+04
 
    0.20692E+03         0.69209E+03         0.00000E+00
    0.69209E+03        -0.28082E+05         0.00000E+00
    0.00000E+00         0.00000E+00        -0.86508E+04
 
   -0.34962E+03         0.59846E+03         0.00000E+00
    0.59846E+03        -0.26802E+05         0.00000E+00
    0.00000E+00         0.00000E+00        -0.84456E+04
 
   -0.96595E+03         0.52187E+03         0.00000E+00
    0.52187E+03        -0.25691E+05         0.00000E+00
    0.00000E+00         0.00000E+00        -0.83075E+04
 
   -0.16512E+04         0.45988E+03         0.00000E+00
    0.45988E+03        -0.24716E+05         0.00000E+00
    0.00000E+00         0.00000E+00        -0.82299E+04
 
   -0.24180E+04         0.41087E+03         0.00000E+00
    0.41087E+03        -0.23851E+05         0.00000E+00
    0.00000E+00         0.00000E+00        -0.82084E+04
 
   -0.32827E+04         0.37399E+03         0.00000E+00
    0.37399E+03        -0.23071E+05         0.00000E+00
    0.00000E+00         0.00000E+00        -0.82405E+04
 
   -0.42663E+04         0.34900E+03         0.00000E+00
    0.34900E+03        -0.22352E+05         0.00000E+00
    0.00000E+00         0.00000E+00        -0.83254E+04
 
   -0.53951E+04         0.33637E+03         0.00000E+00
    0.33637E+03        -0.21671E+05         0.00000E+00
    0.00000E+00         0.00000E+00        -0.84636E+04
 
   -0.67020E+04         0.33733E+03         0.00000E+00
    0.33733E+03        -0.21001E+05         0.00000E+00
    0.00000E+00         0.00000E+00        -0.86574E+04
 
   -0.82285E+04         0.35398E+03         0.00000E+00
    0.35398E+03        -0.20314E+05         0.00000E+00
    0.00000E+00         0.00000E+00        -0.89105E+04
 
   -0.64516E+05         0.30731E+04         0.00000E+00
    0.30731E+04        -0.99316E+05         0.00000E+00
    0.00000E+00         0.00000E+00        -0.49209E+05
 
   -0.30552E+05         0.13479E+05         0.00000E+00
    0.13479E+05        -0.87765E+05         0.00000E+00
    0.00000E+00         0.00000E+00        -0.35564E+05
 
   -0.15878E+05         0.15996E+05         0.00000E+00
    0.15996E+05        -0.76818E+05         0.00000E+00
    0.00000E+00         0.00000E+00        -0.27894E+05
 
   -0.79707E+04         0.14596E+05         0.00000E+00
    0.14596E+05        -0.67777E+05         0.00000E+00
    0.00000E+00         0.00000E+00        -0.22828E+05
 
   -0.34740E+04         0.12294E+05         0.00000E+00
    0.12294E+05        -0.60189E+05         0.00000E+00
    0.00000E+00         0.00000E+00        -0.19221E+05
 
   -0.94408E+03         0.10090E+05         0.00000E+00
    0.10090E+05        -0.53844E+05         0.00000E+00
    0.00000E+00         0.00000E+00        -0.16577E+05
 
    0.45042E+03         0.82383E+04         0.00000E+00
    0.82383E+04        -0.48554E+05         0.00000E+00
    0.00000E+00         0.00000E+00        -0.14591E+05
 
    0.11714E+04         0.67486E+04         0.00000E+00
    0.67486E+04        -0.44144E+05         0.00000E+00
    0.00000E+00         0.00000E+00        -0.13070E+05
 
    0.14821E+04         0.55648E+04         0.00000E+00
    0.55648E+04        -0.40458E+05         0.00000E+00
    0.00000E+00         0.00000E+00        -0.11889E+05
 
    0.15342E+04         0.46237E+04         0.00000E+00
    0.46237E+04        -0.37362E+05         0.00000E+00
    0.00000E+00         0.00000E+00        -0.10962E+05
 
    0.14163E+04         0.38711E+04         0.00000E+00
    0.38711E+04        -0.34750E+05         0.00000E+00
    0.00000E+00         0.00000E+00        -0.10231E+05
 
    0.11804E+04         0.32647E+04         0.00000E+00
    0.32647E+04        -0.32533E+05         0.00000E+00
    0.00000E+00         0.00000E+00        -0.96523E+04
 
    0.85686E+03         0.27721E+04         0.00000E+00
    0.27721E+04        -0.30642E+05         0.00000E+00
    0.00000E+00         0.00000E+00        -0.91970E+04
 
    0.46215E+03         0.23692E+04         0.00000E+00
    0.23692E+04        -0.29021E+05         0.00000E+00
    0.00000E+00         0.00000E+00        -0.88428E+04
 
    0.39645E+01         0.20382E+04         0.00000E+00
    0.20382E+04        -0.27622E+05         0.00000E+00
    0.00000E+00         0.00000E+00        -0.85735E+04
 
   -0.51628E+03         0.17658E+04         0.00000E+00
    0.17658E+04        -0.26409E+05         0.00000E+00
    0.00000E+00         0.00000E+00        -0.83774E+04
 
   -0.11019E+04         0.15424E+04         0.00000E+00
    0.15424E+04        -0.25350E+05         0.00000E+00
    0.00000E+00         0.00000E+00        -0.82456E+04
 
   -0.17602E+04         0.13613E+04         0.00000E+00
    0.13613E+04        -0.24416E+05         0.00000E+00
    0.00000E+00         0.00000E+00        -0.81722E+04
 
   -0.25025E+04         0.12180E+04         0.00000E+00
    0.12180E+04        -0.23583E+05         0.00000E+00
    0.00000E+00         0.00000E+00        -0.81531E+04
 
   -0.33437E+04         0.11101E+04         0.00000E+00
    0.11101E+04        -0.22830E+05         0.00000E+00
    0.00000E+00         0.00000E+00        -0.81860E+04
 
   -0.43035E+04         0.10371E+04         0.00000E+00
    0.10371E+04        -0.22132E+05         0.00000E+00
    0.00000E+00         0.00000E+00        -0.82702E+04
 
   -0.54068E+04         0.10005E+04         0.00000E+00
    0.10005E+04        -0.21469E+05         0.00000E+00
    0.00000E+00         0.00000E+00        -0.84062E+04
 
   -0.66849E+04         0.10040E+04         0.00000E+00
    0.10040E+04        -0.20816E+05         0.00000E+00
    0.00000E+00         0.00000E+00        -0.85963E+04
 
   -0.81774E+04         0.10538E+04         0.00000E+00
    0.10538E+04        -0.20144E+05         0.00000E+00
    0.00000E+00         0.00000E+00        -0.88440E+04
 
   -0.48059E+05         0.17592E+05         0.00000E+00
    0.17592E+05        -0.74889E+05         0.00000E+00
    0.00000E+00         0.00000E+00        -0.36921E+05
 
   -0.26298E+05         0.25406E+05         0.00000E+00
    0.25406E+05        -0.65491E+05         0.00000E+00
    0.00000E+00         0.00000E+00        -0.27596E+05
 
   -0.17184E+05         0.24189E+05         0.00000E+00
    0.24189E+05        -0.59593E+05         0.00000E+00
    0.00000E+00         0.00000E+00        -0.23113E+05
 
   -0.10674E+05         0.21195E+05         0.00000E+00
    0.21195E+05        -0.54924E+05         0.00000E+00
    0.00000E+00         0.00000E+00        -0.19779E+05
 
   -0.62751E+04         0.17915E+05         0.00000E+00
    0.17915E+05        -0.50731E+05         0.00000E+00
    0.00000E+00         0.00000E+00        -0.17221E+05
 
   -0.33913E+04         0.14919E+05         0.00000E+00
    0.14919E+05        -0.46861E+05         0.00000E+00
    0.00000E+00         0.00000E+00        -0.15215E+05
 
   -0.15672E+04         0.12377E+05         0.00000E+00
    0.12377E+05        -0.43342E+05         0.00000E+00
    0.00000E+00         0.00000E+00        -0.13631E+05
 
   -0.45676E+03         0.10285E+05         0.00000E+00
    0.10285E+05        -0.40196E+05         0.00000E+00
    0.00000E+00         0.00000E+00        -0.12373E+05
 
    0.17486E+03         0.85848E+04         0.00000E+00
    0.85848E+04        -0.37417E+05         0.00000E+00
    0.00000E+00         0.00000E+00        -0.11368E+05
 
    0.48214E+03         0.72055E+04         0.00000E+00
    0.72055E+04        -0.34982E+05         0.00000E+00
    0.00000E+00         0.00000E+00        -0.10563E+05
 
    0.56485E+03         0.60835E+04         0.00000E+00
    0.60835E+04        -0.32855E+05         0.00000E+00
    0.00000E+00         0.00000E+00        -0.99169E+04
 
    0.48680E+03         0.51663E+04         0.00000E+00
    0.51663E+04        -0.31001E+05         0.00000E+00
    0.00000E+00         0.00000E+00        -0.93999E+04
 
    0.28822E+03         0.44125E+04         0.00000E+00
    0.44125E+04        -0.29384E+05         0.00000E+00
    0.00000E+00         0.00000E+00        -0.89893E+04
 
   -0.63128E+01         0.37899E+04         0.00000E+00
    0.37899E+04        -0.27971E+05         0.00000E+00
    0.00000E+00         0.00000E+00        -0.86677E+04
 
   -0.38290E+03         0.32744E+04         0.00000E+00
    0.32744E+04        -0.26734E+05         0.00000E+00
    0.00000E+00         0.00000E+00        -0.84224E+04
 
   -0.83526E+03         0.28474E+04         0.00000E+00
    0.28474E+04        -0.25646E+05         0.00000E+00
    0.00000E+00         0.00000E+00        -0.82435E+04
 
   -0.13629E+04         0.24956E+04         0.00000E+00
    0.24956E+04        -0.24685E+05         0.00000E+00
    0.00000E+00         0.00000E+00        -0.81240E+04
 
   -0.19701E+04         0.22092E+04         0.00000E+00
    0.22092E+04        -0.23830E+05         0.00000E+00
    0.00000E+00         0.00000E+00        -0.80586E+04
 
   -0.26652E+04         0.19822E+04         0.00000E+00
    0.19822E+04        -0.23060E+05         0.00000E+00
    0.00000E+00         0.00000E+00        -0.80441E+04
 
   -0.34610E+04         0.18113E+04         0.00000E+00
    0.18113E+04        -0.22356E+05         0.00000E+00
    0.00000E+00         0.00000E+00        -0.80786E+04
 
   -0.43746E+04         0.16961E+04         0.00000E+00
    0.16961E+04        -0.21700E+05         0.00000E+00
    0.00000E+00         0.00000E+00        -0.81613E+04
 
   -0.54282E+04         0.16394E+04         0.00000E+00
    0.16394E+04        -0.21073E+05         0.00000E+00
    0.00000E+00         0.00000E+00        -0.82931E+04
 
   -0.66502E+04         0.16472E+04         0.00000E+00
    0.16472E+04        -0.20451E+05         0.00000E+00
    0.00000E+00         0.00000E+00        -0.84759E+04
 
   -0.80764E+04         0.17297E+04         0.00000E+00
    0.17297E+04        -0.19811E+05         0.00000E+00
    0.00000E+00         0.00000E+00        -0.87130E+04
 
   -0.22395E+05         0.17640E+05         0.00000E+00
    0.17640E+05        -0.25091E+05         0.00000E+00
    0.00000E+00         0.00000E+00        -0.14264E+05
 
   -0.25840E+05         0.25942E+05         0.00000E+00
    0.25942E+05        -0.33925E+05         0.00000E+00
    0.00000E+00         0.00000E+00        -0.17979E+05
 
   -0.19366E+05         0.25459E+05         0.00000E+00
    0.25459E+05        -0.37967E+05         0.00000E+00
    0.00000E+00         0.00000E+00        -0.17273E+05
 
   -0.13763E+05         0.23124E+05         0.00000E+00
    0.23124E+05        -0.39344E+05         0.00000E+00
    0.00000E+00         0.00000E+00        -0.16028E+05
 
   -0.93749E+04         0.20255E+05         0.00000E+00
    0.20255E+05        -0.39185E+05         0.00000E+00
    0.00000E+00         0.00000E+00        -0.14685E+05
 
   -0.61847E+04         0.17417E+05         0.00000E+00
    0.17417E+05        -0.38166E+05         0.00000E+00
    0.00000E+00         0.00000E+00        -0.13442E+05
 
   -0.39562E+04         0.14845E+05         0.00000E+00
    0.14845E+05        -0.36702E+05         0.00000E+00
    0.00000E+00         0.00000E+00        -0.12354E+05
 
   -0.24515E+04         0.12616E+05         0.00000E+00
    0.12616E+05        -0.35057E+05         0.00000E+00
    0.00000E+00         0.00000E+00        -0.11428E+05
 
   -0.14739E+04         0.10724E+05         0.00000E+00
    0.10724E+05        -0.33384E+05         0.00000E+00
    0.00000E+00         0.00000E+00        -0.10652E+05
 
   -0.87712E+03         0.91369E+04         0.00000E+00
    0.91369E+04        -0.31772E+05         0.00000E+00
    0.00000E+00         0.00000E+00        -0.10007E+05
 
   -0.55727E+03         0.78095E+04         0.00000E+00
    0.78095E+04        -0.30264E+05         0.00000E+00
    0.00000E+00         0.00000E+00        -0.94753E+04
 
   -0.44241E+03         0.67000E+04         0.00000E+00
    0.67000E+04        -0.28880E+05         0.00000E+00
    0.00000E+00         0.00000E+00        -0.90416E+04
 
   -0.48380E+03         0.57714E+04         0.00000E+00
    0.57714E+04        -0.27624E+05         0.00000E+00
    0.00000E+00         0.00000E+00        -0.86921E+04
 
   -0.64928E+03         0.49933E+04         0.00000E+00
    0.49933E+04        -0.26491E+05         0.00000E+00
    0.00000E+00         0.00000E+00        -0.84157E+04
 
   -0.91853E+03         0.43411E+04         0.00000E+00
    0.43411E+04        -0.25472E+05         0.00000E+00
    0.00000E+00         0.00000E+00        -0.82036E+04
 
   -0.12800E+04         0.37959E+04         0.00000E+00
    0.37959E+04        -0.24556E+05         0.00000E+00
    0.00000E+00         0.00000E+00        -0.80490E+04
 
   -0.17287E+04         0.33434E+04         0.00000E+00
    0.33434E+04        -0.23731E+05         0.00000E+00
    0.00000E+00         0.00000E+00        -0.79466E+04
 
   -0.22652E+04         0.29732E+04         0.00000E+00
    0.29732E+04        -0.22984E+05         0.00000E+00
    0.00000E+00         0.00000E+00        -0.78926E+04
 
   -0.28944E+04         0.26788E+04         0.00000E+00
    0.26788E+04        -0.22301E+05         0.00000E+00
    0.00000E+00         0.00000E+00        -0.78845E+04
 
   -0.36259E+04         0.24572E+04         0.00000E+00
    0.24572E+04        -0.21669E+05         0.00000E+00
    0.00000E+00         0.00000E+00        -0.79209E+04
 
   -0.44736E+04         0.23088E+04         0.00000E+00
    0.23088E+04        -0.21072E+05         0.00000E+00
    0.00000E+00         0.00000E+00        -0.80015E+04
 
   -0.54560E+04         0.22378E+04         0.00000E+00
    0.22378E+04        -0.20495E+05         0.00000E+00
    0.00000E+00         0.00000E+00        -0.81271E+04
 
   -0.65972E+04         0.22525E+04         0.00000E+00
    0.22525E+04        -0.19919E+05         0.00000E+00
    0.00000E+00         0.00000E+00        -0.82993E+04
 
   -0.79279E+04         0.23669E+04         0.00000E+00
    0.23669E+04        -0.19323E+05         0.00000E+00
    0.00000E+00         0.00000E+00        -0.85211E+04
 
   -0.54125E+04         0.32373E+04         0.00000E+00
    0.32373E+04        -0.64149E+03         0.00000E+00
    0.00000E+00         0.00000E+00        -0.18310E+04
 
   -0.20229E+05         0.15272E+05         0.00000E+00
    0.15272E+05        -0.11421E+05         0.00000E+00
    0.00000E+00         0.00000E+00        -0.95378E+04
 
   -0.19201E+05         0.20100E+05         0.00000E+00
    0.20100E+05        -0.19981E+05         0.00000E+00
    0.00000E+00         0.00000E+00        -0.11823E+05
 
   -0.15409E+05         0.20639E+05         0.00000E+00
    0.20639E+05        -0.25159E+05         0.00000E+00
    0.00000E+00         0.00000E+00        -0.12262E+05
 
   -0.11662E+05         0.19457E+05         0.00000E+00
    0.19457E+05        -0.28002E+05         0.00000E+00
    0.00000E+00         0.00000E+00        -0.12013E+05
 
   -0.85599E+04         0.17609E+05         0.00000E+00
    0.17609E+05        -0.29319E+05         0.00000E+00
    0.00000E+00         0.00000E+00        -0.11498E+05
 
   -0.61782E+04         0.15598E+05         0.00000E+00
    0.15598E+05        -0.29670E+05         0.00000E+00
    0.00000E+00         0.00000E+00        -0.10909E+05
 
   -0.44283E+04         0.13659E+05         0.00000E+00
    0.13659E+05        -0.29429E+05         0.00000E+00
    0.00000E+00         0.00000E+00        -0.10331E+05
 
   -0.31879E+04         0.11892E+05         0.00000E+00
    0.11892E+05        -0.28843E+05         0.00000E+00
    0.00000E+00         0.00000E+00        -0.98022E+04
 
   -0.23438E+04         0.10329E+05         0.00000E+00
    0.10329E+05        -0.28074E+05         0.00000E+00
    0.00000E+00         0.00000E+00        -0.93359E+04
 
   -0.18043E+04         0.89689E+04         0.00000E+00
    0.89689E+04        -0.27222E+05         0.00000E+00
    0.00000E+00         0.00000E+00        -0.89352E+04
 
   -0.14996E+04         0.77959E+04         0.00000E+00
    0.77959E+04        -0.26350E+05         0.00000E+00
    0.00000E+00         0.00000E+00        -0.85982E+04
 
   -0.13791E+04         0.67896E+04         0.00000E+00
    0.67896E+04        -0.25495E+05         0.00000E+00
    0.00000E+00         0.00000E+00        -0.83207E+04
 
   -0.14064E+04         0.59293E+04         0.00000E+00
    0.59293E+04        -0.24679E+05         0.00000E+00
    0.00000E+00         0.00000E+00        -0.80981E+04
 
   -0.15570E+04         0.51969E+04         0.00000E+00
    0.51969E+04        -0.23912E+05         0.00000E+00
    0.00000E+00         0.00000E+00        -0.79260E+04
 
   -0.18152E+04         0.45769E+04         0.00000E+00
    0.45769E+04        -0.23198E+05         0.00000E+00
    0.00000E+00         0.00000E+00        -0.78007E+04
 
   -0.21721E+04         0.40572E+04         0.00000E+00
    0.40572E+04        -0.22534E+05         0.00000E+00
    0.00000E+00         0.00000E+00        -0.77191E+04
 
   -0.26245E+04         0.36294E+04         0.00000E+00
    0.36294E+04        -0.21916E+05         0.00000E+00
    0.00000E+00         0.00000E+00        -0.76788E+04
 
   -0.31739E+04         0.32880E+04         0.00000E+00
    0.32880E+04        -0.21339E+05         0.00000E+00
    0.00000E+00         0.00000E+00        -0.76784E+04
 
   -0.38264E+04         0.30311E+04         0.00000E+00
    0.30311E+04        -0.20793E+05         0.00000E+00
    0.00000E+00         0.00000E+00        -0.77171E+04
 
   -0.45920E+04         0.28607E+04         0.00000E+00
    0.28607E+04        -0.20269E+05         0.00000E+00
    0.00000E+00         0.00000E+00        -0.77949E+04
 
   -0.54851E+04         0.27826E+04         0.00000E+00
    0.27826E+04        -0.19754E+05         0.00000E+00
    0.00000E+00         0.00000E+00        -0.79124E+04
 
   -0.65247E+04         0.28076E+04         0.00000E+00
    0.28076E+04        -0.19235E+05         0.00000E+00
    0.00000E+00         0.00000E+00        -0.80713E+04
 
   -0.77351E+04         0.29526E+04         0.00000E+00
    0.29526E+04        -0.18695E+05         0.00000E+00
    0.00000E+00         0.00000E+00        -0.82738E+04
 
    0.54209E+03         0.10054E+04         0.00000E+00
    0.10054E+04        -0.58777E+03         0.00000E+00
    0.00000E+00         0.00000E+00        -0.27215E+02
 
   -0.11737E+05         0.73056E+04         0.00000E+00
    0.73056E+04        -0.33817E+04         0.00000E+00
    0.00000E+00         0.00000E+00        -0.45755E+04
 
   -0.15781E+05         0.13252E+05         0.00000E+00
    0.13252E+05        -0.94809E+04         0.00000E+00
    0.00000E+00         0.00000E+00        -0.76437E+04
 
   -0.14839E+05         0.16055E+05         0.00000E+00
    0.16055E+05        -0.14944E+05         0.00000E+00
    0.00000E+00         0.00000E+00        -0.90235E+04
 
   -0.12490E+05         0.16673E+05         0.00000E+00
    0.16673E+05        -0.18918E+05         0.00000E+00
    0.00000E+00         0.00000E+00        -0.95335E+04
 
   -0.10008E+05         0.16104E+05         0.00000E+00
    0.16104E+05        -0.21536E+05         0.00000E+00
    0.00000E+00         0.00000E+00        -0.95956E+04
 
   -0.78316E+04         0.14954E+05         0.00000E+00
    0.14954E+05        -0.23112E+05         0.00000E+00
    0.00000E+00         0.00000E+00        -0.94359E+04
 
   -0.60750E+04         0.13576E+05         0.00000E+00
    0.13576E+05        -0.23940E+05         0.00000E+00
    0.00000E+00         0.00000E+00        -0.91768E+04
 
   -0.47267E+04         0.12160E+05         0.00000E+00
    0.12160E+05        -0.24253E+05         0.00000E+00
    0.00000E+00         0.00000E+00        -0.88850E+04
 
   -0.37334E+04         0.10806E+05         0.00000E+00
    0.10806E+05        -0.24224E+05         0.00000E+00
    0.00000E+00         0.00000E+00        -0.85962E+04
 
   -0.30349E+04         0.95599E+04         0.00000E+00
    0.95599E+04        -0.23976E+05         0.00000E+00
    0.00000E+00         0.00000E+00        -0.83293E+04
 
   -0.25766E+04         0.84395E+04         0.00000E+00
    0.84395E+04        -0.23595E+05         0.00000E+00
    0.00000E+00         0.00000E+00        -0.80935E+04
 
   -0.23141E+04         0.74468E+04         0.00000E+00
    0.74468E+04        -0.23139E+05         0.00000E+00
    0.00000E+00         0.00000E+00        -0.78927E+04
 
   -0.22130E+04         0.65765E+04         0.00000E+00
    0.65765E+04        -0.22645E+05         0.00000E+00
    0.00000E+00         0.00000E+00        -0.77283E+04
 
   -0.22481E+04         0.58206E+04         0.00000E+00
    0.58206E+04        -0.22139E+05         0.00000E+00
    0.00000E+00         0.00000E+00        -0.75999E+04
 
   -0.24016E+04         0.51707E+04         0.00000E+00
    0.51707E+04        -0.21637E+05         0.00000E+00
    0.00000E+00         0.00000E+00        -0.75069E+04
 
   -0.26622E+04         0.46196E+04         0.00000E+00
    0.46196E+04        -0.21146E+05         0.00000E+00
    0.00000E+00         0.00000E+00        -0.74483E+04
 
   -0.30239E+04         0.41623E+04         0.00000E+00
    0.41623E+04        -0.20670E+05         0.00000E+00
    0.00000E+00         0.00000E+00        -0.74233E+04
 
   -0.34851E+04         0.37959E+04         0.00000E+00
    0.37959E+04        -0.20209E+05         0.00000E+00
    0.00000E+00         0.00000E+00        -0.74313E+04
 
   -0.40484E+04         0.35207E+04         0.00000E+00
    0.35207E+04        -0.19760E+05         0.00000E+00
    0.00000E+00         0.00000E+00        -0.74723E+04
 
   -0.47201E+04         0.33407E+04         0.00000E+00
    0.33407E+04        -0.19318E+05         0.00000E+00
    0.00000E+00         0.00000E+00        -0.75464E+04
 
   -0.55100E+04         0.32636E+04         0.00000E+00
    0.32636E+04        -0.18875E+05         0.00000E+00
    0.00000E+00         0.00000E+00        -0.76544E+04
 
   -0.64316E+04         0.33024E+04         0.00000E+00
    0.33024E+04        -0.18421E+05         0.00000E+00
    0.00000E+00         0.00000E+00        -0.77976E+04
 
   -0.75022E+04         0.34764E+04         0.00000E+00
    0.34764E+04        -0.17946E+05         0.00000E+00
    0.00000E+00         0.00000E+00        -0.79776E+04
 
    0.32845E+04         0.37972E+03         0.00000E+00
    0.37972E+03        -0.78886E+02         0.00000E+00
    0.00000E+00         0.00000E+00         0.94885E+03
 
   -0.63557E+04         0.38461E+04         0.00000E+00
    0.38461E+04        -0.14776E+04         0.00000E+00
    0.00000E+00         0.00000E+00        -0.23881E+04
 
   -0.11434E+05         0.82568E+04         0.00000E+00
    0.82568E+04        -0.46538E+04         0.00000E+00
    0.00000E+00         0.00000E+00        -0.48890E+04
 
   -0.12751E+05         0.11561E+05         0.00000E+00
    0.11561E+05        -0.87234E+04         0.00000E+00
    0.00000E+00         0.00000E+00        -0.65285E+04
 
   -0.11980E+05         0.13256E+05         0.00000E+00
    0.13256E+05        -0.12444E+05         0.00000E+00
    0.00000E+00         0.00000E+00        -0.74356E+04
 
   -0.10435E+05         0.13726E+05         0.00000E+00
    0.13726E+05        -0.15394E+05         0.00000E+00
    0.00000E+00         0.00000E+00        -0.78787E+04
 
   -0.87549E+04         0.13420E+05         0.00000E+00
    0.13420E+05        -0.17548E+05         0.00000E+00
    0.00000E+00         0.00000E+00        -0.80416E+04
 
   -0.72203E+04         0.12675E+05         0.00000E+00
    0.12675E+05        -0.19022E+05         0.00000E+00
    0.00000E+00         0.00000E+00        -0.80430E+04
 
   -0.59328E+04         0.11715E+05         0.00000E+00
    0.11715E+05        -0.19961E+05         0.00000E+00
    0.00000E+00         0.00000E+00        -0.79572E+04
 
   -0.49105E+04         0.10677E+05         0.00000E+00
    0.10677E+05        -0.20499E+05         0.00000E+00
    0.00000E+00         0.00000E+00        -0.78299E+04
 
   -0.41363E+04         0.96448E+04         0.00000E+00
    0.96448E+04        -0.20746E+05         0.00000E+00
    0.00000E+00         0.00000E+00        -0.76888E+04
 
   -0.35809E+04         0.86641E+04         0.00000E+00
    0.86641E+04        -0.20788E+05         0.00000E+00
    0.00000E+00         0.00000E+00        -0.75509E+04
 
   -0.32142E+04         0.77587E+04         0.00000E+00
    0.77587E+04        -0.20689E+05         0.00000E+00
    0.00000E+00         0.00000E+00        -0.74261E+04
 
   -0.30089E+04         0.69398E+04         0.00000E+00
    0.69398E+04        -0.20495E+05         0.00000E+00
    0.00000E+00         0.00000E+00        -0.73202E+04
 
   -0.29431E+04         0.62111E+04         0.00000E+00
    0.62111E+04        -0.20239E+05         0.00000E+00
    0.00000E+00         0.00000E+00        -0.72364E+04
 
   -0.30000E+04         0.55729E+04         0.00000E+00
    0.55729E+04        -0.19944E+05         0.00000E+00
    0.00000E+00         0.00000E+00        -0.71767E+04
 
   -0.31677E+04         0.50243E+04         0.00000E+00
    0.50243E+04        -0.19625E+05         0.00000E+00
    0.00000E+00         0.00000E+00        -0.71419E+04
 
   -0.34384E+04         0.45649E+04         0.00000E+00
    0.45649E+04        -0.19293E+05         0.00000E+00
    0.00000E+00         0.00000E+00        -0.71326E+04
 
   -0.38084E+04         0.41954E+04         0.00000E+00
    0.41954E+04        -0.18952E+05         0.00000E+00
    0.00000E+00         0.00000E+00        -0.71492E+04
 
   -0.42773E+04         0.39190E+04         0.00000E+00
    0.39190E+04        -0.18604E+05         0.00000E+00
    0.00000E+00         0.00000E+00        -0.71921E+04
 
   -0.48476E+04         0.37418E+04         0.00000E+00
    0.37418E+04        -0.18248E+05         0.00000E+00
    0.00000E+00         0.00000E+00        -0.72619E+04
 
   -0.55249E+04         0.36737E+04         0.00000E+00
    0.36737E+04        -0.17882E+05         0.00000E+00
    0.00000E+00         0.00000E+00        -0.73592E+04
 
   -0.63170E+04         0.37296E+04         0.00000E+00
    0.37296E+04        -0.17500E+05         0.00000E+00
    0.00000E+00         0.00000E+00        -0.74849E+04
 
   -0.72341E+04         0.39306E+04         0.00000E+00
    0.39306E+04        -0.17096E+05         0.00000E+00
    0.00000E+00         0.00000E+00        -0.76402E+04
 
    0.46208E+04         0.14451E+03         0.00000E+00
    0.14451E+03        -0.52132E+02         0.00000E+00
    0.00000E+00         0.00000E+00         0.13582E+04
 
   -0.29148E+04         0.21415E+04         0.00000E+00
    0.21415E+04        -0.70850E+03         0.00000E+00
    0.00000E+00         0.00000E+00        -0.11239E+04
 
   -0.78884E+04         0.52153E+04         0.00000E+00
    0.52153E+04        -0.25454E+04         0.00000E+00
    0.00000E+00         0.00000E+00        -0.31910E+04
 
   -0.10225E+05         0.80821E+04         0.00000E+00
    0.80821E+04        -0.52432E+04         0.00000E+00
    0.00000E+00         0.00000E+00        -0.47245E+04
 
   -0.10673E+05         0.10090E+05         0.00000E+00
    0.10090E+05        -0.81926E+04         0.00000E+00
    0.00000E+00         0.00000E+00        -0.57661E+04
 
   -0.10064E+05         0.11161E+05         0.00000E+00
    0.11161E+05        -0.10895E+05         0.00000E+00
    0.00000E+00         0.00000E+00        -0.64156E+04
 
   -0.90033E+04         0.11485E+05         0.00000E+00
    0.11485E+05        -0.13139E+05         0.00000E+00
    0.00000E+00         0.00000E+00        -0.67912E+04
 
   -0.78379E+04         0.11295E+05         0.00000E+00
    0.11295E+05        -0.14884E+05         0.00000E+00
    0.00000E+00         0.00000E+00        -0.69849E+04
 
   -0.67446E+04         0.10785E+05         0.00000E+00
    0.10785E+05        -0.16175E+05         0.00000E+00
    0.00000E+00         0.00000E+00        -0.70632E+04
 
   -0.58022E+04         0.10096E+05         0.00000E+00
    0.10096E+05        -0.17086E+05         0.00000E+00
    0.00000E+00         0.00000E+00        -0.70717E+04
 
   -0.50364E+04         0.93252E+04         0.00000E+00
    0.93252E+04        -0.17694E+05         0.00000E+00
    0.00000E+00         0.00000E+00        -0.70411E+04
 
   -0.44468E+04         0.85357E+04         0.00000E+00
    0.85357E+04        -0.18066E+05         0.00000E+00
    0.00000E+00         0.00000E+00        -0.69920E+04
 
   -0.40214E+04         0.77676E+04         0.00000E+00
    0.77676E+04        -0.18261E+05         0.00000E+00
    0.00000E+00         0.00000E+00        -0.69378E+04
 
   -0.37444E+04         0.70455E+04         0.00000E+00
    0.70455E+04        -0.18323E+05         0.00000E+00
    0.00000E+00         0.00000E+00        -0.68874E+04
 
   -0.36004E+04         0.63841E+04         0.00000E+00
    0.63841E+04        -0.18289E+05         0.00000E+00
    0.00000E+00         0.00000E+00        -0.68466E+04
 
   -0.35758E+04         0.57922E+04         0.00000E+00
    0.57922E+04        -0.18183E+05         0.00000E+00
    0.00000E+00         0.00000E+00        -0.68193E+04
 
   -0.36598E+04         0.52753E+04         0.00000E+00
    0.52753E+04        -0.18026E+05         0.00000E+00
    0.00000E+00         0.00000E+00        -0.68077E+04
 
   -0.38447E+04         0.48382E+04         0.00000E+00
    0.48382E+04        -0.17831E+05         0.00000E+00
    0.00000E+00         0.00000E+00        -0.68138E+04
 
   -0.41252E+04         0.44855E+04         0.00000E+00
    0.44855E+04        -0.17606E+05         0.00000E+00
    0.00000E+00         0.00000E+00        -0.68386E+04
 
   -0.44987E+04         0.42235E+04         0.00000E+00
    0.42235E+04        -0.17359E+05         0.00000E+00
    0.00000E+00         0.00000E+00        -0.68830E+04
 
   -0.49646E+04         0.40608E+04         0.00000E+00
    0.40608E+04        -0.17091E+05         0.00000E+00
    0.00000E+00         0.00000E+00        -0.69477E+04
 
   -0.55244E+04         0.40091E+04         0.00000E+00
    0.40091E+04        -0.16803E+05         0.00000E+00
    0.00000E+00         0.00000E+00        -0.70333E+04
 
   -0.61805E+04         0.40849E+04         0.00000E+00
    0.40849E+04        -0.16495E+05         0.00000E+00
    0.00000E+00         0.00000E+00        -0.71404E+04
 
   -0.69364E+04         0.43102E+04         0.00000E+00
    0.43102E+04        -0.16165E+05         0.00000E+00
    0.00000E+00         0.00000E+00        -0.72696E+04
 
    0.53096E+04         0.25759E+02         0.00000E+00
    0.25759E+02        -0.24859E+02         0.00000E+00
    0.00000E+00         0.00000E+00         0.15733E+04
 
   -0.72473E+03         0.12195E+04         0.00000E+00
    0.12195E+04        -0.40077E+03         0.00000E+00
    0.00000E+00         0.00000E+00        -0.37367E+03
 
   -0.52134E+04         0.33353E+04         0.00000E+00
    0.33353E+04        -0.15010E+04         0.00000E+00
    0.00000E+00         0.00000E+00        -0.20738E+04
 
   -0.79111E+04         0.56130E+04         0.00000E+00
    0.56130E+04        -0.33028E+04         0.00000E+00
    0.00000E+00         0.00000E+00        -0.34466E+04
 
   -0.90871E+04         0.75098E+04         0.00000E+00
    0.75098E+04        -0.54952E+04         0.00000E+00
    0.00000E+00         0.00000E+00        -0.44792E+04
 
   -0.92187E+04         0.88045E+04         0.00000E+00
    0.88045E+04        -0.77398E+04         0.00000E+00
    0.00000E+00         0.00000E+00        -0.52135E+04
 
   -0.87496E+04         0.95047E+04         0.00000E+00
    0.95047E+04        -0.97975E+04         0.00000E+00
    0.00000E+00         0.00000E+00        -0.57106E+04
 
   -0.80023E+04         0.97223E+04         0.00000E+00
    0.97223E+04        -0.11553E+05         0.00000E+00
    0.00000E+00         0.00000E+00        -0.60329E+04
 
   -0.71787E+04         0.95896E+04         0.00000E+00
    0.95896E+04        -0.12977E+05         0.00000E+00
    0.00000E+00         0.00000E+00        -0.62319E+04
 
   -0.63933E+04         0.92237E+04         0.00000E+00
    0.92237E+04        -0.14087E+05         0.00000E+00
    0.00000E+00         0.00000E+00        -0.63471E+04
 
   -0.57045E+04         0.87168E+04         0.00000E+00
    0.87168E+04        -0.14921E+05         0.00000E+00
    0.00000E+00         0.00000E+00        -0.64078E+04
 
   -0.51374E+04         0.81367E+04         0.00000E+00
    0.81367E+04        -0.15525E+05         0.00000E+00
    0.00000E+00         0.00000E+00        -0.64347E+04
 
   -0.46984E+04         0.75314E+04         0.00000E+00
    0.75314E+04        -0.15941E+05         0.00000E+00
    0.00000E+00         0.00000E+00        -0.64428E+04
 
   -0.43843E+04         0.69340E+04         0.00000E+00
    0.69340E+04        -0.16208E+05         0.00000E+00
    0.00000E+00         0.00000E+00        -0.64425E+04
 
   -0.41879E+04         0.63673E+04         0.00000E+00
    0.63673E+04        -0.16357E+05         0.00000E+00
    0.00000E+00         0.00000E+00        -0.64410E+04
 
   -0.41006E+04         0.58471E+04         0.00000E+00
    0.58471E+04        -0.16414E+05         0.00000E+00
    0.00000E+00         0.00000E+00        -0.64436E+04
 
   -0.41144E+04         0.53849E+04         0.00000E+00
    0.53849E+04        -0.16399E+05         0.00000E+00
    0.00000E+00         0.00000E+00        -0.64538E+04
 
   -0.42224E+04         0.49899E+04         0.00000E+00
    0.49899E+04        -0.16328E+05         0.00000E+00
    0.00000E+00         0.00000E+00        -0.64740E+04
 
   -0.44190E+04         0.46707E+04         0.00000E+00
    0.46707E+04        -0.16212E+05         0.00000E+00
    0.00000E+00         0.00000E+00        -0.65061E+04
 
   -0.46999E+04         0.44364E+04         0.00000E+00
    0.44364E+04        -0.16060E+05         0.00000E+00
    0.00000E+00         0.00000E+00        -0.65512E+04
 
   -0.50623E+04         0.42980E+04         0.00000E+00
    0.42980E+04        -0.15876E+05         0.00000E+00
    0.00000E+00         0.00000E+00        -0.66102E+04
 
   -0.55037E+04         0.42688E+04         0.00000E+00
    0.42688E+04        -0.15666E+05         0.00000E+00
    0.00000E+00         0.00000E+00        -0.66836E+04
 
   -0.60221E+04         0.43664E+04         0.00000E+00
    0.43664E+04        -0.15432E+05         0.00000E+00
    0.00000E+00         0.00000E+00        -0.67716E+04
 
   -0.66147E+04         0.46131E+04         0.00000E+00
    0.46131E+04        -0.15177E+05         0.00000E+00
    0.00000E+00         0.00000E+00        -0.68742E+04
 
    0.56394E+04        -0.44690E+02         0.00000E+00
   -0.44690E+02        -0.16565E+02         0.00000E+00
    0.00000E+00         0.00000E+00         0.16751E+04
 
    0.69993E+03         0.67181E+03         0.00000E+00
    0.67181E+03        -0.24626E+03         0.00000E+00
    0.00000E+00         0.00000E+00         0.10084E+03
 
   -0.32567E+04         0.21337E+04         0.00000E+00
    0.21337E+04        -0.94887E+03         0.00000E+00
    0.00000E+00         0.00000E+00        -0.13200E+04
 
   -0.59797E+04         0.38812E+04         0.00000E+00
    0.38812E+04        -0.21721E+04         0.00000E+00
    0.00000E+00         0.00000E+00        -0.25264E+04
 
   -0.75353E+04         0.55179E+04         0.00000E+00
    0.55179E+04        -0.37805E+04         0.00000E+00
    0.00000E+00         0.00000E+00        -0.34975E+04
 
   -0.81726E+04         0.68099E+04         0.00000E+00
    0.68099E+04        -0.55624E+04         0.00000E+00
    0.00000E+00         0.00000E+00        -0.42445E+04
 
   -0.81864E+04         0.76801E+04         0.00000E+00
    0.76801E+04        -0.73276E+04         0.00000E+00
    0.00000E+00         0.00000E+00        -0.47986E+04
 
   -0.78321E+04         0.81526E+04         0.00000E+00
    0.81526E+04        -0.89471E+04         0.00000E+00
    0.00000E+00         0.00000E+00        -0.51979E+04
 
   -0.72983E+04         0.82982E+04         0.00000E+00
    0.82982E+04        -0.10355E+05         0.00000E+00
    0.00000E+00         0.00000E+00        -0.54788E+04
 
   -0.67099E+04         0.81987E+04         0.00000E+00
    0.81987E+04        -0.11529E+05         0.00000E+00
    0.00000E+00         0.00000E+00        -0.56725E+04
 
   -0.61435E+04         0.79290E+04         0.00000E+00
    0.79290E+04        -0.12478E+05         0.00000E+00
    0.00000E+00         0.00000E+00        -0.58042E+04
 
   -0.56421E+04         0.75510E+04         0.00000E+00
    0.75510E+04        -0.13222E+05         0.00000E+00
    0.00000E+00         0.00000E+00        -0.58929E+04
 
   -0.52273E+04         0.71132E+04         0.00000E+00
    0.71132E+04        -0.13788E+05         0.00000E+00
    0.00000E+00         0.00000E+00        -0.59532E+04
 
   -0.49077E+04         0.66522E+04         0.00000E+00
    0.66522E+04        -0.14204E+05         0.00000E+00
    0.00000E+00         0.00000E+00        -0.59959E+04
 
   -0.46844E+04         0.61952E+04         0.00000E+00
    0.61952E+04        -0.14495E+05         0.00000E+00
    0.00000E+00         0.00000E+00        -0.60289E+04
 
   -0.45544E+04         0.57628E+04         0.00000E+00
    0.57628E+04        -0.14683E+05         0.00000E+00
    0.00000E+00         0.00000E+00        -0.60580E+04
 
   -0.45132E+04         0.53709E+04         0.00000E+00
    0.53709E+04        -0.14788E+05         0.00000E+00
    0.00000E+00         0.00000E+00        -0.60874E+04
 
   -0.45557E+04         0.50325E+04         0.00000E+00
    0.50325E+04        -0.14824E+05         0.00000E+00
    0.00000E+00         0.00000E+00        -0.61201E+04
 
   -0.46765E+04         0.47594E+04         0.00000E+00
    0.47594E+04        -0.14804E+05         0.00000E+00
    0.00000E+00         0.00000E+00        -0.61582E+04
 
   -0.48707E+04         0.45633E+04         0.00000E+00
    0.45633E+04        -0.14738E+05         0.00000E+00
    0.00000E+00         0.00000E+00        -0.62032E+04
 
   -0.51335E+04         0.44568E+04         0.00000E+00
    0.44568E+04        -0.14633E+05         0.00000E+00
    0.00000E+00         0.00000E+00        -0.62560E+04
 
   -0.54595E+04         0.44548E+04         0.00000E+00
    0.44548E+04        -0.14496E+05         0.00000E+00
    0.00000E+00         0.00000E+00        -0.63168E+04
 
   -0.58427E+04         0.45751E+04         0.00000E+00
    0.45751E+04        -0.14334E+05         0.00000E+00
    0.00000E+00         0.00000E+00        -0.63858E+04
 
   -0.62749E+04         0.48399E+04         0.00000E+00
    0.48399E+04        -0.14152E+05         0.00000E+00
    0.00000E+00         0.00000E+00        -0.64622E+04
 
    0.57527E+04        -0.90624E+02         0.00000E+00
   -0.90624E+02        -0.11204E+02         0.00000E+00
    0.00000E+00         0.00000E+00         0.17109E+04
 
    0.16309E+04         0.32277E+03         0.00000E+00
    0.32277E+03        -0.16209E+03         0.00000E+00
    0.00000E+00         0.00000E+00         0.40604E+03
 
   -0.18352E+04         0.13342E+04         0.00000E+00
    0.13342E+04        -0.63143E+03         0.00000E+00
    0.00000E+00         0.00000E+00        -0.79726E+03
 
   -0.44348E+04         0.26558E+04         0.00000E+00
    0.26558E+04        -0.14841E+04         0.00000E+00
    0.00000E+00         0.00000E+00        -0.18552E+04
 
   -0.61497E+04         0.40077E+04         0.00000E+00
    0.40077E+04        -0.26667E+04         0.00000E+00
    0.00000E+00         0.00000E+00        -0.27461E+04
 
   -0.71005E+04         0.51885E+04         0.00000E+00
    0.51885E+04        -0.40567E+04         0.00000E+00
    0.00000E+00         0.00000E+00        -0.34693E+04
 
   -0.74704E+04         0.60939E+04         0.00000E+00
    0.60939E+04        -0.55182E+04         0.00000E+00
    0.00000E+00         0.00000E+00        -0.40390E+04
 
   -0.74456E+04         0.66988E+04         0.00000E+00
    0.66988E+04        -0.69392E+04         0.00000E+00
    0.00000E+00         0.00000E+00        -0.44774E+04
 
   -0.71829E+04         0.70277E+04         0.00000E+00
    0.70277E+04        -0.82444E+04         0.00000E+00
    0.00000E+00         0.00000E+00        -0.48088E+04
 
   -0.67999E+04         0.71280E+04         0.00000E+00
    0.71280E+04        -0.93933E+04         0.00000E+00
    0.00000E+00         0.00000E+00        -0.50564E+04
 
   -0.63779E+04         0.70533E+04         0.00000E+00
    0.70533E+04        -0.10371E+05         0.00000E+00
    0.00000E+00         0.00000E+00        -0.52401E+04
 
   -0.59696E+04         0.68540E+04         0.00000E+00
    0.68540E+04        -0.11181E+05         0.00000E+00
    0.00000E+00         0.00000E+00        -0.53763E+04
 
   -0.56069E+04         0.65735E+04         0.00000E+00
    0.65735E+04        -0.11834E+05         0.00000E+00
    0.00000E+00         0.00000E+00        -0.54783E+04
 
   -0.53073E+04         0.62475E+04         0.00000E+00
    0.62475E+04        -0.12348E+05         0.00000E+00
    0.00000E+00         0.00000E+00        -0.55563E+04
 
   -0.50792E+04         0.59045E+04         0.00000E+00
    0.59045E+04        -0.12739E+05         0.00000E+00
    0.00000E+00         0.00000E+00        -0.56181E+04
 
   -0.49251E+04         0.55674E+04         0.00000E+00
    0.55674E+04        -0.13027E+05         0.00000E+00
    0.00000E+00         0.00000E+00        -0.56696E+04
 
   -0.48441E+04         0.52546E+04         0.00000E+00
    0.52546E+04        -0.13226E+05         0.00000E+00
    0.00000E+00         0.00000E+00        -0.57153E+04
 
   -0.48332E+04         0.49819E+04         0.00000E+00
    0.49819E+04        -0.13350E+05         0.00000E+00
    0.00000E+00         0.00000E+00        -0.57584E+04
 
   -0.48880E+04         0.47633E+04         0.00000E+00
    0.47633E+04        -0.13411E+05         0.00000E+00
    0.00000E+00         0.00000E+00        -0.58012E+04
 
   -0.50034E+04         0.46123E+04         0.00000E+00
    0.46123E+04        -0.13421E+05         0.00000E+00
    0.00000E+00         0.00000E+00        -0.58452E+04
 
   -0.51730E+04         0.45431E+04         0.00000E+00
    0.45431E+04        -0.13387E+05         0.00000E+00
    0.00000E+00         0.00000E+00        -0.58912E+04
 
   -0.53896E+04         0.45710E+04         0.00000E+00
    0.45710E+04        -0.13319E+05         0.00000E+00
    0.00000E+00         0.00000E+00        -0.59396E+04
 
   -0.56436E+04         0.47140E+04         0.00000E+00
    0.47140E+04        -0.13223E+05         0.00000E+00
    0.00000E+00         0.00000E+00        -0.59899E+04
 
   -0.59228E+04         0.49932E+04         0.00000E+00
    0.49932E+04        -0.13111E+05         0.00000E+00
    0.00000E+00         0.00000E+00        -0.60412E+04
 
    0.57250E+04        -0.12225E+03         0.00000E+00
   -0.12225E+03        -0.79805E+01         0.00000E+00
    0.00000E+00         0.00000E+00         0.17037E+04
 
    0.22319E+04         0.88445E+02         0.00000E+00
    0.88445E+02        -0.11139E+03         0.00000E+00
    0.00000E+00         0.00000E+00         0.60217E+03
 
   -0.80703E+03         0.78299E+03         0.00000E+00
    0.78299E+03        -0.43689E+03         0.00000E+00
    0.00000E+00         0.00000E+00        -0.42949E+03
 
   -0.32238E+04         0.17745E+04         0.00000E+00
    0.17745E+04        -0.10455E+04         0.00000E+00
    0.00000E+00         0.00000E+00        -0.13590E+04
 
   -0.49697E+04         0.28656E+04         0.00000E+00
    0.28656E+04        -0.19234E+04         0.00000E+00
    0.00000E+00         0.00000E+00        -0.21675E+04
 
   -0.60951E+04         0.38951E+04         0.00000E+00
    0.38951E+04        -0.30020E+04         0.00000E+00
    0.00000E+00         0.00000E+00        -0.28495E+04
 
   -0.67088E+04         0.47596E+04         0.00000E+00
    0.47596E+04        -0.41903E+04         0.00000E+00
    0.00000E+00         0.00000E+00        -0.34102E+04
 
   -0.69395E+04         0.54116E+04         0.00000E+00
    0.54116E+04        -0.54005E+04         0.00000E+00
    0.00000E+00         0.00000E+00        -0.38618E+04
 
   -0.69088E+04         0.58461E+04         0.00000E+00
    0.58461E+04        -0.65635E+04         0.00000E+00
    0.00000E+00         0.00000E+00        -0.42200E+04
 
   -0.67178E+04         0.60839E+04         0.00000E+00
    0.60839E+04        -0.76327E+04         0.00000E+00
    0.00000E+00         0.00000E+00        -0.45012E+04
 
   -0.64435E+04         0.61585E+04         0.00000E+00
    0.61585E+04        -0.85821E+04         0.00000E+00
    0.00000E+00         0.00000E+00        -0.47204E+04
 
   -0.61409E+04         0.61069E+04         0.00000E+00
    0.61069E+04        -0.94015E+04         0.00000E+00
    0.00000E+00         0.00000E+00        -0.48913E+04
 
   -0.58470E+04         0.59647E+04         0.00000E+00
    0.59647E+04        -0.10091E+05         0.00000E+00
    0.00000E+00         0.00000E+00        -0.50248E+04
 
   -0.55855E+04         0.57635E+04         0.00000E+00
    0.57635E+04        -0.10659E+05         0.00000E+00
    0.00000E+00         0.00000E+00        -0.51303E+04
 
   -0.53701E+04         0.55305E+04         0.00000E+00
    0.55305E+04        -0.11114E+05         0.00000E+00
    0.00000E+00         0.00000E+00        -0.52150E+04
 
   -0.52077E+04         0.52889E+04         0.00000E+00
    0.52889E+04        -0.11470E+05         0.00000E+00
    0.00000E+00         0.00000E+00        -0.52846E+04
 
   -0.51009E+04         0.50581E+04         0.00000E+00
    0.50581E+04        -0.11739E+05         0.00000E+00
    0.00000E+00         0.00000E+00        -0.53433E+04
 
   -0.50486E+04         0.48551E+04         0.00000E+00
    0.48551E+04        -0.11932E+05         0.00000E+00
    0.00000E+00         0.00000E+00        -0.53945E+04
 
   -0.50477E+04         0.46953E+04         0.00000E+00
    0.46953E+04        -0.12060E+05         0.00000E+00
    0.00000E+00         0.00000E+00        -0.54405E+04
 
   -0.50931E+04         0.45934E+04         0.00000E+00
    0.45934E+04        -0.12133E+05         0.00000E+00
    0.00000E+00         0.00000E+00        -0.54826E+04
 
   -0.51779E+04         0.45641E+04         0.00000E+00
    0.45641E+04        -0.12161E+05         0.00000E+00
    0.00000E+00         0.00000E+00        -0.55218E+04
 
   -0.52931E+04         0.46232E+04         0.00000E+00
    0.46232E+04        -0.12153E+05         0.00000E+00
    0.00000E+00         0.00000E+00        -0.55579E+04
 
   -0.54269E+04         0.47878E+04         0.00000E+00
    0.47878E+04        -0.12119E+05         0.00000E+00
    0.00000E+00         0.00000E+00        -0.55906E+04
 
   -0.55639E+04         0.50776E+04         0.00000E+00
    0.50776E+04        -0.12071E+05         0.00000E+00
    0.00000E+00         0.00000E+00        -0.56184E+04
 
    0.56011E+04        -0.14464E+03         0.00000E+00
   -0.14464E+03        -0.57096E+01         0.00000E+00
    0.00000E+00         0.00000E+00         0.16674E+04
 
    0.26043E+04        -0.74718E+02         0.00000E+00
   -0.74718E+02        -0.78645E+02         0.00000E+00
    0.00000E+00         0.00000E+00         0.72429E+03
 
   -0.68669E+02         0.39204E+03         0.00000E+00
    0.39204E+03        -0.31052E+03         0.00000E+00
    0.00000E+00         0.00000E+00        -0.16914E+03
 
   -0.22858E+04         0.11298E+04         0.00000E+00
    0.11298E+04        -0.75376E+03         0.00000E+00
    0.00000E+00         0.00000E+00        -0.98884E+03
 
   -0.39910E+04         0.19980E+04         0.00000E+00
    0.19980E+04        -0.14123E+04         0.00000E+00
    0.00000E+00         0.00000E+00        -0.17190E+04
 
   -0.51972E+04         0.28713E+04         0.00000E+00
    0.28713E+04        -0.22499E+04         0.00000E+00
    0.00000E+00         0.00000E+00        -0.23527E+04
 
   -0.59660E+04         0.36578E+04         0.00000E+00
    0.36578E+04        -0.32072E+04         0.00000E+00
    0.00000E+00         0.00000E+00        -0.28904E+04
 
   -0.63831E+04         0.43034E+04         0.00000E+00
    0.43034E+04        -0.42197E+04         0.00000E+00
    0.00000E+00         0.00000E+00        -0.33385E+04
 
   -0.65386E+04         0.47867E+04         0.00000E+00
    0.47867E+04        -0.52296E+04         0.00000E+00
    0.00000E+00         0.00000E+00        -0.37065E+04
 
   -0.65144E+04         0.51105E+04         0.00000E+00
    0.51105E+04        -0.61923E+04         0.00000E+00
    0.00000E+00         0.00000E+00        -0.40055E+04
 
   -0.63782E+04         0.52920E+04         0.00000E+00
    0.52920E+04        -0.70776E+04         0.00000E+00
    0.00000E+00         0.00000E+00        -0.42469E+04
 
   -0.61822E+04         0.53558E+04         0.00000E+00
    0.53558E+04        -0.78683E+04         0.00000E+00
    0.00000E+00         0.00000E+00        -0.44410E+04
 
   -0.59647E+04         0.53286E+04         0.00000E+00
    0.53286E+04        -0.85569E+04         0.00000E+00
    0.00000E+00         0.00000E+00        -0.45970E+04
 
   -0.57521E+04         0.52368E+04         0.00000E+00
    0.52368E+04        -0.91434E+04         0.00000E+00
    0.00000E+00         0.00000E+00        -0.47228E+04
 
   -0.55615E+04         0.51046E+04         0.00000E+00
    0.51046E+04        -0.96319E+04         0.00000E+00
    0.00000E+00         0.00000E+00        -0.48247E+04
 
   -0.54032E+04         0.49534E+04         0.00000E+00
    0.49534E+04        -0.10030E+05         0.00000E+00
    0.00000E+00         0.00000E+00        -0.49080E+04
 
   -0.52822E+04         0.48026E+04         0.00000E+00
    0.48026E+04        -0.10346E+05         0.00000E+00
    0.00000E+00         0.00000E+00        -0.49766E+04
 
   -0.51994E+04         0.46692E+04         0.00000E+00
    0.46692E+04        -0.10588E+05         0.00000E+00
    0.00000E+00         0.00000E+00        -0.50336E+04
 
   -0.51528E+04         0.45691E+04         0.00000E+00
    0.45691E+04        -0.10768E+05         0.00000E+00
    0.00000E+00         0.00000E+00        -0.50812E+04
 
   -0.51378E+04         0.45172E+04         0.00000E+00
    0.45172E+04        -0.10893E+05         0.00000E+00
    0.00000E+00         0.00000E+00        -0.51207E+04
 
   -0.51471E+04         0.45285E+04         0.00000E+00
    0.45285E+04        -0.10973E+05         0.00000E+00
    0.00000E+00         0.00000E+00        -0.51528E+04
 
   -0.51707E+04         0.46182E+04         0.00000E+00
    0.46182E+04        -0.11018E+05         0.00000E+00
    0.00000E+00         0.00000E+00        -0.51774E+04
 
   -0.51952E+04         0.48025E+04         0.00000E+00
    0.48025E+04        -0.11039E+05         0.00000E+00
    0.00000E+00         0.00000E+00        -0.51936E+04
 
   -0.52032E+04         0.50991E+04         0.00000E+00
    0.50991E+04        -0.11048E+05         0.00000E+00
    0.00000E+00         0.00000E+00        -0.52000E+04
 
    0.54095E+04        -0.16057E+03         0.00000E+00
   -0.16057E+03        -0.40173E+01         0.00000E+00
    0.00000E+00         0.00000E+00         0.16107E+04
 
    0.28139E+04        -0.19100E+03         0.00000E+00
   -0.19100E+03        -0.56143E+02         0.00000E+00
    0.00000E+00         0.00000E+00         0.79446E+03
 
    0.45394E+03         0.10884E+03         0.00000E+00
    0.10884E+03        -0.22427E+03         0.00000E+00
    0.00000E+00         0.00000E+00         0.14417E+02
 
   -0.15663E+04         0.65141E+03         0.00000E+00
    0.65141E+03        -0.55190E+03         0.00000E+00
    0.00000E+00         0.00000E+00        -0.71120E+03
 
   -0.31925E+04         0.13349E+04         0.00000E+00
    0.13349E+04        -0.10505E+04         0.00000E+00
    0.00000E+00         0.00000E+00        -0.13694E+04
 
   -0.44186E+04         0.20628E+04         0.00000E+00
    0.20628E+04        -0.17026E+04         0.00000E+00
    0.00000E+00         0.00000E+00        -0.19532E+04
 
   -0.52768E+04         0.27574E+04         0.00000E+00
    0.27574E+04        -0.24705E+04         0.00000E+00
    0.00000E+00         0.00000E+00        -0.24607E+04
 
   -0.58222E+04         0.33660E+04         0.00000E+00
    0.33660E+04        -0.33083E+04         0.00000E+00
    0.00000E+00         0.00000E+00        -0.28946E+04
 
   -0.61195E+04         0.38599E+04         0.00000E+00
    0.38599E+04        -0.41702E+04         0.00000E+00
    0.00000E+00         0.00000E+00        -0.32605E+04
 
   -0.62323E+04         0.42305E+04         0.00000E+00
    0.42305E+04        -0.50173E+04         0.00000E+00
    0.00000E+00         0.00000E+00        -0.35659E+04
 
   -0.62172E+04         0.44832E+04         0.00000E+00
    0.44832E+04        -0.58199E+04         0.00000E+00
    0.00000E+00         0.00000E+00        -0.38186E+04
 
   -0.61210E+04         0.46325E+04         0.00000E+00
    0.46325E+04        -0.65578E+04         0.00000E+00
    0.00000E+00         0.00000E+00        -0.40266E+04
 
   -0.59799E+04         0.46969E+04         0.00000E+00
    0.46969E+04        -0.72189E+04         0.00000E+00
    0.00000E+00         0.00000E+00        -0.41972E+04
 
   -0.58208E+04         0.46969E+04         0.00000E+00
    0.46969E+04        -0.77982E+04         0.00000E+00
    0.00000E+00         0.00000E+00        -0.43368E+04
 
   -0.56624E+04         0.46528E+04         0.00000E+00
    0.46528E+04        -0.82952E+04         0.00000E+00
    0.00000E+00         0.00000E+00        -0.44508E+04
 
   -0.55167E+04         0.45836E+04         0.00000E+00
    0.45836E+04        -0.87129E+04         0.00000E+00
    0.00000E+00         0.00000E+00        -0.45437E+04
 
   -0.53907E+04         0.45073E+04         0.00000E+00
    0.45073E+04        -0.90566E+04         0.00000E+00
    0.00000E+00         0.00000E+00        -0.46192E+04
 
   -0.52867E+04         0.44402E+04         0.00000E+00
    0.44402E+04        -0.93331E+04         0.00000E+00
    0.00000E+00         0.00000E+00        -0.46799E+04
 
   -0.52038E+04         0.43977E+04         0.00000E+00
    0.43977E+04        -0.95497E+04         0.00000E+00
    0.00000E+00         0.00000E+00        -0.47277E+04
 
   -0.51378E+04         0.43945E+04         0.00000E+00
    0.43945E+04        -0.97149E+04         0.00000E+00
    0.00000E+00         0.00000E+00        -0.47639E+04
 
   -0.50813E+04         0.44449E+04         0.00000E+00
    0.44449E+04        -0.98375E+04         0.00000E+00
    0.00000E+00         0.00000E+00        -0.47890E+04
 
   -0.50240E+04         0.45634E+04         0.00000E+00
    0.45634E+04        -0.99273E+04         0.00000E+00
    0.00000E+00         0.00000E+00        -0.48026E+04
 
   -0.49516E+04         0.47648E+04         0.00000E+00
    0.47648E+04        -0.99955E+04         0.00000E+00
    0.00000E+00         0.00000E+00        -0.48040E+04
 
   -0.48454E+04         0.50645E+04         0.00000E+00
    0.50645E+04        -0.10055E+05         0.00000E+00
    0.00000E+00         0.00000E+00        -0.47913E+04
 
    0.51699E+04        -0.17170E+03         0.00000E+00
   -0.17170E+03        -0.26802E+01         0.00000E+00
    0.00000E+00         0.00000E+00         0.15394E+04
 
    0.29050E+04        -0.27478E+03         0.00000E+00
   -0.27478E+03        -0.39879E+02         0.00000E+00
    0.00000E+00         0.00000E+00         0.82722E+03
 
    0.81411E+03        -0.99106E+02         0.00000E+00
   -0.99106E+02        -0.16281E+03         0.00000E+00
    0.00000E+00         0.00000E+00         0.14179E+03
 
   -0.10202E+04         0.29257E+03         0.00000E+00
    0.29257E+03        -0.40725E+03         0.00000E+00
    0.00000E+00         0.00000E+00        -0.50277E+03
 
   -0.25486E+04         0.82528E+03         0.00000E+00
    0.82528E+03        -0.78733E+03         0.00000E+00
    0.00000E+00         0.00000E+00        -0.10958E+04
 
   -0.37561E+04         0.14245E+04         0.00000E+00
    0.14245E+04        -0.12962E+04         0.00000E+00
    0.00000E+00         0.00000E+00        -0.16307E+04
 
   -0.46566E+04         0.20262E+04         0.00000E+00
    0.20262E+04        -0.19107E+04         0.00000E+00
    0.00000E+00         0.00000E+00        -0.21046E+04
 
   -0.52843E+04         0.25824E+04         0.00000E+00
    0.25824E+04        -0.25987E+04         0.00000E+00
    0.00000E+00         0.00000E+00        -0.25181E+04
 
   -0.56842E+04         0.30626E+04         0.00000E+00
    0.30626E+04        -0.33255E+04         0.00000E+00
    0.00000E+00         0.00000E+00        -0.28741E+04
 
   -0.59045E+04         0.34520E+04         0.00000E+00
    0.34520E+04        -0.40588E+04         0.00000E+00
    0.00000E+00         0.00000E+00        -0.31773E+04
 
   -0.59906E+04         0.37481E+04         0.00000E+00
    0.37481E+04        -0.47715E+04         0.00000E+00
    0.00000E+00         0.00000E+00        -0.34333E+04
 
   -0.59825E+04         0.39573E+04         0.00000E+00
    0.39573E+04        -0.54433E+04         0.00000E+00
    0.00000E+00         0.00000E+00        -0.36478E+04
 
   -0.59128E+04         0.40915E+04         0.00000E+00
    0.40915E+04        -0.60602E+04         0.00000E+00
    0.00000E+00         0.00000E+00        -0.38264E+04
 
   -0.58070E+04         0.41656E+04         0.00000E+00
    0.41656E+04        -0.66141E+04         0.00000E+00
    0.00000E+00         0.00000E+00        -0.39743E+04
 
   -0.56839E+04         0.41958E+04         0.00000E+00
    0.41958E+04        -0.71012E+04         0.00000E+00
    0.00000E+00         0.00000E+00        -0.40958E+04
 
   -0.55563E+04         0.41983E+04         0.00000E+00
    0.41983E+04        -0.75214E+04         0.00000E+00
    0.00000E+00         0.00000E+00        -0.41948E+04
 
   -0.54319E+04         0.41887E+04         0.00000E+00
    0.41887E+04        -0.78772E+04         0.00000E+00
    0.00000E+00         0.00000E+00        -0.42743E+04
 
   -0.53144E+04         0.41823E+04         0.00000E+00
    0.41823E+04        -0.81731E+04         0.00000E+00
    0.00000E+00         0.00000E+00        -0.43367E+04
 
   -0.52034E+04         0.41932E+04         0.00000E+00
    0.41932E+04        -0.84149E+04         0.00000E+00
    0.00000E+00         0.00000E+00        -0.43836E+04
 
   -0.50952E+04         0.42354E+04         0.00000E+00
    0.42354E+04        -0.86096E+04         0.00000E+00
    0.00000E+00         0.00000E+00        -0.44160E+04
 
   -0.49828E+04         0.43221E+04         0.00000E+00
    0.43221E+04        -0.87655E+04         0.00000E+00
    0.00000E+00         0.00000E+00        -0.44342E+04
 
   -0.48556E+04         0.44666E+04         0.00000E+00
    0.44666E+04        -0.88920E+04         0.00000E+00
    0.00000E+00         0.00000E+00        -0.44378E+04
 
   -0.46991E+04         0.46819E+04         0.00000E+00
    0.46819E+04        -0.90001E+04         0.00000E+00
    0.00000E+00         0.00000E+00        -0.44259E+04
 
   -0.44945E+04         0.49813E+04         0.00000E+00
    0.49813E+04        -0.91028E+04         0.00000E+00
    0.00000E+00         0.00000E+00        -0.43966E+04
 
    0.48962E+04        -0.17908E+03         0.00000E+00
   -0.17908E+03        -0.15846E+01         0.00000E+00
    0.00000E+00         0.00000E+00         0.14578E+04
 
    0.29088E+04        -0.33504E+03         0.00000E+00
   -0.33504E+03        -0.27623E+02         0.00000E+00
    0.00000E+00         0.00000E+00         0.83258E+03
 
    0.10508E+04        -0.25270E+03         0.00000E+00
   -0.25270E+03        -0.11740E+03         0.00000E+00
    0.00000E+00         0.00000E+00         0.22730E+03
 
   -0.61156E+03         0.21754E+02         0.00000E+00
    0.21754E+02        -0.30036E+03         0.00000E+00
    0.00000E+00         0.00000E+00        -0.34690E+03
 
   -0.20347E+04         0.43212E+03         0.00000E+00
    0.43212E+03        -0.59098E+03         0.00000E+00
    0.00000E+00         0.00000E+00        -0.88124E+03
 
   -0.31997E+04         0.92057E+03         0.00000E+00
    0.92057E+03        -0.98843E+03         0.00000E+00
    0.00000E+00         0.00000E+00        -0.13697E+04
 
   -0.41096E+04         0.14349E+04         0.00000E+00
    0.14349E+04        -0.14791E+04         0.00000E+00
    0.00000E+00         0.00000E+00        -0.18090E+04
 
   -0.47844E+04         0.19330E+04         0.00000E+00
    0.19330E+04        -0.20411E+04         0.00000E+00
    0.00000E+00         0.00000E+00        -0.21985E+04
 
   -0.52545E+04         0.23855E+04         0.00000E+00
    0.23855E+04        -0.26484E+04         0.00000E+00
    0.00000E+00         0.00000E+00        -0.25395E+04
 
   -0.55553E+04         0.27745E+04         0.00000E+00
    0.27745E+04        -0.32751E+04         0.00000E+00
    0.00000E+00         0.00000E+00        -0.28348E+04
 
   -0.57223E+04         0.30929E+04         0.00000E+00
    0.30929E+04        -0.38982E+04         0.00000E+00
    0.00000E+00         0.00000E+00        -0.30880E+04
 
   -0.57885E+04         0.33414E+04         0.00000E+00
    0.33414E+04        -0.44985E+04         0.00000E+00
    0.00000E+00         0.00000E+00        -0.33032E+04
 
   -0.57822E+04         0.35265E+04         0.00000E+00
    0.35265E+04        -0.50618E+04         0.00000E+00
    0.00000E+00         0.00000E+00        -0.34846E+04
 
   -0.57262E+04         0.36583E+04         0.00000E+00
    0.36583E+04        -0.55785E+04         0.00000E+00
    0.00000E+00         0.00000E+00        -0.36361E+04
 
   -0.56384E+04         0.37491E+04         0.00000E+00
    0.37491E+04        -0.60428E+04         0.00000E+00
    0.00000E+00         0.00000E+00        -0.37612E+04
 
   -0.55314E+04         0.38120E+04         0.00000E+00
    0.38120E+04        -0.64526E+04         0.00000E+00
    0.00000E+00         0.00000E+00        -0.38632E+04
 
   -0.54132E+04         0.38604E+04         0.00000E+00
    0.38604E+04        -0.68081E+04         0.00000E+00
    0.00000E+00         0.00000E+00        -0.39444E+04
 
   -0.52880E+04         0.39076E+04         0.00000E+00
    0.39076E+04        -0.71119E+04         0.00000E+00
    0.00000E+00         0.00000E+00        -0.40068E+04
 
   -0.51559E+04         0.39664E+04         0.00000E+00
    0.39664E+04        -0.73684E+04         0.00000E+00
    0.00000E+00         0.00000E+00        -0.40517E+04
 
   -0.50137E+04         0.40493E+04         0.00000E+00
    0.40493E+04        -0.75834E+04         0.00000E+00
    0.00000E+00         0.00000E+00        -0.40799E+04
 
   -0.48547E+04         0.41683E+04         0.00000E+00
    0.41683E+04        -0.77643E+04         0.00000E+00
    0.00000E+00         0.00000E+00        -0.40916E+04
 
   -0.46686E+04         0.43352E+04         0.00000E+00
    0.43352E+04        -0.79198E+04         0.00000E+00
    0.00000E+00         0.00000E+00        -0.40863E+04
 
   -0.44412E+04         0.45612E+04         0.00000E+00
    0.45612E+04        -0.80605E+04         0.00000E+00
    0.00000E+00         0.00000E+00        -0.40628E+04
 
   -0.41539E+04         0.48569E+04         0.00000E+00
    0.48569E+04        -0.81991E+04         0.00000E+00
    0.00000E+00         0.00000E+00        -0.40195E+04
 
    0.45988E+04        -0.18344E+03         0.00000E+00
   -0.18344E+03        -0.66506E+00         0.00000E+00
    0.00000E+00         0.00000E+00         0.13690E+04
 
    0.28479E+04        -0.37767E+03         0.00000E+00
   -0.37767E+03        -0.18084E+02         0.00000E+00
    0.00000E+00         0.00000E+00         0.81769E+03
 
    0.11929E+04        -0.36588E+03         0.00000E+00
   -0.36588E+03        -0.82817E+02         0.00000E+00
    0.00000E+00         0.00000E+00         0.28119E+03
 
   -0.31192E+03        -0.18284E+03         0.00000E+00
   -0.18284E+03        -0.21926E+03         0.00000E+00
    0.00000E+00         0.00000E+00        -0.23147E+03
 
   -0.16286E+04         0.12859E+03         0.00000E+00
    0.12859E+03        -0.44122E+03         0.00000E+00
    0.00000E+00         0.00000E+00        -0.71298E+03
 
   -0.27371E+04         0.52318E+03         0.00000E+00
    0.52318E+03        -0.75126E+03         0.00000E+00
    0.00000E+00         0.00000E+00        -0.11580E+04
 
   -0.36340E+04         0.95844E+03         0.00000E+00
    0.95844E+03        -0.11420E+04         0.00000E+00
    0.00000E+00         0.00000E+00        -0.15631E+04
 
   -0.43296E+04         0.13984E+04         0.00000E+00
    0.13984E+04        -0.15986E+04         0.00000E+00
    0.00000E+00         0.00000E+00        -0.19270E+04
 
   -0.48437E+04         0.18158E+04         0.00000E+00
    0.18158E+04        -0.21022E+04         0.00000E+00
    0.00000E+00         0.00000E+00        -0.22499E+04
 
   -0.52017E+04         0.21923E+04         0.00000E+00
    0.21923E+04        -0.26325E+04         0.00000E+00
    0.00000E+00         0.00000E+00        -0.25332E+04
 
   -0.54308E+04         0.25179E+04         0.00000E+00
    0.25179E+04        -0.31703E+04         0.00000E+00
    0.00000E+00         0.00000E+00        -0.27792E+04
 
   -0.55571E+04         0.27896E+04         0.00000E+00
    0.27896E+04        -0.36988E+04         0.00000E+00
    0.00000E+00         0.00000E+00        -0.29908E+04
 
   -0.56044E+04         0.30099E+04         0.00000E+00
    0.30099E+04        -0.42045E+04         0.00000E+00
    0.00000E+00         0.00000E+00        -0.31708E+04
 
   -0.55927E+04         0.31849E+04         0.00000E+00
    0.31849E+04        -0.46774E+04         0.00000E+00
    0.00000E+00         0.00000E+00        -0.33223E+04
 
   -0.55380E+04         0.33235E+04         0.00000E+00
    0.33235E+04        -0.51108E+04         0.00000E+00
    0.00000E+00         0.00000E+00        -0.34480E+04
 
   -0.54521E+04         0.34359E+04         0.00000E+00
    0.34359E+04        -0.55009E+04         0.00000E+00
    0.00000E+00         0.00000E+00        -0.35503E+04
 
   -0.53428E+04         0.35330E+04         0.00000E+00
    0.35330E+04        -0.58468E+04         0.00000E+00
    0.00000E+00         0.00000E+00        -0.36312E+04
 
   -0.52142E+04         0.36260E+04         0.00000E+00
    0.36260E+04        -0.61496E+04         0.00000E+00
    0.00000E+00         0.00000E+00        -0.36922E+04
 
   -0.50669E+04         0.37262E+04         0.00000E+00
    0.37262E+04        -0.64123E+04         0.00000E+00
    0.00000E+00         0.00000E+00        -0.37343E+04
 
   -0.48980E+04         0.38444E+04         0.00000E+00
    0.38444E+04        -0.66397E+04         0.00000E+00
    0.00000E+00         0.00000E+00        -0.37582E+04
 
   -0.47013E+04         0.39912E+04         0.00000E+00
    0.39912E+04        -0.68381E+04         0.00000E+00
    0.00000E+00         0.00000E+00        -0.37638E+04
 
   -0.44668E+04         0.41765E+04         0.00000E+00
    0.41765E+04        -0.70156E+04         0.00000E+00
    0.00000E+00         0.00000E+00        -0.37505E+04
 
   -0.41811E+04         0.44096E+04         0.00000E+00
    0.44096E+04        -0.71821E+04         0.00000E+00
    0.00000E+00         0.00000E+00        -0.37173E+04
 
   -0.38264E+04         0.46989E+04         0.00000E+00
    0.46989E+04        -0.73496E+04         0.00000E+00
    0.00000E+00         0.00000E+00        -0.36624E+04
 
    0.42860E+04        -0.18529E+03         0.00000E+00
   -0.18529E+03         0.11669E+00         0.00000E+00
    0.00000E+00         0.00000E+00         0.12756E+04
 
    0.27388E+04        -0.40669E+03         0.00000E+00
   -0.40669E+03        -0.10480E+02         0.00000E+00
    0.00000E+00         0.00000E+00         0.78780E+03
 
    0.12623E+04        -0.44823E+03         0.00000E+00
   -0.44823E+03        -0.55841E+02         0.00000E+00
    0.00000E+00         0.00000E+00         0.31099E+03
 
   -0.98795E+02        -0.33664E+03         0.00000E+00
   -0.33664E+03        -0.15638E+03         0.00000E+00
    0.00000E+00         0.00000E+00        -0.14746E+03
 
   -0.13114E+04        -0.10507E+03         0.00000E+00
   -0.10507E+03        -0.32485E+03         0.00000E+00
    0.00000E+00         0.00000E+00        -0.58139E+03
 
   -0.23557E+04         0.21075E+03         0.00000E+00
    0.21075E+03        -0.56561E+03         0.00000E+00
    0.00000E+00         0.00000E+00        -0.98603E+03
 
   -0.32244E+04         0.57628E+03         0.00000E+00
    0.57628E+03        -0.87525E+03         0.00000E+00
    0.00000E+00         0.00000E+00        -0.13582E+04
 
   -0.39216E+04         0.96107E+03         0.00000E+00
    0.96107E+03        -0.12442E+04         0.00000E+00
    0.00000E+00         0.00000E+00        -0.16960E+04
 
   -0.44593E+04         0.13406E+04         0.00000E+00
    0.13406E+04        -0.16589E+04         0.00000E+00
    0.00000E+00         0.00000E+00        -0.19990E+04
 
   -0.48552E+04         0.16972E+04         0.00000E+00
    0.16972E+04        -0.21037E+04         0.00000E+00
    0.00000E+00         0.00000E+00        -0.22679E+04
 
   -0.51294E+04         0.20195E+04         0.00000E+00
    0.20195E+04        -0.25631E+04         0.00000E+00
    0.00000E+00         0.00000E+00        -0.25037E+04
 
   -0.53024E+04         0.23023E+04         0.00000E+00
    0.23023E+04        -0.30228E+04         0.00000E+00
    0.00000E+00         0.00000E+00        -0.27084E+04
 
   -0.53935E+04         0.25451E+04         0.00000E+00
    0.25451E+04        -0.34705E+04         0.00000E+00
    0.00000E+00         0.00000E+00        -0.28840E+04
 
   -0.54195E+04         0.27511E+04         0.00000E+00
    0.27511E+04        -0.38966E+04         0.00000E+00
    0.00000E+00         0.00000E+00        -0.30327E+04
 
   -0.53942E+04         0.29260E+04         0.00000E+00
    0.29260E+04        -0.42943E+04         0.00000E+00
    0.00000E+00         0.00000E+00        -0.31563E+04
 
   -0.53283E+04         0.30775E+04         0.00000E+00
    0.30775E+04        -0.46590E+04         0.00000E+00
    0.00000E+00         0.00000E+00        -0.32569E+04
 
   -0.52290E+04         0.32142E+04         0.00000E+00
    0.32142E+04        -0.49888E+04         0.00000E+00
    0.00000E+00         0.00000E+00        -0.33358E+04
 
   -0.51002E+04         0.33453E+04         0.00000E+00
    0.33453E+04        -0.52838E+04         0.00000E+00
    0.00000E+00         0.00000E+00        -0.33943E+04
 
   -0.49425E+04         0.34801E+04         0.00000E+00
    0.34801E+04        -0.55460E+04         0.00000E+00
    0.00000E+00         0.00000E+00        -0.34331E+04
 
   -0.47533E+04         0.36278E+04         0.00000E+00
    0.36278E+04        -0.57791E+04         0.00000E+00
    0.00000E+00         0.00000E+00        -0.34526E+04
 
   -0.45268E+04         0.37974E+04         0.00000E+00
    0.37974E+04        -0.59888E+04         0.00000E+00
    0.00000E+00         0.00000E+00        -0.34526E+04
 
   -0.42538E+04         0.39969E+04         0.00000E+00
    0.39969E+04        -0.61821E+04         0.00000E+00
    0.00000E+00         0.00000E+00        -0.34325E+04
 
   -0.39218E+04         0.42338E+04         0.00000E+00
    0.42338E+04        -0.63681E+04         0.00000E+00
    0.00000E+00         0.00000E+00        -0.33912E+04
 
   -0.35141E+04         0.45142E+04         0.00000E+00
    0.45142E+04        -0.65579E+04         0.00000E+00
    0.00000E+00         0.00000E+00        -0.33271E+04
 
    0.39641E+04        -0.18506E+03         0.00000E+00
   -0.18506E+03         0.78423E+00         0.00000E+00
    0.00000E+00         0.00000E+00         0.11794E+04
 
    0.25945E+04        -0.42497E+03         0.00000E+00
   -0.42497E+03        -0.43179E+01         0.00000E+00
    0.00000E+00         0.00000E+00         0.74689E+03
 
    0.12758E+04        -0.50661E+03         0.00000E+00
   -0.50661E+03        -0.34420E+02         0.00000E+00
    0.00000E+00         0.00000E+00         0.32236E+03
 
    0.45644E+02        -0.45082E+03         0.00000E+00
   -0.45082E+03        -0.10679E+03         0.00000E+00
    0.00000E+00         0.00000E+00        -0.88040E+02
 
   -0.10672E+04        -0.28362E+03         0.00000E+00
   -0.28362E+03        -0.23303E+03         0.00000E+00
    0.00000E+00         0.00000E+00        -0.47904E+03
 
   -0.20436E+04        -0.33443E+02         0.00000E+00
   -0.33443E+02        -0.41840E+03         0.00000E+00
    0.00000E+00         0.00000E+00        -0.84642E+03
 
   -0.28744E+04         0.27152E+03         0.00000E+00
    0.27152E+03        -0.66210E+03         0.00000E+00
    0.00000E+00         0.00000E+00        -0.11871E+04
 
   -0.35593E+04         0.60560E+03         0.00000E+00
    0.60560E+03        -0.95819E+03         0.00000E+00
    0.00000E+00         0.00000E+00        -0.14992E+04
 
   -0.41050E+04         0.94727E+03         0.00000E+00
    0.94727E+03        -0.12971E+04         0.00000E+00
    0.00000E+00         0.00000E+00        -0.17816E+04
 
   -0.45230E+04         0.12799E+04         0.00000E+00
    0.12799E+04        -0.16671E+04         0.00000E+00
    0.00000E+00         0.00000E+00        -0.20344E+04
 
   -0.48280E+04         0.15921E+04         0.00000E+00
    0.15921E+04        -0.20559E+04         0.00000E+00
    0.00000E+00         0.00000E+00        -0.22581E+04
 
   -0.50355E+04         0.18772E+04         0.00000E+00
    0.18772E+04        -0.24515E+04         0.00000E+00
    0.00000E+00         0.00000E+00        -0.24537E+04
 
   -0.51607E+04         0.21326E+04         0.00000E+00
    0.21326E+04        -0.28433E+04         0.00000E+00
    0.00000E+00         0.00000E+00        -0.26226E+04
 
   -0.52174E+04         0.23593E+04         0.00000E+00
    0.23593E+04        -0.32225E+04         0.00000E+00
    0.00000E+00         0.00000E+00        -0.27663E+04
 
   -0.52173E+04         0.25606E+04         0.00000E+00
    0.25606E+04        -0.35824E+04         0.00000E+00
    0.00000E+00         0.00000E+00        -0.28861E+04
 
   -0.51695E+04         0.27419E+04         0.00000E+00
    0.27419E+04        -0.39183E+04         0.00000E+00
    0.00000E+00         0.00000E+00        -0.29833E+04
 
   -0.50803E+04         0.29097E+04         0.00000E+00
    0.29097E+04        -0.42278E+04         0.00000E+00
    0.00000E+00         0.00000E+00        -0.30591E+04
 
   -0.49533E+04         0.30712E+04         0.00000E+00
    0.30712E+04        -0.45102E+04         0.00000E+00
    0.00000E+00         0.00000E+00        -0.31142E+04
 
   -0.47889E+04         0.32339E+04         0.00000E+00
    0.32339E+04        -0.47668E+04         0.00000E+00
    0.00000E+00         0.00000E+00        -0.31493E+04
 
   -0.45849E+04         0.34054E+04         0.00000E+00
    0.34054E+04        -0.50006E+04         0.00000E+00
    0.00000E+00         0.00000E+00        -0.31644E+04
 
   -0.43359E+04         0.35927E+04         0.00000E+00
    0.35927E+04        -0.52161E+04         0.00000E+00
    0.00000E+00         0.00000E+00        -0.31593E+04
 
   -0.40334E+04         0.38023E+04         0.00000E+00
    0.38023E+04        -0.54198E+04         0.00000E+00
    0.00000E+00         0.00000E+00        -0.31334E+04
 
   -0.36660E+04         0.40398E+04         0.00000E+00
    0.40398E+04        -0.56197E+04         0.00000E+00
    0.00000E+00         0.00000E+00        -0.30857E+04
 
   -0.32187E+04         0.43094E+04         0.00000E+00
    0.43094E+04        -0.58257E+04         0.00000E+00
    0.00000E+00         0.00000E+00        -0.30146E+04
 
    0.36384E+04        -0.18306E+03         0.00000E+00
   -0.18306E+03         0.13529E+01         0.00000E+00
    0.00000E+00         0.00000E+00         0.10820E+04
 
    0.24248E+04        -0.43467E+03         0.00000E+00
   -0.43467E+03         0.72119E+00         0.00000E+00
    0.00000E+00         0.00000E+00         0.69803E+03
 
    0.12466E+04        -0.54604E+03         0.00000E+00
   -0.54604E+03        -0.17202E+02         0.00000E+00
    0.00000E+00         0.00000E+00         0.31963E+03
 
    0.13564E+03        -0.53368E+03         0.00000E+00
   -0.53368E+03        -0.67191E+02         0.00000E+00
    0.00000E+00         0.00000E+00        -0.47940E+02
 
   -0.88259E+03        -0.41822E+03         0.00000E+00
   -0.41822E+03        -0.15974E+03         0.00000E+00
    0.00000E+00         0.00000E+00        -0.40014E+03
 
   -0.17902E+04        -0.22250E+03         0.00000E+00
   -0.22250E+03        -0.30050E+03         0.00000E+00
    0.00000E+00         0.00000E+00        -0.73321E+03
 
   -0.25771E+04         0.30399E+02         0.00000E+00
    0.30399E+02        -0.49031E+03         0.00000E+00
    0.00000E+00         0.00000E+00        -0.10443E+04
 
   -0.32400E+04         0.31891E+03         0.00000E+00
    0.31891E+03        -0.72585E+03         0.00000E+00
    0.00000E+00         0.00000E+00        -0.13313E+04
 
   -0.37817E+04         0.62428E+03         0.00000E+00
    0.62428E+03        -0.10006E+04         0.00000E+00
    0.00000E+00         0.00000E+00        -0.15931E+04
 
   -0.42094E+04         0.93141E+03         0.00000E+00
    0.93141E+03        -0.13058E+04         0.00000E+00
    0.00000E+00         0.00000E+00        -0.18291E+04
 
   -0.45332E+04         0.12291E+04         0.00000E+00
    0.12291E+04        -0.16319E+04         0.00000E+00
    0.00000E+00         0.00000E+00        -0.20394E+04
 
   -0.47645E+04         0.15101E+04         0.00000E+00
    0.15101E+04        -0.19691E+04         0.00000E+00
    0.00000E+00         0.00000E+00        -0.22245E+04
 
   -0.49150E+04         0.17705E+04         0.00000E+00
    0.17705E+04        -0.23085E+04         0.00000E+00
    0.00000E+00         0.00000E+00        -0.23851E+04
 
   -0.49958E+04         0.20096E+04         0.00000E+00
    0.20096E+04        -0.26423E+04         0.00000E+00
    0.00000E+00         0.00000E+00        -0.25222E+04
 
   -0.50162E+04         0.22290E+04         0.00000E+00
    0.22290E+04        -0.29644E+04         0.00000E+00
    0.00000E+00         0.00000E+00        -0.26366E+04
 
   -0.49840E+04         0.24319E+04         0.00000E+00
    0.24319E+04        -0.32701E+04         0.00000E+00
    0.00000E+00         0.00000E+00        -0.27293E+04
 
   -0.49044E+04         0.26231E+04         0.00000E+00
    0.26231E+04        -0.35569E+04         0.00000E+00
    0.00000E+00         0.00000E+00        -0.28010E+04
 
   -0.47804E+04         0.28079E+04         0.00000E+00
    0.28079E+04        -0.38235E+04         0.00000E+00
    0.00000E+00         0.00000E+00        -0.28523E+04
 
   -0.46124E+04         0.29922E+04         0.00000E+00
    0.29922E+04        -0.40708E+04         0.00000E+00
    0.00000E+00         0.00000E+00        -0.28834E+04
 
   -0.43982E+04         0.31817E+04         0.00000E+00
    0.31817E+04        -0.43011E+04         0.00000E+00
    0.00000E+00         0.00000E+00        -0.28943E+04
 
   -0.41330E+04         0.33820E+04         0.00000E+00
    0.33820E+04        -0.45182E+04         0.00000E+00
    0.00000E+00         0.00000E+00        -0.28848E+04
 
   -0.38091E+04         0.35979E+04         0.00000E+00
    0.35979E+04        -0.47276E+04         0.00000E+00
    0.00000E+00         0.00000E+00        -0.28542E+04
 
   -0.34163E+04         0.38332E+04         0.00000E+00
    0.38332E+04        -0.49365E+04         0.00000E+00
    0.00000E+00         0.00000E+00        -0.28015E+04
 
   -0.29412E+04         0.40903E+04         0.00000E+00
    0.40903E+04        -0.51535E+04         0.00000E+00
    0.00000E+00         0.00000E+00        -0.27254E+04
 
    0.33131E+04        -0.17959E+03         0.00000E+00
   -0.17959E+03         0.18334E+01         0.00000E+00
    0.00000E+00         0.00000E+00         0.98477E+03
 
    0.22375E+04        -0.43741E+03         0.00000E+00
   -0.43741E+03         0.48542E+01         0.00000E+00
    0.00000E+00         0.00000E+00         0.64362E+03
 
    0.11848E+04        -0.57034E+03         0.00000E+00
   -0.57034E+03        -0.32674E+01         0.00000E+00
    0.00000E+00         0.00000E+00         0.30618E+03
 
    0.18263E+03        -0.59153E+03         0.00000E+00
   -0.59153E+03        -0.35315E+02         0.00000E+00
    0.00000E+00         0.00000E+00        -0.23056E+02
 
   -0.74662E+03        -0.51751E+03         0.00000E+00
   -0.51751E+03        -0.10078E+03         0.00000E+00
    0.00000E+00         0.00000E+00        -0.34012E+03
 
   -0.15863E+04        -0.36677E+03         0.00000E+00
   -0.36677E+03        -0.20538E+03         0.00000E+00
    0.00000E+00         0.00000E+00        -0.64164E+03
 
   -0.23257E+04        -0.15826E+03         0.00000E+00
   -0.15826E+03        -0.35103E+03         0.00000E+00
    0.00000E+00         0.00000E+00        -0.92493E+03
 
   -0.29599E+04         0.89864E+02         0.00000E+00
    0.89864E+02        -0.53624E+03         0.00000E+00
    0.00000E+00         0.00000E+00        -0.11880E+04
 
   -0.34889E+04         0.36141E+03         0.00000E+00
    0.36141E+03        -0.75670E+03         0.00000E+00
    0.00000E+00         0.00000E+00        -0.14294E+04
 
   -0.39165E+04         0.64280E+03         0.00000E+00
    0.64280E+03        -0.10062E+04         0.00000E+00
    0.00000E+00         0.00000E+00        -0.16485E+04
 
   -0.42494E+04         0.92350E+03         0.00000E+00
    0.92350E+03        -0.12772E+04         0.00000E+00
    0.00000E+00         0.00000E+00        -0.18448E+04
 
   -0.44955E+04         0.11960E+04         0.00000E+00
    0.11960E+04        -0.15622E+04         0.00000E+00
    0.00000E+00         0.00000E+00        -0.20184E+04
 
   -0.46636E+04         0.14558E+04         0.00000E+00
    0.14558E+04        -0.18535E+04         0.00000E+00
    0.00000E+00         0.00000E+00        -0.21697E+04
 
   -0.47622E+04         0.17009E+04         0.00000E+00
    0.17009E+04        -0.21447E+04         0.00000E+00
    0.00000E+00         0.00000E+00        -0.22992E+04
 
   -0.47987E+04         0.19313E+04         0.00000E+00
    0.19313E+04        -0.24301E+04         0.00000E+00
    0.00000E+00         0.00000E+00        -0.24073E+04
 
   -0.47793E+04         0.21488E+04         0.00000E+00
    0.21488E+04        -0.27056E+04         0.00000E+00
    0.00000E+00         0.00000E+00        -0.24947E+04
 
   -0.47083E+04         0.23566E+04         0.00000E+00
    0.23566E+04        -0.29685E+04         0.00000E+00
    0.00000E+00         0.00000E+00        -0.25617E+04
 
   -0.45880E+04         0.25583E+04         0.00000E+00
    0.25583E+04        -0.32176E+04         0.00000E+00
    0.00000E+00         0.00000E+00        -0.26087E+04
 
   -0.44186E+04         0.27582E+04         0.00000E+00
    0.27582E+04        -0.34531E+04         0.00000E+00
    0.00000E+00         0.00000E+00        -0.26358E+04
 
   -0.41982E+04         0.29606E+04         0.00000E+00
    0.29606E+04        -0.36768E+04         0.00000E+00
    0.00000E+00         0.00000E+00        -0.26428E+04
 
   -0.39223E+04         0.31695E+04         0.00000E+00
    0.31695E+04        -0.38920E+04         0.00000E+00
    0.00000E+00         0.00000E+00        -0.26295E+04
 
   -0.35842E+04         0.33880E+04         0.00000E+00
    0.33880E+04        -0.41033E+04         0.00000E+00
    0.00000E+00         0.00000E+00        -0.25951E+04
 
   -0.31747E+04         0.36187E+04         0.00000E+00
    0.36187E+04        -0.43169E+04         0.00000E+00
    0.00000E+00         0.00000E+00        -0.25388E+04
 
   -0.26822E+04         0.38622E+04         0.00000E+00
    0.38622E+04        -0.45404E+04         0.00000E+00
    0.00000E+00         0.00000E+00        -0.24593E+04
 
    0.29918E+04        -0.17488E+03         0.00000E+00
   -0.17488E+03         0.22340E+01         0.00000E+00
    0.00000E+00         0.00000E+00         0.88868E+03
 
    0.20388E+04        -0.43453E+03         0.00000E+00
   -0.43453E+03         0.82344E+01         0.00000E+00
    0.00000E+00         0.00000E+00         0.58557E+03
 
    0.10988E+04        -0.58246E+03         0.00000E+00
   -0.58246E+03         0.80290E+01         0.00000E+00
    0.00000E+00         0.00000E+00         0.28467E+03
 
    0.19586E+03        -0.62926E+03         0.00000E+00
   -0.62926E+03        -0.95601E+01         0.00000E+00
    0.00000E+00         0.00000E+00        -0.10135E+02
 
   -0.65013E+03        -0.58825E+03         0.00000E+00
   -0.58825E+03        -0.53130E+02         0.00000E+00
    0.00000E+00         0.00000E+00        -0.29533E+03
 
   -0.14237E+04        -0.47449E+03         0.00000E+00
   -0.47449E+03        -0.12831E+03         0.00000E+00
    0.00000E+00         0.00000E+00        -0.56789E+03
 
   -0.21141E+04        -0.30363E+03         0.00000E+00
   -0.30363E+03        -0.23770E+03         0.00000E+00
    0.00000E+00         0.00000E+00        -0.82531E+03
 
   -0.27152E+04        -0.90929E+02         0.00000E+00
   -0.90929E+02        -0.38106E+03         0.00000E+00
    0.00000E+00         0.00000E+00        -0.10656E+04
 
   -0.32252E+04         0.14965E+03         0.00000E+00
    0.14965E+03        -0.55581E+03         0.00000E+00
    0.00000E+00         0.00000E+00        -0.12874E+04
 
   -0.36453E+04         0.40607E+03         0.00000E+00
    0.40607E+03        -0.75755E+03         0.00000E+00
    0.00000E+00         0.00000E+00        -0.14896E+04
 
   -0.39793E+04         0.66854E+03         0.00000E+00
    0.66854E+03        -0.98076E+03         0.00000E+00
    0.00000E+00         0.00000E+00        -0.16717E+04
 
   -0.42328E+04         0.92973E+03         0.00000E+00
    0.92973E+03        -0.12194E+04         0.00000E+00
    0.00000E+00         0.00000E+00        -0.18335E+04
 
   -0.44118E+04         0.11847E+04         0.00000E+00
    0.11847E+04        -0.14674E+04         0.00000E+00
    0.00000E+00         0.00000E+00        -0.19749E+04
 
   -0.45227E+04         0.14305E+04         0.00000E+00
    0.14305E+04        -0.17192E+04         0.00000E+00
    0.00000E+00         0.00000E+00        -0.20961E+04
 
   -0.45711E+04         0.16663E+04         0.00000E+00
    0.16663E+04        -0.19701E+04         0.00000E+00
    0.00000E+00         0.00000E+00        -0.21973E+04
 
   -0.45618E+04         0.18926E+04         0.00000E+00
    0.18926E+04        -0.22164E+04         0.00000E+00
    0.00000E+00         0.00000E+00        -0.22787E+04
 
   -0.44982E+04         0.21111E+04         0.00000E+00
    0.21111E+04        -0.24554E+04         0.00000E+00
    0.00000E+00         0.00000E+00        -0.23407E+04
 
   -0.43819E+04         0.23240E+04         0.00000E+00
    0.23240E+04        -0.26860E+04         0.00000E+00
    0.00000E+00         0.00000E+00        -0.23833E+04
 
   -0.42130E+04         0.25344E+04         0.00000E+00
    0.25344E+04        -0.29081E+04         0.00000E+00
    0.00000E+00         0.00000E+00        -0.24064E+04
 
   -0.39895E+04         0.27449E+04         0.00000E+00
    0.27449E+04        -0.31231E+04         0.00000E+00
    0.00000E+00         0.00000E+00        -0.24098E+04
 
   -0.37076E+04         0.29583E+04         0.00000E+00
    0.29583E+04        -0.33337E+04         0.00000E+00
    0.00000E+00         0.00000E+00        -0.23932E+04
 
   -0.33613E+04         0.31764E+04         0.00000E+00
    0.31764E+04        -0.35438E+04         0.00000E+00
    0.00000E+00         0.00000E+00        -0.23560E+04
 
   -0.29428E+04         0.34003E+04         0.00000E+00
    0.34003E+04        -0.37585E+04         0.00000E+00
    0.00000E+00         0.00000E+00        -0.22973E+04
 
   -0.24420E+04         0.36293E+04         0.00000E+00
    0.36293E+04        -0.39844E+04         0.00000E+00
    0.00000E+00         0.00000E+00        -0.22161E+04
 
    0.26772E+04        -0.16916E+03         0.00000E+00
   -0.16916E+03         0.25615E+01         0.00000E+00
    0.00000E+00         0.00000E+00         0.79460E+03
 
    0.18337E+04        -0.42708E+03         0.00000E+00
   -0.42708E+03         0.10975E+02         0.00000E+00
    0.00000E+00         0.00000E+00         0.52542E+03
 
    0.99524E+03        -0.58475E+03         0.00000E+00
   -0.58475E+03         0.17157E+02         0.00000E+00
    0.00000E+00         0.00000E+00         0.25722E+03
 
    0.18284E+03        -0.65074E+03         0.00000E+00
   -0.65074E+03         0.11237E+02         0.00000E+00
    0.00000E+00         0.00000E+00        -0.65788E+01
 
   -0.58552E+03        -0.63583E+03         0.00000E+00
   -0.63583E+03        -0.14599E+02         0.00000E+00
    0.00000E+00         0.00000E+00        -0.26285E+03
 
   -0.12955E+04        -0.55234E+03         0.00000E+00
   -0.55234E+03        -0.65799E+02         0.00000E+00
    0.00000E+00         0.00000E+00        -0.50885E+03
 
   -0.19366E+04        -0.41324E+03         0.00000E+00
   -0.41324E+03        -0.14537E+03         0.00000E+00
    0.00000E+00         0.00000E+00        -0.74225E+03
 
   -0.25021E+04        -0.23139E+03         0.00000E+00
   -0.23139E+03        -0.25398E+03         0.00000E+00
    0.00000E+00         0.00000E+00        -0.96115E+03
 
   -0.29885E+04        -0.18784E+02         0.00000E+00
   -0.18784E+02        -0.39030E+03         0.00000E+00
    0.00000E+00         0.00000E+00        -0.11641E+04
 
   -0.33955E+04         0.21392E+03         0.00000E+00
    0.21392E+03        -0.55141E+03         0.00000E+00
    0.00000E+00         0.00000E+00        -0.13499E+04
 
   -0.37246E+04         0.45782E+03         0.00000E+00
    0.45782E+03        -0.73328E+03         0.00000E+00
    0.00000E+00         0.00000E+00        -0.15180E+04
 
   -0.39794E+04         0.70587E+03         0.00000E+00
    0.70587E+03        -0.93129E+03         0.00000E+00
    0.00000E+00         0.00000E+00        -0.16677E+04
 
   -0.41637E+04         0.95295E+03         0.00000E+00
    0.95295E+03        -0.11407E+04         0.00000E+00
    0.00000E+00         0.00000E+00        -0.17989E+04
 
   -0.42821E+04         0.11957E+04         0.00000E+00
    0.11957E+04        -0.13568E+04         0.00000E+00
    0.00000E+00         0.00000E+00        -0.19115E+04
 
   -0.43387E+04         0.14324E+04         0.00000E+00
    0.14324E+04        -0.15758E+04         0.00000E+00
    0.00000E+00         0.00000E+00        -0.20054E+04
 
   -0.43370E+04         0.16625E+04         0.00000E+00
    0.16625E+04        -0.17944E+04         0.00000E+00
    0.00000E+00         0.00000E+00        -0.20808E+04
 
   -0.42794E+04         0.18867E+04         0.00000E+00
    0.18867E+04        -0.20102E+04         0.00000E+00
    0.00000E+00         0.00000E+00        -0.21375E+04
 
   -0.41672E+04         0.21060E+04         0.00000E+00
    0.21060E+04        -0.22222E+04         0.00000E+00
    0.00000E+00         0.00000E+00        -0.21755E+04
 
   -0.40001E+04         0.23221E+04         0.00000E+00
    0.23221E+04        -0.24300E+04         0.00000E+00
    0.00000E+00         0.00000E+00        -0.21948E+04
 
   -0.37763E+04         0.25367E+04         0.00000E+00
    0.25367E+04        -0.26349E+04         0.00000E+00
    0.00000E+00         0.00000E+00        -0.21951E+04
 
   -0.34923E+04         0.27511E+04         0.00000E+00
    0.27511E+04        -0.28388E+04         0.00000E+00
    0.00000E+00         0.00000E+00        -0.21758E+04
 
   -0.31431E+04         0.29661E+04         0.00000E+00
    0.29661E+04        -0.30451E+04         0.00000E+00
    0.00000E+00         0.00000E+00        -0.21365E+04
 
   -0.27219E+04         0.31815E+04         0.00000E+00
    0.31815E+04        -0.32582E+04         0.00000E+00
    0.00000E+00         0.00000E+00        -0.20765E+04
 
   -0.22203E+04         0.33956E+04         0.00000E+00
    0.33956E+04        -0.34832E+04         0.00000E+00
    0.00000E+00         0.00000E+00        -0.19947E+04
 
    0.23718E+04        -0.16262E+03         0.00000E+00
   -0.16262E+03         0.28222E+01         0.00000E+00
    0.00000E+00         0.00000E+00         0.70323E+03
 
    0.16263E+04        -0.41595E+03         0.00000E+00
   -0.41595E+03         0.13165E+02         0.00000E+00
    0.00000E+00         0.00000E+00         0.46439E+03
 
    0.87934E+03        -0.57914E+03         0.00000E+00
   -0.57914E+03         0.24470E+02         0.00000E+00
    0.00000E+00         0.00000E+00         0.22553E+03
 
    0.14969E+03        -0.65909E+03         0.00000E+00
   -0.65909E+03         0.27948E+02         0.00000E+00
    0.00000E+00         0.00000E+00        -0.10293E+02
 
   -0.54649E+03        -0.66459E+03         0.00000E+00
   -0.66459E+03         0.16472E+02         0.00000E+00
    0.00000E+00         0.00000E+00        -0.24028E+03
 
   -0.11959E+04        -0.60574E+03         0.00000E+00
   -0.60574E+03        -0.15184E+02         0.00000E+00
    0.00000E+00         0.00000E+00        -0.46195E+03
 
   -0.17883E+04        -0.49332E+03         0.00000E+00
   -0.49332E+03        -0.70249E+02         0.00000E+00
    0.00000E+00         0.00000E+00        -0.67311E+03
 
   -0.23167E+04        -0.33819E+03         0.00000E+00
   -0.33819E+03        -0.15004E+03         0.00000E+00
    0.00000E+00         0.00000E+00        -0.87197E+03
 
   -0.27767E+04        -0.15066E+03         0.00000E+00
   -0.15066E+03        -0.25416E+03         0.00000E+00
    0.00000E+00         0.00000E+00        -0.10570E+04
 
   -0.31664E+04         0.59918E+02         0.00000E+00
    0.59918E+02        -0.38082E+03         0.00000E+00
    0.00000E+00         0.00000E+00        -0.12272E+04
 
   -0.34861E+04         0.28546E+03         0.00000E+00
    0.28546E+03        -0.52722E+03         0.00000E+00
    0.00000E+00         0.00000E+00        -0.13815E+04
 
   -0.37372E+04         0.51934E+03         0.00000E+00
    0.51934E+03        -0.68990E+03         0.00000E+00
    0.00000E+00         0.00000E+00        -0.15194E+04
 
   -0.39223E+04         0.75647E+03         0.00000E+00
    0.75647E+03        -0.86518E+03         0.00000E+00
    0.00000E+00         0.00000E+00        -0.16404E+04
 
   -0.40442E+04         0.99319E+03         0.00000E+00
    0.99319E+03        -0.10494E+04         0.00000E+00
    0.00000E+00         0.00000E+00        -0.17443E+04
 
   -0.41058E+04         0.12272E+04         0.00000E+00
    0.12272E+04        -0.12393E+04         0.00000E+00
    0.00000E+00         0.00000E+00        -0.18308E+04
 
   -0.41094E+04         0.14572E+04         0.00000E+00
    0.14572E+04        -0.14322E+04         0.00000E+00
    0.00000E+00         0.00000E+00        -0.18999E+04
 
   -0.40567E+04         0.16828E+04         0.00000E+00
    0.16828E+04        -0.16260E+04         0.00000E+00
    0.00000E+00         0.00000E+00        -0.19513E+04
 
   -0.39484E+04         0.19044E+04         0.00000E+00
    0.19044E+04        -0.18197E+04         0.00000E+00
    0.00000E+00         0.00000E+00        -0.19850E+04
 
   -0.37840E+04         0.21224E+04         0.00000E+00
    0.21224E+04        -0.20130E+04         0.00000E+00
    0.00000E+00         0.00000E+00        -0.20007E+04
 
   -0.35620E+04         0.23375E+04         0.00000E+00
    0.23375E+04        -0.22068E+04         0.00000E+00
    0.00000E+00         0.00000E+00        -0.19980E+04
 
   -0.32793E+04         0.25499E+04         0.00000E+00
    0.25499E+04        -0.24026E+04         0.00000E+00
    0.00000E+00         0.00000E+00        -0.19767E+04
 
   -0.29315E+04         0.27595E+04         0.00000E+00
    0.27595E+04        -0.26032E+04         0.00000E+00
    0.00000E+00         0.00000E+00        -0.19361E+04
 
   -0.25130E+04         0.29650E+04         0.00000E+00
    0.29650E+04        -0.28122E+04         0.00000E+00
    0.00000E+00         0.00000E+00        -0.18756E+04
 
   -0.20169E+04         0.31642E+04         0.00000E+00
    0.31642E+04        -0.30337E+04         0.00000E+00
    0.00000E+00         0.00000E+00        -0.17944E+04
 
    0.20773E+04        -0.15544E+03         0.00000E+00
   -0.15544E+03         0.30219E+01         0.00000E+00
    0.00000E+00         0.00000E+00         0.61512E+03
 
    0.14197E+04        -0.40190E+03         0.00000E+00
   -0.40190E+03         0.14876E+02         0.00000E+00
    0.00000E+00         0.00000E+00         0.40346E+03
 
    0.75546E+03        -0.56720E+03         0.00000E+00
   -0.56720E+03         0.30245E+02         0.00000E+00
    0.00000E+00         0.00000E+00         0.19098E+03
 
    0.10140E+03        -0.65688E+03         0.00000E+00
   -0.65688E+03         0.41248E+02         0.00000E+00
    0.00000E+00         0.00000E+00        -0.19579E+02
 
   -0.52783E+03        -0.67809E+03         0.00000E+00
   -0.67809E+03         0.41356E+02         0.00000E+00
    0.00000E+00         0.00000E+00        -0.22569E+03
 
   -0.11199E+04        -0.63916E+03         0.00000E+00
   -0.63916E+03         0.25593E+02         0.00000E+00
    0.00000E+00         0.00000E+00        -0.42508E+03
 
   -0.16650E+04        -0.54907E+03         0.00000E+00
   -0.54907E+03        -0.93866E+01         0.00000E+00
    0.00000E+00         0.00000E+00        -0.61573E+03
 
   -0.21558E+04        -0.41698E+03         0.00000E+00
   -0.41698E+03        -0.65335E+02         0.00000E+00
    0.00000E+00         0.00000E+00        -0.79590E+03
 
   -0.25875E+04        -0.25177E+03         0.00000E+00
   -0.25177E+03        -0.14256E+03         0.00000E+00
    0.00000E+00         0.00000E+00        -0.96416E+03
 
   -0.29572E+04        -0.61650E+02         0.00000E+00
   -0.61650E+02        -0.24015E+03         0.00000E+00
    0.00000E+00         0.00000E+00        -0.11193E+04
 
   -0.32638E+04         0.14612E+03         0.00000E+00
    0.14612E+03        -0.35627E+03         0.00000E+00
    0.00000E+00         0.00000E+00        -0.12604E+04
 
   -0.35077E+04         0.36537E+03         0.00000E+00
    0.36537E+03        -0.48846E+03         0.00000E+00
    0.00000E+00         0.00000E+00        -0.13868E+04
 
   -0.36898E+04         0.59115E+03         0.00000E+00
    0.59115E+03        -0.63392E+03         0.00000E+00
    0.00000E+00         0.00000E+00        -0.14978E+04
 
   -0.38120E+04         0.81964E+03         0.00000E+00
    0.81964E+03        -0.78983E+03         0.00000E+00
    0.00000E+00         0.00000E+00        -0.15931E+04
 
   -0.38757E+04         0.10481E+04         0.00000E+00
    0.10481E+04        -0.95355E+03         0.00000E+00
    0.00000E+00         0.00000E+00        -0.16723E+04
 
   -0.38826E+04         0.12748E+04         0.00000E+00
    0.12748E+04        -0.11229E+04         0.00000E+00
    0.00000E+00         0.00000E+00        -0.17351E+04
 
   -0.38336E+04         0.14986E+04         0.00000E+00
    0.14986E+04        -0.12961E+04         0.00000E+00
    0.00000E+00         0.00000E+00        -0.17814E+04
 
   -0.37291E+04         0.17190E+04         0.00000E+00
    0.17190E+04        -0.14724E+04         0.00000E+00
    0.00000E+00         0.00000E+00        -0.18108E+04
 
   -0.35683E+04         0.19356E+04         0.00000E+00
    0.19356E+04        -0.16513E+04         0.00000E+00
    0.00000E+00         0.00000E+00        -0.18232E+04
 
   -0.33498E+04         0.21481E+04         0.00000E+00
    0.21481E+04        -0.18334E+04         0.00000E+00
    0.00000E+00         0.00000E+00        -0.18180E+04
 
   -0.30710E+04         0.23561E+04         0.00000E+00
    0.23561E+04        -0.20202E+04         0.00000E+00
    0.00000E+00         0.00000E+00        -0.17951E+04
 
   -0.27281E+04         0.25585E+04         0.00000E+00
    0.25585E+04        -0.22137E+04         0.00000E+00
    0.00000E+00         0.00000E+00        -0.17538E+04
 
   -0.23167E+04         0.27533E+04         0.00000E+00
    0.27533E+04        -0.24167E+04         0.00000E+00
    0.00000E+00         0.00000E+00        -0.16936E+04
 
   -0.18311E+04         0.29374E+04         0.00000E+00
    0.29374E+04        -0.26326E+04         0.00000E+00
    0.00000E+00         0.00000E+00        -0.16139E+04
 
    0.17952E+04        -0.14777E+03         0.00000E+00
   -0.14777E+03         0.31664E+01         0.00000E+00
    0.00000E+00         0.00000E+00         0.53071E+03
 
    0.12165E+04        -0.38557E+03         0.00000E+00
   -0.38557E+03         0.16168E+02         0.00000E+00
    0.00000E+00         0.00000E+00         0.34342E+03
 
    0.62709E+03        -0.55024E+03         0.00000E+00
   -0.55024E+03         0.34708E+02         0.00000E+00
    0.00000E+00         0.00000E+00         0.15468E+03
 
    0.42073E+02        -0.64620E+03         0.00000E+00
   -0.64620E+03         0.51673E+02         0.00000E+00
    0.00000E+00         0.00000E+00        -0.33052E+02
 
   -0.52518E+03        -0.67926E+03         0.00000E+00
   -0.67926E+03         0.61065E+02         0.00000E+00
    0.00000E+00         0.00000E+00        -0.21748E+03
 
   -0.10632E+04        -0.65630E+03         0.00000E+00
   -0.65630E+03         0.58159E+02         0.00000E+00
    0.00000E+00         0.00000E+00        -0.39650E+03
 
   -0.15627E+04        -0.58482E+03         0.00000E+00
   -0.58482E+03         0.39578E+02         0.00000E+00
    0.00000E+00         0.00000E+00        -0.56826E+03
 
   -0.20162E+04        -0.47255E+03         0.00000E+00
   -0.47255E+03         0.32723E+01         0.00000E+00
    0.00000E+00         0.00000E+00        -0.73110E+03
 
   -0.24187E+04        -0.32713E+03         0.00000E+00
   -0.32713E+03        -0.51585E+02         0.00000E+00
    0.00000E+00         0.00000E+00        -0.88363E+03
 
   -0.27664E+04        -0.15577E+03         0.00000E+00
   -0.15577E+03        -0.12476E+03         0.00000E+00
    0.00000E+00         0.00000E+00        -0.10246E+04
 
   -0.30576E+04         0.35037E+02         0.00000E+00
    0.35037E+02        -0.21519E+03         0.00000E+00
    0.00000E+00         0.00000E+00        -0.11532E+04
 
   -0.32914E+04         0.23959E+03         0.00000E+00
    0.23959E+03        -0.32121E+03         0.00000E+00
    0.00000E+00         0.00000E+00        -0.12684E+04
 
   -0.34678E+04         0.45314E+03         0.00000E+00
    0.45314E+03        -0.44080E+03         0.00000E+00
    0.00000E+00         0.00000E+00        -0.13698E+04
 
   -0.35874E+04         0.67185E+03         0.00000E+00
    0.67185E+03        -0.57182E+03         0.00000E+00
    0.00000E+00         0.00000E+00        -0.14567E+04
 
   -0.36512E+04         0.89274E+03         0.00000E+00
    0.89274E+03        -0.71224E+03         0.00000E+00
    0.00000E+00         0.00000E+00        -0.15287E+04
 
   -0.36597E+04         0.11136E+04         0.00000E+00
    0.11136E+04        -0.86028E+03         0.00000E+00
    0.00000E+00         0.00000E+00        -0.15856E+04
 
   -0.36135E+04         0.13328E+04         0.00000E+00
    0.13328E+04        -0.10146E+04         0.00000E+00
    0.00000E+00         0.00000E+00        -0.16268E+04
 
   -0.35124E+04         0.15491E+04         0.00000E+00
    0.15491E+04        -0.11743E+04         0.00000E+00
    0.00000E+00         0.00000E+00        -0.16523E+04
 
   -0.33558E+04         0.17616E+04         0.00000E+00
    0.17616E+04        -0.13392E+04         0.00000E+00
    0.00000E+00         0.00000E+00        -0.16616E+04
 
   -0.31421E+04         0.19693E+04         0.00000E+00
    0.19693E+04        -0.15097E+04         0.00000E+00
    0.00000E+00         0.00000E+00        -0.16543E+04
 
   -0.28693E+04         0.21708E+04         0.00000E+00
    0.21708E+04        -0.16867E+04         0.00000E+00
    0.00000E+00         0.00000E+00        -0.16302E+04
 
   -0.25342E+04         0.23645E+04         0.00000E+00
    0.23645E+04        -0.18720E+04         0.00000E+00
    0.00000E+00         0.00000E+00        -0.15887E+04
 
   -0.21332E+04         0.25479E+04         0.00000E+00
    0.25479E+04        -0.20677E+04         0.00000E+00
    0.00000E+00         0.00000E+00        -0.15294E+04
 
   -0.16621E+04         0.27174E+04         0.00000E+00
    0.27174E+04        -0.22764E+04         0.00000E+00
    0.00000E+00         0.00000E+00        -0.14519E+04
 
    0.15266E+04        -0.13976E+03         0.00000E+00
   -0.13976E+03         0.32614E+01         0.00000E+00
    0.00000E+00         0.00000E+00         0.45033E+03
 
    0.10188E+04        -0.36753E+03         0.00000E+00
   -0.36753E+03         0.17095E+02         0.00000E+00
    0.00000E+00         0.00000E+00         0.28491E+03
 
    0.49704E+03        -0.52937E+03         0.00000E+00
   -0.52937E+03         0.38046E+02         0.00000E+00
    0.00000E+00         0.00000E+00         0.11753E+03
 
   -0.24945E+02        -0.62881E+03         0.00000E+00
   -0.62881E+03         0.59662E+02         0.00000E+00
    0.00000E+00         0.00000E+00        -0.49578E+02
 
   -0.53495E+03        -0.67056E+03         0.00000E+00
   -0.67056E+03         0.76416E+02         0.00000E+00
    0.00000E+00         0.00000E+00        -0.21431E+03
 
   -0.10223E+04        -0.66027E+03         0.00000E+00
   -0.66027E+03         0.83834E+02         0.00000E+00
    0.00000E+00         0.00000E+00        -0.37476E+03
 
   -0.14782E+04        -0.60421E+03         0.00000E+00
   -0.60421E+03         0.78560E+02         0.00000E+00
    0.00000E+00         0.00000E+00        -0.52916E+03
 
   -0.18953E+04        -0.50894E+03         0.00000E+00
   -0.50894E+03         0.58351E+02         0.00000E+00
    0.00000E+00         0.00000E+00        -0.67598E+03
 
   -0.22683E+04        -0.38103E+03         0.00000E+00
   -0.38103E+03         0.22000E+02         0.00000E+00
    0.00000E+00         0.00000E+00        -0.81385E+03
 
   -0.25930E+04        -0.22677E+03         0.00000E+00
   -0.22677E+03        -0.30783E+02         0.00000E+00
    0.00000E+00         0.00000E+00        -0.94162E+03
 
   -0.28670E+04        -0.52010E+02         0.00000E+00
   -0.52010E+02        -0.99539E+02         0.00000E+00
    0.00000E+00         0.00000E+00        -0.10583E+04
 
   -0.30886E+04         0.13805E+03         0.00000E+00
    0.13805E+03        -0.18325E+03         0.00000E+00
    0.00000E+00         0.00000E+00        -0.11630E+04
 
   -0.32571E+04         0.33890E+03         0.00000E+00
    0.33890E+03        -0.28054E+03         0.00000E+00
    0.00000E+00         0.00000E+00        -0.12551E+04
 
   -0.33723E+04         0.54674E+03         0.00000E+00
    0.54674E+03        -0.38987E+03         0.00000E+00
    0.00000E+00         0.00000E+00        -0.13340E+04
 
   -0.34342E+04         0.75847E+03         0.00000E+00
    0.75847E+03        -0.50970E+03         0.00000E+00
    0.00000E+00         0.00000E+00        -0.13991E+04
 
   -0.34430E+04         0.97157E+03         0.00000E+00
    0.97157E+03        -0.63865E+03         0.00000E+00
    0.00000E+00         0.00000E+00        -0.14502E+04
 
   -0.33987E+04         0.11840E+04         0.00000E+00
    0.11840E+04        -0.77566E+03         0.00000E+00
    0.00000E+00         0.00000E+00        -0.14868E+04
 
   -0.33009E+04         0.13941E+04         0.00000E+00
    0.13941E+04        -0.92004E+03         0.00000E+00
    0.00000E+00         0.00000E+00        -0.15085E+04
 
   -0.31487E+04         0.16004E+04         0.00000E+00
    0.16004E+04        -0.10715E+04         0.00000E+00
    0.00000E+00         0.00000E+00        -0.15150E+04
 
   -0.29410E+04         0.18012E+04         0.00000E+00
    0.18012E+04        -0.12304E+04         0.00000E+00
    0.00000E+00         0.00000E+00        -0.15059E+04
 
   -0.26757E+04         0.19947E+04         0.00000E+00
    0.19947E+04        -0.13975E+04         0.00000E+00
    0.00000E+00         0.00000E+00        -0.14810E+04
 
   -0.23506E+04         0.21787E+04         0.00000E+00
    0.21787E+04        -0.15739E+04         0.00000E+00
    0.00000E+00         0.00000E+00        -0.14398E+04
 
   -0.19628E+04         0.23502E+04         0.00000E+00
    0.23502E+04        -0.17612E+04         0.00000E+00
    0.00000E+00         0.00000E+00        -0.13820E+04
 
   -0.15091E+04         0.25055E+04         0.00000E+00
    0.25055E+04        -0.19615E+04         0.00000E+00
    0.00000E+00         0.00000E+00        -0.13071E+04
 
    0.12722E+04        -0.13154E+03         0.00000E+00
   -0.13154E+03         0.33124E+01         0.00000E+00
    0.00000E+00         0.00000E+00         0.37422E+03
 
    0.82809E+03        -0.34823E+03         0.00000E+00
   -0.34823E+03         0.17705E+02         0.00000E+00
    0.00000E+00         0.00000E+00         0.22840E+03
 
    0.36757E+03        -0.50554E+03         0.00000E+00
   -0.50554E+03         0.40421E+02         0.00000E+00
    0.00000E+00         0.00000E+00         0.80242E+02
 
   -0.96925E+02        -0.60620E+03         0.00000E+00
   -0.60620E+03         0.65584E+02         0.00000E+00
    0.00000E+00         0.00000E+00        -0.68233E+02
 
   -0.55417E+03        -0.65402E+03         0.00000E+00
   -0.65402E+03         0.88088E+02         0.00000E+00
    0.00000E+00         0.00000E+00        -0.21511E+03
 
   -0.99426E+03        -0.65364E+03         0.00000E+00
   -0.65364E+03         0.10371E+03         0.00000E+00
    0.00000E+00         0.00000E+00        -0.35862E+03
 
   -0.14088E+04        -0.61031E+03         0.00000E+00
   -0.61031E+03         0.10914E+03         0.00000E+00
    0.00000E+00         0.00000E+00        -0.49713E+03
 
   -0.17907E+04        -0.52959E+03         0.00000E+00
   -0.52959E+03         0.10203E+03         0.00000E+00
    0.00000E+00         0.00000E+00        -0.62918E+03
 
   -0.21344E+04        -0.41712E+03         0.00000E+00
   -0.41712E+03         0.80892E+02         0.00000E+00
    0.00000E+00         0.00000E+00        -0.75348E+03
 
   -0.24356E+04        -0.27844E+03         0.00000E+00
   -0.27844E+03         0.45045E+02         0.00000E+00
    0.00000E+00         0.00000E+00        -0.86888E+03
 
   -0.26914E+04        -0.11874E+03         0.00000E+00
   -0.11874E+03        -0.55340E+01         0.00000E+00
    0.00000E+00         0.00000E+00        -0.97440E+03
 
   -0.28994E+04         0.57216E+02         0.00000E+00
    0.57216E+02        -0.70350E+02         0.00000E+00
    0.00000E+00         0.00000E+00        -0.10692E+04
 
   -0.30584E+04         0.24518E+03         0.00000E+00
    0.24518E+03        -0.14855E+03         0.00000E+00
    0.00000E+00         0.00000E+00        -0.11525E+04
 
   -0.31676E+04         0.44147E+03         0.00000E+00
    0.44147E+03        -0.23909E+03         0.00000E+00
    0.00000E+00         0.00000E+00        -0.12238E+04
 
   -0.32263E+04         0.64292E+03         0.00000E+00
    0.64292E+03        -0.34086E+03         0.00000E+00
    0.00000E+00         0.00000E+00        -0.12824E+04
 
   -0.32343E+04         0.84683E+03         0.00000E+00
    0.84683E+03        -0.45285E+03         0.00000E+00
    0.00000E+00         0.00000E+00        -0.13280E+04
 
   -0.31912E+04         0.10509E+04         0.00000E+00
    0.10509E+04        -0.57423E+03         0.00000E+00
    0.00000E+00         0.00000E+00        -0.13601E+04
 
   -0.30964E+04         0.12530E+04         0.00000E+00
    0.12530E+04        -0.70446E+03         0.00000E+00
    0.00000E+00         0.00000E+00        -0.13784E+04
 
   -0.29490E+04         0.14513E+04         0.00000E+00
    0.14513E+04        -0.84330E+03         0.00000E+00
    0.00000E+00         0.00000E+00        -0.13825E+04
 
   -0.27479E+04         0.16437E+04         0.00000E+00
    0.16437E+04        -0.99093E+03         0.00000E+00
    0.00000E+00         0.00000E+00        -0.13720E+04
 
   -0.24915E+04         0.18280E+04         0.00000E+00
    0.18280E+04        -0.11479E+04         0.00000E+00
    0.00000E+00         0.00000E+00        -0.13466E+04
 
   -0.21780E+04         0.20016E+04         0.00000E+00
    0.20016E+04        -0.13149E+04         0.00000E+00
    0.00000E+00         0.00000E+00        -0.13061E+04
 
   -0.18053E+04         0.21612E+04         0.00000E+00
    0.21612E+04        -0.14933E+04         0.00000E+00
    0.00000E+00         0.00000E+00        -0.12501E+04
 
   -0.13711E+04         0.23029E+04         0.00000E+00
    0.23029E+04        -0.16843E+04         0.00000E+00
    0.00000E+00         0.00000E+00        -0.11782E+04
 
    0.10327E+04        -0.12320E+03         0.00000E+00
   -0.12320E+03         0.33250E+01         0.00000E+00
    0.00000E+00         0.00000E+00         0.30252E+03
 
    0.64567E+03        -0.32809E+03         0.00000E+00
   -0.32809E+03         0.18042E+02         0.00000E+00
    0.00000E+00         0.00000E+00         0.17428E+03
 
    0.24047E+03        -0.47953E+03         0.00000E+00
   -0.47953E+03         0.41974E+02         0.00000E+00
    0.00000E+00         0.00000E+00         0.43406E+02
 
   -0.17164E+03        -0.57960E+03         0.00000E+00
   -0.57960E+03         0.69752E+02         0.00000E+00
    0.00000E+00         0.00000E+00        -0.88259E+02
 
   -0.58035E+03        -0.63135E+03         0.00000E+00
   -0.63135E+03         0.96655E+02         0.00000E+00
    0.00000E+00         0.00000E+00        -0.21896E+03
 
   -0.97645E+03        -0.63860E+03         0.00000E+00
   -0.63860E+03         0.11869E+03         0.00000E+00
    0.00000E+00         0.00000E+00        -0.34706E+03
 
   -0.13519E+04        -0.60571E+03         0.00000E+00
   -0.60571E+03         0.13264E+03         0.00000E+00
    0.00000E+00         0.00000E+00        -0.47104E+03
 
   -0.17001E+04        -0.53741E+03         0.00000E+00
   -0.53741E+03         0.13609E+03         0.00000E+00
    0.00000E+00         0.00000E+00        -0.58954E+03
 
   -0.20152E+04        -0.43857E+03         0.00000E+00
   -0.43857E+03         0.12737E+03         0.00000E+00
    0.00000E+00         0.00000E+00        -0.70131E+03
 
   -0.22930E+04        -0.31402E+03         0.00000E+00
   -0.31402E+03         0.10549E+03         0.00000E+00
    0.00000E+00         0.00000E+00        -0.80525E+03
 
   -0.25300E+04        -0.16840E+03         0.00000E+00
   -0.16840E+03         0.70054E+02         0.00000E+00
    0.00000E+00         0.00000E+00        -0.90039E+03
 
   -0.27236E+04        -0.60455E+01         0.00000E+00
   -0.60455E+01         0.21145E+02         0.00000E+00
    0.00000E+00         0.00000E+00        -0.98590E+03
 
   -0.28721E+04         0.16908E+03         0.00000E+00
    0.16908E+03        -0.40815E+02         0.00000E+00
    0.00000E+00         0.00000E+00        -0.10610E+04
 
   -0.29741E+04         0.35342E+03         0.00000E+00
    0.35342E+03        -0.11519E+03         0.00000E+00
    0.00000E+00         0.00000E+00        -0.11251E+04
 
   -0.30286E+04         0.54383E+03         0.00000E+00
    0.54383E+03        -0.20123E+03         0.00000E+00
    0.00000E+00         0.00000E+00        -0.11776E+04
 
   -0.30350E+04         0.73750E+03         0.00000E+00
    0.73750E+03        -0.29824E+03         0.00000E+00
    0.00000E+00         0.00000E+00        -0.12181E+04
 
   -0.29925E+04         0.93194E+03         0.00000E+00
    0.93194E+03        -0.40559E+03         0.00000E+00
    0.00000E+00         0.00000E+00        -0.12461E+04
 
   -0.29005E+04         0.11248E+04         0.00000E+00
    0.11248E+04        -0.52287E+03         0.00000E+00
    0.00000E+00         0.00000E+00        -0.12612E+04
 
   -0.27580E+04         0.13139E+04         0.00000E+00
    0.13139E+04        -0.64988E+03         0.00000E+00
    0.00000E+00         0.00000E+00        -0.12631E+04
 
   -0.25640E+04         0.14968E+04         0.00000E+00
    0.14968E+04        -0.78669E+03         0.00000E+00
    0.00000E+00         0.00000E+00        -0.12514E+04
 
   -0.23174E+04         0.16711E+04         0.00000E+00
    0.16711E+04        -0.93361E+03         0.00000E+00
    0.00000E+00         0.00000E+00        -0.12260E+04
 
   -0.20167E+04         0.18338E+04         0.00000E+00
    0.18338E+04        -0.10912E+04         0.00000E+00
    0.00000E+00         0.00000E+00        -0.11864E+04
 
   -0.16604E+04         0.19815E+04         0.00000E+00
    0.19815E+04        -0.12602E+04         0.00000E+00
    0.00000E+00         0.00000E+00        -0.11324E+04
 
   -0.12471E+04         0.21102E+04         0.00000E+00
    0.21102E+04        -0.14414E+04         0.00000E+00
    0.00000E+00         0.00000E+00        -0.10639E+04
 
    0.80819E+03        -0.11486E+03         0.00000E+00
   -0.11486E+03         0.33046E+01         0.00000E+00
    0.00000E+00         0.00000E+00         0.23534E+03
 
    0.47242E+03        -0.30746E+03         0.00000E+00
   -0.30746E+03         0.18146E+02         0.00000E+00
    0.00000E+00         0.00000E+00         0.12283E+03
 
    0.11716E+03        -0.45201E+03         0.00000E+00
   -0.45201E+03         0.42830E+02         0.00000E+00
    0.00000E+00         0.00000E+00         0.74773E+01
 
   -0.24731E+03        -0.55005E+03         0.00000E+00
   -0.55005E+03         0.72443E+02         0.00000E+00
    0.00000E+00         0.00000E+00        -0.10904E+03
 
   -0.61148E+03        -0.60400E+03         0.00000E+00
   -0.60400E+03         0.10261E+03         0.00000E+00
    0.00000E+00         0.00000E+00        -0.22511E+03
 
   -0.96679E+03        -0.61696E+03         0.00000E+00
   -0.61696E+03         0.12956E+03         0.00000E+00
    0.00000E+00         0.00000E+00        -0.33922E+03
 
   -0.13057E+04        -0.59259E+03         0.00000E+00
   -0.59259E+03         0.15020E+03         0.00000E+00
    0.00000E+00         0.00000E+00        -0.44996E+03
 
   -0.16217E+04        -0.53489E+03         0.00000E+00
   -0.53489E+03         0.16207E+03         0.00000E+00
    0.00000E+00         0.00000E+00        -0.55604E+03
 
   -0.19093E+04        -0.44806E+03         0.00000E+00
   -0.44806E+03         0.16338E+03         0.00000E+00
    0.00000E+00         0.00000E+00        -0.65630E+03
 
   -0.21639E+04        -0.33632E+03         0.00000E+00
   -0.33632E+03         0.15292E+03         0.00000E+00
    0.00000E+00         0.00000E+00        -0.74966E+03
 
   -0.23821E+04        -0.20382E+03         0.00000E+00
   -0.20382E+03         0.13001E+03         0.00000E+00
    0.00000E+00         0.00000E+00        -0.83519E+03
 
   -0.25609E+04        -0.54482E+02         0.00000E+00
   -0.54482E+02         0.94407E+02         0.00000E+00
    0.00000E+00         0.00000E+00        -0.91206E+03
 
   -0.26982E+04         0.10800E+03         0.00000E+00
    0.10800E+03         0.46179E+02         0.00000E+00
    0.00000E+00         0.00000E+00        -0.97952E+03
 
   -0.27922E+04         0.28023E+03         0.00000E+00
    0.28023E+03        -0.14364E+02         0.00000E+00
    0.00000E+00         0.00000E+00        -0.10369E+04
 
   -0.28418E+04         0.45913E+03         0.00000E+00
    0.45913E+03        -0.86792E+02         0.00000E+00
    0.00000E+00         0.00000E+00        -0.10838E+04
 
   -0.28460E+04         0.64186E+03         0.00000E+00
    0.64186E+03        -0.17064E+03         0.00000E+00
    0.00000E+00         0.00000E+00        -0.11195E+04
 
   -0.28037E+04         0.82581E+03         0.00000E+00
    0.82581E+03        -0.26548E+03         0.00000E+00
    0.00000E+00         0.00000E+00        -0.11437E+04
 
   -0.27143E+04         0.10085E+04         0.00000E+00
    0.10085E+04        -0.37100E+03         0.00000E+00
    0.00000E+00         0.00000E+00        -0.11559E+04
 
   -0.25767E+04         0.11874E+04         0.00000E+00
    0.11874E+04        -0.48703E+03         0.00000E+00
    0.00000E+00         0.00000E+00        -0.11559E+04
 
   -0.23903E+04         0.13601E+04         0.00000E+00
    0.13601E+04        -0.61355E+03         0.00000E+00
    0.00000E+00         0.00000E+00        -0.11434E+04
 
   -0.21539E+04         0.15237E+04         0.00000E+00
    0.15237E+04        -0.75074E+03         0.00000E+00
    0.00000E+00         0.00000E+00        -0.11180E+04
 
   -0.18667E+04         0.16754E+04         0.00000E+00
    0.16754E+04        -0.89888E+03         0.00000E+00
    0.00000E+00         0.00000E+00        -0.10796E+04
 
   -0.15277E+04         0.18114E+04         0.00000E+00
    0.18114E+04        -0.10583E+04         0.00000E+00
    0.00000E+00         0.00000E+00        -0.10279E+04
 
   -0.11360E+04         0.19279E+04         0.00000E+00
    0.19279E+04        -0.12295E+04         0.00000E+00
    0.00000E+00         0.00000E+00        -0.96285E+03
 
    0.59887E+03        -0.10659E+03         0.00000E+00
   -0.10659E+03         0.32565E+01         0.00000E+00
    0.00000E+00         0.00000E+00         0.17269E+03
 
    0.30897E+03        -0.28663E+03         0.00000E+00
   -0.28663E+03         0.18055E+02         0.00000E+00
    0.00000E+00         0.00000E+00         0.74251E+02
 
   -0.12792E+01        -0.42355E+03         0.00000E+00
   -0.42355E+03         0.43104E+02         0.00000E+00
    0.00000E+00         0.00000E+00        -0.27186E+02
 
   -0.32247E+03        -0.51843E+03         0.00000E+00
   -0.51843E+03         0.73898E+02         0.00000E+00
    0.00000E+00         0.00000E+00        -0.13007E+03
 
   -0.64587E+03        -0.57316E+03         0.00000E+00
   -0.57316E+03         0.10638E+03         0.00000E+00
    0.00000E+00         0.00000E+00        -0.23294E+03
 
   -0.96351E+03        -0.59026E+03         0.00000E+00
   -0.59026E+03         0.13700E+03         0.00000E+00
    0.00000E+00         0.00000E+00        -0.33437E+03
 
   -0.12683E+04        -0.57279E+03         0.00000E+00
   -0.57279E+03         0.16278E+03         0.00000E+00
    0.00000E+00         0.00000E+00        -0.43307E+03
 
   -0.15539E+04        -0.52412E+03         0.00000E+00
   -0.52412E+03         0.18126E+03         0.00000E+00
    0.00000E+00         0.00000E+00        -0.52783E+03
 
   -0.18151E+04        -0.44787E+03         0.00000E+00
   -0.44787E+03         0.19059E+03         0.00000E+00
    0.00000E+00         0.00000E+00        -0.61754E+03
 
   -0.20474E+04        -0.34774E+03         0.00000E+00
   -0.34774E+03         0.18938E+03         0.00000E+00
    0.00000E+00         0.00000E+00        -0.70118E+03
 
   -0.22469E+04        -0.22743E+03         0.00000E+00
   -0.22743E+03         0.17676E+03         0.00000E+00
    0.00000E+00         0.00000E+00        -0.77785E+03
 
   -0.24108E+04        -0.90496E+02         0.00000E+00
   -0.90496E+02         0.15220E+03         0.00000E+00
    0.00000E+00         0.00000E+00        -0.84673E+03
 
   -0.25365E+04         0.59648E+02         0.00000E+00
    0.59648E+02         0.11551E+03         0.00000E+00
    0.00000E+00         0.00000E+00        -0.90711E+03
 
   -0.26223E+04         0.21980E+03         0.00000E+00
    0.21980E+03         0.66720E+02         0.00000E+00
    0.00000E+00         0.00000E+00        -0.95835E+03
 
   -0.26665E+04         0.38695E+03         0.00000E+00
    0.38695E+03         0.60225E+01         0.00000E+00
    0.00000E+00         0.00000E+00        -0.99988E+03
 
   -0.26679E+04         0.55830E+03         0.00000E+00
    0.55830E+03        -0.66330E+02         0.00000E+00
    0.00000E+00         0.00000E+00        -0.10312E+04
 
   -0.26256E+04         0.73118E+03         0.00000E+00
    0.73118E+03        -0.15007E+03         0.00000E+00
    0.00000E+00         0.00000E+00        -0.10519E+04
 
   -0.25385E+04         0.90300E+03         0.00000E+00
    0.90300E+03        -0.24497E+03         0.00000E+00
    0.00000E+00         0.00000E+00        -0.10616E+04
 
   -0.24060E+04         0.10712E+04         0.00000E+00
    0.10712E+04        -0.35088E+03         0.00000E+00
    0.00000E+00         0.00000E+00        -0.10600E+04
 
   -0.22272E+04         0.12331E+04         0.00000E+00
    0.12331E+04        -0.46772E+03         0.00000E+00
    0.00000E+00         0.00000E+00        -0.10468E+04
 
   -0.20014E+04         0.13858E+04         0.00000E+00
    0.13858E+04        -0.59552E+03         0.00000E+00
    0.00000E+00         0.00000E+00        -0.10217E+04
 
   -0.17280E+04         0.15263E+04         0.00000E+00
    0.15263E+04        -0.73436E+03         0.00000E+00
    0.00000E+00         0.00000E+00        -0.98460E+03
 
   -0.14066E+04         0.16510E+04         0.00000E+00
    0.16510E+04        -0.88431E+03         0.00000E+00
    0.00000E+00         0.00000E+00        -0.93534E+03
 
   -0.10370E+04         0.17560E+04         0.00000E+00
    0.17560E+04        -0.10454E+04         0.00000E+00
    0.00000E+00         0.00000E+00        -0.87386E+03
 
    0.40464E+03        -0.98448E+02         0.00000E+00
   -0.98448E+02         0.31855E+01         0.00000E+00
    0.00000E+00         0.00000E+00         0.11455E+03
 
    0.15574E+03        -0.26584E+03         0.00000E+00
   -0.26584E+03         0.17803E+02         0.00000E+00
    0.00000E+00         0.00000E+00         0.28668E+02
 
   -0.11401E+03        -0.39460E+03         0.00000E+00
   -0.39460E+03         0.42896E+02         0.00000E+00
    0.00000E+00         0.00000E+00        -0.60308E+02
 
   -0.39600E+03        -0.48545E+03         0.00000E+00
   -0.48545E+03         0.74330E+02         0.00000E+00
    0.00000E+00         0.00000E+00        -0.15096E+03
 
   -0.68217E+03        -0.53984E+03         0.00000E+00
   -0.53984E+03         0.10834E+03         0.00000E+00
    0.00000E+00         0.00000E+00        -0.24192E+03
 
   -0.96513E+03        -0.55979E+03         0.00000E+00
   -0.55979E+03         0.14159E+03         0.00000E+00
    0.00000E+00         0.00000E+00        -0.33191E+03
 
   -0.12382E+04        -0.54783E+03         0.00000E+00
   -0.54783E+03         0.17121E+03         0.00000E+00
    0.00000E+00         0.00000E+00        -0.41969E+03
 
   -0.14954E+04        -0.50684E+03         0.00000E+00
   -0.50684E+03         0.19480E+03         0.00000E+00
    0.00000E+00         0.00000E+00        -0.50415E+03
 
   -0.17316E+04        -0.43993E+03         0.00000E+00
   -0.43993E+03         0.21044E+03         0.00000E+00
    0.00000E+00         0.00000E+00        -0.58423E+03
 
   -0.19423E+04        -0.35034E+03         0.00000E+00
   -0.35034E+03         0.21666E+03         0.00000E+00
    0.00000E+00         0.00000E+00        -0.65897E+03
 
   -0.21237E+04        -0.24134E+03         0.00000E+00
   -0.24134E+03         0.21239E+03         0.00000E+00
    0.00000E+00         0.00000E+00        -0.72751E+03
 
   -0.22728E+04        -0.11617E+03         0.00000E+00
   -0.11617E+03         0.19693E+03         0.00000E+00
    0.00000E+00         0.00000E+00        -0.78906E+03
 
   -0.23870E+04         0.22027E+02         0.00000E+00
    0.22027E+02         0.16987E+03         0.00000E+00
    0.00000E+00         0.00000E+00        -0.84292E+03
 
   -0.24642E+04         0.17024E+03         0.00000E+00
    0.17024E+03         0.13102E+03         0.00000E+00
    0.00000E+00         0.00000E+00        -0.88846E+03
 
   -0.25028E+04         0.32560E+03         0.00000E+00
    0.32560E+03         0.80376E+02         0.00000E+00
    0.00000E+00         0.00000E+00        -0.92514E+03
 
   -0.25012E+04         0.48534E+03         0.00000E+00
    0.48534E+03         0.18015E+02         0.00000E+00
    0.00000E+00         0.00000E+00        -0.95247E+03
 
   -0.24585E+04         0.64681E+03         0.00000E+00
    0.64681E+03        -0.55919E+02         0.00000E+00
    0.00000E+00         0.00000E+00        -0.97003E+03
 
   -0.23738E+04         0.80740E+03         0.00000E+00
    0.80740E+03        -0.14127E+03         0.00000E+00
    0.00000E+00         0.00000E+00        -0.97745E+03
 
   -0.22461E+04         0.96448E+03         0.00000E+00
    0.96448E+03        -0.23791E+03         0.00000E+00
    0.00000E+00         0.00000E+00        -0.97444E+03
 
   -0.20750E+04         0.11153E+04         0.00000E+00
    0.11153E+04        -0.34570E+03         0.00000E+00
    0.00000E+00         0.00000E+00        -0.96073E+03
 
   -0.18599E+04         0.12571E+04         0.00000E+00
    0.12571E+04        -0.46457E+03         0.00000E+00
    0.00000E+00         0.00000E+00        -0.93612E+03
 
   -0.16005E+04         0.13866E+04         0.00000E+00
    0.13866E+04        -0.59438E+03         0.00000E+00
    0.00000E+00         0.00000E+00        -0.90046E+03
 
   -0.12967E+04         0.15004E+04         0.00000E+00
    0.15004E+04        -0.73499E+03         0.00000E+00
    0.00000E+00         0.00000E+00        -0.85368E+03
 
   -0.94888E+03         0.15946E+04         0.00000E+00
    0.15946E+04        -0.88612E+03         0.00000E+00
    0.00000E+00         0.00000E+00        -0.79574E+03
 
    0.22530E+03        -0.90501E+02         0.00000E+00
   -0.90501E+02         0.30964E+01         0.00000E+00
    0.00000E+00         0.00000E+00         0.60875E+02
 
    0.12955E+02        -0.24530E+03         0.00000E+00
   -0.24530E+03         0.17422E+02         0.00000E+00
    0.00000E+00         0.00000E+00        -0.13836E+02
 
   -0.22044E+03        -0.36556E+03         0.00000E+00
   -0.36556E+03         0.42299E+02         0.00000E+00
    0.00000E+00         0.00000E+00        -0.91684E+02
 
   -0.46699E+03        -0.45173E+03         0.00000E+00
   -0.45173E+03         0.73932E+02         0.00000E+00
    0.00000E+00         0.00000E+00        -0.17137E+03
 
   -0.71928E+03        -0.50486E+03         0.00000E+00
   -0.50486E+03         0.10883E+03         0.00000E+00
    0.00000E+00         0.00000E+00        -0.25164E+03
 
   -0.97043E+03        -0.52660E+03         0.00000E+00
   -0.52660E+03         0.14385E+03         0.00000E+00
    0.00000E+00         0.00000E+00        -0.33130E+03
 
   -0.12142E+04        -0.51902E+03         0.00000E+00
   -0.51902E+03         0.17624E+03         0.00000E+00
    0.00000E+00         0.00000E+00        -0.40922E+03
 
   -0.14448E+04        -0.48455E+03         0.00000E+00
   -0.48455E+03         0.20367E+03         0.00000E+00
    0.00000E+00         0.00000E+00        -0.48434E+03
 
   -0.16575E+04        -0.42588E+03         0.00000E+00
   -0.42588E+03         0.22420E+03         0.00000E+00
    0.00000E+00         0.00000E+00        -0.55567E+03
 
   -0.18477E+04        -0.34584E+03         0.00000E+00
   -0.34584E+03         0.23628E+03         0.00000E+00
    0.00000E+00         0.00000E+00        -0.62231E+03
 
   -0.20117E+04        -0.24734E+03         0.00000E+00
   -0.24734E+03         0.23874E+03         0.00000E+00
    0.00000E+00         0.00000E+00        -0.68343E+03
 
   -0.21465E+04        -0.13330E+03         0.00000E+00
   -0.13330E+03         0.23072E+03         0.00000E+00
    0.00000E+00         0.00000E+00        -0.73827E+03
 
   -0.22493E+04        -0.66108E+01         0.00000E+00
   -0.66108E+01         0.21164E+03         0.00000E+00
    0.00000E+00         0.00000E+00        -0.78616E+03
 
   -0.23180E+04         0.12992E+03         0.00000E+00
    0.12992E+03         0.18115E+03         0.00000E+00
    0.00000E+00         0.00000E+00        -0.82649E+03
 
   -0.23507E+04         0.27356E+03         0.00000E+00
    0.27356E+03         0.13907E+03         0.00000E+00
    0.00000E+00         0.00000E+00        -0.85874E+03
 
   -0.23461E+04         0.42164E+03         0.00000E+00
    0.42164E+03         0.85360E+02         0.00000E+00
    0.00000E+00         0.00000E+00        -0.88242E+03
 
   -0.23029E+04         0.57157E+03         0.00000E+00
    0.57157E+03         0.20050E+02         0.00000E+00
    0.00000E+00         0.00000E+00        -0.89714E+03
 
   -0.22203E+04         0.72074E+03         0.00000E+00
    0.72074E+03        -0.56763E+02         0.00000E+00
    0.00000E+00         0.00000E+00        -0.90255E+03
 
   -0.20974E+04         0.86654E+03         0.00000E+00
    0.86654E+03        -0.14495E+03         0.00000E+00
    0.00000E+00         0.00000E+00        -0.89836E+03
 
   -0.19339E+04         0.10063E+04         0.00000E+00
    0.10063E+04        -0.24435E+03         0.00000E+00
    0.00000E+00         0.00000E+00        -0.88434E+03
 
   -0.17293E+04         0.11370E+04         0.00000E+00
    0.11370E+04        -0.35476E+03         0.00000E+00
    0.00000E+00         0.00000E+00        -0.86031E+03
 
   -0.14837E+04         0.12557E+04         0.00000E+00
    0.12557E+04        -0.47594E+03         0.00000E+00
    0.00000E+00         0.00000E+00        -0.82617E+03
 
   -0.11974E+04         0.13591E+04         0.00000E+00
    0.13591E+04        -0.60751E+03         0.00000E+00
    0.00000E+00         0.00000E+00        -0.78186E+03
 
   -0.87085E+03         0.14434E+04         0.00000E+00
    0.14434E+04        -0.74895E+03         0.00000E+00
    0.00000E+00         0.00000E+00        -0.72741E+03
 
    0.60537E+02        -0.82789E+02         0.00000E+00
   -0.82789E+02         0.29936E+01         0.00000E+00
    0.00000E+00         0.00000E+00         0.11558E+02
 
   -0.11930E+03        -0.22515E+03         0.00000E+00
   -0.22515E+03         0.16941E+02         0.00000E+00
    0.00000E+00         0.00000E+00        -0.53230E+02
 
   -0.32013E+03        -0.33674E+03         0.00000E+00
   -0.33674E+03         0.41397E+02         0.00000E+00
    0.00000E+00         0.00000E+00        -0.12116E+03
 
   -0.53475E+03        -0.41774E+03         0.00000E+00
   -0.41774E+03         0.72873E+02         0.00000E+00
    0.00000E+00         0.00000E+00        -0.19105E+03
 
   -0.75630E+03        -0.46892E+03         0.00000E+00
   -0.46892E+03         0.10813E+03         0.00000E+00
    0.00000E+00         0.00000E+00        -0.26174E+03
 
   -0.97840E+03        -0.49157E+03         0.00000E+00
   -0.49157E+03         0.14421E+03         0.00000E+00
    0.00000E+00         0.00000E+00        -0.33213E+03
 
   -0.11952E+04        -0.48741E+03         0.00000E+00
   -0.48741E+03         0.17851E+03         0.00000E+00
    0.00000E+00         0.00000E+00        -0.40116E+03
 
   -0.14012E+04        -0.45848E+03         0.00000E+00
   -0.45848E+03         0.20873E+03         0.00000E+00
    0.00000E+00         0.00000E+00        -0.46784E+03
 
   -0.15918E+04        -0.40709E+03         0.00000E+00
   -0.40709E+03         0.23296E+03         0.00000E+00
    0.00000E+00         0.00000E+00        -0.53125E+03
 
   -0.17627E+04        -0.33572E+03         0.00000E+00
   -0.33572E+03         0.24960E+03         0.00000E+00
    0.00000E+00         0.00000E+00        -0.59054E+03
 
   -0.19102E+04        -0.24696E+03         0.00000E+00
   -0.24696E+03         0.25741E+03         0.00000E+00
    0.00000E+00         0.00000E+00        -0.64491E+03
 
   -0.20312E+04        -0.14343E+03         0.00000E+00
   -0.14343E+03         0.25541E+03         0.00000E+00
    0.00000E+00         0.00000E+00        -0.69364E+03
 
   -0.21230E+04        -0.27776E+02         0.00000E+00
   -0.27776E+02         0.24290E+03         0.00000E+00
    0.00000E+00         0.00000E+00        -0.73610E+03
 
   -0.21833E+04         0.97396E+02         0.00000E+00
    0.97396E+02         0.21939E+03         0.00000E+00
    0.00000E+00         0.00000E+00        -0.77169E+03
 
   -0.22104E+04         0.22951E+03         0.00000E+00
    0.22951E+03         0.18459E+03         0.00000E+00
    0.00000E+00         0.00000E+00        -0.79991E+03
 
   -0.22026E+04         0.36602E+03         0.00000E+00
    0.36602E+03         0.13833E+03         0.00000E+00
    0.00000E+00         0.00000E+00        -0.82030E+03
 
   -0.21588E+04         0.50441E+03         0.00000E+00
    0.50441E+03         0.80575E+02         0.00000E+00
    0.00000E+00         0.00000E+00        -0.83248E+03
 
   -0.20782E+04         0.64214E+03         0.00000E+00
    0.64214E+03         0.11374E+02         0.00000E+00
    0.00000E+00         0.00000E+00        -0.83612E+03
 
   -0.19600E+04         0.77666E+03         0.00000E+00
    0.77666E+03        -0.69151E+02         0.00000E+00
    0.00000E+00         0.00000E+00        -0.83094E+03
 
   -0.18038E+04         0.90528E+03         0.00000E+00
    0.90528E+03        -0.16080E+03         0.00000E+00
    0.00000E+00         0.00000E+00        -0.81675E+03
 
   -0.16095E+04         0.10252E+04         0.00000E+00
    0.10252E+04        -0.26331E+03         0.00000E+00
    0.00000E+00         0.00000E+00        -0.79340E+03
 
   -0.13774E+04         0.11335E+04         0.00000E+00
    0.11335E+04        -0.37628E+03         0.00000E+00
    0.00000E+00         0.00000E+00        -0.76079E+03
 
   -0.11079E+04         0.12270E+04         0.00000E+00
    0.12270E+04        -0.49920E+03         0.00000E+00
    0.00000E+00         0.00000E+00        -0.71892E+03
 
   -0.80195E+03         0.13022E+04         0.00000E+00
    0.13022E+04        -0.63136E+03         0.00000E+00
    0.00000E+00         0.00000E+00        -0.66785E+03
 
   -0.90056E+02        -0.75342E+02         0.00000E+00
   -0.75342E+02         0.28811E+01         0.00000E+00
    0.00000E+00         0.00000E+00        -0.33517E+02
 
   -0.24107E+03        -0.20552E+03         0.00000E+00
   -0.20552E+03         0.16387E+02         0.00000E+00
    0.00000E+00         0.00000E+00        -0.89521E+02
 
   -0.41283E+03        -0.30837E+03         0.00000E+00
   -0.30837E+03         0.40264E+02         0.00000E+00
    0.00000E+00         0.00000E+00        -0.14865E+03
 
   -0.59875E+03        -0.38388E+03         0.00000E+00
   -0.38388E+03         0.71307E+02         0.00000E+00
    0.00000E+00         0.00000E+00        -0.20981E+03
 
   -0.79251E+03        -0.43256E+03         0.00000E+00
   -0.43256E+03         0.10651E+03         0.00000E+00
    0.00000E+00         0.00000E+00        -0.27194E+03
 
   -0.98818E+03        -0.45542E+03         0.00000E+00
   -0.45542E+03         0.14309E+03         0.00000E+00
    0.00000E+00         0.00000E+00        -0.33402E+03
 
   -0.11802E+04        -0.45388E+03         0.00000E+00
   -0.45388E+03         0.17857E+03         0.00000E+00
    0.00000E+00         0.00000E+00        -0.39507E+03
 
   -0.13636E+04        -0.42964E+03         0.00000E+00
   -0.42964E+03         0.21073E+03         0.00000E+00
    0.00000E+00         0.00000E+00        -0.45416E+03
 
   -0.15338E+04        -0.38470E+03         0.00000E+00
   -0.38470E+03         0.23768E+03         0.00000E+00
    0.00000E+00         0.00000E+00        -0.51043E+03
 
   -0.16866E+04        -0.32123E+03         0.00000E+00
   -0.32123E+03         0.25780E+03         0.00000E+00
    0.00000E+00         0.00000E+00        -0.56307E+03
 
   -0.18186E+04        -0.24149E+03         0.00000E+00
   -0.24149E+03         0.26980E+03         0.00000E+00
    0.00000E+00         0.00000E+00        -0.61134E+03
 
   -0.19265E+04        -0.14787E+03         0.00000E+00
   -0.14787E+03         0.27263E+03         0.00000E+00
    0.00000E+00         0.00000E+00        -0.65454E+03
 
   -0.20077E+04        -0.42766E+02         0.00000E+00
   -0.42766E+02         0.26548E+03         0.00000E+00
    0.00000E+00         0.00000E+00        -0.69208E+03
 
   -0.20600E+04         0.71418E+02         0.00000E+00
    0.71418E+02         0.24777E+03         0.00000E+00
    0.00000E+00         0.00000E+00        -0.72338E+03
 
   -0.20814E+04         0.19227E+03         0.00000E+00
    0.19227E+03         0.21910E+03         0.00000E+00
    0.00000E+00         0.00000E+00        -0.74797E+03
 
   -0.20706E+04         0.31739E+03         0.00000E+00
    0.31739E+03         0.17924E+03         0.00000E+00
    0.00000E+00         0.00000E+00        -0.76540E+03
 
   -0.20262E+04         0.44436E+03         0.00000E+00
    0.44436E+03         0.12809E+03         0.00000E+00
    0.00000E+00         0.00000E+00        -0.77532E+03
 
   -0.19474E+04         0.57077E+03         0.00000E+00
    0.57077E+03         0.65640E+02         0.00000E+00
    0.00000E+00         0.00000E+00        -0.77740E+03
 
   -0.18336E+04         0.69411E+03         0.00000E+00
    0.69411E+03        -0.79712E+01         0.00000E+00
    0.00000E+00         0.00000E+00        -0.77142E+03
 
   -0.16845E+04         0.81183E+03         0.00000E+00
    0.81183E+03        -0.92522E+02         0.00000E+00
    0.00000E+00         0.00000E+00        -0.75717E+03
 
   -0.15002E+04         0.92124E+03         0.00000E+00
    0.92124E+03        -0.18767E+03         0.00000E+00
    0.00000E+00         0.00000E+00        -0.73454E+03
 
   -0.12810E+04         0.10195E+04         0.00000E+00
    0.10195E+04        -0.29293E+03         0.00000E+00
    0.00000E+00         0.00000E+00        -0.70347E+03
 
   -0.10277E+04         0.11036E+04         0.00000E+00
    0.11036E+04        -0.40767E+03         0.00000E+00
    0.00000E+00         0.00000E+00        -0.66397E+03
 
   -0.74134E+03         0.11703E+04         0.00000E+00
    0.11703E+04        -0.53101E+03         0.00000E+00
    0.00000E+00         0.00000E+00        -0.61612E+03
 
   -0.22694E+03        -0.68182E+02         0.00000E+00
   -0.68182E+02         0.27627E+01         0.00000E+00
    0.00000E+00         0.00000E+00        -0.74487E+02
 
   -0.35248E+03        -0.18651E+03         0.00000E+00
   -0.18651E+03         0.15784E+02         0.00000E+00
    0.00000E+00         0.00000E+00        -0.12274E+03
 
   -0.49839E+03        -0.28065E+03         0.00000E+00
   -0.28065E+03         0.38968E+02         0.00000E+00
    0.00000E+00         0.00000E+00        -0.17408E+03
 
   -0.65862E+03        -0.35044E+03         0.00000E+00
   -0.35044E+03         0.69369E+02         0.00000E+00
    0.00000E+00         0.00000E+00        -0.22749E+03
 
   -0.82737E+03        -0.39620E+03         0.00000E+00
   -0.39620E+03         0.10419E+03         0.00000E+00
    0.00000E+00         0.00000E+00        -0.28200E+03
 
   -0.99910E+03        -0.41872E+03         0.00000E+00
   -0.41872E+03         0.14083E+03         0.00000E+00
    0.00000E+00         0.00000E+00        -0.33667E+03
 
   -0.11687E+04        -0.41913E+03         0.00000E+00
   -0.41913E+03         0.17692E+03         0.00000E+00
    0.00000E+00         0.00000E+00        -0.39058E+03
 
   -0.13313E+04        -0.39887E+03         0.00000E+00
   -0.39887E+03         0.21033E+03         0.00000E+00
    0.00000E+00         0.00000E+00        -0.44287E+03
 
   -0.14826E+04        -0.35966E+03         0.00000E+00
   -0.35966E+03         0.23919E+03         0.00000E+00
    0.00000E+00         0.00000E+00        -0.49273E+03
 
   -0.16187E+04        -0.30337E+03         0.00000E+00
   -0.30337E+03         0.26191E+03         0.00000E+00
    0.00000E+00         0.00000E+00        -0.53939E+03
 
   -0.17361E+04        -0.23202E+03         0.00000E+00
   -0.23202E+03         0.27714E+03         0.00000E+00
    0.00000E+00         0.00000E+00        -0.58217E+03
 
   -0.18317E+04        -0.14774E+03         0.00000E+00
   -0.14774E+03         0.28378E+03         0.00000E+00
    0.00000E+00         0.00000E+00        -0.62040E+03
 
   -0.19030E+04        -0.52690E+02         0.00000E+00
   -0.52690E+02         0.28097E+03         0.00000E+00
    0.00000E+00         0.00000E+00        -0.65350E+03
 
   -0.19476E+04         0.50907E+02         0.00000E+00
    0.50907E+02         0.26805E+03         0.00000E+00
    0.00000E+00         0.00000E+00        -0.68094E+03
 
   -0.19637E+04         0.16082E+03         0.00000E+00
    0.16082E+03         0.24454E+03         0.00000E+00
    0.00000E+00         0.00000E+00        -0.70227E+03
 
   -0.19498E+04         0.27480E+03         0.00000E+00
    0.27480E+03         0.21016E+03         0.00000E+00
    0.00000E+00         0.00000E+00        -0.71706E+03
 
   -0.19048E+04         0.39058E+03         0.00000E+00
    0.39058E+03         0.16473E+03         0.00000E+00
    0.00000E+00         0.00000E+00        -0.72496E+03
 
   -0.18278E+04         0.50584E+03         0.00000E+00
    0.50584E+03         0.10826E+03         0.00000E+00
    0.00000E+00         0.00000E+00        -0.72571E+03
 
   -0.17182E+04         0.61823E+03         0.00000E+00
    0.61823E+03         0.40853E+02         0.00000E+00
    0.00000E+00         0.00000E+00        -0.71905E+03
 
   -0.15759E+04         0.72529E+03         0.00000E+00
    0.72529E+03        -0.37228E+02         0.00000E+00
    0.00000E+00         0.00000E+00        -0.70484E+03
 
   -0.14010E+04         0.82448E+03         0.00000E+00
    0.82448E+03        -0.12559E+03         0.00000E+00
    0.00000E+00         0.00000E+00        -0.68296E+03
 
   -0.11941E+04         0.91314E+03         0.00000E+00
    0.91314E+03        -0.22367E+03         0.00000E+00
    0.00000E+00         0.00000E+00        -0.65339E+03
 
   -0.95605E+03         0.98843E+03         0.00000E+00
    0.98843E+03        -0.33073E+03         0.00000E+00
    0.00000E+00         0.00000E+00        -0.61616E+03
 
   -0.68824E+03         0.10474E+04         0.00000E+00
    0.10474E+04        -0.44578E+03         0.00000E+00
    0.00000E+00         0.00000E+00        -0.57137E+03
 
   -0.35061E+03        -0.61319E+02         0.00000E+00
   -0.61319E+02         0.26418E+01         0.00000E+00
    0.00000E+00         0.00000E+00        -0.11150E+03
 
   -0.45373E+03        -0.16816E+03         0.00000E+00
   -0.16816E+03         0.15153E+02         0.00000E+00
    0.00000E+00         0.00000E+00        -0.15295E+03
 
   -0.57674E+03        -0.25370E+03         0.00000E+00
   -0.25370E+03         0.37569E+02         0.00000E+00
    0.00000E+00         0.00000E+00        -0.19741E+03
 
   -0.71409E+03        -0.31765E+03         0.00000E+00
   -0.31765E+03         0.67178E+02         0.00000E+00
    0.00000E+00         0.00000E+00        -0.24398E+03
 
   -0.86042E+03        -0.36020E+03         0.00000E+00
   -0.36020E+03         0.10138E+03         0.00000E+00
    0.00000E+00         0.00000E+00        -0.29174E+03
 
   -0.10106E+04        -0.38191E+03         0.00000E+00
   -0.38191E+03         0.13774E+03         0.00000E+00
    0.00000E+00         0.00000E+00        -0.33982E+03
 
   -0.11598E+04        -0.38372E+03         0.00000E+00
   -0.38372E+03         0.17400E+03         0.00000E+00
    0.00000E+00         0.00000E+00        -0.38737E+03
 
   -0.13035E+04        -0.36684E+03         0.00000E+00
   -0.36684E+03         0.20810E+03         0.00000E+00
    0.00000E+00         0.00000E+00        -0.43360E+03
 
   -0.14376E+04        -0.33272E+03         0.00000E+00
   -0.33272E+03         0.23824E+03         0.00000E+00
    0.00000E+00         0.00000E+00        -0.47773E+03
 
   -0.15582E+04        -0.28299E+03         0.00000E+00
   -0.28299E+03         0.26282E+03         0.00000E+00
    0.00000E+00         0.00000E+00        -0.51906E+03
 
   -0.16622E+04        -0.21944E+03         0.00000E+00
   -0.21944E+03         0.28049E+03         0.00000E+00
    0.00000E+00         0.00000E+00        -0.55691E+03
 
   -0.17464E+04        -0.14395E+03         0.00000E+00
   -0.14395E+03         0.29012E+03         0.00000E+00
    0.00000E+00         0.00000E+00        -0.59068E+03
 
   -0.18083E+04        -0.58488E+02         0.00000E+00
   -0.58488E+02         0.29078E+03         0.00000E+00
    0.00000E+00         0.00000E+00        -0.61982E+03
 
   -0.18458E+04         0.34935E+02         0.00000E+00
    0.34935E+02         0.28178E+03         0.00000E+00
    0.00000E+00         0.00000E+00        -0.64381E+03
 
   -0.18569E+04         0.13427E+03         0.00000E+00
    0.13427E+03         0.26259E+03         0.00000E+00
    0.00000E+00         0.00000E+00        -0.66222E+03
 
   -0.18401E+04         0.23742E+03         0.00000E+00
    0.23742E+03         0.23286E+03         0.00000E+00
    0.00000E+00         0.00000E+00        -0.67466E+03
 
   -0.17945E+04         0.34227E+03         0.00000E+00
    0.34227E+03         0.19240E+03         0.00000E+00
    0.00000E+00         0.00000E+00        -0.68080E+03
 
   -0.17191E+04         0.44665E+03         0.00000E+00
    0.44665E+03         0.14118E+03         0.00000E+00
    0.00000E+00         0.00000E+00        -0.68038E+03
 
   -0.16134E+04         0.54835E+03         0.00000E+00
    0.54835E+03         0.79321E+02         0.00000E+00
    0.00000E+00         0.00000E+00        -0.67319E+03
 
   -0.14775E+04         0.64507E+03         0.00000E+00
    0.64507E+03         0.70986E+01         0.00000E+00
    0.00000E+00         0.00000E+00        -0.65908E+03
 
   -0.13116E+04         0.73441E+03         0.00000E+00
    0.73441E+03        -0.75049E+02         0.00000E+00
    0.00000E+00         0.00000E+00        -0.63797E+03
 
   -0.11162E+04         0.81391E+03         0.00000E+00
    0.81391E+03        -0.16650E+03         0.00000E+00
    0.00000E+00         0.00000E+00        -0.60984E+03
 
   -0.89246E+03         0.88094E+03         0.00000E+00
    0.88094E+03        -0.26643E+03         0.00000E+00
    0.00000E+00         0.00000E+00        -0.57475E+03
 
   -0.64192E+03         0.93276E+03         0.00000E+00
    0.93276E+03        -0.37378E+03         0.00000E+00
    0.00000E+00         0.00000E+00        -0.53282E+03
 
   -0.46159E+03        -0.54759E+02         0.00000E+00
   -0.54759E+02         0.25214E+01         0.00000E+00
    0.00000E+00         0.00000E+00        -0.14472E+03
 
   -0.54508E+03        -0.15051E+03         0.00000E+00
   -0.15051E+03         0.14514E+02         0.00000E+00
    0.00000E+00         0.00000E+00        -0.18021E+03
 
   -0.64791E+03        -0.22760E+03         0.00000E+00
   -0.22760E+03         0.36121E+02         0.00000E+00
    0.00000E+00         0.00000E+00        -0.21865E+03
 
   -0.76498E+03        -0.28567E+03         0.00000E+00
   -0.28567E+03         0.64843E+02         0.00000E+00
    0.00000E+00         0.00000E+00        -0.25919E+03
 
   -0.89134E+03        -0.32478E+03         0.00000E+00
   -0.32478E+03         0.98264E+02         0.00000E+00
    0.00000E+00         0.00000E+00        -0.30100E+03
 
   -0.10222E+04        -0.34534E+03         0.00000E+00
   -0.34534E+03         0.13409E+03         0.00000E+00
    0.00000E+00         0.00000E+00        -0.34326E+03
 
   -0.11531E+04        -0.34810E+03         0.00000E+00
   -0.34810E+03         0.17017E+03         0.00000E+00
    0.00000E+00         0.00000E+00        -0.38519E+03
 
   -0.12797E+04        -0.33408E+03         0.00000E+00
   -0.33408E+03         0.20455E+03         0.00000E+00
    0.00000E+00         0.00000E+00        -0.42603E+03
 
   -0.13981E+04        -0.30450E+03         0.00000E+00
   -0.30450E+03         0.23545E+03         0.00000E+00
    0.00000E+00         0.00000E+00        -0.46508E+03
 
   -0.15048E+04        -0.26078E+03         0.00000E+00
   -0.26078E+03         0.26132E+03         0.00000E+00
    0.00000E+00         0.00000E+00        -0.50166E+03
 
   -0.15964E+04        -0.20449E+03         0.00000E+00
   -0.20449E+03         0.28078E+03         0.00000E+00
    0.00000E+00         0.00000E+00        -0.53514E+03
 
   -0.16701E+04        -0.13729E+03         0.00000E+00
   -0.13729E+03         0.29270E+03         0.00000E+00
    0.00000E+00         0.00000E+00        -0.56494E+03
 
   -0.17234E+04        -0.60955E+02         0.00000E+00
   -0.60955E+02         0.29613E+03         0.00000E+00
    0.00000E+00         0.00000E+00        -0.59054E+03
 
   -0.17542E+04         0.22709E+02         0.00000E+00
    0.22709E+02         0.29032E+03         0.00000E+00
    0.00000E+00         0.00000E+00        -0.61146E+03
 
   -0.17606E+04         0.11183E+03         0.00000E+00
    0.11183E+03         0.27472E+03         0.00000E+00
    0.00000E+00         0.00000E+00        -0.62729E+03
 
   -0.17412E+04         0.20449E+03         0.00000E+00
    0.20449E+03         0.24893E+03         0.00000E+00
    0.00000E+00         0.00000E+00        -0.63766E+03
 
   -0.16949E+04         0.29872E+03         0.00000E+00
    0.29872E+03         0.21275E+03         0.00000E+00
    0.00000E+00         0.00000E+00        -0.64226E+03
 
   -0.16210E+04         0.39254E+03         0.00000E+00
    0.39254E+03         0.16613E+03         0.00000E+00
    0.00000E+00         0.00000E+00        -0.64084E+03
 
   -0.15191E+04         0.48386E+03         0.00000E+00
    0.48386E+03         0.10919E+03         0.00000E+00
    0.00000E+00         0.00000E+00        -0.63322E+03
 
   -0.13891E+04         0.57058E+03         0.00000E+00
    0.57058E+03         0.42239E+02         0.00000E+00
    0.00000E+00         0.00000E+00        -0.61926E+03
 
   -0.12314E+04         0.65047E+03         0.00000E+00
    0.65047E+03        -0.34265E+02         0.00000E+00
    0.00000E+00         0.00000E+00        -0.59890E+03
 
   -0.10468E+04         0.72126E+03         0.00000E+00
    0.72126E+03        -0.11965E+03         0.00000E+00
    0.00000E+00         0.00000E+00        -0.57214E+03
 
   -0.83631E+03         0.78055E+03         0.00000E+00
    0.78055E+03        -0.21303E+03         0.00000E+00
    0.00000E+00         0.00000E+00        -0.53905E+03
 
   -0.60170E+03         0.82586E+03         0.00000E+00
    0.82586E+03        -0.31329E+03         0.00000E+00
    0.00000E+00         0.00000E+00        -0.49976E+03
 
   -0.56043E+03        -0.48498E+02         0.00000E+00
   -0.48498E+02         0.24041E+01         0.00000E+00
    0.00000E+00         0.00000E+00        -0.17430E+03
 
   -0.62683E+03        -0.13358E+03         0.00000E+00
   -0.13358E+03         0.13884E+02         0.00000E+00
    0.00000E+00         0.00000E+00        -0.20461E+03
 
   -0.71197E+03        -0.20242E+03         0.00000E+00
   -0.20242E+03         0.34670E+02         0.00000E+00
    0.00000E+00         0.00000E+00        -0.23779E+03
 
   -0.81118E+03        -0.25461E+03         0.00000E+00
   -0.25461E+03         0.62455E+02         0.00000E+00
    0.00000E+00         0.00000E+00        -0.27307E+03
 
   -0.91987E+03        -0.29012E+03         0.00000E+00
   -0.29012E+03         0.94988E+02         0.00000E+00
    0.00000E+00         0.00000E+00        -0.30966E+03
 
   -0.10336E+04        -0.30925E+03         0.00000E+00
   -0.30925E+03         0.13011E+03         0.00000E+00
    0.00000E+00         0.00000E+00        -0.34681E+03
 
   -0.11481E+04        -0.31260E+03         0.00000E+00
   -0.31260E+03         0.16578E+03         0.00000E+00
    0.00000E+00         0.00000E+00        -0.38379E+03
 
   -0.12594E+04        -0.30099E+03         0.00000E+00
   -0.30099E+03         0.20011E+03         0.00000E+00
    0.00000E+00         0.00000E+00        -0.41990E+03
 
   -0.13637E+04        -0.27548E+03         0.00000E+00
   -0.27548E+03         0.23139E+03         0.00000E+00
    0.00000E+00         0.00000E+00        -0.45446E+03
 
   -0.14577E+04        -0.23729E+03         0.00000E+00
   -0.23729E+03         0.25807E+03         0.00000E+00
    0.00000E+00         0.00000E+00        -0.48684E+03
 
   -0.15381E+04        -0.18778E+03         0.00000E+00
   -0.18778E+03         0.27882E+03         0.00000E+00
    0.00000E+00         0.00000E+00        -0.51646E+03
 
   -0.16023E+04        -0.12841E+03         0.00000E+00
   -0.12841E+03         0.29247E+03         0.00000E+00
    0.00000E+00         0.00000E+00        -0.54275E+03
 
   -0.16477E+04        -0.60757E+02         0.00000E+00
   -0.60757E+02         0.29807E+03         0.00000E+00
    0.00000E+00         0.00000E+00        -0.56523E+03
 
   -0.16724E+04         0.13555E+02         0.00000E+00
    0.13555E+02         0.29484E+03         0.00000E+00
    0.00000E+00         0.00000E+00        -0.58345E+03
 
   -0.16745E+04         0.92837E+02         0.00000E+00
    0.92837E+02         0.28220E+03         0.00000E+00
    0.00000E+00         0.00000E+00        -0.59700E+03
 
   -0.16526E+04         0.17535E+03         0.00000E+00
    0.17535E+03         0.25973E+03         0.00000E+00
    0.00000E+00         0.00000E+00        -0.60556E+03
 
   -0.16058E+04         0.25931E+03         0.00000E+00
    0.25931E+03         0.22722E+03         0.00000E+00
    0.00000E+00         0.00000E+00        -0.60881E+03
 
   -0.15333E+04         0.34288E+03         0.00000E+00
    0.34288E+03         0.18460E+03         0.00000E+00
    0.00000E+00         0.00000E+00        -0.60655E+03
 
   -0.14348E+04         0.42418E+03         0.00000E+00
    0.42418E+03         0.13201E+03         0.00000E+00
    0.00000E+00         0.00000E+00        -0.59859E+03
 
   -0.13102E+04         0.50125E+03         0.00000E+00
    0.50125E+03         0.69757E+02         0.00000E+00
    0.00000E+00         0.00000E+00        -0.58481E+03
 
   -0.11602E+04         0.57209E+03         0.00000E+00
    0.57209E+03        -0.16681E+01         0.00000E+00
    0.00000E+00         0.00000E+00        -0.56518E+03
 
   -0.98535E+03         0.63461E+03         0.00000E+00
    0.63461E+03        -0.81558E+02         0.00000E+00
    0.00000E+00         0.00000E+00        -0.53969E+03
 
   -0.78705E+03         0.68666E+03         0.00000E+00
    0.68666E+03        -0.16899E+03         0.00000E+00
    0.00000E+00         0.00000E+00        -0.50844E+03
 
   -0.56699E+03         0.72601E+03         0.00000E+00
    0.72601E+03        -0.26279E+03         0.00000E+00
    0.00000E+00         0.00000E+00        -0.47158E+03
 
   -0.64763E+03        -0.42524E+02         0.00000E+00
   -0.42524E+02         0.22925E+01         0.00000E+00
    0.00000E+00         0.00000E+00        -0.20040E+03
 
   -0.69927E+03        -0.11734E+03         0.00000E+00
   -0.11734E+03         0.13278E+02         0.00000E+00
    0.00000E+00         0.00000E+00        -0.22624E+03
 
   -0.76904E+03        -0.17814E+03         0.00000E+00
   -0.17814E+03         0.33258E+02         0.00000E+00
    0.00000E+00         0.00000E+00        -0.25488E+03
 
   -0.85264E+03        -0.22450E+03         0.00000E+00
   -0.22450E+03         0.60097E+02         0.00000E+00
    0.00000E+00         0.00000E+00        -0.28558E+03
 
   -0.94582E+03        -0.25633E+03         0.00000E+00
   -0.25633E+03         0.91693E+02         0.00000E+00
    0.00000E+00         0.00000E+00        -0.31763E+03
 
   -0.10444E+04        -0.27382E+03         0.00000E+00
   -0.27382E+03         0.12601E+03         0.00000E+00
    0.00000E+00         0.00000E+00        -0.35034E+03
 
   -0.11445E+04        -0.27745E+03         0.00000E+00
   -0.27745E+03         0.16110E+03         0.00000E+00
    0.00000E+00         0.00000E+00        -0.38300E+03
 
   -0.12422E+04        -0.26790E+03         0.00000E+00
   -0.26790E+03         0.19516E+03         0.00000E+00
    0.00000E+00         0.00000E+00        -0.41497E+03
 
   -0.13339E+04        -0.24605E+03         0.00000E+00
   -0.24605E+03         0.22652E+03         0.00000E+00
    0.00000E+00         0.00000E+00        -0.44560E+03
 
   -0.14165E+04        -0.21295E+03         0.00000E+00
   -0.21295E+03         0.25368E+03         0.00000E+00
    0.00000E+00         0.00000E+00        -0.47431E+03
 
   -0.14870E+04        -0.16978E+03         0.00000E+00
   -0.16978E+03         0.27530E+03         0.00000E+00
    0.00000E+00         0.00000E+00        -0.50054E+03
 
   -0.15425E+04        -0.11782E+03         0.00000E+00
   -0.11782E+03         0.29024E+03         0.00000E+00
    0.00000E+00         0.00000E+00        -0.52376E+03
 
   -0.15809E+04        -0.58444E+02         0.00000E+00
   -0.58444E+02         0.29751E+03         0.00000E+00
    0.00000E+00         0.00000E+00        -0.54351E+03
 
   -0.16000E+04         0.69020E+01         0.00000E+00
    0.69020E+01         0.29635E+03         0.00000E+00
    0.00000E+00         0.00000E+00        -0.55935E+03
 
   -0.15982E+04         0.76713E+02         0.00000E+00
    0.76713E+02         0.28613E+03         0.00000E+00
    0.00000E+00         0.00000E+00        -0.57093E+03
 
   -0.15742E+04         0.14943E+03         0.00000E+00
    0.14943E+03         0.26645E+03         0.00000E+00
    0.00000E+00         0.00000E+00        -0.57790E+03
 
   -0.15268E+04         0.22345E+03         0.00000E+00
    0.22345E+03         0.23706E+03         0.00000E+00
    0.00000E+00         0.00000E+00        -0.58000E+03
 
   -0.14556E+04         0.29712E+03         0.00000E+00
    0.29712E+03         0.19791E+03         0.00000E+00
    0.00000E+00         0.00000E+00        -0.57702E+03
 
   -0.13601E+04         0.36873E+03         0.00000E+00
    0.36873E+03         0.14912E+03         0.00000E+00
    0.00000E+00         0.00000E+00        -0.56879E+03
 
   -0.12406E+04         0.43653E+03         0.00000E+00
    0.43653E+03         0.91014E+02         0.00000E+00
    0.00000E+00         0.00000E+00        -0.55522E+03
 
   -0.10974E+04         0.49871E+03         0.00000E+00
    0.49871E+03         0.24114E+02         0.00000E+00
    0.00000E+00         0.00000E+00        -0.53627E+03
 
   -0.93149E+03         0.55340E+03         0.00000E+00
    0.55340E+03        -0.50853E+02         0.00000E+00
    0.00000E+00         0.00000E+00        -0.51196E+03
 
   -0.74419E+03         0.59867E+03         0.00000E+00
    0.59867E+03        -0.13293E+03         0.00000E+00
    0.00000E+00         0.00000E+00        -0.48239E+03
 
   -0.53724E+03         0.63255E+03         0.00000E+00
    0.63255E+03        -0.22092E+03         0.00000E+00
    0.00000E+00         0.00000E+00        -0.44770E+03
 
   -0.72372E+03        -0.36821E+02         0.00000E+00
   -0.36821E+02         0.21884E+01         0.00000E+00
    0.00000E+00         0.00000E+00        -0.22318E+03
 
   -0.76271E+03        -0.10178E+03         0.00000E+00
   -0.10178E+03         0.12709E+02         0.00000E+00
    0.00000E+00         0.00000E+00        -0.24519E+03
 
   -0.81925E+03        -0.15476E+03         0.00000E+00
   -0.15476E+03         0.31920E+02         0.00000E+00
    0.00000E+00         0.00000E+00        -0.26993E+03
 
   -0.88935E+03        -0.19536E+03         0.00000E+00
   -0.19536E+03         0.57839E+02         0.00000E+00
    0.00000E+00         0.00000E+00        -0.29670E+03
 
   -0.96906E+03        -0.22344E+03         0.00000E+00
   -0.22344E+03         0.88494E+02         0.00000E+00
    0.00000E+00         0.00000E+00        -0.32485E+03
 
   -0.10545E+04        -0.23913E+03         0.00000E+00
   -0.23913E+03         0.12196E+03         0.00000E+00
    0.00000E+00         0.00000E+00        -0.35371E+03
 
   -0.11419E+04        -0.24280E+03         0.00000E+00
   -0.24280E+03         0.15638E+03         0.00000E+00
    0.00000E+00         0.00000E+00        -0.38264E+03
 
   -0.12276E+04        -0.23500E+03         0.00000E+00
   -0.23500E+03         0.19002E+03         0.00000E+00
    0.00000E+00         0.00000E+00        -0.41103E+03
 
   -0.13084E+04        -0.21647E+03         0.00000E+00
   -0.21647E+03         0.22126E+03         0.00000E+00
    0.00000E+00         0.00000E+00        -0.43826E+03
 
   -0.13810E+04        -0.18810E+03         0.00000E+00
   -0.18810E+03         0.24863E+03         0.00000E+00
    0.00000E+00         0.00000E+00        -0.46379E+03
 
   -0.14425E+04        -0.15089E+03         0.00000E+00
   -0.15089E+03         0.27082E+03         0.00000E+00
    0.00000E+00         0.00000E+00        -0.48708E+03
 
   -0.14905E+04        -0.10595E+03         0.00000E+00
   -0.10595E+03         0.28668E+03         0.00000E+00
    0.00000E+00         0.00000E+00        -0.50764E+03
 
   -0.15225E+04        -0.54474E+02         0.00000E+00
   -0.54474E+02         0.29524E+03         0.00000E+00
    0.00000E+00         0.00000E+00        -0.52502E+03
 
   -0.15367E+04         0.22685E+01         0.00000E+00
    0.22685E+01         0.29571E+03         0.00000E+00
    0.00000E+00         0.00000E+00        -0.53881E+03
 
   -0.15315E+04         0.62959E+02         0.00000E+00
    0.62959E+02         0.28748E+03         0.00000E+00
    0.00000E+00         0.00000E+00        -0.54867E+03
 
   -0.15054E+04         0.12622E+03         0.00000E+00
    0.12622E+03         0.27010E+03         0.00000E+00
    0.00000E+00         0.00000E+00        -0.55429E+03
 
   -0.14576E+04         0.19064E+03         0.00000E+00
    0.19064E+03         0.24335E+03         0.00000E+00
    0.00000E+00         0.00000E+00        -0.55540E+03
 
   -0.13875E+04         0.25473E+03         0.00000E+00
    0.25473E+03         0.20716E+03         0.00000E+00
    0.00000E+00         0.00000E+00        -0.55182E+03
 
   -0.12948E+04         0.31700E+03         0.00000E+00
    0.31700E+03         0.16166E+03         0.00000E+00
    0.00000E+00         0.00000E+00        -0.54339E+03
 
   -0.11797E+04         0.37588E+03         0.00000E+00
    0.37588E+03         0.10719E+03         0.00000E+00
    0.00000E+00         0.00000E+00        -0.53003E+03
 
   -0.10427E+04         0.42977E+03         0.00000E+00
    0.42977E+03         0.44269E+02         0.00000E+00
    0.00000E+00         0.00000E+00        -0.51171E+03
 
   -0.88477E+03         0.47702E+03         0.00000E+00
    0.47702E+03        -0.26344E+02         0.00000E+00
    0.00000E+00         0.00000E+00        -0.48846E+03
 
   -0.70726E+03         0.51593E+03         0.00000E+00
    0.51593E+03        -0.10368E+03         0.00000E+00
    0.00000E+00         0.00000E+00        -0.46039E+03
 
   -0.51197E+03         0.54479E+03         0.00000E+00
    0.54479E+03        -0.18651E+03         0.00000E+00
    0.00000E+00         0.00000E+00        -0.42765E+03
 
   -0.78916E+03        -0.31369E+02         0.00000E+00
   -0.31369E+02         0.20938E+01         0.00000E+00
    0.00000E+00         0.00000E+00        -0.24276E+03
 
   -0.81746E+03        -0.86832E+02         0.00000E+00
   -0.86832E+02         0.12189E+02         0.00000E+00
    0.00000E+00         0.00000E+00        -0.26155E+03
 
   -0.86275E+03        -0.13223E+03         0.00000E+00
   -0.13223E+03         0.30688E+02         0.00000E+00
    0.00000E+00         0.00000E+00        -0.28298E+03
 
   -0.92133E+03        -0.16716E+03         0.00000E+00
   -0.16716E+03         0.55742E+02         0.00000E+00
    0.00000E+00         0.00000E+00        -0.30642E+03
 
   -0.98950E+03        -0.19147E+03         0.00000E+00
   -0.19147E+03         0.85493E+02         0.00000E+00
    0.00000E+00         0.00000E+00        -0.33125E+03
 
   -0.10636E+04        -0.20524E+03         0.00000E+00
   -0.20524E+03         0.11811E+03         0.00000E+00
    0.00000E+00         0.00000E+00        -0.35684E+03
 
   -0.11401E+04        -0.20874E+03         0.00000E+00
   -0.20874E+03         0.15183E+03         0.00000E+00
    0.00000E+00         0.00000E+00        -0.38259E+03
 
   -0.12155E+04        -0.20244E+03         0.00000E+00
   -0.20244E+03         0.18497E+03         0.00000E+00
    0.00000E+00         0.00000E+00        -0.40792E+03
 
   -0.12867E+04        -0.18694E+03         0.00000E+00
   -0.18694E+03         0.21596E+03         0.00000E+00
    0.00000E+00         0.00000E+00        -0.43225E+03
 
   -0.13506E+04        -0.16297E+03         0.00000E+00
   -0.16297E+03         0.24336E+03         0.00000E+00
    0.00000E+00         0.00000E+00        -0.45506E+03
 
   -0.14044E+04        -0.13138E+03         0.00000E+00
   -0.13138E+03         0.26588E+03         0.00000E+00
    0.00000E+00         0.00000E+00        -0.47583E+03
 
   -0.14457E+04        -0.93127E+02         0.00000E+00
   -0.93127E+02         0.28239E+03         0.00000E+00
    0.00000E+00         0.00000E+00        -0.49411E+03
 
   -0.14722E+04        -0.49220E+02         0.00000E+00
   -0.49220E+02         0.29192E+03         0.00000E+00
    0.00000E+00         0.00000E+00        -0.50947E+03
 
   -0.14821E+04        -0.74960E+00         0.00000E+00
   -0.74960E+00         0.29367E+03         0.00000E+00
    0.00000E+00         0.00000E+00        -0.52152E+03
 
   -0.14738E+04         0.51144E+02         0.00000E+00
    0.51144E+02         0.28703E+03         0.00000E+00
    0.00000E+00         0.00000E+00        -0.52992E+03
 
   -0.14460E+04         0.10527E+03         0.00000E+00
    0.10527E+03         0.27156E+03         0.00000E+00
    0.00000E+00         0.00000E+00        -0.53438E+03
 
   -0.13978E+04         0.16039E+03         0.00000E+00
    0.16039E+03         0.24701E+03         0.00000E+00
    0.00000E+00         0.00000E+00        -0.53466E+03
 
   -0.13287E+04         0.21523E+03         0.00000E+00
    0.21523E+03         0.21332E+03         0.00000E+00
    0.00000E+00         0.00000E+00        -0.53058E+03
 
   -0.12385E+04         0.26848E+03         0.00000E+00
    0.26848E+03         0.17064E+03         0.00000E+00
    0.00000E+00         0.00000E+00        -0.52200E+03
 
   -0.11273E+04         0.31877E+03         0.00000E+00
    0.31877E+03         0.11929E+03         0.00000E+00
    0.00000E+00         0.00000E+00        -0.50884E+03
 
   -0.99572E+03         0.36472E+03         0.00000E+00
    0.36472E+03         0.59818E+02         0.00000E+00
    0.00000E+00         0.00000E+00        -0.49109E+03
 
   -0.84478E+03         0.40489E+03         0.00000E+00
    0.40489E+03        -0.70069E+01         0.00000E+00
    0.00000E+00         0.00000E+00        -0.46879E+03
 
   -0.67585E+03         0.43783E+03         0.00000E+00
    0.43783E+03        -0.80199E+02         0.00000E+00
    0.00000E+00         0.00000E+00        -0.44203E+03
 
   -0.49076E+03         0.46205E+03         0.00000E+00
    0.46205E+03        -0.15854E+03         0.00000E+00
    0.00000E+00         0.00000E+00        -0.41099E+03
 
   -0.84440E+03        -0.26143E+02         0.00000E+00
   -0.26143E+02         0.20100E+01         0.00000E+00
    0.00000E+00         0.00000E+00        -0.25929E+03
 
   -0.86380E+03        -0.72455E+02         0.00000E+00
   -0.72455E+02         0.11726E+02         0.00000E+00
    0.00000E+00         0.00000E+00        -0.27540E+03
 
   -0.89969E+03        -0.11047E+03         0.00000E+00
   -0.11047E+03         0.29586E+02         0.00000E+00
    0.00000E+00         0.00000E+00        -0.29408E+03
 
   -0.94862E+03        -0.13982E+03         0.00000E+00
   -0.13982E+03         0.53855E+02         0.00000E+00
    0.00000E+00         0.00000E+00        -0.31474E+03
 
   -0.10071E+04        -0.16036E+03         0.00000E+00
   -0.16036E+03         0.82773E+02         0.00000E+00
    0.00000E+00         0.00000E+00        -0.33679E+03
 
   -0.10716E+04        -0.17212E+03         0.00000E+00
   -0.17212E+03         0.11460E+03         0.00000E+00
    0.00000E+00         0.00000E+00        -0.35964E+03
 
   -0.11389E+04        -0.17531E+03         0.00000E+00
   -0.17531E+03         0.14763E+03         0.00000E+00
    0.00000E+00         0.00000E+00        -0.38273E+03
 
   -0.12056E+04        -0.17030E+03         0.00000E+00
   -0.17030E+03         0.18024E+03         0.00000E+00
    0.00000E+00         0.00000E+00        -0.40549E+03
 
   -0.12686E+04        -0.15757E+03         0.00000E+00
   -0.15757E+03         0.21090E+03         0.00000E+00
    0.00000E+00         0.00000E+00        -0.42739E+03
 
   -0.13251E+04        -0.13773E+03         0.00000E+00
   -0.13773E+03         0.23822E+03         0.00000E+00
    0.00000E+00         0.00000E+00        -0.44791E+03
 
   -0.13723E+04        -0.11149E+03         0.00000E+00
   -0.11149E+03         0.26091E+03         0.00000E+00
    0.00000E+00         0.00000E+00        -0.46658E+03
 
   -0.14079E+04        -0.79622E+02         0.00000E+00
   -0.79622E+02         0.27786E+03         0.00000E+00
    0.00000E+00         0.00000E+00        -0.48295E+03
 
   -0.14298E+04        -0.42985E+02         0.00000E+00
   -0.42985E+02         0.28810E+03         0.00000E+00
    0.00000E+00         0.00000E+00        -0.49660E+03
 
   -0.14360E+04        -0.24910E+01         0.00000E+00
   -0.24910E+01         0.29085E+03         0.00000E+00
    0.00000E+00         0.00000E+00        -0.50718E+03
 
   -0.14250E+04         0.40897E+02         0.00000E+00
    0.40897E+02         0.28547E+03         0.00000E+00
    0.00000E+00         0.00000E+00        -0.51436E+03
 
   -0.13957E+04         0.86173E+02         0.00000E+00
    0.86173E+02         0.27154E+03         0.00000E+00
    0.00000E+00         0.00000E+00        -0.51786E+03
 
   -0.13472E+04         0.13229E+03         0.00000E+00
    0.13229E+03         0.24880E+03         0.00000E+00
    0.00000E+00         0.00000E+00        -0.51745E+03
 
   -0.12790E+04         0.17817E+03         0.00000E+00
    0.17817E+03         0.21720E+03         0.00000E+00
    0.00000E+00         0.00000E+00        -0.51297E+03
 
   -0.11908E+04         0.22268E+03         0.00000E+00
    0.22268E+03         0.17687E+03         0.00000E+00
    0.00000E+00         0.00000E+00        -0.50427E+03
 
   -0.10830E+04         0.26469E+03         0.00000E+00
    0.26469E+03         0.12816E+03         0.00000E+00
    0.00000E+00         0.00000E+00        -0.49131E+03
 
   -0.95611E+03         0.30301E+03         0.00000E+00
    0.30301E+03         0.71625E+02         0.00000E+00
    0.00000E+00         0.00000E+00        -0.47406E+03
 
   -0.81118E+03         0.33643E+03         0.00000E+00
    0.33643E+03         0.80301E+01         0.00000E+00
    0.00000E+00         0.00000E+00        -0.45257E+03
 
   -0.64961E+03         0.36373E+03         0.00000E+00
    0.36373E+03        -0.61626E+02         0.00000E+00
    0.00000E+00         0.00000E+00        -0.42695E+03
 
   -0.47324E+03         0.38366E+03         0.00000E+00
    0.38366E+03        -0.13612E+03         0.00000E+00
    0.00000E+00         0.00000E+00        -0.39737E+03
 
   -0.88980E+03        -0.21112E+02         0.00000E+00
   -0.21112E+02         0.19384E+01         0.00000E+00
    0.00000E+00         0.00000E+00        -0.27288E+03
 
   -0.90199E+03        -0.58574E+02         0.00000E+00
   -0.58574E+02         0.11330E+02         0.00000E+00
    0.00000E+00         0.00000E+00        -0.28682E+03
 
   -0.93023E+03        -0.89395E+02         0.00000E+00
   -0.89395E+02         0.28637E+02         0.00000E+00
    0.00000E+00         0.00000E+00        -0.30326E+03
 
   -0.97125E+03        -0.11326E+03         0.00000E+00
   -0.11326E+03         0.52221E+02         0.00000E+00
    0.00000E+00         0.00000E+00        -0.32165E+03
 
   -0.10218E+04        -0.13003E+03         0.00000E+00
   -0.13003E+03         0.80404E+02         0.00000E+00
    0.00000E+00         0.00000E+00        -0.34144E+03
 
   -0.10785E+04        -0.13972E+03         0.00000E+00
   -0.13972E+03         0.11151E+03         0.00000E+00
    0.00000E+00         0.00000E+00        -0.36206E+03
 
   -0.11381E+04        -0.14248E+03         0.00000E+00
   -0.14248E+03         0.14391E+03         0.00000E+00
    0.00000E+00         0.00000E+00        -0.38298E+03
 
   -0.11976E+04        -0.13859E+03         0.00000E+00
   -0.13859E+03         0.17601E+03         0.00000E+00
    0.00000E+00         0.00000E+00        -0.40364E+03
 
   -0.12539E+04        -0.12844E+03         0.00000E+00
   -0.12844E+03         0.20634E+03         0.00000E+00
    0.00000E+00         0.00000E+00        -0.42355E+03
 
   -0.13042E+04        -0.11251E+03         0.00000E+00
   -0.11251E+03         0.23351E+03         0.00000E+00
    0.00000E+00         0.00000E+00        -0.44220E+03
 
   -0.13460E+04        -0.91366E+02         0.00000E+00
   -0.91366E+02         0.25626E+03         0.00000E+00
    0.00000E+00         0.00000E+00        -0.45914E+03
 
   -0.13769E+04        -0.65635E+02         0.00000E+00
   -0.65635E+02         0.27350E+03         0.00000E+00
    0.00000E+00         0.00000E+00        -0.47394E+03
 
   -0.13948E+04        -0.36013E+02         0.00000E+00
   -0.36013E+02         0.28426E+03         0.00000E+00
    0.00000E+00         0.00000E+00        -0.48621E+03
 
   -0.13979E+04        -0.32399E+01         0.00000E+00
   -0.32399E+01         0.28775E+03         0.00000E+00
    0.00000E+00         0.00000E+00        -0.49558E+03
 
   -0.13848E+04         0.31899E+02         0.00000E+00
    0.31899E+02         0.28336E+03         0.00000E+00
    0.00000E+00         0.00000E+00        -0.50176E+03
 
   -0.13543E+04         0.68580E+02         0.00000E+00
    0.68580E+02         0.27065E+03         0.00000E+00
    0.00000E+00         0.00000E+00        -0.50448E+03
 
   -0.13055E+04         0.10595E+03         0.00000E+00
    0.10595E+03         0.24936E+03         0.00000E+00
    0.00000E+00         0.00000E+00        -0.50352E+03
 
   -0.12379E+04         0.14311E+03         0.00000E+00
    0.14311E+03         0.21945E+03         0.00000E+00
    0.00000E+00         0.00000E+00        -0.49871E+03
 
   -0.11516E+04         0.17916E+03         0.00000E+00
    0.17916E+03         0.18106E+03         0.00000E+00
    0.00000E+00         0.00000E+00        -0.48993E+03
 
   -0.10466E+04         0.21315E+03         0.00000E+00
    0.21315E+03         0.13452E+03         0.00000E+00
    0.00000E+00         0.00000E+00        -0.47714E+03
 
   -0.92358E+03         0.24412E+03         0.00000E+00
    0.24412E+03         0.80410E+02         0.00000E+00
    0.00000E+00         0.00000E+00        -0.46031E+03
 
   -0.78366E+03         0.27107E+03         0.00000E+00
    0.27107E+03         0.19493E+02         0.00000E+00
    0.00000E+00         0.00000E+00        -0.43951E+03
 
   -0.62822E+03         0.29301E+03         0.00000E+00
    0.29301E+03        -0.47226E+02         0.00000E+00
    0.00000E+00         0.00000E+00        -0.41484E+03
 
   -0.45911E+03         0.30894E+03         0.00000E+00
    0.30894E+03        -0.11852E+03         0.00000E+00
    0.00000E+00         0.00000E+00        -0.38647E+03
 
   -0.92572E+03        -0.16246E+02         0.00000E+00
   -0.16246E+02         0.18800E+01         0.00000E+00
    0.00000E+00         0.00000E+00        -0.28363E+03
 
   -0.93226E+03        -0.45111E+02         0.00000E+00
   -0.45111E+02         0.11005E+02         0.00000E+00
    0.00000E+00         0.00000E+00        -0.29586E+03
 
   -0.95448E+03        -0.68904E+02         0.00000E+00
   -0.68904E+02         0.27858E+02         0.00000E+00
    0.00000E+00         0.00000E+00        -0.31056E+03
 
   -0.98929E+03        -0.87371E+02         0.00000E+00
   -0.87371E+02         0.50874E+02         0.00000E+00
    0.00000E+00         0.00000E+00        -0.32717E+03
 
   -0.10335E+04        -0.10039E+03         0.00000E+00
   -0.10039E+03         0.78444E+02         0.00000E+00
    0.00000E+00         0.00000E+00        -0.34518E+03
 
   -0.10840E+04        -0.10796E+03         0.00000E+00
   -0.10796E+03         0.10895E+03         0.00000E+00
    0.00000E+00         0.00000E+00        -0.36405E+03
 
   -0.11376E+04        -0.11020E+03         0.00000E+00
   -0.11020E+03         0.14080E+03         0.00000E+00
    0.00000E+00         0.00000E+00        -0.38325E+03
 
   -0.11914E+04        -0.10730E+03         0.00000E+00
   -0.10730E+03         0.17246E+03         0.00000E+00
    0.00000E+00         0.00000E+00        -0.40227E+03
 
   -0.12423E+04        -0.99568E+02         0.00000E+00
   -0.99568E+02         0.20246E+03         0.00000E+00
    0.00000E+00         0.00000E+00        -0.42060E+03
 
   -0.12878E+04        -0.87363E+02         0.00000E+00
   -0.87363E+02         0.22946E+03         0.00000E+00
    0.00000E+00         0.00000E+00        -0.43778E+03
 
   -0.13252E+04        -0.71118E+02         0.00000E+00
   -0.71118E+02         0.25221E+03         0.00000E+00
    0.00000E+00         0.00000E+00        -0.45336E+03
 
   -0.13523E+04        -0.51319E+02         0.00000E+00
   -0.51319E+02         0.26963E+03         0.00000E+00
    0.00000E+00         0.00000E+00        -0.46693E+03
 
   -0.13671E+04        -0.28500E+02         0.00000E+00
   -0.28500E+02         0.28075E+03         0.00000E+00
    0.00000E+00         0.00000E+00        -0.47810E+03
 
   -0.13678E+04        -0.32354E+01         0.00000E+00
   -0.32354E+01         0.28479E+03         0.00000E+00
    0.00000E+00         0.00000E+00        -0.48653E+03
 
   -0.13529E+04         0.23867E+02         0.00000E+00
    0.23867E+02         0.28115E+03         0.00000E+00
    0.00000E+00         0.00000E+00        -0.49193E+03
 
   -0.13214E+04         0.52168E+02         0.00000E+00
    0.52168E+02         0.26937E+03         0.00000E+00
    0.00000E+00         0.00000E+00        -0.49403E+03
 
   -0.12724E+04         0.81000E+02         0.00000E+00
    0.81000E+02         0.24922E+03         0.00000E+00
    0.00000E+00         0.00000E+00        -0.49263E+03
 
   -0.12054E+04         0.10967E+03         0.00000E+00
    0.10967E+03         0.22063E+03         0.00000E+00
    0.00000E+00         0.00000E+00        -0.48757E+03
 
   -0.11205E+04         0.13748E+03         0.00000E+00
    0.13748E+03         0.18376E+03         0.00000E+00
    0.00000E+00         0.00000E+00        -0.47874E+03
 
   -0.10177E+04         0.16367E+03         0.00000E+00
    0.16367E+03         0.13895E+03         0.00000E+00
    0.00000E+00         0.00000E+00        -0.46609E+03
 
   -0.89787E+03         0.18751E+03         0.00000E+00
    0.18751E+03         0.86758E+02         0.00000E+00
    0.00000E+00         0.00000E+00        -0.44961E+03
 
   -0.76195E+03         0.20823E+03         0.00000E+00
    0.20823E+03         0.27974E+02         0.00000E+00
    0.00000E+00         0.00000E+00        -0.42936E+03
 
   -0.61141E+03         0.22505E+03         0.00000E+00
    0.22505E+03        -0.36403E+02         0.00000E+00
    0.00000E+00         0.00000E+00        -0.40545E+03
 
   -0.44810E+03         0.23720E+03         0.00000E+00
    0.23720E+03        -0.10515E+03         0.00000E+00
    0.00000E+00         0.00000E+00        -0.37805E+03
 
   -0.95241E+03        -0.11510E+02         0.00000E+00
   -0.11510E+02         0.18355E+01         0.00000E+00
    0.00000E+00         0.00000E+00        -0.29162E+03
 
   -0.95479E+03        -0.31980E+02         0.00000E+00
   -0.31980E+02         0.10757E+02         0.00000E+00
    0.00000E+00         0.00000E+00        -0.30260E+03
 
   -0.97257E+03        -0.48877E+02         0.00000E+00
   -0.48877E+02         0.27262E+02         0.00000E+00
    0.00000E+00         0.00000E+00        -0.31600E+03
 
   -0.10028E+04        -0.62014E+02         0.00000E+00
   -0.62014E+02         0.49842E+02         0.00000E+00
    0.00000E+00         0.00000E+00        -0.33131E+03
 
   -0.10423E+04        -0.71299E+02         0.00000E+00
   -0.71299E+02         0.76937E+02         0.00000E+00
    0.00000E+00         0.00000E+00        -0.34800E+03
 
   -0.10882E+04        -0.76726E+02         0.00000E+00
   -0.76726E+02         0.10697E+03         0.00000E+00
    0.00000E+00         0.00000E+00        -0.36557E+03
 
   -0.11374E+04        -0.78367E+02         0.00000E+00
   -0.78367E+02         0.13839E+03         0.00000E+00
    0.00000E+00         0.00000E+00        -0.38350E+03
 
   -0.11868E+04        -0.76367E+02         0.00000E+00
   -0.76367E+02         0.16969E+03         0.00000E+00
    0.00000E+00         0.00000E+00        -0.40130E+03
 
   -0.12338E+04        -0.70928E+02         0.00000E+00
   -0.70928E+02         0.19943E+03         0.00000E+00
    0.00000E+00         0.00000E+00        -0.41847E+03
 
   -0.12756E+04        -0.62309E+02         0.00000E+00
   -0.62309E+02         0.22627E+03         0.00000E+00
    0.00000E+00         0.00000E+00        -0.43456E+03
 
   -0.13098E+04        -0.50813E+02         0.00000E+00
   -0.50813E+02         0.24899E+03         0.00000E+00
    0.00000E+00         0.00000E+00        -0.44913E+03
 
   -0.13341E+04        -0.36786E+02         0.00000E+00
   -0.36786E+02         0.26651E+03         0.00000E+00
    0.00000E+00         0.00000E+00        -0.46178E+03
 
   -0.13465E+04        -0.20606E+02         0.00000E+00
   -0.20606E+02         0.27787E+03         0.00000E+00
    0.00000E+00         0.00000E+00        -0.47214E+03
 
   -0.13454E+04        -0.26810E+01         0.00000E+00
   -0.26810E+01         0.28230E+03         0.00000E+00
    0.00000E+00         0.00000E+00        -0.47987E+03
 
   -0.13292E+04         0.16555E+02         0.00000E+00
    0.16555E+02         0.27919E+03         0.00000E+00
    0.00000E+00         0.00000E+00        -0.48469E+03
 
   -0.12969E+04         0.36645E+02         0.00000E+00
    0.36645E+02         0.26809E+03         0.00000E+00
    0.00000E+00         0.00000E+00        -0.48634E+03
 
   -0.12477E+04         0.57115E+02         0.00000E+00
    0.57115E+02         0.24877E+03         0.00000E+00
    0.00000E+00         0.00000E+00        -0.48462E+03
 
   -0.11812E+04         0.77469E+02         0.00000E+00
    0.77469E+02         0.22116E+03         0.00000E+00
    0.00000E+00         0.00000E+00        -0.47938E+03
 
   -0.10973E+04         0.97199E+02         0.00000E+00
    0.97199E+02         0.18541E+03         0.00000E+00
    0.00000E+00         0.00000E+00        -0.47051E+03
 
   -0.99627E+03         0.11578E+03         0.00000E+00
    0.11578E+03         0.14188E+03         0.00000E+00
    0.00000E+00         0.00000E+00        -0.45797E+03
 
   -0.87877E+03         0.13268E+03         0.00000E+00
    0.13268E+03         0.91127E+02         0.00000E+00
    0.00000E+00         0.00000E+00        -0.44175E+03
 
   -0.74586E+03         0.14734E+03         0.00000E+00
    0.14734E+03         0.33937E+02         0.00000E+00
    0.00000E+00         0.00000E+00        -0.42191E+03
 
   -0.59900E+03         0.15923E+03         0.00000E+00
    0.15923E+03        -0.28688E+02         0.00000E+00
    0.00000E+00         0.00000E+00        -0.39857E+03
 
   -0.44002E+03         0.16777E+03         0.00000E+00
    0.16777E+03        -0.95523E+02         0.00000E+00
    0.00000E+00         0.00000E+00        -0.37191E+03
 
   -0.97009E+03        -0.68679E+01         0.00000E+00
   -0.68679E+01         0.18055E+01         0.00000E+00
    0.00000E+00         0.00000E+00        -0.29691E+03
 
   -0.96973E+03        -0.19090E+02         0.00000E+00
   -0.19090E+02         0.10590E+02         0.00000E+00
    0.00000E+00         0.00000E+00        -0.30707E+03
 
   -0.98458E+03        -0.29189E+02         0.00000E+00
   -0.29189E+02         0.26859E+02         0.00000E+00
    0.00000E+00         0.00000E+00        -0.31962E+03
 
   -0.10117E+04        -0.37049E+02         0.00000E+00
   -0.37049E+02         0.49143E+02         0.00000E+00
    0.00000E+00         0.00000E+00        -0.33406E+03
 
   -0.10482E+04        -0.42614E+02         0.00000E+00
   -0.42614E+02         0.75914E+02         0.00000E+00
    0.00000E+00         0.00000E+00        -0.34989E+03
 
   -0.10910E+04        -0.45876E+02         0.00000E+00
   -0.45876E+02         0.10563E+03         0.00000E+00
    0.00000E+00         0.00000E+00        -0.36660E+03
 
   -0.11372E+04        -0.46879E+02         0.00000E+00
   -0.46879E+02         0.13675E+03         0.00000E+00
    0.00000E+00         0.00000E+00        -0.38369E+03
 
   -0.11839E+04        -0.45706E+02         0.00000E+00
   -0.45706E+02         0.16779E+03         0.00000E+00
    0.00000E+00         0.00000E+00        -0.40068E+03
 
   -0.12282E+04        -0.42476E+02         0.00000E+00
   -0.42476E+02         0.19734E+03         0.00000E+00
    0.00000E+00         0.00000E+00        -0.41708E+03
 
   -0.12676E+04        -0.37344E+02         0.00000E+00
   -0.37344E+02         0.22406E+03         0.00000E+00
    0.00000E+00         0.00000E+00        -0.43245E+03
 
   -0.12996E+04        -0.30490E+02         0.00000E+00
   -0.30490E+02         0.24675E+03         0.00000E+00
    0.00000E+00         0.00000E+00        -0.44635E+03
 
   -0.13220E+04        -0.22119E+02         0.00000E+00
   -0.22119E+02         0.26432E+03         0.00000E+00
    0.00000E+00         0.00000E+00        -0.45840E+03
 
   -0.13329E+04        -0.12459E+02         0.00000E+00
   -0.12459E+02         0.27584E+03         0.00000E+00
    0.00000E+00         0.00000E+00        -0.46822E+03
 
   -0.13305E+04        -0.17528E+01         0.00000E+00
   -0.17528E+01         0.28051E+03         0.00000E+00
    0.00000E+00         0.00000E+00        -0.47549E+03
 
   -0.13134E+04         0.97392E+01         0.00000E+00
    0.97392E+01         0.27774E+03         0.00000E+00
    0.00000E+00         0.00000E+00        -0.47992E+03
 
   -0.12807E+04         0.21743E+02         0.00000E+00
    0.21743E+02         0.26709E+03         0.00000E+00
    0.00000E+00         0.00000E+00        -0.48128E+03
 
   -0.12314E+04         0.33975E+02         0.00000E+00
    0.33975E+02         0.24830E+03         0.00000E+00
    0.00000E+00         0.00000E+00        -0.47935E+03
 
   -0.11652E+04         0.46136E+02         0.00000E+00
    0.46136E+02         0.22134E+03         0.00000E+00
    0.00000E+00         0.00000E+00        -0.47399E+03
 
   -0.10820E+04         0.57922E+02         0.00000E+00
    0.57922E+02         0.18634E+03         0.00000E+00
    0.00000E+00         0.00000E+00        -0.46510E+03
 
   -0.98206E+03         0.69019E+02         0.00000E+00
    0.69019E+02         0.14365E+03         0.00000E+00
    0.00000E+00         0.00000E+00        -0.45263E+03
 
   -0.86612E+03         0.79104E+02         0.00000E+00
    0.79104E+02         0.93854E+02         0.00000E+00
    0.00000E+00         0.00000E+00        -0.43659E+03
 
   -0.73522E+03         0.87851E+02         0.00000E+00
    0.87851E+02         0.37724E+02         0.00000E+00
    0.00000E+00         0.00000E+00        -0.41703E+03
 
   -0.59080E+03         0.94928E+02         0.00000E+00
    0.94928E+02        -0.23736E+02         0.00000E+00
    0.00000E+00         0.00000E+00        -0.39407E+03
 
   -0.43472E+03         0.10000E+03         0.00000E+00
    0.10000E+03        -0.89300E+02         0.00000E+00
    0.00000E+00         0.00000E+00        -0.36789E+03
 
   -0.97889E+03        -0.22829E+01         0.00000E+00
   -0.22829E+01         0.17904E+01         0.00000E+00
    0.00000E+00         0.00000E+00        -0.29954E+03
 
   -0.97718E+03        -0.63471E+01         0.00000E+00
   -0.63471E+01         0.10505E+02         0.00000E+00
    0.00000E+00         0.00000E+00        -0.30929E+03
 
   -0.99057E+03        -0.97067E+01         0.00000E+00
   -0.97067E+01         0.26656E+02         0.00000E+00
    0.00000E+00         0.00000E+00        -0.32142E+03
 
   -0.10162E+04        -0.12323E+02         0.00000E+00
   -0.12323E+02         0.48790E+02         0.00000E+00
    0.00000E+00         0.00000E+00        -0.33543E+03
 
   -0.10512E+04        -0.14177E+02         0.00000E+00
   -0.14177E+02         0.75397E+02         0.00000E+00
    0.00000E+00         0.00000E+00        -0.35083E+03
 
   -0.10925E+04        -0.15265E+02         0.00000E+00
   -0.15265E+02         0.10495E+03         0.00000E+00
    0.00000E+00         0.00000E+00        -0.36712E+03
 
   -0.11372E+04        -0.15603E+02         0.00000E+00
   -0.15603E+02         0.13592E+03         0.00000E+00
    0.00000E+00         0.00000E+00        -0.38380E+03
 
   -0.11824E+04        -0.15216E+02         0.00000E+00
   -0.15216E+02         0.16683E+03         0.00000E+00
    0.00000E+00         0.00000E+00        -0.40038E+03
 
   -0.12254E+04        -0.14145E+02         0.00000E+00
   -0.14145E+02         0.19628E+03         0.00000E+00
    0.00000E+00         0.00000E+00        -0.41640E+03
 
   -0.12636E+04        -0.12441E+02         0.00000E+00
   -0.12441E+02         0.22294E+03         0.00000E+00
    0.00000E+00         0.00000E+00        -0.43141E+03
 
   -0.12945E+04        -0.10163E+02         0.00000E+00
   -0.10163E+02         0.24561E+03         0.00000E+00
    0.00000E+00         0.00000E+00        -0.44498E+03
 
   -0.13160E+04        -0.73807E+01         0.00000E+00
   -0.73807E+01         0.26320E+03         0.00000E+00
    0.00000E+00         0.00000E+00        -0.45672E+03
 
   -0.13261E+04        -0.41685E+01         0.00000E+00
   -0.41685E+01         0.27479E+03         0.00000E+00
    0.00000E+00         0.00000E+00        -0.46628E+03
 
   -0.13231E+04        -0.60793E+00         0.00000E+00
   -0.60793E+00         0.27958E+03         0.00000E+00
    0.00000E+00         0.00000E+00        -0.47332E+03
 
   -0.13056E+04         0.32144E+01         0.00000E+00
    0.32144E+01         0.27698E+03         0.00000E+00
    0.00000E+00         0.00000E+00        -0.47756E+03
 
   -0.12726E+04         0.72075E+01         0.00000E+00
    0.72075E+01         0.26654E+03         0.00000E+00
    0.00000E+00         0.00000E+00        -0.47877E+03
 
   -0.12232E+04         0.11276E+02         0.00000E+00
    0.11276E+02         0.24802E+03         0.00000E+00
    0.00000E+00         0.00000E+00        -0.47673E+03
 
   -0.11572E+04         0.15321E+02         0.00000E+00
    0.15321E+02         0.22138E+03         0.00000E+00
    0.00000E+00         0.00000E+00        -0.47132E+03
 
   -0.10743E+04         0.19241E+02         0.00000E+00
    0.19241E+02         0.18675E+03         0.00000E+00
    0.00000E+00         0.00000E+00        -0.46242E+03
 
   -0.97498E+03         0.22931E+02         0.00000E+00
    0.22931E+02         0.14448E+03         0.00000E+00
    0.00000E+00         0.00000E+00        -0.44999E+03
 
   -0.85983E+03         0.26284E+02         0.00000E+00
    0.26284E+02         0.95162E+02         0.00000E+00
    0.00000E+00         0.00000E+00        -0.43403E+03
 
   -0.72993E+03         0.29191E+02         0.00000E+00
    0.29191E+02         0.39561E+02         0.00000E+00
    0.00000E+00         0.00000E+00        -0.41461E+03
 
   -0.58673E+03         0.31541E+02         0.00000E+00
    0.31541E+02        -0.21316E+02         0.00000E+00
    0.00000E+00         0.00000E+00        -0.39185E+03
 
   -0.43209E+03         0.33225E+02         0.00000E+00
    0.33225E+02        -0.86247E+02         0.00000E+00
    0.00000E+00         0.00000E+00        -0.36590E+03
 
SCALARS stresss double 
LOOKUP_TABLE default
  -73059.7103768812     
  -56814.4108755319     
  -44081.4415787559     
  -35313.2549204856     
  -29223.1085119557     
  -24859.0336689327     
  -21642.8091966100     
  -19215.9828023393     
  -17350.8515551133     
  -15897.9966558909     
  -14756.4850918414     
  -13856.3833188839     
  -13148.2193087070     
  -12596.4403386637     
  -12175.2436853076     
  -11865.8590753648     
  -11654.7467369529     
  -11532.3909127351     
  -11492.4937185422     
  -11531.4488421526     
  -11648.0207097243     
  -11843.1845784486     
  -12120.1035769722     
  -12484.2343056547     
  -71013.6493040588     
  -51293.6735687987     
  -40196.9951425487     
  -32858.4875123333     
  -27627.7166968318     
  -23788.3801219198     
  -20898.2792852993     
  -18681.0982743627     
  -16954.9285912323     
  -15596.7955172036     
  -14521.4039248554     
  -13668.3606145599     
  -12994.1780495299     
  -12467.1534464728     
  -12064.0136635478     
  -11767.6771205781     
  -11565.7409664286     
  -11449.4523632017     
  -11413.0129475808     
  -11453.1211855603     
  -11568.6928085499     
  -11760.7231234039     
  -12032.2717044918     
  -12388.5629565968     
  -53289.6053016054     
  -39794.9519170714     
  -33296.4908033292     
  -28458.7444494983     
  -24742.3345662807     
  -21822.5873801817     
  -19513.6907777225     
  -17675.3455264635     
  -16203.6320073667     
  -15020.8811425859     
  -14069.0584378265     
  -13304.6373001699     
  -12694.8517656174     
  -12214.9753211664     
  -11846.3634716572     
  -11575.0499201690     
  -11390.7431648063     
  -11286.1144077533     
  -11256.3007956557     
  -11298.5720320256     
  -11412.1258344008     
  -11597.9906192384     
  -11859.0238089513     
  -12200.0025233243     
  -20583.1064940824     
  -25914.8136117135     
  -24868.7968356574     
  -23044.9758184383     
  -21081.4006545162     
  -19264.1928450352     
  -17670.9973484496     
  -16312.1014579335     
  -15169.7975867231     
  -14218.4489900498     
  -13432.2307730603     
  -12788.1076362567     
  -12266.6487515073     
  -11851.9812797832     
  -11531.4352526243     
  -11295.1223103753     
  -11135.5461681049     
  -11047.2796129320     
  -11026.7159711275     
  -11071.8928084251     
  -11182.3829443427     
  -11359.2485078614     
  -11605.0558688215     
  -11923.9520633102     
  -2628.31414858095     
  -13729.0187075926     
  -17001.8790012731     
  -17610.1189855250     
  -17225.5932652078     
  -16458.9316338177     
  -15585.6865637667     
  -14729.5084143082     
  -13944.5427218920     
  -13251.1587137865     
  -12653.6811161925     
  -12149.1360876798     
  -11731.6486073083     
  -11394.6279611097     
  -11131.8289780883     
  -10937.8401659759     
  -10808.2847587710     
  -10739.8840623685     
  -10730.4617192232     
  -10778.9304348536     
  -10885.2832606101     
  -11050.6013879649     
  -11277.0852141940     
  -11568.1128277156     
  -24.2976957073886     
  -6564.71932490980     
  -10968.6119388608     
  -12935.4223089871     
  -13647.2368516663     
  -13713.2652636609     
  -13459.8439397659     
  -13063.8781047424     
  -12621.5258236282     
  -12184.5968116837     
  -11780.2132754162     
  -11421.7756211978     
  -11115.1347332673     
  -10862.1047143611     
  -10662.4728293960     
  -10515.1538145480     
  -10418.8537443097     
  -10372.4523581681     
  -10375.2244920763     
  -10426.9708811815     
  -10528.0994339648     
  -10679.6808870284     
  -10883.4922801690     
  -11142.0548516108     
   1384.81762451093     
  -3407.13606235096     
  -6992.21564915653     
  -9334.29157087880     
  -10619.6162904019     
  -11235.8546035732     
  -11448.2499172758     
  -11428.4484517188     
  -11283.5819391792     
  -11079.6913984996     
  -10857.0753417469     
  -10640.0524106488     
  -10443.0853771529     
  -10274.6065152191     
  -10139.4082924360     
  -10040.1408721546     
  -9978.25330416373     
  -9954.58721572581     
  -9969.75249290613     
  -10024.3652247136     
  -10119.1974071949     
  -10255.2682906152     
  -10433.8942500515     
  -10656.7047377047     
   1975.62215104183     
  -1582.42044647827     
  -4541.60637172821     
  -6730.88420356692     
  -8210.53864283690     
  -9124.88329440327     
  -9644.39423013814     
  -9902.28511864660     
  -9994.40645967500     
  -9986.72006354940     
  -9923.69332691048     
  -9834.93649316347     
  -9740.01254834393     
  -9651.77704514514     
  -9578.65155198857     
  -9526.15577478865     
  -9497.93483409303     
  -9496.44566137455     
  -9523.41326444572     
  -9580.13031312639     
  -9667.64775754755     
  -9786.88630537031     
  -9938.68572093610     
  -10123.7989557353     
   2286.01690109678     
  -499.723104091388     
  -2929.38223295500     
  -4886.83181273427     
  -6353.87016610211     
  -7390.66298422000     
  -8085.88773187293     
  -8529.49526516985     
  -8795.98158068129     
  -8942.52991135862     
  -9011.22847146401     
  -9032.35575329360     
  -9027.40186166046     
  -9011.49878508826     
  -8995.25475371482     
  -8986.09313294625     
  -8989.20994318462     
  -9008.24843713305     
  -9045.76688521315     
  -9103.55502268811     
  -9182.83761537833     
  -9284.39017534845     
  -9408.58114151374     
  -9555.34580649585     
   2432.64649339966     
   184.839186389222     
  -1841.83898614909     
  -3559.40681544463     
  -4937.76486344916     
  -5993.16868244366     
  -6770.86188625130     
  -7325.70179988819     
  -7710.59132687913     
  -7970.62655066378     
  -8141.91550835304     
  -8252.31575127637     
  -8322.84034968268     
  -8369.11259473824     
  -8402.63641748116     
  -8431.82048541044     
  -8462.76670543431     
  -8499.85813107121     
  -8546.18450894658     
  -8603.83859972161     
  -8674.10872918290     
  -8757.58507953650     
  -8854.18972455867     
  -8963.13331180244     
   2484.14057995636     
   624.944789470025     
  -1087.95554048841     
  -2591.36341308581     
  -3854.18222631936     
  -4875.51509983017     
  -5675.88160180400     
  -6287.39851216494     
  -6745.37437798213     
  -7083.18180355105     
  -7329.75908102355     
  -7508.95123860708     
  -7639.77366252003     
  -7737.05960890335     
  -7812.19495650191     
  -7873.80163188837     
  -7928.31562640308     
  -7980.44763740607     
  -8033.53265730158     
  -8089.78080674799     
  -8150.44162214437     
  -8215.89111768646     
  -8285.64680521659     
  -8358.31110969004     
   2473.58310309309     
   907.566856015343     
  -557.802732053119     
  -1876.10194754001     
  -3020.20375192900     
  -3982.19931004940     
  -4769.74371740356     
  -5400.59837664424     
  -5897.44021496258     
  -6283.87917651926     
  -6582.01167595902     
  -6811.20852929441     
  -6987.74094868620     
  -7124.87334667079     
  -7233.17506476361     
  -7320.90192778165     
  -7394.36762971142     
  -7458.26666626688     
  -7515.93370802017     
  -7569.53586215965     
  -7620.19900747264     
  -7668.07026813551     
  -7712.31743391958     
  -7751.06367009467     
   2420.92460135288     
   1083.32659377416     
  -182.776504177739     
  -1342.80770646744     
  -2374.10291990541     
  -3266.59952827917     
  -4021.24724610501     
  -4647.12702351804     
  -5158.24306846226     
  -5570.74621055374     
  -5900.90379957218     
  -6163.84233436679     
  -6372.90324470190     
  -6539.41776751618     
  -6672.73006444232     
  -6780.34633420807     
  -6868.13090555856     
  -6940.50238952142     
  -7000.60398710006     
  -7050.43466213103     
  -7090.93472825376     
  -7122.02251621084     
  -7142.57959638617     
  -7150.38145188698     
   2338.72634468205     
   1184.07310217815     
   81.3637066119108     
  -943.136716353072     
  -1870.80935378023     
  -2691.44882472841     
  -3402.66614381351     
  -4008.34880628116     
  -4516.72601974621     
  -4938.49036023473     
  -5285.25917776264     
  -5568.47186688252     
  -5798.69749720855     
  -5985.26465284079     
  -6136.11446859242     
  -6257.79092807925     
  -6355.50409985734     
  -6433.22216908002     
  -6493.76381907674     
  -6538.87340717134     
  -6569.26830550652     
  -6584.65178915504     
  -6583.68687890092     
  -6563.92731440058     
   2235.53078862152     
   1230.79117274345     
   264.364872616311     
  -643.411061117582     
  -1477.25858927200     
  -2227.64605575975     
  -2890.62557747330     
  -3467.02448824985     
  -3961.27916983554     
  -4380.19139014855     
  -4731.80843601433     
  -5024.53367688679     
  -5266.49174980964     
  -5465.12143299185     
  -5626.94597500641     
  -5757.46759052371     
  -5861.13982714325     
  -5941.38192353471     
  -6000.60925702400     
  -6040.26203765424     
  -6060.82027493389     
  -6061.79701182896     
  -6041.70435434756     
  -5997.98840748473     
   2117.44975304870     
   1237.93332360725     
   386.896629624939     
  -419.607947322300     
  -1168.97436165746     
  -1852.60427138769     
  -2465.93294936042     
  -3008.01312677169     
  -3480.81430152678     
  -3888.40504445686     
  -4236.15647018569     
  -4530.05540505375     
  -4776.16677092327     
  -4980.24711186599     
  -5147.48900737280     
  -5282.36681317402     
  -5388.55354695437     
  -5468.88255180767     
  -5525.33292731964     
  -5559.02295219790     
  -5570.20012186448     
  -5558.21983309743     
  -5521.50729753107     
  -5457.49921768214     
   1989.05523611517     
   1215.81798280963     
   463.757720637834     
  -254.216965869915     
  -927.608429346547     
  -1548.77202554796     
  -2113.01365371465     
  -2618.38534550740     
  -3065.26450075774     
  -3455.81758871549     
  -3793.43967622325     
  -4082.23702995847     
  -4326.59148086640     
  -4530.82026038748     
  -4698.92728220589     
  -4834.43182893233     
  -4940.25670829539     
  -5018.65804442184     
  -5071.18106199599     
  -5098.62918743091     
  -5101.03677220120     
  -5077.63840522025     
  -5026.83006205206     
  -4946.11933804198     
   1853.88562439010     
   1172.04349439590     
   505.821327286112     
  -134.213238334682     
  -739.221771881101     
  -1302.43692321724     
  -1819.27872498868     
  -2287.26328435618     
  -2705.75073591938     
  -3075.59301694965     
  -3398.74119588407     
  -3677.86088978858     
  -3915.98836320597     
  -4116.24398501154     
  -4281.60688527478     
  -4414.74601192295     
  -4517.89810858154     
  -4592.78148625032     
  -4640.53477779694     
  -4661.67124753883     
  -4656.04106151174     
  -4622.79585655530     
  -4560.35183462570     
  -4466.34945272762     
   1714.74992977388     
   1112.35105667873     
   521.258663498049     
  -49.7288570701131     
  -593.082708398694     
  -1102.80595821023     
  -1574.54552579306     
  -2005.56025647390     
  -2394.57066084907     
  -2741.52683814716     
  -3047.33336440072     
  -3313.56531130711     
  -3542.20092975913     
  -3735.38675524975     
  -3895.24208524001     
  -4023.70308015533     
  -4122.40242153866     
  -4192.57824445270     
  -4235.00542308707     
  -4249.94269014796     
  -4237.09007714664     
  -4195.55248263831     
  -4123.80665177441     
  -4019.67043325729     
   1573.91712408475     
   1041.17074274349     
   516.330136887435     
   6.83624564019744     
  -480.822823941379     
  -941.312387571176     
  -1370.55003501465     
  -1765.70375766987     
  -2125.10318474068     
  -2448.08600168270     
  -2734.80469320026     
  -2986.01732468844     
  -3202.88161380342     
  -3386.76570287951     
  -3539.08322443776     
  -3661.15536795105     
  -3754.09911631600     
  -3818.73864679847     
  -3855.53587977564     
  -3864.53602190883     
  -3845.32441401060     
  -3796.99184505455     
  -3718.10659546443     
  -3606.69275724583     
   1433.23866310461     
   961.977657050101     
   495.910604183470     
   41.4207149908450     
  -395.838658721130     
  -811.097444399878     
  -1200.55234668437     
  -1561.37914017001     
  -1891.68107377496     
  -2190.38675327029     
  -2457.11381263944     
  -2692.01472216262     
  -2895.61893474830     
  -3068.68218609301     
  -3212.05002926696     
  -3326.53926794791     
  -3412.83824191901     
  -3471.42505136586     
  -3502.50174588838     
  -3505.94212027044     
  -3481.25089540304     
  -3427.53257802403     
  -3343.46908076778     
  -3227.30617666365     
   1294.23092840599     
   877.531050703102     
   463.846531062324     
   58.7231331539523     
  -332.863018221021     
  -706.623023981725     
  -1059.02405859490     
  -1387.30736813784     
  -1689.45912625805     
  -1964.14224157029     
  -2210.59972107882     
  -2428.54083163241     
  -2618.02041049859     
  -2779.31978612441     
  -2912.83543546285     
  -3018.97918790003     
  -3098.09180259209     
  -3150.37025806274     
  -3175.80813964078     
  -3174.14805154477     
  -3144.84493741945     
  -3087.03947920937     
  -2999.54128279730     
  -2880.82229020058     
   1158.13312618991     
   790.039342767034     
   423.204414518992     
   62.5000495017342     
  -287.654181261591     
  -623.381310594542     
  -941.403010711756     
  -1239.05894880533     
  -1514.29118704391     
  -1765.59851673935     
  -1991.96764282411     
  -2192.78895405388     
  -2367.76437978034     
  -2516.81383803934     
  -2639.98536154292     
  -2737.37245917538     
  -2809.04086784891     
  -2854.96572080685     
  -2874.97936998053     
  -2868.72965723402     
  -2835.64830035126     
  -2774.92919534068     
  -2685.51678454549     
  -2566.10515111903     
   1025.94987658984     
   701.277161319720     
   376.447369001378     
   55.7804545042546     
  -256.767816361854     
  -557.675857696819     
  -843.901614672328     
  -1112.90119155182     
  -1362.62141221349     
  -1591.46925295791     
  -1798.26267599951     
  -1982.16820173020     
  -2142.63064700011     
  -2279.29998330739     
  -2391.95943815302     
  -2480.45797963432     
  -2544.64935940435     
  -2584.33906289003     
  -2599.23989678026     
  -2588.93655725333     
  -2552.85936195094     
  -2490.26736907641     
  -2400.24131343024     
  -2281.68712297292     
   898.484092438057     
   612.670668108189     
   325.563347999994     
   41.0227551969585     
  -237.387496517920     
  -506.455364778316     
  -763.357082704969     
  -1005.67420010813     
  -1231.39106339160     
  -1438.87448791970     
  -1626.83860250848     
  -1794.29856787245     
  -1940.51710254600     
  -2064.94757373828     
  -2167.17694924899     
  -2246.87129254526     
  -2303.72583581854     
  -2337.42107766065     
  -2347.58588330510     
  -2333.76824653763     
  -2295.41420952924     
  -2231.85541879089     
  -2142.30589967455     
  -2025.86882855103     
   776.363583154136     
   525.361511044335     
   272.160227776869     
   20.2316006165280     
  -227.197155935040     
  -467.186441006153     
  -697.114118722245     
  -914.690756495644     
  -1117.96008568295     
  -1305.28571972787     
  -1475.32610291046     
  -1627.00027433635     
  -1759.44731009589     
  -1871.98229261609     
  -1964.05142208886     
  -2035.18851518370     
  -2084.97471279999     
  -2113.00280939697     
  -2118.84727030274     
  -2102.04074913817     
  -2062.05776596155     
  -1998.30615440364     
  -1910.12691851939     
  -1796.80323482095     
   660.063503989327     
   440.256099861848     
   217.537805645377     
  -4.95372251349141     
  -224.283875412435     
  -437.755349788598     
  -642.932656281415     
  -837.655655672613     
  -1020.04185135154     
  -1188.47804103068     
  -1341.60264542309     
  -1478.28053428576     
  -1597.57244666994     
  -1698.70117066753     
  -1781.01654979357     
  -1843.96117177952     
  -1887.03832595575     
  -1909.78353623380     
  -1911.74072544451     
  -1892.44386782712     
  -1851.40485133079     
  -1788.10820029777     
  -1702.01329289472     
  -1592.56472960108     
   549.925957305992     
   358.064602922890     
   162.743452078257     
  -33.1912987658509     
  -227.062824075856     
  -416.391420039311     
  -598.914901934364     
  -772.600675764930     
  -935.649189284660     
  -1086.48910892725     
  -1223.76511276552     
  -1346.31959543517     
  -1453.16983308328     
  -1543.48226101346     
  -1616.54549682473     
  -1671.74363058936     
  -1708.53113736910     
  -1726.41058014286     
  -1724.91409072620     
  -1703.58946181381     
  -1661.99156519003     
  -1599.67973119982     
  -1516.22167695686     
  -1411.20454323177     
   446.177544430025     
   279.332590316875     
   108.615996720418     
  -63.3834351061969     
  -234.218554362161     
  -401.606759998534     
  -563.447273568950     
  -717.832023134438     
  -863.049863006832     
  -997.584326486119     
  -1120.10552212079     
  -1229.45710782912     
  -1324.63949652647     
  -1404.79056172282     
  -1469.16513399638     
  -1517.11452941203     
  -1548.06725250635     
  -1561.51189269351     
  -1556.98310375996     
  -1534.05143612052     
  -1492.31768914795     
  -1431.41236834659     
  -1351.00076577061     
  -1250.79412309424     
   348.945348436898     
   204.467289970819     
   55.8209991913741     
  -94.6344550470865     
  -244.658493716689     
  -392.148323197539     
  -535.153859302940     
  -671.887690055830     
  -800.729840328723     
  -920.227450940178     
  -1029.08979931595     
  -1126.17934518365     
  -1210.49966996374     
  -1281.18128965985     
  -1337.46636384943     
  -1378.69330965997     
  -1404.28227447519     
  -1413.72234017960     
  -1406.56123895712     
  -1382.39826669066     
  -1340.88099139454     
  -1281.70627292704     
  -1204.62603422119     
  -1109.45814728807     
   258.271630303467     
   133.759792389639     
   4.87959677112740     
  -126.216674449422     
  -257.475631279887     
  -386.959403913512     
  -512.858819325978     
  -633.502676394052     
  -747.362926490061     
  -853.055826168035     
  -949.339368081904     
  -1035.10749812178     
  -1109.38178003017     
  -1171.30126943641     
  -1220.11140936795     
  -1255.15276548791     
  -1275.85039094336     
  -1281.70455805162     
  -1272.28352664185     
  -1247.21894429994     
  -1206.20439689766     
  -1148.99755039482     
  -1075.42624566033     
  -985.398822811913     
   174.127399942860     
   67.4041203717277     
  -43.8075295863725     
  -157.542584192376     
  -271.918214833258     
  -385.148389561707     
  -495.555762191650     
  -601.580452146542     
  -701.785564419538     
  -794.859492690518     
  -879.615231258472     
  -954.987079721993     
  -1020.02524936730     
  -1073.88896774677     
  -1115.83872796817     
  -1145.22834517074     
  -1161.49747015343     
  -1164.16517571451     
  -1152.82518134278     
  -1127.14322173767     
  -1086.85699775441     
  -1031.77907621415     
  -961.803026892470     
  -876.912998243824     
   96.4249522949265     
   5.51379979339217     
  -89.9399753110982     
  -188.141814192265     
  -287.364855962673     
  -385.963147355888     
  -482.382591286085     
  -575.169382755053     
  -662.975819072481     
  -744.563516361666     
  -818.804203705667     
  -884.678390001155     
  -941.272299442291     
  -987.773545524671     
  -1023.46605951084     
  -1047.72480888333     
  -1060.01083761263     
  -1059.86713716099     
  -1046.91581919511     
  -1020.85701157294     
  -981.469840813409     
  -928.615798110646     
  -862.244711755830     
  -782.403465022501     
   25.0294190946548     
  -51.8636204531852     
  -133.300430745401     
  -217.641840091887     
  -303.303860074261     
  -388.769827524838     
  -472.600670629074     
  -553.443115151541     
  -630.035749251966     
  -701.212974308916     
  -765.906975680953     
  -823.147943782156     
  -872.062856483095     
  -911.873195064195     
  -941.892006244281     
  -961.520742488329     
  -970.246313505548     
  -967.638766002358     
  -953.349979001104     
  -927.113720764409     
  -888.747362348807     
  -838.155482986846     
  -775.335533905116     
  -700.385649061590     
  -40.2306325091675     
  -104.733777617838     
  -173.739924790609     
  -245.751668489575     
  -319.315900776679     
  -393.035164936195     
  -465.577428251269     
  -535.684141396036     
  -602.176528138407     
  -663.960131215576     
  -720.027721745186     
  -769.460754567973     
  -811.429615910397     
  -845.192959590793     
  -870.096462027275     
  -885.571344209701     
  -891.133011261675     
  -886.380148588717     
  -870.994589512775     
  -844.742234301114     
  -807.475255861587     
  -759.135773870308     
  -699.761116970808     
  -629.490721726464     
  -99.5535304384902     
  -153.144196524334     
  -211.165070268443     
  -272.247932786798     
  -335.059378620494     
  -398.311583528533     
  -460.771720394532     
  -521.269929251406     
  -578.705804515079     
  -632.053424746410     
  -680.365012726677     
  -722.773371911561     
  -758.493295798423     
  -786.822186766727     
  -807.140148930024     
  -818.909834821591     
  -821.676328453170     
  -815.067338106742     
  -798.793952104755     
  -772.652180774420     
  -736.525468772811     
  -690.388314530396     
  -634.311078188283     
  -568.465996215864     
  -153.155733218736     
  -197.174303581659     
  -245.526993170698     
  -296.962972882117     
  -350.257965617278     
  -404.224573962150     
  -457.721436114493     
  -509.661144345049     
  -559.016903373646     
  -604.827953409808     
  -646.203830594111     
  -682.327582799081     
  -712.458098345896     
  -735.931736972114     
  -752.163474880365     
  -760.647788134293     
  -760.959500863517     
  -752.754816953460     
  -735.772736667465     
  -709.837033638211     
  -674.858933531797     
  -630.840594008021     
  -577.879436848868     
  -516.173327712234     
  -201.263942814498     
  -236.926612218196     
  -276.811702805838     
  -319.774574156674     
  -364.689955835508     
  -410.461939222921     
  -456.032941218783     
  -500.391594345395     
  -542.579550644567     
  -581.697223056815     
  -616.908524956259     
  -647.444703602709     
  -672.607394209724     
  -691.771046310525     
  -704.384891843147     
  -709.974634085445     
  -708.144037915040     
  -698.576594873655     
  -681.037421459923     
  -655.375526393146     
  -621.526552784975     
  -579.516064746565     
  -529.463405467484     
  -471.586105782419     
  -244.108061915537     
  -272.518964808238     
  -305.031713354564     
  -340.597115765758     
  -378.179130423104     
  -416.764596393494     
  -455.372051722035     
  -493.059608059425     
  -528.931875583614     
  -562.145960223506     
  -591.916583836398     
  -617.520405248471     
  -638.299644167011     
  -653.665129447566     
  -663.098906943620     
  -666.156549445502     
  -662.469311638887     
  -651.746266484503     
  -633.776546070305     
  -608.431790109581     
  -575.668879255580     
  -535.532998752402     
  -488.161041185568     
  -433.785315861212     
  -281.914957741757     
  -304.077734359696     
  -330.218766057767     
  -359.373933128401     
  -390.586911056485     
  -422.918693399423     
  -455.456296875377     
  -487.320626543019     
  -517.673498920362     
  -545.723842812163     
  -570.733119954671     
  -592.020028825464     
  -608.964573713932     
  -621.011596222172     
  -627.673876838008     
  -628.534919438194     
  -623.251531152109     
  -611.556303795460     
  -593.260091121306     
  -568.254558644512     
  -536.514860114615     
  -498.102467284804     
  -453.168147994263     
  -401.955052402372     
  -314.902990264637     
  -331.731902326014     
  -352.417529748008     
  -376.070740342118     
  -401.805625143382     
  -428.748853117272     
  -456.048285457951     
  -482.880833203556     
  -508.459557912748     
  -532.040032532954     
  -552.925997186092     
  -570.474361239040     
  -584.099617624676     
  -593.277746986759     
  -597.549697071390     
  -596.524526316652     
  -589.882299445642     
  -577.376816886100     
  -558.838249038686     
  -534.175730962836     
  -503.379953243354     
  -466.525761058954     
  -423.774746326495     
  -375.377787893237     
  -343.277259966208     
  -355.607938873209     
  -371.680178897930     
  -390.669989072403     
  -411.752743526151     
  -434.112398150666     
  -456.950030305217     
  -479.491688632999     
  -500.995553228162     
  -520.758420439970     
  -538.121540648431     
  -552.475850502974     
  -563.266652530655     
  -569.997803935523     
  -572.235482200137     
  -569.611597291394     
  -561.826918557842     
  -548.653978636547     
  -529.939806870523     
  -505.608531017671     
  -475.663868683236     
  -440.191509323346     
  -399.361364358026     
  -353.429637528235     
  -367.225529094904     
  -375.825420098211     
  -388.061765034707     
  -403.166064163406     
  -420.365980165343     
  -438.894441079958     
  -457.998117974745     
  -476.945266046442     
  -495.032928985482     
  -511.593518040929     
  -526.000788642739     
  -537.675247982786     
  -546.089035959577     
  -550.770328748987     
  -551.307318467283     
  -547.351823553559     
  -538.622582357370     
  -524.908276850315     
  -506.070324396243     
  -482.045463250138     
  -452.848142168508     
  -418.572706577748     
  -379.395353648907     
  -335.575806967453     
  -386.914770871787     
  -392.493323925908     
  -401.616310822647     
  -413.561234857185     
  -427.599165687837     
  -443.003749492040     
  -459.059635293431     
  -475.070306690339     
  -490.365317908185     
  -504.306942944596     
  -516.296256074520     
  -525.778670599379     
  -532.248969932436     
  -535.255870428817     
  -534.406158381226     
  -529.368443992068     
  -519.876572688106     
  -505.732728766632     
  -486.810258071638     
  -463.056225329134     
  -434.493708169922     
  -401.223814092637     
  -363.427389133418     
  -321.366368378680     
  -402.488303175896     
  -405.706953261528     
  -412.393567431523     
  -421.862295580875     
  -433.418824490111     
  -446.369314411516     
  -460.028784036005     
  -473.728932980733     
  -486.825399632208     
  -498.704460785051     
  -508.789187644573     
  -516.545079990200     
  -521.485206204653     
  -523.174881068608     
  -521.235915365496     
  -515.350471174411     
  -505.264554078991     
  -490.791168313104     
  -471.813153131240     
  -448.285708568295     
  -420.238606480671     
  -387.778068681308     
  -351.088278537602     
  -310.432476130622     
  -414.063466748033     
  -415.545441775564     
  -420.436385733134     
  -428.077842829698     
  -437.801399568147     
  -448.937566243945     
  -460.824130490545     
  -472.813971654653     
  -484.282332815561     
  -494.633555029344     
  -503.307285570889     
  -509.784178221503     
  -513.591108659333     
  -514.305931427572     
  -511.561806499886     
  -505.051122914429     
  -494.529044166904     
  -479.816694985875     
  -460.804001801385     
  -437.452189799089     
  -409.795928163021     
  -377.945102282719     
  -342.086177760071     
  -302.483106509931     
  -421.729812711894     
  -422.069804634061     
  -425.778660910770     
  -432.216145502545     
  -440.731081338427     
  -450.670195031035     
  -461.386449201574     
  -472.246850826188     
  -482.639731642100     
  -491.981503901106     
  -499.722901368628     
  -505.354721145204     
  -508.413086333630     
  -508.484252504895     
  -505.208982083858     
  -498.286509990955     
  -487.478121019547     
  -472.610354460709     
  -453.577844457287     
  -430.345795617547     
  -402.952082779288     
  -371.508951812683     
  -336.204285397414     
  -297.302384301468     
  -425.547770013722     
  -425.321503640349     
  -428.443818563769     
  -434.283575681836     
  -442.198207113061     
  -451.542542482516     
  -461.677130538721     
  -471.976044287924     
  -481.834165268005     
  -490.673949586949     
  -497.951684683063     
  -503.163251156472     
  -505.849408196724     
  -505.600623826422     
  -502.061472167256     
  -494.934619037341     
  -483.984414297603     
  -469.040104448836     
  -449.998672092850     
  -426.827300152492     
  -399.565448428948     
  -368.326518481439     
  -333.299070351159     
  -294.747541803441     
SCALARS 2waySource double 
LOOKUP_TABLE default
  3.748256923755604E-007
  1.311180598878175E-007
 -1.341381414632601E-007
 -4.044214795636909E-007
 -6.756152671564914E-007
 -9.431849219962666E-007
 -1.204442526873308E-006
 -1.457656437020608E-006
 -1.701600924461217E-006
 -1.935339526379985E-006
 -2.158113060090517E-006
 -2.369281723923470E-006
 -2.568293923685500E-006
 -2.754669450379520E-006
 -2.927990528269405E-006
 -3.087897338543689E-006
 -3.234086138300202E-006
 -3.366308904822776E-006
 -3.484373877372703E-006
 -3.588146620471270E-006
 -3.677551380822867E-006
 -3.752572600410624E-006
 -3.813256506040339E-006
 -3.859712734643553E-006
  4.366073908377921E-007
  1.785982970843507E-007
 -1.038080532373457E-007
 -3.871831566154675E-007
 -6.648416306345292E-007
 -9.356864441315567E-007
 -1.198627776225138E-006
 -1.452686264802335E-006
 -1.697016166693677E-006
 -1.930879224357623E-006
 -2.153626061017216E-006
 -2.364680229505130E-006
 -2.563528198312616E-006
 -2.749713391926656E-006
 -2.922833126752121E-006
 -3.082537435030581E-006
 -3.228529101047422E-006
 -3.360564453007114E-006
 -3.478454610980675E-006
 -3.582066995541858E-006
 -3.671326972107657E-006
 -3.746219553880351E-006
 -3.806791120386221E-006
 -3.853151134432939E-006
  6.441355084316221E-007
  2.470630603834886E-007
 -6.943955145339842E-008
 -3.666303613951654E-007
 -6.512178333671574E-007
 -9.256477102883787E-007
 -1.190388919771983E-006
 -1.445275903943764E-006
 -1.689879955978846E-006
 -1.923695940535554E-006
 -2.146208157978330E-006
 -2.356920128542771E-006
 -2.555367569045681E-006
 -2.741125049278596E-006
 -2.913809973247765E-006
 -3.073085492422192E-006
 -3.218662978443522E-006
 -3.350304304620469E-006
 -3.467824023762627E-006
 -3.571091467093907E-006
 -3.660032767098027E-006
 -3.734632803361442E-006
 -3.794937074663218E-006
 -3.841053508732387E-006
  6.239564352534756E-007
  2.840028340102691E-007
 -4.623042870164830E-008
 -3.493527808891581E-007
 -6.381394928349274E-007
 -9.148908511652335E-007
 -1.180790568922398E-006
 -1.436078002518832E-006
 -1.680615243197100E-006
 -1.914077969130043E-006
 -2.136066290444278E-006
 -2.346157789121550E-006
 -2.543936294384239E-006
 -2.729007970003561E-006
 -2.901011138330416E-006
 -3.059622809804305E-006
 -3.204563431861995E-006
 -3.335600620545834E-006
 -3.452552272828062E-006
 -3.555289271514203E-006
 -3.643737900145811E-006
 -3.717882037658474E-006
 -3.777765179808787E-006
 -3.823492325641220E-006
  6.072993446464473E-007
  2.795054504834052E-007
 -3.471025383937490E-008
 -3.384013348610706E-007
 -6.276042843557368E-007
 -9.048185003865875E-007
 -1.170754310500281E-006
 -1.425717597530539E-006
 -1.669657000979389E-006
 -1.902340028696502E-006
 -2.123437856527078E-006
 -2.332580404564396E-006
 -2.529388646346448E-006
 -2.713494728808886E-006
 -2.884554913089674E-006
 -3.042258380170378E-006
 -3.186333571435473E-006
 -3.316553016815386E-006
 -3.432737194347001E-006
 -3.534757738575706E-006
 -3.622540187559769E-006
 -3.696066386626774E-006
 -3.755376627229358E-006
 -3.800571578401247E-006
  5.907884690784068E-007
  2.726906052797202E-007
 -3.553735397835930E-008
 -3.332284565076178E-007
 -6.203663083049923E-007
 -8.961462750222628E-007
 -1.160902608192316E-006
 -1.414681443094926E-006
 -1.657383567215655E-006
 -1.888779250885507E-006
 -2.108562355933209E-006
 -2.316387297815879E-006
 -2.511896308571797E-006
 -2.694738213433336E-006
 -2.864581615523164E-006
 -3.021124352872519E-006
 -3.164100518331607E-006
 -3.293285860841096E-006
 -3.408502086924742E-006
 -3.509620389892746E-006
 -3.596564415700664E-006
 -3.669312801614920E-006
 -3.727901379571731E-006
 -3.772425109973945E-006
  5.718503113898038E-007
  2.619835048755454E-007
 -4.003147442832309E-008
 -3.329113410786492E-007
 -6.160595525226097E-007
 -8.890652887637221E-007
 -1.151535147711071E-006
 -1.403284517584619E-006
 -1.644081918455943E-006
 -1.873648154074038E-006
 -2.091661217230458E-006
 -2.297775233303142E-006
 -2.491637670471686E-006
 -2.672903743569695E-006
 -2.841247686429400E-006
 -2.996371507641211E-006
 -3.138011836398158E-006
 -3.265945364190177E-006
 -3.379993253194697E-006
 -3.480024773213876E-006
 -3.565960348295459E-006
 -3.637774138294621E-006
 -3.695496242855940E-006
 -3.739214590463714E-006
  5.507919148916423E-007
  2.481113804372092E-007
 -4.768388805936287E-008
 -3.353531857967162E-007
 -6.141165586801455E-007
 -8.833945671874524E-007
 -1.142719588682982E-006
 -1.391686617080610E-006
 -1.629945367697240E-006
 -1.857145125497337E-006
 -2.072927548652068E-006
 -2.276929247926277E-006
 -2.468790204146976E-006
 -2.648162889172286E-006
 -2.814720695905216E-006
 -2.968165183272293E-006
 -3.108232151860629E-006
 -3.234696705119280E-006
 -3.347377475274272E-006
 -3.446140170571783E-006
 -3.530900568002303E-006
 -3.601627045309911E-006
 -3.658342721539119E-006
 -3.701127256507835E-006
  5.275382651030113E-007
  2.316835378034312E-007
 -5.785807203930250E-008
 -3.399961877399543E-007
 -6.138885253721000E-007
 -8.788727035663458E-007
 -1.134387518623127E-006
 -1.379942049033006E-006
 -1.615090959853094E-006
 -1.839418771031622E-006
 -2.052524551580825E-006
 -2.254018908890893E-006
 -2.443526180305085E-006
 -2.620689329656921E-006
 -2.785175580481995E-006
 -2.936681931001468E-006
 -3.074940179629530E-006
 -3.199721356186133E-006
 -3.310839566373689E-006
 -3.408155299341364E-006
 -3.491578256745364E-006
 -3.561069756562859E-006
 -3.616644755091347E-006
 -3.658373519839200E-006
  5.021021646035914E-007
  2.130438571346061E-007
 -7.012428708195923E-008
 -3.464306668519822E-007
 -6.150414967217631E-007
 -8.752482517071409E-007
 -1.126434477020716E-006
 -1.368048138052547E-006
 -1.599585754439526E-006
 -1.820579705383145E-006
 -2.030589865355263E-006
 -2.229198776731251E-006
 -2.416011272488436E-006
 -2.590656644380435E-006
 -2.752792149679458E-006
 -2.902106986910718E-006
 -3.038326265025199E-006
 -3.161214723286735E-006
 -3.270580097195573E-006
 -3.366276097156877E-006
 -3.448205000598967E-006
 -3.516319871453441E-006
 -3.570626423479344E-006
 -3.611184540952193E-006
  4.745451286556868E-007
  1.924184893985262E-007
 -8.418256662314363E-008
 -3.543694182649483E-007
 -6.173321117240773E-007
 -8.723461703995286E-007
 -1.118760697834649E-006
 -1.355983695610308E-006
 -1.583470245655160E-006
 -1.800714282523661E-006
 -2.007242599610745E-006
 -2.202611405558043E-006
 -2.386405194113089E-006
 -2.558237627993356E-006
 -2.717753690538250E-006
 -2.864632513610763E-006
 -2.998590451964398E-006
 -3.119384136375977E-006
 -3.226813350651972E-006
 -3.320723650175300E-006
 -3.401008681973592E-006
 -3.467612189067859E-006
 -3.520529692338659E-006
 -3.559809846110149E-006
  4.449607097222104E-007
  1.699817939955382E-007
 -9.981542789423199E-008
 -3.635977590164596E-007
 -6.205793994534341E-007
 -8.700330293731490E-007
 -1.111288704676980E-006
 -1.343727546439568E-006
 -1.566775130432700E-006
 -1.779896132352819E-006
 -1.982590533956789E-006
 -2.174391282179568E-006
 -2.354863434278829E-006
 -2.523604599447185E-006
 -2.680246383220933E-006
 -2.824456467573110E-006
 -2.955941017057461E-006
 -3.074447178823927E-006
 -3.179765518965517E-006
 -3.271732294406930E-006
 -3.350231498417322E-006
 -3.415196642271910E-006
 -3.466612249440374E-006
 -3.504515045134884E-006
  4.134631010430250E-007
  1.458843970462600E-007
 -1.168520800283127E-007
 -3.739499868933534E-007
 -6.246430931045447E-007
 -8.682064337968659E-007
 -1.103959745868040E-006
 -1.331266361276084E-006
 -1.549530443910269E-006
 -1.758194242125719E-006
 -1.956735977730550E-006
 -2.144668581866644E-006
 -2.321539310588636E-006
 -2.486930199656271E-006
 -2.640459215306114E-006
 -2.781781908288597E-006
 -2.910593368596380E-006
 -3.026630306910410E-006
 -3.129673127596382E-006
 -3.219547895231465E-006
 -3.296128126259754E-006
 -3.359336358503838E-006
 -3.409145465019336E-006
 -3.445579686461274E-006
  3.801810795061341E-007
  1.202663920170481E-007
 -1.351485999118274E-007
 -3.852918872115132E-007
 -6.294117532801615E-007
 -8.667867890194307E-007
 -1.096731093527907E-006
 -1.318595997819539E-006
 -1.531769946969407E-006
 -1.735677751169928E-006
 -1.929779887016621E-006
 -2.113572156836820E-006
 -2.286585830870923E-006
 -2.448388290616182E-006
 -2.598584123597759E-006
 -2.736816569688630E-006
 -2.862769197927837E-006
 -2.976167693761784E-006
 -3.076781652191020E-006
 -3.164426292614729E-006
 -3.238964030604608E-006
 -3.300305857656038E-006
 -3.348412491523594E-006
 -3.383295267139614E-006
  3.452545049623997E-007
  9.326363565505933E-008
 -1.545764672842745E-007
 -3.975096040033803E-007
 -6.347941468263374E-007
 -8.657117858265903E-007
 -1.089573221442200E-006
 -1.305721342129719E-006
 -1.513532759442436E-006
 -1.712418501378313E-006
 -1.901824417864923E-006
 -2.081231620600100E-006
 -2.250157118993748E-006
 -2.408154716438016E-006
 -2.554816166594670E-006
 -2.689772546805505E-006
 -2.812695780366229E-006
 -2.923300229996667E-006
 -3.021344286975450E-006
 -3.106631889079513E-006
 -3.179013911431471E-006
 -3.238389384823850E-006
 -3.284706504692684E-006
 -3.317963400193930E-006
  3.088320659232079E-007
  6.501092862525249E-008
 -1.750160139930495E-007
 -4.105024439115396E-007
 -6.407132541053081E-007
 -8.649321710447285E-007
 -1.082467400027571E-006
 -1.292655476969031E-006
 -1.494863779256338E-006
 -1.688492191947361E-006
 -1.872974334793850E-006
 -2.047778626528307E-006
 -2.212409351712976E-006
 -2.366407814623867E-006
 -2.509353608999571E-006
 -2.640865994279837E-006
 -2.760605344354092E-006
 -2.868274621438984E-006
 -2.963620823251057E-006
 -3.046436353259762E-006
 -3.116560268702834E-006
 -3.173879367120544E-006
 -3.218329077952313E-006
 -3.249894130599040E-006
  2.710696573346460E-007
  3.564358986780163E-008
 -1.963526027973978E-007
 -4.241782829832820E-007
 -6.471020715107855E-007
 -8.644085444665271E-007
 -1.075403616955463E-006
 -1.279418646454068E-006
 -1.475813480255563E-006
 -1.663978743645968E-006
 -1.843337646475425E-006
 -2.013347523541704E-006
 -2.173501254927950E-006
 -2.323328653670965E-006
 -2.462397863252181E-006
 -2.590316774920839E-006
 -2.706734452394424E-006
 -2.811342537375328E-006
 -2.903876602015075E-006
 -2.984117412188431E-006
 -3.051892066505602E-006
 -3.107074978871441E-006
 -3.149588675903936E-006
 -3.179404384031643E-006
  2.321290912967935E-007
  5.298169438779600E-009
 -2.184743966656211E-007
 -4.384506213668283E-007
 -6.539006955984159E-007
 -8.641089342046792E-007
 -1.068378829266723E-006
 -1.266037180556396E-006
 -1.456437405985899E-006
 -1.638962203173610E-006
 -1.813025744350484E-006
 -1.978075562141587E-006
 -2.133594244835516E-006
 -2.279101020484281E-006
 -2.414153275751049E-006
 -2.538348029242752E-006
 -2.651323359782449E-006
 -2.752759776872130E-006
 -2.842381512413740E-006
 -2.919957708689696E-006
 -2.985303476441253E-006
 -3.038280797666268E-006
 -3.078799249633034E-006
 -3.106816528963027E-006
  1.921769933170781E-007
 -2.588733104501842E-008
 -2.412710754423058E-007
 -4.532366964765273E-007
 -6.610542986108464E-007
 -8.640069735794100E-007
 -1.061395516485849E-006
 -1.252542467882428E-006
 -1.436795520316699E-006
 -1.613530383630285E-006
 -1.782153224217736E-006
 -1.942102788321624E-006
 -2.092852299998276E-006
 -2.233911200120192E-006
 -2.364826769451426E-006
 -2.485185658927622E-006
 -2.594615334584980E-006
 -2.692785433060954E-006
 -2.779409015722166E-006
 -2.854243704777863E-006
 -2.917092682486180E-006
 -2.967805534105005E-006
 -3.006278915997927E-006
 -3.032457031851168E-006
  1.513838080779480E-007
 -5.777352989148286E-008
 -2.646331351199140E-007
 -4.684562822758417E-007
 -6.685117242777887E-007
 -8.640805330482759E-007
 -1.054460496342341E-006
 -1.238970015069116E-006
 -1.416951505994612E-006
 -1.587774357625467E-006
 -1.750837509061255E-006
 -1.905571725660168E-006
 -2.051441637544783E-006
 -2.187947593206395E-006
 -2.314627365131142E-006
 -2.431057730053523E-006
 -2.536855934276623E-006
 -2.631681045006776E-006
 -2.715235181700301E-006
 -2.787264616793810E-006
 -2.847560732579741E-006
 -2.895960819871589E-006
 -2.932348704216109E-006
 -2.956655186371143E-006
  1.099228748088937E-007
 -9.021991514621351E-008
 -2.884515544309812E-007
 -4.840309405203971E-007
 -6.762245158330860E-007
 -8.643106933322452E-007
 -1.047583960146453E-006
 -1.225358605636877E-006
 -1.396972061655707E-006
 -1.561787874900092E-006
 -1.719198350946950E-006
 -1.868626917269218E-006
 -2.009530251211140E-006
 -2.141400212000007E-006
 -2.263765606457293E-006
 -2.376193808281231E-006
 -2.478292241796787E-006
 -2.569709733615386E-006
 -2.650137729855639E-006
 -2.719311372458223E-006
 -2.777010425531155E-006
 -2.823060041343890E-006
 -2.857331355332048E-006
 -2.879741900065797E-006
  6.796955104737904E-008
 -1.230852049347707E-007
 -3.126176980638030E-007
 -4.998835742718883E-007
 -6.841462472904602E-007
 -8.646809731041192E-007
 -1.040778687435556E-006
 -1.211749557084622E-006
 -1.376926224514986E-006
 -1.535666748967058E-006
 -1.687357263814799E-006
 -1.831414378506367E-006
 -1.967287355443898E-006
 -2.094460089523958E-006
 -2.212452912809331E-006
 -2.320824240459657E-006
 -2.419172067764680E-006
 -2.507135322523652E-006
 -2.584395072439771E-006
 -2.650675583756998E-006
 -2.705745225053874E-006
 -2.749417208804267E-006
 -2.781550162924092E-006
 -2.802048524892872E-006
  2.570037361753989E-008
 -1.562277761788003E-007
 -3.370233746641952E-007
 -5.159381864809830E-007
 -6.922320692964769E-007
 -8.651767466896326E-007
 -1.034059404796906E-006
 -1.198186068383429E-006
 -1.356884732069285E-006
 -1.509508240155962E-006
 -1.655436921813013E-006
 -1.794080996611160E-006
 -1.924882768922327E-006
 -2.047318629620602E-006
 -2.160900881004937E-006
 -2.265179397106730E-006
 -2.359743127356303E-006
 -2.444221447594980E-006
 -2.518285358972863E-006
 -2.581648532564060E-006
 -2.634068195602106E-006
 -2.675345854114373E-006
 -2.705327846322394E-006
 -2.723905721437909E-006
 -1.670774883455805E-008
 -1.895061344279954E-007
 -3.615609969366170E-007
 -5.321197793459641E-007
 -7.004384082483379E-007
 -8.657848041478055E-007
 -1.027442259918048E-006
 -1.184712647612146E-006
 -1.336919428144491E-006
 -1.483410451565832E-006
 -1.623560546285942E-006
 -1.756773902918965E-006
 -1.882486262489351E-006
 -2.000166920028031E-006
 -2.109320553889287E-006
 -2.209488889137109E-006
 -2.300252200793548E-006
 -2.381230660049707E-006
 -2.452085524092349E-006
 -2.512520168176940E-006
 -2.562280957094617E-006
 -2.601157952267966E-006
 -2.628985450388894E-006
 -2.645642349717749E-006
 -5.907831434838640E-008
 -2.227794065617816E-007
 -3.861238090073615E-007
 -5.483543511273281E-007
 -7.087227758883701E-007
 -8.664930187030629E-007
 -1.020944387666182E-006
 -1.171374609276758E-006
 -1.317102714201315E-006
 -1.457471747574040E-006
 -1.591851296769029E-006
 -1.719639835874953E-006
 -1.840266890161335E-006
 -1.953195025816609E-006
 -2.057921670643545E-006
 -2.153980770650506E-006
 -2.240944286098806E-006
 -2.318423528916559E-006
 -2.386070341757351E-006
 -2.443578117576936E-006
 -2.490682657540160E-006
 -2.527162864411790E-006
 -2.552841268362396E-006
 -2.567584382334494E-006
 -1.012359781033315E-007
 -2.559078437532682E-007
 -4.106061574419320E-007
 -5.645689606893022E-007
 -7.170436591798994E-007
 -8.672900957478737E-007
 -1.014583549944897E-006
 -1.158217631730520E-006
 -1.297507044497395E-006
 -1.431790200201446E-006
 -1.560431676069518E-006
 -1.682824507693626E-006
 -1.798392317104243E-006
 -1.906591276702795E-006
 -2.006911910974371E-006
 -2.098880737980011E-006
 -2.182061752089821E-006
 -2.256057748554768E-006
 -2.320511489542476E-006
 -2.375106710382007E-006
 -2.419568964072643E-006
 -2.453666301705957E-006
 -2.477209786340913E-006
 -2.490053838113460E-006
 -1.430072748041455E-007
 -2.887533257401649E-007
 -4.349037895423879E-007
 -5.806918389923762E-007
 -7.253604689091649E-007
 -8.681653843645296E-007
 -1.008377835073750E-006
 -1.145287366338611E-006
 -1.278204462662976E-006
 -1.406463066006579E-006
 -1.529422955975016E-006
 -1.646471983738989E-006
 -1.757028154877426E-006
 -1.860541558704881E-006
 -1.956496142992561E-006
 -2.044411333627002E-006
 -2.123843498773738E-006
 -2.194387256843239E-006
 -2.255676627086453E-006
 -2.307386021205144E-006
 -2.349231073983223E-006
 -2.380969310763725E-006
 -2.402400649612269E-006
 -2.413367736267985E-006
 -1.842213125159095E-007
 -3.211798598870295E-007
 -4.589141673285109E-007
 -5.966525327672361E-007
 -7.336335314174761E-007
 -8.691087371735777E-007
 -1.002345405614491E-006
 -1.132629091354878E-006
 -1.259266176877152E-006
 -1.381586294538425E-006
 -1.498944627732824E-006
 -1.610724080959520E-006
 -1.716337311568549E-006
 -1.815228618228661E-006
 -1.906875682689046E-006
 -1.990791162328013E-006
 -2.066524131429370E-006
 -2.133661369242923E-006
 -2.191828492829491E-006
 -2.240690932566174E-006
 -2.279954748085828E-006
 -2.309367282422960E-006
 -2.328717652271050E-006
 -2.337837072553829E-006
 -2.247104372680614E-007
 -3.530540701975646E-007
 -4.825367888222624E-007
 -6.123820696871658E-007
 -7.418241120331433E-007
 -8.701104078758880E-007
 -9.965042860087145E-007
 -1.120287404642957E-006
 -1.240762170835965E-006
 -1.357254068445876E-006
 -1.469113879845076E-006
 -1.575719789778201E-006
 -1.676479362417752E-006
 -1.770831384786860E-006
 -1.858247571299971E-006
 -1.938234125256897E-006
 -2.010333153828667E-006
 -2.074123933489892E-006
 -2.129224023065622E-006
 -2.175290221707348E-006
 -2.212019369213416E-006
 -2.239148986270702E-006
 -2.256457752418561E-006
 -2.263765819872758E-006
 -2.643108677035590E-007
 -3.842456726375853E-007
 -5.056735104856856E-007
 -6.278131371923553E-007
 -7.498944617131050E-007
 -8.711609784063589E-007
 -9.908721832681729E-007
 -1.108305950407140E-006
 -1.222760847865017E-006
 -1.333558374765307E-006
 -1.440045104638785E-006
 -1.541594722430170E-006
 -1.637609945024345E-006
 -1.727524317088516E-006
 -1.810803875559970E-006
 -1.886948677296880E-006
 -1.955494185255894E-006
 -2.016012509165224E-006
 -2.068113497096577E-006
 -2.111445674664576E-006
 -2.145697028851749E-006
 -2.170595633743531E-006
 -2.185910115767512E-006
 -2.191449956398013E-006
 -3.028632990988475E-007
 -4.146279339904397E-007
 -5.282288662115924E-007
 -6.428802691090276E-007
 -7.578078804956620E-007
 -8.722513095110446E-007
 -9.854663353846420E-007
 -1.096727175929095E-006
 -1.205328705766296E-006
 -1.310588606612433E-006
 -1.411849434335886E-006
 -1.508480589739990E-006
 -1.599880182080037E-006
 -1.685476776087508E-006
 -1.764731014766652E-006
 -1.837137111415463E-006
 -1.902224205268036E-006
 -1.959557575882822E-006
 -2.008739711971533E-006
 -2.049411230836675E-006
 -2.081251644974731E-006
 -2.103979972788840E-006
 -2.117355190731178E-006
 -2.121176524597403E-006
 -3.402134761822569E-007
 -4.440781121241470E-007
 -5.501103794025286E-007
 -6.575200356336827E-007
 -7.655287928738915E-007
 -8.733725099380115E-007
 -9.803033832083517E-007
 -1.085592114988794E-006
 -1.188530040223551E-006
 -1.288431194327181E-006
 -1.384634306844693E-006
 -1.476504707589036E-006
 -1.563436133696743E-006
 -1.644852427650804E-006
 -1.720209117709156E-006
 -1.788994873370384E-006
 -1.850732829468835E-006
 -1.904981773312015E-006
 -1.951337189927397E-006
 -1.989432161057126E-006
 -2.018938114025676E-006
 -2.039565417066794E-006
 -2.051063818125214E-006
 -2.053222724584512E-006
 -3.762127343040456E-007
 -4.724778760472300E-007
 -5.712288654841172E-007
 -6.716712332802458E-007
 -7.730228312997378E-007
 -8.745159204412183E-007
 -9.753992623559009E-007
 -1.074940195172498E-006
 -1.172426674807673E-006
 -1.267169265034875E-006
 -1.358503061156084E-006
 -1.445789533773559E-006
 -1.528418280735926E-006
 -1.605808676791530E-006
 -1.677411411776538E-006
 -1.742709909315309E-006
 -1.801221618987028E-006
 -1.852499175765600E-006
 -1.896131421257642E-006
 -1.931744281892035E-006
 -1.959001499785781E-006
 -1.977605212511341E-006
 -1.987296378478113E-006
 -1.987855045094371E-006
 -4.107185086563126E-007
 -4.997137045250749E-007
 -5.914987228192462E-007
 -6.852750721473158E-007
 -7.802569248364956E-007
 -8.756731095707897E-007
 -9.707691123310055E-007
 -1.064809066702561E-006
 -1.157077715818189E-006
 -1.246882329547332E-006
 -1.333554561963055E-006
 -1.416452235550773E-006
 -1.494961040009110E-006
 -1.568496134821188E-006
 -1.636503645971160E-006
 -1.698462048281333E-006
 -1.753883425809836E-006
 -1.802314603612961E-006
 -1.843338144933124E-006
 -1.876573208542625E-006
 -1.901676261588211E-006
 -1.918341643834463E-006
 -1.926301979717615E-006
 -1.925328435112833E-006
 -4.435948113712075E-007
 -5.256772623407294E-007
 -6.108382104454215E-007
 -6.982753584336159E-007
 -7.871993905812941E-007
 -8.768358787740997E-007
 -9.664272005140136E-007
 -1.055234450735767E-006
 -1.142539330344137E-006
 -1.227645995506098E-006
 -1.309882852962204E-006
 -1.388604287855497E-006
 -1.463192311826807E-006
 -1.533058120305822E-006
 -1.597643549049278E-006
 -1.656422421021663E-006
 -1.708901775647264E-006
 -1.754622973330041E-006
 -1.793162668904200E-006
 -1.824133648382504E-006
 -1.847185524012790E-006
 -1.862005283233284E-006
 -1.868317687670769E-006
 -1.865885518833282E-006
 -4.747126764750246E-007
 -5.502657535365151E-007
 -6.291697114226492E-007
 -7.106186705513498E-007
 -7.938200259293439E-007
 -8.779962747779957E-007
 -9.623868590333407E-007
 -1.046250005345325E-006
 -1.128864546065141E-006
 -1.209531705673195E-006
 -1.287576838155800E-006
 -1.362351101931921E-006
 -1.433233060034018E-006
 -1.499630194327903E-006
 -1.560980323592854E-006
 -1.616752916268848E-006
 -1.666450289582289E-006
 -1.709608687611442E-006
 -1.745799231631961E-006
 -1.774628736793350E-006
 -1.795740389843010E-006
 -1.808814283226350E-006
 -1.813567801460530E-006
 -1.809755856212114E-006
 -5.039505727812212E-007
 -5.733822511825560E-007
 -6.464199808533668E-007
 -7.222545275185564E-007
 -8.000902001041250E-007
 -8.791466075383116E-007
 -9.586604328126435E-007
 -1.037887207596647E-006
 -1.116103071418950E-006
 -1.192606500269150E-006
 -1.266719990383481E-006
 -1.337791683946411E-006
 -1.405196924424514E-006
 -1.468339730244346E-006
 -1.526654176473947E-006
 -1.579605675102743E-006
 -1.626692145390571E-006
 -1.667445066578513E-006
 -1.701430406031917E-006
 -1.728249416609748E-006
 -1.747539297721437E-006
 -1.758973715173975E-006
 -1.762263175494265E-006
 -1.757155250970089E-006
 -5.311947849310252E-007
 -5.949360033782865E-007
 -6.625203778580155E-007
 -7.331355485706398E-007
 -8.059829436407156E-007
 -8.802794723096940E-007
 -9.552592373076780E-007
 -1.030175250291049E-006
 -1.104301134845956E-006
 -1.176932802283554E-006
 -1.247390086244477E-006
 -1.315018323000683E-006
 -1.379189865222164E-006
 -1.439305517884777E-006
 -1.494795885884287E-006
 -1.545122623801281E-006
 -1.589779579094093E-006
 -1.628293820814474E-006
 -1.660226546690608E-006
 -1.685173862159649E-006
 -1.702767425604166E-006
 -1.712674954697362E-006
 -1.714600589368469E-006
 -1.708285107473227E-006
 -5.563397628751497E-007
 -6.148427153417883E-007
 -6.774070809625188E-007
 -7.432176031272174E-007
 -8.114730347260381E-007
 -8.813877745875403E-007
 -9.521935246212441E-007
 -1.023140952084474E-006
 -1.093501341913597E-006
 -1.162568224692106E-006
 -1.229658966525698E-006
 -1.294116307871657E-006
 -1.355309839166406E-006
 -1.412637401933234E-006
 -1.465526404877657E-006
 -1.513435045309944E-006
 -1.555853427037891E-006
 -1.592304566656955E-006
 -1.622345280918486E-006
 -1.645566948575226E-006
 -1.661596140793198E-006
 -1.670095114874089E-006
 -1.670762166653558E-006
 -1.663331837535424E-006
 -5.792884401657143E-007
 -6.330248075428786E-007
 -6.910212864982122E-007
 -7.524599504141108E-007
 -8.165370814651309E-007
 -8.824647568350254E-007
 -9.494724568334696E-007
 -1.016808679806333E-006
 -1.083742549182792E-006
 -1.149565398545711E-006
 -1.213592321241238E-006
 -1.275163671730247E-006
 -1.333646506620569E-006
 -1.388435954090234E-006
 -1.438956501182026E-006
 -1.484663189243545E-006
 -1.525042708553456E-006
 -1.559614383942312E-006
 -1.587931043951551E-006
 -1.609579766792076E-006
 -1.624182497055285E-006
 -1.631396527790950E-006
 -1.630914843203720E-006
 -1.622466317830186E-006
 -5.999525214919702E-007
 -6.494116499204064E-007
 -7.033093897213373E-007
 -7.608253681723701E-007
 -8.211535992874828E-007
 -8.835040260568741E-007
 -9.471040855079693E-007
 -1.011200281900624E-006
 -1.075059753761355E-006
 -1.137971820931565E-006
 -1.199249498366888E-006
 -1.258230964048941E-006
 -1.314280969049775E-006
 -1.366792178494284E-006
 -1.415186432908122E-006
 -1.458915920176560E-006
 -1.497464249091271E-006
 -1.530347416199119E-006
 -1.557114658396427E-006
 -1.577349184420703E-006
 -1.590668779085913E-006
 -1.596726274775214E-006
 -1.595209885354099E-006
 -1.585843398294099E-006
 -6.182527399234736E-007
 -6.639397723029436E-007
 -7.142231484517165E-007
 -7.682802699880650E-007
 -8.253030828181396E-007
 -8.844995813869738E-007
 -9.450953364443538E-007
 -1.006335032010583E-006
 -1.067483997559776E-006
 -1.127829721856804E-006
 -1.186683335389226E-006
 -1.243381048901059E-006
 -1.297285536169541E-006
 -1.347787249819687E-006
 -1.394305659676664E-006
 -1.436290403862278E-006
 -1.473222343564590E-006
 -1.504614513130923E-006
 -1.530012957849985E-006
 -1.548997452493669E-006
 -1.561182094382181E-006
 -1.566215765410670E-006
 -1.563782458133830E-006
 -1.553601461648561E-006
 -6.341190843489666E-007
 -6.765530511796948E-007
 -7.237198290973910E-007
 -7.747948108705631E-007
 -8.289680716445107E-007
 -8.854458409704811E-007
 -9.434519988524492E-007
 -1.002229581823251E-006
 -1.061042285338699E-006
 -1.119175949155265E-006
 -1.175940012810657E-006
 -1.230668928853355E-006
 -1.282723522049191E-006
 -1.331492283420001E-006
 -1.376392588632398E-006
 -1.416871830935463E-006
 -1.452408459550530E-006
 -1.482512915114628E-006
 -1.506728454489686E-006
 -1.524631857946975E-006
 -1.535834012429294E-006
 -1.539980365272490E-006
 -1.536751243438626E-006
 -1.525862033965050E-006
 -6.474909976022703E-007
 -6.872028730134576E-007
 -7.317623349897098E-007
 -7.803429807744890E-007
 -8.321332094909398E-007
 -8.863376675146892E-007
 -9.421787182195451E-007
 -9.988979223755528E-007
 -1.055757515725270E-006
 -1.112041870593651E-006
 -1.167058928809008E-006
 -1.220141593698424E-006
 -1.270649069469162E-006
 -1.317968136885652E-006
 -1.361514354781924E-006
 -1.400733177613703E-006
 -1.435100979934582E-006
 -1.464125979367590E-006
 -1.487349050347186E-006
 -1.504344421595931E-006
 -1.514720250994945E-006
 -1.518119072192401E-006
 -1.514218107969871E-006
 -1.502729446053337E-006
 -6.583175457441393E-007
 -6.958482742940438E-007
 -7.383193169887669E-007
 -7.849026858303758E-007
 -8.347852963991338E-007
 -8.871703919709374E-007
 -9.412789922360792E-007
 -9.963513531266208E-007
 -1.051648424462091E-006
 -1.106453292431510E-006
 -1.160072594316345E-006
 -1.211837893317680E-006
 -1.261107001871170E-006
 -1.307265242404238E-006
 -1.349726635103532E-006
 -1.387935002901925E-006
 -1.421364984560251E-006
 -1.449522947399269E-006
 -1.471947791927758E-006
 -1.488211641303080E-006
 -1.497920409254039E-006
 -1.500714240784705E-006
 -1.496267820660300E-006
 -1.484290545355566E-006
 -6.665575589427044E-007
 -7.024560585319520E-007
 -7.433652663521120E-007
 -7.884558170927659E-007
 -8.369133335798571E-007
 -8.879398348967042E-007
 -9.407551692409659E-007
 -9.945984581929586E-007
 -1.048729539251135E-006
 -1.102430393779406E-006
 -1.155006547866977E-006
 -1.205788434044698E-006
 -1.254132702295920E-006
 -1.299423469359144E-006
 -1.341073495907210E-006
 -1.378525281825008E-006
 -1.411252070455345E-006
 -1.438758753359775E-006
 -1.460582667822158E-006
 -1.476294280014220E-006
 -1.485497747434683E-006
 -1.487831354925819E-006
 -1.482967819260971E-006
 -1.470614457983239E-006
 -6.721797443464503E-007
 -7.070008903814391E-007
 -7.468805898782561E-007
 -7.909883066711477E-007
 -8.385085606687206E-007
 -8.886423251318982E-007
 -9.406084487415782E-007
 -9.936450892458063E-007
 -1.047011145654604E-006
 -1.099987676202238E-006
 -1.151879289659262E-006
 -1.202015497981707E-006
 -1.249752018786799E-006
 -1.294472016671732E-006
 -1.335587272983224E-006
 -1.372539274262757E-006
 -1.404800210241901E-006
 -1.431873872924488E-006
 -1.453296448978848E-006
 -1.468637198347784E-006
 -1.477499012679450E-006
 -1.479518847877228E-006
 -1.474368025761389E-006
 -1.461752400529342E-006
 -6.751627712802353E-007
 -7.094653670610271E-007
 -7.488516673482807E-007
 -7.924901711390626E-007
 -8.395644851853283E-007
 -8.892747155041880E-007
 -9.408388836588206E-007
 -9.934943546776962E-007
 -1.046499263628945E-006
 -1.099133928126480E-006
 -1.150702234382755E-006
 -1.200532984831990E-006
 -1.247981195832485E-006
 -1.292429334480554E-006
 -1.333288484156333E-006
 -1.369999429028944E-006
 -1.402033648397595E-006
 -1.428894212405233E-006
 -1.450116571343958E-006
 -1.465269231458530E-006
 -1.473954310849133E-006
 -1.475807969773264E-006
 -1.470500710343976E-006
 -1.457737541322124E-006
SCALARS elementIsPlast double 
LOOKUP_TABLE default
  0.000000000000000E+000
  0.000000000000000E+000
  0.000000000000000E+000
  0.000000000000000E+000
  0.000000000000000E+000
  0.000000000000000E+000
  0.000000000000000E+000
  0.000000000000000E+000
  0.000000000000000E+000
  0.000000000000000E+000
  0.000000000000000E+000
  0.000000000000000E+000
  0.000000000000000E+000
  0.000000000000000E+000
  0.000000000000000E+000
  0.000000000000000E+000
  0.000000000000000E+000
  0.000000000000000E+000
  0.000000000000000E+000
  0.000000000000000E+000
  0.000000000000000E+000
  0.000000000000000E+000
  0.000000000000000E+000
  0.000000000000000E+000
  0.000000000000000E+000
  0.000000000000000E+000
  0.000000000000000E+000
  0.000000000000000E+000
  0.000000000000000E+000
  0.000000000000000E+000
  0.000000000000000E+000
  0.000000000000000E+000
  0.000000000000000E+000
  0.000000000000000E+000
  0.000000000000000E+000
  0.000000000000000E+000
  0.000000000000000E+000
  0.000000000000000E+000
  0.000000000000000E+000
  0.000000000000000E+000
  0.000000000000000E+000
  0.000000000000000E+000
  0.000000000000000E+000
  0.000000000000000E+000
  0.000000000000000E+000
  0.000000000000000E+000
  0.000000000000000E+000
  0.000000000000000E+000
  0.000000000000000E+000
  0.000000000000000E+000
  0.000000000000000E+000
  0.000000000000000E+000
  0.000000000000000E+000
  0.000000000000000E+000
  0.000000000000000E+000
  0.000000000000000E+000
  0.000000000000000E+000
  0.000000000000000E+000
  0.000000000000000E+000
  0.000000000000000E+000
  0.000000000000000E+000
  0.000000000000000E+000
  0.000000000000000E+000
  0.000000000000000E+000
  0.000000000000000E+000
  0.000000000000000E+000
  0.000000000000000E+000
  0.000000000000000E+000
  0.000000000000000E+000
  0.000000000000000E+000
  0.000000000000000E+000
  0.000000000000000E+000
  0.000000000000000E+000
  0.000000000000000E+000
  0.000000000000000E+000
  0.000000000000000E+000
  0.000000000000000E+000
  0.000000000000000E+000
  0.000000000000000E+000
  0.000000000000000E+000
  0.000000000000000E+000
  0.000000000000000E+000
  0.000000000000000E+000
  0.000000000000000E+000
  0.000000000000000E+000
  0.000000000000000E+000
  0.000000000000000E+000
  0.000000000000000E+000
  0.000000000000000E+000
  0.000000000000000E+000
  0.000000000000000E+000
  0.000000000000000E+000
  0.000000000000000E+000
  0.000000000000000E+000
  0.000000000000000E+000
  0.000000000000000E+000
  0.000000000000000E+000
  0.000000000000000E+000
  0.000000000000000E+000
  0.000000000000000E+000
  0.000000000000000E+000
  0.000000000000000E+000
  0.000000000000000E+000
  0.000000000000000E+000
  0.000000000000000E+000
  0.000000000000000E+000
  0.000000000000000E+000
  0.000000000000000E+000
  0.000000000000000E+000
  0.000000000000000E+000
  0.000000000000000E+000
  0.000000000000000E+000
  0.000000000000000E+000
  0.000000000000000E+000
  0.000000000000000E+000
  0.000000000000000E+000
  0.000000000000000E+000
  0.000000000000000E+000
  0.000000000000000E+000
  0.000000000000000E+000
  0.000000000000000E+000
  0.000000000000000E+000
  0.000000000000000E+000
  0.000000000000000E+000
  0.000000000000000E+000
  0.000000000000000E+000
  0.000000000000000E+000
  0.000000000000000E+000
  0.000000000000000E+000
  0.000000000000000E+000
  0.000000000000000E+000
  0.000000000000000E+000
  0.000000000000000E+000
  0.000000000000000E+000
  0.000000000000000E+000
  0.000000000000000E+000
  0.000000000000000E+000
  0.000000000000000E+000
  0.000000000000000E+000
  0.000000000000000E+000
  0.000000000000000E+000
  0.000000000000000E+000
  0.000000000000000E+000
  0.000000000000000E+000
  0.000000000000000E+000
  0.000000000000000E+000
  0.000000000000000E+000
  0.000000000000000E+000
  0.000000000000000E+000
  0.000000000000000E+000
  0.000000000000000E+000
  0.000000000000000E+000
  0.000000000000000E+000
  0.000000000000000E+000
  0.000000000000000E+000
  0.000000000000000E+000
  0.000000000000000E+000
  0.000000000000000E+000
  0.000000000000000E+000
  0.000000000000000E+000
  0.000000000000000E+000
  0.000000000000000E+000
  0.000000000000000E+000
  0.000000000000000E+000
  0.000000000000000E+000
  0.000000000000000E+000
  0.000000000000000E+000
  0.000000000000000E+000
  0.000000000000000E+000
  0.000000000000000E+000
  0.000000000000000E+000
  0.000000000000000E+000
  0.000000000000000E+000
  0.000000000000000E+000
  0.000000000000000E+000
  0.000000000000000E+000
  0.000000000000000E+000
  0.000000000000000E+000
  0.000000000000000E+000
  0.000000000000000E+000
  0.000000000000000E+000
  0.000000000000000E+000
  0.000000000000000E+000
  0.000000000000000E+000
  0.000000000000000E+000
  0.000000000000000E+000
  0.000000000000000E+000
  0.000000000000000E+000
  0.000000000000000E+000
  0.000000000000000E+000
  0.000000000000000E+000
  0.000000000000000E+000
  0.000000000000000E+000
  0.000000000000000E+000
  0.000000000000000E+000
  0.000000000000000E+000
  0.000000000000000E+000
  0.000000000000000E+000
  0.000000000000000E+000
  0.000000000000000E+000
  0.000000000000000E+000
  0.000000000000000E+000
  0.000000000000000E+000
  0.000000000000000E+000
  0.000000000000000E+000
  0.000000000000000E+000
  0.000000000000000E+000
  0.000000000000000E+000
  0.000000000000000E+000
  0.000000000000000E+000
  0.000000000000000E+000
  0.000000000000000E+000
  0.000000000000000E+000
  0.000000000000000E+000
  0.000000000000000E+000
  0.000000000000000E+000
  0.000000000000000E+000
  0.000000000000000E+000
  0.000000000000000E+000
  0.000000000000000E+000
  0.000000000000000E+000
  0.000000000000000E+000
  0.000000000000000E+000
  0.000000000000000E+000
  0.000000000000000E+000
  0.000000000000000E+000
  0.000000000000000E+000
  0.000000000000000E+000
  0.000000000000000E+000
  0.000000000000000E+000
  0.000000000000000E+000
  0.000000000000000E+000
  0.000000000000000E+000
  0.000000000000000E+000
  0.000000000000000E+000
  0.000000000000000E+000
  0.000000000000000E+000
  0.000000000000000E+000
  0.000000000000000E+000
  0.000000000000000E+000
  0.000000000000000E+000
  0.000000000000000E+000
  0.000000000000000E+000
  0.000000000000000E+000
  0.000000000000000E+000
  0.000000000000000E+000
  0.000000000000000E+000
  0.000000000000000E+000
  0.000000000000000E+000
  0.000000000000000E+000
  0.000000000000000E+000
  0.000000000000000E+000
  0.000000000000000E+000
  0.000000000000000E+000
  0.000000000000000E+000
  0.000000000000000E+000
  0.000000000000000E+000
  0.000000000000000E+000
  0.000000000000000E+000
  0.000000000000000E+000
  0.000000000000000E+000
  0.000000000000000E+000
  0.000000000000000E+000
  0.000000000000000E+000
  0.000000000000000E+000
  0.000000000000000E+000
  0.000000000000000E+000
  0.000000000000000E+000
  0.000000000000000E+000
  0.000000000000000E+000
  0.000000000000000E+000
  0.000000000000000E+000
  0.000000000000000E+000
  0.000000000000000E+000
  0.000000000000000E+000
  0.000000000000000E+000
  0.000000000000000E+000
  0.000000000000000E+000
  0.000000000000000E+000
  0.000000000000000E+000
  0.000000000000000E+000
  0.000000000000000E+000
  0.000000000000000E+000
  0.000000000000000E+000
  0.000000000000000E+000
  0.000000000000000E+000
  0.000000000000000E+000
  0.000000000000000E+000
  0.000000000000000E+000
  0.000000000000000E+000
  0.000000000000000E+000
  0.000000000000000E+000
  0.000000000000000E+000
  0.000000000000000E+000
  0.000000000000000E+000
  0.000000000000000E+000
  0.000000000000000E+000
  0.000000000000000E+000
  0.000000000000000E+000
  0.000000000000000E+000
  0.000000000000000E+000
  0.000000000000000E+000
  0.000000000000000E+000
  0.000000000000000E+000
  0.000000000000000E+000
  0.000000000000000E+000
  0.000000000000000E+000
  0.000000000000000E+000
  0.000000000000000E+000
  0.000000000000000E+000
  0.000000000000000E+000
  0.000000000000000E+000
  0.000000000000000E+000
  0.000000000000000E+000
  0.000000000000000E+000
  0.000000000000000E+000
  0.000000000000000E+000
  0.000000000000000E+000
  0.000000000000000E+000
  0.000000000000000E+000
  0.000000000000000E+000
  0.000000000000000E+000
  0.000000000000000E+000
  0.000000000000000E+000
  0.000000000000000E+000
  0.000000000000000E+000
  0.000000000000000E+000
  0.000000000000000E+000
  0.000000000000000E+000
  0.000000000000000E+000
  0.000000000000000E+000
  0.000000000000000E+000
  0.000000000000000E+000
  0.000000000000000E+000
  0.000000000000000E+000
  0.000000000000000E+000
  0.000000000000000E+000
  0.000000000000000E+000
  0.000000000000000E+000
  0.000000000000000E+000
  0.000000000000000E+000
  0.000000000000000E+000
  0.000000000000000E+000
  0.000000000000000E+000
  0.000000000000000E+000
  0.000000000000000E+000
  0.000000000000000E+000
  0.000000000000000E+000
  0.000000000000000E+000
  0.000000000000000E+000
  0.000000000000000E+000
  0.000000000000000E+000
  0.000000000000000E+000
  0.000000000000000E+000
  0.000000000000000E+000
  0.000000000000000E+000
  0.000000000000000E+000
  0.000000000000000E+000
  0.000000000000000E+000
  0.000000000000000E+000
  0.000000000000000E+000
  0.000000000000000E+000
  0.000000000000000E+000
  0.000000000000000E+000
  0.000000000000000E+000
  0.000000000000000E+000
  0.000000000000000E+000
  0.000000000000000E+000
  0.000000000000000E+000
  0.000000000000000E+000
  0.000000000000000E+000
  0.000000000000000E+000
  0.000000000000000E+000
  0.000000000000000E+000
  0.000000000000000E+000
  0.000000000000000E+000
  0.000000000000000E+000
  0.000000000000000E+000
  0.000000000000000E+000
  0.000000000000000E+000
  0.000000000000000E+000
  0.000000000000000E+000
  0.000000000000000E+000
  0.000000000000000E+000
  0.000000000000000E+000
  0.000000000000000E+000
  0.000000000000000E+000
  0.000000000000000E+000
  0.000000000000000E+000
  0.000000000000000E+000
  0.000000000000000E+000
  0.000000000000000E+000
  0.000000000000000E+000
  0.000000000000000E+000
  0.000000000000000E+000
  0.000000000000000E+000
  0.000000000000000E+000
  0.000000000000000E+000
  0.000000000000000E+000
  0.000000000000000E+000
  0.000000000000000E+000
  0.000000000000000E+000
  0.000000000000000E+000
  0.000000000000000E+000
  0.000000000000000E+000
  0.000000000000000E+000
  0.000000000000000E+000
  0.000000000000000E+000
  0.000000000000000E+000
  0.000000000000000E+000
  0.000000000000000E+000
  0.000000000000000E+000
  0.000000000000000E+000
  0.000000000000000E+000
  0.000000000000000E+000
  0.000000000000000E+000
  0.000000000000000E+000
  0.000000000000000E+000
  0.000000000000000E+000
  0.000000000000000E+000
  0.000000000000000E+000
  0.000000000000000E+000
  0.000000000000000E+000
  0.000000000000000E+000
  0.000000000000000E+000
  0.000000000000000E+000
  0.000000000000000E+000
  0.000000000000000E+000
  0.000000000000000E+000
  0.000000000000000E+000
  0.000000000000000E+000
  0.000000000000000E+000
  0.000000000000000E+000
  0.000000000000000E+000
  0.000000000000000E+000
  0.000000000000000E+000
  0.000000000000000E+000
  0.000000000000000E+000
  0.000000000000000E+000
  0.000000000000000E+000
  0.000000000000000E+000
  0.000000000000000E+000
  0.000000000000000E+000
  0.000000000000000E+000
  0.000000000000000E+000
  0.000000000000000E+000
  0.000000000000000E+000
  0.000000000000000E+000
  0.000000000000000E+000
  0.000000000000000E+000
  0.000000000000000E+000
  0.000000000000000E+000
  0.000000000000000E+000
  0.000000000000000E+000
  0.000000000000000E+000
  0.000000000000000E+000
  0.000000000000000E+000
  0.000000000000000E+000
  0.000000000000000E+000
  0.000000000000000E+000
  0.000000000000000E+000
  0.000000000000000E+000
  0.000000000000000E+000
  0.000000000000000E+000
  0.000000000000000E+000
  0.000000000000000E+000
  0.000000000000000E+000
  0.000000000000000E+000
  0.000000000000000E+000
  0.000000000000000E+000
  0.000000000000000E+000
  0.000000000000000E+000
  0.000000000000000E+000
  0.000000000000000E+000
  0.000000000000000E+000
  0.000000000000000E+000
  0.000000000000000E+000
  0.000000000000000E+000
  0.000000000000000E+000
  0.000000000000000E+000
  0.000000000000000E+000
  0.000000000000000E+000
  0.000000000000000E+000
  0.000000000000000E+000
  0.000000000000000E+000
  0.000000000000000E+000
  0.000000000000000E+000
  0.000000000000000E+000
  0.000000000000000E+000
  0.000000000000000E+000
  0.000000000000000E+000
  0.000000000000000E+000
  0.000000000000000E+000
  0.000000000000000E+000
  0.000000000000000E+000
  0.000000000000000E+000
  0.000000000000000E+000
  0.000000000000000E+000
  0.000000000000000E+000
  0.000000000000000E+000
  0.000000000000000E+000
  0.000000000000000E+000
  0.000000000000000E+000
  0.000000000000000E+000
  0.000000000000000E+000
  0.000000000000000E+000
  0.000000000000000E+000
  0.000000000000000E+000
  0.000000000000000E+000
  0.000000000000000E+000
  0.000000000000000E+000
  0.000000000000000E+000
  0.000000000000000E+000
  0.000000000000000E+000
  0.000000000000000E+000
  0.000000000000000E+000
  0.000000000000000E+000
  0.000000000000000E+000
  0.000000000000000E+000
  0.000000000000000E+000
  0.000000000000000E+000
  0.000000000000000E+000
  0.000000000000000E+000
  0.000000000000000E+000
  0.000000000000000E+000
  0.000000000000000E+000
  0.000000000000000E+000
  0.000000000000000E+000
  0.000000000000000E+000
  0.000000000000000E+000
  0.000000000000000E+000
  0.000000000000000E+000
  0.000000000000000E+000
  0.000000000000000E+000
  0.000000000000000E+000
  0.000000000000000E+000
  0.000000000000000E+000
  0.000000000000000E+000
  0.000000000000000E+000
  0.000000000000000E+000
  0.000000000000000E+000
  0.000000000000000E+000
  0.000000000000000E+000
  0.000000000000000E+000
  0.000000000000000E+000
  0.000000000000000E+000
  0.000000000000000E+000
  0.000000000000000E+000
  0.000000000000000E+000
  0.000000000000000E+000
  0.000000000000000E+000
  0.000000000000000E+000
  0.000000000000000E+000
  0.000000000000000E+000
  0.000000000000000E+000
  0.000000000000000E+000
  0.000000000000000E+000
  0.000000000000000E+000
  0.000000000000000E+000
  0.000000000000000E+000
  0.000000000000000E+000
  0.000000000000000E+000
  0.000000000000000E+000
  0.000000000000000E+000
  0.000000000000000E+000
  0.000000000000000E+000
  0.000000000000000E+000
  0.000000000000000E+000
  0.000000000000000E+000
  0.000000000000000E+000
  0.000000000000000E+000
  0.000000000000000E+000
  0.000000000000000E+000
  0.000000000000000E+000
  0.000000000000000E+000
  0.000000000000000E+000
  0.000000000000000E+000
  0.000000000000000E+000
  0.000000000000000E+000
  0.000000000000000E+000
  0.000000000000000E+000
  0.000000000000000E+000
  0.000000000000000E+000
  0.000000000000000E+000
  0.000000000000000E+000
  0.000000000000000E+000
  0.000000000000000E+000
  0.000000000000000E+000
  0.000000000000000E+000
  0.000000000000000E+000
  0.000000000000000E+000
  0.000000000000000E+000
  0.000000000000000E+000
  0.000000000000000E+000
  0.000000000000000E+000
  0.000000000000000E+000
  0.000000000000000E+000
  0.000000000000000E+000
  0.000000000000000E+000
  0.000000000000000E+000
  0.000000000000000E+000
  0.000000000000000E+000
  0.000000000000000E+000
  0.000000000000000E+000
  0.000000000000000E+000
  0.000000000000000E+000
  0.000000000000000E+000
  0.000000000000000E+000
  0.000000000000000E+000
  0.000000000000000E+000
  0.000000000000000E+000
  0.000000000000000E+000
  0.000000000000000E+000
  0.000000000000000E+000
  0.000000000000000E+000
  0.000000000000000E+000
  0.000000000000000E+000
  0.000000000000000E+000
  0.000000000000000E+000
  0.000000000000000E+000
  0.000000000000000E+000
  0.000000000000000E+000
  0.000000000000000E+000
  0.000000000000000E+000
  0.000000000000000E+000
  0.000000000000000E+000
  0.000000000000000E+000
  0.000000000000000E+000
  0.000000000000000E+000
  0.000000000000000E+000
  0.000000000000000E+000
  0.000000000000000E+000
  0.000000000000000E+000
  0.000000000000000E+000
  0.000000000000000E+000
  0.000000000000000E+000
  0.000000000000000E+000
  0.000000000000000E+000
  0.000000000000000E+000
  0.000000000000000E+000
  0.000000000000000E+000
  0.000000000000000E+000
  0.000000000000000E+000
  0.000000000000000E+000
  0.000000000000000E+000
  0.000000000000000E+000
  0.000000000000000E+000
  0.000000000000000E+000
  0.000000000000000E+000
  0.000000000000000E+000
  0.000000000000000E+000
  0.000000000000000E+000
  0.000000000000000E+000
  0.000000000000000E+000
  0.000000000000000E+000
  0.000000000000000E+000
  0.000000000000000E+000
  0.000000000000000E+000
  0.000000000000000E+000
  0.000000000000000E+000
  0.000000000000000E+000
  0.000000000000000E+000
  0.000000000000000E+000
  0.000000000000000E+000
  0.000000000000000E+000
  0.000000000000000E+000
  0.000000000000000E+000
  0.000000000000000E+000
  0.000000000000000E+000
  0.000000000000000E+000
  0.000000000000000E+000
  0.000000000000000E+000
  0.000000000000000E+000
  0.000000000000000E+000
  0.000000000000000E+000
  0.000000000000000E+000
  0.000000000000000E+000
  0.000000000000000E+000
  0.000000000000000E+000
  0.000000000000000E+000
  0.000000000000000E+000
  0.000000000000000E+000
  0.000000000000000E+000
  0.000000000000000E+000
  0.000000000000000E+000
  0.000000000000000E+000
  0.000000000000000E+000
  0.000000000000000E+000
  0.000000000000000E+000
  0.000000000000000E+000
  0.000000000000000E+000
  0.000000000000000E+000
  0.000000000000000E+000
  0.000000000000000E+000
  0.000000000000000E+000
  0.000000000000000E+000
  0.000000000000000E+000
  0.000000000000000E+000
  0.000000000000000E+000
  0.000000000000000E+000
  0.000000000000000E+000
  0.000000000000000E+000
  0.000000000000000E+000
  0.000000000000000E+000
  0.000000000000000E+000
  0.000000000000000E+000
  0.000000000000000E+000
  0.000000000000000E+000
  0.000000000000000E+000
  0.000000000000000E+000
  0.000000000000000E+000
  0.000000000000000E+000
  0.000000000000000E+000
  0.000000000000000E+000
  0.000000000000000E+000
  0.000000000000000E+000
  0.000000000000000E+000
  0.000000000000000E+000
  0.000000000000000E+000
  0.000000000000000E+000
  0.000000000000000E+000
  0.000000000000000E+000
  0.000000000000000E+000
  0.000000000000000E+000
  0.000000000000000E+000
  0.000000000000000E+000
  0.000000000000000E+000
  0.000000000000000E+000
  0.000000000000000E+000
  0.000000000000000E+000
  0.000000000000000E+000
  0.000000000000000E+000
  0.000000000000000E+000
  0.000000000000000E+000
  0.000000000000000E+000
  0.000000000000000E+000
  0.000000000000000E+000
  0.000000000000000E+000
  0.000000000000000E+000
  0.000000000000000E+000
  0.000000000000000E+000
  0.000000000000000E+000
  0.000000000000000E+000
  0.000000000000000E+000
  0.000000000000000E+000
  0.000000000000000E+000
  0.000000000000000E+000
  0.000000000000000E+000
  0.000000000000000E+000
  0.000000000000000E+000
  0.000000000000000E+000
  0.000000000000000E+000
  0.000000000000000E+000
  0.000000000000000E+000
  0.000000000000000E+000
  0.000000000000000E+000
  0.000000000000000E+000
  0.000000000000000E+000
  0.000000000000000E+000
  0.000000000000000E+000
  0.000000000000000E+000
  0.000000000000000E+000
  0.000000000000000E+000
  0.000000000000000E+000
  0.000000000000000E+000
  0.000000000000000E+000
  0.000000000000000E+000
  0.000000000000000E+000
  0.000000000000000E+000
  0.000000000000000E+000
  0.000000000000000E+000
  0.000000000000000E+000
  0.000000000000000E+000
  0.000000000000000E+000
  0.000000000000000E+000
  0.000000000000000E+000
  0.000000000000000E+000
  0.000000000000000E+000
  0.000000000000000E+000
  0.000000000000000E+000
  0.000000000000000E+000
  0.000000000000000E+000
  0.000000000000000E+000
  0.000000000000000E+000
  0.000000000000000E+000
  0.000000000000000E+000
  0.000000000000000E+000
  0.000000000000000E+000
  0.000000000000000E+000
  0.000000000000000E+000
  0.000000000000000E+000
  0.000000000000000E+000
  0.000000000000000E+000
  0.000000000000000E+000
  0.000000000000000E+000
  0.000000000000000E+000
  0.000000000000000E+000
  0.000000000000000E+000
  0.000000000000000E+000
  0.000000000000000E+000
  0.000000000000000E+000
  0.000000000000000E+000
  0.000000000000000E+000
  0.000000000000000E+000
  0.000000000000000E+000
  0.000000000000000E+000
  0.000000000000000E+000
  0.000000000000000E+000
  0.000000000000000E+000
  0.000000000000000E+000
  0.000000000000000E+000
  0.000000000000000E+000
  0.000000000000000E+000
  0.000000000000000E+000
  0.000000000000000E+000
  0.000000000000000E+000
  0.000000000000000E+000
  0.000000000000000E+000
  0.000000000000000E+000
  0.000000000000000E+000
  0.000000000000000E+000
  0.000000000000000E+000
  0.000000000000000E+000
  0.000000000000000E+000
  0.000000000000000E+000
  0.000000000000000E+000
  0.000000000000000E+000
  0.000000000000000E+000
  0.000000000000000E+000
  0.000000000000000E+000
  0.000000000000000E+000
  0.000000000000000E+000
  0.000000000000000E+000
  0.000000000000000E+000
  0.000000000000000E+000
  0.000000000000000E+000
  0.000000000000000E+000
  0.000000000000000E+000
  0.000000000000000E+000
  0.000000000000000E+000
  0.000000000000000E+000
  0.000000000000000E+000
  0.000000000000000E+000
  0.000000000000000E+000
  0.000000000000000E+000
  0.000000000000000E+000
  0.000000000000000E+000
  0.000000000000000E+000
  0.000000000000000E+000
  0.000000000000000E+000
  0.000000000000000E+000
  0.000000000000000E+000
  0.000000000000000E+000
  0.000000000000000E+000
  0.000000000000000E+000
  0.000000000000000E+000
  0.000000000000000E+000
  0.000000000000000E+000
  0.000000000000000E+000
  0.000000000000000E+000
  0.000000000000000E+000
  0.000000000000000E+000
  0.000000000000000E+000
  0.000000000000000E+000
  0.000000000000000E+000
  0.000000000000000E+000
  0.000000000000000E+000
  0.000000000000000E+000
  0.000000000000000E+000
  0.000000000000000E+000
  0.000000000000000E+000
  0.000000000000000E+000
  0.000000000000000E+000
  0.000000000000000E+000
  0.000000000000000E+000
  0.000000000000000E+000
  0.000000000000000E+000
  0.000000000000000E+000
  0.000000000000000E+000
  0.000000000000000E+000
  0.000000000000000E+000
  0.000000000000000E+000
  0.000000000000000E+000
  0.000000000000000E+000
  0.000000000000000E+000
  0.000000000000000E+000
  0.000000000000000E+000
  0.000000000000000E+000
  0.000000000000000E+000
  0.000000000000000E+000
  0.000000000000000E+000
  0.000000000000000E+000
  0.000000000000000E+000
  0.000000000000000E+000
  0.000000000000000E+000
  0.000000000000000E+000
  0.000000000000000E+000
  0.000000000000000E+000
  0.000000000000000E+000
  0.000000000000000E+000
  0.000000000000000E+000
  0.000000000000000E+000
  0.000000000000000E+000
  0.000000000000000E+000
  0.000000000000000E+000
  0.000000000000000E+000
  0.000000000000000E+000
  0.000000000000000E+000
  0.000000000000000E+000
  0.000000000000000E+000
  0.000000000000000E+000
  0.000000000000000E+000
  0.000000000000000E+000
  0.000000000000000E+000
  0.000000000000000E+000
  0.000000000000000E+000
  0.000000000000000E+000
  0.000000000000000E+000
  0.000000000000000E+000
  0.000000000000000E+000
  0.000000000000000E+000
  0.000000000000000E+000
  0.000000000000000E+000
  0.000000000000000E+000
  0.000000000000000E+000
  0.000000000000000E+000
  0.000000000000000E+000
  0.000000000000000E+000
  0.000000000000000E+000
  0.000000000000000E+000
  0.000000000000000E+000
  0.000000000000000E+000
  0.000000000000000E+000
  0.000000000000000E+000
  0.000000000000000E+000
  0.000000000000000E+000
  0.000000000000000E+000
  0.000000000000000E+000
  0.000000000000000E+000
  0.000000000000000E+000
  0.000000000000000E+000
  0.000000000000000E+000
  0.000000000000000E+000
  0.000000000000000E+000
  0.000000000000000E+000
  0.000000000000000E+000
  0.000000000000000E+000
  0.000000000000000E+000
  0.000000000000000E+000
  0.000000000000000E+000
  0.000000000000000E+000
  0.000000000000000E+000
  0.000000000000000E+000
  0.000000000000000E+000
  0.000000000000000E+000
  0.000000000000000E+000
  0.000000000000000E+000
  0.000000000000000E+000
  0.000000000000000E+000
  0.000000000000000E+000
  0.000000000000000E+000
  0.000000000000000E+000
  0.000000000000000E+000
  0.000000000000000E+000
  0.000000000000000E+000
  0.000000000000000E+000
  0.000000000000000E+000
  0.000000000000000E+000
  0.000000000000000E+000
  0.000000000000000E+000
  0.000000000000000E+000
  0.000000000000000E+000
  0.000000000000000E+000
  0.000000000000000E+000
  0.000000000000000E+000
  0.000000000000000E+000
  0.000000000000000E+000
  0.000000000000000E+000
  0.000000000000000E+000
  0.000000000000000E+000
  0.000000000000000E+000
  0.000000000000000E+000
  0.000000000000000E+000
  0.000000000000000E+000
  0.000000000000000E+000
  0.000000000000000E+000
  0.000000000000000E+000
  0.000000000000000E+000
  0.000000000000000E+000
  0.000000000000000E+000
  0.000000000000000E+000
  0.000000000000000E+000
  0.000000000000000E+000
  0.000000000000000E+000
  0.000000000000000E+000
  0.000000000000000E+000
  0.000000000000000E+000
  0.000000000000000E+000
  0.000000000000000E+000
  0.000000000000000E+000
  0.000000000000000E+000
  0.000000000000000E+000
  0.000000000000000E+000
  0.000000000000000E+000
  0.000000000000000E+000
  0.000000000000000E+000
  0.000000000000000E+000
  0.000000000000000E+000
  0.000000000000000E+000
  0.000000000000000E+000
  0.000000000000000E+000
  0.000000000000000E+000
  0.000000000000000E+000
  0.000000000000000E+000
  0.000000000000000E+000
  0.000000000000000E+000
  0.000000000000000E+000
  0.000000000000000E+000
  0.000000000000000E+000
  0.000000000000000E+000
  0.000000000000000E+000
  0.000000000000000E+000
  0.000000000000000E+000
  0.000000000000000E+000
  0.000000000000000E+000
  0.000000000000000E+000
  0.000000000000000E+000
  0.000000000000000E+000
  0.000000000000000E+000
  0.000000000000000E+000
  0.000000000000000E+000
  0.000000000000000E+000
  0.000000000000000E+000
  0.000000000000000E+000
  0.000000000000000E+000
  0.000000000000000E+000
  0.000000000000000E+000
  0.000000000000000E+000
  0.000000000000000E+000
  0.000000000000000E+000
  0.000000000000000E+000
  0.000000000000000E+000
  0.000000000000000E+000
  0.000000000000000E+000
  0.000000000000000E+000
  0.000000000000000E+000
  0.000000000000000E+000
  0.000000000000000E+000
  0.000000000000000E+000
  0.000000000000000E+000
  0.000000000000000E+000
  0.000000000000000E+000
  0.000000000000000E+000
  0.000000000000000E+000
  0.000000000000000E+000
  0.000000000000000E+000
  0.000000000000000E+000
  0.000000000000000E+000
  0.000000000000000E+000
  0.000000000000000E+000
  0.000000000000000E+000
  0.000000000000000E+000
  0.000000000000000E+000
  0.000000000000000E+000
  0.000000000000000E+000
  0.000000000000000E+000
  0.000000000000000E+000
  0.000000000000000E+000
  0.000000000000000E+000
  0.000000000000000E+000
  0.000000000000000E+000
  0.000000000000000E+000
  0.000000000000000E+000
  0.000000000000000E+000
  0.000000000000000E+000
  0.000000000000000E+000
  0.000000000000000E+000
  0.000000000000000E+000
  0.000000000000000E+000
  0.000000000000000E+000
  0.000000000000000E+000
  0.000000000000000E+000
  0.000000000000000E+000
  0.000000000000000E+000
  0.000000000000000E+000
  0.000000000000000E+000
  0.000000000000000E+000
  0.000000000000000E+000
  0.000000000000000E+000
  0.000000000000000E+000
  0.000000000000000E+000
  0.000000000000000E+000
  0.000000000000000E+000
  0.000000000000000E+000
  0.000000000000000E+000
  0.000000000000000E+000
  0.000000000000000E+000
  0.000000000000000E+000
  0.000000000000000E+000
  0.000000000000000E+000
  0.000000000000000E+000
  0.000000000000000E+000
  0.000000000000000E+000
  0.000000000000000E+000
  0.000000000000000E+000
  0.000000000000000E+000
  0.000000000000000E+000
  0.000000000000000E+000
  0.000000000000000E+000
  0.000000000000000E+000
  0.000000000000000E+000
  0.000000000000000E+000
  0.000000000000000E+000
  0.000000000000000E+000
  0.000000000000000E+000
  0.000000000000000E+000
  0.000000000000000E+000
  0.000000000000000E+000
  0.000000000000000E+000
  0.000000000000000E+000
  0.000000000000000E+000
  0.000000000000000E+000
  0.000000000000000E+000
  0.000000000000000E+000
  0.000000000000000E+000
  0.000000000000000E+000
  0.000000000000000E+000
  0.000000000000000E+000
  0.000000000000000E+000
  0.000000000000000E+000
  0.000000000000000E+000
  0.000000000000000E+000
  0.000000000000000E+000
  0.000000000000000E+000
  0.000000000000000E+000
  0.000000000000000E+000
  0.000000000000000E+000
  0.000000000000000E+000
  0.000000000000000E+000
  0.000000000000000E+000
  0.000000000000000E+000
  0.000000000000000E+000
  0.000000000000000E+000
  0.000000000000000E+000
  0.000000000000000E+000
  0.000000000000000E+000
  0.000000000000000E+000
  0.000000000000000E+000
  0.000000000000000E+000
  0.000000000000000E+000
  0.000000000000000E+000
  0.000000000000000E+000
